label=Stress xy
num_items=16288

0:2.3799892958866503e-01
1:2.1663016249421715e-01
2:-5.1866739321233113e-01
3:-8.5723644549941602e-01
4:2.0321691268900860e-01
5:1.0181368934678038e-01
6:-1.0870646163334283e-01
7:-8.2437806218444543e-02
8:3.7802147229520439e-02
9:2.6373689051931853e-02
10:2.1306641330153242e-01
11:3.9461577515427576e-01
12:-9.0169505966517252e-02
13:-7.1122285763893017e-03
14:2.3547736321103269e-01
15:3.7044354419214309e-01
16:-7.3275758589773754e-01
17:-2.3007204624154672e-02
18:8.9530591338574139e-01
19:7.5376616227803095e-01
20:6.0389428721862551e-02
21:3.5988077328711798e-01
22:4.9642125400574211e-01
23:1.5890994171873640e-01
24:4.6260925843126177e-01
25:4.0738118026968861e-01
26:1.1544345626061557e-01
27:-1.2541659612525180e-01
28:3.7703440883189948e-01
29:2.4869380638281183e-01
30:-1.1330166256899546e-02
31:-1.1106942589090493e-01
32:1.3130785790511473e-01
33:-2.1040476749673873e+00
34:-6.7550325455743421e+00
35:-1.1336312541422876e+01
36:-2.3765927228827730e-01
37:-1.2084351571268466e+00
38:-2.9654606538946577e+00
39:-4.7766287998800907e+00
40:-2.0310743720500227e-01
41:-8.2687589431147707e-02
42:3.0352473927665002e-01
43:4.7109550329392902e-01
44:-7.2796626587675731e-02
45:2.4826416545039176e-01
46:9.1825794003009098e-01
47:1.3914170257007765e+00
48:-1.4042774668913673e+01
49:-1.9292176050594449e+01
50:-2.5253634079618831e+01
51:-2.8038547138039046e+01
52:-5.9363904045040981e+00
53:-8.3950011681242440e+00
54:-1.1319887489716052e+01
55:-1.2574171698459091e+01
56:4.2074579403452850e-01
57:3.3807360839616912e-02
58:-5.9056307104879091e-01
59:-7.3822837646832462e-01
60:1.5581451214318476e+00
61:1.6831537459508858e+00
62:1.7173133110857803e+00
63:1.8667946273887024e+00
64:-2.8562567700577183e+01
65:-2.7771385860944640e+01
66:-2.4361761298414343e+01
67:-2.0918281968667205e+01
68:-1.2672107029460760e+01
69:-1.1942006990431581e+01
70:-9.9470037413463643e+00
71:-8.2655628791373257e+00
72:-5.8489335036346735e-01
73:-5.2025089609688366e-02
74:7.1532103036558092e-01
75:1.0269982006946476e+00
76:2.0482110097499002e+00
77:2.4347541202661782e+00
78:2.7842292316255608e+00
79:2.7390023179260763e+00
80:-1.9083352814309407e+01
81:-1.5799642628261882e+01
82:-1.1800673260204883e+01
83:-8.9379842941010885e+00
84:-7.4940650179400761e+00
85:-6.1327079953329484e+00
86:-4.3883777093902827e+00
87:-3.0011971678031930e+00
88:1.0132451140252687e+00
89:9.1493524352949962e-01
90:8.3212382929679096e-01
91:9.1551413750698496e-01
92:2.5585929016101239e+00
93:2.1385791259697484e+00
94:1.6004426950442716e+00
95:1.3065758965417644e+00
96:-7.4854468858338450e+00
97:-5.0353656218698681e+00
98:-2.5657750995785458e+00
99:-1.3786692578485737e+00
100:-2.2398478528942531e+00
101:-1.0835271430736708e+00
102:-2.1527355717715824e-01
103:-7.6699762954692219e-02
104:1.0283193817323981e+00
105:1.0920213285642093e+00
106:8.6021761970443611e-01
107:4.7636348701975439e-01
108:1.2144654972384925e+00
109:1.0004952039755122e+00
110:6.3620942768626054e-01
111:3.2373907945678948e-01
112:-1.0344502911940621e+00
113:-7.8898160125975381e-01
114:-9.0793258018071710e-01
115:-1.0420919815344583e+00
116:-1.8322646286618460e-01
117:-4.0446100359866943e-01
118:-5.7561132353825695e-01
119:-5.2949623468777174e-01
120:2.2374787439744570e-01
121:-8.6144758700856999e-02
122:-1.7599340952749645e-01
123:-5.9057202934072052e-02
124:1.6224505822767268e-01
125:-9.5972993338893607e-03
126:-2.3827197755413053e-02
127:5.9004758672231448e-02
128:-1.0438596573845151e+00
129:-9.2596855513234699e-01
130:-6.4405121808963928e-01
131:-4.1945702444934885e-01
132:-4.2570859084314155e-01
133:-2.4148586693034704e-01
134:-7.7135682045170004e-02
135:-2.7097076100097185e-02
136:4.4567955762984564e-02
137:1.6811396358112521e-01
138:1.9286153798009606e-01
139:1.3641886910329118e-01
140:1.1272717045657774e-01
141:1.6055293585447139e-01
142:1.3796089895657698e-01
143:8.4475662822208045e-02
144:-3.2260517616643869e-01
145:-1.8256377212895500e-01
146:-6.5416731634561479e-02
147:-1.4452757094148866e-02
148:-2.9327299599934006e-02
149:-3.2912026553052788e-02
150:-2.6478526053775660e-02
151:-1.5061292325735987e-02
152:9.0984950823332189e-02
153:2.8141422921443594e-02
154:-1.0792972443629759e-02
155:-1.7278298651820512e-02
156:5.2885780147940577e-02
157:1.1156616169612374e-02
158:-1.3627671437014563e-02
159:-1.7752370950123466e-02
160:2.2271284882357488e-03
161:1.6096736220374892e-02
162:1.1720858048148762e-02
163:2.2487852630807730e-03
164:-7.8251373607932002e-03
165:-9.8427056741314856e-04
166:-1.2207934766179517e-03
167:-2.9419180983430953e-03
168:-1.5763544170259085e-02
169:-1.2890996762111251e-02
170:-9.4880282504254485e-03
171:-6.1093123815940502e-03
172:-1.7175800131608923e-02
173:-1.5119944966968913e-02
174:-1.1227886623959699e-02
175:-7.4772198970770318e-03
176:-1.6544448831853778e-03
177:-5.1382799224077153e-03
178:-4.4856128637389050e-03
179:-2.0819419732887451e-03
180:-2.8553921166912500e-03
181:-1.4763779614001328e-03
182:1.4077007001418850e-03
183:3.5749739116600777e-03
184:-3.8199500600177645e-03
185:-6.2562879484314533e-05
186:3.4622521271657496e-03
187:5.1311029482340028e-03
188:-5.3135058227516737e-03
189:-1.9951348398847628e-03
190:8.7381000388298436e-04
191:2.1465509745839254e-03
192:-7.4643143830824027e-04
193:1.4656317505979510e-03
194:3.7409859121702591e-03
195:4.9765466873925119e-03
196:4.4746219421058723e-03
197:5.8919588350710757e-03
198:7.3015128755886090e-03
199:8.0549437855907610e-03
200:5.6827692631896574e-03
201:6.4835495481217172e-03
202:7.2074757546448202e-03
203:7.5708121403967226e-03
204:2.5666034641661419e-03
205:3.1437306378548531e-03
206:3.6069205175282863e-03
207:3.8118793117018586e-03
208:5.4432362082069852e-03
209:5.9914620369627032e-03
210:6.2333437713171279e-03
211:6.2076646983201022e-03
212:8.3448120636593140e-03
213:8.7235357748111815e-03
214:9.0048377011574671e-03
215:9.1542098752561522e-03
216:7.7147328230198053e-03
217:7.9461207765039992e-03
218:8.2286238458592897e-03
219:8.4752314181616422e-03
220:3.8915937521100557e-03
221:4.0427105413604935e-03
222:4.2728822537024778e-03
223:4.4947993984794871e-03
224:6.1645888407277092e-03
225:6.0645503574633585e-03
226:5.9185690047358708e-03
227:5.8150445907129708e-03
228:9.2381665094862231e-03
229:9.4036591479198847e-03
230:9.6327094589202123e-03
231:9.8200217327351919e-03
232:8.6293460702018335e-03
233:8.9428664168417129e-03
234:9.3822007278004608e-03
235:9.7310664425711586e-03
236:4.6341759527704094e-03
237:4.9181024685252860e-03
238:5.3152031818316011e-03
239:5.6278763841429227e-03
240:5.7690427222993950e-03
241:5.7024874918550177e-03
242:5.6319399226317122e-03
243:5.5694390862857865e-03
244:9.9252150383060643e-03
245:1.0144739407358647e-02
246:1.0473100356394619e-02
247:1.0753254651484566e-02
248:9.9191693353283157e-03
249:1.0297257812408147e-02
250:1.0854282871991685e-02
251:1.1339167769170346e-02
252:5.7950999881729495e-03
253:6.1326524085624423e-03
254:6.6369833884871044e-03
255:7.0839652390211278e-03
256:5.5268023662671381e-03
257:5.4280360419374837e-03
258:5.2860849620525174e-03
259:5.1890377978019431e-03
260:1.0910811209988965e-02
261:1.1208477519410913e-02
262:1.1600443914148608e-02
263:1.1905768622838464e-02
264:1.1619005342653178e-02
265:1.2150793686055579e-02
266:1.2836233108045755e-02
267:1.3341769496285684e-02
268:7.3447353397025489e-03
269:7.8344824375100944e-03
270:8.4465414237441631e-03
271:8.8774641939006350e-03
272:5.1482192892149210e-03
273:5.0945614216961251e-03
274:5.0395220537105285e-03
275:4.9808540323138528e-03
276:1.2072615915720791e-02
277:1.2425105108265107e-02
278:1.2967960999660627e-02
279:1.3446886904518897e-02
280:1.3604359620731846e-02
281:1.4161307299034101e-02
282:1.5053431458837141e-02
283:1.5885803216010290e-02
284:9.0936331069634835e-03
285:9.5712714736051613e-03
286:1.0387295224312051e-02
287:1.1189601715301348e-02
288:4.9348133593769723e-03
289:4.8130074769885799e-03
290:4.6258042805139444e-03
291:4.4999013021713753e-03
292:1.3720179491628971e-02
293:1.4196329135626521e-02
294:1.4734939897084475e-02
295:1.5088074637360322e-02
296:1.6379464086887705e-02
297:1.7235338339119170e-02
298:1.8146052913259235e-02
299:1.8655203964638375e-02
300:1.1677154442972916e-02
301:1.2497295472132016e-02
302:1.3286067224092557e-02
303:1.3626506584870092e-02
304:4.4522814445720153e-03
305:4.4220182496604379e-03
306:4.4394018262254569e-03
307:4.4377393783682963e-03
308:1.5265553245225187e-02
309:1.5743543641186124e-02
310:1.6672681690635526e-02
311:1.7606917625636813e-02
312:1.8870702293490447e-02
313:1.9536316977531352e-02
314:2.1038187024875993e-02
315:2.2716450756854408e-02
316:1.3725208788731569e-02
317:1.4214742512610564e-02
318:1.5629369209019361e-02
319:1.7385788931751016e-02
320:4.4106391036813916e-03
321:4.2532812310679549e-03
322:3.9055895830304214e-03
323:3.6015989964007303e-03
324:1.8160118238497523e-02
325:1.8957683944506414e-02
326:1.9511016486479835e-02
327:1.9613678964522412e-02
328:2.3767881664196445e-02
329:2.5286863224899217e-02
330:2.6202335348841900e-02
331:2.6068343071526109e-02
332:1.8530726369310961e-02
333:2.0128294623491690e-02
334:2.0821205489497927e-02
335:2.0179206512671573e-02
336:3.4553669848311091e-03
337:3.3485162782408190e-03
338:3.4979384146360494e-03
339:3.7722392909262294e-03
340:1.9613000731530415e-02
341:2.0255089585795732e-02
342:2.2355381276748409e-02
343:2.4789747799313842e-02
344:2.5785999027195021e-02
345:2.6459747060411262e-02
346:2.9953054848042258e-02
347:3.4560914090344522e-02
348:1.9502668514119855e-02
349:1.9628321558767075e-02
350:2.3073091536952910e-02
351:2.8343118320965904e-02
352:3.9410263085521771e-03
353:3.9723990611619285e-03
354:3.2031891050262949e-03
355:1.8175448759217060e-03
356:2.6249480248255051e-02
357:2.7817589995004350e-02
358:2.7801734804956870e-02
359:2.6713569811777658e-02
360:3.7491147905035813e-02
361:4.0646437830139527e-02
362:4.0146798608933811e-02
363:3.6834430978703529e-02
364:3.1880805334201755e-02
365:3.5696906321852642e-02
366:3.4364520332225409e-02
367:2.8595717113978271e-02
368:7.7341882628574187e-04
369:-1.0365614606834619e-03
370:-1.7200465328130801e-03
371:2.0257609644523588e-04
372:2.6069708959338092e-02
373:2.7524739126962287e-02
374:3.3731332679938893e-02
375:4.0403042044025804e-02
376:3.4594023764325972e-02
377:3.5927221803994019e-02
378:4.7354189946780714e-02
379:6.1199301764033008e-02
380:2.4367555400239962e-02
381:2.2978579556107142e-02
382:3.4478437855177041e-02
383:5.2247778775489861e-02
384:2.4095241142134583e-03
385:7.8216847057817462e-03
386:1.4020493686592981e-02
387:1.5173072546746307e-02
388:4.4006459753133054e-02
389:4.7089732195615214e-02
390:4.5008924976955647e-02
391:4.0464523845391787e-02
392:6.9136737774925780e-02
393:7.5731821235401259e-02
394:7.0469586621232080e-02
395:5.9814729023035799e-02
396:6.3765967226276379e-02
397:7.6146784261194103e-02
398:7.4542726315314209e-02
399:6.2535984678219511e-02
400:1.3660228535889357e-02
401:8.0978897164661386e-03
402:2.8779510740818874e-03
403:7.0424708077790809e-03
404:3.7707795573626454e-02
405:3.5882348986839861e-02
406:4.1665295976211145e-02
407:5.3160767581407184e-02
408:5.3512869098004442e-02
409:5.0086617313712369e-02
410:6.0800175603370268e-02
411:7.7727287501866402e-02
412:5.3915533125633942e-02
413:4.6945105636710394e-02
414:5.5543087302792803e-02
415:7.2856322000480908e-02
416:1.4041396448955301e-02
417:3.5327296401936825e-02
418:7.5753111677517193e-02
419:1.1371225069480191e-01
420:6.1648329312824178e-02
421:7.5262316308450497e-02
422:8.6654866601439229e-02
423:9.0120899664828530e-02
424:8.8390925561957226e-02
425:1.0096870535074812e-01
426:1.0222791827763442e-01
427:9.2970685000308612e-02
428:8.4421439311652594e-02
429:9.9357525873722471e-02
430:1.0526738238792679e-01
431:1.0116001663968248e-01
432:-1.3285413754493930e-01
433:-2.6165151648540778e-02
434:1.5930253803543037e-01
435:2.3952887706860715e-01
436:-1.6804647101307849e-01
437:-7.0038018988020367e-02
438:1.0018980431382491e-02
439:2.9915510324106592e-02
440:-1.2917440807964370e-01
441:-1.3287554466377488e-01
442:-1.5670135790013659e-01
443:-1.3218110562514507e-01
444:-3.3206166807782614e-02
445:-1.7576447336253334e-01
446:-2.5822687146039269e-01
447:-1.8202837503438471e-01
448:2.3237965030494742e-01
449:1.4525477643484047e-01
450:-9.1893071234189702e-03
451:-6.8617782971327965e-02
452:2.6756608851803768e-02
453:2.9450011921028436e-02
454:2.2417665445507391e-02
455:-2.3906778441912122e-02
456:-8.8309615230894339e-02
457:1.5957981741275003e-02
458:8.1025875842154219e-02
459:-2.1862360218720088e-02
460:-8.1636958105444302e-02
461:8.0019899104801367e-02
462:1.2705453615728929e-01
463:-3.8244199566354747e-02
464:-4.9788866790242726e-02
465:1.2019845775818699e-01
466:4.8200755683534119e-01
467:7.4530693183750318e-01
468:-7.1730392477780902e-02
469:-1.8118329256909510e-01
470:-3.1063717438496857e-01
471:-3.5645188895525165e-01
472:-1.5625063171222917e-01
473:-4.7858377318082795e-01
474:-8.7596548547912534e-01
475:-1.0303487090053645e+00
476:-2.1226802852226981e-01
477:-5.4935308593725363e-01
478:-8.6453102617993705e-01
479:-9.0583201445637174e-01
480:8.4316101916049946e-01
481:9.2985330576433489e-01
482:1.0012736760964696e+00
483:1.1626853985267112e+00
484:-3.5188161820973346e-01
485:-3.2669676433595501e-01
486:-2.4933419504479162e-01
487:-1.3552954581035520e-01
488:-1.0270647326198528e+00
489:-9.7563920079378152e-01
490:-9.1223655908081946e-01
491:-9.2592937500760109e-01
492:-8.3603884852355936e-01
493:-7.1216760333067552e-01
494:-6.7340911844858364e-01
495:-8.0151473002709950e-01
496:1.3223426939659260e+00
497:1.6554668952323526e+00
498:1.9638957419735712e+00
499:1.9483010191503756e+00
500:-4.8872276213915336e-02
501:1.5711819130908999e-01
502:4.0793703065844683e-01
503:4.9098845921099044e-01
504:-9.6458524414461499e-01
505:-9.6362724118309706e-01
506:-8.2399417297505839e-01
507:-6.4461767545610293e-01
508:-9.3238483290829877e-01
509:-1.0876189089119104e+00
510:-1.0661269539005647e+00
511:-8.7685516295990584e-01
512:1.8135706838077315e+00
513:1.4793482715202104e+00
514:1.0292367635424344e+00
515:7.7431243566462926e-01
516:4.7046737191069871e-01
517:3.5129136552653462e-01
518:1.3314783425162471e-01
519:-3.6552036920294438e-03
520:-5.3890600603190442e-01
521:-4.1592429104243811e-01
522:-3.7286800389614422e-01
523:-3.8404081159017039e-01
524:-7.2360840008187710e-01
525:-4.9765053131292986e-01
526:-3.3742684444078902e-01
527:-2.9953405815677386e-01
528:6.9328736724425499e-01
529:5.3801539854794678e-01
530:3.1564747061372628e-01
531:1.4217270122691789e-01
532:-4.4416567031595133e-02
533:-8.5292655764981865e-02
534:-9.5645181191571796e-02
535:-8.7996728215748166e-02
536:-3.8978519986469973e-01
537:-3.5885289181292646e-01
538:-2.6394957925085705e-01
539:-1.8134802447816586e-01
540:-3.0024442530208606e-01
541:-2.7564752787684399e-01
542:-2.0631283489602420e-01
543:-1.4944836552048263e-01
544:5.6178595875708941e-02
545:-2.9933761644005782e-02
546:-2.7381059913195959e-02
547:1.9922667389759476e-02
548:-8.3391413968077699e-02
549:-7.4469362137594558e-02
550:-6.5063734451958830e-02
551:-6.2772190484516460e-02
552:-1.4447363532760241e-01
553:-1.0989193687419117e-01
554:-1.1183362922034157e-01
555:-1.2688461277339758e-01
556:-1.2599992762614712e-01
557:-1.0863658862407183e-01
558:-1.1628497112501160e-01
559:-1.2296992934905353e-01
560:4.6896024777023398e-02
561:6.8423306948061910e-02
562:5.3112674665651873e-02
563:2.5585112537781458e-02
564:-6.3807902933610980e-02
565:-6.2844574723767130e-02
566:-5.4911958645731909e-02
567:-4.4319517293126144e-02
568:-1.3237796137765179e-01
569:-1.2512398581133885e-01
570:-9.2413108918540945e-02
571:-6.1684311658313520e-02
572:-1.2017529435066493e-01
573:-1.0180587134393337e-01
574:-6.5309000095862615e-02
575:-3.9532030936500429e-02
576:1.0915287946284831e-02
577:-7.3313360662330979e-03
578:-1.6565318626926281e-02
579:-1.6998422351506916e-02
580:-3.7513492732700951e-02
581:-2.7157056714287864e-02
582:-1.8682735129018704e-02
583:-1.5461956999382362e-02
584:-4.7129182812925406e-02
585:-2.8292904490972465e-02
586:-1.6796491163705567e-02
587:-1.4170958557474600e-02
588:-2.9970301188484288e-02
589:-1.9141404927835899e-02
590:-1.4376245164849815e-02
591:-1.4188558401325362e-02
592:-1.6251446034820149e-02
593:-1.4387653156431337e-02
594:-1.1224369661500710e-02
595:-8.3225695010293380e-03
596:-1.4654133582602055e-02
597:-1.3335154815795282e-02
598:-1.1597167497883495e-02
599:-1.0140845835224951e-02
600:-1.3774749869782388e-02
601:-1.3344288610942123e-02
602:-1.3027294507719195e-02
603:-1.2771141239235480e-02
604:-1.4238650259967569e-02
605:-1.4398956174722984e-02
606:-1.4703225516860124e-02
607:-1.4865906558410635e-02
608:-6.6725615852510052e-03
609:-4.0986599392662890e-03
610:-1.7839031394673473e-03
611:-6.9100464961533033e-04
612:-9.3042264404158553e-03
613:-7.8989421872687586e-03
614:-6.4623649004679259e-03
615:-5.6766112425191539e-03
616:-1.2573041229287114e-02
617:-1.2119485100066043e-02
618:-1.1481102195036143e-02
619:-1.1048849113588140e-02
620:-1.4885676482845082e-02
621:-1.4803655174810674e-02
622:-1.4564079385617561e-02
623:-1.4367223353260088e-02
624:-3.0730052880378590e-04
625:2.1047395895698850e-04
626:5.9968307783874592e-04
627:7.5441247702039181e-04
628:-5.3717920946472295e-03
629:-4.9790852700780886e-03
630:-4.7300693362149916e-03
631:-4.6647853801837598e-03
632:-1.0868479689814775e-02
633:-1.0665383750893603e-02
634:-1.0602494270896013e-02
635:-1.0644952610717000e-02
636:-1.4286243172059584e-02
637:-1.4226780518754189e-02
638:-1.4288578990597108e-02
639:-1.4397383299055481e-02
640:8.1078085486733999e-04
641:9.2329180209651781e-04
642:1.1042586727169862e-03
643:1.2812088234158358e-03
644:-4.6498457931218760e-03
645:-4.6103040543388320e-03
646:-4.5285004184656020e-03
647:-4.4418031369794810e-03
648:-1.0679261525718457e-02
649:-1.0731716325043262e-02
650:-1.0779884254155507e-02
651:-1.0808177848804680e-02
652:-1.4462826178783708e-02
653:-1.4578682625863469e-02
654:-1.4721893204022613e-02
655:-1.4833147369190646e-02
656:1.3918720521934932e-03
657:1.6163994390813170e-03
658:1.9285955904420661e-03
659:2.1727528578648118e-03
660:-4.3871802509321840e-03
661:-4.2759520338605797e-03
662:-4.1214079644005409e-03
663:-4.0015964005513747e-03
664:-1.0822125311223283e-02
665:-1.0845522379172558e-02
666:-1.0872366140718751e-02
667:-1.0892192903219140e-02
668:-1.4894882655334117e-02
669:-1.5010706021694801e-02
670:-1.5160806091901059e-02
671:-1.5275362914231335e-02
672:2.3028006519808675e-03
673:2.5675647913587164e-03
674:2.9692838724123837e-03
675:3.3305905356659513e-03
676:-3.9383240374049290e-03
677:-3.8078932245872027e-03
678:-3.6038016426660330e-03
679:-3.4137561912695826e-03
680:-1.0903229060855764e-02
681:-1.0926426781198659e-02
682:-1.0957464868554208e-02
683:-1.0977735051514184e-02
684:-1.5336934968631118e-02
685:-1.5464092504063906e-02
686:-1.5653514163021010e-02
687:-1.5815345820703871e-02
688:3.5429313990552082e-03
689:3.9376566124927391e-03
690:4.4182241493173494e-03
691:4.7429334079744775e-03
692:-3.2997782924410221e-03
693:-3.0903881890372935e-03
694:-2.8483025716838800e-03
695:-2.7018358674689891e-03
696:-1.0986104281209330e-02
697:-1.0999419863439681e-02
698:-1.1023999465988357e-02
699:-1.1059004249653615e-02
700:-1.5906167032437434e-02
701:-1.6069841824706197e-02
702:-1.6272961445260529e-02
703:-1.6426240210555394e-02
704:4.9006448351570980e-03
705:5.2647838885791108e-03
706:5.9257333450735321e-03
707:6.6043490357808781e-03
708:-2.6381204356817063e-03
709:-2.4702019845520436e-03
710:-2.1109919237115625e-03
711:-1.7008151856830484e-03
712:-1.1085158045225672e-02
713:-1.1121225880525552e-02
714:-1.1116325246055350e-02
715:-1.1053485833952090e-02
716:-1.6509095406701060e-02
717:-1.6672317995428548e-02
718:-1.6892048511893791e-02
719:-1.7056842151928018e-02
720:7.0244344110721099e-03
721:7.7139986695237686e-03
722:8.3179783589916022e-03
723:8.4996934209637665e-03
724:-1.4352772067837631e-03
725:-1.0171217557888347e-03
726:-7.2598263345948042e-04
727:-7.5580613377846534e-04
728:-1.0997159250965630e-02
729:-1.0923345844025361e-02
730:-1.0955041776483220e-02
731:-1.1123917350045507e-02
732:-1.7141084175464536e-02
733:-1.7302056441208701e-02
734:-1.7547096488537736e-02
735:-1.7787230130424429e-02
736:8.5061987606166161e-03
737:8.8151481822133261e-03
738:9.9983793492261237e-03
739:1.1597147446722370e-02
740:-8.5711995130565962e-04
741:-8.1199452277011281e-04
742:-9.4044206242271724e-05
743:1.0685703427607688e-03
744:-1.1267183773935695e-02
745:-1.1415331637847562e-02
746:-1.1231987612729881e-02
747:-1.0715572719758943e-02
748:-1.7936140238549721e-02
749:-1.8157734480876823e-02
750:-1.8266363159524620e-02
751:-1.8167938150864621e-02
752:1.2669313354978968e-02
753:1.4131153427233086e-02
754:1.4584574943300390e-02
755:1.3655336381853768e-02
756:1.8918760092306143e-03
757:2.9847442859936165e-03
758:3.1097236523596550e-03
759:1.9842845201945899e-03
760:-1.0307333840334056e-02
761:-9.7862831243032532e-03
762:-9.9128979695152046e-03
763:-1.0835819660390661e-02
764:-1.8051001286594252e-02
765:-1.7956818112927618e-02
766:-1.8260404792329179e-02
767:-1.8940943661887935e-02
768:1.2774678183578130e-02
769:1.2482217558097962e-02
770:1.5474544292937754e-02
771:2.0607948649155088e-02
772:9.8668694851076805e-04
773:2.3053517731550925e-04
774:2.2689582308957333e-03
775:6.5673908110103346e-03
776:-1.1616382847510928e-02
777:-1.2400229868378722e-02
778:-1.1396117487330659e-02
779:-8.6670224596381486e-03
780:-1.9457994995769005e-02
781:-1.9972320051772546e-02
782:-1.9351942050223520e-02
783:-1.7661859169806390e-02
784:2.4182042289843646e-02
785:2.8082850830173846e-02
786:2.6365980535032769e-02
787:1.9467560217802431e-02
788:9.7341611567711202e-03
789:1.3305374199076259e-02
790:1.1451772314297278e-02
791:4.0805241259310558e-03
792:-6.5417603108940924e-03
793:-4.0296849826146341e-03
794:-5.3884952456400197e-03
795:-1.1078361207008712e-02
796:-1.6353208217161467e-02
797:-1.4836308888944867e-02
798:-1.5812711710893799e-02
799:-1.9537192630823121e-02
800:1.4233271503688413e-02
801:1.0843878211863348e-02
802:2.0869764161234584e-02
803:3.9516941303285938e-02
804:-1.7351300895664574e-03
805:-7.0063894115792820e-03
806:6.8622238526992892e-04
807:1.9228926735818330e-02
808:-1.5690096050931569e-02
809:-2.0022609965446705e-02
810:-1.3358705708918265e-02
811:3.3508293557986137e-03
812:-2.2489520445953939e-02
813:-2.4299832110507617e-02
814:-1.6457628482973483e-02
815:-1.0082466058499459e-03
816:5.2493347257105145e-02
817:6.8288849662460016e-02
818:7.0557428861490815e-02
819:5.9541700280207707e-02
820:3.3212173713233976e-02
821:5.2564578510505527e-02
822:6.0220665434343935e-02
823:5.1650648138302134e-02
824:1.6306138622032808e-02
825:3.5563420233227158e-02
826:4.5731151142198577e-02
827:3.9849898428419975e-02
828:1.0461565095366257e-02
829:2.7422912416712564e-02
830:3.6348909061827452e-02
831:3.1190013868612834e-02
832:5.0366523614362356e-02
833:4.1565517910700608e-02
834:4.7581715672469500e-02
835:6.3743503357457737e-02
836:4.2552520520296115e-02
837:3.2267987775634582e-02
838:3.5056620545650778e-02
839:4.9327181723223812e-02
840:3.2011432017751987e-02
841:2.2531158585108284e-02
842:2.4308764034450238e-02
843:3.7357887472623717e-02
844:2.4336635631231611e-02
845:1.6294028708169633e-02
846:1.8982929287604339e-02
847:3.2154729293941336e-02
848:7.5281325719591424e-02
849:9.1465273588576854e-02
850:1.0142753680408251e-01
851:1.0216833536793719e-01
852:6.0561131439224758e-02
853:7.8241735958065828e-02
854:9.3991965243734585e-02
855:1.0182052451048990e-01
856:4.8188670343606042e-02
857:6.6924787752890666e-02
858:8.7406518794399687e-02
859:1.0102716586863406e-01
860:4.2957954960224178e-02
861:6.2542169888359880e-02
862:8.5757231447146365e-02
863:1.0238634245085072e-01
864:4.1489649733135875e-02
865:-1.9505385322590540e-01
866:-3.0424629885793847e-01
867:-1.8804794547621592e-01
868:2.0960623801630623e-01
869:-2.3899022756143815e-01
870:-4.1038285094451937e-01
871:-2.0271403736119822e-01
872:4.2054508793507134e-01
873:-2.9309851098472889e-01
874:-5.3853612025832309e-01
875:-2.0843313510253686e-01
876:5.1925642368211100e-01
877:-3.1151722934431220e-01
878:-5.7542583989659524e-01
879:-1.7589297058029621e-01
880:-5.2800264700872929e-02
881:1.3283333524881913e-01
882:1.5347410216554008e-01
883:-4.1474357022439845e-02
884:1.4919939123749207e-02
885:2.7921537903686366e-01
886:2.8193313690845379e-01
887:3.3754942765541023e-02
888:1.2017149300610996e-01
889:5.1758340318105367e-01
890:5.5004455200769964e-01
891:2.4775137883983020e-01
892:2.1020298874288251e-01
893:6.9008249502381358e-01
894:7.6615426539021803e-01
895:4.4654875486876855e-01
896:-2.2187719420915838e-01
897:-5.1347731066891311e-01
898:-6.9716941913050745e-01
899:-6.2704862882145618e-01
900:-1.6903610176953798e-01
901:-4.2031127304253024e-01
902:-4.4698550705712614e-01
903:-2.4213949928202280e-01
904:2.7741214662362523e-03
905:-2.8322110017546082e-01
906:-2.9190430551331586e-01
907:-5.9502159295417717e-02
908:1.7484846951863472e-01
909:-1.7414267206183096e-01
910:-2.7291712637177240e-01
911:-1.0323398466560796e-01
912:-5.0853408456631433e-01
913:-3.3828794696405123e-01
914:-3.1402951960282194e-01
915:-4.9505818405776103e-01
916:-6.6830126608834875e-02
917:1.6470624727711036e-01
918:2.0275868519559689e-01
919:3.6373174761555036e-03
920:1.2638941887806782e-01
921:3.8931223656370878e-01
922:5.0261300631941686e-01
923:3.9331429538476598e-01
924:5.6844072207364954e-02
925:3.1503669323260325e-01
926:4.9960837910904354e-01
927:4.9122270190074785e-01
928:-6.6359617412754024e-01
929:-8.8918048161894825e-01
930:-9.4062850382729202e-01
931:-7.7851293055877535e-01
932:-1.7954028889362408e-01
933:-4.5831972368561058e-01
934:-6.1036656967187519e-01
935:-5.2697057350923038e-01
936:2.6644897017086178e-01
937:3.0895945914675239e-02
938:-1.8156102943423094e-01
939:-2.1312212104654080e-01
940:4.2707754827195377e-01
941:2.6194438131106745e-01
942:4.6248953501174639e-02
943:-5.0994794967203064e-02
944:-6.2599640752060104e-01
945:-3.8884657055520822e-01
946:-2.0886194745979325e-01
947:-1.6711081237646855e-01
948:-4.0935266838296996e-01
949:-2.0769902273038124e-01
950:-3.7276773672527214e-02
951:2.1008660866909498e-03
952:-1.7111879964865009e-01
953:-7.1176473182309338e-02
954:3.8835202746960104e-02
955:6.8932382290966002e-02
956:-6.0589011119202917e-02
957:-3.5849598261164295e-02
958:2.3651707579602978e-02
959:4.6548311749427591e-02
960:-1.7401657164911796e-01
961:-1.7216637896803322e-01
962:-1.4268347919671667e-01
963:-1.1463938587100421e-01
964:-1.1471929823525812e-02
965:-3.7725094964931177e-02
966:-5.9673548402355010e-02
967:-6.7306862002504839e-02
968:5.6878647899152250e-02
969:2.3572261402817034e-02
970:-1.8750987982533239e-02
971:-3.9224375825936353e-02
972:3.9395394715653828e-02
973:1.4325044330635412e-02
974:-2.0042224296608947e-02
975:-3.4232373180290765e-02
976:-1.0286693924961045e-01
977:-9.5889321524790891e-02
978:-1.0064573744315290e-01
979:-9.8843481970764008e-02
980:-6.8536612252032253e-02
981:-7.0545862217328142e-02
982:-6.7552732599338028e-02
983:-5.5234156473824160e-02
984:-4.3000964786837459e-02
985:-4.2453273744545827e-02
986:-3.0582914922718939e-02
987:-1.4966634651159808e-02
988:-3.4051120511414207e-02
989:-2.7476281944513958e-02
990:-1.2738779343982277e-02
991:-2.8969509164192140e-04
992:-9.1495199859282603e-02
993:-7.0486905830174862e-02
994:-3.9794847729729431e-02
995:-2.2443853626073474e-02
996:-4.3976841240889512e-02
997:-2.3820829663582541e-02
998:-5.4715565431145106e-03
999:-1.0742989062020873e-03
1000:-5.3604442602510670e-03
1001:7.2776840502154884e-03
1002:1.2099240889360785e-02
1003:7.2509236608695399e-03
1004:5.5142144323391280e-03
1005:1.1330895902447095e-02
1006:9.8509607633532302e-03
1007:3.1407520790498944e-03
1008:-1.7710270595697325e-02
1009:-1.3606556420246621e-02
1010:-1.3509402283379331e-02
1011:-1.4650561944042266e-02
1012:-2.8395173065947697e-03
1013:-7.4217404887528130e-03
1014:-1.3020171185015394e-02
1015:-1.5709758961684441e-02
1016:2.0874041441119283e-03
1017:-6.4752079213528961e-03
1018:-1.4153591479066484e-02
1019:-1.7295925537274683e-02
1020:-1.7827446178714113e-03
1021:-9.4594269601226705e-03
1022:-1.5985463778152745e-02
1023:-1.8651795208171024e-02
1024:-1.4911821969428361e-02
1025:-1.5295444390089301e-02
1026:-1.5743194805217322e-02
1027:-1.5972072424582099e-02
1028:-1.6271455726770755e-02
1029:-1.6993108005746393e-02
1030:-1.7640864944578109e-02
1031:-1.7942711058355276e-02
1032:-1.8051082538889728e-02
1033:-1.9038091695755200e-02
1034:-1.9852935681897919e-02
1035:-2.0209979092407432e-02
1036:-1.9391938516620959e-02
1037:-2.0404895298358074e-02
1038:-2.1254956710177662e-02
1039:-2.1634388010402943e-02
1040:-1.6032666129484632e-02
1041:-1.6051543594595194e-02
1042:-1.5966241879946975e-02
1043:-1.5881482334910445e-02
1044:-1.8046301876362060e-02
1045:-1.8191329080130117e-02
1046:-1.8323505240128060e-02
1047:-1.8408602479770549e-02
1048:-2.0338635823904275e-02
1049:-2.0569690095279338e-02
1050:-2.0870000837834152e-02
1051:-2.1100803082063295e-02
1052:-2.1772603036075849e-02
1053:-2.2032388933646081e-02
1054:-2.2392117310162100e-02
1055:-2.2682776972529763e-02
1056:-1.5850757399235759e-02
1057:-1.5860747832352501e-02
1058:-1.5977622724633926e-02
1059:-1.6114289216094594e-02
1060:-1.8457668241946390e-02
1061:-1.8581626028866899e-02
1062:-1.8796074649659145e-02
1063:-1.8987830730635195e-02
1064:-2.1224821486700886e-02
1065:-2.1466194385240240e-02
1066:-2.1800602285610517e-02
1067:-2.2072962671909977e-02
1068:-2.2842579813790950e-02
1069:-2.3150434646774805e-02
1070:-2.3571046803698571e-02
1071:-2.3911247275648799e-02
1072:-1.6193573950307474e-02
1073:-1.6339909594958749e-02
1074:-1.6531081305508049e-02
1075:-1.6684051247074238e-02
1076:-1.9095619513657985e-02
1077:-1.9302691053457131e-02
1078:-1.9585845231104879e-02
1079:-1.9816756313566594e-02
1080:-2.2224114895487139e-02
1081:-2.2519371783282355e-02
1082:-2.2929438884358704e-02
1083:-2.3264683164523774e-02
1084:-2.4099891780049870e-02
1085:-2.4469384323250389e-02
1086:-2.4983281067121051e-02
1087:-2.5402666966454233e-02
1088:-1.6769341444067092e-02
1089:-1.6930810722129156e-02
1090:-1.7142536180009074e-02
1091:-1.7305338374026719e-02
1092:-1.9945595015934871e-02
1093:-2.0193180355293411e-02
1094:-2.0525340138768410e-02
1095:-2.0785904638675769e-02
1096:-2.3451267042823878e-02
1097:-2.3815174359451397e-02
1098:-2.4315239766039984e-02
1099:-2.4716501628209882e-02
1100:-2.5635678863669086e-02
1101:-2.6093233066951167e-02
1102:-2.6729235955723123e-02
1103:-2.7245408180793677e-02
1104:-1.7392943506943519e-02
1105:-1.7572159230540889e-02
1106:-1.7837876660708029e-02
1107:-1.8066040722974536e-02
1108:-2.0927308772863969e-02
1109:-2.1210709200985490e-02
1110:-2.1620877677056418e-02
1111:-2.1968308011076000e-02
1112:-2.4936687684661847e-02
1113:-2.5369098483243653e-02
1114:-2.5976031610391800e-02
1115:-2.6477256579122293e-02
1116:-2.7530351343081939e-02
1117:-2.8084934237817560e-02
1118:-2.8851100168160455e-02
1119:-2.9474034697165672e-02
1120:-1.8195141641414031e-02
1121:-1.8430729634685752e-02
1122:-1.8723362306760208e-02
1123:-1.8938831508197428e-02
1124:-2.2164556366458470e-02
1125:-2.2531532866166222e-02
1126:-2.3001100275372575e-02
1127:-2.3351972514804843e-02
1128:-2.6757410716777907e-02
1129:-2.7294736409040350e-02
1130:-2.8011002554679951e-02
1131:-2.8567118391173121e-02
1132:-2.9819409478317856e-02
1133:-3.0489503135522612e-02
1134:-3.1401889952574362e-02
1135:-3.2126360789018482e-02
1136:-1.9052137913727320e-02
1137:-1.9277407215512202e-02
1138:-1.9597048615717830e-02
1139:-1.9859699166206869e-02
1140:-2.3536077372259386e-02
1141:-2.3893483724914739e-02
1142:-2.4394880289073873e-02
1143:-2.4813628975255363e-02
1144:-2.8864486193310997e-02
1145:-2.9423222356568059e-02
1146:-3.0167426731803799e-02
1147:-3.0762543643147039e-02
1148:-3.2518932403794019e-02
1149:-3.3247656866996662e-02
1150:-3.4191460458428573e-02
1151:-3.4921359736000336e-02
1152:-2.0004578492088764e-02
1153:-2.0274401456623837e-02
1154:-2.0631560695323004e-02
1155:-2.0919954165496805e-02
1156:-2.5050272292861851e-02
1157:-2.5501446938505500e-02
1158:-2.6089112214973682e-02
1159:-2.6528506054095676e-02
1160:-3.1093167893023441e-02
1161:-3.1751461347736286e-02
1162:-3.2663670824240598e-02
1163:-3.3381962792616085e-02
1164:-3.5318792518908210e-02
1165:-3.6125437302984918e-02
1166:-3.7286628907302874e-02
1167:-3.8241632162656795e-02
1168:-2.1078834263047252e-02
1169:-2.1329263888960261e-02
1170:-2.1537883232086889e-02
1171:-2.1595709339701070e-02
1172:-2.6752902009984609e-02
1173:-2.7110995703129418e-02
1174:-2.7481656326925129e-02
1175:-2.7725542140424993e-02
1176:-3.3758710426155303e-02
1177:-3.4349562507321525e-02
1178:-3.4933970901389805e-02
1179:-3.5297493633717064e-02
1180:-3.8758276254473804e-02
1181:-3.9573670652826354e-02
1182:-4.0355407583832541e-02
1183:-4.0789467956430084e-02
1184:-2.1595484430346971e-02
1185:-2.1698672790835167e-02
1186:-2.2125971303240920e-02
1187:-2.2730232728447861e-02
1188:-2.7858312654321770e-02
1189:-2.8233820631096956e-02
1190:-2.8946299348764765e-02
1191:-2.9616791297246349e-02
1192:-3.5491478230018920e-02
1193:-3.6072656268000915e-02
1194:-3.7192094885696393e-02
1195:-3.8225811340031925e-02
1196:-4.0996322477426600e-02
1197:-4.1665579582833769e-02
1198:-4.3063667321529199e-02
1199:-4.4450840376094404e-02
1200:-2.3133680678414488e-02
1201:-2.3461245291575037e-02
1202:-2.2843029607220559e-02
1203:-2.1491649983153272e-02
1204:-2.9975006935465363e-02
1205:-3.0144334629924753e-02
1206:-2.9423177295389707e-02
1207:-2.8286758832526206e-02
1208:-3.8767700804824459e-02
1209:-3.9069370530627208e-02
1210:-3.8193997922983454e-02
1211:-3.6809015269713620e-02
1212:-4.5222270986547332e-02
1213:-4.5801872833600057e-02
1214:-4.4909192731104733e-02
1215:-4.3189438024748061e-02
1216:-2.0507899066395652e-02
1217:-1.9479419009183013e-02
1218:-2.0392560879901368e-02
1219:-2.3177158589308723e-02
1220:-2.7573087779664333e-02
1221:-2.7047241190292202e-02
1222:-2.7975250511173042e-02
1223:-2.9748779237339255e-02
1224:-3.5967478563795105e-02
1225:-3.5427520965560517e-02
1226:-3.6454917978646646e-02
1227:-3.8050295456050071e-02
1228:-4.2068015038174263e-02
1229:-4.1191009229976594e-02
1230:-4.2230338588947133e-02
1231:-4.4184025248037259e-02
1232:-2.5243884646038571e-02
1233:-2.5392963287204442e-02
1234:-1.6207440850129214e-02
1235:-9.8213938188825684e-04
1236:-3.0789111208747843e-02
1237:-2.8792548024621469e-02
1238:-1.7565082387191896e-02
1239:-2.3205556861636764e-03
1240:-3.8794885155583318e-02
1241:-3.5806296559719612e-02
1242:-2.3163118932164235e-02
1243:-7.4333295042093780e-03
1244:-4.5216977184394436e-02
1245:-4.2487561527022794e-02
1246:-2.9635957585917534e-02
1247:-1.3424347978044631e-02
1248:9.7877489244271396e-03
1249:2.5231133658975637e-02
1250:3.2601779612322399e-02
1251:2.7159354081979160e-02
1252:7.6799518968172489e-03
1253:2.1232737023940716e-02
1254:2.6507920470935645e-02
1255:2.0685041979856413e-02
1256:2.4224707661761580e-03
1257:1.5255015881963572e-02
1258:1.9587288108108336e-02
1259:1.3779222078671912e-02
1260:-3.2450088805615839e-03
1261:1.0012222810687917e-02
1262:1.4685947027889968e-02
1263:9.1698084588539008e-03
1264:2.0605472691321507e-02
1265:1.3245176303309465e-02
1266:1.6737928551861680e-02
1267:3.0320403926853364e-02
1268:1.4577593613534777e-02
1269:8.2203826097638402e-03
1270:1.2804621396299593e-02
1271:2.6789359618210766e-02
1272:8.1122466006006907e-03
1273:2.5928356288455511e-03
1274:7.8028785874166146e-03
1275:2.1633242545211158e-02
1276:3.7160148635135069e-03
1277:-1.4824080128046570e-03
1278:3.7801831974278331e-03
1279:1.7215021930337356e-02
1280:4.1260921058253387e-02
1281:6.1469714843743382e-02
1282:8.6140610137956972e-02
1283:1.0419516757612950e-01
1284:3.7767660693301917e-02
1285:5.8627662582136829e-02
1286:8.5194670777482162e-02
1287:1.0522904540673411e-01
1288:3.2281792025416735e-02
1289:5.3022193116652017e-02
1290:8.0394122514111960e-02
1291:1.0156555845328671e-01
1292:2.7479845023639753e-02
1293:4.7629717197628881e-02
1294:7.4526218366445393e-02
1295:9.5503201145696465e-02
1296:5.3289004978347754e-01
1297:-3.0644836558295918e-01
1298:-5.5799471671031442e-01
1299:-1.3992020490588042e-01
1300:4.8842553407354089e-01
1301:-2.6050322899379846e-01
1302:-4.6732611014425329e-01
1303:-7.9668431817257440e-02
1304:3.4746173505885514e-01
1305:-1.5660481439806476e-01
1306:-2.9755655115623453e-01
1307:-4.7547093634587548e-02
1308:2.2436900449798952e-01
1309:-7.0091110392810518e-02
1310:-1.8230424950305732e-01
1311:-7.9718464038353504e-02
1312:2.5682933690722926e-01
1313:7.5863205695025160e-01
1314:8.5750543748152519e-01
1315:5.4140604234354783e-01
1316:2.7963507560687262e-01
1317:7.4226975612820578e-01
1318:8.4997662351265202e-01
1319:5.7139347289406051e-01
1320:1.8365984190840792e-01
1321:4.8193381162891552e-01
1322:5.4961316273135319e-01
1323:3.6335345931965701e-01
1324:2.6803778134887671e-02
1325:1.5996090493587661e-01
1326:1.7730959822597953e-01
1327:7.7837506484145447e-02
1328:2.6333110181099012e-01
1329:-1.1903865409218439e-01
1330:-2.8451842323069854e-01
1331:-1.6512739880280200e-01
1332:3.1706402055306399e-01
1333:-5.8082514332130193e-02
1334:-2.7004037233446870e-01
1335:-2.0471456689703674e-01
1336:1.9308172628546244e-01
1337:-5.9086246711234615e-02
1338:-1.9419681354777452e-01
1339:-1.2953611999341769e-01
1340:-6.8028774854451005e-03
1341:-1.1215781329217921e-01
1342:-1.1950375069472019e-01
1343:-2.3289926317938241e-02
1344:-2.5197724164892805e-02
1345:2.2321591620941889e-01
1346:4.3968300617689987e-01
1347:4.7794289131587775e-01
1348:-9.1688694715769695e-02
1349:1.3288437706766604e-01
1350:3.6222060269414424e-01
1351:4.3272017521654360e-01
1352:-3.5443428903646108e-02
1353:1.4320564709034683e-01
1354:3.0930488610956036e-01
1355:3.4033783811372981e-01
1356:5.9892562628362574e-02
1357:1.8692285652721863e-01
1358:2.6037089615468195e-01
1359:2.3002332773572415e-01
1360:4.4172027438754480e-01
1361:3.1131453686066524e-01
1362:1.0486794013186608e-01
1363:-1.0176498531779366e-02
1364:4.1755146220956568e-01
1365:3.1906347480297698e-01
1366:1.3387764862468302e-01
1367:1.6747030563884501e-02
1368:3.1171180849607349e-01
1369:2.1699331453936452e-01
1370:7.5221095230901813e-02
1371:1.0411034424201993e-03
1372:1.8166152344083675e-01
1373:9.0081634895034235e-02
1374:3.9592039764773518e-03
1375:-1.5689979798417623e-02
1376:-3.6257686025658563e-02
1377:-3.7114108057544101e-02
1378:3.6549772565423648e-03
1379:2.3896099365742454e-02
1380:-1.7190500538991977e-02
1381:-3.4408297094320202e-02
1382:-1.0856615097875926e-02
1383:3.9897558712749916e-03
1384:-1.3198915606078733e-02
1385:-1.3092250915932196e-02
1386:6.3573512464073188e-03
1387:1.0601196202021069e-02
1388:-5.6256318511389587e-03
1389:1.6223844852493736e-02
1390:3.1549370595460015e-02
1391:2.3035234527391212e-02
1392:1.9276568652042598e-02
1393:2.6131749531762123e-04
1394:-2.5838452897579016e-02
1395:-3.4265047712791916e-02
1396:4.0099989035044027e-04
1397:-1.3339019694258904e-02
1398:-2.9784012039693858e-02
1399:-3.1290826284757094e-02
1400:2.7045447023509891e-03
1401:-1.3240263980280189e-02
1402:-2.5938724226274190e-02
1403:-2.4256335163318439e-02
1404:9.5926508819021480e-03
1405:-1.0887277914846363e-02
1406:-2.2887405749210894e-02
1407:-2.0289151643501951e-02
1408:-3.1537811682572005e-02
1409:-2.2410222714241718e-02
1410:-8.2839028465857834e-03
1411:1.2810131280139943e-03
1412:-2.5886892056408248e-02
1413:-1.4987758206153027e-02
1414:-3.6819193336203627e-03
1415:1.1220901716500285e-03
1416:-1.8430267140577449e-02
1417:-9.1797220019070331e-03
1418:-2.9013736641760723e-03
1419:-2.5366934391372301e-03
1420:-1.5141639387807637e-02
1421:-8.2717153522959917e-03
1422:-5.6301748051375460e-03
1423:-7.3125646528673441e-03
1424:4.9859151861643769e-03
1425:7.9202363088569962e-03
1426:5.0026218226261240e-03
1427:-1.1789159141296704e-03
1428:1.8979841425725539e-03
1429:1.1133318659053595e-03
1430:-3.1439905942910384e-03
1431:-8.0706175813370917e-03
1432:-3.8017837862763357e-03
1433:-6.7291927306976293e-03
1434:-1.0909232216902480e-02
1435:-1.4130725399080146e-02
1436:-9.0816265448838557e-03
1437:-1.2042412646653736e-02
1438:-1.5033087702960003e-02
1439:-1.6840028895312976e-02
1440:-5.3438852142454777e-03
1441:-1.1745593952143637e-02
1442:-1.7145888913038962e-02
1443:-1.9397342020431526e-02
1444:-1.0958023470527982e-02
1445:-1.5280523501032648e-02
1446:-1.8873419961023943e-02
1447:-2.0431402105280654e-02
1448:-1.5747777212924041e-02
1449:-1.8092391618495903e-02
1450:-2.0012377605951110e-02
1451:-2.0900460346204488e-02
1452:-1.7675664894655753e-02
1453:-1.8896262643436065e-02
1454:-1.9950264655593686e-02
1455:-2.0509202603423732e-02
1456:-2.0072857737217373e-02
1457:-2.1029062215586120e-02
1458:-2.1861114980264048e-02
1459:-2.2249192032202884e-02
1460:-2.0965105478243075e-02
1461:-2.1774507414435020e-02
1462:-2.2548151951310460e-02
1463:-2.2958133663467627e-02
1464:-2.1258722283335162e-02
1465:-2.1867706540180689e-02
1466:-2.2557872872590558e-02
1467:-2.3007675888098295e-02
1468:-2.0770290291900102e-02
1469:-2.1265443260220666e-02
1470:-2.1915286721965133e-02
1471:-2.2402451455566109e-02
1472:-2.2393761866924017e-02
1473:-2.2664042623556563e-02
1474:-2.3039035191358182e-02
1475:-2.3346808988713944e-02
1476:-2.3126224575814248e-02
1477:-2.3435533905800308e-02
1478:-2.3854571896844427e-02
1479:-2.4197683807431047e-02
1480:-2.3221409488552943e-02
1481:-2.3609873388992435e-02
1482:-2.4114845305548815e-02
1483:-2.4515042893657951e-02
1484:-2.2654047989639003e-02
1485:-2.3111073806882331e-02
1486:-2.3693862956811893e-02
1487:-2.4144851883747206e-02
1488:-2.3518829009375117e-02
1489:-2.3854492087554170e-02
1490:-2.4318900404115402e-02
1491:-2.4696831654301598e-02
1492:-2.4391271061065235e-02
1493:-2.4775648154685352e-02
1494:-2.5317326094343728e-02
1495:-2.5762341829833321e-02
1496:-2.4737772444294676e-02
1497:-2.5183627103592093e-02
1498:-2.5818810290485973e-02
1499:-2.6344047714532678e-02
1500:-2.4391936939338700e-02
1501:-2.4885685108598371e-02
1502:-2.5589302417689450e-02
1503:-2.6171690900189920e-02
1504:-2.4906597935943645e-02
1505:-2.5317559751739691e-02
1506:-2.5889039044952714e-02
1507:-2.6355057068521960e-02
1508:-2.6009881683006733e-02
1509:-2.6495450092365713e-02
1510:-2.7171419963493412e-02
1511:-2.7722762345054480e-02
1512:-2.6636922488949510e-02
1513:-2.7212749279982289e-02
1514:-2.8016522519963841e-02
1515:-2.8673255601779687e-02
1516:-2.6496765732164314e-02
1517:-2.7136916888941633e-02
1518:-2.8032225639282957e-02
1519:-2.8764792164841988e-02
1520:-2.6613838424928527e-02
1521:-2.7122974339787290e-02
1522:-2.7833173712539676e-02
1523:-2.8411738459815560e-02
1524:-2.8028884067022808e-02
1525:-2.8631934212975170e-02
1526:-2.9475369503923241e-02
1527:-3.0164638585033276e-02
1528:-2.9038108306494503e-02
1529:-2.9756366076986954e-02
1530:-3.0760286685668225e-02
1531:-3.1580654467270937e-02
1532:-2.9171982543152168e-02
1533:-2.9972577257696285e-02
1534:-3.1089533212468518e-02
1535:-3.2000912092321220e-02
1536:-2.8731812993412056e-02
1537:-2.9353168277964248e-02
1538:-3.0207065423941738e-02
1539:-3.0897249036088644e-02
1540:-3.0546681311436882e-02
1541:-3.1286528330394442e-02
1542:-3.2297843730493388e-02
1543:-3.3110085116171591e-02
1544:-3.2035417473836043e-02
1545:-3.2915199322028785e-02
1546:-3.4114856668659245e-02
1547:-3.5075258533127228e-02
1548:-3.2505736937042257e-02
1549:-3.3482145133701027e-02
1550:-3.4812892278317305e-02
1551:-3.5877430988116500e-02
1552:-3.1278562096722057e-02
1553:-3.2020616298376534e-02
1554:-3.3037775128211190e-02
1555:-3.3851927207187812e-02
1556:-3.3556993971562553e-02
1557:-3.4428338900824432e-02
1558:-3.5629230847679959e-02
1559:-3.6597420050640650e-02
1560:-3.5602408095040922e-02
1561:-3.6629015925297569e-02
1562:-3.8043588748463107e-02
1563:-3.9185394009091414e-02
1564:-3.6461296956956088e-02
1565:-3.7596261629177181e-02
1566:-3.9156299033661801e-02
1567:-4.0413081729096599e-02
1568:-3.4295471101498880e-02
1569:-3.5117434661292218e-02
1570:-3.6173914657073862e-02
1571:-3.6980960476376189e-02
1572:-3.7127711349826870e-02
1573:-3.8111353638825653e-02
1574:-3.9370611683433435e-02
1575:-4.0323132811460931e-02
1576:-3.9811855998039609e-02
1577:-4.0978320035432010e-02
1578:-4.2476963093302317e-02
1579:-4.3610982284912093e-02
1580:-4.1102152587703646e-02
1581:-4.2388527019481752e-02
1582:-4.4047971745951035e-02
1583:-4.5308221030046988e-02
1584:-3.7416273709496524e-02
1585:-3.8301716201731922e-02
1586:-3.9589755413206466e-02
1587:-4.0666034808510755e-02
1588:-4.0832079790297522e-02
1589:-4.1862589261189249e-02
1590:-4.3365765182454087e-02
1591:-4.4635500951411861e-02
1592:-4.4215272127106034e-02
1593:-4.5424778126463325e-02
1594:-4.7168652856270095e-02
1595:-4.8634332451523994e-02
1596:-4.5980543489183366e-02
1597:-4.7315792976872655e-02
1598:-4.9219726613144783e-02
1599:-5.0805432911244244e-02
1600:-4.1256042821415838e-02
1601:-4.2197778288429147e-02
1602:-4.3103260172365966e-02
1603:-4.3588469586899548e-02
1604:-4.5339761946962986e-02
1605:-4.6486459947443326e-02
1606:-4.7614237325398212e-02
1607:-4.8216373377709565e-02
1608:-4.9448347424251186e-02
1609:-5.0800374930698854e-02
1610:-5.2178930424635915e-02
1611:-5.2947455176979893e-02
1612:-5.1682661781794231e-02
1613:-5.3153031830791293e-02
1614:-5.4685026158354140e-02
1615:-5.5569815285236919e-02
1616:-4.3806002805501773e-02
1617:-4.4512631046975497e-02
1618:-4.6030854069457644e-02
1619:-4.7590174621837525e-02
1620:-4.8474306028819067e-02
1621:-4.9267746966346053e-02
1622:-5.0973861714307490e-02
1623:-5.2773559401983319e-02
1624:-5.3281826137829565e-02
1625:-5.4211427163410528e-02
1626:-5.6112222591750818e-02
1627:-5.8100179534361876e-02
1628:-5.5965207537418252e-02
1629:-5.7002521736638757e-02
1630:-5.9030228311571432e-02
1631:-6.1105688535747202e-02
1632:-4.8483648998650028e-02
1633:-4.9241852008521145e-02
1634:-4.8402236776560928e-02
1635:-4.6530598092175239e-02
1636:-5.3834103222735560e-02
1637:-5.4845542729506015e-02
1638:-5.4096772375825677e-02
1639:-5.2024147334148535e-02
1640:-5.9278737584951335e-02
1641:-6.0466458434842101e-02
1642:-5.9772948265842125e-02
1643:-5.7543733297109996e-02
1644:-6.2326419868588986e-02
1645:-6.3561022240240059e-02
1646:-6.2847044300007732e-02
1647:-6.0526914689672938e-02
1648:-4.5254479572541619e-02
1649:-4.4148998276486079e-02
1650:-4.5146642198762299e-02
1651:-4.7351315541106380e-02
1652:-5.0534955274273499e-02
1653:-4.9128556409260643e-02
1654:-5.0147122346299249e-02
1655:-5.2830522317879346e-02
1656:-5.5895996726023515e-02
1657:-5.4328590316099268e-02
1658:-5.5593773768500394e-02
1659:-5.8937938721976176e-02
1660:-5.8809548385982555e-02
1661:-5.7243080818781746e-02
1662:-5.8846784258875164e-02
1663:-6.2749770122819445e-02
1664:-4.8627520710480501e-02
1665:-4.6262741644682435e-02
1666:-3.3549046921538352e-02
1667:-1.7096725056655972e-02
1668:-5.4538780549182646e-02
1669:-5.2766044641499588e-02
1670:-4.0105359752726825e-02
1671:-2.2981241771138781e-02
1672:-6.1162115528925552e-02
1673:-5.9948074418817464e-02
1674:-4.6901813313878542e-02
1675:-2.8478538163868770e-02
1676:-6.5358676094182735e-02
1677:-6.4463753911956079e-02
1678:-5.0853082147595714e-02
1679:-3.1177480489222469e-02
1680:-6.6569998798523527e-03
1681:7.0505937700943832e-03
1682:1.2155147763845296e-02
1683:6.8312309768372411e-03
1684:-1.1923689831791909e-02
1685:2.7245301640045605e-03
1686:8.4209669393277113e-03
1687:3.0131146154994187e-03
1688:-1.6396267772382480e-02
1689:-3.9619872883799132e-04
1690:5.6311046614456262e-03
1691:-6.7782003674977747e-04
1692:-1.8177370089980351e-02
1693:-1.0565168096800914e-03
1694:4.9910450991766230e-03
1695:-2.4434724740753444e-03
1696:1.4293883039718956e-03
1697:-3.7163504248449906e-03
1698:1.4707161958534170e-03
1699:1.4673374806965133e-02
1700:-2.6153962283520273e-03
1701:-8.1364483829385881e-03
1702:-3.3667635875855467e-03
1703:9.4686091398465174e-03
1704:-7.1557915593903013e-03
1705:-1.3983180759428566e-02
1706:-1.0259992190004699e-02
1707:2.1724847917973596e-03
1708:-9.8793054026303680e-03
1709:-1.8175864987264430e-02
1710:-1.5579343974163858e-02
1711:-3.4630148958751184e-03
1712:2.4740283307906702e-02
1713:4.4486354923690637e-02
1714:7.0823283127247894e-02
1715:9.1352016801436592e-02
1716:1.9289443000211015e-02
1717:3.8412466295378922e-02
1718:6.3632534408195274e-02
1719:8.3092840508483132e-02
1720:1.1863281395477179e-02
1721:3.0433760969791130e-02
1722:5.4272118244506749e-02
1723:7.2201257347113634e-02
1724:6.2072847765696666e-03
1725:2.4501360766711840e-02
1726:4.7442372527216448e-02
1727:6.4304414319326736e-02
1728:1.6789717510239188e-01
1729:-2.9452931215084407e-02
1730:-1.4023833444001296e-01
1731:-1.1897610669471263e-01
1732:8.7296053909159108e-02
1733:3.3356339804593259e-02
1734:-6.9669771977693792e-02
1735:-1.6118521710807465e-01
1736:2.7620553690876310e-02
1737:9.0929083690661813e-02
1738:1.6762653432154277e-02
1739:-1.3953241194768634e-01
1740:1.3089839141491630e-02
1741:1.1778853369885141e-01
1742:8.1187184610829258e-02
1743:-6.5037898238456307e-02
1744:-7.6925308027180173e-02
1745:-2.9721009749538767e-02
1746:-3.9354063288433272e-02
1747:-9.2693984428140058e-02
1748:-2.0985810322094323e-01
1749:-2.8182738380687367e-01
1750:-3.2380311064796546e-01
1751:-3.0624094471091462e-01
1752:-2.4654730808703185e-01
1753:-3.9093382797925030e-01
1754:-4.4089373636469376e-01
1755:-3.6571872447682746e-01
1756:-1.7389597108788946e-01
1757:-3.1519698618131470e-01
1758:-3.4943132118208320e-01
1759:-2.5847520581021827e-01
1760:-1.3090883014231733e-01
1761:-1.5216402948208380e-01
1762:-8.1365088539569599e-02
1763:3.4935915326315542e-02
1764:-2.7593397297950883e-01
1765:-1.7871643891409433e-01
1766:-9.1715704532647317e-03
1767:1.1928499327812812e-01
1768:-2.8596870438616939e-01
1769:-1.1758836289581091e-01
1770:8.4316231263512273e-02
1771:1.8509583804723823e-01
1772:-1.7162881500403676e-01
1773:-1.0132039827773595e-02
1774:1.5175992240892214e-01
1775:2.0944820219031765e-01
1776:1.1074738092981064e-01
1777:2.0381176650771360e-01
1778:2.1962334614398288e-01
1779:1.5629079646561775e-01
1780:1.7443067901610465e-01
1781:2.0786047628550261e-01
1782:1.4332753682262281e-01
1783:4.6004214319163156e-02
1784:2.0713697914016410e-01
1785:1.8255028545835553e-01
1786:7.2574992059341120e-02
1787:-2.3182272038296939e-02
1788:2.0867372304853216e-01
1789:1.6251134209361559e-01
1790:6.0046437518036497e-02
1791:-1.1910489961926835e-02
1792:1.0087765210202186e-01
1793:1.9218922078790713e-02
1794:-2.8102767875176234e-02
1795:-1.6459135935227159e-02
1796:-9.3657535479167702e-03
1797:-6.4260361607299685e-02
1798:-5.3953253287613537e-02
1799:-6.0761113222983550e-03
1800:-6.2274735194083088e-02
1801:-8.2637727231843636e-02
1802:-3.8242601278606084e-02
1803:1.5022906553227147e-02
1804:-3.5789797310662778e-02
1805:-4.2816505425054094e-02
1806:-7.7627227730906303e-03
1807:2.4282705123521674e-02
1808:5.2243996179798984e-03
1809:3.5068129404132946e-02
1810:4.3818016250627694e-02
1811:2.6847065099041702e-02
1812:2.4827493056998520e-02
1813:5.6001857254382031e-02
1814:5.0740427609781397e-02
1815:2.4062925564760852e-02
1816:3.8780931500159731e-02
1817:5.4675288578456188e-02
1818:3.5984584906214166e-02
1819:9.8102394285350079e-03
1820:3.4472420079162583e-02
1821:3.5353393855444414e-02
1822:1.5876678077454340e-02
1823:-6.8681203594272348e-04
1824:1.0509740797963555e-02
1825:-1.1932772748048909e-02
1826:-2.2927032085953897e-02
1827:-1.9576165287968423e-02
1828:6.5171633800181830e-03
1829:-1.4525380828154227e-02
1830:-2.1608292288546230e-02
1831:-1.7215705401311798e-02
1832:-2.5297844909432810e-03
1833:-1.4738765584731401e-02
1834:-1.5598208412169516e-02
1835:-1.1548182634404028e-02
1836:-5.9734724136026587e-03
1837:-9.4966528124473832e-03
1838:-7.3930966918057325e-03
1839:-5.5407966503190405e-03
1840:-1.4779761588885946e-02
1841:-9.0472691264145335e-03
1842:-7.9232759942522782e-03
1843:-1.0234109865505832e-02
1844:-1.3441527011781612e-02
1845:-9.9909569681482496e-03
1846:-1.1192188342393539e-02
1847:-1.4147451212870376e-02
1848:-9.8357644670360542e-03
1849:-9.6059520271229663e-03
1850:-1.2878019898819364e-02
1851:-1.5831369293067138e-02
1852:-5.8508718143865787e-03
1853:-8.0773416450530006e-03
1854:-1.2153793161371331e-02
1855:-1.4590036190542595e-02
1856:-1.1999233646132054e-02
1857:-1.4576812239358470e-02
1858:-1.6655476485561673e-02
1859:-1.7681112695231694e-02
1860:-1.5700694542889956e-02
1861:-1.7462065283518239e-02
1862:-1.8126665117728601e-02
1863:-1.8099093408995501e-02
1864:-1.6883382894930087e-02
1865:-1.7680122472169432e-02
1866:-1.7317168409057591e-02
1867:-1.6765483790745845e-02
1868:-1.5204865963264305e-02
1869:-1.5505297654875164e-02
1870:-1.5053793550182489e-02
1871:-1.4696906394107472e-02
1872:-1.8145662254171826e-02
1873:-1.8867142150971999e-02
1874:-1.9579928248593871e-02
1875:-2.0029998144360524e-02
1876:-1.8104850000768804e-02
1877:-1.8236566959707337e-02
1878:-1.8585283473619228e-02
1879:-1.8944384105458314e-02
1880:-1.6606958324529644e-02
1881:-1.6573667967171468e-02
1882:-1.6891670255490390e-02
1883:-1.7295260809835362e-02
1884:-1.4681116435334061e-02
1885:-1.4874849198419068e-02
1886:-1.5403358676691232e-02
1887:-1.5912694038799850e-02
1888:-2.0261146665084093e-02
1889:-2.0723268697476021e-02
1890:-2.1368451486897769e-02
1891:-2.1877183681536724e-02
1892:-1.9156628984110805e-02
1893:-1.9605411791999910e-02
1894:-2.0270073294435260e-02
1895:-2.0817298676604101e-02
1896:-1.7533813590018380e-02
1897:-1.8029750425113258e-02
1898:-1.8753195644142337e-02
1899:-1.9343256543882505e-02
1900:-1.6191504511670545e-02
1901:-1.6746444778884585e-02
1902:-1.7521594310121791e-02
1903:-1.8136430397781182e-02
1904:-2.2147232276816149e-02
1905:-2.2639054858168677e-02
1906:-2.3263990180132057e-02
1907:-2.3743731141367162e-02
1908:-2.1114314319918333e-02
1909:-2.1658683800760484e-02
1910:-2.2351885370800427e-02
1911:-2.2881635659376617e-02
1912:-1.9662640292784878e-02
1913:-2.0254041415934548e-02
1914:-2.1017075561764291e-02
1915:-2.1604309285547713e-02
1916:-1.8465728818591622e-02
1917:-1.9081251418892987e-02
1918:-1.9886898396548384e-02
1919:-2.0513540755606609e-02
1920:-2.4004730136845079e-02
1921:-2.4524805720819103e-02
1922:-2.5264383006426052e-02
1923:-2.5876083093093662e-02
1924:-2.3168022835089470e-02
1925:-2.3736371566581628e-02
1926:-2.4541760526803062e-02
1927:-2.5206899737463033e-02
1928:-2.1922016776454025e-02
1929:-2.2550753225566173e-02
1930:-2.3438924358686761e-02
1931:-2.4171183840882224e-02
1932:-2.0854037041442813e-02
1933:-2.1527323061697211e-02
1934:-2.2476991423807550e-02
1935:-2.3259077779485320e-02
1936:-2.6217573818421651e-02
1937:-2.6890484990591948e-02
1938:-2.7832372553381168e-02
1939:-2.8603510420601969e-02
1940:-2.5578217576810672e-02
1941:-2.6310458073660732e-02
1942:-2.7336352675018147e-02
1943:-2.8176817566426166e-02
1944:-2.4579792757712916e-02
1945:-2.5385636973628320e-02
1946:-2.6514670451180836e-02
1947:-2.7439499676943709e-02
1948:-2.3695237017106369e-02
1949:-2.4554845364912651e-02
1950:-2.5758022878066771e-02
1951:-2.6742656717097208e-02
1952:-2.9032224653667015e-02
1953:-2.9874510406054402e-02
1954:-3.1048303894135581e-02
1955:-3.2005110937319455e-02
1956:-2.8644138016115563e-02
1957:-2.9560993153674071e-02
1958:-3.0836060517961589e-02
1959:-3.1873552880025455e-02
1960:-2.7953560922509037e-02
1961:-2.8960369211497045e-02
1962:-3.0357075615272896e-02
1963:-3.1491164054424120e-02
1964:-2.7289589855649544e-02
1965:-2.8359473828001316e-02
1966:-2.9841241034159922e-02
1967:-3.1042767551917913e-02
1968:-3.2534808222351733e-02
1969:-3.3559209562806239e-02
1970:-3.4955172054813383e-02
1971:-3.6071678818290938e-02
1972:-3.2447354123913648e-02
1973:-3.3556879585562964e-02
1974:-3.5068564998941475e-02
1975:-3.6277306117794998e-02
1976:-3.2117690203129275e-02
1977:-3.3328994629763790e-02
1978:-3.4979018006340540e-02
1979:-3.6297918130751020e-02
1980:-3.1706083696016553e-02
1981:-3.2988361940397191e-02
1982:-3.4734691842307729e-02
1983:-3.6130095214467133e-02
1984:-3.6683909968462616e-02
1985:-3.7872819426929757e-02
1986:-3.9504513502539113e-02
1987:-4.0817172504470020e-02
1988:-3.6939864936546732e-02
1989:-3.8224189369577402e-02
1990:-3.9982091035513714e-02
1991:-4.1392852194541002e-02
1992:-3.7020502273244882e-02
1993:-3.8418077692744496e-02
1994:-4.0324939418104666e-02
1995:-4.1851144303164611e-02
1996:-3.6894267977629243e-02
1997:-3.8369912912825280e-02
1998:-4.0378902587132892e-02
1999:-4.1984078768634324e-02
2000:-4.1536360970350072e-02
2001:-4.2880106803422018e-02
2002:-4.4616481231036821e-02
2003:-4.5937616654449426e-02
2004:-4.2164818386407558e-02
2005:-4.3608554185901004e-02
2006:-4.5477614645299001e-02
2007:-4.6902491273733471e-02
2008:-4.2685167469701982e-02
2009:-4.4245971726519201e-02
2010:-4.6268487762818340e-02
2011:-4.7811145479758781e-02
2012:-4.2860571424470417e-02
2013:-4.4501559521369305e-02
2014:-4.6628608084378069e-02
2015:-4.8250396763690188e-02
2016:-4.6643083777615960e-02
2017:-4.8040197838768124e-02
2018:-5.0022711993069222e-02
2019:-5.1665939726711511e-02
2020:-4.7664018583013439e-02
2021:-4.9166723417411032e-02
2022:-5.1286318783599065e-02
2023:-5.3032930484659423e-02
2024:-4.8635412624268973e-02
2025:-5.0256413663003416e-02
2026:-5.2532489335626639e-02
2027:-5.4401508887674067e-02
2028:-4.9116194283194053e-02
2029:-5.0814019025783655e-02
2030:-5.3190794473453797e-02
2031:-5.5139790636852731e-02
2032:-5.2572522053385848e-02
2033:-5.4095470885674520e-02
2034:-5.5693852109697323e-02
2035:-5.6630342030493483e-02
2036:-5.3993391354272197e-02
2037:-5.5610644268131552e-02
2038:-5.7320864586442678e-02
2039:-5.8337338904721849e-02
2040:-5.5427783149502231e-02
2041:-5.7159764205495775e-02
2042:-5.8998881975190529e-02
2043:-6.0096783727874886e-02
2044:-5.6210094008055961e-02
2045:-5.8021229306300895e-02
2046:-5.9950115227515442e-02
2047:-6.1101423912562118e-02
2048:-5.7054272019555881e-02
2049:-5.8145308557005379e-02
2050:-6.0237018731221080e-02
2051:-6.2351228405866134e-02
2052:-5.8803020145324347e-02
2053:-5.9975319468136445e-02
2054:-6.2172029481797640e-02
2055:-6.4358785808068697e-02
2056:-6.0600019489292084e-02
2057:-6.1844912861988566e-02
2058:-6.4143743881474813e-02
2059:-6.6414900606023258e-02
2060:-6.1626556175093383e-02
2061:-6.2907989489199692e-02
2062:-6.5255693078733010e-02
2063:-6.7573066098705545e-02
2064:-6.3586644901739264e-02
2065:-6.4826348178100887e-02
2066:-6.4078164740191151e-02
2067:-6.1705477961971539e-02
2068:-6.5626360688370175e-02
2069:-6.6886148976621054e-02
2070:-6.6085447117449236e-02
2071:-6.3617585000863161e-02
2072:-6.7727609713159678e-02
2073:-6.9032835918312135e-02
2074:-6.8199895619523221e-02
2075:-6.5631194039103335e-02
2076:-6.8914693138509592e-02
2077:-7.0260077016702269e-02
2078:-6.9431505021719589e-02
2079:-6.6814755089942793e-02
2080:-5.9957183722539546e-02
2081:-5.8417187160630525e-02
2082:-6.0244894020835889e-02
2083:-6.4469827072286240e-02
2084:-6.1810389959172943e-02
2085:-6.0320457098693707e-02
2086:-6.2576651946319450e-02
2087:-6.7419754883594377e-02
2088:-6.3754092940274384e-02
2089:-6.2331656070746644e-02
2090:-6.5140223920495594e-02
2091:-7.0788125240434457e-02
2092:-6.4898357160525874e-02
2093:-6.3537894235043343e-02
2094:-6.6756893923427957e-02
2095:-7.2999751507211233e-02
2096:-6.7287729790913978e-02
2097:-6.6542502771093748e-02
2098:-5.2564270624350741e-02
2099:-3.2154338703553408e-02
2100:-7.0639571419228220e-02
2101:-7.0179239070262106e-02
2102:-5.5487451738572856e-02
2103:-3.3661729249570525e-02
2104:-7.4534863363926326e-02
2105:-7.4443109659900780e-02
2106:-5.8797364315640165e-02
2107:-3.5092374789994711e-02
2108:-7.7137274125426231e-02
2109:-7.7309283919072283e-02
2110:-6.0920721198188171e-02
2111:-3.5776250303608488e-02
2112:-1.8630356129003763e-02
2113:-8.8743362140726416e-04
2114:5.1192408791169829e-03
2115:-3.0167144949376449e-03
2116:-1.9130996986955934e-02
2117:-2.1589370813205976e-04
2118:5.6344269160450173e-03
2119:-3.9436149303028354e-03
2120:-1.9229224645866495e-02
2121:1.1953782628228557e-03
2122:6.6966642383118075e-03
2123:-4.9639242897298588e-03
2124:-1.8896824595765315e-02
2125:2.6493877305290400e-03
2126:7.7834682651262603e-03
2127:-5.5896562739833769e-03
2128:-1.1035470639493301e-02
2129:-2.0231180383941085e-02
2130:-1.8328889584025492e-02
2131:-6.4011289114903770e-03
2132:-1.3142417723408817e-02
2133:-2.4158611838816815e-02
2134:-2.3656071998645604e-02
2135:-1.2090455567977014e-02
2136:-1.5835583893328745e-02
2137:-2.9427974581949845e-02
2138:-3.0884136574459726e-02
2139:-1.9780305217773200e-02
2140:-1.7816595829188139e-02
2141:-3.3490561412984531e-02
2142:-3.6507681567775632e-02
2143:-2.5732516701305774e-02
2144:3.2671766491121487e-03
2145:2.1452017382614947e-02
2146:4.4004475038183118e-02
2147:6.0398838981180307e-02
2148:-2.4047931304524883e-03
2149:1.5662157568249624e-02
2150:3.7687443013979194e-02
2151:5.3422474850949954e-02
2152:-1.0023198840099480e-02
2153:8.0542662463965672e-03
2154:2.9736309169634399e-02
2155:4.4965196151341910e-02
2156:-1.5879858425461482e-02
2157:2.3202555711244258e-03
2158:2.3952274493469251e-02
2159:3.8997744033622314e-02
2160:1.5378952558703141e-02
2161:1.2622940681805597e-01
2162:1.1386055040628702e-01
2163:-8.4733372710989394e-03
2164:3.5434789643675184e-02
2165:1.2974325790952701e-01
2166:1.4456133993935913e-01
2167:7.0010560597853030e-02
2168:7.4609798077723694e-02
2169:1.1757153979205148e-01
2170:1.3592377869426772e-01
2171:1.1228757437948510e-01
2172:9.8135205976042209e-02
2173:1.0272346773206251e-01
2174:1.0817133002076959e-01
2175:1.0459426277826990e-01
2176:-1.0489091479846269e-01
2177:-2.2656426701929314e-01
2178:-2.4677398934625849e-01
2179:-1.5767606597809580e-01
2180:4.3431316212621078e-03
2181:-7.3263676680047504e-02
2182:-7.2189833041907014e-02
2183:6.9234847333878545e-04
2184:8.6528850760613382e-02
2185:6.0682978595439759e-02
2186:7.3346297641208522e-02
2187:1.1118432758686442e-01
2188:9.8675781690334433e-02
2189:9.4242832697908466e-02
2190:1.0029768744122490e-01
2191:1.0975988947064080e-01
2192:-7.7491339624414707e-02
2193:6.0846509435381578e-02
2194:1.8339626263512074e-01
2195:2.1491570285771081e-01
2196:5.9864391352066899e-02
2197:1.4845648959426028e-01
2198:2.0592407904426743e-01
2199:2.0366223924580676e-01
2200:1.3736942984649655e-01
2201:1.6709159602564858e-01
2202:1.7029290398174732e-01
2203:1.5352775022128415e-01
2204:1.1473495104980042e-01
2205:1.1551316049401265e-01
2206:1.0544036168785190e-01
2207:9.6073901241266954e-02
2208:2.0521673781940880e-01
2209:1.5746122189851441e-01
2210:7.1706324720959155e-02
2211:1.5958310682670368e-02
2212:1.8657388965515626e-01
2213:1.4547367859999935e-01
2214:8.9902996095184443e-02
2215:5.6600012144027975e-02
2216:1.4064871646132204e-01
2217:1.1856236394388668e-01
2218:9.3579657661398571e-02
2219:7.5616979669555023e-02
2220:9.2437609695597237e-02
2221:8.6788342588718453e-02
2222:7.7120850844172958e-02
2223:6.4153306340033370e-02
2224:-1.7646356369163806e-03
2225:-9.4774758116488219e-03
2226:8.4727717685696303e-03
2227:2.3380737971458433e-02
2228:4.5151593615412912e-02
2229:3.2311281821542540e-02
2230:2.3823415934567563e-02
2231:1.6506799219642588e-02
2232:6.5878937979010621e-02
2233:4.6373715916433446e-02
2234:2.1076728641785530e-02
2235:4.3380247917630659e-03
2236:5.4342471815598203e-02
2237:3.4258546370996214e-02
2238:1.0156287221938688e-02
2239:-2.5092748835551541e-03
2240:2.5810951433888941e-02
2241:2.0575186251552528e-02
2242:5.3141077010802219e-03
2243:-3.5957778538946916e-03
2244:1.0548997190567021e-02
2245:9.2485760856175303e-04
2246:-5.3557925460815271e-03
2247:-3.6628563716294624e-03
2248:-2.6727232019833733e-03
2249:-8.6643465383583178e-03
2250:-5.4516870349623657e-03
2251:2.0145658451899131e-03
2252:-5.9665191283754093e-03
2253:-6.5921587157228055e-03
2254:-1.6631547292180986e-04
2255:6.5221206015394304e-03
2256:-4.8604255812792580e-03
2257:-4.2529235903757748e-03
2258:-1.9371946393461662e-03
2259:-2.0066048628761676e-03
2260:-3.1556202578128143e-04
2261:4.2920310863580483e-03
2262:5.4713211800136207e-03
2263:2.4981893088392476e-03
2264:6.4766057074834267e-03
2265:1.0792584065090685e-02
2266:9.3823907305422578e-03
2267:4.5971296681712702e-03
2268:9.4701214977966630e-03
2269:1.1491749511031317e-02
2270:8.7365521285351286e-03
2271:4.2053451138370579e-03
2272:-3.4644052187780237e-03
2273:-6.8890125451188484e-03
2274:-1.1106112655726887e-02
2275:-1.3140887532515473e-02
2276:-3.4266530878816303e-04
2277:-5.0156152529021109e-03
2278:-9.0576895006138150e-03
2279:-1.0453852597190972e-02
2280:1.3764613550727148e-03
2281:-3.2479247067709817e-03
2282:-6.5255196839006466e-03
2283:-7.4042945287705955e-03
2284:1.5322171565309412e-03
2285:-2.1841466880724563e-03
2286:-4.7502466912601217e-03
2287:-5.4971726540357603e-03
2288:-1.3544664375224932e-02
2289:-1.3711441236791267e-02
2290:-1.3458218441985415e-02
2291:-1.3378507680768911e-02
2292:-1.0606681062633383e-02
2293:-1.0696168705011101e-02
2294:-1.0852404883207928e-02
2295:-1.1222300378751614e-02
2296:-7.4775684535906949e-03
2297:-7.7000819119141424e-03
2298:-8.3213868682962336e-03
2299:-9.0649843931180866e-03
2300:-5.6493556571688931e-03
2301:-6.0733149965598388e-03
2302:-6.9489352434111756e-03
2303:-7.8202233544263245e-03
2304:-1.3505196481032589e-02
2305:-1.3900033701966656e-02
2306:-1.4584154951821091e-02
2307:-1.5157254966455713e-02
2308:-1.1559913782822917e-02
2309:-1.2245687778459396e-02
2310:-1.3149783227107551e-02
2311:-1.3812151873813043e-02
2312:-9.5491933223997068e-03
2313:-1.0429730536323794e-02
2314:-1.1479215323479503e-02
2315:-1.2203798465765303e-02
2316:-8.3339795254471875e-03
2317:-9.2493559708224093e-03
2318:-1.0326992602828558e-02
2319:-1.1069171054277144e-02
2320:-1.5458499366802695e-02
2321:-1.6044556626788053e-02
2322:-1.6843900772545280e-02
2323:-1.7468556173940965e-02
2324:-1.4145847876439204e-02
2325:-1.4777015506871031e-02
2326:-1.5611781615092255e-02
2327:-1.6252049909591348e-02
2328:-1.2563121132594710e-02
2329:-1.3231461771616260e-02
2330:-1.4098952248975389e-02
2331:-1.4758309263713559e-02
2332:-1.1438870728458251e-02
2333:-1.2124586940125359e-02
2334:-1.3012505783923175e-02
2335:-1.3688725330765407e-02
2336:-1.7801472954639949e-02
2337:-1.8427188867032249e-02
2338:-1.9253021025220668e-02
2339:-1.9899513574217875e-02
2340:-1.6591606252996407e-02
2341:-1.7236306972902665e-02
2342:-1.8099818185870854e-02
2343:-1.8783562966713581e-02
2344:-1.5108124444177763e-02
2345:-1.5780035434394168e-02
2346:-1.6694260379866328e-02
2347:-1.7426884344413682e-02
2348:-1.4048939542379088e-02
2349:-1.4745388609932734e-02
2350:-1.5700781113827274e-02
2351:-1.6470965225204526e-02
2352:-2.0251815865977466e-02
2353:-2.0948366290823861e-02
2354:-2.1930297546291406e-02
2355:-2.2738516815654270e-02
2356:-1.9158109778254807e-02
2357:-1.9898409180697820e-02
2358:-2.0940798776136513e-02
2359:-2.1797838621292823e-02
2360:-1.7830375968361806e-02
2361:-1.8627252712667408e-02
2362:-1.9747220985877379e-02
2363:-2.0666514812147360e-02
2364:-1.6896205540679773e-02
2365:-1.7735230438019715e-02
2366:-1.8912430335291663e-02
2367:-1.9877276930070284e-02
2368:-2.3189079690124601e-02
2369:-2.4076531422191579e-02
2370:-2.5317578921814108e-02
2371:-2.6332379995551391e-02
2372:-2.2275246574207781e-02
2373:-2.3214241352130131e-02
2374:-2.4524693102181173e-02
2375:-2.5594282220450276e-02
2376:-2.1178033204966026e-02
2377:-2.2182246918096674e-02
2378:-2.3580013634320426e-02
2379:-2.4718186734625194e-02
2380:-2.0413656233557950e-02
2381:-2.1465542060960505e-02
2382:-2.2927488826973100e-02
2383:-2.4116365418113236e-02
2384:-2.6895777590813064e-02
2385:-2.7997212019282017e-02
2386:-2.9521501690589657e-02
2387:-3.0756742066735909e-02
2388:-2.6187432476672087e-02
2389:-2.7345900950171993e-02
2390:-2.8947111277038848e-02
2391:-3.0243334030875618e-02
2392:-2.5348485812024972e-02
2393:-2.6578205128791280e-02
2394:-2.8275516199520050e-02
2395:-2.9647826612520706e-02
2396:-2.4774227795616229e-02
2397:-2.6056825810644627e-02
2398:-2.7825356519503328e-02
2399:-2.9253895416365864e-02
2400:-3.1438454088164008e-02
2401:-3.2756182363791603e-02
2402:-3.4550511196299649e-02
2403:-3.5983947198922166e-02
2404:-3.0958297884466298e-02
2405:-3.2339913921167078e-02
2406:-3.4220441861585058e-02
2407:-3.5722037421119027e-02
2408:-3.0404188404681357e-02
2409:-3.1864761847285095e-02
2410:-3.3850833422320425e-02
2411:-3.5435347881131965e-02
2412:-3.0040744952701294e-02
2413:-3.1558839595539720e-02
2414:-3.3620671036323123e-02
2415:-3.5264019498456381e-02
2416:-3.6768752965632999e-02
2417:-3.8283002632052830e-02
2418:-4.0342319182600790e-02
2419:-4.1986358529797457e-02
2420:-3.6543797598498601e-02
2421:-3.8127153498269659e-02
2422:-4.0276338181946897e-02
2423:-4.1989466276979769e-02
2424:-3.6301959108750448e-02
2425:-3.7969325273389219e-02
2426:-4.0227720938136577e-02
2427:-4.2024429786104829e-02
2428:-3.6162298227749544e-02
2429:-3.7889252921619099e-02
2430:-4.0225453370123287e-02
2431:-4.2081682748671592e-02
2432:-4.2883766122046280e-02
2433:-4.4564403613637740e-02
2434:-4.6743252809129360e-02
2435:-4.8404126064851623e-02
2436:-4.2923922918919263e-02
2437:-4.4674905131945060e-02
2438:-4.6946350330157621e-02
2439:-4.8678008045196036e-02
2440:-4.3003470720643269e-02
2441:-4.4838818132354422e-02
2442:-4.7221817779454334e-02
2443:-4.9040095044310873e-02
2444:-4.3092348987302687e-02
2445:-4.4986882021786682e-02
2446:-4.7447631694875370e-02
2447:-4.9326691426159079e-02
2448:-4.9290280571322669e-02
2449:-5.1024743115759101e-02
2450:-5.3448076360402351e-02
2451:-5.5433626676627185e-02
2452:-4.9601385376627380e-02
2453:-5.1401701544875840e-02
2454:-5.3905061121742461e-02
2455:-5.5949827860448657e-02
2456:-5.0009682430473122e-02
2457:-5.1890853824992637e-02
2458:-5.4487734982157872e-02
2459:-5.6595710610100367e-02
2460:-5.0329076096894257e-02
2461:-5.2267955482177858e-02
2462:-5.4930227509467217e-02
2463:-5.7079415634547839e-02
2464:-5.6524211812221802e-02
2465:-5.8373545681249341e-02
2466:-6.0348107463884186e-02
2467:-6.1527383331079190e-02
2468:-5.7072073389174860e-02
2469:-5.8982866416064386e-02
2470:-6.1036421028848570e-02
2471:-6.2270138319510962e-02
2472:-5.7749287672564202e-02
2473:-5.9722024845547214e-02
2474:-6.1862100654616434e-02
2475:-6.3164603422632901e-02
2476:-5.8251753791785009e-02
2477:-6.0260128146656711e-02
2478:-6.2451344615304868e-02
2479:-6.3798880722798032e-02
2480:-6.2063795601273702e-02
2481:-6.3360572652147881e-02
2482:-6.5724031156286167e-02
2483:-6.8056625102252355e-02
2484:-6.2831502338317927e-02
2485:-6.4162086182128500e-02
2486:-6.6552499022646094e-02
2487:-6.8901356751391182e-02
2488:-6.3762078293266009e-02
2489:-6.5144506097536983e-02
2490:-6.7571980220005268e-02
2491:-6.9929239888204361e-02
2492:-6.4422472936635500e-02
2493:-6.5846360861896783e-02
2494:-6.8306951693393930e-02
2495:-7.0670028529001269e-02
2496:-6.9409127244928509e-02
2497:-7.0774357925973697e-02
2498:-6.9957777855603656e-02
2499:-6.7328851953463290e-02
2500:-7.0263758887638833e-02
2501:-7.1651650085961346e-02
2502:-7.0856971893429696e-02
2503:-6.8224166745398662e-02
2504:-7.1291052594017440e-02
2505:-7.2685400153629731e-02
2506:-7.1910310573383027e-02
2507:-6.9294422758560154e-02
2508:-7.2027805929169353e-02
2509:-7.3416469334118134e-02
2510:-7.2645833207949831e-02
2511:-7.0047048975243026e-02
2512:-6.5399420589690060e-02
2513:-6.4079107475664226e-02
2514:-6.7511608813751275e-02
2515:-7.4058642932991664e-02
2516:-6.6287881723518363e-02
2517:-6.5072048721635176e-02
2518:-6.8923701018320863e-02
2519:-7.6033276021343271e-02
2520:-6.7373699202415510e-02
2521:-6.6341346361896925e-02
2522:-7.0780359554594566e-02
2523:-7.8621685151865892e-02
2524:-6.8147388716104637e-02
2525:-6.7279644557073942e-02
2526:-7.2197964950380819e-02
2527:-8.0607694242194688e-02
2528:-7.8395540287951190e-02
2529:-7.8696468932548350e-02
2530:-6.1908875945127013e-02
2531:-3.6004499105980858e-02
2532:-8.0730705885501991e-02
2533:-8.1248726171215493e-02
2534:-6.3694243839073697e-02
2535:-3.6369383384047618e-02
2536:-8.3772785863476973e-02
2537:-8.4537884344537656e-02
2538:-6.5951164490473474e-02
2539:-3.6778677660988357e-02
2540:-8.6101871688270826e-02
2541:-8.7040371047037352e-02
2542:-6.7644489756058107e-02
2543:-3.7058119107591832e-02
2544:-1.8590770589198419e-02
2545:3.5349891846928124e-03
2546:8.4418498342753480e-03
2547:-5.8735066887631417e-03
2548:-1.7964773237567531e-02
2549:5.2190934384443383e-03
2550:9.6533525684163717e-03
2551:-6.4673956462650388e-03
2552:-1.7099280743822692e-02
2553:7.4197389860876511e-03
2554:1.1169051013590612e-02
2555:-7.3578211769262840e-03
2556:-1.6411949908766134e-02
2557:9.1055117279921841e-03
2558:1.2296523921330226e-02
2559:-8.0939887351264839e-03
2560:-1.8839664985871359e-02
2561:-3.5646253794151816e-02
2562:-3.9503246734691209e-02
2563:-2.8888896502279340e-02
2564:-2.0839426358281191e-02
2565:-3.9792704770208652e-02
2566:-4.5220554162725475e-02
2567:-3.4875292451692387e-02
2568:-2.3587339588610656e-02
2569:-4.5366190390079129e-02
2570:-5.2830326635174979e-02
2571:-4.2784928214088795e-02
2572:-2.5753564652488289e-02
2573:-4.9703343062353661e-02
2574:-5.8717325737039722e-02
2575:-4.8875096338617995e-02
2576:-1.8969819363731957e-02
2577:-6.6729396240657057e-04
2578:2.0997873953984444e-02
2579:3.5997749955095262e-02
2580:-2.4803611954359716e-02
2581:-6.2479477983852791e-03
2582:1.5571517439250308e-02
2583:3.0564532501960881e-02
2584:-3.2470973586330880e-02
2585:-1.3482985620595233e-02
2586:8.7076906382758529e-03
2587:2.3847823390429995e-02
2588:-3.8353055293919254e-02
2589:-1.8970866519242818e-02
2590:3.6262069633389024e-03
2591:1.9001310494056879e-02
2592:1.0330385384305020e-01
2593:9.4888524104168689e-02
2594:9.1228374852220129e-02
2595:8.9350495635980631e-02
2596:9.5869944251013015e-02
2597:7.9446268326090363e-02
2598:6.6987832892638391e-02
2599:6.3973836580820814e-02
2600:6.5378635387280365e-02
2601:5.9367901524180207e-02
2602:4.9060385159841999e-02
2603:4.2473934093340542e-02
2604:3.8148355330524006e-02
2605:4.5942356219327768e-02
2606:4.3169834581984770e-02
2607:3.5418208780787636e-02
2608:8.7478350719261522e-02
2609:8.4656920652097289e-02
2610:8.1580104373194726e-02
2611:7.8328495708927887e-02
2612:6.4061587648913912e-02
2613:5.8635606788089524e-02
2614:4.1738860908888710e-02
2615:2.4045332008979407e-02
2616:3.9829107445699702e-02
2617:2.8217064088145286e-02
2618:3.3684219614084879e-03
2619:-1.8205971831919243e-02
2620:3.0342428371131512e-02
2621:1.6592414430700423e-02
2622:-6.0737733372511005e-03
2623:-2.3049191550145655e-02
2624:7.5851282812417195e-02
2625:6.9866070444885228e-02
2626:6.3182403015189403e-02
2627:6.2395031031394842e-02
2628:1.4239612374652469e-02
2629:3.7542327247050197e-03
2630:5.3551072577859111e-03
2631:1.6496299891820058e-02
2632:-2.8578854252478240e-02
2633:-3.6158446634363205e-02
2634:-2.6531546843061121e-02
2635:-9.4873041712335848e-03
2636:-3.0346196828156233e-02
2637:-3.3813637764274970e-02
2638:-2.2713760679300359e-02
2639:-7.6090820548165893e-03
2640:6.4215529637479632e-02
2641:6.6049566633806164e-02
2642:6.1382209787103216e-02
2643:4.9926253970171058e-02
2644:2.4876245631382507e-02
2645:3.5281786460378141e-02
2646:3.6371700184577700e-02
2647:2.7555514099491363e-02
2648:9.4412056233401378e-04
2649:1.3529165418112082e-02
2650:1.6468246253800844e-02
2651:1.0244374941557482e-02
2652:8.0364725299694587e-04
2653:1.0141757768639846e-02
2654:1.1020651964546414e-02
2655:5.4692682892643644e-03
2656:4.0605779928895275e-02
2657:2.2876389718900020e-02
2658:4.0066622230824148e-03
2659:-3.9498864532271066e-03
2660:1.9813367401380039e-02
2661:7.0292619347098670e-03
2662:-3.1110800619562912e-03
2663:-4.3822105320517344e-03
2664:4.8318166655296670e-03
2665:-2.5654087015544581e-03
2666:-5.4837687932665037e-03
2667:-2.5415939150946684e-03
2668:1.2973240384518082e-03
2669:-3.7141024815992760e-03
2670:-4.2942233469389079e-03
2671:-6.5694284318949770e-04
2672:-5.0377764073082408e-03
2673:-3.2815732234523112e-03
2674:2.8958028061205473e-03
2675:7.7882324927506970e-03
2676:-2.5338870612123909e-03
2677:1.7326809654405987e-03
2678:6.7049709651473268e-03
2679:8.8492091801524748e-03
2680:6.3588341576776262e-04
2681:5.4913511150310448e-03
2682:8.8034353227117185e-03
2683:9.0262332612323064e-03
2684:2.3925136067546602e-03
2685:6.7517995405117536e-03
2686:9.3400853680932830e-03
2687:9.1985666631051750e-03
2688:9.5668865951203108e-03
2689:1.0310785001792713e-02
2690:7.4554260030208807e-03
2691:3.6135422853917345e-03
2692:9.0748163163807734e-03
2693:8.2898556447966974e-03
2694:5.6567569654960388e-03
2695:2.9750209582689409e-03
2696:8.3891691083031114e-03
2697:6.9390946805108194e-03
2698:4.8385043890047559e-03
2699:3.1165467599864423e-03
2700:8.5025492147704062e-03
2701:7.1067283173498795e-03
2702:5.2757615961707581e-03
2703:3.8226873404119126e-03
2704:1.4255013591535739e-03
2705:-1.6502495855223141e-03
2706:-3.8810199073717822e-03
2707:-4.6498527126925607e-03
2708:1.5140959867293419e-03
2709:-6.3239680793147728e-04
2710:-2.4166504990200026e-03
2711:-3.2518475597454522e-03
2712:2.1892590779662010e-03
2713:6.9913152799402911e-04
2714:-8.1151588252235691e-04
2715:-1.7409100350963453e-03
2716:3.0296226889606464e-03
2717:1.6902013520031592e-03
2718:2.0705998594721967e-04
2719:-7.9047355090877680e-04
2720:-4.8748969646871228e-03
2721:-5.4151799496065210e-03
2722:-6.3783773763649524e-03
2723:-7.2668138714170683e-03
2724:-3.5945966108797698e-03
2725:-4.3121428949668712e-03
2726:-5.3939801504551948e-03
2727:-6.2927186878951897e-03
2728:-2.1915229157791053e-03
2729:-3.0614494591388766e-03
2730:-4.2288752908017230e-03
2731:-5.1171613769900601e-03
2732:-1.2937131421328354e-03
2733:-2.2294403766676988e-03
2734:-3.4180866232497885e-03
2735:-4.2838449548710991e-03
2736:-7.7735699921070676e-03
2737:-8.6774891181641209e-03
2738:-9.7495807888723016e-03
2739:-1.0494227498838094e-02
2740:-6.7808993984339646e-03
2741:-7.6557503576904096e-03
2742:-8.7100085645702083e-03
2743:-9.4549428246595568e-03
2744:-5.5786147295002839e-03
2745:-6.4118188930028996e-03
2746:-7.4369366375946272e-03
2747:-8.1779294014939531e-03
2748:-4.7240169108059967e-03
2749:-5.5245695281021931e-03
2750:-6.5260378532604650e-03
2751:-7.2634651101040450e-03
2752:-1.0867295547274277e-02
2753:-1.1560042665339264e-02
2754:-1.2458919300169163e-02
2755:-1.3145867272544638e-02
2756:-9.8324242226557421e-03
2757:-1.0536845122373429e-02
2758:-1.1457915250172777e-02
2759:-1.2168338832690126e-02
2760:-8.5593262864108056e-03
2761:-9.2781677955410986e-03
2762:-1.0231349100202587e-02
2763:-1.0976812461273758e-02
2764:-7.6479712067919307e-03
2765:-8.3790017541162144e-03
2766:-9.3591117352557814e-03
2767:-1.0132899589379674e-02
2768:-1.3512908066145485e-02
2769:-1.4224276164292806e-02
2770:-1.5202760295723100e-02
2771:-1.5992974288751204e-02
2772:-1.2550418234342156e-02
2773:-1.3293028827949619e-02
2774:-1.4317042021134601e-02
2775:-1.5145088280672295e-02
2776:-1.1381120907757213e-02
2777:-1.2168252668656711e-02
2778:-1.3254314322123061e-02
2779:-1.4132253710759678e-02
2780:-1.0554667558505449e-02
2781:-1.1376452093790394e-02
2782:-1.2510564264420711e-02
2783:-1.3427151558628950e-02
2784:-1.6429547049481262e-02
2785:-1.7290374928435444e-02
2786:-1.8496949348533041e-02
2787:-1.9485018714037933e-02
2788:-1.5602615353505473e-02
2789:-1.6503512816902443e-02
2790:-1.7763726105209720e-02
2791:-1.8793959802131999e-02
2792:-1.4616969678476652e-02
2793:-1.5569551569831256e-02
2794:-1.6898482612865324e-02
2795:-1.7982412013423082e-02
2796:-1.3932975946292269e-02
2797:-1.4925605936386916e-02
2798:-1.6307613432641980e-02
2799:-1.7432910160229447e-02
2800:-2.0034034657823774e-02
2801:-2.1110311540566279e-02
2802:-2.2605456555938638e-02
2803:-2.3820836188077621e-02
2804:-1.9365866549943853e-02
2805:-2.0486684441278585e-02
2806:-2.2043212329376779e-02
2807:-2.3308138294192225e-02
2808:-1.8583399489444243e-02
2809:-1.9761248315610578e-02
2810:-2.1397292853332830e-02
2811:-2.2727035215709620e-02
2812:-1.8056278066439013e-02
2813:-1.9278100229637350e-02
2814:-2.0975606578672198e-02
2815:-2.2355529825655193e-02
2816:-2.4493194195313751e-02
2817:-2.5803598653859429e-02
2818:-2.7609514402340506e-02
2819:-2.9067494801244428e-02
2820:-2.4007753404917710e-02
2821:-2.5370347201696609e-02
2822:-2.7246218356681083e-02
2823:-2.8759182668715813e-02
2824:-2.3462465612177741e-02
2825:-2.4893141764013034e-02
2826:-2.6859288369829992e-02
2827:-2.8442592343681624e-02
2828:-2.3118672388507174e-02
2829:-2.4601383073353258e-02
2830:-2.6635246151460248e-02
2831:-2.8270439010486453e-02
2832:-2.9870263962394318e-02
2833:-3.1418125142386490e-02
2834:-3.3518650532832150e-02
2835:-3.5191711164119718e-02
2836:-2.9591647142434552e-02
2837:-3.1194720053272902e-02
2838:-3.3366271254135743e-02
2839:-3.5093230285530831e-02
2840:-2.9312874339360601e-02
2841:-3.0986042575521480e-02
2842:-3.3247168227552575e-02
2843:-3.5041467495102903e-02
2844:-2.9168376663163999e-02
2845:-3.0892961043849542e-02
2846:-3.3220081589053770e-02
2847:-3.5064088120894191e-02
2848:-3.6105897850047940e-02
2849:-3.7862932941519843e-02
2850:-4.0238656689789688e-02
2851:-4.2125216836417165e-02
2852:-3.6036059454287318e-02
2853:-3.7847414433518974e-02
2854:-4.0295037123373352e-02
2855:-4.2237268953686846e-02
2856:-3.6019833299356888e-02
2857:-3.7898631336244340e-02
2858:-4.0435992626262504e-02
2859:-4.2448312776283109e-02
2860:-3.6068669295357979e-02
2861:-3.7997029065671442e-02
2862:-4.0600150289622605e-02
2863:-4.2663890088910736e-02
2864:-4.3151984102187985e-02
2865:-4.5076289033177723e-02
2866:-4.7575656943180965e-02
2867:-4.9484803781156869e-02
2868:-4.3293752722521776e-02
2869:-4.5272553263814644e-02
2870:-4.7841303119532406e-02
2871:-4.9803289495991519e-02
2872:-4.3542443215250595e-02
2873:-4.5589729172879477e-02
2874:-4.8243695087469958e-02
2875:-5.0268441947752908e-02
2876:-4.3785706010776554e-02
2877:-4.5883176057578211e-02
2878:-4.8598634774353833e-02
2879:-5.0667427937639668e-02
2880:-5.0503487682785127e-02
2881:-5.2471442490052846e-02
2882:-5.5166903027875885e-02
2883:-5.7336623086186429e-02
2884:-5.0850175727242181e-02
2885:-5.2868650929416026e-02
2886:-5.5622876604871120e-02
2887:-5.7830376915581565e-02
2888:-5.1347981019488356e-02
2889:-5.3424901184297879e-02
2890:-5.6248674768955183e-02
2891:-5.8503531843314832e-02
2892:-5.1769320197231170e-02
2893:-5.3885897253690127e-02
2894:-5.6757458022468940e-02
2895:-5.9046452628678484e-02
2896:-5.8517920071247474e-02
2897:-6.0542027635161394e-02
2898:-6.2754756145676799e-02
2899:-6.4121895386005587e-02
2900:-5.9028822983979191e-02
2901:-6.1082037545368471e-02
2902:-6.3330961111700293e-02
2903:-6.4727923111230906e-02
2904:-5.9724827893642161e-02
2905:-6.1816022461338695e-02
2906:-6.4106873366376105e-02
2907:-6.5532046564995186e-02
2908:-6.0285101365826821e-02
2909:-6.2405160453262214e-02
2910:-6.4725424964257622e-02
2911:-6.6166319763809628e-02
2912:-6.4757516326381256e-02
2913:-6.6202572156823500e-02
2914:-6.8683062580008461e-02
2915:-7.1051735031021662e-02
2916:-6.5381039020195056e-02
2917:-6.6858528931550198e-02
2918:-6.9373960125251113e-02
2919:-7.1758327528560428e-02
2920:-6.6199551759917125e-02
2921:-6.7705674873043090e-02
2922:-7.0259081210719915e-02
2923:-7.2670111211809496e-02
2924:-6.6839948030795154e-02
2925:-6.8359015275808913e-02
2926:-7.0934375542657399e-02
2927:-7.3367075890445527e-02
2928:-7.2408275720730053e-02
2929:-7.3792841033525958e-02
2930:-7.3020582711202126e-02
2931:-7.0428871956925071e-02
2932:-7.3117952380290022e-02
2933:-7.4503935521196551e-02
2934:-7.3735224757794288e-02
2935:-7.1155932776399450e-02
2936:-7.4042080849447328e-02
2937:-7.5446107017849012e-02
2938:-7.4696797412809657e-02
2939:-7.2134979930697424e-02
2940:-7.4752287762269110e-02
2941:-7.6179097549985850e-02
2942:-7.5454823314377834e-02
2943:-7.2909056676221162e-02
2944:-6.8540696358969866e-02
2945:-6.7764939465823334e-02
2946:-7.2947423441501694e-02
2947:-8.1665060478157081e-02
2948:-6.9286492045127296e-02
2949:-6.8678693380498451e-02
2950:-7.4354807599441006e-02
2951:-8.3653265811367422e-02
2952:-7.0285963611569829e-02
2953:-6.9888330491591447e-02
2954:-7.6200986053552244e-02
2955:-8.6259683415095101e-02
2956:-7.1074283645369510e-02
2957:-7.0832973910800595e-02
2958:-7.7628020194543026e-02
2959:-8.8269557033995388e-02
2960:-8.7342906595210712e-02
2961:-8.8372239307142747e-02
2962:-6.8541861444949059e-02
2963:-3.7203002235949773e-02
2964:-8.9679372336795779e-02
2965:-9.0887992067605200e-02
2966:-7.0257572589955034e-02
2967:-3.7521371618885649e-02
2968:-9.2745636366624751e-02
2969:-9.4203081075400832e-02
2970:-7.2554944279727168e-02
2971:-3.8019223874244897e-02
2972:-9.5110564946221193e-02
2973:-9.6766031529031918e-02
2974:-7.4350288603848805e-02
2975:-3.8445908550506960e-02
2976:-1.6044490636161667e-02
2977:9.9990762365456867e-03
2978:1.2886929406979821e-02
2979:-8.4971533233003504e-03
2980:-1.5409993351268346e-02
2981:1.1610562576317724e-02
2982:1.3930855742938559e-02
2983:-9.3036298594749538e-03
2984:-1.4677566293593514e-02
2985:1.3602062912058923e-02
2986:1.5183454809542748e-02
2987:-1.0444249485749228e-02
2988:-1.4166860206873544e-02
2989:1.5070255604193917e-02
2990:1.6084087773756289e-02
2991:-1.1369988628477165e-02
2992:-2.6917217213468847e-02
2993:-5.2020764813903893e-02
2994:-6.1855505497187782e-02
2995:-5.2115251937057606e-02
2996:-2.9138621914503754e-02
2997:-5.6384205806128740e-02
2998:-6.7730623655152811e-02
2999:-5.8161300007066770e-02
3000:-3.2106791688274586e-02
3001:-6.2108591957875971e-02
3002:-7.5372952073498006e-02
3003:-6.5982876913212751e-02
3004:-3.4425318365303180e-02
3005:-6.6519081880829584e-02
3006:-8.1216801963841206e-02
3007:-7.1929271864690281e-02
3008:-4.1477386693675129e-02
3009:-2.1867369019825944e-02
3010:9.8652888067884579e-04
3011:1.6530169761486108e-02
3012:-4.7295178231056209e-02
3013:-2.7226970776074805e-02
3014:-3.8302321252252389e-03
3015:1.2091235703867683e-02
3016:-5.4794669328999707e-02
3017:-3.4072714750618203e-02
3018:-9.8748872059385949e-03
3019:6.6236923757493982e-03
3020:-6.0473648880988919e-02
3021:-3.9211862867615702e-02
3022:-1.4351557787589743e-02
3023:2.6232051067327997e-03
3024:2.5979533186474248e-02
3025:4.0283251210454202e-02
3026:4.2184341138065011e-02
3027:3.5125204502443400e-02
3028:1.0978988401483354e-02
3029:3.6107938428396241e-02
3030:4.6019329188510288e-02
3031:4.0076555586904393e-02
3032:2.9087141949553689e-03
3033:3.9821135559399520e-02
3034:5.8925452230981980e-02
3035:5.4174690106177724e-02
3036:1.7109478807085640e-03
3037:4.5770197702042367e-02
3038:7.1376852219842996e-02
3039:6.8072835858625946e-02
3040:2.9601763676924561e-02
3041:1.6720650530704147e-02
3042:-2.1238090042503171e-03
3043:-1.5367664423246077e-02
3044:3.3594314590723616e-02
3045:2.1354187941755195e-02
3046:7.1479071242219784e-03
3047:-1.6153828641477870e-03
3048:4.6246514546274202e-02
3049:3.2689770046903183e-02
3050:1.9078231291914376e-02
3051:1.1060250910941379e-02
3052:5.9408804040946325e-02
3053:4.4114798438417806e-02
3054:2.7805417954754354e-02
3055:1.7104218712972571e-02
3056:-2.0853916223749786e-02
3057:-2.2884528762503926e-02
3058:-1.3206043758654981e-02
3059:-9.3108340046209326e-04
3060:-5.0991534790110352e-03
3061:-6.3098914621478215e-03
3062:-1.3614721371552123e-04
3063:7.4193606391453303e-03
3064:7.5585961941799238e-03
3065:4.2445882289671661e-03
3066:5.1009019609470699e-03
3067:8.2038979780226281e-03
3068:1.1869376806837629e-02
3069:4.8819957229379631e-03
3070:1.1921127633648576e-03
3071:1.9722162352447067e-03
3072:5.6556353630391187e-03
3073:1.2271491381597993e-02
3074:1.1227983775333548e-02
3075:5.4648236588590304e-03
3076:1.1288956723585569e-02
3077:1.4089147234230506e-02
3078:1.0696986245672672e-02
3079:4.9923374384733179e-03
3080:1.0077667823423444e-02
3081:1.0662736775459699e-02
3082:6.9725436817295455e-03
3083:2.5446020122114840e-03
3084:3.2972721538814614e-03
3085:3.9840014936716375e-03
3086:1.9547070646496385e-03
3087:-6.1018136065090975e-04
3088:1.5847365482782772e-03
3089:-2.9565301917654908e-03
3090:-3.3173142217398045e-03
3091:1.2105817578503204e-04
3092:1.6883165250579154e-03
3093:-1.9882527017873680e-03
3094:-1.9542417969501675e-03
3095:1.1676504025455335e-03
3096:2.5645271702979459e-04
3097:-1.9481364664002050e-03
3098:-1.0570991670421546e-03
3099:1.8943238359332164e-03
3100:-1.8916418225735107e-03
3101:-2.6749440586577144e-03
3102:-8.8327499080207632e-04
3103:2.0656639239189523e-03
3104:2.9389279698438311e-03
3105:7.0237874208004441e-03
3106:9.5634563643799079e-03
3107:9.5375580443472028e-03
3108:3.6178699145265618e-03
3109:7.2676174904242321e-03
3110:9.7285144532568302e-03
3111:9.8819127818474180e-03
3112:3.9936438672962989e-03
3113:7.1427866402743057e-03
3114:9.3493876700561918e-03
3115:9.5714350359090740e-03
3116:3.9512194074923521e-03
3117:6.7099128417155221e-03
3118:8.5854288318554968e-03
3119:8.7608663597604636e-03
3120:8.9262213915829117e-03
3121:7.6203757466007660e-03
3122:5.8054365098991756e-03
3123:4.3373449110200831e-03
3124:9.4020808426670734e-03
3125:8.2457253918430430e-03
3126:6.4890653580939959e-03
3127:5.0384618729093847e-03
3128:9.2008304730234625e-03
3129:8.2370208635083320e-03
3130:6.7064229719827695e-03
3131:5.4363173348370205e-03
3132:8.4539854174177538e-03
3133:7.6767621531664545e-03
3134:6.4583609873512231e-03
3135:5.4432348257640109e-03
3136:3.5404568277259654e-03
3137:2.1902693572219680e-03
3138:6.8089515217730802e-04
3139:-3.4664332793119023e-04
3140:4.2619349214406020e-03
3141:2.9411542764263597e-03
3142:1.4432131793363338e-03
3143:4.0360024148165574e-04
3144:4.7632574070007438e-03
3145:3.6005189238536412e-03
3146:2.2372644764729575e-03
3147:1.2562259032488587e-03
3148:4.8988842817294922e-03
3149:3.9301649299859779e-03
3150:2.7381319089045193e-03
3151:1.8413001924040499e-03
3152:-8.6835315256830465e-04
3153:-1.8235379825607969e-03
3154:-3.0104250997611318e-03
3155:-3.8604496549839830e-03
3156:-1.3028867071600969e-04
3157:-1.0909048974065815e-03
3158:-2.2552535966315511e-03
3159:-3.0751037349841955e-03
3160:7.4211430118599920e-04
3161:-1.7824319920931988e-04
3162:-1.2873697861778000e-03
3163:-2.0704937580846823e-03
3164:1.3606354640437826e-03
3165:4.9381277219750022e-04
3166:-5.6378963708091751e-04
3167:-1.3234106008885105e-03
3168:-4.2895020036011391e-03
3169:-5.0733405813350313e-03
3170:-6.0630430471812422e-03
3171:-6.7993940474387130e-03
3172:-3.4868944415125075e-03
3173:-4.2463620850887469e-03
3174:-5.2219606435936761e-03
3175:-5.9613210982685924e-03
3176:-2.4670233425984449e-03
3177:-3.2080763913870879e-03
3178:-4.1796093142581698e-03
3179:-4.9309625456050417e-03
3180:-1.7134118403916833e-03
3181:-2.4492665613541431e-03
3182:-3.4263184263824934e-03
3183:-4.1907809387893031e-03
3184:-7.1861132860385627e-03
3185:-7.9246155937883981e-03
3186:-8.9198358463644552e-03
3187:-9.7086118554919488e-03
3188:-6.3543998668398700e-03
3189:-7.1096541088848334e-03
3190:-8.1341178336316600e-03
3191:-8.9498294756966204e-03
3192:-5.3354586954250235e-03
3193:-6.1164674975607404e-03
3194:-7.1809397418668578e-03
3195:-8.0312403999384576e-03
3196:-4.6051132769561985e-03
3197:-5.4073671125005225e-03
3198:-6.5041290877725002e-03
3199:-7.3823107484262476e-03
3200:-1.0139334580779672e-02
3201:-1.0979031881156958e-02
3202:-1.2138439438960235e-02
3203:-1.3075760336575114e-02
3204:-9.3961891258586283e-03
3205:-1.0267733564088045e-02
3206:-1.1473480005921121e-02
3207:-1.2449802001463834e-02
3208:-8.4972122968987873e-03
3209:-9.4090238607526817e-03
3210:-1.0674257206469352e-02
3211:-1.1701359335837788e-02
3212:-7.8641601566028074e-03
3213:-8.8079544603937542e-03
3214:-1.0119250717940165e-02
3215:-1.1184949642821150e-02
3216:-1.3593045066991763e-02
3217:-1.4607445577715138e-02
3218:-1.6018314195566884e-02
3219:-1.7166114901359591e-02
3220:-1.2988976905988818e-02
3221:-1.4045177575061098e-02
3222:-1.5511740039680427e-02
3223:-1.6703121565420084e-02
3224:-1.2269298955569790e-02
3225:-1.3380964921380814e-02
3226:-1.4922351472791541e-02
3227:-1.6172855865819680e-02
3228:-1.1774590226540841e-02
3229:-1.2928607184977939e-02
3230:-1.4528158722890004e-02
3231:-1.5825297228831837e-02
3232:-1.7801659225001799e-02
3233:-1.9047351713645740e-02
3234:-2.0778102882011321e-02
3235:-2.2185078101969884e-02
3236:-1.7362269328132462e-02
3237:-1.8654021086314906e-02
3238:-2.0448522607334881e-02
3239:-2.1907133913472838e-02
3240:-1.6864146472343442e-02
3241:-1.8218106837915474e-02
3242:-2.0097703219974051e-02
3243:-2.1624611985633504e-02
3244:-1.6542103202267389e-02
3245:-1.7944971166067629e-02
3246:-1.9890491317124191e-02
3247:-2.1469672935702663e-02
3248:-2.2963115482724228e-02
3249:-2.4473492533477227e-02
3250:-2.6542749627032711e-02
3251:-2.8204622095869238e-02
3252:-2.2713521167522368e-02
3253:-2.4276130445428302e-02
3254:-2.6411234645281043e-02
3255:-2.8121920041963493e-02
3256:-2.2468319114249635e-02
3257:-2.4099384247544074e-02
3258:-2.6320026958343800e-02
3259:-2.8093375732405966e-02
3260:-2.2341780990854401e-02
3261:-2.4025163268173201e-02
3262:-2.6311611860329192e-02
3263:-2.8133404981049156e-02
3264:-2.9116653336939663e-02
3265:-3.0867590962716518e-02
3266:-3.3228870454649839e-02
3267:-3.5098823093426011e-02
3268:-2.9059464758865124e-02
3269:-3.0858331445834580e-02
3270:-3.3282377714294022e-02
3271:-3.5200549220451002e-02
3272:-2.9063398281047481e-02
3273:-3.0923491695769575e-02
3274:-3.3428429130920423e-02
3275:-3.5409410335629672e-02
3276:-2.9128583846166022e-02
3277:-3.1036069494351674e-02
3278:-3.3603638929657904e-02
3279:-3.5633362547295780e-02
3280:-3.6117140813225562e-02
3281:-3.8071336618007504e-02
3282:-4.0708498403774142e-02
3283:-4.2798738875175775e-02
3284:-3.6244571793730244e-02
3285:-3.8246861479558879e-02
3286:-4.0946710884018925e-02
3287:-4.3085182688173032e-02
3288:-3.6487130214733522e-02
3289:-3.8551804974393387e-02
3290:-4.1331276574954397e-02
3291:-4.3529561616011049e-02
3292:-3.6737260035077601e-02
3293:-3.8849730122039891e-02
3294:-4.1688591997720105e-02
3295:-4.3930112654940602e-02
3296:-4.3934805206376680e-02
3297:-4.6058108317190760e-02
3298:-4.8805065615420945e-02
3299:-5.0896137954322782e-02
3300:-4.4246985263258487e-02
3301:-4.6416848285331720e-02
3302:-4.9220581199440033e-02
3303:-5.1351945723986721e-02
3304:-4.4722762791459786e-02
3305:-4.6949105319800448e-02
3306:-4.9821561892792902e-02
3307:-5.2001930414656068e-02
3308:-4.5145509787954501e-02
3309:-4.7411415833820858e-02
3310:-5.0331706455866418e-02
3311:-5.2546225539467965e-02
3312:-5.2009185853175516e-02
3313:-5.4145354273352139e-02
3314:-5.7040534245386403e-02
3315:-5.9346788140562080e-02
3316:-5.2485257659668466e-02
3317:-5.4657123245438172e-02
3318:-5.7595251103180582e-02
3319:-5.9932535386250194e-02
3320:-5.3160086563539793e-02
3321:-5.5376092677332692e-02
3322:-5.8367281050445294e-02
3323:-6.0742100451830518e-02
3324:-5.3721809825646755e-02
3325:-5.5969125217172358e-02
3326:-5.8998027096196691e-02
3327:-6.1398975447822648e-02
3328:-6.0594450312763080e-02
3329:-6.2729634872942822e-02
3330:-6.5064879978499704e-02
3331:-6.6512743583903439e-02
3332:-6.1196175774321272e-02
3333:-6.3357476231303528e-02
3334:-6.5717512142248746e-02
3335:-6.7176244780232860e-02
3336:-6.2024514838145937e-02
3337:-6.4214938451570142e-02
3338:-6.6600447732672333e-02
3339:-6.8069344286106837e-02
3340:-6.2694040586746880e-02
3341:-6.4902853135828165e-02
3342:-6.7302729218989873e-02
3343:-6.8776642877517224e-02
3344:-6.7188422041697685e-02
3345:-6.8711849907203429e-02
3346:-7.1296279706806437e-02
3347:-7.3740019429233070e-02
3348:-6.7854918990965102e-02
3349:-6.9385893259638440e-02
3350:-7.1987606337810539e-02
3351:-7.4452312012423208e-02
3352:-6.8750732359694172e-02
3353:-7.0291586527330877e-02
3354:-7.2918174758464349e-02
3355:-7.5411669582500382e-02
3356:-6.9459430787776139e-02
3357:-7.1008351469994138e-02
3358:-7.3656426658745583e-02
3359:-7.6173598089498556e-02
3360:-7.5132816820307619e-02
3361:-7.6573691710330544e-02
3362:-7.5865641822179378e-02
3363:-7.3329701928796537e-02
3364:-7.5859235061568886e-02
3365:-7.7325491645700906e-02
3366:-7.6646007167404773e-02
3367:-7.4127641787539153e-02
3368:-7.6836954524570858e-02
3369:-7.8333294963275513e-02
3370:-7.7684047239940018e-02
3371:-7.5183513593649151e-02
3372:-7.7613148972864324e-02
3373:-7.9129991979756481e-02
3374:-7.8496741131359890e-02
3375:-7.6003458246839045e-02
3376:-7.1502522586212300e-02
3377:-7.1343655358397415e-02
3378:-7.8394326609151951e-02
3379:-8.9346295228883030e-02
3380:-7.2314783198726723e-02
3381:-7.2312304266790056e-02
3382:-7.9847188933791405e-02
3383:-9.1386211115343882e-02
3384:-7.3387658413674631e-02
3385:-7.3590605813192572e-02
3386:-8.1766207449631118e-02
3387:-9.4081459325358469e-02
3388:-7.4217682533922774e-02
3389:-7.4576765681411764e-02
3390:-8.3248962308437827e-02
3391:-9.6167352851514953e-02
3392:-9.6377056798381072e-02
3393:-9.8139433413818269e-02
3394:-7.5316545964172407e-02
3395:-3.8683994914820719e-02
3396:-9.8775485265086713e-02
3397:-1.0074073054875993e-01
3398:-7.7151942604331322e-02
3399:-3.9148003112218874e-02
3400:-1.0194424459381983e-01
3401:-1.0417926208148405e-01
3402:-7.9585989940886101e-02
3403:-3.9780246830715196e-02
3404:-1.0439803880649057e-01
3405:-1.0684424863137071e-01
3406:-8.1476466794214664e-02
3407:-4.0278624644750363e-02
3408:-1.3905873050659583e-02
3409:1.5840540339616346e-02
3410:1.6551220346758915e-02
3411:-1.1875507456437706e-02
3412:-1.3429673020996237e-02
3413:1.7278709451564886e-02
3414:1.7427319895160588e-02
3415:-1.2820018323014616e-02
3416:-1.2826034373823059e-02
3417:1.9152767840511033e-02
3418:1.8583638429887063e-02
3419:-1.4029854748106889e-02
3420:-1.2369040635526928e-02
3421:2.0596671200349252e-02
3422:1.9489859494784094e-02
3423:-1.4930831651685249e-02
3424:-3.5672013188492627e-02
3425:-6.8875873472865903e-02
3426:-8.4325898726676285e-02
3427:-7.5080317418375217e-02
3428:-3.8004786435461381e-02
3429:-7.3282808726357423e-02
3430:-9.0124263523380349e-02
3431:-8.0935543418936440e-02
3432:-4.1021382727142543e-02
3433:-7.8990814136212312e-02
3434:-9.7615190077270167e-02
3435:-8.8466132424730795e-02
3436:-4.3304490501457966e-02
3437:-8.3328371534547280e-02
3438:-1.0330114125331734e-01
3439:-9.4163468778374601e-02
3440:-6.3474365564137256e-02
3441:-4.1912519960118376e-02
3442:-1.6688987580975558e-02
3443:5.4222034109291883e-04
3444:-6.9034180417826538e-02
3445:-4.6889860845257210e-02
3446:-2.0972357925906661e-02
3447:-3.2605803462794195e-03
3448:-7.6158244685553947e-02
3449:-5.3219412891097342e-02
3450:-2.6363592829233659e-02
3451:-8.0091839171557485e-03
3452:-8.1532241053511700e-02
3453:-5.7960741751758783e-02
3454:-3.0352037882071404e-02
3455:-1.1477300871322737e-02
3456:1.6775739462664432e-03
3457:4.8802958009241573e-02
3458:7.7730890362507590e-02
3459:7.5573292479360316e-02
3460:1.6469354582007174e-03
3461:5.2553245016448237e-02
3462:8.6262640374128577e-02
3463:8.6393387181749826e-02
3464:1.6460013584474228e-03
3465:5.4925304510955814e-02
3466:9.2305186904187236e-02
3467:9.4944216533458997e-02
3468:1.7107399826675343e-03
3469:5.6193063937354945e-02
3470:9.4928242296938137e-02
3471:9.8559682666471957e-02
3472:6.6807497139145230e-02
3473:5.0651206750517840e-02
3474:3.2204721382844442e-02
3475:1.9211911107192670e-02
3476:7.8004974299919885e-02
3477:6.1173889835715027e-02
3478:3.9488575331874602e-02
3479:2.2450427537676662e-02
3480:8.7515853163440863e-02
3481:7.0863951468756417e-02
3482:4.6334818644281510e-02
3483:2.5005176558818277e-02
3484:9.1631039076176396e-02
3485:7.5058765908007988e-02
3486:4.8921094180435797e-02
3487:2.5180017817570149e-02
3488:1.2579278879007449e-02
3489:3.0842465573945668e-03
3490:-3.1126009455697792e-03
3491:-3.2409804791114550e-03
3492:1.3242542395430537e-02
3493:-6.0586904751791732e-04
3494:-1.0680227889282506e-02
3495:-1.1820921163015471e-02
3496:1.2942892285177685e-02
3497:-5.2982488005371272e-03
3498:-1.8481091823112708e-02
3499:-1.9687177070577926e-02
3500:1.1536142467707207e-02
3501:-8.7766077459390038e-03
3502:-2.2724311111310760e-02
3503:-2.3138981210445629e-02
3504:-1.9302578378585541e-03
3505:-6.8046538644253400e-04
3506:-1.2891104833155375e-03
3507:-2.6101913765740033e-03
3508:-1.0225613256982501e-02
3509:-7.6689268670965625e-03
3510:-5.8321672415767691e-03
3511:-5.2699766809585968e-03
3512:-1.7281667884313855e-02
3513:-1.2854764297744268e-02
3514:-8.5905622116472808e-03
3515:-6.5843817822676251e-03
3516:-1.9906171352216069e-02
3517:-1.4102921773233253e-02
3518:-8.6461100104410580e-03
3519:-6.2533398666502578e-03
3520:-3.2908705828493595e-03
3521:-3.2399283896921466e-03
3522:-9.1677731366695972e-04
3523:2.0488700713073775e-03
3524:-5.1141258582028159e-03
3525:-3.9629681848385844e-03
3526:-1.0485944671548783e-03
3527:1.8031646686099201e-03
3528:-5.9215849222061983e-03
3529:-4.2490272772807832e-03
3530:-1.3353593745732307e-03
3531:1.1182837547378307e-03
3532:-5.5819121643961083e-03
3533:-4.0916560682045877e-03
3534:-1.6498433028666289e-03
3535:3.7339188802648627e-04
3536:3.8257197051773115e-03
3537:6.3602042107948785e-03
3538:8.0159425455695304e-03
3539:8.1473021432266271e-03
3540:3.3585331033544434e-03
3541:5.5012528519206346e-03
3542:6.8530460844183844e-03
3543:7.0016223010057575e-03
3544:2.3738003262331287e-03
3545:4.1062696388510954e-03
3546:5.3094825518448059e-03
3547:5.6666987031076246e-03
3548:1.4164190429979036e-03
3549:2.9394839588000369e-03
3550:4.2143225774138272e-03
3551:4.8394514380493952e-03
3552:7.8778744729903587e-03
3553:7.2262322171115501e-03
3554:6.2254536591972946e-03
3555:5.3809910005077049e-03
3556:6.8493117849454882e-03
3557:6.4833851780972257e-03
3558:5.8940939334594569e-03
3559:5.3394263997880642e-03
3560:5.7365706058165574e-03
3561:5.7955522717127892e-03
3562:5.6987773288322933e-03
3563:5.4410571488213103e-03
3564:5.1048238489009240e-03
3565:5.4873881829554305e-03
3566:5.7055401815444395e-03
3567:5.6114736212947627e-03
3568:4.9174011665459368e-03
3569:4.0688012268185730e-03
3570:2.9823301073162506e-03
3571:2.1379709707627192e-03
3572:5.0049972300566488e-03
3573:4.3492592322703690e-03
3574:3.4368993326592150e-03
3575:2.6832231022199406e-03
3576:5.2281164311798467e-03
3577:4.7575810950138417e-03
3578:4.0236305563592575e-03
3579:3.3712946750172074e-03
3580:5.4610831542854692e-03
3581:5.0908219053123925e-03
3582:4.4635466585814555e-03
3583:3.8778279886873481e-03
3584:1.6785575432368709e-03
3585:8.4384619318327980e-04
3586:-1.8631810634633689e-04
3587:-9.3575512072055511e-04
3588:2.2620165719383807e-03
3589:1.4846190664186134e-03
3590:5.0193326213838498e-04
3591:-2.3139181468211786e-04
3592:2.9952617078176434e-03
3593:2.2855231974578207e-03
3594:1.3577132041419581e-03
3595:6.4164166647295005e-04
3596:3.5327222396829634e-03
3597:2.8694376725824566e-03
3598:1.9793579638310737e-03
3599:1.2752394386334861e-03
3600:-1.3239182369262994e-03
3601:-2.0596238009115931e-03
3602:-3.0418100448676619e-03
3603:-3.8138707946026736e-03
3604:-6.1758287025390484e-04
3605:-1.3549242980035630e-03
3606:-2.3474575994407304e-03
3607:-3.1329654274145635e-03
3608:2.5657749109097232e-04
3609:-4.8473545039135450e-04
3610:-1.4915630340471765e-03
3611:-2.2940733427526004e-03
3612:8.9100584975838654e-04
3613:1.4652517357878399e-04
3614:-8.7186401410648331e-04
3615:-1.6882700211627228e-03
3616:-4.2333999896310790e-03
3617:-5.0470190666238816e-03
3618:-6.1616060925888368e-03
3619:-7.0556755655966173e-03
3620:-3.5614201976619151e-03
3621:-4.3955742524807509e-03
3622:-5.5444445926713095e-03
3623:-6.4704657596510000e-03
3624:-2.7335743384580848e-03
3625:-3.5941807659642939e-03
3626:-4.7892564043433448e-03
3627:-5.7596629879861491e-03
3628:-2.1368344497189424e-03
3629:-3.0187103315363639e-03
3630:-4.2502490418825176e-03
3631:-5.2553614855219881e-03
3632:-7.5467286739111343e-03
3633:-8.5086144573132058e-03
3634:-9.8450184249440909e-03
3635:-1.0931119317211710e-02
3636:-6.9804006607648884e-03
3637:-7.9787256896962817e-03
3638:-9.3640961212830050e-03
3639:-1.0488775010302803e-02
3640:-6.2961893919887772e-03
3641:-7.3455260493069168e-03
3642:-8.7985329962178768e-03
3643:-9.9756971153914849e-03
3644:-5.8126475317678231e-03
3645:-6.9023858679860993e-03
3646:-8.4101097413732950e-03
3647:-9.6305104499117538e-03
3648:-1.1532060146844788e-02
3649:-1.2708338762636899e-02
3650:-1.4338933239018194e-02
3651:-1.5661275307701811e-02
3652:-1.1110710337626534e-02
3653:-1.2328541768011422e-02
3654:-1.4017678628464645e-02
3655:-1.5388036134010224e-02
3656:-1.0625897178098843e-02
3657:-1.1899420224824146e-02
3658:-1.3666764521876986e-02
3659:-1.5101220035086346e-02
3660:-1.0304180986978086e-02
3661:-1.1623220434672373e-02
3662:-1.3453019029553996e-02
3663:-1.4937720754805178e-02
3664:-1.6391951510437274e-02
3665:-1.7821218895599952e-02
3666:-1.9801916619080470e-02
3667:-2.1408709364288906e-02
3668:-1.6145288584847477e-02
3669:-1.7624916016491281e-02
3670:-1.9672077393680369e-02
3671:-2.1330459399344318e-02
3672:-1.5893965445360182e-02
3673:-1.7440686658584073e-02
3674:-1.9575804291734125e-02
3675:-2.1301792964668248e-02
3676:-1.5758039646884936e-02
3677:-1.7356984041430368e-02
3678:-1.9560694649827008e-02
3679:-2.1339343395465789e-02
3680:-2.2295747942460521e-02
3681:-2.4006841695940764e-02
3682:-2.6328600638001770e-02
3683:-2.8176719416873667e-02
3684:-2.2245203314711935e-02
3685:-2.4008026485618856e-02
3686:-2.6396557832798609e-02
3687:-2.8295234531554862e-02
3688:-2.2252589164172921e-02
3689:-2.4083005366982730e-02
3690:-2.6559745456124592e-02
3691:-2.8526186132217513e-02
3692:-2.2318153440198159e-02
3693:-2.4201026037013799e-02
3694:-2.6746298171641970e-02
3695:-2.8765620716808528e-02
3696:-2.9185668323356947e-02
3697:-3.1119031842109464e-02
3698:-3.3720650986075525e-02
3699:-3.5776784732066948e-02
3700:-2.9330909794737625e-02
3701:-3.1314442109200244e-02
3702:-3.3981722409522082e-02
3703:-3.6088416250192240e-02
3704:-2.9598050374426952e-02
3705:-3.1649265128290666e-02
3706:-3.4404196904201677e-02
3707:-3.6577447084424251e-02
3708:-2.9865831219369317e-02
3709:-3.1969722809838827e-02
3710:-3.4791911177159948e-02
3711:-3.7015317982352879e-02
3712:-3.6894830509703651e-02
3713:-3.9032846744103636e-02
3714:-4.1902791169742680e-02
3715:-4.4166373684518243e-02
3716:-3.7233375871313312e-02
3717:-3.9419430838268467e-02
3718:-4.2346734091833357e-02
3719:-4.4650219693673165e-02
3720:-3.7757447168218300e-02
3721:-4.0005437032369549e-02
3722:-4.3005680850675403e-02
3723:-4.5359268865787804e-02
3724:-3.8221382236328913e-02
3725:-4.0515402557940533e-02
3726:-4.3570081292672896e-02
3727:-4.5961413197596397e-02
3728:-4.5392888585336459e-02
3729:-4.7678450169166095e-02
3730:-5.0622326817924189e-02
3731:-5.2853636734789343e-02
3732:-4.5896578791174536e-02
3733:-4.8217039975795531e-02
3734:-5.1202358863605357e-02
3735:-5.3462699660983860e-02
3736:-4.6630364434207629e-02
3737:-4.8994096970055072e-02
3738:-5.2029996548626022e-02
3739:-5.4324785189501540e-02
3740:-4.7251309611311465e-02
3741:-4.9647857598291448e-02
3742:-5.2721595141149206e-02
3743:-5.5041448599944538e-02
3744:-5.4037807926237892e-02
3745:-5.6300676882725664e-02
3746:-5.9348375975837246e-02
3747:-6.1762198140103454e-02
3748:-5.4661518422743340e-02
3749:-5.6950757198910136e-02
3750:-6.0030281669538200e-02
3751:-6.2466083610891947e-02
3752:-5.5540516517903982e-02
3753:-5.7859399508093996e-02
3754:-6.0973759366968493e-02
3755:-6.3433450574614164e-02
3756:-5.6269110316901245e-02
3757:-5.8607894734348548e-02
3758:-6.1744067756224888e-02
3759:-6.4217936346198171e-02
3760:-6.3063367194748102e-02
3761:-6.5280626777506665e-02
3762:-6.7686477518843866e-02
3763:-6.9162201259650280e-02
3764:-6.3777795904064141e-02
3765:-6.6009599907577973e-02
3766:-6.8425232706740002e-02
3767:-6.9903007108532617e-02
3768:-6.4756709858813530e-02
3769:-6.7004122009970829e-02
3770:-6.9428437321234548e-02
3771:-7.0904860735971964e-02
3772:-6.5547891781215506e-02
3773:-6.7803678467202963e-02
3774:-7.0229983359227324e-02
3775:-7.1700934692335044e-02
3776:-6.9845539253010291e-02
3777:-7.1398958299922460e-02
3778:-7.4059350425970283e-02
3779:-7.6589789792920387e-02
3780:-7.0586445093182640e-02
3781:-7.2146422422647835e-02
3782:-7.4828063028003836e-02
3783:-7.7383160444526020e-02
3784:-7.1585656318812030e-02
3785:-7.3148532185537726e-02
3786:-7.5851703907158979e-02
3787:-7.8436919151524953e-02
3788:-7.2376807593995104e-02
3789:-7.3936171717306223e-02
3790:-7.6649411531494072e-02
3791:-7.9254944716231582e-02
3792:-7.8037096232213360e-02
3793:-7.9564003633581640e-02
3794:-7.8936407627446206e-02
3795:-7.6444064224028205e-02
3796:-7.8845446592224686e-02
3797:-8.0391506266477078e-02
3798:-7.9772667817028603e-02
3799:-7.7278225614715229e-02
3800:-7.9919001564750916e-02
3801:-8.1490524570927342e-02
3802:-8.0881156918257549e-02
3803:-7.8378632530702486e-02
3804:-8.0751823760712216e-02
3805:-8.2342805451678019e-02
3806:-8.1740024127400848e-02
3807:-7.9228897452408034e-02
3808:-7.4662115719080643e-02
3809:-7.5103124611917052e-02
3810:-8.4041261749784102e-02
3811:-9.7283869090118297e-02
3812:-7.5500475362119943e-02
3813:-7.6090793686739544e-02
3814:-8.5525746014800022e-02
3815:-9.9378343250162676e-02
3816:-7.6601837488293217e-02
3817:-7.7379678370279356e-02
3818:-8.7458190425740295e-02
3819:-1.0210825761109979e-01
3820:-7.7450573428735625e-02
3821:-7.8368171032163050e-02
3822:-8.8936960867547793e-02
3823:-1.0419875651046373e-01
3824:-1.0571246314751301e-01
3825:-1.0827283839804071e-01
3826:-8.2490407949634539e-02
3827:-4.0546275726805969e-02
3828:-1.0818022887475812e-01
3829:-1.1095553513973375e-01
3830:-8.4388835450889502e-02
3831:-4.1033762192118524e-02
3832:-1.1139974298056551e-01
3833:-1.1445366320009924e-01
3834:-8.6845434784149675e-02
3835:-4.1622463809605409e-02
3836:-1.1386664651891711e-01
3837:-1.1713019207901672e-01
3838:-8.8704349316821335e-02
3839:-4.2023388468492129e-02
3840:-1.2124331458788567e-02
3841:2.1372467963783778e-02
3842:1.9983702115195415e-02
3843:-1.5398029748393738e-02
3844:-1.1642949941354940e-02
3845:2.2861731661609624e-02
3846:2.0952340007418510e-02
3847:-1.6230967127400152e-02
3848:-1.0949232888606686e-02
3849:2.4895792334818020e-02
3850:2.2319318042944691e-02
3851:-1.7220947673227543e-02
3852:-1.0349885436717202e-02
3853:2.6544610697667111e-02
3854:2.3462075097593151e-02
3855:-1.7898647150003482e-02
3856:-4.4507547999951595e-02
3857:-8.5624202035626373e-02
3858:-1.0631120288973162e-01
3859:-9.7175152856223593e-02
3860:-4.6721725345526835e-02
3861:-8.9888011862794159e-02
3862:-1.1191023743002472e-01
3863:-1.0277089336730338e-01
3864:-4.9521870440895732e-02
3865:-9.5370362742506612e-02
3866:-1.1912893269065204e-01
3867:-1.0996931236757251e-01
3868:-5.1599672314829440e-02
3869:-9.9518962573506245e-02
3870:-1.2460750178219854e-01
3871:-1.1541666115630607e-01
3872:-8.4368812373114860e-02
3873:-6.0452688582122389e-02
3874:-3.2428430266191528e-02
3875:-1.3261943834083747e-02
3876:-8.9631686088853149e-02
3877:-6.5056833255983146e-02
3878:-3.6228371396930428e-02
3879:-1.6488759203296302e-02
3880:-9.6383648756053888e-02
3881:-7.0923396232243308e-02
3882:-4.1005776162672050e-02
3883:-2.0482571302079266e-02
3884:-1.0147590464719122e-01
3885:-7.5314691073214757e-02
3886:-4.4538430328262359e-02
3887:-2.3399953802128736e-02
3888:1.7701347619153780e-03
3889:5.7078498114277967e-02
3890:9.6217770376083533e-02
3891:9.9923032012200597e-02
3892:1.7814935701310017e-03
3893:5.9209645291559337e-02
3894:9.9415810449799039e-02
3895:1.0309607656538511e-01
3896:1.5943784169482162e-03
3897:6.2577753317569207e-02
3898:1.0484812768341775e-01
3899:1.0850750127854952e-01
3900:1.3209951549125411e-03
3901:6.5336273013899271e-02
3902:1.0961150517944866e-01
3903:1.1342020122319288e-01
3904:9.3017212893829679e-02
3905:7.6226186998083548e-02
3906:4.9285805204024799e-02
3907:2.4585538873590752e-02
3908:9.6007763576493585e-02
3909:7.8527127074294156e-02
3910:5.0061706610043624e-02
3911:2.3790608861897298e-02
3912:1.0097372465407645e-01
3913:8.2344155602153246e-02
3914:5.1918781484803479e-02
3915:2.3854191365980916e-02
3916:1.0553818319891559e-01
3917:8.6042037498626087e-02
3918:5.4203751142353131e-02
3919:2.4857615573169043e-02
3920:1.0360641191608198e-02
3921:-1.0549272041292456e-02
3922:-2.4357128047757356e-02
3923:-2.4125475775159274e-02
3924:8.6615196297743224e-03
3925:-1.3178797552645404e-02
3926:-2.6799127467108906e-02
3927:-2.5616519945718529e-02
3928:7.7302320242738877e-03
3929:-1.5268978476873928e-02
3930:-2.9079492628791035e-02
3931:-2.7242550724230371e-02
3932:8.0110523883279092e-03
3933:-1.5973654359677555e-02
3934:-3.0315334197713852e-02
3935:-2.8366757990651269e-02
3936:-2.0429791995973723e-02
3937:-1.3974850015830997e-02
3938:-8.1299730619288184e-03
3939:-5.7499226188407080e-03
3940:-2.1242615605391601e-02
3941:-1.3853038435759839e-02
3942:-7.4934137209663031e-03
3943:-5.1805507922618689e-03
3944:-2.2332893341726206e-02
3945:-1.4203136406997330e-02
3946:-7.4499293520821994e-03
3947:-5.2116730961225917e-03
3948:-2.3251307138723500e-02
3949:-1.4821377656405796e-02
3950:-7.8990050146912627e-03
3951:-5.6845747803939009e-03
3952:-5.1771708627952944e-03
3953:-3.9358961007755098e-03
3954:-1.8572247189057318e-03
3955:-7.8945232256603731e-05
3956:-4.7761964000879783e-03
3957:-3.9276661347904173e-03
3958:-2.3785481895353539e-03
3959:-9.2356130034080587e-04
3960:-4.9541839060681840e-03
3961:-4.4172080095897636e-03
3962:-3.2335848704512743e-03
3963:-1.9515534737543591e-03
3964:-5.4843276196771288e-03
3965:-5.0456191397357311e-03
3966:-3.9322596092143270e-03
3967:-2.6392553287340184e-03
3968:8.6698809730160488e-04
3969:2.3240389246209727e-03
3970:3.6965777238018556e-03
3971:4.4880056375220800e-03
3972:-8.9120388860559828e-05
3973:1.3275569361318315e-03
3974:2.9026528240438327e-03
3975:3.9664353206042098e-03
3976:-1.1482740346625379e-03
3977:3.3319778199882656e-04
3978:2.1666856910168828e-03
3979:3.4989617399260580e-03
3980:-1.8021163954465181e-03
3981:-2.2318248301726772e-04
3982:1.7804937568727114e-03
3983:3.2584407238757510e-03
3984:4.8565130530466051e-03
3985:5.3970426209216139e-03
3986:5.7532388235041866e-03
3987:5.7246453224294282e-03
3988:4.4942060297696847e-03
3989:5.2784955844312319e-03
3990:5.8518073809192507e-03
3991:5.9317157613993522e-03
3992:4.1736139542822449e-03
3993:5.1884682319116165e-03
3994:5.9828409793664973e-03
3995:6.1867928682648159e-03
3996:4.0100951889225191e-03
3997:5.1528199137522088e-03
3998:6.0839640907528894e-03
3999:6.3743907546752127e-03
4000:5.5990755507180001e-03
4001:5.2710883483002655e-03
4002:4.6926587518499032e-03
4003:4.1391927790000735e-03
4004:5.8501092740786296e-03
4005:5.5975751561325145e-03
4006:5.1058498030136651e-03
4007:4.6089032535414865e-03
4008:6.1603804960681154e-03
4009:6.0023331565711461e-03
4010:5.6166696913417932e-03
4011:5.1868157142318863e-03
4012:6.3890380365647344e-03
4013:6.3008668539644586e-03
4014:5.9919284904180175e-03
4015:5.6092093206393185e-03
4016:3.8092363626070691e-03
4017:3.1688259926262938e-03
4018:2.2976655237166733e-03
4019:1.5999672110609071e-03
4020:4.3051540357040728e-03
4021:3.7045273206067850e-03
4022:2.8670741662727224e-03
4023:2.1818397188559965e-03
4024:4.9134469514813435e-03
4025:4.3589744954452576e-03
4026:3.5611968649649755e-03
4027:2.8914442725735852e-03
4028:5.3566575990777977e-03
4029:4.8334614389890064e-03
4030:4.0620157203012236e-03
4031:3.4020265929667346e-03
4032:1.2164964079109256e-03
4033:4.7068742871032664e-04
4034:-5.5405851420858843e-04
4035:-1.3785568793547333e-03
4036:1.8005797938226431e-03
4037:1.0532280322126811e-03
4038:1.6281443258538139e-05
4039:-8.2494130871970197e-04
4040:2.5134531262371303e-03
4041:1.7642534812307149e-03
4042:7.0970250163066722e-04
4043:-1.5645257185512224e-04
4044:3.0257629861644231e-03
4045:2.2736685493695624e-03
4046:1.2032259431976851e-03
4047:3.1548530188163813e-04
4048:-1.8324840865069200e-03
4049:-2.7264417214008375e-03
4050:-3.9777910034802903e-03
4051:-5.0012494837033310e-03
4052:-1.2902048778905598e-03
4053:-2.2088299100352080e-03
4054:-3.4987841068812812e-03
4055:-4.5567342977669125e-03
4056:-6.3882730845100206e-04
4057:-1.5936211912139693e-03
4058:-2.9377618444218342e-03
4059:-4.0422904883814547e-03
4060:-1.8160556867618562e-04
4061:-1.1671763722060256e-03
4062:-2.5565866934009760e-03
4063:-3.6992676139593105e-03
4064:-5.5694045424114066e-03
4065:-6.6807368190865413e-03
4066:-8.2186432005076863e-03
4067:-9.4635618804697116e-03
4068:-5.1449902045100464e-03
4069:-6.2969932063330633e-03
4070:-7.8934460702069324e-03
4071:-9.1872024645925175e-03
4072:-4.6571350517325390e-03
4073:-5.8635245624868498e-03
4074:-7.5398128402516962e-03
4075:-8.9013787709411075e-03
4076:-4.3355984626984789e-03
4077:-5.5855965034306756e-03
4078:-7.3254401790024699e-03
4079:-8.7407775811417180e-03
4080:-1.0150724952797313e-02
4081:-1.1495543945031004e-02
4082:-1.3359863619704038e-02
4083:-1.4871745937268685e-02
4084:-9.9016195055514709e-03
4085:-1.1297942564400620e-02
4086:-1.3229802587804401e-02
4087:-1.4793734174186926e-02
4088:-9.6540171909281509e-03
4089:-1.1122232732584728e-02
4090:-1.3147342372770912e-02
4091:-1.4782210696814707e-02
4092:-9.5237102092577165e-03
4093:-1.1049278890253146e-02
4094:-1.3149477649629985e-02
4095:-1.4841902815172402e-02
4096:-1.5706812169922195e-02
4097:-1.7333782769618500e-02
4098:-1.9574524154269819e-02
4099:-2.1381724915517614e-02
4100:-1.5656673084094200e-02
4101:-1.7336669540775521e-02
4102:-1.9647880600173317e-02
4103:-2.1509862745922041e-02
4104:-1.5682790177646264e-02
4105:-1.7434184050812308e-02
4106:-1.9840303293035155e-02
4107:-2.1776399231173939e-02
4108:-1.5773113393835948e-02
4109:-1.7582187762697897e-02
4110:-2.0064296382061825e-02
4111:-2.2059452212253219e-02
4112:-2.2375746714256062e-02
4113:-2.4287010951366209e-02
4114:-2.6869212727911426e-02
4115:-2.8916950400920502e-02
4116:-2.2533253141398431e-02
4117:-2.4499347786368964e-02
4118:-2.7152574941663801e-02
4119:-2.9254500238038453e-02
4120:-2.2839719777058391e-02
4121:-2.4880428523595365e-02
4122:-2.7629813115951300e-02
4123:-2.9804201194862760e-02
4124:-2.3154571124191777e-02
4125:-2.5254732404235425e-02
4126:-2.8080403238763624e-02
4127:-3.0311639840128083e-02
4128:-3.0032369111434084e-02
4129:-3.2164341297900530e-02
4130:-3.5021946016474639e-02
4131:-3.7271377627757216e-02
4132:-3.0398678940731002e-02
4133:-3.2583128135131791e-02
4134:-3.5505873788833638e-02
4135:-3.7802556729181973e-02
4136:-3.0986358424537522e-02
4137:-3.3239051167350570e-02
4138:-3.6244890398344803e-02
4139:-3.8601032399070534e-02
4140:-3.1523250469690206e-02
4141:-3.3828273405715523e-02
4142:-3.6897037472522716e-02
4143:-3.9297936460985533e-02
4144:-3.8490832759631013e-02
4145:-4.0808630296013268e-02
4146:-4.3891825500686821e-02
4147:-4.6303309488647665e-02
4148:-3.9046202962327109e-02
4149:-4.1407493879836367e-02
4150:-4.4543914215314298e-02
4151:-4.6993693264877359e-02
4152:-3.9875018314320269e-02
4153:-4.2291697587539721e-02
4154:-4.5497329818744200e-02
4155:-4.7997612866075463e-02
4156:-4.0594789612986841e-02
4157:-4.3053588875627227e-02
4158:-4.6312276354372302e-02
4159:-4.8851257655106291e-02
4160:-4.7603388368094711e-02
4161:-5.0017703642829460e-02
4162:-5.3111775897942116e-02
4163:-5.5444893747137118e-02
4164:-4.8313285415530573e-02
4165:-5.0761344689472659e-02
4166:-5.3893476750434044e-02
4167:-5.6251120056783531e-02
4168:-4.9343004485878444e-02
4169:-5.1834695300168002e-02
4170:-5.5014194107970857e-02
4171:-5.7401158898095071e-02
4172:-5.0216263490432005e-02
4173:-5.2740052146967864e-02
4174:-5.5952270782587542e-02
4175:-5.8357894523980144e-02
4176:-5.6678749924993957e-02
4177:-5.9027419398655086e-02
4178:-6.2173598069886371e-02
4179:-6.4653423339332938e-02
4180:-5.7496342240066570e-02
4181:-5.9862648068688094e-02
4182:-6.3025279773738382e-02
4183:-6.5513429864621053e-02
4184:-5.8659602357088191e-02
4185:-6.1045793440958278e-02
4186:-6.4225093934414973e-02
4187:-6.6719367744983507e-02
4188:-5.9624214833135063e-02
4189:-6.2021939465371448e-02
4190:-6.5209980467323181e-02
4191:-6.7706079865546637e-02
4192:-6.5986030026463319e-02
4193:-6.8244646027451783e-02
4194:-7.0669808896901831e-02
4195:-7.2135838213644485e-02
4196:-6.6849067915745006e-02
4197:-6.9108905336522114e-02
4198:-7.1526157565539136e-02
4199:-7.2978525822923149e-02
4200:-6.8055898728732953e-02
4201:-7.0310476391329466e-02
4202:-7.2707157291211702e-02
4203:-7.4133656879804014e-02
4204:-6.9041681912614492e-02
4205:-7.1288234423373328e-02
4206:-7.3662552914246962e-02
4207:-7.5063733110194736e-02
4208:-7.2807841657780009e-02
4209:-7.4362953671410728e-02
4210:-7.7078883141387000e-02
4211:-7.9693940659086818e-02
4212:-7.3641035772315178e-02
4213:-7.5184715464173407e-02
4214:-7.7902305411006942e-02
4215:-8.0533106256824291e-02
4216:-7.4779728332302883e-02
4217:-7.6302324063434235e-02
4218:-7.9015951194278677e-02
4219:-8.1663055877355159e-02
4220:-7.5694356276501437e-02
4221:-7.7196382327791011e-02
4222:-7.9902372198303512e-02
4223:-8.2558558040682142e-02
4224:-8.1198381471461287e-02
4225:-8.2799479722356004e-02
4226:-8.2200019785767159e-02
4227:-7.9683835058455901e-02
4228:-8.2050615825343065e-02
4229:-8.3668011227736844e-02
4230:-8.3070486168530328e-02
4231:-8.0541343405887408e-02
4232:-8.3195122772025232e-02
4233:-8.4826947690902349e-02
4234:-8.4219673232959563e-02
4235:-8.1662755164829251e-02
4236:-8.4099669216078865e-02
4237:-8.5736252625146128e-02
4238:-8.5109270571727777e-02
4239:-8.2519462309412303e-02
4240:-7.7904218774474912e-02
4241:-7.8895362829912136e-02
4242:-8.9724596595514600e-02
4243:-1.0531238339155523e-01
4244:-7.8757574874354641e-02
4245:-7.9884641069679810e-02
4246:-9.1201934583160268e-02
4247:-1.0740216072850101e-01
4248:-7.9867800213614115e-02
4249:-8.1165182775386188e-02
4250:-9.3117327075825318e-02
4251:-1.1011978203377348e-01
4252:-8.0709474738058604e-02
4253:-8.2129378343549234e-02
4254:-9.4565877473378870e-02
4255:-1.1218711750342066e-01
4256:-1.1518102523407180e-01
4257:-1.1855408255986520e-01
4258:-8.9683957805159212e-02
4259:-4.2214906612066706e-02
4260:-1.1764788840488305e-01
4261:-1.2122115610805820e-01
4262:-9.1497854089121519e-02
4263:-4.2525744936810737e-02
4264:-1.2085976895847701e-01
4265:-1.2468535753653154e-01
4266:-9.3809508469394523e-02
4267:-4.2825717066420591e-02
4268:-1.2330906642201792e-01
4269:-1.2732274319469020e-01
4270:-9.5532675335000150e-02
4271:-4.2965711598356569e-02
4272:-1.0001164885065193e-02
4273:2.7461303025501215e-02
4274:2.4109662978738240e-02
4275:-1.8228916634371328e-02
4276:-9.2830198806860692e-03
4277:2.9263042217717816e-02
4278:2.5406006092023654e-02
4279:-1.8785391617548608e-02
4280:-8.2083244690157060e-03
4281:3.1789155719071274e-02
4282:2.7271995368296699e-02
4283:-1.9374345281824034e-02
4284:-7.2681449442359982e-03
4285:3.3873010685189546e-02
4286:2.8849568307344888e-02
4287:-1.9709180237901712e-02
4288:-5.2682564136599587e-02
4289:-1.0171342992579881e-01
4290:-1.2751152083306899e-01
4291:-1.1829748451326311e-01
4292:-5.4665876462283637e-02
4293:-1.0580101175732691e-01
4294:-1.3293418125597603e-01
4295:-1.2366449316889561e-01
4296:-5.7147084534234997e-02
4297:-1.1106743223780872e-01
4298:-1.3995341150046273e-01
4299:-1.3058962605420141e-01
4300:-5.8957508210191786e-02
4301:-1.1504617699391295e-01
4302:-1.4528730848867460e-01
4303:-1.3583692772326933e-01
4304:-1.0416186725213956e-01
4305:-7.7618525059863372e-02
4306:-4.6378450924936560e-02
4307:-2.4910966597775894e-02
4308:-1.0915244783546312e-01
4309:-8.1877167708620968e-02
4310:-4.9760647409636545e-02
4311:-2.7681389393704126e-02
4312:-1.1556636035357418e-01
4313:-8.7309087340795094e-02
4314:-5.4040478078761597e-02
4315:-3.1177150197962012e-02
4316:-1.2040732244692783e-01
4317:-9.1378393820383319e-02
4318:-5.7222590462698904e-02
4319:-3.3771106442642501e-02
4320:1.1391709201641006e-03
4321:6.6790782476368132e-02
4322:1.1224671837966570e-01
4323:1.1622971228191292e-01
4324:7.8124920412071558e-04
4325:6.9499263958679433e-02
4326:1.1718695025005119e-01
4327:1.2151673699366851e-01
4328:2.9680834633892859e-04
4329:7.3018843426941010e-02
4330:1.2361772369980180e-01
4331:1.2839781042584364e-01
4332:-8.2293876707799599e-05
4333:7.5717978604578282e-02
4334:1.2855126753193183e-01
4335:1.3367345122782595e-01
4336:1.0820005280908848e-01
4337:8.8300795839283450e-02
4338:5.5756195827475444e-02
4339:2.5730305947993352e-02
4340:1.1322033694935953e-01
4341:9.2580707884927282e-02
4342:5.8723880609505369e-02
4343:2.7425454491986606e-02
4344:1.1975226586822300e-01
4345:9.8145941676229087e-02
4346:6.2580417813021802e-02
4347:2.9628941003343314e-02
4348:1.2475739530778568e-01
4349:1.0240590672942532e-01
4350:6.5529378916184142e-02
4351:3.1314080539054517e-02
4352:8.4849310097995095e-03
4353:-1.6092783609845149e-02
4354:-3.0855399696272223e-02
4355:-2.8957383726424580e-02
4356:9.4304662517914559e-03
4357:-1.6267315312912436e-02
4358:-3.1834115377904648e-02
4359:-3.0041068591920406e-02
4360:1.0661849813103298e-02
4361:-1.6482339657225824e-02
4362:-3.3074705465325545e-02
4363:-3.1400423863699838e-02
4364:1.1605421461491070e-02
4365:-1.6637364604225605e-02
4366:-3.3998563675047798e-02
4367:-3.2401324993923557e-02
4368:-2.3781817220652663e-02
4369:-1.5251712224178589e-02
4370:-8.2606911687768264e-03
4371:-6.0420390660938569e-03
4372:-2.4756429722837026e-02
4373:-1.6041975789966557e-02
4374:-8.9218728647483484e-03
4375:-6.6926716060875871e-03
4376:-2.5964848794811129e-02
4377:-1.6998812162839726e-02
4378:-9.7056045278114331e-03
4379:-7.4657232782769905e-03
4380:-2.6843204785665823e-02
4381:-1.7675743224688425e-02
4382:-1.0246932382609363e-02
4383:-8.0023743063683799e-03
4384:-5.8545883407155348e-03
4385:-5.4265408332082373e-03
4386:-4.2936202528826460e-03
4387:-2.9612340478197522e-03
4388:-6.5274494556614403e-03
4389:-6.1168825010042864e-03
4390:-4.9472344573348922e-03
4391:-3.5447644107828172e-03
4392:-7.3332877804336890e-03
4393:-6.9562779764606583e-03
4394:-5.7579122443827003e-03
4395:-4.2808548878914485e-03
4396:-7.8987406404646288e-03
4397:-7.5563107361838874e-03
4398:-6.3496044634169212e-03
4399:-4.8260709308787213e-03
4400:-2.0955055901440830e-03
4401:-4.6068812778954772e-04
4402:1.6182268383252685e-03
4403:3.1559720591138023e-03
4404:-2.6290297326978657e-03
4405:-8.9660633000202016e-04
4406:1.3150746245909153e-03
4407:2.9606069501332821e-03
4408:-3.3088465234325211e-03
4409:-1.4618359851366945e-03
4410:9.1394672562158529e-04
4411:2.6977438180059523e-03
4412:-3.8161906589227672e-03
4413:-1.8886140344349608e-03
4414:6.0796865208086984e-04
4415:2.4964911246023228e-03
4416:3.9400753393739043e-03
4417:5.1399186601538563e-03
4418:6.1372874112627894e-03
4419:6.4722223207080432e-03
4420:3.8042464278517690e-03
4421:5.1093364930807350e-03
4422:6.2288829263880061e-03
4423:6.6456548674589024e-03
4424:3.6189414183907332e-03
4425:5.0602912751187348e-03
4426:6.3357031191839637e-03
4427:6.8549105665427906e-03
4428:3.4770159182292123e-03
4429:5.0216715405723622e-03
4430:6.4129503922756188e-03
4431:7.0063132299180673e-03
4432:6.5084140747643281e-03
4433:6.4566914374617999e-03
4434:6.1872407539585866e-03
4435:5.8283420955038022e-03
4436:6.7212305185225330e-03
4437:6.7356607900328665e-03
4438:6.5369447724771971e-03
4439:6.2199269881030392e-03
4440:6.9790204747204503e-03
4441:7.0739326308927311e-03
4442:6.9592621544795679e-03
4443:6.6902644163497607e-03
4444:7.1647769102306845e-03
4445:7.3157246171011428e-03
4446:7.2577774304781427e-03
4447:7.0195825431828285e-03
4448:5.5861365489479325e-03
4449:5.0782323992167675e-03
4450:4.3191115827041337e-03
4451:3.6630919356087912e-03
4452:5.9955840692730985e-03
4453:5.5134741827433734e-03
4454:4.7735871592722223e-03
4455:4.1218088114629110e-03
4456:6.4856697406220970e-03
4457:6.0308992503870619e-03
4458:5.3083285544260695e-03
4459:4.6561691375121145e-03
4460:6.8269603065052482e-03
4461:6.3877898574496239e-03
4462:5.6724996799356183e-03
4463:5.0159832634985684e-03
4464:3.2871240787338270e-03
4465:2.5324183968084596e-03
4466:1.4522406302298809e-03
4467:5.5204425382529316e-04
4468:3.7445800783118236e-03
4469:2.9816297271339750e-03
4470:1.8791930193307143e-03
4471:9.5302949009522871e-04
4472:4.2740735419645962e-03
4473:3.4943078216658173e-03
4474:2.3553812597918774e-03
4475:1.3903980639875502e-03
4476:4.6280909925382717e-03
4477:3.8314638325532280e-03
4478:2.6594899511793130e-03
4479:1.6612613165341071e-03
4480:4.6582761496447085e-05
4481:-9.5647760397650635e-04
4482:-2.3715648573670437e-03
4483:-3.5358060602935139e-03
4484:4.3068204677720260e-04
4485:-6.0728409664080444e-04
4486:-2.0732779212318002e-03
4487:-3.2802406482415713e-03
4488:8.4376453063839563e-04
4489:-2.4362222402162304e-04
4490:-1.7809225155770167e-03
4491:-3.0476423543493699e-03
4492:1.0943834258204360e-03
4493:-3.3642555964839820e-05
4494:-1.6289814998123801e-03
4495:-2.9442407947277496e-03
4496:-4.1842256239879349e-03
4497:-5.4584225331638665e-03
4498:-7.2329067269108769e-03
4499:-8.6771484051407326e-03
4500:-3.9526377029067286e-03
4501:-5.2743490568710793e-03
4502:-7.1157448235860381e-03
4503:-8.6149505621181174e-03
4504:-3.7536535185843738e-03
4505:-5.1416299007568675e-03
4506:-7.0753618603931834e-03
4507:-8.6495102208631533e-03
4508:-3.6776220755933126e-03
4509:-5.1197736061746150e-03
4510:-7.1292541316803244e-03
4511:-8.7649198065966188e-03
4512:-9.4762709192255570e-03
4513:-1.1032800262330215e-02
4514:-1.3174207080984516e-02
4515:-1.4898706544294916e-02
4516:-9.4446032021826016e-03
4517:-1.1060019672791925e-02
4518:-1.3281086316285880e-02
4519:-1.5068659078464604e-02
4520:-9.5204732741159728e-03
4521:-1.1215819495220989e-02
4522:-1.3545914585942131e-02
4523:-1.5420717938533349e-02
4524:-9.6697398773109601e-03
4525:-1.1430122959378260e-02
4526:-1.3848145604808900e-02
4527:-1.5792893320880380e-02
4528:-1.5847125545615636e-02
4529:-1.7688396576697341e-02
4530:-2.0212482525260866e-02
4531:-2.2239991230594593e-02
4532:-1.6051275735756172e-02
4533:-1.7956307596867754e-02
4534:-2.0562671161791946e-02
4535:-2.2652729882309531e-02
4536:-1.6450969328996066e-02
4537:-1.8444658067149459e-02
4538:-2.1164456682976833e-02
4539:-2.3339544906337197e-02
4540:-1.6861268583945880e-02
4541:-1.8925999472271336e-02
4542:-2.1736552802779033e-02
4543:-2.3979225460607125e-02
4544:-2.3352459661282354e-02
4545:-2.5485045749883806e-02
4546:-2.8352208399637032e-02
4547:-3.0614171714045745e-02
4548:-2.3798391785500153e-02
4549:-2.5992657860724765e-02
4550:-2.8938422160305101e-02
4551:-3.1258624549337928e-02
4552:-2.4529784517338924e-02
4553:-2.6806293373245884e-02
4554:-2.9856500218419159e-02
4555:-3.2254461404570528e-02
4556:-2.5204645021105480e-02
4557:-2.7545771121913303e-02
4558:-3.0678043429178754e-02
4559:-3.3137604084866039e-02
4560:-3.1841604021225441e-02
4561:-3.4174618919084340e-02
4562:-3.7276925011387373e-02
4563:-3.9701689272848062e-02
4564:-3.2516149677882883e-02
4565:-3.4902741855290735e-02
4566:-3.8069610989460989e-02
4567:-4.0540275799704206e-02
4568:-3.3552506251445846e-02
4569:-3.6011998971061755e-02
4570:-3.9267478185799294e-02
4571:-4.1801007521164342e-02
4572:-3.4468075588176210e-02
4573:-3.6986466443075204e-02
4574:-4.0314054809398966e-02
4575:-4.2898612845708034e-02
4576:-4.1010767476332796e-02
4577:-4.3492101791037588e-02
4578:-4.6779090951824934e-02
4579:-4.9338549072326557e-02
4580:-4.1872734939190165e-02
4581:-4.4396611267471423e-02
4582:-4.7736165323218775e-02
4583:-5.0333234576182238e-02
4584:-4.3165162479894659e-02
4585:-4.5745210412569390e-02
4586:-4.9151673281482886e-02
4587:-5.1795215643494791e-02
4588:-4.4288232022009440e-02
4589:-4.6912011820309067e-02
4590:-5.0368023312280345e-02
4591:-5.3044333405213452e-02
4592:-5.0713827681856789e-02
4593:-5.3253961867690845e-02
4594:-5.6481855624255450e-02
4595:-5.8895577917700816e-02
4596:-5.1727286991282082e-02
4597:-5.4296834990431468e-02
4598:-5.7551577708830987e-02
4599:-5.9977580915331195e-02
4600:-5.3212130933994940e-02
4601:-5.5817086572152182e-02
4602:-5.9102659959002282e-02
4603:-6.1540655854197136e-02
4604:-5.4476927107537931e-02
4605:-5.7106197228957489e-02
4606:-6.0412749083896412e-02
4607:-6.2858265033221492e-02
4608:-6.0164997784294995e-02
4609:-6.2567157150135014e-02
4610:-6.5758298874796853e-02
4611:-6.8254581552561644e-02
4612:-6.1250906547190224e-02
4613:-6.3658064374009782e-02
4614:-6.6851630165549625e-02
4615:-6.9346589594417238e-02
4616:-6.2816497511948510e-02
4617:-6.5224938638192315e-02
4618:-6.8414698699759247e-02
4619:-7.0902993676024650e-02
4620:-6.4135089753387095e-02
4621:-6.6541677454796846e-02
4622:-6.9722964421519901e-02
4623:-7.2200858922052247e-02
4624:-6.9589347482080385e-02
4625:-7.1830625866313308e-02
4626:-7.4191121869654084e-02
4627:-7.5577071796001899e-02
4628:-7.0679242220027930e-02
4629:-7.2909327245340771e-02
4630:-7.5241158394964022e-02
4631:-7.6595364782316350e-02
4632:-7.2230517181096285e-02
4633:-7.4441381057746420e-02
4634:-7.6728586588035705e-02
4635:-7.8034237174521598e-02
4636:-7.3521412871129718e-02
4637:-7.5711986631467068e-02
4638:-7.7957564135073473e-02
4639:-7.9219654995014238e-02
4640:-7.6198510823103513e-02
4641:-7.7688030916890152e-02
4642:-8.0388220521968826e-02
4643:-8.3047909911550380e-02
4644:-7.7197443730202445e-02
4645:-7.8659145249836596e-02
4646:-8.1342597357342228e-02
4647:-8.4004641474960118e-02
4648:-7.8606495697925563e-02
4649:-8.0022243384069866e-02
4650:-8.2670209497275868e-02
4651:-8.5325021926585254e-02
4652:-7.9765270110151373e-02
4653:-8.1137629503987466e-02
4654:-8.3746402617853460e-02
4655:-8.6386187607302684e-02
4656:-8.4593013626909866e-02
4657:-8.6229589027778733e-02
4658:-8.5586956236334347e-02
4659:-8.2974523440299749e-02
4660:-8.5555124077969488e-02
4661:-8.7186553511334169e-02
4662:-8.6504794216825304e-02
4663:-8.3839639107830252e-02
4664:-8.6877261575273229e-02
4665:-8.8490510371186701e-02
4666:-8.7738039715911070e-02
4667:-8.4984371021117888e-02
4668:-8.7934788780143811e-02
4669:-8.9524016590602093e-02
4670:-8.8701690270147154e-02
4671:-8.5865456807000237e-02
4672:-8.1153596183633367e-02
4673:-8.2635058661959804e-02
4674:-9.5328490392763227e-02
4675:-1.1328121165259522e-01
4676:-8.1991829923609025e-02
4677:-8.3579500817011959e-02
4678:-9.6749533448628910e-02
4679:-1.1532565041503050e-01
4680:-8.3089424051656938e-02
4681:-8.4797521642627369e-02
4682:-9.8577430769447263e-02
4683:-1.1796798414435718e-01
4684:-8.3925595160863953e-02
4685:-8.5712531056025484e-02
4686:-9.9950291083946874e-02
4687:-1.1996479779695425e-01
4688:-1.2460820703407317e-01
4689:-1.2872066583346975e-01
4690:-9.6432263374679028e-02
4691:-4.3006179840168905e-02
4692:-1.2703971308873166e-01
4693:-1.3133435682615885e-01
4694:-9.8089318840249032e-02
4695:-4.3020838860600916e-02
4696:-1.3019052764108868e-01
4697:-1.3471493376285304e-01
4698:-1.0017776851250369e-01
4699:-4.2905853561565753e-02
4700:-1.3257889502986855e-01
4701:-1.3727186199804342e-01
4702:-1.0170903818464225e-01
4703:-4.2700890465758180e-02
4704:-6.7229469627662422e-03
4705:3.5039576680708742e-02
4706:2.9746419253843089e-02
4707:-1.9842954938101721e-02
4708:-5.6185917224679249e-03
4709:3.7334558575919670e-02
4710:3.1537386241083147e-02
4711:-2.0007820976145854e-02
4712:-4.0037623471265368e-03
4713:4.0551203788281982e-02
4714:3.4098204979624097e-02
4715:-2.0045588901950396e-02
4716:-2.6183069078906450e-03
4717:4.3201158383396034e-02
4718:3.6244264581807066e-02
4719:-1.9930747690657322e-02
4720:-5.9887139816496120e-02
4721:-1.1714424960975216e-01
4722:-1.4811285931738444e-01
4723:-1.3861190176005406e-01
4724:-6.1564310893493651e-02
4725:-1.2104106084832778e-01
4726:-1.5338884853853857e-01
4727:-1.4378721599641789e-01
4728:-6.3615008931984698e-02
4729:-1.2604546610778095e-01
4730:-1.6022459897249269e-01
4731:-1.5048210151846617e-01
4732:-6.5075949639736480e-02
4733:-1.2981842976272079e-01
4734:-1.6542905515557735e-01
4735:-1.5557258965710699e-01
4736:-1.2296090883557084e-01
4737:-9.3514551046889396e-02
4738:-5.8885151493416957e-02
4739:-3.5125298076153826e-02
4740:-1.2771255360964032e-01
4741:-9.7471781148000022e-02
4742:-6.1951184688911379e-02
4743:-3.7620500498949411e-02
4744:-1.3383886024537478e-01
4745:-1.0253888226709686e-01
4746:-6.5846337678991562e-02
4747:-4.0780647861726943e-02
4748:-1.3848164249833037e-01
4749:-1.0635151952711455e-01
4750:-6.8749933141378769e-02
4751:-4.3123524698306666e-02
4752:-2.8542797323110832e-04
4753:7.7160666574336012e-02
4754:1.3118695837787597e-01
4755:1.3649003360074116e-01
4756:-6.6854290140084952e-04
4757:7.9879194460758224e-02
4758:1.3615163477142750e-01
4759:1.4179277766770979e-01
4760:-1.1766562788437117e-03
4761:8.3450522888882425e-02
4762:1.4267378170860787e-01
4763:1.4875505144009032e-01
4764:-1.5764401922051417e-03
4765:8.6208416128741014e-02
4766:1.4771358531663359e-01
4767:1.5413279419353249e-01
4768:1.2742820794777188e-01
4769:1.0467705040940074e-01
4770:6.7100187365856240e-02
4771:3.2211690392694420e-02
4772:1.3245453678806013e-01
4773:1.0894849500835176e-01
4774:7.0052952181825445e-02
4775:3.3899215833220642e-02
4776:1.3905058660093003e-01
4777:1.1454961203357188e-01
4778:7.3923286506214783e-02
4779:3.6112934614302497e-02
4780:1.4414331226006918e-01
4781:1.1887158596859450e-01
4782:7.6909562830965353e-02
4783:3.7823595481773997e-02
4784:1.2108677043066673e-02
4785:-1.6716698768052533e-02
4786:-3.4482174531658673e-02
4787:-3.2921298918388339e-02
4788:1.3055685720145004e-02
4789:-1.6862532688602414e-02
4790:-3.5383770268291960e-02
4791:-3.3887456313389838e-02
4792:1.4300890472746179e-02
4793:-1.7045055663027889e-02
4794:-3.6550033522247914e-02
4795:-3.5132936532270988e-02
4796:1.5266529520559850e-02
4797:-1.7176706678788969e-02
4798:-3.7435615951702861e-02
4799:-3.6076453304112611e-02
4800:-2.7295489633710170e-02
4801:-1.8017770587878568e-02
4802:-1.0515964799549977e-02
4803:-8.2705018841691437e-03
4804:-2.8132377787031006e-02
4805:-1.8645364107458002e-02
4806:-1.1007202167080322e-02
4807:-8.7630894026543317e-03
4808:-2.9205743251266663e-02
4809:-1.9442072465299793e-02
4810:-1.1627292478080592e-02
4811:-9.3899395262420308e-03
4812:-3.0015159413196629e-02
4813:-2.0037145463391429e-02
4814:-1.2087694602956061e-02
4815:-9.8584603860787639e-03
4816:-8.1837230576064773e-03
4817:-7.8629574472449271e-03
4818:-6.6561923784748270e-03
4819:-5.1109253168555068e-03
4820:-8.7103070774335514e-03
4821:-8.4345472426219578e-03
4822:-7.2328215443234816e-03
4823:-5.6502601496401690e-03
4824:-9.3853053273737237e-03
4825:-9.1751757999626524e-03
4826:-7.9882475537175132e-03
4827:-6.3627826584999967e-03
4828:-9.8929501143604926e-03
4829:-9.7372419495228065e-03
4830:-8.5667394071491567e-03
4831:-6.9121126548058534e-03
4832:-4.0822170389150907e-03
4833:-2.1135241807150318e-03
4834:4.4620724113278123e-04
4835:2.3901924065712009e-03
4836:-4.5879031223263972e-03
4837:-2.5448969021465290e-03
4838:1.3019288202150526e-04
4839:2.1762385765954424e-03
4840:-5.2594264761293948e-03
4841:-3.1248178286516328e-03
4842:-3.0604878814768130e-04
4843:1.8680589074836287e-03
4844:-5.7792844756842897e-03
4845:-3.5783742467422937e-03
4846:-6.5510619465699031e-04
4847:1.6124540146359649e-03
4848:3.4022449402718318e-03
4849:5.0013925551583779e-03
4850:6.4528141029143388e-03
4851:7.0838053127777008e-03
4852:3.2464637381386849e-03
4853:4.9454241500003554e-03
4854:6.5052207229394929e-03
4855:7.2023936815118926e-03
4856:3.0114705584608206e-03
4857:4.8347009465084011e-03
4858:6.5262413223836253e-03
4859:7.3009218918084935e-03
4860:2.8093103557137386e-03
4861:4.7223745625136759e-03
4862:6.5069262462953527e-03
4863:7.3342191572914215e-03
4864:7.2593549243519916e-03
4865:7.4377866930959826e-03
4866:7.4069100491442460e-03
4867:7.1827123607952721e-03
4868:7.4073290945565673e-03
4869:7.6323370313747096e-03
4870:7.6459025837248605e-03
4871:7.4432172617878035e-03
4872:7.5390396424506951e-03
4873:7.8154294300029226e-03
4874:7.8754997828518539e-03
4875:7.6926359865975898e-03
4876:7.5939501418621344e-03
4877:7.9029762403323173e-03
4878:7.9908518383042786e-03
4879:7.8178827888113391e-03
4880:6.9952100723823830e-03
4881:6.5622842590368552e-03
4882:5.8487255519649659e-03
4883:5.1885887588666709e-03
4884:7.2628505428525055e-03
4885:6.8375116398411437e-03
4886:6.1229154529906871e-03
4887:5.4535700951298281e-03
4888:7.5173806016390317e-03
4889:7.0946290677538259e-03
4890:6.3703826253050135e-03
4891:5.6836986641723005e-03
4892:7.6439445393642171e-03
4893:7.2183482869521125e-03
4894:6.4805009237792711e-03
4895:5.7759079645473849e-03
4896:4.7970043882565126e-03
4897:3.9902129481385320e-03
4898:2.7990578743020177e-03
4899:1.7819801868631977e-03
4900:5.0540641714389772e-03
4901:4.2264621778833273e-03
4902:2.9970539988688556e-03
4903:1.9427352358854461e-03
4904:5.2713952221548300e-03
4905:4.4123757869161239e-03
4906:3.1277422090791231e-03
4907:2.0206011148659912e-03
4908:5.3514132846963708e-03
4909:4.4641696655637339e-03
4910:3.1321920595782965e-03
4911:1.9807514580080388e-03
4912:1.2037639374000992e-03
4913:5.3143199668624180e-05
4914:-1.5742648826634468e-03
4915:-2.9162912748721390e-03
4916:1.3421515862978520e-03
4917:1.4688694065605101e-04
4918:-1.5438321645487498e-03
4919:-2.9384737644398522e-03
4920:1.3884022294936346e-03
4921:1.2973899291373646e-04
4922:-1.6510624920112252e-03
4923:-3.1202596372852062e-03
4924:1.3221968614538207e-03
4925:1.0391581934059159e-05
4926:-1.8462361314339122e-03
4927:-3.3781115104569806e-03
4928:-3.6647831192773406e-03
4929:-5.1370401225515859e-03
4930:-7.1889738318658535e-03
4931:-8.8593414047858834e-03
4932:-3.7165499675629581e-03
4933:-5.2477795945670425e-03
4934:-7.3832051927484382e-03
4935:-9.1222637763508866e-03
4936:-3.9400139934607876e-03
4937:-5.5536653942895153e-03
4938:-7.8050107020215583e-03
4939:-9.6393376559699689e-03
4940:-4.2327449893363612e-03
4941:-5.9143213659045204e-03
4942:-8.2594352028016096e-03
4943:-1.0169891171071982e-02
4944:-9.7833027282431609e-03
4945:-1.1580117336309972e-02
4946:-1.4046706476747769e-02
4947:-1.6029621888309940e-02
4948:-1.0084283877123235e-02
4949:-1.1953116305319852e-02
4950:-1.4514534667326219e-02
4951:-1.6570902014127573e-02
4952:-1.0654223406279442e-02
4953:-1.2622942392780600e-02
4954:-1.5315074806590202e-02
4955:-1.7471660452674769e-02
4956:-1.1226849838191492e-02
4957:-1.3275484577935278e-02
4958:-1.6072838564779989e-02
4959:-1.8310287724712267e-02
4960:-1.7118673292494578e-02
4961:-1.9222009265186149e-02
4962:-2.2081993047201855e-02
4963:-2.4361471762857211e-02
4964:-1.7699353649990330e-02
4965:-1.9876175892941411e-02
4966:-2.2830452656971624e-02
4967:-2.5180504495939362e-02
4968:-1.8653416092587284e-02
4969:-2.0929353613057162e-02
4970:-2.4010849411734418e-02
4971:-2.6456631204582411e-02
4972:-1.9535016387712240e-02
4973:-2.1890548128759450e-02
4974:-2.5073933244818734e-02
4975:-2.7596530470722337e-02
4976:-2.5606021385736397e-02
4977:-2.7982255088277445e-02
4978:-3.1159216599254094e-02
4979:-3.3652544820327042e-02
4980:-2.6461928811344612e-02
4981:-2.8906190839059636e-02
4982:-3.2170206120904654e-02
4983:-3.4729442145253059e-02
4984:-2.7788403856668614e-02
4985:-3.0326124134583056e-02
4986:-3.3710277996131958e-02
4987:-3.6360355708938474e-02
4988:-2.8968860847842056e-02
4989:-3.1582108992438816e-02
4990:-3.5063394295642952e-02
4991:-3.7786559379397407e-02
4992:-3.5000911387698307e-02
4993:-3.7551966213642492e-02
4994:-4.0919685128565614e-02
4995:-4.3532600819190449e-02
4996:-3.6112704976319757e-02
4997:-3.8727247836475513e-02
4998:-4.2172759846991308e-02
4999:-4.4840696773524640e-02
5000:-3.7791498668438894e-02
5001:-4.0492445472285955e-02
5002:-4.4042905277951294e-02
5003:-4.6784821213920177e-02
5004:-3.9255967445144035e-02
5005:-4.2025249887417425e-02
5006:-4.5657610954844566e-02
5007:-4.8456724016734017e-02
5008:-4.4936288659523170e-02
5009:-4.7583703021236622e-02
5010:-5.1065442559354982e-02
5011:-5.3757992142588432e-02
5012:-4.6271739084829115e-02
5013:-4.8964732506586277e-02
5014:-5.2494894492652919e-02
5015:-5.5216686922191636e-02
5016:-4.8252697341650032e-02
5017:-5.1007146580986595e-02
5018:-5.4602155904337930e-02
5019:-5.7362136007885450e-02
5020:-4.9953026515137132e-02
5021:-5.2755590700330104e-02
5022:-5.6402598386978905e-02
5023:-5.9193943069456287e-02
5024:-5.5198121358277091e-02
5025:-5.7839181562326411e-02
5026:-6.1156117870179855e-02
5027:-6.3605462472075033e-02
5028:-5.6669818979654493e-02
5029:-5.9331032221565896e-02
5030:-6.2665660336262335e-02
5031:-6.5121623223784467e-02
5032:-5.8831664326034643e-02
5033:-6.1517275059925242e-02
5034:-6.4871507084144311e-02
5035:-6.7333181355080846e-02
5036:-6.0677070481123210e-02
5037:-6.3381722622523839e-02
5038:-6.6748434985866106e-02
5039:-6.9210636380808974e-02
5040:-6.4882789966626248e-02
5041:-6.7287766395015741e-02
5042:-7.0462549587131870e-02
5043:-7.2932585243966591e-02
5044:-6.6399872903085272e-02
5045:-6.8801034275162959e-02
5046:-7.1960494965374114e-02
5047:-7.4411475737298033e-02
5048:-6.8611103057711800e-02
5049:-7.1003784706039769e-02
5050:-7.4136510944508696e-02
5051:-7.6555062044521782e-02
5052:-7.0485764900913614e-02
5053:-7.2867395991130721e-02
5054:-7.5973743793486898e-02
5055:-7.8362402159971839e-02
5056:-7.4247971386760522e-02
5057:-7.6425106463664738e-02
5058:-7.8645222214996577e-02
5059:-7.9881556646297286e-02
5060:-7.5714146168630633e-02
5061:-7.7860010683352521e-02
5062:-8.0024372623908255e-02
5063:-8.1206649370575576e-02
5064:-7.7836065401397550e-02
5065:-7.9930193398361188e-02
5066:-8.2006002052179575e-02
5067:-8.3105473282740441e-02
5068:-7.9623711949943013e-02
5069:-8.1670824937486036e-02
5070:-8.3666765489896058e-02
5071:-8.4692526612808419e-02
5072:-8.0411548004381841e-02
5073:-8.1757709556878153e-02
5074:-8.4340966073853163e-02
5075:-8.6968928286988004e-02
5076:-8.1704514362664279e-02
5077:-8.2996185288867333e-02
5078:-8.5523769846310674e-02
5079:-8.8122377406572514e-02
5080:-8.3555122152555464e-02
5081:-8.4764114031960908e-02
5082:-8.7202960887589859e-02
5083:-8.9748880578886886e-02
5084:-8.5099658351280486e-02
5085:-8.6235219816470324e-02
5086:-8.8592700235028091e-02
5087:-9.1086839808960512e-02
5088:-8.8513520485665603e-02
5089:-9.0085897724746136e-02
5090:-8.9220471252629219e-02
5091:-8.6335060531871552e-02
5092:-8.9655030163472510e-02
5093:-9.1186333651485429e-02
5094:-9.0226146478252764e-02
5095:-8.7237310368238480e-02
5096:-9.1257147738995611e-02
5097:-9.2715747344064889e-02
5098:-9.1603537423200099e-02
5099:-8.8456929575342333e-02
5100:-9.2569594302996785e-02
5101:-9.3957590592339740e-02
5102:-9.2706551430659798e-02
5103:-8.9420900306206641e-02
5104:-8.4368276936032188e-02
5105:-8.6192622773403976e-02
5106:-1.0067092430538166e-01
5107:-1.2101752691490208e-01
5108:-8.5214233651664931e-02
5109:-8.7100715455419059e-02
5110:-1.0202501568740159e-01
5111:-1.2299388861414422e-01
5112:-8.6348610922930683e-02
5113:-8.8299736940399887e-02
5114:-1.0379488874935201e-01
5115:-1.2557345008114346e-01
5116:-8.7237817334690798e-02
5117:-8.9225232395329063e-02
5118:-1.0514873370679186e-01
5119:-1.2754577555551061e-01
5120:-1.3384065511171636e-01
5121:-1.3862021235689745e-01
5122:-1.0249759976392044e-01
5123:-4.2546979365034765e-02
5124:-1.3620916241979736e-01
5125:-1.4114219804938735e-01
5126:-1.0393926083119288e-01
5127:-4.2184340918805283e-02
5128:-1.3929978562758777e-01
5129:-1.4441318295080641e-01
5130:-1.0573635639531939e-01
5131:-4.1550897044197066e-02
5132:-1.4166313048536994e-01
5133:-1.4689794583234994e-01
5134:-1.0703762132178635e-01
5135:-4.0925373193401490e-02
5136:-1.8241938111811745e-03
5137:4.4682041076935228e-02
5138:3.7455262735659967e-02
5139:-1.9817406306061401e-02
5140:-2.3819146457079124e-04
5141:4.7581079436610128e-02
5142:3.9842683258063470e-02
5143:-1.9520954526335114e-02
5144:2.0383775941356301e-03
5145:5.1623295283994688e-02
5146:4.3208742483846332e-02
5147:-1.8946436025257762e-02
5148:3.9626254483085517e-03
5149:5.4945570585281933e-02
5150:4.6008003992180406e-02
5151:-1.8337028000293205e-02
5152:-6.5814798050074882e-02
5153:-1.3180758297320586e-01
5154:-1.6819187897444113e-01
5155:-1.5827294932571023e-01
5156:-6.7142005849012101e-02
5157:-1.3551592879474014e-01
5158:-1.7337214746328375e-01
5159:-1.6333340759228784e-01
5160:-6.8736129787042202e-02
5161:-1.4028847998077423e-01
5162:-1.8010705362264695e-01
5163:-1.6990779196744973e-01
5164:-6.9829228619786285e-02
5165:-1.4387563697445779e-01
5166:-1.8523283016969455e-01
5167:-1.7490808274986508e-01
5168:-1.4093931041927732e-01
5169:-1.0836023308825427e-01
5170:-7.0269545575520606e-02
5171:-4.4343914299293623e-02
5172:-1.4553775956268347e-01
5173:-1.1210694477285246e-01
5174:-7.3092928720126835e-02
5175:-4.6604601034278610e-02
5176:-1.5149659397065116e-01
5177:-1.1693519048261995e-01
5178:-7.6700595823698162e-02
5179:-4.9468644881286099e-02
5180:-1.5601528857196797e-01
5181:-1.2057086471310538e-01
5182:-7.9383031592375738e-02
5183:-5.1567060008541096e-02
5184:-1.7944080759572660e-03
5185:8.7685850921317796e-02
5186:1.5041557262705252e-01
5187:1.5701542123266127e-01
5188:-2.2140170192578518e-03
5189:9.0471147693904408e-02
5190:1.5551443824371025e-01
5191:1.6245364148067173e-01
5192:-2.7802244459499467e-03
5193:9.4135241316680010e-02
5194:1.6223040079511930e-01
5195:1.6961414670659300e-01
5196:-3.2265214478289449e-03
5197:9.6971518892284017e-02
5198:1.6743392867984183e-01
5199:1.7516090736854903e-01
5200:1.4687246476938678e-01
5201:1.2118686032221679e-01
5202:7.8509282034365399e-02
5203:3.8740890852599942e-02
5204:1.5201907264975442e-01
5205:1.2554930749945670e-01
5206:8.1519061704125137e-02
5207:4.0462378720634191e-02
5208:1.5879220196667157e-01
5209:1.3128420847610711e-01
5210:8.5467713858881716e-02
5211:4.2712451140838215e-02
5212:1.6403707340703541e-01
5213:1.3572169359564301e-01
5214:8.8518432445280557e-02
5215:4.4445773075582840e-02
5216:1.5785500151312110e-02
5217:-1.7244153827661694e-02
5218:-3.7905483644486773e-02
5219:-3.6576616588436431e-02
5220:1.6755452467758527e-02
5221:-1.7380693936133746e-02
5222:-3.8801628969442649e-02
5223:-3.7530309949244930e-02
5224:1.8015291011663180e-02
5225:-1.7578994413920392e-02
5226:-4.0001567116725791e-02
5227:-3.8806876339270525e-02
5228:1.8980913109259784e-02
5229:-1.7743950226198971e-02
5230:-4.0943469265175093e-02
5231:-3.9808554152339699e-02
5232:-3.0443259063307332e-02
5233:-2.0350382324937216e-02
5234:-1.2329358073158651e-02
5235:-1.0105249680434938e-02
5236:-3.1261230812717748e-02
5237:-2.0952357963892644e-02
5238:-1.2797854835313654e-02
5239:-1.0585151434596284e-02
5240:-3.2359443127203430e-02
5241:-2.1767371720143609e-02
5242:-1.3440111622325366e-02
5243:-1.1245994781202615e-02
5244:-3.3223051380415682e-02
5245:-2.2412274355912278e-02
5246:-1.3953355321034453e-02
5247:-1.1776423016300882e-02
5248:-1.0161189641999527e-02
5249:-1.0035638560010550e-02
5250:-8.8754028615056144e-03
5251:-7.2064062725724501e-03
5252:-1.0682696672780163e-02
5253:-1.0616575660978986e-02
5254:-9.4796195553049616e-03
5255:-7.7867972323584058e-03
5256:-1.1400727685202325e-02
5257:-1.1418230484816156e-02
5258:-1.0320192528260656e-02
5259:-8.6029203051713153e-03
5260:-1.1977375766965477e-02
5261:-1.2063939826111489e-02
5262:-1.1002634773273609e-02
5263:-9.2719486174469099e-03
5264:-6.0585100383867543e-03
5265:-3.8236374521082948e-03
5266:-8.4683722729866060e-04
5267:1.4685915544303851e-03
5268:-6.6122860723033805e-03
5269:-4.3170502123465555e-03
5270:-1.2447966473681834e-03
5271:1.1561143387794120e-03
5272:-7.3971708641853975e-03
5273:-5.0301535241565522e-03
5274:-1.8435420228866486e-03
5275:6.6016641457775983e-04
5276:-8.0450447096636485e-03
5277:-5.6285441261910820e-03
5278:-2.3622708060648842e-03
5279:2.1343871835843324e-04
5280:2.6928050389449991e-03
5281:4.6515456657771383e-03
5282:6.4826397753642694e-03
5283:7.3355274722492307e-03
5284:2.4291709794342061e-03
5285:4.4688866448132974e-03
5286:6.3809882360654647e-03
5287:7.2768530037463693e-03
5288:1.9919732625467068e-03
5289:4.1279914020952730e-03
5290:6.1335034553333390e-03
5291:7.0757771214580078e-03
5292:1.5864294326814663e-03
5293:3.7891267389111713e-03
5294:5.8570511231612566e-03
5295:6.8278097479064952e-03
5296:7.6054437852942185e-03
5297:7.9295646655396321e-03
5298:8.0297100559891775e-03
5299:7.8604030408669610e-03
5300:7.5631173264685859e-03
5301:7.9106746574794263e-03
5302:8.0282721572161667e-03
5303:7.8623033615225994e-03
5304:7.3781121163358594e-03
5305:7.7468240139022095e-03
5306:7.8761856765401563e-03
5307:7.7073839232253243e-03
5308:7.1386438484755347e-03
5309:7.5166357309577863e-03
5310:7.6467009449700122e-03
5311:7.4701173180333194e-03
5312:7.6864123765444095e-03
5313:7.2577942952231807e-03
5314:6.5105147294997247e-03
5315:5.7945514398410726e-03
5316:7.6865926674507803e-03
5317:7.2491242302527362e-03
5318:6.4794991220083640e-03
5319:5.7381685469273681e-03
5320:7.5260577034270424e-03
5321:7.0705161444831665e-03
5322:6.2623897215378513e-03
5323:5.4799615714681950e-03
5324:7.2817889632438492e-03
5325:6.8072223365028281e-03
5326:5.9623161248929506e-03
5327:5.1422644160416123e-03
5328:5.3625492148462175e-03
5329:4.4584963696641076e-03
5330:3.0991855960381203e-03
5331:1.9225987567891747e-03
5332:5.2897643286793127e-03
5333:4.3499933156255994e-03
5334:2.9344351748469672e-03
5335:1.7072973711286237e-03
5336:5.0055835316093547e-03
5337:4.0108522906810076e-03
5338:2.5117862568321304e-03
5339:1.2116961566361786e-03
5340:4.6445017748774483e-03
5341:3.6012140478499277e-03
5342:2.0301692275735846e-03
5343:6.6849514525061510e-04
5344:1.2491688688981268e-03
5345:-9.2731840896997505e-05
5346:-1.9924522881890902e-03
5347:-3.5599767788949315e-03
5348:1.0043126700810996e-03
5349:-3.9724078934702333e-04
5350:-2.3824172559237301e-03
5351:-4.0208590796336850e-03
5352:4.6671576764372390e-04
5353:-1.0190141755337019e-03
5354:-3.1242787710597185e-03
5355:-4.8624558495719899e-03
5356:-1.1150309270565283e-04
5357:-1.6667733416074967e-03
5358:-3.8704002968738133e-03
5359:-5.6899795133592782e-03
5360:-4.4344106112990779e-03
5361:-6.1540527359620232e-03
5362:-8.5507849486225144e-03
5363:-1.0502562140348460e-02
5364:-4.9347710343406286e-03
5365:-6.7297048305813949e-03
5366:-9.2269829548968178e-03
5367:-1.1257897268243276e-02
5368:-5.8319966351741146e-03
5369:-7.7324136552688535e-03
5370:-1.0368689016905349e-02
5371:-1.2507139254077133e-02
5372:-6.7049184374119199e-03
5373:-8.6913839675616823e-03
5374:-1.1440602357746013e-02
5375:-1.3665756274461156e-02
5376:-1.1582217994188215e-02
5377:-1.3674251717351003e-02
5378:-1.6529323377696279e-02
5379:-1.8811486327678494e-02
5380:-1.2380564288039395e-02
5381:-1.4555077017308061e-02
5382:-1.7520773312624912e-02
5383:-1.9889576084150592e-02
5384:-1.3687541054190261e-02
5385:-1.5972733838317744e-02
5386:-1.9087664087024690e-02
5387:-2.1574467672763206e-02
5388:-1.4892379880926688e-02
5389:-1.7265769377640461e-02
5390:-2.0499305700823697e-02
5391:-2.3080059084451349e-02
5392:-2.0060064398344978e-02
5393:-2.2459660854301136e-02
5394:-2.5699290309908182e-02
5395:-2.8264264031231428e-02
5396:-2.1184738344590840e-02
5397:-2.3670588098686444e-02
5398:-2.7020373246582446e-02
5399:-2.9668213771679379e-02
5400:-2.2933602596620969e-02
5401:-2.5538474038088153e-02
5402:-2.9040869768806085e-02
5403:-3.1803583684072941e-02
5404:-2.4490314594609670e-02
5405:-2.7190853873170939e-02
5406:-3.0816738349900064e-02
5407:-3.3672753988538182e-02
5408:-2.9658988145259371e-02
5409:-3.2313951200924645e-02
5410:-3.5848778538304316e-02
5411:-3.8612036356489875e-02
5412:-3.1106624580269169e-02
5413:-3.3842666203437843e-02
5414:-3.7481059787973399e-02
5415:-4.0321579085516139e-02
5416:-3.3302438107834939e-02
5417:-3.6150045372781221e-02
5418:-3.9929944127833662e-02
5419:-4.2875496202888268e-02
5420:-3.5220715642480936e-02
5421:-3.8158536195124021e-02
5422:-4.2052122597784333e-02
5423:-4.5081667189766132e-02
5424:-4.0102326010062778e-02
5425:-4.2908610187762986e-02
5426:-4.6584827990840356e-02
5427:-4.9414273392876178e-02
5428:-4.1852029119315466e-02
5429:-4.4729253602274775e-02
5430:-4.8489002398642678e-02
5431:-5.1375690943109169e-02
5432:-4.4460433159638775e-02
5433:-4.7433869104104277e-02
5434:-5.1306663408567765e-02
5435:-5.4270434430787551e-02
5436:-4.6710110273063418e-02
5437:-4.9760642880942348e-02
5438:-5.3724531057363814e-02
5439:-5.6750714350836916e-02
5440:-5.0925599530921253e-02
5441:-5.3754017895672954e-02
5442:-5.7429864231907386e-02
5443:-6.0239313054903418e-02
5444:-5.2915198212700333e-02
5445:-5.5792750766371649e-02
5446:-5.9525095738866295e-02
5447:-6.2371660997895130e-02
5448:-5.5847725581627594e-02
5449:-5.8791618373995005e-02
5450:-6.2601718385809968e-02
5451:-6.5500957091898154e-02
5452:-5.8358650550765133e-02
5453:-6.1356001688253926e-02
5454:-6.5228184086361163e-02
5455:-6.8169215330926541e-02
5456:-6.1730520195598812e-02
5457:-6.4446050019655240e-02
5458:-6.7818644351708118e-02
5459:-7.0279323811056893e-02
5460:-6.3880099354391859e-02
5461:-6.6618716943783254e-02
5462:-7.0002649884011475e-02
5463:-7.2457867980852436e-02
5464:-6.7034528304426133e-02
5465:-6.9806951667574765e-02
5466:-7.3206578646078962e-02
5467:-7.5651479362167692e-02
5468:-6.9722711825900993e-02
5469:-7.2522207778710865e-02
5470:-7.5934511026516119e-02
5471:-7.8370652941357907e-02
5472:-7.1551655942691778e-02
5473:-7.3925196459637979e-02
5474:-7.7015131657250338e-02
5475:-7.9386299765100768e-02
5476:-7.3722540819763982e-02
5477:-7.6076257678867332e-02
5478:-7.9130109281220759e-02
5479:-8.1465571657389477e-02
5480:-7.6902917497520248e-02
5481:-7.9223696799410478e-02
5482:-8.2221109807558923e-02
5483:-8.4504017173294421e-02
5484:-7.9610805869458623e-02
5485:-8.1902861550367675e-02
5486:-8.4850935493017018e-02
5487:-8.7088718321136113e-02
5488:-8.0636286867585921e-02
5489:-8.2656134417185764e-02
5490:-8.4605432126670432e-02
5491:-8.5588079830529393e-02
5492:-8.2693276237535973e-02
5493:-8.4659430301755711e-02
5494:-8.6515577454898074e-02
5495:-8.7410442944739666e-02
5496:-8.5700149945392268e-02
5497:-8.7590308782686296e-02
5498:-8.9312246561974715e-02
5499:-9.0077305461419899e-02
5500:-8.8258227235885264e-02
5501:-9.0084389853290744e-02
5502:-9.1691809755049411e-02
5503:-9.2343894861565093e-02
5504:-8.5970349363540546e-02
5505:-8.7062765651949620e-02
5506:-8.9371683208043437e-02
5507:-9.1833997776298443e-02
5508:-8.7741307066767762e-02
5509:-8.8742922339111227e-02
5510:-9.0947307035225439e-02
5511:-9.3340118132171621e-02
5512:-9.0330587848584776e-02
5513:-9.1192028143639817e-02
5514:-9.3230646482712023e-02
5515:-9.5511553285149736e-02
5516:-9.2528622355702778e-02
5517:-9.3264120277905427e-02
5518:-9.5150923333639739e-02
5519:-9.7328223482701051e-02
5520:-9.3300714392473463e-02
5521:-9.4645809848894064e-02
5522:-9.3312835888949702e-02
5523:-8.9946505732421952e-02
5524:-9.4771933986118356e-02
5525:-9.6027486792990904e-02
5526:-9.4527592364498786e-02
5527:-9.0997650353655063e-02
5528:-9.6887533110624771e-02
5529:-9.8007281911737951e-02
5530:-9.6262537758262184e-02
5531:-9.2494170028783421e-02
5532:-9.8652728978184459e-02
5533:-9.9652494683243234e-02
5534:-9.7697815370395777e-02
5535:-9.3726590083212366e-02
5536:-8.7720082510074057e-02
5537:-8.9721772208009726e-02
5538:-1.0586980320406367e-01
5539:-1.2859542118895206e-01
5540:-8.8682474849187315e-02
5541:-9.0698203341368300e-02
5542:-1.0725531417789264e-01
5543:-1.3059281097491049e-01
5544:-9.0047983819182692e-02
5545:-9.2055584401421087e-02
5546:-1.0912054473647519e-01
5547:-1.3324616857196328e-01
5548:-9.1167868316694919e-02
5549:-9.3148217140103448e-02
5550:-1.1058181549955580e-01
5551:-1.3530326204439005e-01
5552:-1.4292081772545201e-01
5553:-1.4821396129864878e-01
5554:-1.0770265120263413e-01
5555:-4.0539397586668240e-02
5556:-1.4530748409746091e-01
5557:-1.5069858666707336e-01
5558:-1.0892854914829329e-01
5559:-3.9746518767399791e-02
5560:-1.4846625015743162e-01
5561:-1.5396160839250364e-01
5562:-1.1047358467380963e-01
5563:-3.8562527469920546e-02
5564:-1.5090860184550106e-01
5565:-1.5646470651698624e-01
5566:-1.1159889182101801e-01
5567:-3.7519768911522519e-02
5568:5.0556887967700744e-03
5569:5.6801028859301717e-02
5570:4.7583863641212414e-02
5571:-1.7946373372069523e-02
5572:7.2053586896964703e-03
5573:6.0418261930193937e-02
5574:5.0679509720075122e-02
5575:-1.7108223572665761e-02
5576:1.0220848661842750e-02
5577:6.5423976740929771e-02
5578:5.5010229740659389e-02
5579:-1.5792802329649979e-02
5580:1.2716486013223940e-02
5581:6.9505054171441108e-02
5582:5.8576868778158320e-02
5583:-1.4595038579681963e-02
5584:-7.0360723099482853e-02
5585:-1.4575779326777924e-01
5586:-1.8794809362940107e-01
5587:-1.7755582176637236e-01
5588:-7.1282108107818987e-02
5589:-1.4925774115710636e-01
5590:-1.9303983373840880e-01
5591:-1.8251894022325371e-01
5592:-7.2323062357409942e-02
5593:-1.5375427842331105e-01
5594:-1.9967042013463693e-01
5595:-1.8897458323585489e-01
5596:-7.2981029248198798e-02
5597:-1.5713475707155980e-01
5598:-2.0473103475332338e-01
5599:-1.9389262492717124e-01
5600:-1.5840279005979052e-01
5601:-1.2248111066520789e-01
5602:-8.0776927564704337e-02
5603:-5.2642676459919532e-02
5604:-1.6286841383462095e-01
5605:-1.2603192531125221e-01
5606:-8.3335899877732891e-02
5607:-5.4591748131576634e-02
5608:-1.6865379046069268e-01
5609:-1.3058341559061992e-01
5610:-8.6554129910172486e-02
5611:-5.7001845593045990e-02
5612:-1.7303931880853340e-01
5613:-1.3399113716278288e-01
5614:-8.8916568602558033e-02
5615:-5.8746752228708517e-02
5616:-3.4681472812573533e-03
5617:9.8494237452522185e-02
5618:1.7022877439409850e-01
5619:1.7813976252711278e-01
5620:-3.9292645644217680e-03
5621:1.0137246371052452e-01
5622:1.7551278625041600e-01
5623:1.8376911653088876e-01
5624:-4.5487473808025064e-03
5625:1.0517318087903961e-01
5626:1.8249399156564505e-01
5627:1.9120149748700552e-01
5628:-5.0396180038434369e-03
5629:1.0812559908352146e-01
5630:1.8792109753514283e-01
5631:1.9697578314786074e-01
5632:1.6685330033708171e-01
5633:1.3810338708178216e-01
5634:9.0154290668309947e-02
5635:4.5373393315863819e-02
5636:1.7217285119751027e-01
5637:1.4259690949957307e-01
5638:9.3232009033621444e-02
5639:4.7107843216966684e-02
5640:1.7919112643139215e-01
5641:1.4851470917210227e-01
5642:9.7267874393177273e-02
5643:4.9360692196811405e-02
5644:1.8463994105843926e-01
5645:1.5310135696217189e-01
5646:1.0038345560941735e-01
5647:5.1084484526373680e-02
5648:1.9495882017974857e-02
5649:-1.7836727931111126e-02
5650:-4.1454011312534407e-02
5651:-4.0351377397855902e-02
5652:2.0447972791276529e-02
5653:-1.8037087319277854e-02
5654:-4.2447540902086606e-02
5655:-4.1407909536291594e-02
5656:2.1662970770734816e-02
5657:-1.8351182292159925e-02
5658:-4.3815737374630369e-02
5659:-4.2862951997364292e-02
5660:2.2577135663321677e-02
5661:-1.8629958953175599e-02
5662:-4.4917836709995600e-02
5663:-4.4034742634378322e-02
5664:-3.3691757285750301e-02
5665:-2.2763815162473142e-02
5666:-1.4235109818849061e-02
5667:-1.2068546662247177e-02
5668:-3.4609154483033977e-02
5669:-2.3462547183531107e-02
5670:-1.4807249763398726e-02
5671:-1.2665147732908690e-02
5672:-3.5882232414995836e-02
5673:-2.4452601898008856e-02
5674:-1.5641762937306292e-02
5675:-1.3542991921180953e-02
5676:-3.6913713929302844e-02
5677:-2.5268354881039460e-02
5678:-1.6345963261513437e-02
5679:-1.4290137364698814e-02
5680:-1.2295085222452196e-02
5681:-1.2420384809803594e-02
5682:-1.1381277046011043e-02
5683:-9.6454514423229692e-03
5684:-1.2942747930346861e-02
5685:-1.3146085445800471e-02
5686:-1.2154986454810385e-02
5687:-1.0414200245983257e-02
5688:-1.3894246998385987e-02
5689:-1.4211401342941469e-02
5690:-1.3296375432733215e-02
5691:-1.1558375429041859e-02
5692:-1.4703990226152040e-02
5693:-1.5118671927001495e-02
5694:-1.4272898210886379e-02
5695:-1.2544028465013318e-02
5696:-8.4083298099982186e-03
5697:-5.9675550836625112e-03
5698:-2.6618416736871146e-03
5699:-5.0302295068731026e-05
5700:-9.1604444777576375e-03
5701:-6.6794051197073363e-03
5702:-3.3075449748736960e-03
5703:-6.3541200881931748e-04
5704:-1.0287750311880475e-02
5705:-7.7643774223695597e-03
5706:-4.3216881305937673e-03
5707:-1.5837372838253725e-03
5708:-1.1263934714161636e-02
5709:-8.7155185784627137e-03
5710:-5.2300266006779540e-03
5711:-2.4516164356433688e-03
5712:1.3432065776318764e-03
5713:3.5788178924675610e-03
5714:5.6767065933496100e-03
5715:6.6601737956561401e-03
5716:7.9290767200211230e-04
5717:3.0836198358035445e-03
5718:5.2298037144510711e-03
5719:6.2317451421122841e-03
5720:-1.1738955890415547e-04
5721:2.2320980042832613e-03
5722:4.4262311124725678e-03
5723:5.4425880066754908e-03
5724:-9.6173158850162304e-04
5725:1.4230491615589303e-03
5726:3.6432099080902143e-03
5727:4.6641520056150045e-03
5728:6.9742305190516087e-03
5729:7.3547858466157948e-03
5730:7.4823228138248803e-03
5731:7.2995760433839018e-03
5732:6.5492666162518540e-03
5733:6.9301718899376016e-03
5734:7.0476273189347049e-03
5735:6.8493678082129292e-03
5736:5.7601587658611788e-03
5737:6.1334590280941225e-03
5738:6.2271339904536533e-03
5739:5.9998952019291382e-03
5740:4.9789295440190893e-03
5741:5.3408821777612935e-03
5742:5.4080208604449188e-03
5743:5.1509599082266893e-03
5744:7.1065209674130115e-03
5745:6.6199111416413428e-03
5746:5.7527628127750693e-03
5747:4.9104748216217166e-03
5748:6.6453140032298845e-03
5749:6.1318988528553326e-03
5750:5.2172460590253168e-03
5751:4.3287476786925275e-03
5752:5.7764952797539678e-03
5753:5.2185115871239453e-03
5754:4.2293968421440731e-03
5755:3.2714099426604435e-03
5756:4.9081753411190669e-03
5757:4.3075247752902158e-03
5758:3.2508214342733357e-03
5759:2.2322222864334974e-03
5760:4.3990233611825875e-03
5761:3.3275774428818887e-03
5762:1.7152997898904430e-03
5763:3.1871341346675333e-04
5764:3.7892533303662975e-03
5765:2.6608128203823049e-03
5766:9.6612645663999577e-04
5767:-4.9969441099340550e-04
5768:2.6906759248304917e-03
5769:1.4798993032803674e-03
5770:-3.3156403069612805e-04
5771:-1.8942880263150090e-03
5772:1.6162980767723252e-03
5773:3.3644585244628733e-04
5774:-1.5711080341969188e-03
5775:-3.2125042261235996e-03
5776:-4.8100978948884823e-04
5777:-2.0751786252343556e-03
5778:-4.3334006421914609e-03
5779:-6.1979445782310814e-03
5780:-1.3384072910563114e-03
5781:-3.0091589511155848e-03
5782:-5.3741159879397401e-03
5783:-7.3258898470675701e-03
5784:-2.7873056608876249e-03
5785:-4.5644983978658168e-03
5786:-7.0770717308144887e-03
5787:-9.1486312870807714e-03
5788:-4.1493704902589674e-03
5789:-6.0126323085605976e-03
5790:-8.6446501391413723e-03
5791:-1.0812955295704405e-02
5792:-7.2379235455051968e-03
5793:-9.2719405077139293e-03
5794:-1.2083682372375646e-02
5795:-1.4356829065504249e-02
5796:-8.4141996028430019e-03
5797:-1.0539913829536941e-02
5798:-1.3472420715915865e-02
5799:-1.5838679477484768e-02
5800:-1.0302943287430923e-02
5801:-1.2553536690482488e-02
5802:-1.5650542602884794e-02
5803:-1.8144251253720396e-02
5804:-1.2020434897694087e-02
5805:-1.4371260749325597e-02
5806:-1.7600038873602022e-02
5807:-2.0196078372489202e-02
5808:-1.5609000093248551e-02
5809:-1.8030907179223638e-02
5810:-2.1329334205441572e-02
5811:-2.3961335466019838e-02
5812:-1.7140618471774605e-02
5813:-1.9657004073743514e-02
5814:-2.3081366049360126e-02
5815:-2.5812264278619101e-02
5816:-1.9514677999898308e-02
5817:-2.2161243285546979e-02
5818:-2.5758727482861059e-02
5819:-2.8624727395910425e-02
5820:-2.1621700071226959e-02
5821:-2.4373428757819622e-02
5822:-2.8110781095135359e-02
5823:-3.1085541933547671e-02
5824:-2.5399469466891922e-02
5825:-2.8152393279784943e-02
5826:-3.1846272871696273e-02
5827:-3.4753876173891973e-02
5828:-2.7303959651927733e-02
5829:-3.0157551303516553e-02
5830:-3.3982488980602486e-02
5831:-3.6990053198740699e-02
5832:-3.0189168031623134e-02
5833:-3.3179297522973529e-02
5834:-3.7182312300810004e-02
5835:-4.0326454798362395e-02
5836:-3.2708299476981194e-02
5837:-3.5807607371996487e-02
5838:-3.9952919582589889e-02
5839:-4.3206498852809076e-02
5840:-3.6329032698536719e-02
5841:-3.9316692119936297e-02
5842:-4.3272860051463746e-02
5843:-4.6348510481372049e-02
5844:-3.8618142319777324e-02
5845:-4.1702923717958994e-02
5846:-4.5781037586862562e-02
5847:-4.8946372796528054e-02
5848:-4.2027260044032913e-02
5849:-4.5245747713502392e-02
5850:-4.9491845008936303e-02
5851:-5.2780470849110306e-02
5852:-4.4965775968826692e-02
5853:-4.8291986522703723e-02
5854:-5.2673529789000924e-02
5855:-5.6061408097324031e-02
5856:-4.8000814729202944e-02
5857:-5.1093810542947038e-02
5858:-5.5108250605854323e-02
5859:-5.8169355912596511e-02
5860:-5.0645015174428869e-02
5861:-5.3820787591913298e-02
5862:-5.7934653525181221e-02
5863:-6.1065308510617138e-02
5864:-5.4542670824386880e-02
5865:-5.7832562922603199e-02
5866:-6.2085182818478614e-02
5867:-6.5314568288972294e-02
5868:-5.7874677796246887e-02
5869:-6.1256696817631059e-02
5870:-6.5622556693009149e-02
5871:-6.8933720837037291e-02
5872:-5.9794516476534679e-02
5873:-6.2821604311742635e-02
5874:-6.6727629042414693e-02
5875:-6.9690901320772297e-02
5876:-6.2725092790809095e-02
5877:-6.5811533383235379e-02
5878:-6.9783650127881902e-02
5879:-7.2788774127135594e-02
5880:-6.7024143961993105e-02
5881:-7.0195563941121364e-02
5882:-7.4260459397328241e-02
5883:-7.7322017836729776e-02
5884:-7.0685008458909390e-02
5885:-7.3927682783045512e-02
5886:-7.8069845351364769e-02
5887:-8.1177463641128406e-02
5888:-7.1254831455365666e-02
5889:-7.4068629776940884e-02
5890:-7.7487871021764493e-02
5891:-7.9919563160063239e-02
5892:-7.4371668719116532e-02
5893:-7.7211274609447850e-02
5894:-8.0643387009349227e-02
5895:-8.3068154681022563e-02
5896:-7.8929403154737829e-02
5897:-8.1801877796225456e-02
5898:-8.5251030244041126e-02
5899:-8.7669364643188405e-02
5900:-8.2804321853517618e-02
5901:-8.5702612130088035e-02
5902:-8.9165615354132921e-02
5903:-9.1580695600383108e-02
5904:-8.1153762074258007e-02
5905:-8.3430039757980703e-02
5906:-8.6350250990481922e-02
5907:-8.8562316157567281e-02
5908:-8.4292600259055966e-02
5909:-8.6541787133435341e-02
5910:-8.9411222830303741e-02
5911:-9.1573716245450534e-02
5912:-8.8883622860640943e-02
5913:-9.1101871048123673e-02
5914:-9.3906877760771085e-02
5915:-9.6000568398409133e-02
5916:-9.2788658718577555e-02
5917:-9.4985488712117372e-02
5918:-9.7740606873249092e-02
5919:-9.9776570704121992e-02
5920:-8.9716640062745892e-02
5921:-9.1506242442145794e-02
5922:-9.3047792115124400e-02
5923:-9.3634328486048288e-02
5924:-9.2697624718497032e-02
5925:-9.4412499007295647e-02
5926:-9.5818822241339224e-02
5927:-9.6271899808786671e-02
5928:-9.7079932813493863e-02
5929:-9.8684058677791578e-02
5930:-9.9891838850510242e-02
5931:-1.0015296816328818e-01
5932:-1.0081702588521915e-01
5933:-1.0232519026137714e-01
5934:-1.0336491340479316e-01
5935:-1.0346781711159413e-01
5936:-9.3779028338647152e-02
5937:-9.4440458686507800e-02
5938:-9.6237161012313444e-02
5939:-9.8352539239277892e-02
5940:-9.6335795167259916e-02
5941:-9.6848314249139519e-02
5942:-9.8462934931046547e-02
5943:-1.0045049661235585e-01
5944:-1.0010247076080687e-01
5945:-1.0040465567890712e-01
5946:-1.0175826979487926e-01
5947:-1.0355553349903990e-01
5948:-1.0332464077657635e-01
5949:-1.0345586202749019e-01
5950:-1.0459250193223443e-01
5951:-1.0622492402111430e-01
5952:-9.9646268200216229e-02
5953:-1.0057584977335887e-01
5954:-9.8500582375600110e-02
5955:-9.4413641861144121e-02
5956:-1.0167918482786237e-01
5957:-1.0246086057100633e-01
5958:-1.0013528092096985e-01
5959:-9.5812558155531885e-02
5960:-1.0468373025273743e-01
5961:-1.0523702387294605e-01
5962:-1.0253161023498661e-01
5963:-9.7859541143596351e-02
5964:-1.0726302346724709e-01
5965:-1.0761153937330549e-01
5966:-1.0456985447418610e-01
5967:-9.9594004593542548e-02
5968:-9.1790497080682501e-02
5969:-9.3748764686016256e-02
5970:-1.1137152377261000e-01
5971:-1.3640750904476304e-01
5972:-9.3059275456471538e-02
5973:-9.4963078165120479e-02
5974:-1.1293053300650614e-01
5975:-1.3855188399918511e-01
5976:-9.4915660797266502e-02
5977:-9.6719106396493074e-02
5978:-1.1511322418148406e-01
5979:-1.4148731537955203e-01
5980:-9.6485736177732359e-02
5981:-9.8186024160641580e-02
5982:-1.1688600730391897e-01
5983:-1.4382707341780088e-01
5984:-1.5221728097351583e-01
5985:-1.5779832394482621e-01
5986:-1.1217518336013554e-01
5987:-3.6912219338177586e-02
5988:-1.5474231123461665e-01
5989:-1.6035002293476602e-01
5990:-1.1325104434557218e-01
5991:-3.5705594204025276e-02
5992:-1.5816778739556500e-01
5993:-1.6376759829431323e-01
5994:-1.1462864887798629e-01
5995:-3.3978631619935057e-02
5996:-1.6087757555928897e-01
5997:-1.6643673114220156e-01
5998:-1.1564196524610597e-01
5999:-3.2510292981581888e-02
6000:1.4116425941161758e-02
6001:7.1771773272867698e-02
6002:6.0569855292590437e-02
6003:-1.3886275797117332e-02
6004:1.6846494202598150e-02
6005:7.6169971633177805e-02
6006:6.4451667887973116e-02
6007:-1.2457500478308420e-02
6008:2.0636589747781937e-02
6009:8.2223172577463546e-02
6010:6.9828452328473997e-02
6011:-1.0366132223131319e-02
6012:2.3747265622444808e-02
6013:8.7139545918285988e-02
6014:7.4227488564573132e-02
6015:-8.5501487514204073e-03
6016:-7.3279712138019135e-02
6017:-1.5891144729861095e-01
6018:-2.0741869315769904e-01
6019:-1.9650040854773890e-01
6020:-7.3775997182672914e-02
6021:-1.6222859422551075e-01
6022:-2.1246897493238098e-01
6023:-2.0139376787875199e-01
6024:-7.4264723897796314e-02
6025:-1.6649167641758444e-01
6026:-2.1904183076116746e-01
6027:-2.0775128663465697e-01
6028:-7.4479400721854203e-02
6029:-1.6967296500886969e-01
6030:-2.2403364909638998e-01
6031:-2.1257279096039711e-01
6032:-1.7535609628987456e-01
6033:-1.3577577356832268e-01
6034:-9.0138723890177824e-02
6035:-5.9644001620188590e-02
6036:-1.7969316373287253e-01
6037:-1.3910492725467613e-01
6038:-9.2416565542700613e-02
6039:-6.1321076361564149e-02
6040:-1.8530717909678920e-01
6041:-1.4338606781421501e-01
6042:-9.5324089982213617e-02
6043:-6.3444204011839658e-02
6044:-1.8954672466997138e-01
6045:-1.4658858422061033e-01
6046:-9.7460182341349691e-02
6047:-6.4961862054994643e-02
6048:-5.3076623181390701e-03
6049:1.0971409237359238e-01
6050:1.9084281424715452e-01
6051:2.0008310483357958e-01
6052:-5.8238026094864859e-03
6053:1.1272207945965003e-01
6054:1.9637775949896463e-01
6055:2.0596470728655741e-01
6056:-6.5217365929631918e-03
6057:1.1670529415835727e-01
6058:2.0370999613080537e-01
6059:2.1374613941337947e-01
6060:-7.0741313833175929e-03
6061:1.1980859884638419e-01
6062:2.0942316396908162e-01
6063:2.1980188835126413e-01
6064:1.8757070956029140e-01
6065:1.5556547259629427e-01
6066:1.0205259257506186e-01
6067:5.2002202043415269e-02
6068:1.9311333034159858e-01
6069:1.6021527247946277e-01
6070:1.0518466255047394e-01
6071:5.3701332659390470e-02
6072:2.0043684471359149e-01
6073:1.6633900329584700e-01
6074:1.0927540883259262e-01
6075:5.5875929670949051e-02
6076:2.0612943102664583e-01
6077:1.7108472996581595e-01
6078:1.1242169309404337e-01
6079:5.7517178260565072e-02
6080:2.3057916720350399e-02
6081:-1.8793050453798196e-02
6082:-4.5525688705385224e-02
6083:-4.4680916811476214e-02
6084:2.3924080428066593e-02
6085:-1.9155882167956700e-02
6086:-4.6741120302047981e-02
6087:-4.5974468902061125e-02
6088:2.4985298479190753e-02
6089:-1.9741149522915401e-02
6090:-4.8477712320591414e-02
6091:-4.7828254447416903e-02
6092:2.5752392745605264e-02
6093:-2.0270063757040054e-02
6094:-4.9920998111525221e-02
6095:-4.9375187330325115e-02
6096:-3.7484737183305319e-02
6097:-2.5724747240344806e-02
6098:-1.6745754931270188e-02
6099:-1.4716622819890095e-02
6100:-3.8638008915604802e-02
6101:-2.6665039338975953e-02
6102:-1.7586037447903609e-02
6103:-1.5615143940260801e-02
6104:-4.0311862309493428e-02
6105:-2.8067053265972336e-02
6106:-1.8869814787584253e-02
6107:-1.6989390001772547e-02
6108:-4.1724505873647892e-02
6109:-2.9277426999899252e-02
6110:-1.9998875943696238e-02
6111:-1.8197320318254509e-02
6112:-1.5166302008211053e-02
6113:-1.5637113788463355e-02
6114:-1.4832615950706812e-02
6115:-1.3111280566810015e-02
6116:-1.6137704309893131e-02
6117:-1.6724751044295886e-02
6118:-1.6011267248462469e-02
6119:-1.4313214617462777e-02
6120:-1.7616948602497014e-02
6121:-1.8375887802211735e-02
6122:-1.7808461889970300e-02
6123:-1.6160770785975099e-02
6124:-1.8911665191418479e-02
6125:-1.9816208923050502e-02
6126:-1.9381313571006035e-02
6127:-1.7788660657524789e-02
6128:-1.1827392531583032e-02
6129:-9.2682668090099639e-03
6130:-5.7640287879704580e-03
6131:-2.9675946579061710e-03
6132:-1.3026463766025228e-02
6133:-1.0454798097843911e-02
6134:-6.9248375280891372e-03
6135:-4.1017641769930408e-03
6136:-1.4880110008067425e-02
6137:-1.2308794429142920e-02
6138:-8.7643147445855066e-03
6139:-5.9195189291699028e-03
6140:-1.6521208747138395e-02
6141:-1.3964227388098818e-02
6142:-1.0423310140437327e-02
6143:-7.5707450783803970e-03
6144:-1.4671563315420486e-03
6145:9.3303201407517926e-04
6146:3.1634587260670703e-03
6147:4.1847875431859881e-03
6148:-2.5853666807071846e-03
6149:-1.6295431758971206e-04
6150:2.0791218092256355e-03
6151:3.0961493992408217e-03
6152:-4.3888809791556458e-03
6153:-1.9496756277109597e-03
6154:2.9175522516754410e-04
6155:1.2909671055796449e-03
6156:-6.0333068048461762e-03
6157:-3.5896451977534983e-03
6158:-1.3615103078526876e-03
6159:-3.8725293982557916e-04
6160:4.4972145767911394e-03
6161:4.8512815370161068e-03
6162:4.9011813635567404e-03
6163:4.6251990439929386e-03
6164:3.4017069903293970e-03
6165:3.7358317183825065e-03
6166:3.7455694899569537e-03
6167:3.4273752571533610e-03
6168:1.5809948151357244e-03
6169:1.8765778106423802e-03
6170:1.8175130045903650e-03
6171:1.4319436724376726e-03
6172:-1.1562056044528077e-04
6173:1.3888573117631803e-04
6174:1.3883332771433872e-05
6175:-4.3178411907017115e-04
6176:4.3702335132674896e-03
6177:3.7434751633607898e-03
6178:2.6467516419082337e-03
6179:1.5931599091067218e-03
6180:3.1458154630131328e-03
6181:2.4636788906388079e-03
6182:1.2846887090022636e-03
6183:1.6059701753607134e-04
6184:1.1093645308714237e-03
6185:3.4425102319694513e-04
6186:-9.5427025163527252e-04
6187:-2.1788521210117980e-03
6188:-7.8967283046407289e-04
6189:-1.6249329099121514e-03
6190:-3.0227582363451530e-03
6191:-4.3300097814828872e-03
6192:9.5720342352062320e-04
6193:-3.6155567396320377e-04
6194:-2.3225367936671815e-03
6195:-4.0072421054410867e-03
6196:-5.1536646352261023e-04
6197:-1.9114129330146323e-03
6198:-3.9775160882476552e-03
6199:-5.7464688780944516e-03
6200:-2.9114239382057859e-03
6201:-4.4166189882853309e-03
6202:-6.6303218869850147e-03
6203:-8.5164263659747320e-03
6204:-5.1090352389600484e-03
6205:-6.7041045956521697e-03
6206:-9.0396330116550485e-03
6207:-1.1022284636612797e-02
6208:-4.9681405411861378e-03
6209:-6.8786805478139364e-03
6210:-9.5765075719827439e-03
6211:-1.1798202241623203e-02
6212:-6.7537474792097535e-03
6213:-8.7552928415177960e-03
6214:-1.1579792998310891e-02
6215:-1.3904578523206300e-02
6216:-9.5876481781249547e-03
6217:-1.1713446569052507e-02
6218:-1.4709355839876556e-02
6219:-1.7173242857907060e-02
6220:-1.2145982081085744e-02
6221:-1.4372262858330726e-02
6222:-1.7504315072651853e-02
6223:-2.0077416278583640e-02
6224:-1.3035026458031071e-02
6225:-1.5441040844747636e-02
6226:-1.8742209637101714e-02
6227:-2.1394456937922537e-02
6228:-1.5198262055424709e-02
6229:-1.7711416759071046e-02
6230:-2.1153110074135780e-02
6231:-2.3914112567014086e-02
6232:-1.8543763361730928e-02
6233:-2.1202548395702264e-02
6234:-2.4836196238755309e-02
6235:-2.7745708967519173e-02
6236:-2.1508073895545848e-02
6237:-2.4281813004959414e-02
6238:-2.8068532099166009e-02
6239:-3.1097084909534247e-02
6240:-2.2850428922474561e-02
6241:-2.5660075481815973e-02
6242:-2.9474530140435877e-02
6243:-3.2509198772450863e-02
6244:-2.5428581241103088e-02
6245:-2.8349454749823842e-02
6246:-3.2311671971737767e-02
6247:-3.5461346062495389e-02
6248:-2.9339781798162174e-02
6249:-3.2411033316892997e-02
6250:-3.6572059793658525e-02
6251:-3.9876688119360459e-02
6252:-3.2754965270445344e-02
6253:-3.5945949898170106e-02
6254:-4.0264302568900380e-02
6255:-4.3691521237282108e-02
6256:-3.4164031188688097e-02
6257:-3.7323280544314039e-02
6258:-4.1546604104680383e-02
6259:-4.4860186109447260e-02
6260:-3.7177944123358314e-02
6261:-4.0452896222375433e-02
6262:-4.4826857631218027e-02
6263:-4.8255919176407702e-02
6264:-4.1676862168867859e-02
6265:-4.5108971307465842e-02
6266:-4.9687672486017090e-02
6267:-5.3272852526681007e-02
6268:-4.5558016374515849e-02
6269:-4.9115248447657502e-02
6270:-5.3857011916381745e-02
6271:-5.7565883842924485e-02
6272:-4.6651551460946149e-02
6273:-5.0036919546222677e-02
6274:-5.4492874474963718e-02
6275:-5.7935260226729075e-02
6276:-5.0108782747905020e-02
6277:-5.3607161731286115e-02
6278:-5.8205214799730502e-02
6279:-6.1752249323647805e-02
6280:-5.5208312452140591e-02
6281:-5.8858078784638557e-02
6282:-6.3647243469480849e-02
6283:-6.7336932140369843e-02
6284:-5.9566390896348048e-02
6285:-6.3335465110925721e-02
6286:-6.8276646847108921e-02
6287:-7.2081882625733659e-02
6288:-5.9776567346983507e-02
6289:-6.3209349919394447e-02
6290:-6.7638061459499826e-02
6291:-7.0995013753477748e-02
6292:-6.3647783829597432e-02
6293:-6.7179688988579733e-02
6294:-7.1732426260603013e-02
6295:-7.5180192684123126e-02
6296:-6.9307448242852579e-02
6297:-7.2977836113131564e-02
6298:-7.7705223779783145e-02
6299:-8.1280742403019468e-02
6300:-7.4114098157984545e-02
6301:-7.7898985546381735e-02
6302:-8.2770643354107984e-02
6303:-8.6450717561207480e-02
6304:-7.2769803741830674e-02
6305:-7.6052727708585927e-02
6306:-8.0238613673642184e-02
6307:-8.3372270956342059e-02
6308:-7.7001591898704744e-02
6309:-8.0364369377423861e-02
6310:-8.4637814897620720e-02
6311:-8.7825053298653089e-02
6312:-8.3167351818508581e-02
6313:-8.6642225945948295e-02
6314:-9.1041169472427297e-02
6315:-9.4309001312469137e-02
6316:-8.8390164811138233e-02
6317:-9.1956479570165381e-02
6318:-9.6460561624546151e-02
6319:-9.9799386718903926e-02
6320:-8.5010100559813867e-02
6321:-8.7922935392753490e-02
6322:-9.1394030850638977e-02
6323:-9.3807973009772644e-02
6324:-8.9486314418935023e-02
6325:-9.2431863701106148e-02
6326:-9.5924086866050168e-02
6327:-9.8338482623021584e-02
6328:-9.6007552174428357e-02
6329:-9.9008179818024497e-02
6330:-1.0254058619552692e-01
6331:-1.0496002447072869e-01
6332:-1.0153244383228166e-01
6333:-1.0458573084029496e-01
6334:-1.0815863949421045e-01
6335:-1.1058446045704073e-01
6336:-9.5012978658911840e-02
6337:-9.7198767891287258e-02
6338:-9.9926365646329701e-02
6339:-1.0192922181182699e-01
6340:-9.9538270642482857e-02
6341:-1.0170169146959845e-01
6342:-1.0437262530233524e-01
6343:-1.0630882542658804e-01
6344:-1.0615283193182733e-01
6345:-1.0828311498191413e-01
6346:-1.1087189234453119e-01
6347:-1.1271596877552317e-01
6348:-1.1177106913889051e-01
6349:-1.1387266151106416e-01
6350:-1.1639426001660624e-01
6351:-1.1816724948240498e-01
6352:-1.0294700829106120e-01
6353:-1.0440010008216651e-01
6354:-1.0534537221893576e-01
6355:-1.0536097156571622e-01
6356:-1.0728194843933667e-01
6357:-1.0862943375346647e-01
6358:-1.0939571813926019e-01
6359:-1.0924483852619267e-01
6360:-1.1362949059133233e-01
6361:-1.1483840819987680e-01
6362:-1.1536779233041662e-01
6363:-1.1499025373793086e-01
6364:-1.1903642127651083e-01
6365:-1.2014095537503636e-01
6366:-1.2048483841270410e-01
6367:-1.1992185190246885e-01
6368:-1.0516718959507106e-01
6369:-1.0520442619441599e-01
6370:-1.0621942499356517e-01
6371:-1.0775690251937284e-01
6372:-1.0895344075282398e-01
6373:-1.0880518465458174e-01
6374:-1.0957449633029735e-01
6375:-1.1091896966249340e-01
6376:-1.1456251238673693e-01
6377:-1.1414829424232562e-01
6378:-1.1455879203284880e-01
6379:-1.1562298593708455e-01
6380:-1.1937930871829279e-01
6381:-1.1873802229383809e-01
6382:-1.1884157471100906e-01
6383:-1.1967000442656321e-01
6384:-1.0874210913090625e-01
6385:-1.0897055569097250e-01
6386:-1.0573296084968427e-01
6387:-1.0058148069733490e-01
6388:-1.1179729893587417e-01
6389:-1.1178630859546312e-01
6390:-1.0815909379718520e-01
6391:-1.0265493706805497e-01
6392:-1.1634867678205564e-01
6393:-1.1600031441215861e-01
6394:-1.1182221351425904e-01
6395:-1.0580969102961005e-01
6396:-1.2026991493657276e-01
6397:-1.1964506479458796e-01
6398:-1.1501070290910087e-01
6399:-1.0856816180339296e-01
6400:-9.7378377213355141e-02
6401:-9.9012901214049001e-02
6402:-1.1786669585049114e-01
6403:-1.4510561708687258e-01
6404:-9.9258620624994534e-02
6405:-1.0074155974820462e-01
6406:-1.1985393634164823e-01
6407:-1.4763811731967066e-01
6408:-1.0212845184467269e-01
6409:-1.0335300960277699e-01
6410:-1.2273906031753819e-01
6411:-1.5120712689152629e-01
6412:-1.0464086257348119e-01
6413:-1.0561729038057756e-01
6414:-1.2516212562159149e-01
6415:-1.5413360914482394e-01
6416:-1.6235120016586815e-01
6417:-1.6787618919659192e-01
6418:-1.1616555075258284e-01
6419:-3.1673870386957056e-02
6420:-1.6524605182510571e-01
6421:-1.7068855122702550e-01
6422:-1.1720467092069350e-01
6423:-3.0091491290657670e-02
6424:-1.6928133703455628e-01
6425:-1.7457975838691397e-01
6426:-1.1866856272857892e-01
6427:-2.7987754474625537e-02
6428:-1.7256090848414829e-01
6429:-1.7771951288390711e-01
6430:-1.1985270652123046e-01
6431:-2.6313733766125186e-02
6432:2.5481562790735515e-02
6433:8.9863178334373697e-02
6434:7.6677523772749112e-02
6435:-7.4992941099038543e-03
6436:2.8794545754377964e-02
6437:9.5094132354097693e-02
6438:8.1413842891514612e-02
6439:-5.4260587129520196e-03
6440:3.3254001614567659e-02
6441:1.0218842187869076e-01
6442:8.7905487587687431e-02
6443:-2.4868278373290113e-03
6444:3.6815581937320888e-02
6445:1.0788021792809808e-01
6446:9.3170933285332089e-02
6447:-8.7379429517059108e-06
6448:-7.4529775432538872e-02
6449:-1.7133131652431691e-01
6450:-2.2667250282075105e-01
6451:-2.1511971962262333e-01
6452:-7.4560374820976869e-02
6453:-1.7443792333293226e-01
6454:-2.3165703187648021e-01
6455:-2.1992511995002126e-01
6456:-7.4444659179750822e-02
6457:-1.7845683669366347e-01
6458:-2.3819760644974172e-01
6459:-2.2620598547798035e-01
6460:-7.4195590751664250e-02
6461:-1.8147417063683011e-01
6462:-2.4319800622377727e-01
6463:-2.3097612242936216e-01
6464:-1.9177924122740331e-01
6465:-1.4826114949224287e-01
6466:-9.8554513873967367e-02
6467:-6.5715602626302341e-02
6468:-1.9597759400254308e-01
6469:-1.5137124030672713e-01
6470:-1.0053820408040544e-01
6471:-6.7047577254183199e-02
6472:-2.0142274896741819e-01
6473:-1.5531694754495107e-01
6474:-1.0295956038191525e-01
6475:-6.8644297596286916e-02
6476:-2.0551103057038866e-01
6477:-1.5819390992813320e-01
6478:-1.0465511525227984e-01
6479:-6.9772815088478116e-02
6480:-7.3744329770868543e-03
6481:1.2148145274581035e-01
6482:2.1250276601458615e-01
6483:2.2306347043477817e-01
6484:-7.9537611701553535e-03
6485:1.2464997270042343e-01
6486:2.1833919563329232e-01
6487:2.2923798911415272e-01
6488:-8.7547627671631777e-03
6489:1.2883858400288681e-01
6490:2.2607346461259595e-01
6491:2.3741009129084731e-01
6492:-9.4156574846368801e-03
6493:1.3208929254303545e-01
6494:2.3210089020436614e-01
6495:2.4377425278117623e-01
6496:2.0919298362151495e-01
6497:1.7363361063940388e-01
6498:1.1410301475719077e-01
6499:5.8383132651680755e-02
6500:2.1498552479271194e-01
6501:1.7843686170240161e-01
6502:1.1724310132537437e-01
6503:5.9963565023412990e-02
6504:2.2263927932822572e-01
6505:1.8475278112571861e-01
6506:1.2131588829572643e-01
6507:6.1938178302352022e-02
6508:2.2859157270500852e-01
6509:1.8964355714548967e-01
6510:1.2442869932679136e-01
6511:6.3390358896757842e-02
6512:2.6144927833345037e-02
6513:-2.0580664134502474e-02
6514:-5.0730919698906148e-02
6515:-5.0246047421382972e-02
6516:2.6820818994171207e-02
6517:-2.1249906057306801e-02
6518:-5.2361882777840124e-02
6519:-5.2004911818296501e-02
6520:2.7580317760952645e-02
6521:-2.2299722565582658e-02
6522:-5.4715612570169311e-02
6523:-5.4549510387630847e-02
6524:2.8071717172690747e-02
6525:-2.3239946683849717e-02
6526:-5.6693108773766647e-02
6527:-5.6688775025729658e-02
6528:-4.2525614397177183e-02
6529:-2.9973748338735250e-02
6530:-2.0655771434255052e-02
6531:-1.8899569367757819e-02
6532:-4.4159517620130796e-02
6533:-3.1423747151367781e-02
6534:-2.2050440176801116e-02
6535:-2.0393432431428937e-02
6536:-4.6550575544247220e-02
6537:-3.3598234345723794e-02
6538:-2.4192192794044883e-02
6539:-2.2697733921748713e-02
6540:-4.8576986981000596e-02
6541:-3.5473739414071809e-02
6542:-2.6073346400662997e-02
6543:-2.4732456211718712e-02
6544:-1.9662173192065719e-02
6545:-2.0648887788491499e-02
6546:-2.0291857525753087e-02
6547:-1.8734701793879340e-02
6548:-2.1253510383795676e-02
6549:-2.2406368279562335e-02
6550:-2.2210192678904821e-02
6551:-2.0731308057279053e-02
6552:-2.3702303983870934e-02
6553:-2.5100405746384395e-02
6554:-2.5145311906036815e-02
6555:-2.3790254717714805e-02
6556:-2.5863918691967549e-02
6557:-2.7475841010619121e-02
6558:-2.7731373693631104e-02
6559:-2.6486784757730305e-02
6560:-1.7477638639098191e-02
6561:-1.4933746444041895e-02
6562:-1.1400148035559289e-02
6563:-8.5464233376988160e-03
6564:-1.9500305285864879e-02
6565:-1.6992676037496008e-02
6566:-1.3486247047406934e-02
6567:-1.0638950383720022e-02
6568:-2.2604717045470613e-02
6569:-2.0165765638222411e-02
6570:-1.6721565104018933e-02
6571:-1.3901664890130411e-02
6572:-2.5343528789746987e-02
6573:-2.2971853993693982e-02
6574:-1.9595641939871497e-02
6575:-1.6812690624226335e-02
6576:-7.0066287844553253e-03
6577:-4.5634465411507636e-03
6578:-2.3472895101198394e-03
6579:-1.3909938460953384e-03
6580:-9.0987360984843141e-03
6581:-6.6646118186800421e-03
6582:-4.4829854581742747e-03
6583:-3.5704915691989096e-03
6584:-1.2370388123528704e-02
6585:-9.9661104508348992e-03
6586:-7.8533175437819121e-03
6587:-7.0159074344868944e-03
6588:-1.5296723810115201e-02
6589:-1.2930467552063294e-02
6590:-1.0888252255704950e-02
6591:-1.0120185634151660e-02
6592:-1.1319223146808314e-03
6593:-9.0397884755674402e-04
6594:-1.0689627336660334e-03
6595:-1.5493526950102758e-03
6596:-3.3405040468714648e-03
6597:-3.1711918729175818e-03
6598:-3.4197326660880645e-03
6599:-3.9700363798647531e-03
6600:-6.8330710825525980e-03
6601:-6.7551476717192362e-03
6602:-7.1282210139299394e-03
6603:-7.7796623125500749e-03
6604:-9.9790150915202123e-03
6605:-9.9804115546826520e-03
6606:-1.0459803310747383e-02
6607:-1.1196938811797614e-02
6608:-1.9271441184853517e-03
6609:-2.8016417164716811e-03
6610:-4.2546723304541078e-03
6611:-5.6077402355529798e-03
6612:-4.3872679507723803e-03
6613:-5.3394088317262481e-03
6614:-6.9012320154141155e-03
6615:-8.3438746010557098e-03
6616:-8.2532894345220490e-03
6617:-9.3161252971099770e-03
6618:-1.1031648949898804e-02
6619:-1.2598974035249818e-02
6620:-1.1718309519533459e-02
6621:-1.2874447680667695e-02
6622:-1.4718009895557093e-02
6623:-1.6387500638383172e-02
6624:-6.4125065658080819e-03
6625:-8.0575818657164268e-03
6626:-1.0461232899266749e-02
6627:-1.2498037040126668e-02
6628:-9.1986366620360020e-03
6629:-1.0940629982013516e-02
6630:-1.3476481608095021e-02
6631:-1.5618943248987880e-02
6632:-1.3522484008534176e-02
6633:-1.5396762661492038e-02
6634:-1.8112351449852408e-02
6635:-2.0398908451103891e-02
6636:-1.7366601279449938e-02
6637:-1.9346707243733358e-02
6638:-2.2204717069204894e-02
6639:-2.4605159477739887e-02
6640:-1.3651163050353418e-02
6641:-1.5933154431963987e-02
6642:-1.9139469809013716e-02
6643:-2.1771385617492228e-02
6644:-1.6829751101448392e-02
6645:-1.9220283829220322e-02
6646:-2.2569263132281723e-02
6647:-2.5312199330008452e-02
6648:-2.1688760501576403e-02
6649:-2.4227621821040390e-02
6650:-2.7769407967591184e-02
6651:-3.0659743261207302e-02
6652:-2.5957605629498708e-02
6653:-2.8614278835596231e-02
6654:-3.2309106376856911e-02
6655:-3.5315621575870891e-02
6656:-2.3234255975229694e-02
6657:-2.6069976460554870e-02
6658:-2.9939998307654259e-02
6659:-3.3033768193862681e-02
6660:-2.6835145831367663e-02
6661:-2.9786449826869316e-02
6662:-3.3812732261230737e-02
6663:-3.7030135582869904e-02
6664:-3.2261302519653506e-02
6665:-3.5363054531632764e-02
6666:-3.9592995259637866e-02
6667:-4.2973122319751415e-02
6668:-3.6978615308905609e-02
6669:-4.0196769255786670e-02
6670:-4.4583152969941711e-02
6671:-4.8088512756951585e-02
6672:-3.4726692115299142e-02
6673:-3.7983187448654844e-02
6674:-4.2387253529774273e-02
6675:-4.5881172401247200e-02
6676:-3.8790089043374790e-02
6677:-4.2172300164095490e-02
6678:-4.6740912271815885e-02
6679:-5.0362379369234225e-02
6680:-4.4822223896028232e-02
6681:-4.8372717748276582e-02
6682:-5.3162241920487963e-02
6683:-5.6954226022475983e-02
6684:-5.0006629362616517e-02
6685:-5.3688328203077514e-02
6686:-5.8650933600334042e-02
6687:-6.2576248351157049e-02
6688:-4.7783780558217914e-02
6689:-5.1409239523907614e-02
6690:-5.6239920264178268e-02
6691:-6.0016069583439281e-02
6692:-5.2333717200583933e-02
6693:-5.6088592611172425e-02
6694:-6.1087981347961534e-02
6695:-6.4992597418185555e-02
6696:-5.9016849038909795e-02
6697:-6.2942947567339466e-02
6698:-6.8166236758699067e-02
6699:-7.2243629166827333e-02
6700:-6.4709902329604135e-02
6701:-6.8769009943920045e-02
6702:-7.4167315715889928e-02
6703:-7.8381910656184217e-02
6704:-6.2051863725116528e-02
6705:-6.5885872813956206e-02
6706:-7.0910566888981091e-02
6707:-7.4780125482171722e-02
6708:-6.7096334714811925e-02
6709:-7.1056950865784479e-02
6710:-7.6246525310912916e-02
6711:-8.0243531476082472e-02
6712:-7.4440096972160724e-02
6713:-7.8576135283295254e-02
6714:-8.3996720989754456e-02
6715:-8.8171814936230525e-02
6716:-8.0653127466053853e-02
6717:-8.4931895500382354e-02
6718:-9.0540957317423967e-02
6719:-9.4859996253469581e-02
6720:-7.6847018992591540e-02
6721:-8.0696213394527566e-02
6722:-8.5648461618304264e-02
6723:-8.9386402919591643e-02
6724:-8.2378893586678881e-02
6725:-8.6353624554604699e-02
6726:-9.1461581511075946e-02
6727:-9.5311323345766447e-02
6728:-9.0401937862533782e-02
6729:-9.4548459376937857e-02
6730:-9.9868580966323700e-02
6731:-1.0387271526330698e-01
6732:-9.7165781342453975e-02
6733:-1.0144895659310095e-01
6734:-1.0693930831058067e-01
6735:-1.1107054865512267e-01
6736:-9.1354877363957809e-02
6737:-9.4971820172124258e-02
6738:-9.9535385433525844e-02
6739:-1.0291570461710289e-01
6740:-9.7336329107230460e-02
6741:-1.0105396977807254e-01
6742:-1.0573901875345307e-01
6743:-1.0920536526253423e-01
6744:-1.0597741252229693e-01
6745:-1.0984023290282566e-01
6746:-1.1470389606989320e-01
6747:-1.1829667849437475e-01
6748:-1.1324255323671376e-01
6749:-1.1722926489352166e-01
6750:-1.2224531611461729e-01
6751:-1.2594395522408508e-01
6752:-1.0466947748180171e-01
6753:-1.0775472442158338e-01
6754:-1.1135256486462700e-01
6755:-1.1378249058433844e-01
6756:-1.1100210880671925e-01
6757:-1.1415302758771342e-01
6758:-1.1780264311138468e-01
6759:-1.2024384406864726e-01
6760:-1.2015576709612881e-01
6761:-1.2340190065694966e-01
6762:-1.2713117793171558e-01
6763:-1.2959984292567603e-01
6764:-1.2785406551748277e-01
6765:-1.3117927804303600e-01
6766:-1.3498133811004706e-01
6767:-1.3748577838540121e-01
6768:-1.1496542137897463e-01
6769:-1.1705090188108710e-01
6770:-1.1953644836214875e-01
6771:-1.2127271602549192e-01
6772:-1.2142226656203994e-01
6773:-1.2348436546507059e-01
6774:-1.2591323071248442e-01
6775:-1.2758788109461439e-01
6776:-1.3078146262037035e-01
6777:-1.3283278422223216e-01
6778:-1.3521179612561990e-01
6779:-1.3681719093026115e-01
6780:-1.3868031640097236e-01
6781:-1.4074279121110914e-01
6782:-1.4310235679483882e-01
6783:-1.4465936347257910e-01
6784:-1.2211945279051600e-01
6785:-1.2316955516619582e-01
6786:-1.2341246187415039e-01
6787:-1.2274512921332047e-01
6788:-1.2839502159423025e-01
6789:-1.2934191363375064e-01
6790:-1.2938568267957160e-01
6791:-1.2851220321543502e-01
6792:-1.3757412565975577e-01
6793:-1.3837995505265149e-01
6794:-1.3814596751156819e-01
6795:-1.3699019566846643e-01
6796:-1.4537571881315073e-01
6797:-1.4606520286232097e-01
6798:-1.4560658012084601e-01
6799:-1.4423061594165570e-01
6800:-1.2213689233701236e-01
6801:-1.2136549778593683e-01
6802:-1.2129425767829011e-01
6803:-1.2199024045144577e-01
6804:-1.2777535022012826e-01
6805:-1.2675330075220542e-01
6806:-1.2634787899396824e-01
6807:-1.2678753011818503e-01
6808:-1.3608090630142722e-01
6809:-1.3472712192888617e-01
6810:-1.3387529899837153e-01
6811:-1.3395832993636381e-01
6812:-1.4319039232298086e-01
6813:-1.4158410534353047e-01
6814:-1.4038081833563262e-01
6815:-1.4016607824029786e-01
6816:-1.2252035780264452e-01
6817:-1.2174170282229646e-01
6818:-1.1685085216469170e-01
6819:-1.1016350026825300e-01
6820:-1.2717976530195055e-01
6821:-1.2609040657003565e-01
6822:-1.2067730804581195e-01
6823:-1.1349588945748756e-01
6824:-1.3415049765881579e-01
6825:-1.3260225373514575e-01
6826:-1.2642217661655181e-01
6827:-1.1853208801799317e-01
6828:-1.4018359806165057e-01
6829:-1.3823501773736807e-01
6830:-1.3139955650038013e-01
6831:-1.2292187008621652e-01
6832:-1.0609461520487450e-01
6833:-1.0692063503957919e-01
6834:-1.2653247453583591e-01
6835:-1.5576536877395133e-01
6836:-1.0914395143688321e-01
6837:-1.0966557589687165e-01
6838:-1.2938819819740852e-01
6839:-1.5910333271582994e-01
6840:-1.1378183534535849e-01
6841:-1.1386947436997640e-01
6842:-1.3370607005713700e-01
6843:-1.6402328000842512e-01
6844:-1.1784833104503545e-01
6845:-1.1757889005241130e-01
6846:-1.3747462468046778e-01
6847:-1.6822139534081931e-01
6848:-1.7437937417866436e-01
6849:-1.7945171967885246e-01
6850:-1.2050498501740527e-01
6851:-2.5394877306851221e-02
6852:-1.7806079958918886e-01
6853:-1.8293021383715619e-01
6854:-1.2185338783671099e-01
6855:-2.3686441070687195e-02
6856:-1.8340580004662591e-01
6857:-1.8791253834959731e-01
6858:-1.2383620976249372e-01
6859:-2.1461654952402532e-02
6860:-1.8790383494072860e-01
6861:-1.9204481867460377e-01
6862:-1.2549056603962389e-01
6863:-1.9720299323351974e-02
6864:3.8771656635304824e-02
6865:1.1101313479336314e-01
6866:9.6089148355959858e-02
6867:1.3993930975629298e-03
6868:4.2488969625466090e-02
6869:1.1701227845165263e-01
6870:1.0169447147638862e-01
6871:4.1206126071271264e-03
6872:4.7457879598962735e-02
6873:1.2510337358586446e-01
6874:1.0929499291484752e-01
6875:7.8695014869183105e-03
6876:5.1396772431958823e-02
6877:1.3154853250443910e-01
6878:1.1539005880158812e-01
6879:1.0954800493774224e-02
6880:-7.3999532525834549e-02
6881:-1.8305363772056260e-01
6882:-2.4584935309176817e-01
6883:-2.3349021182098642e-01
6884:-7.3593969926845679e-02
6885:-1.8602657560245250e-01
6886:-2.5083715741282980e-01
6887:-2.3819227684517652e-01
6888:-7.2939276886039059e-02
6889:-1.8986149073055122e-01
6890:-2.5731014862653684e-01
6891:-2.4425475307114125e-01
6892:-7.2274938833108440e-02
6893:-1.9269506823154936e-01
6894:-2.6217968088963101e-01
6895:-2.4879704936360639e-01
6896:-2.0764535402247336e-01
6897:-1.5966247783019233e-01
6898:-1.0550064868248681e-01
6899:-7.0352696373208262e-02
6900:-2.1161525616872059e-01
6901:-1.6238003517742483e-01
6902:-1.0709594787349698e-01
6903:-7.1502513013658703e-02
6904:-2.1669811266230565e-01
6905:-1.6581937209129238e-01
6906:-1.0908449714805522e-01
6907:-7.2890140404605591e-02
6908:-2.2048159494024205e-01
6909:-1.6832563560305031e-01
6910:-1.1040941165061043e-01
6911:-7.3627433048837954e-02
6912:-9.7881326891810626e-03
6913:1.3383546738965901e-01
6914:2.3535001575445560e-01
6915:2.4720377432144919e-01
6916:-1.0522196891117011e-02
6917:1.3714161631449157e-01
6918:2.4151070835696456e-01
6919:2.5369463491277011e-01
6920:-1.1526268929610669e-02
6921:1.4153405957897663e-01
6922:2.4968890053899639e-01
6923:2.6228074863730766e-01
6924:-1.2311111749723082e-02
6925:1.4498023007546487e-01
6926:2.5608037701882203e-01
6927:2.6896335526566362e-01
6928:2.3179639683317266e-01
6929:1.9226949673168375e-01
6930:1.2608511873177622e-01
6931:6.4141581067149289e-02
6932:2.3785084045473628e-01
6933:1.9720569346703731e-01
6934:1.2915273193914165e-01
6935:6.5464953279305474e-02
6936:2.4583486165804902e-01
6937:2.0366365481045484e-01
6938:1.3307552168771142e-01
6939:6.7025453329581125e-02
6940:2.5202843766360844e-01
6941:2.0863348682627458e-01
6942:1.3602873031740384e-01
6943:6.8105910740017039e-02
6944:2.8299375210217855e-02
6945:-2.3792825313138328e-02
6946:-5.7813239590066283e-02
6947:-5.7900279738281921e-02
6948:2.8613109831455548e-02
6949:-2.4989926958741117e-02
6950:-6.0120264114942645e-02
6951:-6.0399388070695254e-02
6952:2.8805340209173393e-02
6953:-2.6859039583443607e-02
6954:-6.3534076196164330e-02
6955:-6.4115137776931189e-02
6956:2.8801174610125751e-02
6957:-2.8509368887021626e-02
6958:-6.6445735655196153e-02
6959:-6.7305572502017172e-02
6960:-4.9729483510468353e-02
6961:-3.6550345208883311e-02
6962:-2.7163800548441301e-02
6963:-2.5915998273271606e-02
6964:-5.2123474103080658e-02
6965:-3.8812033409794437e-02
6966:-2.9468938235951467e-02
6967:-2.8415296333545368e-02
6968:-5.5720110611941980e-02
6969:-4.2264780470307503e-02
6970:-3.3015467299162431e-02
6971:-3.2249715128686768e-02
6972:-5.8838934900231080e-02
6973:-4.5303320091973735e-02
6974:-3.6157575572828546e-02
6975:-3.5635984909727726e-02
6976:-2.7121709048103668e-02
6977:-2.8858235270612213e-02
6978:-2.9236371210414933e-02
6979:-2.8056359526811049e-02
6980:-2.9773443880426746e-02
6981:-3.1768810656675563e-02
6982:-3.2407560276030319e-02
6983:-3.1368805352159655e-02
6984:-3.3829026266948163e-02
6985:-3.6207312671226774e-02
6986:-3.7246509290276224e-02
6987:-3.6435529044803475e-02
6988:-3.7398615843667798e-02
6989:-4.0100560125830458e-02
6990:-4.1491365513024341e-02
6991:-4.0890275876038100e-02
6992:-2.6938110009755854e-02
6993:-2.4607320705302079e-02
6994:-2.1274774477343116e-02
6995:-1.8517708147574873e-02
6996:-3.0306614470118322e-02
6997:-2.8068781915455813e-02
6998:-2.4838039855509128e-02
6999:-2.2143728333091355e-02
7000:-3.5467563534334542e-02
7001:-3.3387621229356387e-02
7002:-3.0332023491451164e-02
7003:-2.7747841437129626e-02
7004:-4.0012749922810974e-02
7005:-3.8084981810343511e-02
7006:-3.5198059615697178e-02
7007:-3.2719906531732706e-02
7008:-1.7013288420387823e-02
7009:-1.4673077821973059e-02
7010:-1.2674679591175369e-02
7011:-1.1947230628404455e-02
7012:-2.0668075365296551e-02
7013:-1.8388022860319236e-02
7014:-1.6483488884934162e-02
7015:-1.5839914064446126e-02
7016:-2.6323204411831426e-02
7017:-2.4142946791889615e-02
7018:-2.2383158342777959e-02
7019:-2.1864257050342832e-02
7020:-3.1344192087027566e-02
7021:-2.9255939268214341e-02
7022:-2.7623623444314932e-02
7023:-2.7211939548123919e-02
7024:-1.1829842567013806e-02
7025:-1.1876373998628195e-02
7026:-1.2416291051553688e-02
7027:-1.3202339109837626e-02
7028:-1.5771189556390616e-02
7029:-1.5911238223105858e-02
7030:-1.6577432771834207e-02
7031:-1.7464512570962633e-02
7032:-2.1867346121899986e-02
7033:-2.2147604133629446e-02
7034:-2.3004417847646546e-02
7035:-2.4041655241488834e-02
7036:-2.7276557874077532e-02
7037:-2.7678306955087818e-02
7038:-2.8700832660922250e-02
7039:-2.9866810625505918e-02
7040:-1.3751013711134323e-02
7041:-1.4960217422659187e-02
7042:-1.6875857310502649e-02
7043:-1.8602212142273141e-02
7044:-1.8068702763798447e-02
7045:-1.9383304009113995e-02
7046:-2.1438773455285918e-02
7047:-2.3274410977990250e-02
7048:-2.4726487597126610e-02
7049:-2.6189154564174411e-02
7050:-2.8434272965226028e-02
7051:-3.0416044328229305e-02
7052:-3.0619444548795106e-02
7053:-3.2203006100456316e-02
7054:-3.4597903616417784e-02
7055:-3.6693386023916710e-02
7056:-1.9612000335711699e-02
7057:-2.1650081236620263e-02
7058:-2.4585442921050860e-02
7059:-2.7047418196855265e-02
7060:-2.4343246877882516e-02
7061:-2.6493219310276820e-02
7062:-2.9577533552248302e-02
7063:-3.2156828004899454e-02
7064:-3.1564063609576289e-02
7065:-3.3865421747001287e-02
7066:-3.7151795761624910e-02
7067:-3.9888624034880998e-02
7068:-3.7903163291133378e-02
7069:-4.0324012023591330e-02
7070:-4.3771170122525516e-02
7071:-4.6632838636016659e-02
7072:-2.8433647932678979e-02
7073:-3.1154165743530658e-02
7074:-3.4932297783031085e-02
7075:-3.8002150588538286e-02
7076:-3.3606836226843059e-02
7077:-3.6447348955716150e-02
7078:-4.0382098817885848e-02
7079:-4.3571942274347311e-02
7080:-4.1423135797576123e-02
7081:-4.4420840040729027e-02
7082:-4.8559465870603592e-02
7083:-5.1906484012769073e-02
7084:-4.8233659899931461e-02
7085:-5.1352880356601988e-02
7086:-5.5647005431004329e-02
7087:-5.9113793821107839e-02
7088:-3.9698591190981236e-02
7089:-4.2979611837826427e-02
7090:-4.7449735829022691e-02
7091:-5.1021870316615099e-02
7092:-4.5332286739599756e-02
7093:-4.8733564053981993e-02
7094:-5.3363079824687527e-02
7095:-5.7060924080547075e-02
7096:-5.3751424819589215e-02
7097:-5.7312772660549030e-02
7098:-6.2153996448077564e-02
7099:-6.6016665875388361e-02
7100:-6.1023624035175708e-02
7101:-6.4708757318836088e-02
7102:-6.9714196642362003e-02
7103:-7.3703736689366292e-02
7104:-5.2976802888437445e-02
7105:-5.6728783818638537e-02
7106:-6.1784446945916442e-02
7107:-6.5781462751510852e-02
7108:-5.9084493125651658e-02
7109:-6.2966807679581835e-02
7110:-6.8194690170814753e-02
7111:-7.2324937193109687e-02
7112:-6.8128990455481472e-02
7113:-7.2178153847981139e-02
7114:-7.7625389803312420e-02
7115:-8.1926342909805314e-02
7116:-7.5883633371263678e-02
7117:-8.0058467459188001e-02
7118:-8.5669862352492396e-02
7119:-9.0099219244673664e-02
7120:-6.7953255021108105e-02
7121:-7.2083837839783518e-02
7122:-7.7576756283671472e-02
7123:-8.1866323126788251e-02
7124:-7.4568039253419149e-02
7125:-7.8833343431583186e-02
7126:-8.4505908915745054e-02
7127:-8.8938028382960180e-02
7128:-8.4261738852789245e-02
7129:-8.8703415323042961e-02
7130:-9.4613134723684114e-02
7131:-9.9233081097188633e-02
7132:-9.2504701135140560e-02
7133:-9.7081572266523516e-02
7134:-1.0317398730965016e-01
7135:-1.0793792098915601e-01
7136:-8.4178745456160275e-02
7137:-8.8536378251821396e-02
7138:-9.4249343607381603e-02
7139:-9.8647099235649821e-02
7140:-9.1328586029264414e-02
7141:-9.5834746763041032e-02
7142:-1.0174282987583247e-01
7143:-1.0628937435432732e-01
7144:-1.0172589835861129e-01
7145:-1.0642508415259327e-01
7146:-1.1258755701751191e-01
7147:-1.1733192936297999e-01
7148:-1.1050851220586747e-01
7149:-1.1535427776803064e-01
7150:-1.2171235463996309e-01
7151:-1.2661314570036036e-01
7152:-1.0099394092406803e-01
7153:-1.0535150415386518e-01
7154:-1.1093577551339105e-01
7155:-1.1513867563253602e-01
7156:-1.0871467116085240e-01
7157:-1.1321735502940507e-01
7158:-1.1898909170608231e-01
7159:-1.2333638606043085e-01
7160:-1.1986392474275234e-01
7161:-1.2456905642969077e-01
7162:-1.3060794338156795e-01
7163:-1.3516108916992678e-01
7164:-1.2923167039778438e-01
7165:-1.3410358955958848e-01
7166:-1.4036404786616524e-01
7167:-1.4508604053481242e-01
7168:-1.1734926122316719e-01
7169:-1.2140695112979080e-01
7170:-1.2650949497097275e-01
7171:-1.3026709932107880e-01
7172:-1.2562448064516768e-01
7173:-1.2982253134391231e-01
7174:-1.3509386092938164e-01
7175:-1.3896699029319082e-01
7176:-1.3755841867526389e-01
7177:-1.4195182173544965e-01
7178:-1.4745854850859713e-01
7179:-1.5149825610036274e-01
7180:-1.4757155755623702e-01
7181:-1.5212281098675454e-01
7182:-1.5782459002433438e-01
7183:-1.6200995993288178e-01
7184:-1.3220515409839068e-01
7185:-1.3557462836602527e-01
7186:-1.3942084243234543e-01
7187:-1.4195122552665673e-01
7188:-1.4096083976420687e-01
7189:-1.4442376874410787e-01
7190:-1.4837188415328598e-01
7191:-1.5096689491113641e-01
7192:-1.5357629722517244e-01
7193:-1.5718800325359375e-01
7194:-1.6130772475079347e-01
7195:-1.6401298071702608e-01
7196:-1.6416536431257314e-01
7197:-1.6791646605437457e-01
7198:-1.7219691089509356e-01
7199:-1.7500108442638418e-01
7200:-1.4315736340229154e-01
7201:-1.4523363996076902e-01
7202:-1.4758914408990062e-01
7203:-1.4912087836976651e-01
7204:-1.5220266728272705e-01
7205:-1.5431414357227632e-01
7206:-1.5666698154690942e-01
7207:-1.5815364415570068e-01
7208:-1.6529790221559790e-01
7209:-1.6746792809647670e-01
7210:-1.6982988318887907e-01
7211:-1.7127371813207892e-01
7212:-1.7632737247712776e-01
7213:-1.7854787666143990e-01
7214:-1.8093054106051742e-01
7215:-1.8236410485664753e-01
7216:-1.4981412952759299e-01
7217:-1.5043850540483839e-01
7218:-1.4985782574788670e-01
7219:-1.4836562479917059e-01
7220:-1.5880573343635940e-01
7221:-1.5931760860061109e-01
7222:-1.5852550270241092e-01
7223:-1.5682634740155876e-01
7224:-1.7188554183943977e-01
7225:-1.7228232667454563e-01
7226:-1.7125264648686642e-01
7227:-1.6929648260335423e-01
7228:-1.8296289848365410e-01
7229:-1.8330461365460646e-01
7230:-1.8212149343005779e-01
7231:-1.7996840826509183e-01
7232:-1.4725749644611569e-01
7233:-1.4551839876352052e-01
7234:-1.4412327932633587e-01
7235:-1.4373885528291980e-01
7236:-1.5559373127591974e-01
7237:-1.5359951678223502e-01
7238:-1.5182166822319729e-01
7239:-1.5109762470495119e-01
7240:-1.6789844233719156e-01
7241:-1.6554854368412708e-01
7242:-1.6322752401580864e-01
7243:-1.6203378408876956e-01
7244:-1.7843331031027973e-01
7245:-1.7578467561051209e-01
7246:-1.7301725867037734e-01
7247:-1.7145713121945177e-01
7248:-1.4365432955906773e-01
7249:-1.4147415273619032e-01
7250:-1.3426680906544233e-01
7251:-1.2546235234768879e-01
7252:-1.5081163674726755e-01
7253:-1.4818590901253650e-01
7254:-1.4027060570937303e-01
7255:-1.3083727568181022e-01
7256:-1.6147832039082380e-01
7257:-1.5826699831027308e-01
7258:-1.4940972165736366e-01
7259:-1.3910691958084545e-01
7260:-1.7070069834978621e-01
7261:-1.6704869097133210e-01
7262:-1.5745053155308233e-01
7263:-1.4642486969483406e-01
7264:-1.2021127469265304e-01
7265:-1.1974282653266506e-01
7266:-1.3965662130191919e-01
7267:-1.7061692971363074e-01
7268:-1.2523842151925460e-01
7269:-1.2435587745924627e-01
7270:-1.4424005144633839e-01
7271:-1.7555879953181139e-01
7272:-1.3300906797698048e-01
7273:-1.3148101669593468e-01
7274:-1.5118824567164094e-01
7275:-1.8290052111726285e-01
7276:-1.3989534541572829e-01
7277:-1.3777272784090910e-01
7278:-1.5723264741284232e-01
7279:-1.8920016137617976e-01
7280:-1.9044782168108776e-01
7281:-1.9436052976139631e-01
7282:-1.2642206062850084e-01
7283:-1.8782122382016989e-02
7284:-1.9565151126877470e-01
7285:-1.9910022373221614e-01
7286:-1.2848869626321097e-01
7287:-1.7243945509625231e-02
7288:-2.0331364584850792e-01
7289:-2.0610179456604169e-01
7290:-1.3184991903210982e-01
7291:-1.5686245532783936e-02
7292:-2.0985241881185637e-01
7293:-2.1210012018095120e-01
7294:-1.3492779371331806e-01
7295:-1.4800316394117169e-02
7296:5.3539455478330202e-02
7297:1.3506886347506672e-01
7298:1.1873796210735008e-01
7299:1.2682641132004844e-02
7300:5.7405019942058322e-02
7301:1.4162696218984741e-01
7302:1.2504753008460362e-01
7303:1.5942845064638229e-02
7304:6.2153525208262846e-02
7305:1.5013307040451931e-01
7306:1.3339396525115332e-01
7307:2.0280025008888813e-02
7308:6.5623652299990676e-02
7309:1.5669728749610828e-01
7310:1.3996927436656584e-01
7311:2.3743543260908741e-02
7312:-7.1852836121165373e-02
7313:-1.9415661803506307e-01
7314:-2.6473504011750165e-01
7315:-2.5117836185553777e-01
7316:-7.1073817532324099e-02
7317:-1.9696973599536613e-01
7318:-2.6964413853558955e-01
7319:-2.5575175483409524e-01
7320:-7.0050103831120161e-02
7321:-2.0075847528179286e-01
7322:-2.7622474519890472e-01
7323:-2.6181429504711679e-01
7324:-6.9198604070029507e-02
7325:-2.0369983046179824e-01
7326:-2.8131832629164216e-01
7327:-2.6639324998656710e-01
7328:-2.2245784413976766e-01
7329:-1.6960856222828746e-01
7330:-1.1101045808982446e-01
7331:-7.3837280527176405e-02
7332:-2.2624564245942946e-01
7333:-1.7200951665006792e-01
7334:-1.1198262064770934e-01
7335:-7.3966699507340833e-02
7336:-2.3118903800100202e-01
7337:-1.7496704187386491e-01
7338:-1.1295114871323353e-01
7339:-7.3899186435665606e-02
7340:-2.3480150271395470e-01
7341:-1.7692626820800803e-01
7342:-1.1345557089033227e-01
7343:-7.3907591646477866e-02
7344:-1.2729270278082664e-02
7345:1.4684905192035622e-01
7346:2.5953320716304434e-01
7347:2.7256269156752555e-01
7348:-1.3525804678170352e-02
7349:1.5038856248138557e-01
7350:2.6607425904783483e-01
7351:2.7936803234608759e-01
7352:-1.4624003590482994e-02
7353:1.5504795116596318e-01
7354:2.7472825088014335e-01
7355:2.8836285335043649e-01
7356:-1.5541422069104404e-02
7357:1.5863553433640987e-01
7358:2.8145713301311187e-01
7359:2.9536457473436112e-01
7360:2.5535660625367651e-01
7361:2.1128908181585920e-01
7362:1.3758299552140824e-01
7363:6.8640887956109342e-02
7364:2.6163354874822764e-01
7365:2.1625843244680557e-01
7366:1.4041889460411530e-01
7367:6.9512710186317175e-02
7368:2.6990855480418890e-01
7369:2.2274374337726482e-01
7370:1.4397883038394690e-01
7371:7.0388627810648904e-02
7372:2.7634263140531262e-01
7373:2.2774858994003636e-01
7374:1.4662597641805822e-01
7375:7.0868425545288896e-02
7376:2.8746286099413512e-02
7377:-2.9463936266436810e-02
7378:-6.8100451904137771e-02
7379:-6.9127980745133918e-02
7380:2.8485635571312361e-02
7381:-3.1453865307004829e-02
7382:-7.1449506873597163e-02
7383:-7.2825761252150650e-02
7384:2.7819713224672665e-02
7385:-3.4473066163171640e-02
7386:-7.6331731806691908e-02
7387:-7.8216250029784454e-02
7388:2.7055981818073498e-02
7389:-3.7130584368793851e-02
7390:-8.0488326337257943e-02
7391:-8.2791148975563028e-02
7392:-6.0632129173014304e-02
7393:-4.7067645731149792e-02
7394:-3.7990946667237430e-02
7395:-3.7608102955046463e-02
7396:-6.4294747962805987e-02
7397:-5.0716909958971497e-02
7398:-4.1825092682308954e-02
7399:-4.1741274281747121e-02
7400:-6.9667044831325256e-02
7401:-5.6139894821258661e-02
7402:-4.7600192652652945e-02
7403:-4.7996373003932023e-02
7404:-7.4238624350884075e-02
7405:-6.0788693669138465e-02
7406:-5.2600532812900579e-02
7407:-5.3442201941795581e-02
7408:-3.9472822915695434e-02
7409:-4.2357131438812506e-02
7410:-4.3950838470071169e-02
7411:-4.3474634100734794e-02
7412:-4.3815384743396212e-02
7413:-4.7071625726309602e-02
7414:-4.9079880794278739e-02
7415:-4.8861778557082680e-02
7416:-5.0389360487037196e-02
7417:-5.4204961460262914e-02
7418:-5.6831102651883098e-02
7419:-5.6997668339410154e-02
7420:-5.6122734427686595e-02
7421:-6.0436387343334612e-02
7422:-6.3604273203551276e-02
7423:-6.4103855861319239e-02
7424:-4.2652317498994181e-02
7425:-4.0817527741376487e-02
7426:-3.8033297493815614e-02
7427:-3.5619443273230911e-02
7428:-4.8155340977663608e-02
7429:-4.6515870022878728e-02
7430:-4.3947996837469125e-02
7431:-4.1671297515708798e-02
7432:-5.6465152094416646e-02
7433:-5.5118387991374099e-02
7434:-5.2875210108038646e-02
7435:-5.0806923182005873e-02
7436:-6.3721040384659783e-02
7437:-6.2625204331185763e-02
7438:-6.0659774298013891e-02
7439:-5.8770701426984859e-02
7440:-3.4273270559681983e-02
7441:-3.2239670120357659e-02
7442:-3.0681441634487740e-02
7443:-3.0331170151653167e-02
7444:-4.0389153170919664e-02
7445:-3.8474562097570997e-02
7446:-3.7074901426217041e-02
7447:-3.6850853013952939e-02
7448:-4.9623820760910320e-02
7449:-4.7895798207673333e-02
7450:-4.6742634893681072e-02
7451:-4.6707054039928461e-02
7452:-5.7673685489856116e-02
7453:-5.6110530916222486e-02
7454:-5.5176278174790837e-02
7455:-5.5304911190616965e-02
7456:-3.0430860139971438e-02
7457:-3.0902023126045321e-02
7458:-3.2019147176776376e-02
7459:-3.3258113210231047e-02
7460:-3.7020046457321182e-02
7461:-3.7624704944827114e-02
7462:-3.8920182216298387e-02
7463:-4.0297612583329617e-02
7464:-4.6975466335674919e-02
7465:-4.7760915073428577e-02
7466:-4.9287360662122838e-02
7467:-5.0843896380344415e-02
7468:-5.5657255097020616e-02
7469:-5.6587666129242563e-02
7470:-5.8288744480538807e-02
7471:-5.9978408937987462e-02
7472:-3.4048854791400573e-02
7473:-3.5699393835042864e-02
7474:-3.8175734989571365e-02
7475:-4.0332355390027066e-02
7476:-4.1161988497407744e-02
7477:-4.2944542686885336e-02
7478:-4.5583295853203726e-02
7479:-4.7860074534998548e-02
7480:-5.1805873745513070e-02
7481:-5.3770420500582457e-02
7482:-5.6640505441435729e-02
7483:-5.9087516501918423e-02
7484:-6.1014167028316094e-02
7485:-6.3122821999491305e-02
7486:-6.6184379364000470e-02
7487:-6.8773924530005831e-02
7488:-4.1575288989734165e-02
7489:-4.4060724442016565e-02
7490:-4.7595327928264167e-02
7491:-5.0524949457953154e-02
7492:-4.9166588906622954e-02
7493:-5.1773146938196908e-02
7494:-5.5469184083579252e-02
7495:-5.8524610824394259e-02
7496:-6.0481578141732169e-02
7497:-6.3247767471790048e-02
7498:-6.7147998403013415e-02
7499:-7.0361214773186909e-02
7500:-7.0240218939050539e-02
7501:-7.3131952522380667e-02
7502:-7.7183768784474568e-02
7503:-8.0511103473067891e-02
7504:-5.2161756111776883e-02
7505:-5.5346271433937444e-02
7506:-5.9722981885149670e-02
7507:-6.3253033855220964e-02
7508:-6.0228801784006011e-02
7509:-6.3536574235687482e-02
7510:-6.8069366172916021e-02
7511:-7.1717580239875497e-02
7512:-7.2151015172818939e-02
7513:-7.5618540841342424e-02
7514:-8.0356376050757447e-02
7515:-8.4158510835526917e-02
7516:-8.2363120612751139e-02
7517:-8.5949991629633404e-02
7518:-9.0844985267444001e-02
7519:-9.4765544650874375e-02
7520:-6.5197159905148308e-02
7521:-6.8948069811791954e-02
7522:-7.4041103779026604e-02
7523:-7.8098201266270942e-02
7524:-7.3724838608520610e-02
7525:-7.7595498550627279e-02
7526:-8.2846867937600474e-02
7527:-8.7026428328847036e-02
7528:-8.6246463340423532e-02
7529:-9.0266480187159701e-02
7530:-9.5711147258105561e-02
7531:-1.0003988872411158e-01
7532:-9.6914843445381371e-02
7533:-1.0104496855761483e-01
7534:-1.0662740896508692e-01
7535:-1.1106115569945296e-01
7536:-8.0313920940849909e-02
7537:-8.4554970139749996e-02
7538:-9.0252498786743213e-02
7539:-9.4749388217373803e-02
7540:-8.9307558443260535e-02
7541:-9.3670341835845550e-02
7542:-9.9526962316714651e-02
7543:-1.0414833625590331e-01
7544:-1.0240146581561131e-01
7545:-1.0691614122766588e-01
7546:-1.1297357788771598e-01
7547:-1.1775191014031573e-01
7548:-1.1347966251422022e-01
7549:-1.1810377634812794e-01
7550:-1.2430828137263496e-01
7551:-1.2920183182220274e-01
7552:-9.7191913330517257e-02
7553:-1.0184053628733086e-01
7554:-1.0803004180951600e-01
7555:-1.1287020335801590e-01
7556:-1.0665880805443179e-01
7557:-1.1143837963671965e-01
7558:-1.1780500459691877e-01
7559:-1.2278526984385173e-01
7560:-1.2034740076601130e-01
7561:-1.2528956349523207e-01
7562:-1.3187651939729420e-01
7563:-1.3703397048508859e-01
7564:-1.3185935876861032e-01
7565:-1.3691944365352404e-01
7566:-1.4366709711216763e-01
7567:-1.4895652775404677e-01
7568:-1.1548178205965995e-01
7569:-1.2040505941080792e-01
7570:-1.2686800012514846e-01
7571:-1.3185442305731218e-01
7572:-1.2547292923798403e-01
7573:-1.3054238281374494e-01
7574:-1.3720608343801763e-01
7575:-1.4235707392395661e-01
7576:-1.3981967104948664e-01
7577:-1.4508150611398818e-01
7578:-1.5201335467093996e-01
7579:-1.5738338982491776e-01
7580:-1.5181678133471049e-01
7581:-1.5722717345294582e-01
7582:-1.6436727624637523e-01
7583:-1.6990557422161240e-01
7584:-1.3452106735896480e-01
7585:-1.3948610026063790e-01
7586:-1.4586990463943905e-01
7587:-1.5068485370016896e-01
7588:-1.4511583343999285e-01
7589:-1.5025707351295134e-01
7590:-1.5687272374049765e-01
7591:-1.6186356948027508e-01
7592:-1.6026340527320770e-01
7593:-1.6563416868801092e-01
7594:-1.7255302432350375e-01
7595:-1.7778026575265068e-01
7596:-1.7287742703393819e-01
7597:-1.7842204455498659e-01
7598:-1.8557562366951083e-01
7599:-1.9099385179895986e-01
7600:-1.5321841255274776e-01
7601:-1.5785648711013861e-01
7602:-1.6366868246438587e-01
7603:-1.6793993341201191e-01
7604:-1.6448933533604768e-01
7605:-1.6929932116981733e-01
7606:-1.7533799359446017e-01
7607:-1.7978814820202293e-01
7608:-1.8053393066321979e-01
7609:-1.8559029243940409e-01
7610:-1.9196159229241541e-01
7611:-1.9667350787539425e-01
7612:-1.9385463897446448e-01
7613:-1.9912013823601007e-01
7614:-2.0577292945170372e-01
7615:-2.1070087844319108e-01
7616:-1.7014227479762706e-01
7617:-1.7397773828447907e-01
7618:-1.7835359226987760e-01
7619:-1.8121398711788358e-01
7620:-1.8208795719359774e-01
7621:-1.8609458859019831e-01
7622:-1.9066066163706061e-01
7623:-1.9363515102105294e-01
7624:-1.9911350262153699e-01
7625:-2.0336300855435113e-01
7626:-2.0820374649611920e-01
7627:-2.1135803014633844e-01
7628:-2.1325361819917660e-01
7629:-2.1770026251149185e-01
7630:-2.2277747779860826e-01
7631:-2.2610594977824591e-01
7632:-1.8256259511918937e-01
7633:-1.8481166849444733e-01
7634:-1.8721276787591518e-01
7635:-1.8865246425080370e-01
7636:-1.9503187746007522e-01
7637:-1.9735514093282525e-01
7638:-1.9982878064605469e-01
7639:-2.0131065152061609e-01
7640:-2.1284076657070089e-01
7641:-2.1531610376719870e-01
7642:-2.1796212679937058e-01
7643:-2.1954715615991063e-01
7644:-2.2768150858891434e-01
7645:-2.3032628118337628e-01
7646:-2.3316260271118414e-01
7647:-2.3485091993011642e-01
7648:-1.8925282231562549e-01
7649:-1.8957889479712722e-01
7650:-1.8832288909567713e-01
7651:-1.8606183878914515e-01
7652:-2.0192820472482928e-01
7653:-2.0223818468370960e-01
7654:-2.0084493338622164e-01
7655:-1.9837709777538606e-01
7656:-2.2020385920799548e-01
7657:-2.2050598778648528e-01
7658:-2.1893916115975548e-01
7659:-2.1621919029458650e-01
7660:-2.3554044804132071e-01
7661:-2.3583726872726898e-01
7662:-2.3415099931644365e-01
7663:-2.3127506721977215e-01
7664:-1.8444814952928462e-01
7665:-1.8163021825742662e-01
7666:-1.7861792536154111e-01
7667:-1.7686555986934044e-01
7668:-1.9661591842226811e-01
7669:-1.9349485164536379e-01
7670:-1.9005695889306795e-01
7671:-1.8796675437822066e-01
7672:-2.1428639114847556e-01
7673:-2.1082681501510425e-01
7674:-2.0690666402898353e-01
7675:-2.0439770839445012e-01
7676:-2.2924401465771863e-01
7677:-2.2558867296602192e-01
7678:-2.2135199925450275e-01
7679:-2.1851458143415639e-01
7680:-1.7600708796375633e-01
7681:-1.7212520801521411e-01
7682:-1.6212190261001846e-01
7683:-1.5068501669006801e-01
7684:-1.8692262376408827e-01
7685:-1.8259268551866709e-01
7686:-1.7177119797704221e-01
7687:-1.5951005730003937e-01
7688:-2.0310099999717796e-01
7689:-1.9812438362647253e-01
7690:-1.8611873937248971e-01
7691:-1.7270973037857149e-01
7692:-2.1699695698877056e-01
7693:-2.1145495230797628e-01
7694:-1.9845675664265816e-01
7695:-1.8414142580596776e-01
7696:-1.4390443310581846e-01
7697:-1.4142691259359289e-01
7698:-1.6071838627270676e-01
7699:-1.9281039561256191e-01
7700:-1.5223456314583408e-01
7701:-1.4907571568531158e-01
7702:-1.6806262040430164e-01
7703:-2.0039338877991397e-01
7704:-1.6476981394279774e-01
7705:-1.6073161515861403e-01
7706:-1.7935423689695373e-01
7707:-2.1197468563460922e-01
7708:-1.7570071690435299e-01
7709:-1.7102168508454502e-01
7710:-1.8938449718874989e-01
7711:-2.2217529023388291e-01
7712:-2.1359038996376917e-01
7713:-2.1553744023076499e-01
7714:-1.3675306552067726e-01
7715:-1.4433105966653158e-02
7716:-2.2140372657550464e-01
7717:-2.2270364975620777e-01
7718:-1.4068436966546347e-01
7719:-1.4043759666671769e-02
7720:-2.3323546296165290e-01
7721:-2.3347568469268476e-01
7722:-1.4678645810131766e-01
7723:-1.4108222169743863e-02
7724:-2.4356197030798848e-01
7725:-2.4278704926006059e-01
7726:-1.5215870584753627e-01
7727:-1.4560196365846979e-02
7728:6.7423596497767219e-02
7729:1.6022829198348759e-01
7730:1.4355174421914599e-01
7731:2.5647410217451962e-02
7732:7.0613232941093271e-02
7733:1.6679423659793363e-01
7734:1.5023594964925691e-01
7735:2.9116486747308379e-02
7736:7.4406365103384692e-02
7737:1.7522480140070065e-01
7738:1.5887534260734151e-01
7739:3.3479362680246406e-02
7740:7.7052372971604874e-02
7741:1.8159170247843318e-01
7742:1.6546815877515811e-01
7743:3.6780240114976687e-02
7744:-6.8716443782543254e-02
7745:-2.0527602248862728e-01
7746:-2.8403236163540713e-01
7747:-2.6877319988602816e-01
7748:-6.7964736917361657e-02
7749:-2.0841128370601317e-01
7750:-2.8921402529868562e-01
7751:-2.7319786942254942e-01
7752:-6.7206876217662220e-02
7753:-2.1273159981967610e-01
7754:-2.9605549995470615e-01
7755:-2.7888618870511001e-01
7756:-6.6681047218150533e-02
7757:-2.1607329608739034e-01
7758:-3.0125204230738611e-01
7759:-2.8315794660019411e-01
7760:-2.3661760566803403e-01
7761:-1.7781933386083881e-01
7762:-1.1365093182855368e-01
7763:-7.4016573391401039e-02
7764:-2.3990901270256698e-01
7765:-1.7934840463976112e-01
7766:-1.1402570754304781e-01
7767:-7.4452746862907662e-02
7768:-2.4403590168267467e-01
7769:-1.8107343352290778e-01
7770:-1.1411204155279012e-01
7771:-7.4415725159198406e-02
7772:-2.4710382800949607e-01
7773:-1.8217182982378594e-01
7774:-1.1344528615953905e-01
7775:-7.2923893498749559e-02
7776:-1.6065444654177419e-02
7777:1.6055048134379646e-01
7778:2.8507808982565308e-01
7779:2.9913716708923294e-01
7780:-1.7098889137264428e-02
7781:1.6418943504691305e-01
7782:2.9194417730502975e-01
7783:3.0625756776416080e-01
7784:-1.8505478905440555e-02
7785:1.6908537496572254e-01
7786:3.0108791800178136e-01
7787:3.1564181178834294e-01
7788:-1.9594661195270341e-02
7789:1.7299851418933615e-01
7790:3.0828023440921742e-01
7791:3.2292702699961723e-01
7792:2.7980840864466261e-01
7793:2.3043361941612411e-01
7794:1.4801145750147401e-01
7795:7.1054301116116991e-02
7796:2.8632765648180752e-01
7797:2.3543742794973166e-01
7798:1.5049417489286357e-01
7799:7.1197171958560179e-02
7800:2.9485647560955403e-01
7801:2.4186846314720864e-01
7802:1.5348246337315144e-01
7803:7.0989517555265821e-02
7804:3.0141518623616992e-01
7805:2.4670947855397957e-01
7806:1.5557515211959141e-01
7807:7.0552648711021931e-02
7808:2.6552875159874742e-02
7809:-3.8681599633556246e-02
7810:-8.2867431057062291e-02
7811:-8.5401814198395251e-02
7812:2.5344097681742932e-02
7813:-4.1963696754049346e-02
7814:-8.7818339056547415e-02
7815:-9.0844832200452447e-02
7816:2.3280055213006058e-02
7817:-4.6921711914635685e-02
7818:-9.5196389966375750e-02
7819:-9.9021928978842169e-02
7820:2.1371697720213082e-02
7821:-5.1167150319361018e-02
7822:-1.0148741662483404e-01
7823:-1.0607871828578656e-01
7824:-7.6848782933006038e-02
7825:-6.3449796226858909e-02
7826:-5.5476266587665177e-02
7827:-5.6584770325137028e-02
7828:-8.2308485561870245e-02
7829:-6.9034620258274698e-02
7830:-6.1507359595828572e-02
7831:-6.3160525112141638e-02
7832:-9.0573555788785232e-02
7833:-7.7564393409498805e-02
7834:-7.0726878498969442e-02
7835:-7.3169680139653540e-02
7836:-9.7774964991650781e-02
7837:-8.5084829865740660e-02
7838:-7.8880624867920440e-02
7839:-8.1984946350981622e-02
7840:-5.9436031335420157e-02
7841:-6.4043390678949264e-02
7842:-6.7527461505445655e-02
7843:-6.8219292372402554e-02
7844:-6.6360665751293180e-02
7845:-7.1571117709684842e-02
7846:-7.5710037213679457e-02
7847:-7.6804371957640089e-02
7848:-7.6870174465981531e-02
7849:-8.2953125052916687e-02
7850:-8.8056418594293112e-02
7851:-8.9757171829322621e-02
7852:-8.6094563156234247e-02
7853:-9.2897225673981579e-02
7854:-9.8812266693709516e-02
7855:-1.0103681971075733e-01
7856:-6.7922275356551057e-02
7857:-6.6969882549182444e-02
7858:-6.5162799521851084e-02
7859:-6.3375719841500436e-02
7860:-7.6688674230655590e-02
7861:-7.6042023351241259e-02
7862:-7.4573010239162699e-02
7863:-7.2999544064704866e-02
7864:-8.9919992251250677e-02
7865:-8.9750182504546958e-02
7866:-8.8813627589174909e-02
7867:-8.7572289279569879e-02
7868:-1.0144543366288401e-01
7869:-1.0170300814565089e-01
7870:-1.0125070273252429e-01
7871:-1.0031206587186865e-01
7872:-6.2327734939444566e-02
7873:-6.0859304041785793e-02
7874:-6.0051665242197766e-02
7875:-6.0275118917097713e-02
7876:-7.2051112480915502e-02
7877:-7.0769249452553959e-02
7878:-7.0207251417199662e-02
7879:-7.0618098695085285e-02
7880:-8.6773666763005075e-02
7881:-8.5756544315688077e-02
7882:-8.5525815214535839e-02
7883:-8.6189659217358355e-02
7884:-9.9647977509660507e-02
7885:-9.8854611312398477e-02
7886:-9.8883361863429248e-02
7887:-9.9739016796278057e-02
7888:-6.0675536735506158e-02
7889:-6.1686576229454435e-02
7890:-6.3480780302068038e-02
7891:-6.5239703996540971e-02
7892:-7.1116578685200896e-02
7893:-7.2296465406807620e-02
7894:-7.4286753250866366e-02
7895:-7.6184827311595094e-02
7896:-8.6824864628438525e-02
7897:-8.8252730262339818e-02
7898:-9.0542677277943601e-02
7899:-9.2648244554454362e-02
7900:-1.0047924046445594e-01
7901:-1.0210988408028145e-01
7902:-1.0466078061628610e-01
7903:-1.0695021805539204e-01
7904:-6.6313867163881768e-02
7905:-6.8499816227689261e-02
7906:-7.1667379311026888e-02
7907:-7.4337134300832122e-02
7908:-7.7331789794947772e-02
7909:-7.9659182426254332e-02
7910:-8.3017957287771657e-02
7911:-8.5835580128534775e-02
7912:-9.3897136682704219e-02
7913:-9.6407084249459638e-02
7914:-9.9996750415900587e-02
7915:-1.0299339136356409e-01
7916:-1.0828719695031870e-01
7917:-1.1094109460183817e-01
7918:-1.1469313108505638e-01
7919:-1.1781022747668847e-01
7920:-7.5844104681740299e-02
7921:-7.8804599470564729e-02
7922:-8.2935976947706630e-02
7923:-8.6321454727985775e-02
7924:-8.7420135464580218e-02
7925:-9.0514557884198085e-02
7926:-9.4801684525221391e-02
7927:-9.8297324460176555e-02
7928:-1.0467570647614631e-01
7929:-1.0794751040543432e-01
7930:-1.1244958665179519e-01
7931:-1.1609536615551724e-01
7932:-1.1955982922067247e-01
7933:-1.2296284042215025e-01
7934:-1.2763609262955017e-01
7935:-1.3140469088144516e-01
7936:-8.8204986715064562e-02
7937:-9.1853507567992751e-02
7938:-9.6831443809734880e-02
7939:-1.0081511543746978e-01
7940:-1.0023811219651481e-01
7941:-1.0399595934315986e-01
7942:-1.0911918156024875e-01
7943:-1.1321456065794169e-01
7944:-1.1811061629345807e-01
7945:-1.2200217483293636e-01
7946:-1.2729342739405458e-01
7947:-1.3151681092436612e-01
7948:-1.3347978823254594e-01
7949:-1.3747076882339057e-01
7950:-1.4287484164187406e-01
7951:-1.4717976982028497e-01
7952:-1.0299705484467728e-01
7953:-1.0718454923116627e-01
7954:-1.1283678722662495e-01
7955:-1.1732287074787567e-01
7956:-1.1545534414285671e-01
7957:-1.1974681733223615e-01
7958:-1.2552470962663562e-01
7959:-1.3010284812859879e-01
7960:-1.3382637468926872e-01
7961:-1.3824188513392369e-01
7962:-1.4417093569126482e-01
7963:-1.4885733813680999e-01
7964:-1.4953331101542583e-01
7965:-1.5403108053783390e-01
7966:-1.6006367247666115e-01
7967:-1.6482402160919823e-01
7968:-1.1976971233668994e-01
7969:-1.2444898273826714e-01
7970:-1.3072856728518081e-01
7971:-1.3568119908021800e-01
7972:-1.3259840317321972e-01
7973:-1.3737161332193418e-01
7974:-1.4377897276567309e-01
7975:-1.4883328714080546e-01
7976:-1.5140827895826528e-01
7977:-1.5628544968588684e-01
7978:-1.6283232938251260e-01
7979:-1.6799933898621514e-01
7980:-1.6741178463552825e-01
7981:-1.7235515793059780e-01
7982:-1.7898802670039926e-01
7983:-1.8422515963709515e-01
7984:-1.3837049039759136e-01
7985:-1.4349086368715652e-01
7986:-1.5032121497634671e-01
7987:-1.5567960852220478e-01
7988:-1.5157800133669513e-01
7989:-1.5680499250306715e-01
7990:-1.6378327872730850e-01
7991:-1.6926524553069622e-01
7992:-1.7080696994957159e-01
7993:-1.7615803735315691e-01
7994:-1.8331165990257750e-01
7995:-1.8893987587654790e-01
7996:-1.8707301674258572e-01
7997:-1.9250585400977516e-01
7998:-1.9977738552493449e-01
7999:-2.0550353222812343e-01
8000:-1.5857932553027626e-01
8001:-1.6406879776706346e-01
8002:-1.7131965083553186e-01
8003:-1.7694658974001826e-01
8004:-1.7223540071181329e-01
8005:-1.7786509650003435e-01
8006:-1.8531256116738340e-01
8007:-1.9109890317491737e-01
8008:-1.9199259450333331e-01
8009:-1.9778598144135401e-01
8010:-2.0546681838405498e-01
8011:-2.1144972325648570e-01
8012:-2.0861087211120830e-01
8013:-2.1451345550887771e-01
8014:-2.2235633979963720e-01
8015:-2.2848406915230618e-01
8016:-1.7996638964025644e-01
8017:-1.8560254208210394e-01
8018:-1.9288286890506365e-01
8019:-1.9840774425849386e-01
8020:-1.9420633247174848e-01
8021:-2.0001475991375683e-01
8022:-2.0754097419799664e-01
8023:-2.1327529800257522e-01
8024:-2.1466913194305309e-01
8025:-2.2070549724962799e-01
8026:-2.2856521318841364e-01
8027:-2.3458320600566826e-01
8028:-2.3178963560200982e-01
8029:-2.3800459853856690e-01
8030:-2.4612583908442054e-01
8031:-2.5236190865739849e-01
8032:-2.0132969887444824e-01
8033:-2.0671438826446489e-01
8034:-2.1352535554832955e-01
8035:-2.1857181493064118e-01
8036:-2.1631713516925694e-01
8037:-2.2193136153513388e-01
8038:-2.2904310999998206e-01
8039:-2.3431617215625677e-01
8040:-2.3778543871446137e-01
8041:-2.4370376890124826e-01
8042:-2.5121845735811799e-01
8043:-2.5680790595932851e-01
8044:-2.5568506871587959e-01
8045:-2.6183532153775030e-01
8046:-2.6967160773564136e-01
8047:-2.7553136678730833e-01
8048:-2.2118524296050515e-01
8049:-2.2574024204891580e-01
8050:-2.3095521707434893e-01
8051:-2.3439331340717418e-01
8052:-2.3704773108918786e-01
8053:-2.4182405092538625e-01
8054:-2.4733491813021663e-01
8055:-2.5101155850709228e-01
8056:-2.5971194723920932e-01
8057:-2.6482472059415829e-01
8058:-2.7079362556913306e-01
8059:-2.7482928053844274e-01
8060:-2.7859034006069661e-01
8061:-2.8400678550322117e-01
8062:-2.9037787885998517e-01
8063:-2.9470987866702963e-01
8064:-2.3603028841689508e-01
8065:-2.3878609979635199e-01
8066:-2.4174250519034202e-01
8067:-2.4349043571169293e-01
8068:-2.5278019076979497e-01
8069:-2.5576289081949632e-01
8070:-2.5895471805089681e-01
8071:-2.6082260409501007e-01
8072:-2.7678794832775555e-01
8073:-2.8008726725582661e-01
8074:-2.8361387809353800e-01
8075:-2.8568549375924102e-01
8076:-2.9681657995771427e-01
8077:-3.0036388828236121e-01
8078:-3.0418048003314069e-01
8079:-3.0647362547642848e-01
8080:-2.4419597034922996e-01
8081:-2.4448938391343725e-01
8082:-2.4275006212071115e-01
8083:-2.3981247253307855e-01
8084:-2.6156676058844658e-01
8085:-2.6189099543079269e-01
8086:-2.6012604367171394e-01
8087:-2.5713161906389581e-01
8088:-2.8652202525657877e-01
8089:-2.8699325593545960e-01
8090:-2.8534581471056558e-01
8091:-2.8236268487994598e-01
8092:-3.0743426002612373e-01
8093:-3.0812405948151744e-01
8094:-3.0667784323729452e-01
8095:-3.0373784759509415e-01
8096:-2.3774580893996464e-01
8097:-2.3401287955414082e-01
8098:-2.2962271891261696e-01
8099:-2.2659994873751091e-01
8100:-2.5502386734704274e-01
8101:-2.5116214067054626e-01
8102:-2.4646619965693367e-01
8103:-2.4307585130974987e-01
8104:-2.8022418725194465e-01
8105:-2.7619407542149815e-01
8106:-2.7107395026371406e-01
8107:-2.6722093687834697e-01
8108:-3.0156903533164220e-01
8109:-2.9738548480839688e-01
8110:-2.9193889658944472e-01
8111:-2.8779593481883664e-01
8112:-2.2495016683716523e-01
8113:-2.1907955733080328e-01
8114:-2.0552960188244698e-01
8115:-1.9073261980026432e-01
8116:-2.4117396958955648e-01
8117:-2.3471238272864117e-01
8118:-2.2019017245253372e-01
8119:-2.0452353178677310e-01
8120:-2.6502821331772702e-01
8121:-2.5790966913991387e-01
8122:-2.4225812634604094e-01
8123:-2.2547248385210492e-01
8124:-2.8544778759796147e-01
8125:-2.7795753477237389e-01
8126:-2.6154114321421934e-01
8127:-2.4385635737167993e-01
8128:-1.8203416830920796e-01
8129:-1.7702882782762250e-01
8130:-1.9525145950959052e-01
8131:-2.2810225855679081e-01
8132:-1.9534216574373389e-01
8133:-1.8967162478104588e-01
8134:-2.0750612360384890e-01
8135:-2.4038092231450112e-01
8136:-2.1561294048414692e-01
8137:-2.0889959012928702e-01
8138:-2.2596212651406944e-01
8139:-2.5875003952488501e-01
8140:-2.3339746932375849e-01
8141:-2.2570049443388931e-01
8142:-2.4197226418485970e-01
8143:-2.7466010138113867e-01
8144:-2.4952567228624628e-01
8145:-2.4813320775782927e-01
8146:-1.5528508223698212e-01
8147:-1.4971162610297720e-02
8148:-2.6184374773991492e-01
8149:-2.5926975648623807e-01
8150:-1.6222585799488401e-01
8151:-1.6733559619510775e-02
8152:-2.8026151827252732e-01
8153:-2.7617563603539108e-01
8154:-1.7360171775533104e-01
8155:-2.1104120430790380e-02
8156:-2.9625234912738435e-01
8157:-2.9107539491851059e-01
8158:-1.8418509715925058e-01
8159:-2.6028541940330201e-02
8160:7.8337068387311790e-02
8161:1.8491774700309035e-01
8162:1.6895284825528503e-01
8163:3.8524602801060764e-02
8164:7.9837182759619249e-02
8165:1.9042625860332335e-01
8166:1.7497590229576859e-01
8167:4.1383585938515571e-02
8168:7.9959148056530996e-02
8169:1.9623866413007013e-01
8170:1.8192671268336708e-01
8171:4.4341415713672429e-02
8172:7.8732261261164366e-02
8173:1.9981810032795341e-01
8174:1.8674876131358922e-01
8175:4.6133390034713298e-02
8176:-6.6409086140470211e-02
8177:-2.1784699992868986e-01
8178:-3.0400348760176410e-01
8179:-2.8543083446351269e-01
8180:-6.6296010540966871e-02
8181:-2.2158547801464978e-01
8182:-3.0963795785309045e-01
8183:-2.9021421458343405e-01
8184:-6.6952842019799869e-02
8185:-2.2733845451503501e-01
8186:-3.1785066405257462e-01
8187:-2.9714415857572607e-01
8188:-6.8017290253093152e-02
8189:-2.3239702975700433e-01
8190:-3.2464263425445300e-01
8191:-3.0257073115869615e-01
8192:-2.4874969298536800e-01
8193:-1.8270593388494868e-01
8194:-1.1273661614197313e-01
8195:-7.1352126539980257e-02
8196:-2.5236368503436757e-01
8197:-1.8408320104610196e-01
8198:-1.1129524412147414e-01
8199:-6.7749728352415939e-02
8200:-2.5760386341432057e-01
8201:-1.8613176872745268e-01
8202:-1.0954893890256766e-01
8203:-6.3402973788854372e-02
8204:-2.6144746190819035e-01
8205:-1.8734494154857984e-01
8206:-1.0852205050550770e-01
8207:-6.1688253168155967e-02
8208:-2.0171487688352759e-02
8209:1.7514809781533644e-01
8210:3.1218626357303297e-01
8211:3.2684674263420943e-01
8212:-2.1287841399273859e-02
8213:1.7918309460468823e-01
8214:3.1957623558344705e-01
8215:3.3425592794586345e-01
8216:-2.2837211677976137e-02
8217:1.8438492108882765e-01
8218:3.2930342015267278e-01
8219:3.4406699397815893e-01
8220:-2.4111379106679647e-02
8221:1.8828729530585492e-01
8222:3.3680979476395545e-01
8223:3.5173756184075639e-01
8224:3.0491840896046635e-01
8225:2.4925205911586110e-01
8226:1.5661293118505923e-01
8227:7.0220571131279927e-02
8228:3.1150819572158595e-01
8229:2.5393944998113954e-01
8230:1.5833165956966347e-01
8231:6.9276171202406894e-02
8232:3.2022218896937160e-01
8233:2.6001680712024844e-01
8234:1.6021247872440522e-01
8235:6.7408046464712934e-02
8236:3.2707013539931967e-01
8237:2.6476649203611385e-01
8238:1.6147498753051995e-01
8239:6.5510681454144168e-02
8240:2.0244553359045174e-02
8241:-5.3573101005068555e-02
8242:-1.0504928551258164e-01
8243:-1.1011076431921936e-01
8244:1.7773371476150199e-02
8245:-5.8497124970984811e-02
8246:-1.1221335161117342e-01
8247:-1.1823273010053749e-01
8248:1.3779794532399562e-02
8249:-6.5873794702097810e-02
8250:-1.2266066269014882e-01
8251:-1.3001935541672738e-01
8252:1.0093360515818984e-02
8253:-7.2368282489340560e-02
8254:-1.3164083584837355e-01
8255:-1.4004843926204275e-01
8256:-1.0191884998170639e-01
8257:-8.9451892410219419e-02
8258:-8.3631558857782368e-02
8259:-8.7109746839940383e-02
8260:-1.1030333919559066e-01
8261:-9.8359112513221339e-02
8262:-9.3390944020625491e-02
8263:-9.7660110195287433e-02
8264:-1.2248643184390165e-01
8265:-1.1136228685073202e-01
8266:-1.0774012356942900e-01
8267:-1.1324194606060342e-01
8268:-1.3281765715065538e-01
8269:-1.2236645876049228e-01
8270:-1.1992451033593832e-01
8271:-1.2653893524042834e-01
8272:-9.1445166247040507e-02
8273:-9.8647293736876224e-02
8274:-1.0501905258595251e-01
8275:-1.0754307985200232e-01
8276:-1.0246076324886851e-01
8277:-1.1048637059969428e-01
8278:-1.1779907670717511e-01
8279:-1.2093365594136250e-01
8280:-1.1875758644872920e-01
8281:-1.2804832669589483e-01
8282:-1.3679833499352373e-01
8283:-1.4084705330504288e-01
8284:-1.3270480636334539e-01
8285:-1.4314545825802935e-01
8286:-1.5319226570445238e-01
8287:-1.5805054055917453e-01
8288:-1.0809394873991340e-01
8289:-1.0860071105968132e-01
8290:-1.0843329952829682e-01
8291:-1.0767415658930385e-01
8292:-1.2176988638398015e-01
8293:-1.2276512444718103e-01
8294:-1.2314598672684984e-01
8295:-1.2273598247858017e-01
8296:-1.4209872612737265e-01
8297:-1.4377303129626468e-01
8298:-1.4487558644961249e-01
8299:-1.4491621976927405e-01
8300:-1.5966082471778187e-01
8301:-1.6189220234663157e-01
8302:-1.6354082957861887e-01
8303:-1.6390020183611806e-01
8304:-1.0708995547321637e-01
8305:-1.0642514086369127e-01
8306:-1.0659465210051863e-01
8307:-1.0754969805585016e-01
8308:-1.2231236465858794e-01
8309:-1.2191297414784003e-01
8310:-1.2237276912410121e-01
8311:-1.2351855540261178e-01
8312:-1.4470480122178644e-01
8313:-1.4467805887969851e-01
8314:-1.4556610305608669e-01
8315:-1.4698400855533614e-01
8316:-1.6383733048572877e-01
8317:-1.6409531464935667e-01
8318:-1.6534355569936790e-01
8319:-1.6699976358337654e-01
8320:-1.0834382266312177e-01
8321:-1.1008323616039056e-01
8322:-1.1278125059121023e-01
8323:-1.1517757573052095e-01
8324:-1.2440744903271650e-01
8325:-1.2633099225237918e-01
8326:-1.2927787152162840e-01
8327:-1.3186474975705106e-01
8328:-1.4799572154038665e-01
8329:-1.5013062418883233e-01
8330:-1.5333951729651488e-01
8331:-1.5613422669667271e-01
8332:-1.6811623117033558e-01
8333:-1.7040453901929831e-01
8334:-1.7376555267023422e-01
8335:-1.7667374621186524e-01
8336:-1.1656610677034779e-01
8337:-1.1930008842814650e-01
8338:-1.2313456378101831e-01
8339:-1.2630884175140938e-01
8340:-1.3335160730983109e-01
8341:-1.3624506137422990e-01
8342:-1.4024680459312147e-01
8343:-1.4352929271532969e-01
8344:-1.5773821826009973e-01
8345:-1.6084157670114616e-01
8346:-1.6508595679021268e-01
8347:-1.6852430027302512e-01
8348:-1.7834705053268590e-01
8349:-1.8159706384954696e-01
8350:-1.8604190488421313e-01
8351:-1.8962013173093981e-01
8352:-1.2809020674877547e-01
8353:-1.3155900273350599e-01
8354:-1.3632381386134296e-01
8355:-1.4016064910738055e-01
8356:-1.4536524039596388e-01
8357:-1.4894308952947974e-01
8358:-1.5385957589921306e-01
8359:-1.5781449101034487e-01
8360:-1.7043151698649744e-01
8361:-1.7413444698715558e-01
8362:-1.7920847857250977e-01
8363:-1.8328763661016056e-01
8364:-1.9159064564438857e-01
8365:-1.9538769139438181e-01
8366:-2.0055468749981478e-01
8367:-2.0469959647831071e-01
8368:-1.4226928040044681e-01
8369:-1.4631329603656987e-01
8370:-1.5177244387575534e-01
8371:-1.5611438461633681e-01
8372:-1.5998434455280053e-01
8373:-1.6412699937075331e-01
8374:-1.6968733610571690e-01
8375:-1.7409218958320427e-01
8376:-1.8552626813283765e-01
8377:-1.8978617828149341e-01
8378:-1.9547147429062467e-01
8379:-1.9994958724062106e-01
8380:-2.0697616136796337e-01
8381:-2.1130834308821558e-01
8382:-2.1707992438550286e-01
8383:-2.2161000608427855e-01
8384:-1.5848752764066315e-01
8385:-1.6302324050647904e-01
8386:-1.6910537523273247e-01
8387:-1.7390156942739809e-01
8388:-1.7649583489393389e-01
8389:-1.8108841570941417e-01
8390:-1.8724336114085513e-01
8391:-1.9209290410235216e-01
8392:-2.0238431156072567e-01
8393:-2.0702681114454827e-01
8394:-2.1323629245367418e-01
8395:-2.1812375718552049e-01
8396:-2.2406498649342016e-01
8397:-2.2873124194408800e-01
8398:-2.3495240378607213e-01
8399:-2.3984191584374326e-01
8400:-1.7650703025133652e-01
8401:-1.8148108262382201e-01
8402:-1.8815239472606968e-01
8403:-1.9342086262132877e-01
8404:-1.9472541748287195e-01
8405:-1.9974663754707467e-01
8406:-2.0647666726191372e-01
8407:-2.1179211308497009e-01
8408:-2.2077625656537059e-01
8409:-2.2583366543671840e-01
8410:-2.3260961161352656e-01
8411:-2.3796081151592507e-01
8412:-2.4249546859954876e-01
8413:-2.4755688629848452e-01
8414:-2.5434028771355022e-01
8415:-2.5969715710097768e-01
8416:-1.9628702229169465e-01
8417:-2.0175792876540968e-01
8418:-2.0908519405048714e-01
8419:-2.1485751962574290e-01
8420:-2.1468530276122785e-01
8421:-2.2021244192426842e-01
8422:-2.2762348582340597e-01
8423:-2.3346745028417248e-01
8424:-2.4087383251848454e-01
8425:-2.4644263990264967e-01
8426:-2.5392067402825091e-01
8427:-2.5982881047788919e-01
8428:-2.6261276793921540e-01
8429:-2.6818832011609595e-01
8430:-2.7568518204619602e-01
8431:-2.8162081749427559e-01
8432:-2.1799043467395646e-01
8433:-2.2394510780360544e-01
8434:-2.3186881865474018e-01
8435:-2.3807242109806701e-01
8436:-2.3664128191175926e-01
8437:-2.4268375707981329e-01
8438:-2.5075058970100034e-01
8439:-2.5709117068175902e-01
8440:-2.6304273250129795e-01
8441:-2.6917971314041284e-01
8442:-2.7741109334956204e-01
8443:-2.8391117241922931e-01
8444:-2.8485585491468407e-01
8445:-2.9104903096621476e-01
8446:-2.9938408915537129e-01
8447:-3.0598422262097630e-01
8448:-2.4142444612656613e-01
8449:-2.4773575541335752e-01
8450:-2.5599636730475078e-01
8451:-2.6234623906069815e-01
8452:-2.6052704946268623e-01
8453:-2.6700904730218705e-01
8454:-2.7551406230365938e-01
8455:-2.8206526918477198e-01
8456:-2.8744384057388811e-01
8457:-2.9412097792265324e-01
8458:-3.0291117194948225e-01
8459:-3.0970998171410097e-01
8460:-3.0957658475595534e-01
8461:-3.1637731007525721e-01
8462:-3.2536333812692114e-01
8463:-3.3234994686092489e-01
8464:-2.6573157259055846e-01
8465:-2.7200384311451797e-01
8466:-2.8001781143017196e-01
8467:-2.8603484117532518e-01
8468:-2.8556266286082893e-01
8469:-2.9206558374928476e-01
8470:-3.0043066329688556e-01
8471:-3.0676257849009253e-01
8472:-3.1335217283749167e-01
8473:-3.2016713850282419e-01
8474:-3.2901786074688666e-01
8475:-3.3577866461505340e-01
8476:-3.3610910555630080e-01
8477:-3.4317802987750418e-01
8478:-3.5241436353188027e-01
8479:-3.5949961734778835e-01
8480:-2.8918659005484493e-01
8481:-2.9478253978342767e-01
8482:-3.0138319774876121e-01
8483:-3.0587569170390627e-01
8484:-3.1009881529630734e-01
8485:-3.1604044211194465e-01
8486:-3.2307195205143191e-01
8487:-3.2786763194010660e-01
8488:-3.3936009261291161e-01
8489:-3.4575140174885904e-01
8490:-3.5335066898508422e-01
8491:-3.5857635389888659e-01
8492:-3.6325945006291244e-01
8493:-3.6998188757192652e-01
8494:-3.7803117576882916e-01
8495:-3.8364152593548667e-01
8496:-3.0805910033564821e-01
8497:-3.1173914658723711e-01
8498:-3.1572837699309825e-01
8499:-3.1817213415064705e-01
8500:-3.3020093769770331e-01
8501:-3.3416630557834870e-01
8502:-3.3856048950701784e-01
8503:-3.4135753685852971e-01
8504:-3.6114175621665107e-01
8505:-3.6558175697763301e-01
8506:-3.7066129734470238e-01
8507:-3.7401810273930530e-01
8508:-3.8643384037201722e-01
8509:-3.9133835016135404e-01
8510:-3.9705307322711642e-01
8511:-4.0087636205842231e-01
8512:-3.1922352729545422e-01
8513:-3.2007194288346202e-01
8514:-3.1876739302579732e-01
8515:-3.1585282394022213e-01
8516:-3.4261324747136862e-01
8517:-3.4379128951991739e-01
8518:-3.4275717309459341e-01
8519:-3.3989345636970647e-01
8520:-3.7557322930774212e-01
8521:-3.7720438563203068e-01
8522:-3.7654672622466329e-01
8523:-3.7382656255507196e-01
8524:-4.0265738853532185e-01
8525:-4.0462616287045128e-01
8526:-4.0430044472427512e-01
8527:-4.0181560344210088e-01
8528:-3.1365946217183144e-01
8529:-3.0938316050872189e-01
8530:-3.0377478462006424e-01
8531:-2.9951836767907536e-01
8532:-3.3766591184678812e-01
8533:-3.3328850579115815e-01
8534:-3.2753074291576917e-01
8535:-3.2318180950173525e-01
8536:-3.7163573160842167e-01
8537:-3.6734809660147943e-01
8538:-3.6171264399763481e-01
8539:-3.5740981659038717e-01
8540:-3.9976363993133590e-01
8541:-3.9576973890264833e-01
8542:-3.9046020127882825e-01
8543:-3.8624874424155203e-01
8544:-2.9712210040417519e-01
8545:-2.8948906305248401e-01
8546:-2.7269213092624811e-01
8547:-2.5449702834919213e-01
8548:-3.2074439501671337e-01
8549:-3.1286030824636946e-01
8550:-2.9528295445420666e-01
8551:-2.7607524282996088e-01
8552:-3.5495063106256458e-01
8553:-3.4668998162177861e-01
8554:-3.2797366562410946e-01
8555:-3.0745326632647124e-01
8556:-3.8374108859341566e-01
8557:-3.7509542414214309e-01
8558:-3.5544508430221400e-01
8559:-3.3403214603163867e-01
8560:-2.4368084408436672e-01
8561:-2.3539054084986372e-01
8562:-2.5118852273873465e-01
8563:-2.8383507782122142e-01
8564:-2.6458034078865711e-01
8565:-2.5525649261542643e-01
8566:-2.7036482950296609e-01
8567:-3.0306484809057505e-01
8568:-2.9515682633955648e-01
8569:-2.8478361971926819e-01
8570:-2.9942481493351353e-01
8571:-3.3234389688870181e-01
8572:-3.2126638492615361e-01
8573:-3.1040987888793842e-01
8574:-3.2500595741913557e-01
8575:-3.5808702665362202e-01
8576:-3.0549858904245569e-01
8577:-2.9976810547724192e-01
8578:-1.9052109676368204e-01
8579:-2.9206817025879246e-02
8580:-3.2488973648457042e-01
8581:-3.1798983342052850e-01
8582:-2.0388666746312836e-01
8583:-3.6218704177795685e-02
8584:-3.5432635888322467e-01
8585:-3.4549316837452548e-01
8586:-2.2416964920898330e-01
8587:-4.7504204899711522e-02
8588:-3.8005517210591488e-01
8589:-3.6932268136409890e-01
8590:-2.4181810278320193e-01
8591:-5.7866595485751890e-02
8592:7.7637532208787274e-02
8593:2.0146386031533792e-01
8594:1.8917684110742905e-01
8595:4.6926894956082162e-02
8596:7.4756043842340525e-02
8597:2.0394777197169589e-01
8598:1.9311142952557292e-01
8599:4.7637977651942671e-02
8600:6.9166591854121010e-02
8601:2.0564243229563281e-01
8602:1.9669690592015848e-01
8603:4.6942723765083877e-02
8604:6.3287829282939592e-02
8605:2.0544496754696673e-01
8606:1.9802534458654647e-01
8607:4.5171647131697745e-02
8608:-6.8796191114886857e-02
8609:-2.3534164977264188e-01
8610:-3.2840132926330579e-01
8611:-3.0537920650136763e-01
8612:-7.1129453390162634e-02
8613:-2.4170564941907910e-01
8614:-3.3584579314946000e-01
8615:-3.1043521463489049e-01
8616:-7.5790939251198994e-02
8617:-2.5135797795580073e-01
8618:-3.4614163842217205e-01
8619:-3.1681665838623518e-01
8620:-8.0420948827890859e-02
8621:-2.5943744795891444e-01
8622:-3.5427316285324179e-01
8623:-3.2173042981450034e-01
8624:-2.6325591911860685e-01
8625:-1.8768311757252970e-01
8626:-1.0811140754537620e-01
8627:-6.1690880882037009e-02
8628:-2.6605966098447048e-01
8629:-1.8738926265886768e-01
8630:-1.0675031305934704e-01
8631:-6.1930459414069730e-02
8632:-2.6904065741735961e-01
8633:-1.8550330599849030e-01
8634:-1.0240962314266330e-01
8635:-5.8795786142112810e-02
8636:-2.7126348892682506e-01
8637:-1.8325289862601399e-01
8638:-9.5961914603567011e-02
8639:-5.0404472183534825e-02
8640:-2.4821307751092245e-02
8641:1.9033706781088580e-01
8642:3.4082611853083938e-01
8643:3.5588351893700543e-01
8644:-2.6157744877876723e-02
8645:1.9433355499361044e-01
8646:3.4846324095944142e-01
8647:3.6366562542974107e-01
8648:-2.8009442718691307e-02
8649:1.9996904663060169e-01
8650:3.5879650903465871e-01
8651:3.7387570954381422e-01
8652:-2.9616736184301110e-02
8653:2.0468926273561622e-01
8654:3.6714723628145851e-01
8655:3.8181648961409714e-01
8656:3.3079291493549873e-01
8657:2.6735541620640801e-01
8658:1.6210723969186028e-01
8659:6.4337157731492026e-02
8660:3.3774520181850243e-01
8661:2.7213118569378553e-01
8662:1.6310823837577859e-01
8663:6.1777501868629389e-02
8664:3.4670372360026641e-01
8665:2.7805389343162995e-01
8666:1.6395024246418463e-01
8667:5.7789683566306670e-02
8668:3.5347663514647054e-01
8669:2.8226049251772062e-01
8670:1.6417055132376418e-01
8671:5.4297860598351746e-02
8672:7.8919485759672680e-03
8673:-7.6169716808519666e-02
8674:-1.3683031844879806e-01
8675:-1.4579975574629109e-01
8676:3.2645415482619941e-03
8677:-8.4071105652296252e-02
8678:-1.4765313037286740e-01
8679:-1.5785300820479470e-01
8680:-3.5833488490806826e-03
8681:-9.5604325289900746e-02
8682:-1.6365301627004178e-01
8683:-1.7596302896495178e-01
8684:-9.2899715657691739e-03
8685:-1.0509473515353368e-01
8686:-1.7706296029513457e-01
8687:-1.9149234024711884e-01
8688:-1.3872033985363857e-01
8689:-1.2863005787289833e-01
8690:-1.2686289507371909e-01
8691:-1.3413318632694202e-01
8692:-1.5112001987072696e-01
8693:-1.4181843918490569e-01
8694:-1.4146364604875808e-01
8695:-1.5007639169025189e-01
8696:-1.6992675430251197e-01
8697:-1.6205723129158300e-01
8698:-1.6396241192917890e-01
8699:-1.7456333542809335e-01
8700:-1.8627573632941666e-01
8701:-1.7996351120859674e-01
8702:-1.8403097501490590e-01
8703:-1.9635546236691004e-01
8704:-1.4068646345652314e-01
8705:-1.5181092143230518e-01
8706:-1.6262440466071870e-01
8707:-1.6795708476715357e-01
8708:-1.5741411660703944e-01
8709:-1.6990066814539748e-01
8710:-1.8222148337118096e-01
8711:-1.8849675383627618e-01
8712:-1.8301988636298780e-01
8713:-1.9739294300485155e-01
8714:-2.1174474747916669e-01
8715:-2.1929630845569359e-01
8716:-2.0573070898386941e-01
8717:-2.2160250791928840e-01
8718:-2.3750949841898253e-01
8719:-2.4602803365114706e-01
8720:-1.6977530843116009e-01
8721:-1.7232076195631496e-01
8722:-1.7425962335191067e-01
8723:-1.7477567385830947e-01
8724:-1.9074065804359036e-01
8725:-1.9395337539179755e-01
8726:-1.9652859708028977e-01
8727:-1.9737268026376709e-01
8728:-2.2213764785955425e-01
8729:-2.2635144724051448e-01
8730:-2.2996189485512714e-01
8731:-2.3135342330608100e-01
8732:-2.4933299447065427e-01
8733:-2.5438429284818409e-01
8734:-2.5895023449556903e-01
8735:-2.6089030293704080e-01
8736:-1.7478281514759647e-01
8737:-1.7518523387763635e-01
8738:-1.7663242118792574e-01
8739:-1.7842846719257829e-01
8740:-1.9750901587108463e-01
8741:-1.9815978514780547e-01
8742:-1.9994640427074345e-01
8743:-2.0200097211421758e-01
8744:-2.3168924004481775e-01
8745:-2.3265603639467894e-01
8746:-2.3480779917645675e-01
8747:-2.3714557065681852e-01
8748:-2.6143238086061177e-01
8749:-2.6267062104264727e-01
8750:-2.6504098211802563e-01
8751:-2.6751639415320455e-01
8752:-1.7960805728375503e-01
8753:-1.8198111495689959e-01
8754:-1.8540973574207764e-01
8755:-1.8836022306675743e-01
8756:-2.0331145168755743e-01
8757:-2.0587870051983115e-01
8758:-2.0947708636594883e-01
8759:-2.1251688843826547e-01
8760:-2.3861751240258131e-01
8761:-2.4146831184034881e-01
8762:-2.4537123578446834e-01
8763:-2.4857779284054929e-01
8764:-2.6907380780656237e-01
8765:-2.7212323205880745e-01
8766:-2.7630885118711729e-01
8767:-2.7970152915567009e-01
8768:-1.9006017390186714e-01
8769:-1.9337806718503570e-01
8770:-1.9793134853513936e-01
8771:-2.0159254828707890e-01
8772:-2.1425865728364826e-01
8773:-2.1767699995199322e-01
8774:-2.2239672634863883e-01
8775:-2.2619987804130751e-01
8776:-2.5038191849688063e-01
8777:-2.5390507399840773e-01
8778:-2.5876722838764121e-01
8779:-2.6270386744105167e-01
8780:-2.8157929591701397e-01
8781:-2.8518862428844788e-01
8782:-2.9010834311730205e-01
8783:-2.9409040756551930e-01
8784:-2.0360208970119809e-01
8785:-2.0745243444226230e-01
8786:-2.1266154598684658e-01
8787:-2.1683010769003236e-01
8788:-2.2828463474748883e-01
8789:-2.3224484877082652e-01
8790:-2.3754432970983175e-01
8791:-2.4175486676532906e-01
8792:-2.6487198662970962e-01
8793:-2.6897228173454146e-01
8794:-2.7440778225743417e-01
8795:-2.7868135631350982e-01
8796:-2.9629537835345549e-01
8797:-3.0047888538692519e-01
8798:-3.0602381880120261e-01
8799:-3.1036035656970462e-01
8800:-2.1912002546654291e-01
8801:-2.2348165905380699e-01
8802:-2.2929371648139724e-01
8803:-2.3385010913173035e-01
8804:-2.4406209331150300e-01
8805:-2.4845948208858129e-01
8806:-2.5432074270757066e-01
8807:-2.5891120261604400e-01
8808:-2.8100682372598745e-01
8809:-2.8542544669336928e-01
8810:-2.9129970801806371e-01
8811:-2.9589574903121374e-01
8812:-3.1270547492633016e-01
8813:-3.1713316488177129e-01
8814:-3.2298239302370968e-01
8815:-3.2754715108842014e-01
8816:-2.3631537379807963e-01
8817:-2.4099043562613684e-01
8818:-2.4720789712917282e-01
8819:-2.5208844406294056e-01
8820:-2.6139101514979307e-01
8821:-2.6607545082796086e-01
8822:-2.7227499925556625e-01
8823:-2.7712540033335109e-01
8824:-2.9837810800322356e-01
8825:-3.0305133609596752e-01
8826:-3.0920177348726924e-01
8827:-3.1398838629141040e-01
8828:-3.3001301105965752e-01
8829:-3.3465094932327871e-01
8830:-3.4073857428415155e-01
8831:-3.4545794391763085e-01
8832:-2.5473681084899041e-01
8833:-2.5979054234050220e-01
8834:-2.6656639856189462e-01
8835:-2.7191762208377623e-01
8836:-2.7975424573681268e-01
8837:-2.8477245652665367e-01
8838:-2.9150422224361261e-01
8839:-2.9682224412803671e-01
8840:-3.1657460169594503e-01
8841:-3.2150714798520702e-01
8842:-3.2812195682916639e-01
8843:-3.3334992248895601e-01
8844:-3.4799996672009986e-01
8845:-3.5283901387381783e-01
8846:-3.5931940354795799e-01
8847:-3.6444141408454939e-01
8848:-2.7482980742495794e-01
8849:-2.8039969241064316e-01
8850:-2.8789499223525583e-01
8851:-2.9383762663568347e-01
8852:-2.9971673780869185e-01
8853:-3.0525663040936357e-01
8854:-3.1272524029142218e-01
8855:-3.1866209548870583e-01
8856:-3.3619755952171088e-01
8857:-3.4165675005336377e-01
8858:-3.4903763545036709e-01
8859:-3.5492308284687951e-01
8860:-3.6723373657445535e-01
8861:-3.7259616257880807e-01
8862:-3.7986370465142449e-01
8863:-3.8567065341674323e-01
8864:-2.9708046040404323e-01
8865:-3.0329695875071028e-01
8866:-3.1167683395532625e-01
8867:-3.1831977474880180e-01
8868:-3.2190856361677667e-01
8869:-3.2814468490435494e-01
8870:-3.3657313068969213e-01
8871:-3.4326904529680402e-01
8872:-3.5814841637251343e-01
8873:-3.6435705192641660e-01
8874:-3.7277821228417818e-01
8875:-3.7949489525658997e-01
8876:-3.8885678943397139e-01
8877:-3.9500050200780673e-01
8878:-4.0336390119041493e-01
8879:-4.1006564421009561e-01
8880:-3.2193731979342721e-01
8881:-3.2879341652080923e-01
8882:-3.3787687003749922e-01
8883:-3.4496537870796623e-01
8884:-3.4692045772228269e-01
8885:-3.5386329135760736e-01
8886:-3.6311856006921001e-01
8887:-3.7039361169231449e-01
8888:-3.8316900644599361e-01
8889:-3.9019458372481758e-01
8890:-3.9964162088136612e-01
8891:-4.0712927316327541e-01
8892:-4.1374518043897118e-01
8893:-4.2081324123673342e-01
8894:-4.3037194001928103e-01
8895:-4.3798048974750153e-01
8896:-3.4879060127603678e-01
8897:-3.5600052708944374e-01
8898:-3.6544281145637603e-01
8899:-3.7269327530251312e-01
8900:-3.7433957832563497e-01
8901:-3.8179728801722307e-01
8902:-3.9159140022293737e-01
8903:-3.9912513170487302e-01
8904:-4.1121065574435828e-01
8905:-4.1893887111675993e-01
8906:-4.2912444735487848e-01
8907:-4.3699870922060535e-01
8908:-4.4213606875749673e-01
8909:-4.5001804258952904e-01
8910:-4.6045882132089344e-01
8911:-4.6859559180669103e-01
8912:-3.7654103588498322e-01
8913:-3.8343239408578000e-01
8914:-3.9173125056248820e-01
8915:-3.9757433392731750e-01
8916:-4.0312743699775866e-01
8917:-4.1034027945254359e-01
8918:-4.1914781678189778e-01
8919:-4.2546996552961031e-01
8920:-4.4120208879603084e-01
8921:-4.4886487506640604e-01
8922:-4.5840092431184731e-01
8923:-4.6538237085139234e-01
8924:-4.7297038038810174e-01
8925:-4.8101771084512179e-01
8926:-4.9114437825961738e-01
8927:-4.9861435854286840e-01
8928:-4.0051013843690392e-01
8929:-4.0570108610109584e-01
8930:-4.1178553502827753e-01
8931:-4.1585808345640257e-01
8932:-4.2869556809189213e-01
8933:-4.3443343482683877e-01
8934:-4.4119139737599278e-01
8935:-4.4571870432507638e-01
8936:-4.6898811403712926e-01
8937:-4.7541208661876616e-01
8938:-4.8301947630716568e-01
8939:-4.8818553217942173e-01
8940:-5.0248199538618510e-01
8941:-5.0938067977394230e-01
8942:-5.1764146482502882e-01
8943:-5.2340005077404750e-01
8944:-4.1775055677323580e-01
8945:-4.1989189723392983e-01
8946:-4.1977216282170360e-01
8947:-4.1747818726654690e-01
8948:-4.4782484078291784e-01
8949:-4.5035756733980820e-01
8950:-4.5078845407142226e-01
8951:-4.4899270730349172e-01
8952:-4.9063791312285332e-01
8953:-4.9388798899061059e-01
8954:-4.9535481004068177e-01
8955:-4.9438873623275098e-01
8956:-5.2621953173537139e-01
8957:-5.3023091612798146e-01
8958:-5.3271066378206422e-01
8959:-5.3242763943005067e-01
8960:-4.1555226273314561e-01
8961:-4.1180411627860525e-01
8962:-4.0673757261465243e-01
8963:-4.0257142077646108e-01
8964:-4.4736639453818544e-01
8965:-4.4412003381511456e-01
8966:-4.3947574737538703e-01
8967:-4.3537363350259756e-01
8968:-4.9319574627634144e-01
8969:-4.9058505376398254e-01
8970:-4.8645018867880058e-01
8971:-4.8254959452673529e-01
8972:-5.3153113335198754e-01
8973:-5.2932678774713127e-01
8974:-5.2560531156514068e-01
8975:-5.2209980425253188e-01
8976:-4.0001274093171202e-01
8977:-3.9112179256645657e-01
8978:-3.7097841342560789e-01
8979:-3.4916696163267502e-01
8980:-4.3273528886609330e-01
8981:-4.2353117063846085e-01
8982:-4.0277488436204950e-01
8983:-3.8043432952460970e-01
8984:-4.7997147396814310e-01
8985:-4.7082894067227543e-01
8986:-4.4992037170780291e-01
8987:-4.2715541501268478e-01
8988:-5.1980428512949128e-01
8989:-5.1119512921439614e-01
8990:-4.9064105237101879e-01
8991:-4.6759053670227047e-01
8992:-3.3622350282620528e-01
8993:-3.2523538190931950e-01
8994:-3.3988952519644222e-01
8995:-3.7301220116146816e-01
8996:-3.6722737708868036e-01
8997:-3.5594835063798808e-01
8998:-3.7046735535660752e-01
8999:-4.0349856067783424e-01
9000:-4.1358908447077114e-01
9001:-4.0164742893268357e-01
9002:-4.1552964769216366e-01
9003:-4.4838442172609350e-01
9004:-4.5360860474971793e-01
9005:-4.4081450311897913e-01
9006:-4.5394993499034242e-01
9007:-4.8689773942084802e-01
9008:-3.9490108326700202e-01
9009:-3.8299964156618865e-01
9010:-2.5202091111060798e-01
9011:-6.4116674892229053e-02
9012:-4.2520735679941180e-01
9013:-4.1124170017217038e-01
9014:-2.7409033157664126e-01
9015:-7.8981676241479851e-02
9016:-4.7003373836288825e-01
9017:-4.5392676397755222e-01
9018:-3.0937459630800418e-01
9019:-1.0488572760211336e-01
9020:-5.0883585969699185e-01
9021:-4.9170552249921556e-01
9022:-3.4182347100289950e-01
9023:-1.2972329729434806e-01
9024:5.9429192384518624e-02
9025:2.0461877478435972e-01
9026:1.9808323436735245e-01
9027:4.3725878744044371e-02
9028:4.9017490709915144e-02
9029:2.0005832488242592e-01
9030:1.9567763569799715e-01
9031:3.8943736008980614e-02
9032:2.9194609100176270e-02
9033:1.8860776673763138e-01
9034:1.8800023871867449e-01
9035:2.8550316298208665e-02
9036:9.5474756936506384e-03
9037:1.7630792056957001e-01
9038:1.7925145777783533e-01
9039:1.7530576422654005e-02
9040:-8.3271858661572662e-02
9041:-2.6395087269457723e-01
9042:-3.5872958908463648e-01
9043:-3.2454305546194062e-01
9044:-9.0485201140621030e-02
9045:-2.7413591123361614e-01
9046:-3.6908032668403690e-01
9047:-3.3234625441609977e-01
9048:-1.0405514304167386e-01
9049:-2.9167595728572510e-01
9050:-3.8696777760128637e-01
9051:-3.4694572771705595e-01
9052:-1.1788760672993097e-01
9053:-3.0894207595241696e-01
9054:-4.0414127042594866e-01
9055:-3.6060272953427602e-01
9056:-2.7271063146747787e-01
9057:-1.8205821639326139e-01
9058:-9.1322332500806472e-02
9059:-4.3115990031956652e-02
9060:-2.7830793653008407e-01
9061:-1.8282706031170556e-01
9062:-8.4605463051814017e-02
9063:-2.9740453998562448e-02
9064:-2.9001701914252931e-01
9065:-1.8837906272975369e-01
9066:-8.0974631593180593e-02
9067:-1.8195960554049220e-02
9068:-3.0074374764495870e-01
9069:-1.9426796597652779e-01
9070:-8.2412760959916634e-02
9071:-1.7670211870753610e-02
9072:-3.0581121309954544e-02
9073:2.0734415440751727e-01
9074:3.7178264925335758e-01
9075:3.8611497951604440e-01
9076:-3.2682976566164743e-02
9077:2.1215752077920552e-01
9078:3.8063289649295551e-01
9079:3.9441769184307968e-01
9080:-3.5485187044235714e-02
9081:2.1810291068329721e-01
9082:3.9234593136171420e-01
9083:4.0582270743437815e-01
9084:-3.7180748777159336e-02
9085:2.2248640298207040e-01
9086:4.0137004001528309e-01
9087:4.1508613680699447e-01
9088:3.5705894964432322e-01
9089:2.8435849222339338e-01
9090:1.6410041667301178e-01
9091:5.2271194908848413e-02
9092:3.6392999527593778e-01
9093:2.8815643663923401e-01
9094:1.6339616229979079e-01
9095:4.7655370947965327e-02
9096:3.7350025605702725e-01
9097:2.9334774462711516e-01
9098:1.6171975298745322e-01
9099:4.0029331409749638e-02
9100:3.8155637911978563e-01
9101:2.9795856120529080e-01
9102:1.6023996527957099e-01
9103:3.3046768897176046e-02
9104:-1.2478360727972457e-02
9105:-1.1032937895832291e-01
9106:-1.8454759214542465e-01
9107:-2.0030537436058041e-01
9108:-1.9334344264829807e-02
9109:-1.2109850848520820e-01
9110:-1.9963741860712603e-01
9111:-2.1801913135983025e-01
9112:-3.0267731024520395e-02
9113:-1.3762001158990822e-01
9114:-2.2207661274287097e-01
9115:-2.4395194306836282e-01
9116:-4.0309011816293074e-02
9117:-1.5262558580920099e-01
9118:-2.4195437300718772e-01
9119:-2.6643620667670831e-01
9120:-1.9564923773153911e-01
9121:-1.9036410298378884e-01
9122:-1.9576119183040538e-01
9123:-2.0908034764431549e-01
9124:-2.1451477414851899e-01
9125:-2.1131992332216393e-01
9126:-2.1938838097951630e-01
9127:-2.3471115854582644e-01
9128:-2.4197277508776763e-01
9129:-2.4155152567435767e-01
9130:-2.5324326317599305e-01
9131:-2.7140918905315253e-01
9132:-2.6550874060718693e-01
9133:-2.6703724411366986e-01
9134:-2.8145025022163667e-01
9135:-3.0193488829541265e-01
9136:-2.1896585002821026e-01
9137:-2.3565453727513883e-01
9138:-2.5238785913253475e-01
9139:-2.6141000375790274e-01
9140:-2.4563819619922447e-01
9141:-2.6405246608554167e-01
9142:-2.8257836647591406e-01
9143:-2.9264840691493149e-01
9144:-2.8388069431967511e-01
9145:-3.0500403822052746e-01
9146:-3.2649873522053113e-01
9147:-3.3827669725841358e-01
9148:-3.1574260927164782e-01
9149:-3.3933618716103803e-01
9150:-3.6368574639358092e-01
9151:-3.7713884464647024e-01
9152:-2.6495652375034262e-01
9153:-2.7046515607702848e-01
9154:-2.7558727389175935e-01
9155:-2.7786840094925974e-01
9156:-2.9665274380604095e-01
9157:-3.0295989404208584e-01
9158:-3.0899633628433260e-01
9159:-3.1184835422161628e-01
9160:-3.4295841830591584e-01
9161:-3.5024620342643475e-01
9162:-3.5714839898501094e-01
9163:-3.6046034126448773e-01
9164:-3.8246435587283528e-01
9165:-3.9052402705239020e-01
9166:-3.9781221114067927e-01
9167:-4.0115000920199129e-01
9168:-2.7854575780801127e-01
9169:-2.7994908953057784e-01
9170:-2.8241686650577835e-01
9171:-2.8492762014496736e-01
9172:-3.1277229152839553e-01
9173:-3.1449839719521516e-01
9174:-3.1716013806014554e-01
9175:-3.1969502960368451e-01
9176:-3.6159062728732583e-01
9177:-3.6363707050575450e-01
9178:-3.6653926399564418e-01
9179:-3.6908217658026726e-01
9180:-4.0226642439582072e-01
9181:-4.0436826622675953e-01
9182:-4.0740325597005334e-01
9183:-4.0998307865912331e-01
9184:-2.8650702045514975e-01
9185:-2.8963884180660388e-01
9186:-2.9398009604742492e-01
9187:-2.9749341240641863e-01
9188:-3.2126359451167025e-01
9189:-3.2443462032961906e-01
9190:-3.2893187597608181e-01
9191:-3.3261560247041200e-01
9192:-3.7058757936529418e-01
9193:-3.7364112087279122e-01
9194:-3.7806368308316129e-01
9195:-3.8179619022206884e-01
9196:-4.1145297565864980e-01
9197:-4.1435399339710866e-01
9198:-4.1852308584398695e-01
9199:-4.2211929006795984e-01
9200:-2.9942412121635154e-01
9201:-3.0308931779479836e-01
9202:-3.0802617013944789e-01
9203:-3.1200939089120400e-01
9204:-3.3464236516297258e-01
9205:-3.3842768593914363e-01
9206:-3.4342329666596977e-01
9207:-3.4740774997268942e-01
9208:-3.8389487304261094e-01
9209:-3.8781114493323021e-01
9210:-3.9292855260255943e-01
9211:-3.9694929918544569e-01
9212:-4.2419428490604955e-01
9213:-4.2814020990825441e-01
9214:-4.3336898359454162e-01
9215:-4.3746967679535959e-01
9216:-3.1422021147920892e-01
9217:-3.1843235916679091e-01
9218:-3.2403231555879297e-01
9219:-3.2840823673782410e-01
9220:-3.4961463667816611e-01
9221:-3.5384210663744731e-01
9222:-3.5949537154919525e-01
9223:-3.6392226636939962e-01
9224:-3.9915148853854554e-01
9225:-4.0335990411725831e-01
9226:-4.0899183650966747e-01
9227:-4.1341979761191222e-01
9228:-4.3969385991872506e-01
9229:-4.4389291632274153e-01
9230:-4.4945370441052523e-01
9231:-4.5381994097681383e-01
9232:-3.3076798450340833e-01
9233:-3.3520158495005470e-01
9234:-3.4102734377718402e-01
9235:-3.4556188204501692e-01
9236:-3.6630648557215079e-01
9237:-3.7075088112810178e-01
9238:-3.7653043098355166e-01
9239:-3.8099670376965866e-01
9240:-4.1581275882747126e-01
9241:-4.2024864027940240e-01
9242:-4.2595688246614560e-01
9243:-4.3032012205005749e-01
9244:-4.5618792248366979e-01
9245:-4.6058011367265145e-01
9246:-4.6621576010488541e-01
9247:-4.7049461125710501e-01
9248:-3.4801083796368038e-01
9249:-3.5261769202447069e-01
9250:-3.5866047690004832e-01
9251:-3.6333703206899770e-01
9252:-3.8340211709849076e-01
9253:-3.8792413704207279e-01
9254:-3.9384641075208110e-01
9255:-3.9841811772293367e-01
9256:-4.3265355482922357e-01
9257:-4.3702223765680132e-01
9258:-4.4271634484129491e-01
9259:-4.4709615558415278e-01
9260:-4.7276792239667947e-01
9261:-4.7699553002908462e-01
9262:-4.8246348804459849e-01
9263:-4.8664959412884828e-01
9264:-3.6585174433844181e-01
9265:-3.7063180276408930e-01
9266:-3.7702528999381946e-01
9267:-3.8207768512615525e-01
9268:-4.0087096781048503e-01
9269:-4.0552242828084678e-01
9270:-4.1172962333457208e-01
9271:-4.1663080115063988e-01
9272:-4.4944194700128709e-01
9273:-4.5388253864156347e-01
9274:-4.5979549551502125e-01
9275:-4.6445730726771139e-01
9276:-4.8888867947713260e-01
9277:-4.9312734285082366e-01
9278:-4.9876920969426070e-01
9279:-5.0321287446087815e-01
9280:-3.8483335711479327e-01
9281:-3.9013085356442778e-01
9282:-3.9731975707493927e-01
9283:-4.0306930904377020e-01
9284:-4.1930490430683676e-01
9285:-4.2445345674460000e-01
9286:-4.3145556371888044e-01
9287:-4.3706627563083000e-01
9288:-4.6699956465278286e-01
9289:-4.7190020785093123e-01
9290:-4.7858216253370472e-01
9291:-4.8395263186387438e-01
9292:-5.0563411100569244e-01
9293:-5.1030356123996201e-01
9294:-5.1668279479279799e-01
9295:-5.2182585980224916e-01
9296:-4.0622552141530921e-01
9297:-4.1231841633771843e-01
9298:-4.2063340384828479e-01
9299:-4.2731790096238786e-01
9300:-4.4015012869843889e-01
9301:-4.4612113405098475e-01
9302:-4.5431534336939700e-01
9303:-4.6094481092135914e-01
9304:-4.8691187761873761e-01
9305:-4.9267123699314930e-01
9306:-5.0063908365118814e-01
9307:-5.0713616230782210e-01
9308:-5.2466768606931247e-01
9309:-5.3022307287553805e-01
9310:-5.3795466981428985e-01
9311:-5.4428988406061929e-01
9312:-4.3099707523568953e-01
9313:-4.3808001414289366e-01
9314:-4.4768112208973859e-01
9315:-4.5533314717170326e-01
9316:-4.6460989545372899e-01
9317:-4.7168597588468625e-01
9318:-4.8130799132700308e-01
9319:-4.8899293609530209e-01
9320:-5.1074528188557167e-01
9321:-5.1773036976651987e-01
9322:-5.2726597356746063e-01
9323:-5.3491670332149277e-01
9324:-5.4781826263442013e-01
9325:-5.5466170625166189e-01
9326:-5.6405002430985152e-01
9327:-5.7163372971623760e-01
9328:-4.5951410647349039e-01
9329:-4.6745590365641987e-01
9330:-4.7801978434501924e-01
9331:-4.8630354593154851e-01
9332:-4.9319712952573169e-01
9333:-5.0122331448991564e-01
9334:-5.1200740778428000e-01
9335:-5.2056666051297362e-01
9336:-5.3911855210296478e-01
9337:-5.4721437123598915e-01
9338:-5.5824544370401141e-01
9339:-5.6711562808826266e-01
9340:-5.7582215604997455e-01
9341:-5.8395055217541425e-01
9342:-5.9511956253026954e-01
9343:-6.0414932201396432e-01
9344:-4.9078003516852053e-01
9345:-4.9904799950875384e-01
9346:-5.0949132155734433e-01
9347:-5.1720153732796237e-01
9348:-5.2523170096096272e-01
9349:-5.3388242300289357e-01
9350:-5.4484670372288457e-01
9351:-5.5295002161041484e-01
9352:-5.7198602250069042e-01
9353:-5.8102972611201176e-01
9354:-5.9253298362342777e-01
9355:-6.0109325898651633e-01
9356:-6.0911675378011298e-01
9357:-6.1835001733405281e-01
9358:-6.3017555804928682e-01
9359:-6.3909941229897749e-01
9360:-5.2118966084318796e-01
9361:-5.2831747232359383e-01
9362:-5.3693908310962435e-01
9363:-5.4307012769281682e-01
9364:-5.5714234319848477e-01
9365:-5.6471567732723993e-01
9366:-5.7411197209527776e-01
9367:-5.8103715105509335e-01
9368:-6.0555745101127734e-01
9369:-6.1379633838728487e-01
9370:-6.2436326631736982e-01
9371:-6.3239600124079642e-01
9372:-6.4381789229816355e-01
9373:-6.5266924876279642e-01
9374:-6.6421275043002481e-01
9375:-6.7304512841195685e-01
9376:-5.4613383501884316e-01
9377:-5.5063362153900064e-01
9378:-5.5371264360529104e-01
9379:-5.5378104029224939e-01
9380:-5.8460177435928873e-01
9381:-5.9002313625752079e-01
9382:-5.9415137943091645e-01
9383:-5.9483008418664618e-01
9384:-6.3660640069816032e-01
9385:-6.4312774511610149e-01
9386:-6.4849506655262101e-01
9387:-6.5003637310885942e-01
9388:-6.7766970088610068e-01
9389:-6.8488088483012721e-01
9390:-6.9115069261293005e-01
9391:-6.9355892917991024e-01
9392:-5.5301233753738888e-01
9393:-5.5098778494324396e-01
9394:-5.4752806543391785e-01
9395:-5.4436763814016231e-01
9396:-5.9430492382149747e-01
9397:-5.9276982779062026e-01
9398:-5.9018002342047837e-01
9399:-5.8798265965343566e-01
9400:-6.4997301582063327e-01
9401:-6.4955093556127197e-01
9402:-6.4883516398258589e-01
9403:-6.4829463971982715e-01
9404:-6.9407454281929704e-01
9405:-6.9498968324027433e-01
9406:-6.9621659707958217e-01
9407:-6.9704011010588096e-01
9408:-5.4233588780744169e-01
9409:-5.3420437317991021e-01
9410:-5.1397615523405160e-01
9411:-4.9073639378121869e-01
9412:-5.8658096851305641e-01
9413:-5.7940659844316245e-01
9414:-5.5966537578024889e-01
9415:-5.3600408805169808e-01
9416:-6.4779046291066988e-01
9417:-6.4175204287893539e-01
9418:-6.2245902556682964e-01
9419:-5.9849607273679462e-01
9420:-6.9712221023683640e-01
9421:-6.9171261160913244e-01
9422:-6.7274682956257903e-01
9423:-6.4909326003347201e-01
9424:-4.7645402527502828e-01
9425:-4.6307925743944517e-01
9426:-4.7580487179111219e-01
9427:-5.0898661218663932e-01
9428:-5.2119917145293349e-01
9429:-5.0713167026466677e-01
9430:-5.1997406781062494e-01
9431:-5.5428457416298416e-01
9432:-5.8340658107987819e-01
9433:-5.6962872702065082e-01
9434:-5.8437768523612554e-01
9435:-6.2103904729478698e-01
9436:-6.3434675092239168e-01
9437:-6.2196875016830300e-01
9438:-6.3936597598825273e-01
9439:-6.7799762474250092e-01
9440:-5.3125561171401059e-01
9441:-5.1383142883605848e-01
9442:-3.6113289660429365e-01
9443:-1.4467114699205930e-01
9444:-5.7744523053939290e-01
9445:-5.5945339287051454e-01
9446:-4.0067379121631252e-01
9447:-1.7511914523590721e-01
9448:-6.4547795771794081e-01
9449:-6.2625840253003995e-01
9450:-4.5826447167845114e-01
9451:-2.2004633350343214e-01
9452:-7.0313125151853662e-01
9453:-6.8227054314931657e-01
9454:-5.0665606246798012e-01
9455:-2.5909424654810648e-01
9456:-2.3493643019413517e-03
9457:1.6874420585043193e-01
9458:1.7374358224772182e-01
9459:1.0573118211392193e-02
9460:-2.6600675835898983e-02
9461:1.5294775968607829e-01
9462:1.6132418526943115e-01
9463:-5.3481539738142172e-03
9464:-6.3286130896731935e-02
9465:1.2702188773654832e-01
9466:1.3902663171433682e-01
9467:-3.2502588795192550e-02
9468:-9.6597030126837041e-02
9469:1.0099750507771682e-01
9470:1.1549343198398061e-01
9471:-5.8757392520315303e-02
9472:-1.2659478800440377e-01
9473:-3.1969971676164477e-01
9474:-4.1452660625567561e-01
9475:-3.6838143954766966e-01
9476:-1.4623578087084665e-01
9477:-3.4321835883211471e-01
9478:-4.3569694801275788e-01
9479:-3.8211783255275561e-01
9480:-1.7809211965195287e-01
9481:-3.7904567958388991e-01
9482:-4.6548608337885983e-01
9483:-3.9877822338528773e-01
9484:-2.0690523106099312e-01
9485:-4.0907265081049049e-01
9486:-4.8903731473678685e-01
9487:-4.1129600824403362e-01
9488:-3.0644803040611335e-01
9489:-1.9717461947063541e-01
9490:-8.4329335538550917e-02
9491:-2.0886813739245124e-02
9492:-3.1457695195053098e-01
9493:-1.9775624950155307e-01
9494:-8.2265341820968937e-02
9495:-2.2424193053241476e-02
9496:-3.2172313998250807e-01
9497:-1.9071764050867371e-01
9498:-6.5956298826539306e-02
9499:-6.3845812341173603e-03
9500:-3.2648316129046190e-01
9501:-1.8179926965034571e-01
9502:-4.2182887305658862e-02
9503:2.6138634932124760e-02
9504:-3.7757934740421446e-02
9505:2.2483019476818081e-01
9506:4.0617939222690086e-01
9507:4.2020205106655267e-01
9508:-3.8147540204497947e-02
9509:2.3001829199342982e-01
9510:4.1546408251969325e-01
9511:4.2970844874920239e-01
9512:-3.8944948648773348e-02
9513:2.3832799064614169e-01
9514:4.2882585543178015e-01
9515:4.4233459427702587e-01
9516:-4.1331220887267262e-02
9517:2.4572159011937211e-01
9518:4.4066660744681002e-01
9519:4.5265413114550362e-01
9520:3.8614051806976024e-01
9521:3.0073792819883438e-01
9522:1.5949347162791072e-01
9523:2.8969550577716760e-02
9524:3.9463136410028699e-01
9525:3.0593798524882332e-01
9526:1.5811671284134379e-01
9527:2.1047423628067531e-02
9528:4.0549119563044295e-01
9529:3.1224934247818659e-01
9530:1.5604013416072401e-01
9531:1.0394079585315030e-02
9532:4.1378597390061150e-01
9533:3.1644483122572431e-01
9534:1.5395093686124833e-01
9535:2.1150784272946114e-03
9536:-4.6264442963831136e-02
9537:-1.6156648026009660e-01
9538:-2.5367884164940646e-01
9539:-2.7952263840497105e-01
9540:-5.8045160889725243e-02
9541:-1.7965284768676268e-01
9542:-2.7790488710018685e-01
9543:-3.0692295529120439e-01
9544:-7.3988557525225623e-02
9545:-2.0473348062100349e-01
9546:-3.1279937459325752e-01
9547:-3.4762392089734945e-01
9548:-8.6175476949601079e-02
9549:-2.2417742906740032e-01
9550:-3.4104759380074423e-01
9551:-3.8188956722730660e-01
9552:-2.7909456726030030e-01
9553:-2.8157449937873474e-01
9554:-2.9740856526483817e-01
9555:-3.1918104602821046e-01
9556:-3.0771633480828958e-01
9557:-3.1254857180628620e-01
9558:-3.3174670953673718e-01
9559:-3.5630973193790372e-01
9560:-3.5094286010372844e-01
9561:-3.6059621752089399e-01
9562:-3.8616934877894776e-01
9563:-4.1538362527443551e-01
9564:-3.8812862742298093e-01
9565:-4.0327315943849945e-01
9566:-4.3568465958582658e-01
9567:-4.6944459096098895e-01
9568:-3.3375687056847647e-01
9569:-3.5880334986217793e-01
9570:-3.8487628435053856e-01
9571:-3.9936426922392071e-01
9572:-3.7242869515391480e-01
9573:-4.0018709254474716e-01
9574:-4.2928529484146449e-01
9575:-4.4561045680854539e-01
9576:-4.3378388312851668e-01
9577:-4.6502431656964971e-01
9578:-4.9737430151204332e-01
9579:-5.1553370412687738e-01
9580:-4.8986423905118576e-01
9581:-5.2375849892457682e-01
9582:-5.5791615568326036e-01
9583:-5.7678938782837530e-01
9584:-4.0509224872534688e-01
9585:-4.1359678073518391e-01
9586:-4.2100610232914210e-01
9587:-4.2422567812609085e-01
9588:-4.5211426727945148e-01
9589:-4.6159236508157919e-01
9590:-4.6944143449293013e-01
9591:-4.7248676927564259e-01
9592:-5.2287819767099064e-01
9593:-5.3366481656533882e-01
9594:-5.4251709556851657e-01
9595:-5.4564117259259726e-01
9596:-5.8446679390475142e-01
9597:-5.9605262487360722e-01
9598:-6.0594156501182617e-01
9599:-6.0949950522168905e-01
9600:-4.2525379308952854e-01
9601:-4.2728566076691482e-01
9602:-4.3035511006049165e-01
9603:-4.3297701806937966e-01
9604:-4.7329794980203926e-01
9605:-4.7505300736475625e-01
9606:-4.7801714385943928e-01
9607:-4.8068907805577471e-01
9608:-5.4623053462988702e-01
9609:-5.4752807440458218e-01
9610:-5.5003061223478333e-01
9611:-5.5256218954727121e-01
9612:-6.1009552185724325e-01
9613:-6.1113448716474739e-01
9614:-6.1306161831301886e-01
9615:-6.1520325279327870e-01
9616:-4.3444858055183994e-01
9617:-4.3727323252442724e-01
9618:-4.4125675519722235e-01
9619:-4.4471558037507974e-01
9620:-4.8220587536906750e-01
9621:-4.8500508749095433e-01
9622:-4.8878664579924180e-01
9623:-4.9203194537908590e-01
9624:-5.5410246779214822e-01
9625:-5.5696064738034801e-01
9626:-5.6075652114731822e-01
9627:-5.6391556864920822e-01
9628:-6.1662407893658833e-01
9629:-6.1944830463650724e-01
9630:-6.2341322394052900e-01
9631:-6.2671926722704641e-01
9632:-4.4674126309666456e-01
9633:-4.5066284791039846e-01
9634:-4.5594746441539630e-01
9635:-4.6011283256678692e-01
9636:-4.9394869330088464e-01
9637:-4.9776151141462971e-01
9638:-5.0306091020073529e-01
9639:-5.0731450799903166e-01
9640:-5.6574232483580933e-01
9641:-5.6939376148819210e-01
9642:-5.7455937486215969e-01
9643:-5.7880833759469907e-01
9644:-6.2858487675208274e-01
9645:-6.3219174529891031e-01
9646:-6.3717527008502117e-01
9647:-6.4129275363412230e-01
9648:-4.6236421952408069e-01
9649:-4.6657091192284400e-01
9650:-4.7208173131755710e-01
9651:-4.7639151470562191e-01
9652:-5.0962252259046692e-01
9653:-5.1386705374520925e-01
9654:-5.1931098579611257e-01
9655:-5.2351245061712159e-01
9656:-5.8115370125899168e-01
9657:-5.8543296637402664e-01
9658:-5.9082355684525878e-01
9659:-5.9490389105826924e-01
9660:-6.4359950248951148e-01
9661:-6.4783825938950534e-01
9662:-6.5318717170807594e-01
9663:-6.5720497773677633e-01
9664:-4.7873147632038476e-01
9665:-4.8308128263966821e-01
9666:-4.8866771229558548e-01
9667:-4.9290026804817388e-01
9668:-5.2578547680186072e-01
9669:-5.3002144014344299e-01
9670:-5.3547222501560376e-01
9671:-5.3959672822689131e-01
9672:-5.9708464914703274e-01
9673:-6.0113364385714085e-01
9674:-6.0632885896213928e-01
9675:-6.1025557520415319e-01
9676:-6.5933002177146405e-01
9677:-6.6323240919640436e-01
9678:-6.6818168185323246e-01
9679:-6.7190270722996692e-01
9680:-4.9514158780134476e-01
9681:-4.9928878756079986e-01
9682:-5.0462029476939751e-01
9683:-5.0868635810085749e-01
9684:-5.4177366178700148e-01
9685:-5.4576551280670682e-01
9686:-5.5083339338775517e-01
9687:-5.5466077816927384e-01
9688:-6.1232683269733124e-01
9689:-6.1609080915911385e-01
9690:-6.2079563185687259e-01
9691:-6.2429300924624231e-01
9692:-6.7386509897341129e-01
9693:-6.7741892626673805e-01
9694:-6.8182261966992574e-01
9695:-6.8505638899824628e-01
9696:-5.1085887979477218e-01
9697:-5.1497375931814504e-01
9698:-5.2045303410155874e-01
9699:-5.2476732766475309e-01
9700:-5.5669695875136627e-01
9701:-5.6055450072410862e-01
9702:-5.6569300756105312e-01
9703:-5.6973766685334526e-01
9704:-6.2613574102967196e-01
9705:-6.2961777994860579e-01
9706:-6.3424668146493945e-01
9707:-6.3788618744463987e-01
9708:-6.8674391171954219e-01
9709:-6.8991523372578123e-01
9710:-6.9410848014868542e-01
9711:-6.9739628943317711e-01
9712:-5.2711687915805905e-01
9713:-5.3164871804083058e-01
9714:-5.3784702886736713e-01
9715:-5.4285424108292024e-01
9716:-5.7193933832705068e-01
9717:-5.7618915148800354e-01
9718:-5.8201641057535880e-01
9719:-5.8674150251858259e-01
9720:-6.3986721989138684e-01
9721:-6.4369921380274198e-01
9722:-6.4897490458210605e-01
9723:-6.5327229787835572e-01
9724:-6.9918553834520769e-01
9725:-7.0265545350398362e-01
9726:-7.0745047981995401e-01
9727:-7.1136847325111152e-01
9728:-5.4562598185477085e-01
9729:-5.5105698071162157e-01
9730:-5.5863673466509678e-01
9731:-5.6485985505216729e-01
9732:-5.8936518016097728e-01
9733:-5.9452432427121005e-01
9734:-6.0175710880759359e-01
9735:-6.0771627974402476e-01
9736:-6.5566626898642444e-01
9737:-6.6039108456379947e-01
9738:-6.6705304192829085e-01
9739:-6.7257367655014566e-01
9740:-7.1355508012774327e-01
9741:-7.1788367304936995e-01
9742:-7.2402313919052530e-01
9743:-7.2914630953480353e-01
9744:-5.6832915648510074e-01
9745:-5.7506934414936250e-01
9746:-5.8435251565347524e-01
9747:-5.9189075398916347e-01
9748:-6.1104553262038630e-01
9749:-6.1754604700128979e-01
9750:-6.2658375807900490e-01
9751:-6.3400162575522012e-01
9752:-6.7567130054953384e-01
9753:-6.8177434586024444e-01
9754:-6.9037780817743344e-01
9755:-6.9753185260165140e-01
9756:-7.3203626149364953e-01
9757:-7.3777313257081112e-01
9758:-7.4593783110365441e-01
9759:-7.5277594157987437e-01
9760:-5.9607093748366957e-01
9761:-6.0420967345760768e-01
9762:-6.1542426172853060e-01
9763:-6.2449736381050336e-01
9764:-6.3814501843775628e-01
9765:-6.4623917526361296e-01
9766:-6.5742123629200644e-01
9767:-6.6647385429751305e-01
9768:-7.0155788108252115e-01
9769:-7.0943429431517147e-01
9770:-7.2034470444088605e-01
9771:-7.2921398528288495e-01
9772:-7.5663715156083911e-01
9773:-7.6420250442034754e-01
9774:-7.7474322402440698e-01
9775:-7.8339557252884662e-01
9776:-6.2948659405377039e-01
9777:-6.3877408071962349e-01
9778:-6.5074609594116939e-01
9779:-6.5988337960319654e-01
9780:-6.7145237691346515e-01
9781:-6.8078456429508583e-01
9782:-6.9301030092474070e-01
9783:-7.0254315223239638e-01
9784:-7.3411334994935140e-01
9785:-7.4342634809855224e-01
9786:-7.5589789386796546e-01
9787:-7.6582509062197290e-01
9788:-7.8821628697721535e-01
9789:-7.9748043301830684e-01
9790:-8.1002929244662014e-01
9791:-8.2006999580247475e-01
9792:-6.6476312424198170e-01
9793:-6.7397971359921338e-01
9794:-6.8604729357046845e-01
9795:-6.9525362327192941e-01
9796:-7.0771466250522896e-01
9797:-7.1752728836465995e-01
9798:-7.3037991294358484e-01
9799:-7.4013288793880483e-01
9800:-7.7127081205155912e-01
9801:-7.8157938312855058e-01
9802:-7.9507494307099624e-01
9803:-8.0537510416863167e-01
9804:-8.2557706720040869e-01
9805:-8.3598240197229801e-01
9806:-8.4972411166081629e-01
9807:-8.6045380237675173e-01
9808:-7.0004940300862450e-01
9809:-7.0755968269816449e-01
9810:-7.1432003944287747e-01
9811:-7.1730841331467876e-01
9812:-7.4518974724152154e-01
9813:-7.5328226807490950e-01
9814:-7.6116178362656262e-01
9815:-7.6542043744284260e-01
9816:-8.1077161789367413e-01
9817:-8.1979778731796027e-01
9818:-8.2945779763946836e-01
9819:-8.3545647654707134e-01
9820:-8.6621105570119372e-01
9821:-8.7617940958478857e-01
9822:-8.8735098590009842e-01
9823:-8.9450229716268981e-01
9824:-7.1823990272770266e-01
9825:-7.2005312748206884e-01
9826:-7.2244653131290537e-01
9827:-7.2395831827981461e-01
9828:-7.6720059389940398e-01
9829:-7.7063937463546117e-01
9830:-7.7494296894754111e-01
9831:-7.7755906183689383e-01
9832:-8.3825864439104814e-01
9833:-8.4342735468728069e-01
9834:-8.4970871451143415e-01
9835:-8.5377987728330507e-01
9836:-8.9784602620893805e-01
9837:-9.0386670605100072e-01
9838:-9.1139993048061341e-01
9839:-9.1697134168291161e-01
9840:-7.2427460503258534e-01
9841:-7.1909415331956117e-01
9842:-7.0037257863137192e-01
9843:-6.7718639672590819e-01
9844:-7.7829067792890227e-01
9845:-7.7383533760907508e-01
9846:-7.5635952249634475e-01
9847:-7.3468058977975848e-01
9848:-8.5532955608705341e-01
9849:-8.5280069992137342e-01
9850:-8.3842598365769516e-01
9851:-8.1934959821723519e-01
9852:-9.1963482324996337e-01
9853:-9.1961057433472448e-01
9854:-9.0855575176408465e-01
9855:-8.9139673517019569e-01
9856:-6.6288606565297992e-01
9857:-6.5170165300058713e-01
9858:-6.7081046211812401e-01
9859:-7.1037348407532597e-01
9860:-7.2145906119649961e-01
9861:-7.1247115642953118e-01
9862:-7.3413364026668393e-01
9863:-7.7488130118028542e-01
9864:-8.0750836219006739e-01
9865:-8.0075307302131449e-01
9866:-8.2480660608689294e-01
9867:-8.6721440264828431e-01
9868:-8.8017898818133333e-01
9869:-8.7431451026226303e-01
9870:-9.0004209474598018e-01
9871:-9.4500736368983473e-01
9872:-7.3567113114912219e-01
9873:-7.1363926856680082e-01
9874:-5.3398701936993243e-01
9875:-2.8192290558292049e-01
9876:-8.0031441202184916e-01
9877:-7.7649803057034450e-01
9878:-5.9089328470338098e-01
9879:-3.3203757625346481e-01
9880:-8.9343734988282153e-01
9881:-8.6910349865681025e-01
9882:-6.7824983344188494e-01
9883:-4.1161475909034967e-01
9884:-9.7314693309619393e-01
9885:-9.5054695282186452e-01
9886:-7.5667696366628379e-01
9887:-4.8275143150575228e-01
9888:-1.1679663563082084e-01
9889:8.4120758175064078e-02
9890:9.9959146229535334e-02
9891:-7.5022667472999002e-02
9892:-1.6283752380546665e-01
9893:4.3534213147621001e-02
9894:6.2249720364731385e-02
9895:-1.1315164657854580e-01
9896:-2.3712850892810405e-01
9897:-2.3400777101753142e-02
9898:-1.1581205292213626e-03
9899:-1.7856545175979169e-01
9900:-3.0268794122312820e-01
9901:-8.1548499974146288e-02
9902:-5.7705517081237709e-02
9903:-2.4078283823332958e-01
9904:-2.2390351156570290e-01
9905:-4.2584307532896593e-01
9906:-5.0199219092986702e-01
9907:-4.1869374227119854e-01
9908:-2.6283386780590062e-01
9909:-4.6428756570054103e-01
9910:-5.3534818304324894e-01
9911:-4.4478797888955934e-01
9912:-3.3071853665168610e-01
9913:-5.3436295713572179e-01
9914:-6.0234927315546349e-01
9915:-5.0480579062116149e-01
9916:-3.9817561505456606e-01
9917:-6.0809094566711686e-01
9918:-6.7546279517144947e-01
9919:-5.7053138483941179e-01
9920:-3.3005313733793845e-01
9921:-1.7747463603763375e-01
9922:-2.6593790557868511e-02
9923:5.0867649653111975e-02
9924:-3.5106363671430157e-01
9925:-1.8614312113371456e-01
9926:-1.4274194442404594e-02
9927:8.2335140158641601e-02
9928:-4.0564946313143568e-01
9929:-2.2677384060755235e-01
9930:-3.0693988430797400e-02
9931:8.7668567418072996e-02
9932:-4.6512973467779556e-01
9933:-2.7396997934932471e-01
9934:-6.3096153152110507e-02
9935:6.4189576601476575e-02
9936:-4.3728985440889198e-02
9937:2.4989065683304482e-01
9938:4.4770841777067821e-01
9939:4.5855450148275329e-01
9940:-5.0348452828229903e-02
9941:2.5686341631980730e-01
9942:4.6190628192291172e-01
9943:4.7107517816323763e-01
9944:-5.8613908449075651e-02
9945:2.6560744369274181e-01
9946:4.8210515125461195e-01
9947:4.9048470493393592e-01
9948:-6.0447663307597800e-02
9949:2.7352363598839774e-01
9950:4.9873100263937831e-01
9951:5.0781945083487301e-01
9952:4.1828068597508283e-01
9953:3.1838045724416453e-01
9954:1.5248980932692416e-01
9955:-2.4592697734248862e-03
9956:4.2779624559935131e-01
9957:3.2187538141273359e-01
9958:1.4774792087983390e-01
9959:-1.4123610947037601e-02
9960:4.4324867694616482e-01
9961:3.2772797445287893e-01
9962:1.3867605385791307e-01
9963:-3.5635313465007736e-02
9964:4.5810778076306796e-01
9965:3.3458551671012282e-01
9966:1.3074376111239772e-01
9967:-5.6635890234505236e-02
9968:-9.2703909210920726e-02
9969:-2.3454443321423832e-01
9970:-3.5649083776819918e-01
9971:-4.0111510619348778e-01
9972:-1.0834138394936836e-01
9973:-2.5771367058619027e-01
9974:-3.8929513000555327e-01
9975:-4.4093690247997236e-01
9976:-1.3654287580974661e-01
9977:-2.9761084792090203e-01
9978:-4.4250416557239841e-01
9979:-5.0276030440274699e-01
9980:-1.6455933220191277e-01
9981:-3.3708734323446105e-01
9982:-4.9336337243553802e-01
9983:-5.5968164538962772e-01
9984:-4.0929442889215184e-01
9985:-4.2804230454723063e-01
9986:-4.6480575343418584e-01
9987:-5.0134611486948688e-01
9988:-4.5266532352560557e-01
9989:-4.7773494060515176e-01
9990:-5.2193151248349612e-01
9991:-5.6338820705099169e-01
9992:-5.1848602485096429e-01
9993:-5.5002867878955319e-01
9994:-6.0135998923496647e-01
9995:-6.4792640475488461e-01
9996:-5.7772708100334857e-01
9997:-6.1236089849286834e-01
9998:-6.6655271317214004e-01
9999:-7.1555911800891470e-01
10000:-5.2295068853778914e-01
10001:-5.5828624397988180e-01
10002:-5.9318428249092825e-01
10003:-6.1215577847433811e-01
10004:-5.8726152100738305e-01
10005:-6.2573141948607758e-01
10006:-6.6274695329037081e-01
10007:-6.8213212929080369e-01
10008:-6.7456013262159553e-01
10009:-7.1776885476772700e-01
10010:-7.5930095524607177e-01
10011:-7.8024022600018650e-01
10012:-7.4391677161332770e-01
10013:-7.9099961883693704e-01
10014:-8.3741532977554045e-01
10015:-8.6069791585305222e-01
10016:-6.1985473700741722e-01
10017:-6.3171142819802761e-01
10018:-6.4218115192746894e-01
10019:-6.4610675142083662e-01
10020:-6.8975214844125010e-01
10021:-7.0161757347471920e-01
10022:-7.1235732535301988e-01
10023:-7.1651405754414454e-01
10024:-7.8787449056498149e-01
10025:-7.9910904629755219e-01
10026:-8.0841237933356969e-01
10027:-8.1144189475122652e-01
10028:-8.6872380972419883e-01
10029:-8.7933263544149232e-01
10030:-8.8616115984958299e-01
10031:-8.8687713016056802e-01
10032:-6.4679457464735468e-01
10033:-6.4776905248927918e-01
10034:-6.4932389480075503e-01
10035:-6.5112360704173966e-01
10036:-7.1726971653324267e-01
10037:-7.1805189952248882e-01
10038:-7.1884923960766456e-01
10039:-7.1982863969918087e-01
10040:-8.1170867972574190e-01
10041:-8.1163237549286615e-01
10042:-8.1119708476449881e-01
10043:-8.1097768769607348e-01
10044:-8.8603276072903292e-01
10045:-8.8443842407631623e-01
10046:-8.8273807919534986e-01
10047:-8.8169174933110350e-01
10048:-6.5239672438157548e-01
10049:-6.5511644146947978e-01
10050:-6.5918501847586763e-01
10051:-6.6264693447965284e-01
10052:-7.2064206038924283e-01
10053:-7.2278681155730717e-01
10054:-7.2662331685722159e-01
10055:-7.3020261016598031e-01
10056:-8.1103469113989057e-01
10057:-8.1192924460134031e-01
10058:-8.1465513175183613e-01
10059:-8.1787743735390050e-01
10060:-8.8123950775197657e-01
10061:-8.8105839846603762e-01
10062:-8.8242714327849214e-01
10063:-8.8489264947915769e-01
10064:-6.6458581459702559e-01
10065:-6.6822137668937909e-01
10066:-6.7309482290060263e-01
10067:-6.7709034781231181e-01
10068:-7.3226347987742091e-01
10069:-7.3597320882913231e-01
10070:-7.4067850956745285e-01
10071:-7.4442635354198572e-01
10072:-8.1993038624094761e-01
10073:-8.2360123809273678e-01
10074:-8.2810522022980804e-01
10075:-8.3156086479146607e-01
10076:-8.8670739315702041e-01
10077:-8.9009776619012460e-01
10078:-8.9439645824347991e-01
10079:-8.9769920448825080e-01
10080:-6.7934206246889917e-01
10081:-6.8351783004915345e-01
10082:-6.8883186922115602e-01
10083:-6.9282814138099291e-01
10084:-7.4653354127201954e-01
10085:-7.5050278104912338e-01
10086:-7.5565237996774659e-01
10087:-7.5956873123343904e-01
10088:-8.3346342186792033e-01
10089:-8.3707381191648089e-01
10090:-8.4184122244634607e-01
10091:-8.4554151682620937e-01
10092:-8.9948771433587960e-01
10093:-9.0283357072981774e-01
10094:-9.0721822869950064e-01
10095:-9.1064749852708271e-01
10096:-6.9493333458383455e-01
10097:-6.9876382500581635e-01
10098:-7.0356861678101357e-01
10099:-7.0715881312783535e-01
10100:-7.6163398054435172e-01
10101:-7.6533132575741247e-01
10102:-7.6986103255234051e-01
10103:-7.7318567242342462e-01
10104:-8.4751688106138090e-01
10105:-8.5100151385339329e-01
10106:-8.5514938101075511e-01
10107:-8.5810276486884884e-01
10108:-9.1249923025430169e-01
10109:-9.1575383386381104e-01
10110:-9.1957343788923840e-01
10111:-9.2223275522653814e-01
10112:-7.0905020263669960e-01
10113:-7.1247432097634433e-01
10114:-7.1670580179641441e-01
10115:-7.1979556006291334e-01
10116:-7.7492435630834589e-01
10117:-7.7806688693969661e-01
10118:-7.8193218659817221e-01
10119:-7.8473004346543396e-01
10120:-8.5961846918074825e-01
10121:-8.6233676510751811e-01
10122:-8.6564414651004273e-01
10123:-8.6800960927184445e-01
10124:-9.2357159553629531e-01
10125:-9.2593854192861158e-01
10126:-9.2876463927191333e-01
10127:-9.3075372140852608e-01
10128:-7.2139919959241350e-01
10129:-7.2439922058525930e-01
10130:-7.2834657814677795e-01
10131:-7.3143306154378074e-01
10132:-7.8617013357899213e-01
10133:-7.8884011357870076e-01
10134:-7.9231492464540854e-01
10135:-7.9501143940041519e-01
10136:-8.6921641039738018e-01
10137:-8.7142895982070900e-01
10138:-8.7426242047853575e-01
10139:-8.7643034345602144e-01
10140:-9.3176001965850497e-01
10141:-9.3359190250487889e-01
10142:-9.3590933186764624e-01
10143:-9.3765810044726794e-01
10144:-7.3311198780834264e-01
10145:-7.3637353579966680e-01
10146:-7.4089060518523475e-01
10147:-7.4458695278287912e-01
10148:-7.9647455599347183e-01
10149:-7.9932555414001083e-01
10150:-8.0329094353342767e-01
10151:-8.0654572260741431e-01
10152:-8.7759855016801813e-01
10153:-8.7988330572769302e-01
10154:-8.8308112626274493e-01
10155:-8.8571970842442616e-01
10156:-9.3859242159936951e-01
10157:-9.4042508940205050e-01
10158:-9.4300625181075259e-01
10159:-9.4514915287761470e-01
10160:-7.4665139418222726e-01
10161:-7.5074667486652036e-01
10162:-7.5658045919081307e-01
10163:-7.6147385012282021e-01
10164:-8.0836680859943810e-01
10165:-8.1199995961599991e-01
10166:-8.1722983764507695e-01
10167:-8.2166673374540311e-01
10168:-8.8720151064458230e-01
10169:-8.9018962413328784e-01
10170:-8.9456604241214355e-01
10171:-8.9834141825597280e-01
10172:-9.4635815671570289e-01
10173:-9.4882147214631485e-01
10174:-9.5248393486406790e-01
10175:-9.5568520514578081e-01
10176:-7.6424469135256579e-01
10177:-7.6976536993290967e-01
10178:-7.7765289367129264e-01
10179:-7.8427339996937595e-01
10180:-8.2419819750126910e-01
10181:-8.2926741025568429e-01
10182:-8.3654750435176040e-01
10183:-8.4267734808970141e-01
10184:-9.0051723178662058e-01
10185:-9.0489539584084466e-01
10186:-9.1122320708717264e-01
10187:-9.1658390348281638e-01
10188:-9.5754399813181268e-01
10189:-9.6130415489249843e-01
10190:-9.6679092472977646e-01
10191:-9.7149071845324020e-01
10192:-7.8801457270565001e-01
10193:-7.9535872806716468e-01
10194:-8.0565168328541825e-01
10195:-8.1417385378348184e-01
10196:-8.4614713727981106e-01
10197:-8.5300959378357522e-01
10198:-8.6277686286350552e-01
10199:-8.7101151569369939e-01
10200:-9.1963356402942764e-01
10201:-9.2575806248045556e-01
10202:-9.3468475670582174e-01
10203:-9.4237733032886128e-01
10204:-9.7418716760122503e-01
10205:-9.7967400455573972e-01
10206:-9.8779817879521592e-01
10207:-9.9487462231809121e-01
10208:-8.1895424488119550e-01
10209:-8.2818283756338262e-01
10210:-8.4071354666463927e-01
10211:-8.5071829440710744e-01
10212:-8.7568666865470879e-01
10213:-8.8473692626575751e-01
10214:-8.9700884419782989e-01
10215:-9.0675040493917536e-01
10216:-9.4679612904090971e-01
10217:-9.5532289087216171e-01
10218:-9.6683631181380747e-01
10219:-9.7596654633382551e-01
10220:-9.9895569207380308e-01
10221:-1.0068097534802745e+00
10222:-1.0174583799552595e+00
10223:-1.0260232264619495e+00
10224:-8.5618710297238920e-01
10225:-8.6653054294882315e-01
10226:-8.8033793590180076e-01
10227:-8.9133947576838601e-01
10228:-9.1205084640835510e-01
10229:-9.2219162358592910e-01
10230:-9.3613197119544544e-01
10231:-9.4767124364893018e-01
10232:-9.8095160264548364e-01
10233:-9.9075198739435621e-01
10234:-1.0047878020133498e+00
10235:-1.0168135480872362e+00
10236:-1.0307718379449693e+00
10237:-1.0403142477910903e+00
10238:-1.0542478128406703e+00
10239:-1.0662431335870781e+00
10240:-8.9734887144164899e-01
10241:-9.0790862187185783e-01
10242:-9.1988320977345961e-01
10243:-9.2750526502124209e-01
10244:-9.5414559041980163e-01
10245:-9.6562916197673998e-01
10246:-9.7866166322362280e-01
10247:-9.8680780494232101e-01
10248:-1.0236716788991138e+00
10249:-1.0357404636728105e+00
10250:-1.0493044781159404e+00
10251:-1.0577829173860462e+00
10252:-1.0730569432516353e+00
10253:-1.0849304684067642e+00
10254:-1.0983639960583049e+00
10255:-1.1071689503502418e+00
10256:-9.3100435565252204e-01
10257:-9.3728218169708077e-01
10258:-9.4545991945693331e-01
10259:-9.5208263591570397e-01
10260:-9.9045785514587947e-01
10261:-9.9727158372822455e-01
10262:-1.0071467208121585e+00
10263:-1.0162069677398715e+00
10264:-1.0616494733996158e+00
10265:-1.0695840520181035e+00
10266:-1.0823998424949643e+00
10267:-1.0947985699864728e+00
10268:-1.1114668172114697e+00
10269:-1.1207934844765495e+00
10270:-1.1361031312340866e+00
10271:-1.1504869268449751e+00
10272:-9.5558228505506937e-01
10273:-9.5729506183094126e-01
10274:-9.4822731445627795e-01
10275:-9.3188354612872437e-01
10276:-1.0214661164622383e+00
10277:-1.0263578705776906e+00
10278:-1.0204244829547549e+00
10279:-1.0051841837997710e+00
10280:-1.1021405381923226e+00
10281:-1.1103712770458753e+00
10282:-1.1077074551478869e+00
10283:-1.0943886575118078e+00
10284:-1.1587711097248297e+00
10285:-1.1685007269989873e+00
10286:-1.1682292274785553e+00
10287:-1.1579819835423097e+00
10288:-9.2073870986579609e-01
10289:-9.1503178026757770e-01
10290:-9.4188006820277670e-01
10291:-9.8907524283576864e-01
10292:-9.9411591241576092e-01
10293:-9.8951013090880102e-01
10294:-1.0208467551696598e+00
10295:-1.0745342384733725e+00
10296:-1.0843358082491834e+00
10297:-1.0838185505852600e+00
10298:-1.1248720901030811e+00
10299:-1.1890421234079389e+00
10300:-1.1502855268716203e+00
10301:-1.1556600113305231e+00
10302:-1.2059889212224972e+00
10303:-1.2772755113524779e+00
10304:-1.0189531282575215e+00
10305:-9.9820690458453221e-01
10306:-8.0271471146200757e-01
10307:-5.2374420939596700e-01
10308:-1.1088371717069432e+00
10309:-1.0923135045275469e+00
10310:-8.9230732364651899e-01
10311:-6.0146667696733469e-01
10312:-1.2294938616573441e+00
10313:-1.2181597879505124e+00
10314:-1.0113994646649049e+00
10315:-7.0543386126419028e-01
10316:-1.3209969738979102e+00
10317:-1.3119403518114581e+00
10318:-1.1014910017615094e+00
10319:-7.8896196794622242e-01
10320:-3.3970804020909201e-01
10321:-1.1356445912499696e-01
10322:-8.9622297728323197e-02
10323:-2.7810818977958246e-01
10324:-4.0855129218234881e-01
10325:-1.7238179196994344e-01
10326:-1.5110167250420420e-01
10327:-3.5401145210530721e-01
10328:-5.0189089673880449e-01
10329:-2.5565940740086635e-01
10330:-2.4234595010254703e-01
10331:-4.6629930170274642e-01
10332:-5.8139948251416806e-01
10333:-3.3347280972803345e-01
10334:-3.2843487843205216e-01
10335:-5.6456540103509656e-01
10336:-4.4013087165803344e-01
10337:-6.5563063084497075e-01
10338:-7.2272793711898320e-01
10339:-6.1166734761306318e-01
10340:-5.2732048142987331e-01
10341:-7.5501783652022969e-01
10342:-8.1702775115658965e-01
10343:-6.8585512243442015e-01
10344:-6.5455767394475084e-01
10345:-8.9583437769704000e-01
10346:-9.4291069787570481e-01
10347:-7.7538015231792690e-01
10348:-7.6010784035023027e-01
10349:-1.0051973381450072e+00
10350:-1.0359752647504377e+00
10351:-8.3993752076427186e-01
10352:-5.0111902248226370e-01
10353:-3.0146414303488067e-01
10354:-8.3645819072264732e-02
10355:4.4953751233058850e-02
10356:-5.5953208464312232e-01
10357:-3.3370939728134258e-01
10358:-9.1280944437671416e-02
10359:4.8757810748527787e-02
10360:-6.2192314186946118e-01
10361:-3.4852158646278175e-01
10362:-5.1062340718692860e-02
10363:1.2876742026615851e-01
10364:-6.6621125319944918e-01
10365:-3.5344951082512754e-01
10366:1.2971178075371491e-03
10367:2.3431928254170462e-01
10368:-5.8511344588181323e-02
10369:2.7876319873540095e-01
10370:5.0793465966868245e-01
10371:5.1777469237180063e-01
10372:-4.9728718882377239e-02
10373:2.9314088657956094e-01
10374:5.2633395993439158e-01
10375:5.3527532827654944e-01
10376:-3.9470153822489480e-02
10377:3.1986099904016391e-01
10378:5.5706922402644954e-01
10379:5.5901569961852438e-01
10380:-4.2968138726099891e-02
10381:3.4508793157998713e-01
10382:5.8994932785891718e-01
10383:5.8144742294410379e-01
10384:4.6707058830605119e-01
10385:3.3928821378149687e-01
10386:1.2649831264472267e-01
10387:-6.9221846730708983e-02
10388:4.8223871032709648e-01
10389:3.4649271069921111e-01
10390:1.1759431814200466e-01
10391:-9.3649322456524201e-02
10392:4.9980678987229160e-01
10393:3.5088137548123527e-01
10394:1.0164586394655097e-01
10395:-1.2804822350811940e-01
10396:5.1326026163644145e-01
10397:3.4942853537973734e-01
10398:8.3974723646068866e-02
10399:-1.5757728701070264e-01
10400:-1.8170679631975262e-01
10401:-3.6147106587776695e-01
10402:-5.2442838787211277e-01
10403:-5.9385214280890397e-01
10404:-2.1498808142186607e-01
10405:-4.0901746206761602e-01
10406:-5.8580438721354211e-01
10407:-6.6261869736582757e-01
10408:-2.6013010095050715e-01
10409:-4.7207954019332116e-01
10410:-6.6824157020650543e-01
10411:-7.5799011822189288e-01
10412:-2.9623820914446819e-01
10413:-5.1978963495927000e-01
10414:-7.3068356012690261e-01
10415:-8.3272564637787883e-01
10416:-6.1288353362352510e-01
10417:-6.4856877304842997e-01
10418:-7.0346232523273844e-01
10419:-7.5325521036812115e-01
10420:-6.8463392215117835e-01
10421:-7.2510941600189327e-01
10422:-7.8516295774487210e-01
10423:-8.3837186373364780e-01
10424:-7.8664668316859299e-01
10425:-8.4037115077548707e-01
10426:-9.1720887323471778e-01
10427:-9.8076756161361733e-01
10428:-8.6875105959186039e-01
10429:-9.3859755563846259e-01
10430:-1.0373010051224936e+00
10431:-1.1146944755144703e+00
10432:-7.8235234774340723e-01
10433:-8.3147291052179573e-01
10434:-8.8087585831348902e-01
10435:-9.0582735176118412e-01
10436:-8.6920117056859936e-01
10437:-9.2160328649384604e-01
10438:-9.7480029715071614e-01
10439:-1.0017417778484143e+00
10440:-1.0155665550052666e+00
10441:-1.0721308757178858e+00
10442:-1.1261603250842356e+00
10443:-1.1519508415506858e+00
10444:-1.1546805386914645e+00
10445:-1.2153210056850308e+00
10446:-1.2667964446445015e+00
10447:-1.2878000232930300e+00
10448:-9.1425826252190867e-01
10449:-9.2460246693412429e-01
10450:-9.2971493148959738e-01
10451:-9.2865553095008446e-01
10452:-1.0107246882320766e+00
10453:-1.0207869262160603e+00
10454:-1.0234494005651658e+00
10455:-1.0194400399174786e+00
10456:-1.1602136356766879e+00
10457:-1.1690957354292368e+00
10458:-1.1698818189026199e+00
10459:-1.1635399077450723e+00
10460:-1.2935561009068608e+00
10461:-1.2997438772959522e+00
10462:-1.2996279387424938e+00
10463:-1.2930984931097276e+00
10464:-9.2689993318858055e-01
10465:-9.2410134475147077e-01
10466:-9.2157709742418514e-01
10467:-9.2017939515601055e-01
10468:-1.0159487469100004e+00
10469:-1.0106958118618661e+00
10470:-1.0064288158134973e+00
10471:-1.0045104443187138e+00
10472:-1.1583709415555823e+00
10473:-1.1503554690969000e+00
10474:-1.1436918821426192e+00
10475:-1.1410283738087990e+00
10476:-1.2875719762992215e+00
10477:-1.2784292433575455e+00
10478:-1.2700612892300749e+00
10479:-1.2664705246268482e+00
10480:-9.1954317765522131e-01
10481:-9.1884987786094707e-01
10482:-9.1939182834907773e-01
10483:-9.2128350330678643e-01
10484:-1.0037636365667062e+00
10485:-1.0026000324984563e+00
10486:-1.0021251662283603e+00
10487:-1.0031343529258270e+00
10488:-1.1402764392523033e+00
10489:-1.1390673971872558e+00
10490:-1.1382521847123348e+00
10491:-1.1387431377312247e+00
10492:-1.2655120251687688e+00
10493:-1.2642683905992271e+00
10494:-1.2637517740145339e+00
10495:-1.2644648396917781e+00
10496:-9.2286781350727387e-01
10497:-9.2598340067151375e-01
10498:-9.3013118432383168e-01
10499:-9.3338570931064557e-01
10500:-1.0042810643737370e+00
10501:-1.0067967764100325e+00
10502:-1.0105236674936362e+00
10503:-1.0136418624236598e+00
10504:-1.1395208623604320e+00
10505:-1.1413711528002861e+00
10506:-1.1443979901531192e+00
10507:-1.1471763951000602e+00
10508:-1.2652738282065228e+00
10509:-1.2669353953591722e+00
10510:-1.2694316570503605e+00
10511:-1.2717805689979997e+00
10512:-9.3514306082887644e-01
10513:-9.3837506060182885e-01
10514:-9.4253931692743431e-01
10515:-9.4578439182052398e-01
10516:-1.0153573331867101e+00
10517:-1.0184174549624065e+00
10518:-1.0222016854066640e+00
10519:-1.0250875236595429e+00
10520:-1.1487884305690674e+00
10521:-1.1515952423116642e+00
10522:-1.1549000843306370e+00
10523:-1.1573161903971911e+00
10524:-1.2732089606808012e+00
10525:-1.2756995108676790e+00
10526:-1.2785919053682744e+00
10527:-1.2806587124501907e+00
10528:-9.4754440623109060e-01
10529:-9.5064253835465229e-01
10530:-9.5426895401720568e-01
10531:-9.5677092890650517e-01
10532:-1.0266495039481296e+00
10533:-1.0294070339101966e+00
10534:-1.0326318999548276e+00
10535:-1.0348356056727406e+00
10536:-1.1585995591568634e+00
10537:-1.1608614608084082e+00
10538:-1.1635020614433784e+00
10539:-1.1652991755278601e+00
10540:-1.2817365106752721e+00
10541:-1.2836131705828400e+00
10542:-1.2857752085977316e+00
10543:-1.2872371952957440e+00
10544:-9.5801741949477481e-01
10545:-9.6019459108564542e-01
10546:-9.6275045743489751e-01
10547:-9.6452362049747975e-01
10548:-1.0359186845858348e+00
10549:-1.0377627922179800e+00
10550:-1.0398389792340559e+00
10551:-1.0412188043284318e+00
10552:-1.1661763595218584e+00
10553:-1.1676188374234142e+00
10554:-1.1691286275477575e+00
10555:-1.1700367603425650e+00
10556:-1.2879500410410012e+00
10557:-1.2890936110967921e+00
10558:-1.2902101684283831e+00
10559:-1.2907977181595101e+00
10560:-9.6541440912062149e-01
10561:-9.6703118503398000e-01
10562:-9.6906423009732412e-01
10563:-9.7058546603848639e-01
10564:-1.0418942174496271e+00
10565:-1.0431077377278375e+00
10566:-1.0446069899799963e+00
10567:-1.0457024212815254e+00
10568:-1.1704471164098365e+00
10569:-1.1711551251319059e+00
10570:-1.1719726888906847e+00
10571:-1.1725192009388510e+00
10572:-1.2910259552909900e+00
10573:-1.2913761325158946e+00
10574:-1.2916931181699578e+00
10575:-1.2918264174504064e+00
10576:-9.7139332762113895e-01
10577:-9.7298081132035474e-01
10578:-9.7522652445070679e-01
10579:-9.7709967372398632e-01
10580:-1.0462744694920334e+00
10581:-1.0474045199298652e+00
10582:-1.0490228683809431e+00
10583:-1.0503897919047716e+00
10584:-1.1727868329599096e+00
10585:-1.1733260811718036e+00
10586:-1.1741318225548887e+00
10587:-1.1748397745511980e+00
10588:-1.2918626831877891e+00
10589:-1.2919526376780146e+00
10590:-1.2921392320284057e+00
10591:-1.2923430305863761e+00
10592:-9.7816017160112800e-01
10593:-9.8033389752405653e-01
10594:-9.8359217649962982e-01
10595:-9.8645916491023455e-01
10596:-1.0511704320855266e+00
10597:-1.0527888609620348e+00
10598:-1.0552516341698783e+00
10599:-1.0574453889329340e+00
10600:-1.1752539626626621e+00
10601:-1.1761304261446832e+00
10602:-1.1774993114572787e+00
10603:-1.1787448348415328e+00
10604:-1.2924755469487288e+00
10605:-1.2927742431223135e+00
10606:-1.2932757638175696e+00
10607:-1.2937580670890343e+00
10608:-9.8813020235397642e-01
10609:-9.9152725738010616e-01
10610:-9.9652999683585586e-01
10611:-1.0008595910070999e+00
10612:-1.0587339619449898e+00
10613:-1.0613969145074895e+00
10614:-1.0654278288822137e+00
10615:-1.0690131331431336e+00
10616:-1.1794880866434503e+00
10617:-1.1811027310488549e+00
10618:-1.1837307075659740e+00
10619:-1.1862165679103978e+00
10620:-1.2940585016856034e+00
10621:-1.2948100517185925e+00
10622:-1.2962492801282197e+00
10623:-1.2977689941603874e+00
10624:-1.0033615195182477e+00
10625:-1.0084838426487788e+00
10626:-1.0161093607469429e+00
10627:-1.0227644730219134e+00
10628:-1.0711199444945065e+00
10629:-1.0754639737506166e+00
10630:-1.0819667460731717e+00
10631:-1.0876542522919588e+00
10632:-1.1877253710005804e+00
10633:-1.1908478983720827e+00
10634:-1.1955508486463367e+00
10635:-1.1997053576251497e+00
10636:-1.2987384442833645e+00
10637:-1.3007567351537155e+00
10638:-1.3038624974746278e+00
10639:-1.3067045747402672e+00
10640:-1.0266017835589285e+00
10641:-1.0339906489225241e+00
10642:-1.0440931085783907e+00
10643:-1.0523513787897543e+00
10644:-1.0909362194455621e+00
10645:-1.0973205614470876e+00
10646:-1.1062894220022974e+00
10647:-1.1138892517742798e+00
10648:-1.2021272456020484e+00
10649:-1.2069922559239008e+00
10650:-1.2141855882800299e+00
10651:-1.2205690310070789e+00
10652:-1.3084105613832215e+00
10653:-1.3119824175240964e+00
10654:-1.3175006138846559e+00
10655:-1.3225131867602702e+00
10656:-1.0569940290248196e+00
10657:-1.0664029134638251e+00
10658:-1.0801653686429773e+00
10659:-1.0919247828167620e+00
10660:-1.1182674082468393e+00
10661:-1.1271487606502524e+00
10662:-1.1400139898118615e+00
10663:-1.1508267890552997e+00
10664:-1.2243280529005693e+00
10665:-1.2318021301408408e+00
10666:-1.2424018002911412e+00
10667:-1.2512561120193886e+00
10668:-1.3254737820411231e+00
10669:-1.3312101810625883e+00
10670:-1.3393324166919400e+00
10671:-1.3463897285586566e+00
10672:-1.0985482715347055e+00
10673:-1.1100551719936986e+00
10674:-1.1232819231251703e+00
10675:-1.1323844764262769e+00
10676:-1.1568461760792246e+00
10677:-1.1674571862405834e+00
10678:-1.1803657651331478e+00
10679:-1.1901527898123607e+00
10680:-1.2562215508414882e+00
10681:-1.2654910201003979e+00
10682:-1.2779465453888144e+00
10683:-1.2883038248441117e+00
10684:-1.3505305490813371e+00
10685:-1.3587992274387359e+00
10686:-1.3706539908913249e+00
10687:-1.3806971204941787e+00
10688:-1.1370669231728940e+00
10689:-1.1473402546791056e+00
10690:-1.1638989236345263e+00
10691:-1.1788958303196053e+00
10692:-1.1955697237576268e+00
10693:-1.2071400583954948e+00
10694:-1.2246403824090759e+00
10695:-1.2393877198788814e+00
10696:-1.2942572529420717e+00
10697:-1.3060369118390012e+00
10698:-1.3221152516592602e+00
10699:-1.3345872680575064e+00
10700:-1.3863805998134446e+00
10701:-1.3968486661779838e+00
10702:-1.4101310654144741e+00
10703:-1.4201991909150926e+00
10704:-1.1873009142283673e+00
10705:-1.1973423763840674e+00
10706:-1.1984926111161085e+00
10707:-1.1908077126101353e+00
10708:-1.2472841692589045e+00
10709:-1.2573501654563748e+00
10710:-1.2618824740484982e+00
10711:-1.2603634353942408e+00
10712:-1.3410231519883193e+00
10713:-1.3504931884057663e+00
10714:-1.3596074591608915e+00
10715:-1.3662923383585883e+00
10716:-1.4254987137977531e+00
10717:-1.4343894719179175e+00
10718:-1.4459174223134741e+00
10719:-1.4567711244590102e+00
10720:-1.1851599782277507e+00
10721:-1.1947754715640262e+00
10722:-1.2502091468380703e+00
10723:-1.3241411752071020e+00
10724:-1.2594014910410987e+00
10725:-1.2773431171171827e+00
10726:-1.3404807695646459e+00
10727:-1.4164208914515262e+00
10728:-1.3713232179568426e+00
10729:-1.3995514481427433e+00
10730:-1.4721180362647819e+00
10731:-1.5510346458637596e+00
10732:-1.4647913477939627e+00
10733:-1.4995961565137685e+00
10734:-1.5821772703745012e+00
10735:-1.6695188043443403e+00
10736:-1.3685533771394038e+00
10737:-1.3596651743996973e+00
10738:-1.1484227184193294e+00
10739:-8.3556084481200166e-01
10740:-1.4602354874495806e+00
10741:-1.4499066809240664e+00
10742:-1.2385894841498897e+00
10743:-9.2874173553315353e-01
10744:-1.5946623081107782e+00
10745:-1.5823137739047621e+00
10746:-1.3670275876984155e+00
10747:-1.0545761050137308e+00
10748:-1.7174402788761862e+00
10749:-1.7064595281412829e+00
10750:-1.4791290975865319e+00
10751:-1.1473980974594502e+00
10752:-6.2828450787247780e-01
10753:-3.8258950879367926e-01
10754:-3.8234697142701357e-01
10755:-6.2211797222920695e-01
10756:-7.2456797162948383e-01
10757:-4.8594555509616572e-01
10758:-4.9613521187354298e-01
10759:-7.4401825861944548e-01
10760:-8.4979289951833614e-01
10761:-6.1580489502252389e-01
10762:-6.4772993265209178e-01
10763:-9.2762826539758858e-01
10764:-9.2995135435493348e-01
10765:-6.8704615912925926e-01
10766:-7.4668430157519305e-01
10767:-1.0838949916925391e+00
10768:-8.1902135710736590e-01
10769:-1.0630602558653410e+00
10770:-1.0849711620253293e+00
10771:-8.7641975864384403e-01
10772:-9.4507044387319794e-01
10773:-1.1960815363663593e+00
10774:-1.2214938969027356e+00
10775:-1.0076202175915474e+00
10776:-1.1518414915103050e+00
10777:-1.4496559683695711e+00
10778:-1.5271372622319566e+00
10779:-1.3333019151981453e+00
10780:-1.3518617961001234e+00
10781:-1.7304272577160471e+00
10782:-1.8878425565390333e+00
10783:-1.7196155724230160e+00
10784:-6.9407415702878072e-01
10785:-3.6208337861757067e-01
10786:2.6656029585779152e-02
10787:2.9542405382512288e-01
10788:-8.1821874454107169e-01
10789:-4.6016275166014337e-01
10790:-1.4796164183047827e-02
10791:3.1150820951055352e-01
10792:-1.1428130171160538e+00
10793:-7.4776646483771669e-01
10794:-2.0774635901845293e-01
10795:2.0374313358609913e-01
10796:-1.5245363444836855e+00
10797:-1.0764599723763189e+00
10798:-4.1252074317995308e-01
10799:1.0396465613647204e-01
10800:-5.2162770057568836e-02
10801:3.5916060694619412e-01
10802:6.1138634655323421e-01
10803:5.9548391159569991e-01
10804:-8.2018992476015656e-02
10805:3.7830554173164777e-01
10806:6.4912938478617721e-01
10807:6.1748396278328288e-01
10808:-1.1218541788992127e-01
10809:4.0446242493317952e-01
10810:6.9455433141549872e-01
10811:6.3356763441798369e-01
10812:-9.7569361388088055e-02
10813:4.4157449301517271e-01
10814:7.2952458756903626e-01
10815:6.3409463788522236e-01
10816:5.2049062437892746e-01
10817:3.4614321634914752e-01
10818:7.1220686069853573e-02
10819:-1.7579364917432533e-01
10820:5.2595905906326967e-01
10821:3.2499915887893788e-01
10822:2.5982536458314179e-02
10823:-2.3312672968876968e-01
10824:5.1193978436966903e-01
10825:2.6126542635340799e-01
10826:-8.2250132068041035e-02
10827:-3.5988909421823229e-01
10828:4.8167720415512949e-01
10829:1.8028508317793360e-01
10830:-2.0708205603267643e-01
10831:-4.9949840169061904e-01
10832:-3.1716096587172338e-01
10833:-5.4576672531836978e-01
10834:-7.6405349673552869e-01
10835:-8.7316274309639674e-01
10836:-3.7933219139276853e-01
10837:-6.1662956495383059e-01
10838:-8.4652612036729258e-01
10839:-9.6527283746694204e-01
10840:-5.1098144279935187e-01
10841:-7.5714415567081339e-01
10842:-9.9839943249492524e-01
10843:-1.1242972025988356e+00
10844:-6.5205437288461876e-01
10845:-9.0192244085707263e-01
10846:-1.1498207575366892e+00
10847:-1.2795248481058381e+00
10848:-9.1372307840061484e-01
10849:-9.9383474016662721e-01
10850:-1.1069133670164422e+00
10851:-1.1937234768167182e+00
10852:-1.0114268732623206e+00
10853:-1.1034000359466996e+00
10854:-1.2334280957120396e+00
10855:-1.3331442681561625e+00
10856:-1.1731318443035623e+00
10857:-1.2660070345534877e+00
10858:-1.3946210018250240e+00
10859:-1.4968037417590752e+00
10860:-1.3287145077459237e+00
10861:-1.4131380925188739e+00
10862:-1.5219905397659981e+00
10863:-1.6120331782321551e+00
10864:-1.2373738654198705e+00
10865:-1.3008524489912421e+00
10866:-1.3501885349664704e+00
10867:-1.3672336539012901e+00
10868:-1.3830816347835035e+00
10869:-1.4537076927764687e+00
10870:-1.5037361391027750e+00
10871:-1.5157972182449104e+00
10872:-1.5507866582742214e+00
10873:-1.6309185799168429e+00
10874:-1.6907701688677765e+00
10875:-1.7032521430232834e+00
10876:-1.6635733948881704e+00
10877:-1.7478524426905253e+00
10878:-1.8205697466302710e+00
10879:-1.8396588469335513e+00
10880:-1.3707968633697549e+00
10881:-1.3745884647273012e+00
10882:-1.3738917066153118e+00
10883:-1.3678108468341825e+00
10884:-1.5153211531461981e+00
10885:-1.5133329855121245e+00
10886:-1.5087628799283508e+00
10887:-1.5018419690839806e+00
10888:-1.6992823866275382e+00
10889:-1.6891302166941076e+00
10890:-1.6742351831744444e+00
10891:-1.6616827263541916e+00
10892:-1.8355477000808191e+00
10893:-1.8203013330196576e+00
10894:-1.7941174450907689e+00
10895:-1.7731509910130112e+00
10896:-1.3625034336216086e+00
10897:-1.3532384031002451e+00
10898:-1.3440467124782787e+00
10899:-1.3397299417748425e+00
10900:-1.4965558772624152e+00
10901:-1.4866943347552002e+00
10902:-1.4755734062031218e+00
10903:-1.4692557272151925e+00
10904:-1.6546851622966021e+00
10905:-1.6420858932189026e+00
10906:-1.6273231052541752e+00
10907:-1.6176792184965958e+00
10908:-1.7628334152356908e+00
10909:-1.7457364763782810e+00
10910:-1.7270834713118219e+00
10911:-1.7148762077591224e+00
10912:-1.3384818801741247e+00
10913:-1.3370422633088546e+00
10914:-1.3367453262794473e+00
10915:-1.3377813624153392e+00
10916:-1.4668995814003662e+00
10917:-1.4639736342504155e+00
10918:-1.4628275724910720e+00
10919:-1.4638631439791516e+00
10920:-1.6132682224743118e+00
10921:-1.6068220129558222e+00
10922:-1.6021904964325784e+00
10923:-1.6016392441110272e+00
10924:-1.7089262414388915e+00
10925:-1.6992846987378878e+00
10926:-1.6905108333579786e+00
10927:-1.6873516842927840e+00
10928:-1.3387442322424921e+00
10929:-1.3404642094771875e+00
10930:-1.3427069720801939e+00
10931:-1.3447539049042079e+00
10932:-1.4649682524907628e+00
10933:-1.4666394691533831e+00
10934:-1.4682743189637240e+00
10935:-1.4696149982866740e+00
10936:-1.6023063360713974e+00
10937:-1.6031264608897200e+00
10938:-1.6034283602546344e+00
10939:-1.6035851507157193e+00
10940:-1.6869728227165364e+00
10941:-1.6861851707725881e+00
10942:-1.6848282714404093e+00
10943:-1.6838859333389242e+00
10944:-1.3460272524350303e+00
10945:-1.3482733439329193e+00
10946:-1.3509066371683145e+00
10947:-1.3527901741531065e+00
10948:-1.4704865871722477e+00
10949:-1.4720816625907440e+00
10950:-1.4740466217827226e+00
10951:-1.4755149919436368e+00
10952:-1.6037828984982789e+00
10953:-1.6042470484560762e+00
10954:-1.6050257839187201e+00
10955:-1.6057911766147259e+00
10956:-1.6835144300420277e+00
10957:-1.6829919989092130e+00
10958:-1.6826801327246228e+00
10959:-1.6827781945372291e+00
10960:-1.3537667172301302e+00
10961:-1.3554450773693068e+00
10962:-1.3573460808481612e+00
10963:-1.3586184681844680e+00
10964:-1.4762903584687712e+00
10965:-1.4775890520483290e+00
10966:-1.4789944739454386e+00
10967:-1.4798966939202034e+00
10968:-1.6062561516955547e+00
10969:-1.6070109764336757e+00
10970:-1.6077475836995856e+00
10971:-1.6081508185815085e+00
10972:-1.6829501648595611e+00
10973:-1.6832245654526912e+00
10974:-1.6834207588859385e+00
10975:-1.6834391526632384e+00
10976:-1.3592376503339749e+00
10977:-1.3602192027135909e+00
10978:-1.3611373287858877e+00
10979:-1.3615700176362349e+00
10980:-1.4803259490019429e+00
10981:-1.4809803870190075e+00
10982:-1.4815130487993797e+00
10983:-1.4816641314084062e+00
10984:-1.6083159440225587e+00
10985:-1.6085123309835545e+00
10986:-1.6085196025278550e+00
10987:-1.6083145559701866e+00
10988:-1.6834001885393886e+00
10989:-1.6832376353787568e+00
10990:-1.6828345027062022e+00
10991:-1.6823636259053141e+00
10992:-1.3617109251315176e+00
10993:-1.3618850281942532e+00
10994:-1.3619471670324399e+00
10995:-1.3618648655982779e+00
10996:-1.4816539388400471e+00
10997:-1.4815271159496999e+00
10998:-1.4811542664178530e+00
10999:-1.4807005789202823e+00
11000:-1.6081271099603844e+00
11001:-1.6076623169196482e+00
11002:-1.6068161467764333e+00
11003:-1.6059594928200265e+00
11004:-1.6820521151688606e+00
11005:-1.6813673487681098e+00
11006:-1.6802358737462739e+00
11007:-1.6791437864140455e+00
11008:-1.3617790872650202e+00
11009:-1.3616319087147606e+00
11010:-1.3614912867429290e+00
11011:-1.3614277601037916e+00
11012:-1.4804025642747234e+00
11013:-1.4798414732239735e+00
11014:-1.4791235377631504e+00
11015:-1.4785803402993063e+00
11016:-1.6054287878047351e+00
11017:-1.6044064787313652e+00
11018:-1.6030220096620842e+00
11019:-1.6019002485564191e+00
11020:-1.6784764711163462e+00
11021:-1.6771727051925132e+00
11022:-1.6753515100571914e+00
11023:-1.6738226955797528e+00
11024:-1.3614104209841655e+00
11025:-1.3614000856177013e+00
11026:-1.3614347243109204e+00
11027:-1.3615043887160569e+00
11028:-1.4782904032683690e+00
11029:-1.4777127398292171e+00
11030:-1.4768908534282226e+00
11031:-1.4762127112233390e+00
11032:-1.6012713805690044e+00
11033:-1.5999784474074736e+00
11034:-1.5980818958538230e+00
11035:-1.5964884640796295e+00
11036:-1.6729451617142759e+00
11037:-1.6711206965965064e+00
11038:-1.6684325813299588e+00
11039:-1.6661852057174307e+00
11040:-1.3615646543299500e+00
11041:-1.3618414926358662e+00
11042:-1.3626093264058907e+00
11043:-1.3635669882080761e+00
11044:-1.4758426336516666e+00
11045:-1.4752661654106092e+00
11046:-1.4747998217157190e+00
11047:-1.4746867625923965e+00
11048:-1.5956037617816476e+00
11049:-1.5940084728664110e+00
11050:-1.5920233574270861e+00
11051:-1.5905216620474700e+00
11052:-1.6649435015059941e+00
11053:-1.6626472702864419e+00
11054:-1.6595877389512788e+00
11055:-1.6570505632811205e+00
11056:-1.3642169841158991e+00
11057:-1.3655875145131846e+00
11058:-1.3677798393324228e+00
11059:-1.3698962884476644e+00
11060:-1.4747119847738881e+00
11061:-1.4748102713725115e+00
11062:-1.4752203317999086e+00
11063:-1.4759447990858183e+00
11064:-1.5897034973781923e+00
11065:-1.5880339287028422e+00
11066:-1.5859089851967239e+00
11067:-1.5846379158007597e+00
11068:-1.6555770852228731e+00
11069:-1.6524619231385449e+00
11070:-1.6481537946396609e+00
11071:-1.6451017108305412e+00
11072:-1.3712153144333978e+00
11073:-1.3740628640457662e+00
11074:-1.3785548706223176e+00
11075:-1.3826392929655147e+00
11076:-1.4765315445511766e+00
11077:-1.4779745753609850e+00
11078:-1.4803885555907186e+00
11079:-1.4825286776628186e+00
11080:-1.5841796453804156e+00
11081:-1.5836797526750248e+00
11082:-1.5833382135697187e+00
11083:-1.5829637962647294e+00
11084:-1.6437017195766435e+00
11085:-1.6416050512630007e+00
11086:-1.6393354690518391e+00
11087:-1.6374077686381383e+00
11088:-1.3850313907472733e+00
11089:-1.3895888000810903e+00
11090:-1.3961698929449595e+00
11091:-1.4022405684046215e+00
11092:-1.4837161873351319e+00
11093:-1.4858256049085614e+00
11094:-1.4892408302012687e+00
11095:-1.4932489269327347e+00
11096:-1.5825910514852772e+00
11097:-1.5812512806819881e+00
11098:-1.5795193000131416e+00
11099:-1.5794529198527429e+00
11100:-1.6360839109677439e+00
11101:-1.6320493540710432e+00
11102:-1.6251169441448894e+00
11103:-1.6199930122369175e+00
11104:-1.4059850947177768e+00
11105:-1.4137574008744913e+00
11106:-1.4251104053701638e+00
11107:-1.4345675791106647e+00
11108:-1.4961223766423961e+00
11109:-1.5025937460325784e+00
11110:-1.5123369834064209e+00
11111:-1.5201244186461464e+00
11112:-1.5802559831784533e+00
11113:-1.5836792875531904e+00
11114:-1.5907469812769899e+00
11115:-1.5970482024538257e+00
11116:-1.6178957027294711e+00
11117:-1.6174484270433309e+00
11118:-1.6227740341230747e+00
11119:-1.6301148014388931e+00
11120:-1.4397685252674717e+00
11121:-1.4489502948836359e+00
11122:-1.4602919226573361e+00
11123:-1.4691281588419893e+00
11124:-1.5241303216314017e+00
11125:-1.5305607492639584e+00
11126:-1.5382125439603178e+00
11127:-1.5449592656008810e+00
11128:-1.6002452273774681e+00
11129:-1.6036698680075032e+00
11130:-1.6051665637313466e+00
11131:-1.6063975427578550e+00
11132:-1.6344302237982276e+00
11133:-1.6370130993601000e+00
11134:-1.6314445148376779e+00
11135:-1.6232720947950074e+00
11136:-1.4740028204700064e+00
11137:-1.4826486353112218e+00
11138:-1.4946707409158013e+00
11139:-1.5062679153387657e+00
11140:-1.5492031473315631e+00
11141:-1.5571405307536004e+00
11142:-1.5680910886786021e+00
11143:-1.5778517970111894e+00
11144:-1.6077883215196804e+00
11145:-1.6120111247596456e+00
11146:-1.6194762094325386e+00
11147:-1.6256061128096708e+00
11148:-1.6187519005644133e+00
11149:-1.6159007774045009e+00
11150:-1.6208761701671779e+00
11151:-1.6280962372348047e+00
11152:-1.5148191202415873e+00
11153:-1.5523162234390058e+00
11154:-1.6421283722952038e+00
11155:-1.7379400116113393e+00
11156:-1.5850871207748227e+00
11157:-1.6248932772400897e+00
11158:-1.7301526057998606e+00
11159:-1.8491340263699247e+00
11160:-1.6302732916391582e+00
11161:-1.6703419510940234e+00
11162:-1.7934655416551046e+00
11163:-1.9453995380063245e+00
11164:-1.6336235058619881e+00
11165:-1.6744726528781650e+00
11166:-1.8043502217484373e+00
11167:-1.9729953135732066e+00
11168:-1.7909944876085839e+00
11169:-1.7829430756420448e+00
11170:-1.5446676744801471e+00
11171:-1.1932371874210248e+00
11172:-1.9178629371301843e+00
11173:-1.9235181296352175e+00
11174:-1.6655554906056793e+00
11175:-1.2682066961272895e+00
11176:-2.0385779075879378e+00
11177:-2.0727633075847565e+00
11178:-1.8041018933407531e+00
11179:-1.3548428876677485e+00
11180:-2.0805842487546897e+00
11181:-2.1389698616866339e+00
11182:-1.8841074760823009e+00
11183:-1.4231344932396339e+00
11184:-9.6231371443455682e-01
11185:-7.0772271551459254e-01
11186:-7.8704173978245429e-01
11187:-1.1701525502716894e+00
11188:-1.0039500535224120e+00
11189:-7.1826616179111358e-01
11190:-8.3293983740665034e-01
11191:-1.3053094007372086e+00
11192:-1.0488909377357367e+00
11193:-7.1986418715916867e-01
11194:-8.5619271929210139e-01
11195:-1.4020848731104774e+00
11196:-1.1019563589441392e+00
11197:-7.5082623941801441e-01
11198:-8.6709962360823767e-01
11199:-1.3957603077537097e+00
11200:-1.4733802045735529e+00
11201:-1.9134095286047730e+00
11202:-2.1262182632752959e+00
11203:-1.9717612331999934e+00
11204:-1.6760698950080342e+00
11205:-2.2231203103242549e+00
11206:-2.5252504964856080e+00
11207:-2.4009872961709959e+00
11208:-1.8280580155836117e+00
11209:-2.4589202704058617e+00
11210:-2.8646078156955803e+00
11211:-2.8560834985515511e+00
11212:-1.8098380941061851e+00
11213:-2.4338510344784092e+00
11214:-2.9314765343247431e+00
11215:-3.1329928842583872e+00
11216:-1.7705777051780467e+00
11217:-1.2810453440224592e+00
11218:-5.2365488406947769e-01
11219:7.5680859544283635e-02
11220:-2.2010979379683735e+00
11221:-1.6590949247887081e+00
11222:-7.0169916938057975e-01
11223:1.6898489400854158e-01
11224:-2.7372464459568864e+00
11225:-2.2610287695754261e+00
11226:-1.0473477490936876e+00
11227:4.1963997067568776e-01
11228:-3.1842208940390138e+00
11229:-2.9305271402385094e+00
11230:-1.5673894746292591e+00
11231:5.4500986486993686e-01
11232:-6.7985418731215830e-02
11233:4.6950244698241633e-01
11234:7.4528864749292012e-01
11235:6.2598653292132023e-01
11236:-5.5008300575169027e-03
11237:4.7288352431877273e-01
11238:6.9095143358536593e-01
11239:5.2711169464532959e-01
11240:-4.4715718708475329e-02
11241:2.7204685686560026e-01
11242:3.8623068204770816e-01
11243:2.0098085810618374e-01
11244:-2.8640232590172443e-01
11245:-1.2903566291071392e-01
11246:-7.6480562634811886e-02
11247:-2.1810500920867706e-01
11248:4.5465453905738090e-01
11249:1.2316936306343999e-01
11250:-2.8806176259129063e-01
11251:-5.8602661678985801e-01
11252:3.2923809870234605e-01
11253:-2.9580885717216315e-02
11254:-4.3542823223569710e-01
11255:-7.0670296476084316e-01
11256:6.6960643488262689e-03
11257:-3.0303460318748698e-01
11258:-5.9454448207702226e-01
11259:-7.7436478741641801e-01
11260:-3.6354176620601270e-01
11261:-5.5146815896211987e-01
11262:-6.7462845477903011e-01
11263:-7.6252349657056817e-01
11264:-7.3731938457205359e-01
11265:-9.8659673821112015e-01
11266:-1.2372183823471168e+00
11267:-1.3697613164835654e+00
11268:-8.3952036728611990e-01
11269:-1.0666112926653681e+00
11270:-1.3130093322624010e+00
11271:-1.4578647759360837e+00
11272:-8.6733566291816655e-01
11273:-1.0401539700393889e+00
11274:-1.2512376882733280e+00
11275:-1.3924588013717440e+00
11276:-8.3020634051910713e-01
11277:-9.6027386765780864e-01
11278:-1.1121454170865643e+00
11279:-1.2029660055977325e+00
11280:-1.4197881902625911e+00
11281:-1.4989406594259553e+00
11282:-1.5931987756727839e+00
11283:-1.6725377509735428e+00
11284:-1.5183415155590696e+00
11285:-1.6132431703409533e+00
11286:-1.7201159966728086e+00
11287:-1.8047364814950675e+00
11288:-1.4593227356599079e+00
11289:-1.5971769926547401e+00
11290:-1.8023433157380537e+00
11291:-1.9740674150790056e+00
11292:-1.2444532454283352e+00
11293:-1.4008545576727816e+00
11294:-1.7379500315039724e+00
11295:-2.0600626413467324e+00
11296:-1.7206004602024676e+00
11297:-1.8051269129288938e+00
11298:-1.8853763375528290e+00
11299:-1.9097801843399105e+00
11300:-1.8547327967647875e+00
11301:-1.9439059878795060e+00
11302:-2.0293587974191252e+00
11303:-2.0539420664760519e+00
11304:-2.0670505207044814e+00
11305:-2.2035275386388431e+00
11306:-2.2952801388602175e+00
11307:-2.2960873408434632e+00
11308:-2.2370141239901669e+00
11309:-2.4708971427729138e+00
11310:-2.5851172339082158e+00
11311:-2.5473713685615360e+00
11312:-1.9065836152171558e+00
11313:-1.8893793712801610e+00
11314:-1.8563905083591976e+00
11315:-1.8295128538570784e+00
11316:-2.0486536844409522e+00
11317:-2.0249090295575605e+00
11318:-1.9800528884451662e+00
11319:-1.9428013569426976e+00
11320:-2.2730395588149226e+00
11321:-2.2240386105937837e+00
11322:-2.1585310646646181e+00
11323:-2.1086814953557194e+00
11324:-2.4932028853561086e+00
11325:-2.4024443212042601e+00
11326:-2.3101564141771540e+00
11327:-2.2502352509766368e+00
11328:-1.8165659933991645e+00
11329:-1.7959027655900139e+00
11330:-1.7744721245208093e+00
11331:-1.7608398123160922e+00
11332:-1.9242806613531602e+00
11333:-1.8938556782409948e+00
11334:-1.8614846403975713e+00
11335:-1.8411473706338062e+00
11336:-2.0826379565673987e+00
11337:-2.0343754659706610e+00
11338:-1.9755837119577677e+00
11339:-1.9366802904971081e+00
11340:-2.2189655336047580e+00
11341:-2.1541249552803787e+00
11342:-2.0657630342947568e+00
11343:-2.0040855150948453e+00
11344:-1.7541424794680680e+00
11345:-1.7427296474982679e+00
11346:-1.7312796590622386e+00
11347:-1.7261744310420302e+00
11348:-1.8314965632787910e+00
11349:-1.8146290082738437e+00
11350:-1.7962673931076378e+00
11351:-1.7862759933892292e+00
11352:-1.9188645689017270e+00
11353:-1.8889516005158742e+00
11354:-1.8568939046519639e+00
11355:-1.8382331046957348e+00
11356:-1.9758582703332361e+00
11357:-1.9301707401507302e+00
11358:-1.8833240918755438e+00
11359:-1.8564101094167205e+00
11360:-1.7249110455382128e+00
11361:-1.7228033129387541e+00
11362:-1.7202360302505528e+00
11363:-1.7186178343438878e+00
11364:-1.7826482935328487e+00
11365:-1.7768753918241615e+00
11366:-1.7708491102979826e+00
11367:-1.7673616804947563e+00
11368:-1.8304445570408236e+00
11369:-1.8180074833899611e+00
11370:-1.8053929970952385e+00
11371:-1.7982569584507875e+00
11372:-1.8449048545343112e+00
11373:-1.8263887032736725e+00
11374:-1.8074777569056597e+00
11375:-1.7966734412883114e+00
11376:-1.7179319984557850e+00
11377:-1.7168556753373962e+00
11378:-1.7159054976529895e+00
11379:-1.7155960464227562e+00
11380:-1.7658781572629987e+00
11381:-1.7634625624740006e+00
11382:-1.7610317933773738e+00
11383:-1.7597843595478067e+00
11384:-1.7952453709752831e+00
11385:-1.7903879432325887e+00
11386:-1.7854372742092630e+00
11387:-1.7826699980350951e+00
11388:-1.7920810345872444e+00
11389:-1.7847716160624656e+00
11390:-1.7774439281941488e+00
11391:-1.7733409312283124e+00
11392:-1.7155844969875600e+00
11393:-1.7155680299733425e+00
11394:-1.7154586281830497e+00
11395:-1.7152726841721382e+00
11396:-1.7593411209064527e+00
11397:-1.7586444263769359e+00
11398:-1.7578576487607707e+00
11399:-1.7572708002801884e+00
11400:-1.7815341914323455e+00
11401:-1.7797495133872390e+00
11402:-1.7779217367198188e+00
11403:-1.7767901666042316e+00
11404:-1.7716210571752729e+00
11405:-1.7689209147876042e+00
11406:-1.7662322217616799e+00
11407:-1.7646825473175494e+00
11408:-1.7151279956295937e+00
11409:-1.7147787996207382e+00
11410:-1.7141623763690339e+00
11411:-1.7135557423019045e+00
11412:-1.7569421486325307e+00
11413:-1.7563009612854605e+00
11414:-1.7553908943305743e+00
11415:-1.7546087323264823e+00
11416:-1.7762505756169478e+00
11417:-1.7753500874841359e+00
11418:-1.7742841111426162e+00
11419:-1.7734424652671208e+00
11420:-1.7640030497835306e+00
11421:-1.7629950779852361e+00
11422:-1.7619824525578611e+00
11423:-1.7612251533390384e+00
11424:-1.7131827194389628e+00
11425:-1.7123952566369003e+00
11426:-1.7111416955497802e+00
11427:-1.7099544810268767e+00
11428:-1.7541543042289824e+00
11429:-1.7532291228684858e+00
11430:-1.7518233512890540e+00
11431:-1.7505394120260158e+00
11432:-1.7729545060742355e+00
11433:-1.7719685854561820e+00
11434:-1.7705347718859208e+00
11435:-1.7693085449928654e+00
11436:-1.7607677212040640e+00
11437:-1.7598313502968976e+00
11438:-1.7585215871430522e+00
11439:-1.7574983396484258e+00
11440:-1.7092325433494850e+00
11441:-1.7078109559667352e+00
11442:-1.7057923210565633e+00
11443:-1.7040668826453540e+00
11444:-1.7497716153483875e+00
11445:-1.7482512657815947e+00
11446:-1.7460514107102680e+00
11447:-1.7441255373428770e+00
11448:-1.7686082497874236e+00
11449:-1.7672278201447165e+00
11450:-1.7651960484239035e+00
11451:-1.7633621755788493e+00
11452:-1.7569586359976610e+00
11453:-1.7559070647749075e+00
11454:-1.7543218917084715e+00
11455:-1.7528257079162872e+00
11456:-1.7030650175792961e+00
11457:-1.7009724435818363e+00
11458:-1.6978858435909387e+00
11459:-1.6953133972776795e+00
11460:-1.7429892982856721e+00
11461:-1.7405986244887646e+00
11462:-1.7370275690886436e+00
11463:-1.7340035109790053e+00
11464:-1.7622569231158443e+00
11465:-1.7599130310698510e+00
11466:-1.7562832311561745e+00
11467:-1.7530248070254824e+00
11468:-1.7518975239916075e+00
11469:-1.7499206329095625e+00
11470:-1.7466961081100110e+00
11471:-1.7435495084605075e+00
11472:-1.6938965793273948e+00
11473:-1.6912577660808255e+00
11474:-1.6876677141474030e+00
11475:-1.6846096346647439e+00
11476:-1.7323148395736301e+00
11477:-1.7291027349882118e+00
11478:-1.7246781785875593e+00
11479:-1.7209501026773537e+00
11480:-1.7511127535163313e+00
11481:-1.7473068467406869e+00
11482:-1.7421208530813523e+00
11483:-1.7381495596672616e+00
11484:-1.7415803101177378e+00
11485:-1.7374522719867338e+00
11486:-1.7319292353402633e+00
11487:-1.7282336387386814e+00
11488:-1.6828010422878248e+00
11489:-1.6789154308349459e+00
11490:-1.6733798913924509e+00
11491:-1.6692737832409228e+00
11492:-1.7187788140590614e+00
11493:-1.7140681576270627e+00
11494:-1.7069377818068914e+00
11495:-1.7010175395425566e+00
11496:-1.7360614086928494e+00
11497:-1.7316646526106207e+00
11498:-1.7242318291011489e+00
11499:-1.7166294675046991e+00
11500:-1.7266218018707871e+00
11501:-1.7235731100458775e+00
11502:-1.7174739703601152e+00
11503:-1.7093757496869113e+00
11504:-1.6672997210635565e+00
11505:-1.6642886625136166e+00
11506:-1.6610963598346173e+00
11507:-1.6585882461127885e+00
11508:-1.6978370422911042e+00
11509:-1.6926620204503138e+00
11510:-1.6873954398153248e+00
11511:-1.6842790034504083e+00
11512:-1.7118004070662656e+00
11513:-1.7028785433738123e+00
11514:-1.6934716363342697e+00
11515:-1.6894879552991131e+00
11516:-1.7033908810956260e+00
11517:-1.6909106810766967e+00
11518:-1.6766260509989663e+00
11519:-1.6709721972783598e+00
11520:-1.6569376363786752e+00
11521:-1.6515678613067331e+00
11522:-1.6413950382496216e+00
11523:-1.6326928351959384e+00
11524:-1.6826775709222979e+00
11525:-1.6763061013268739e+00
11526:-1.6614920912125266e+00
11527:-1.6459211687230408e+00
11528:-1.6886517901100093e+00
11529:-1.6838524345264114e+00
11530:-1.6678495826413682e+00
11531:-1.6460648363616031e+00
11532:-1.6706413351168208e+00
11533:-1.6689361932403703e+00
11534:-1.6572103155392888e+00
11535:-1.6353217168607479e+00
11536:-1.6284177213518298e+00
11537:-1.6251903553130957e+00
11538:-1.6298341878699598e+00
11539:-1.6389196614211770e+00
11540:-1.6368303679466873e+00
11541:-1.6267768241371612e+00
11542:-1.6286486888668155e+00
11543:-1.6411253196623936e+00
11544:-1.6312042016863233e+00
11545:-1.6104248370715379e+00
11546:-1.6025084845027198e+00
11547:-1.6134574426448967e+00
11548:-1.6181544264009362e+00
11549:-1.5890538664315526e+00
11550:-1.5662529906116662e+00
11551:-1.5661093296857416e+00
11552:-1.6447636878832699e+00
11553:-1.6476934194972663e+00
11554:-1.6371665158881339e+00
11555:-1.6213189173562441e+00
11556:-1.6504780336995331e+00
11557:-1.6545828915504668e+00
11558:-1.6336532173097646e+00
11559:-1.6011421446331957e+00
11560:-1.6244071217189699e+00
11561:-1.6272614540310306e+00
11562:-1.5949664275123723e+00
11563:-1.5467822243910487e+00
11564:-1.5722599519805460e+00
11565:-1.5686514445621464e+00
11566:-1.5331816219821131e+00
11567:-1.4868993657456973e+00
11568:-1.6117407242804300e+00
11569:-1.6031216203724679e+00
11570:-1.6075043271774270e+00
11571:-1.6181647058376176e+00
11572:-1.5805333287719774e+00
11573:-1.5605988951614971e+00
11574:-1.5672762970174055e+00
11575:-1.5888977626887086e+00
11576:-1.5163484279418931e+00
11577:-1.4888138648812015e+00
11578:-1.5016040428704915e+00
11579:-1.5326260302365782e+00
11580:-1.4591153273332698e+00
11581:-1.4382031471284287e+00
11582:-1.4543793871973458e+00
11583:-1.4762374498708362e+00
11584:-1.6261853427975617e+00
11585:-1.6683559650893560e+00
11586:-1.7973863328426098e+00
11587:-1.9680413434726858e+00
11588:-1.6039753058915851e+00
11589:-1.6467377046221097e+00
11590:-1.7573800817999488e+00
11591:-1.9073510784640133e+00
11592:-1.5510633845886594e+00
11593:-1.5785091688003119e+00
11594:-1.6327391465395580e+00
11595:-1.7205067389693540e+00
11596:-1.4832610338454721e+00
11597:-1.4757459468768990e+00
11598:-1.4638265136602047e+00
11599:-1.4907862055321743e+00
11600:-2.0790380775121693e+00
11601:-2.1482071243365151e+00
11602:-1.9102246021289973e+00
11603:-1.4590548098861185e+00
11604:-2.0081166356494435e+00
11605:-2.0733805041378339e+00
11606:-1.8605079171025807e+00
11607:-1.4495678351763746e+00
11608:-1.7853825321033685e+00
11609:-1.8062431477188892e+00
11610:-1.6009370763199835e+00
11611:-1.2602499371466311e+00
11612:-1.5217687155372597e+00
11613:-1.4897640881401095e+00
11614:-1.2645078008971964e+00
11615:-9.7011599232597290e-01
11616:-1.1404081847777818e+00
11617:-7.8639104957846362e-01
11618:-8.7608182277910363e-01
11619:-1.3597673281570097e+00
11620:-1.1577633118412567e+00
11621:-8.3410743210321381e-01
11622:-8.9304618680302494e-01
11623:-1.2756239248677190e+00
11624:-1.0303363743894072e+00
11625:-8.1331017543748196e-01
11626:-9.2556129712636959e-01
11627:-1.2311739291236534e+00
11628:-7.9289519024528166e-01
11629:-7.0278844749360703e-01
11630:-9.7005058904138541e-01
11631:-1.3301673111439363e+00
11632:-1.7410236888030961e+00
11633:-2.3296840607616129e+00
11634:-2.8857944145293484e+00
11635:-3.2538715323943759e+00
11636:-1.5745222475281269e+00
11637:-2.0685195466882944e+00
11638:-2.6930278663763780e+00
11639:-3.3078769735076849e+00
11640:-1.4383646185328358e+00
11641:-1.7711856232331333e+00
11642:-2.2222949853911249e+00
11643:-2.7243368706329978e+00
11644:-1.5256706692837623e+00
11645:-1.7157551407609168e+00
11646:-1.6736367698957590e+00
11647:-1.5025460331560607e+00
11648:-3.4414806539248315e+00
11649:-3.3741248031908704e+00
11650:-1.9547251534999777e+00
11651:5.5144120286789644e-01
11652:-3.6958640313294593e+00
11653:-3.8863241769459700e+00
11654:-2.4945678859159894e+00
11655:2.4949373992279200e-01
11656:-3.0658931767130602e+00
11657:-3.4428016833286552e+00
11658:-3.3291666997473648e+00
11659:-2.7798576316021455e+00
11660:-1.4141383418163169e+00
11661:-1.8931354889336554e+00
11662:-4.6219135093940178e+00
11663:-8.9969338331545483e+00
11664:1.0272324954982917e+01
11665:1.3960138955835701e+01
11666:1.6571297530144339e+01
11667:1.7597036902148272e+01
11668:9.0844321198355971e+00
11669:1.2478031135437950e+01
11670:1.5344862858472228e+01
11671:1.6447942619999775e+01
11672:8.2770188410353196e+00
11673:1.0350980641824220e+01
11674:1.2394676330033281e+01
11675:1.3134939101626573e+01
11676:6.5686157584702416e+00
11677:7.7278296730025779e+00
11678:8.9172538472488192e+00
11679:9.2502915981167479e+00
11680:1.8003408008242822e+01
11681:1.8790846669595865e+01
11682:1.9832079433442651e+01
11683:2.0581667894771709e+01
11684:1.6704890637560958e+01
11685:1.7114533193497433e+01
11686:1.7692243223377577e+01
11687:1.8234966341288967e+01
11688:1.3184219345648014e+01
11689:1.3231021998782388e+01
11690:1.3479095975639011e+01
11691:1.3935482297334898e+01
11692:9.1641150471076678e+00
11693:9.0496180101333259e+00
11694:9.2149167842398043e+00
11695:9.6683884337726411e+00
11696:2.0947855913620472e+01
11697:2.1611990932402197e+01
11698:2.2660727873476166e+01
11699:2.3795399228443177e+01
11700:1.8575015516178894e+01
11701:1.9267816748769608e+01
11702:2.0280534927354719e+01
11703:2.1151108779891462e+01
11704:1.4296389930032998e+01
11705:1.5006707987388591e+01
11706:1.5866016620796557e+01
11707:1.6394613915177207e+01
11708:1.0034103752556041e+01
11709:1.0683378010750625e+01
11710:1.1355538331722455e+01
11711:1.1698333650813595e+01
11712:2.4569647606861746e+01
11713:2.6309724993411809e+01
11714:2.8896139419912927e+01
11715:3.0914043786536162e+01
11716:2.1650834883076712e+01
11717:2.2625948514417257e+01
11718:2.3873914024451768e+01
11719:2.4731199184930897e+01
11720:1.6612960137558456e+01
11721:1.6966117765343345e+01
11722:1.7309224373904364e+01
11723:1.7462014702905829e+01
11724:1.1817469120369775e+01
11725:1.2049785757416300e+01
11726:1.2341702349622485e+01
11727:1.2507043017362497e+01
11728:3.1944359236490229e+01
11729:3.3722485556144306e+01
11730:3.5553762671412443e+01
11731:3.6424912162532337e+01
11732:2.5131658817090809e+01
11733:2.5781792179670056e+01
11734:2.6413501232636214e+01
11735:2.6712298891366078e+01
11736:1.7496089183430911e+01
11737:1.7437637712736773e+01
11738:1.7203109749217578e+01
11739:1.6980258444277194e+01
11740:1.2555183388504593e+01
11741:1.2486069583039377e+01
11742:1.2162704160330559e+01
11743:1.1820654358310097e+01
11744:3.6654673954240174e+01
11745:3.6658542480618173e+01
11746:3.6156345876181184e+01
11747:3.5670052369894201e+01
11748:2.6797384079906816e+01
11749:2.6760067361745286e+01
11750:2.6308871676370075e+01
11751:2.5650152550496781e+01
11752:1.6869979977571539e+01
11753:1.6682996857472972e+01
11754:1.6272537030475988e+01
11755:1.5648842261888259e+01
11756:1.1633339047134131e+01
11757:1.1334301526730007e+01
11758:1.0883648796660195e+01
11759:1.0337655385254743e+01
11760:3.5459957712653704e+01
11761:3.5198652465257545e+01
11762:3.4716653073010647e+01
11763:3.3882022597853968e+01
11764:2.5196867144321658e+01
11765:2.4340884365177562e+01
11766:2.3304135960250818e+01
11767:2.2617432997012575e+01
11768:1.5160235523955299e+01
11769:1.4064179851780754e+01
11770:1.2638156521561502e+01
11771:1.1839023839188394e+01
11772:9.9321088196142462e+00
11773:8.9856104235312753e+00
11774:7.6787319465352430e+00
11775:6.8723002739996746e+00
11776:3.3166160323636142e+01
11777:3.1365046574117009e+01
11778:2.9156815066286882e+01
11779:2.8484156239788348e+01
11780:2.2289333143978315e+01
11781:2.1558236242501305e+01
11782:2.0565726923096381e+01
11783:1.9980174397945053e+01
11784:1.1598880216996182e+01
11785:1.1474907075689654e+01
11786:1.1630845116956879e+01
11787:1.1718235889381070e+01
11788:6.5932729418784710e+00
11789:6.5234929304745819e+00
11790:7.0274177315414565e+00
11791:7.5818741105642307e+00
11792:2.8751134489682574e+01
11793:3.0391104740075018e+01
11794:3.3260402481393818e+01
11795:3.4703713710283722e+01
11796:1.9796542662667935e+01
11797:1.9795057721402888e+01
11798:2.0076816591688200e+01
11799:2.0148185831875463e+01
11800:1.1658169783190212e+01
11801:1.1061807946815831e+01
11802:9.6359897459018988e+00
11803:8.3603913021798313e+00
11804:7.8189103336435872e+00
11805:7.5373565153152784e+00
11806:6.0483364065034113e+00
11807:4.4244299071121738e+00
11808:3.4824509009941856e+01
11809:3.3679562912762648e+01
11810:3.0504942353597379e+01
11811:2.7675793803876157e+01
11812:2.0026190836421723e+01
11813:1.9379229476988495e+01
11814:1.7963534379585855e+01
11815:1.6673335767319074e+01
11816:7.7236563685223878e+00
11817:6.9452572204214755e+00
11818:6.5380298984766885e+00
11819:6.4529368830437308e+00
11820:3.5316245077930333e+00
11821:2.4579120462261010e+00
11822:2.0335380272929373e+00
11823:2.1650563988451785e+00
11824:2.6287790631408956e+01
11825:2.4114671358517025e+01
11826:2.1842088240493261e+01
11827:2.0269017229072798e+01
11828:1.5987864781543834e+01
11829:1.4878874757569411e+01
11830:1.3711199714000321e+01
11831:1.2944433469575978e+01
11832:6.4184000212593748e+00
11833:6.3158686674440805e+00
11834:6.1657006995994159e+00
11835:6.0922318175989894e+00
11836:2.3038059651602398e+00
11837:2.4791098837067831e+00
11838:2.6072418089063625e+00
11839:2.7175464609240350e+00
11840:1.9413533968552585e+01
11841:1.7724425190589198e+01
11842:1.5515986624955140e+01
11843:1.3964518513330182e+01
11844:1.2550283283758796e+01
11845:1.1726543886908370e+01
11846:1.0564062657083010e+01
11847:9.6934897782178968e+00
11848:6.0739866873059238e+00
11849:5.9287112534650799e+00
11850:5.5177616827251397e+00
11851:5.0599150953824674e+00
11852:2.7971690115714227e+00
11853:2.8403159261211286e+00
11854:2.6414445426687996e+00
11855:2.2815734115371793e+00
11856:1.3229733681080434e+01
11857:1.2071388308839213e+01
11858:1.1051816526680954e+01
11859:1.0697389146616896e+01
11860:9.2655646424958960e+00
11861:8.6014829480523094e+00
11862:7.9660048183690142e+00
11863:7.6081295269470033e+00
11864:4.7841105070406131e+00
11865:4.3902620835578112e+00
11866:4.0555716848173198e+00
11867:3.8454197757997401e+00
11868:2.0270137855728292e+00
11869:1.6692912790911489e+00
11870:1.4270019927188313e+00
11871:1.3584935387925905e+00
11872:1.0673115317859594e+01
11873:1.0850490273517694e+01
11874:1.1130880568587212e+01
11875:1.1048350086910830e+01
11876:7.4447147198561821e+00
11877:7.0882097548422989e+00
11878:6.4720636119813015e+00
11879:5.8529174433318758e+00
11880:3.7127541667634874e+00
11881:3.2449901882177068e+00
11882:2.3371429316560679e+00
11883:1.5633663309312007e+00
11884:1.3352125585380490e+00
11885:1.1088209346276250e+00
11886:5.4814274481425618e-01
11887:3.6584747841059188e-02
11888:1.0804047902807518e+01
11889:9.9916080439935548e+00
11890:8.5558255254778217e+00
11891:7.4408720994134079e+00
11892:5.4672827151995023e+00
11893:4.7378259113803907e+00
11894:3.8424334228643606e+00
11895:3.2413215990428386e+00
11896:1.1717029963680394e+00
11897:5.7438813202686678e-01
11898:-2.9768155664733495e-02
11899:-4.5787097405608268e-01
11900:-2.2809144850283811e-01
11901:-6.6993966059793530e-01
11902:-1.2299376650078624e+00
11903:-1.7323648536592824e+00
11904:6.9188268578944845e+00
11905:6.0841849079901538e+00
11906:5.1894453130007259e+00
11907:4.5787423587302296e+00
11908:2.9606185814216830e+00
11909:2.4692627997365624e+00
11910:1.8875519563796168e+00
11911:1.4869530979435495e+00
11912:-6.9571646384177011e-01
11913:-1.0546822986616660e+00
11914:-1.2827860130507955e+00
11915:-1.2342371271496864e+00
11916:-2.0358259429954639e+00
11917:-2.4151747840074602e+00
11918:-2.4471236891338144e+00
11919:-2.0861870326694758e+00
11920:4.2550190355422917e+00
11921:3.4987032251819556e+00
11922:1.8302841198462796e+00
11923:-3.0064050561833577e-01
11924:1.2772136154180864e+00
11925:6.4601631489306643e-01
11926:-8.2449968420742914e-01
11927:-2.5664383410747122e+00
11928:-1.1392391029478461e+00
11929:-1.1964683802314162e+00
11930:-1.7692590799478183e+00
11931:-2.5528204051900905e+00
11932:-1.7731852899765095e+00
11933:-1.3802403959809182e+00
11934:-1.2628863151826939e+00
11935:-1.4083037326201162e+00
11936:4.8978624973431746e+00
11937:5.8163073419340678e+00
11938:6.6608930803762636e+00
11939:6.8035058545149933e+00
11940:2.0355249591233044e+00
11941:2.6967430043801293e+00
11942:3.1326501205724142e+00
11943:3.0624451779675019e+00
11944:-4.6679523178391591e-01
11945:6.1599950978103682e-02
11946:3.0484001054314847e-01
11947:1.7681899458330472e-01
11948:-1.1837833918353720e+00
11949:-6.7877919458098102e-01
11950:-4.1989309030776023e-01
11951:-4.9705308404371024e-01
11952:6.6663191274010494e+00
11953:6.5125976749288359e+00
11954:6.6760741435098918e+00
11955:7.1222553982121140e+00
11956:2.8849052246443527e+00
11957:2.7065665324174399e+00
11958:2.8468387221089015e+00
11959:3.2227771809395689e+00
11960:2.1471079623788452e-02
11961:-1.3903054759109842e-01
11962:-7.6306912281143738e-02
11963:1.4126681352076648e-01
11964:-6.1517864555481439e-01
11965:-7.6304823402329369e-01
11966:-7.8536233009208556e-01
11967:-6.8748294925780784e-01
11968:7.4690175682651745e+00
11969:8.0437772254750222e+00
11970:8.6024594428719112e+00
11971:8.8992839508951693e+00
11972:3.4990803574902389e+00
11973:3.9206434969661261e+00
11974:4.3262861709633205e+00
11975:4.6097964508628859e+00
11976:2.9882817977674853e-01
11977:5.5123661519422329e-01
11978:8.7733257313977842e-01
11979:1.2174694225478140e+00
11980:-6.0140273916082165e-01
11981:-4.1306324499046737e-01
11982:-7.4159646333481363e-02
11983:2.9893113027635243e-01
11984:9.0236986874091816e+00
11985:9.3288850831472576e+00
11986:9.7961061703953298e+00
11987:1.0119518777071471e+01
11988:4.7799203934619072e+00
11989:5.2190473452257153e+00
11990:5.8968505776917084e+00
11991:6.3688250158663138e+00
11992:1.4544436597274892e+00
11993:1.9579132634968854e+00
11994:2.5940217279859223e+00
11995:2.9566786817871380e+00
11996:5.4255687537814001e-01
11997:9.5560189328919620e-01
11998:1.3314500389258199e+00
11999:1.4516547378902063e+00
12000:1.0249937767453392e+01
12001:1.0323737160146010e+01
12002:1.0141626324530186e+01
12003:9.8531474702663360e+00
12004:6.5666110553674546e+00
12005:6.7995357793120164e+00
12006:6.8557676816652418e+00
12007:6.7323271248838772e+00
12008:3.0823088121208726e+00
12009:3.2925363796719478e+00
12010:3.5136354647507098e+00
12011:3.6171610034368133e+00
12012:1.4558077289074365e+00
12013:1.5374757158528083e+00
12014:1.7676266588899407e+00
12015:1.9841385764122736e+00
12016:9.6689468100507678e+00
12017:9.3326034118046852e+00
12018:8.8260967171483244e+00
12019:8.2993642785910140e+00
12020:6.6135617779556810e+00
12021:6.2916517500751175e+00
12022:5.7006259655050711e+00
12023:5.1380669349853116e+00
12024:3.6325512262744413e+00
12025:3.4380997155424970e+00
12026:2.8252762688401942e+00
12027:2.1772954506509357e+00
12028:2.0846290558091627e+00
12029:2.0130433776082288e+00
12030:1.4760052119390281e+00
12031:8.2471669775757472e-01
12032:7.9451786073232817e+00
12033:7.1631816295381858e+00
12034:6.0927769938876732e+00
12035:5.3883234667818511e+00
12036:4.8107315964315847e+00
12037:4.2418190913463425e+00
12038:3.6068675970096709e+00
12039:3.2017724550336548e+00
12040:1.8116373647327684e+00
12041:1.3555322934020886e+00
12042:1.1365143353832026e+00
12043:1.1434526004332937e+00
12044:4.4145932408167859e-01
12045:9.0128142426489938e-03
12046:-6.4077865824945707e-02
12047:1.3051423171862978e-01
12048:5.1105062875106473e+00
12049:4.9888985556159913e+00
12050:5.4559030571365019e+00
12051:6.1165424501767447e+00
12052:3.0225850943141355e+00
12053:2.8991723651699366e+00
12054:3.1941491038808589e+00
12055:3.7775899134148583e+00
12056:1.1707366469365903e+00
12057:1.1661540013430780e+00
12058:1.1944326586084035e+00
12059:1.3858295282510973e+00
12060:2.7234861304639429e-01
12061:3.5397865034356130e-01
12062:2.2780454045713913e-01
12063:1.1177322241011069e-01
12064:6.4848373589938682e+00
12065:6.5040525027683183e+00
12066:5.3635837264630224e+00
12067:3.8574631709772023e+00
12068:4.1809237892788982e+00
12069:4.4766150499931845e+00
12070:3.8979362171516057e+00
12071:2.7794801922953249e+00
12072:1.5714700978710341e+00
12073:1.7775107996092070e+00
12074:1.6087211076853103e+00
12075:1.0620780358487121e+00
12076:8.5941910620692050e-02
12077:7.1054651098795718e-02
12078:-8.0260319978299084e-03
12079:-2.1532332609096702e-01
12080:2.9458569470627878e+00
12081:1.7556608290057150e+00
12082:1.1213057404195490e+00
12083:1.1212396927124486e+00
12084:2.0003355960657552e+00
12085:8.6120440957858579e-01
12086:4.5208571475915824e-02
12087:-1.5507982463202533e-01
12088:6.2143317629175243e-01
12089:-1.0745782948590692e-01
12090:-7.6741430143943568e-01
12091:-1.0343673628953538e+00
12092:-3.9829232629681233e-01
12093:-7.4027546016668033e-01
12094:-1.1043344578132115e+00
12095:-1.2779562483774332e+00
12096:1.2186343162968807e+00
12097:1.3349342205120329e+00
12098:1.4060163782646735e+00
12099:1.4821994325086638e+00
12100:-1.4999481483377697e-01
12101:-1.7530626845492878e-01
12102:-2.5257363019316686e-01
12103:-2.8147079795791791e-01
12104:-1.0969185224221023e+00
12105:-1.2238438158681058e+00
12106:-1.4089801639787216e+00
12107:-1.5363166740564169e+00
12108:-1.3257991367230526e+00
12109:-1.4102661647551762e+00
12110:-1.5331347932618002e+00
12111:-1.6416807169408030e+00
12112:1.5467759676138721e+00
12113:1.5865834482688610e+00
12114:1.4163039560865405e+00
12115:1.0854522568319454e+00
12116:-2.7095921316853877e-01
12117:-2.5911928759563957e-01
12118:-3.3005089794545350e-01
12119:-5.0193897647409025e-01
12120:-1.5872801826129779e+00
12121:-1.5979984000901213e+00
12122:-1.4898400153683891e+00
12123:-1.3624348082600515e+00
12124:-1.6996195653116031e+00
12125:-1.7012451612652697e+00
12126:-1.4946561357045471e+00
12127:-1.1978185427752241e+00
12128:8.4277527066539126e-01
12129:4.9046979644568323e-01
12130:2.6667322056304760e-01
12131:2.6274344089387497e-01
12132:-6.4306660926361270e-01
12133:-8.7814267876243091e-01
12134:-1.0469588997814294e+00
12135:-1.0233531424622133e+00
12136:-1.2978368824744402e+00
12137:-1.2645034661887244e+00
12138:-1.3254114312889818e+00
12139:-1.3769180547979556e+00
12140:-1.0083099063336496e+00
12141:-7.9313121219683536e-01
12142:-7.6874194545037766e-01
12143:-8.9267150235208825e-01
12144:3.0496278003887717e-01
12145:2.7508137283647088e-01
12146:4.1641820583881078e-02
12147:-2.3295364748551226e-01
12148:-9.4834701920924880e-01
12149:-7.8810740332670526e-01
12150:-6.1559278075678237e-01
12151:-5.5929364509478974e-01
12152:-1.3799349311419762e+00
12153:-1.2663996958824857e+00
12154:-9.8210885550610028e-01
12155:-7.5959518365168233e-01
12156:-9.8382330492254699e-01
12157:-1.0306917059896186e+00
12158:-8.9894670197410242e-01
12159:-7.2633990588065356e-01
12160:-3.9779226797990169e-01
12161:-7.3960925183045978e-01
12162:-1.2962418361057231e+00
12163:-1.8488198464040939e+00
12164:-5.7277019397752926e-01
12165:-7.3331213277140228e-01
12166:-1.1907496520912111e+00
12167:-1.7073223606273518e+00
12168:-6.7258412530710288e-01
12169:-6.5619484660175409e-01
12170:-8.7636918203589009e-01
12171:-1.1750995829095192e+00
12172:-6.3543574010448578e-01
12173:-5.5417851512226390e-01
12174:-5.9582008847255874e-01
12175:-7.0225084213302980e-01
12176:-2.1821587152907092e+00
12177:-2.5708505898789835e+00
12178:-2.5312584525835220e+00
12179:-2.0667698712317710e+00
12180:-2.0169139632332009e+00
12181:-2.3450803666275704e+00
12182:-2.2186682681412009e+00
12183:-1.7019706519582081e+00
12184:-1.3531788003393013e+00
12185:-1.5131041920242159e+00
12186:-1.3516612340261449e+00
12187:-9.5584629058539572e-01
12188:-7.6873150321236006e-01
12189:-8.0670449240513331e-01
12190:-6.6971428854742321e-01
12191:-4.2521470115553345e-01
12192:-1.6857942569465729e+00
12193:-1.1473415983975011e+00
12194:-8.1867533604052234e-01
12195:-7.9767425726390029e-01
12196:-1.3008617676007150e+00
12197:-6.9019512202325151e-01
12198:-2.1509720108087169e-01
12199:-6.5803824961913115e-02
12200:-6.6549488905239929e-01
12201:-2.1593532841234389e-01
12202:1.4308238466779949e-01
12203:2.5236927142837429e-01
12204:-2.5413637037898246e-01
12205:5.4326531464217948e-03
12206:1.9226924955214980e-01
12207:2.1642341497244455e-01
12208:-1.1162286489032465e+00
12209:-6.1379268159546663e-01
12210:-3.1869319648036676e-01
12211:-3.6003084800867574e-01
12212:-9.8461189958782425e-01
12213:-4.5010231330147926e-01
12214:-8.8632576487241960e-02
12215:-9.1333402075077882e-02
12216:-9.2633197563079395e-01
12217:-3.2906858553541157e-01
12218:8.8224865610552219e-02
12219:9.7590714721665042e-02
12220:-9.0760174557115070e-01
12221:-3.0484131910414480e-01
12222:1.1121430571802834e-01
12223:1.2484636981986130e-01
12224:-4.6377351363809743e-01
12225:-6.1745917875596179e-01
12226:-6.8871886026927176e-01
12227:-6.3630299110271105e-01
12228:-1.8803463640200990e-01
12229:-3.6382971634047412e-01
12230:-4.9774100364925533e-01
12231:-4.8739602426851764e-01
12232:-5.6433013491909243e-03
12233:-2.0136028325332969e-01
12234:-3.5908311631658191e-01
12235:-3.5360195582344139e-01
12236:2.8752519921143929e-02
12237:-1.4862013795360571e-01
12238:-2.8761405497155673e-01
12239:-2.8368757315289461e-01
12240:-5.6898136942336675e-01
12241:-3.8117694430520999e-01
12242:-2.0384031172881546e-02
12243:3.4314208613376213e-01
12244:-4.3078668814706611e-01
12245:-2.3576141772966602e-01
12246:1.1995112685819334e-01
12247:4.0856308085107629e-01
12248:-2.9322772125543273e-01
12249:-1.1245397329743900e-01
12250:1.4572402191073175e-01
12251:2.7280350299322720e-01
12252:-2.3415938551240520e-01
12253:-1.0975942608257913e-01
12254:2.0870042605997060e-02
12255:2.6218489012381760e-02
12256:5.5908865906432681e-01
12257:8.6214273478846692e-01
12258:1.0348939796982788e+00
12259:1.0031939885711718e+00
12260:5.4412416810281217e-01
12261:6.4993118508851844e-01
12262:5.5718058571487372e-01
12263:3.8167087520084897e-01
12264:2.8974098384907360e-01
12265:2.1187580601864450e-01
12266:6.4880809767056393e-03
12267:-1.3233823776057863e-01
12268:-2.1412736680185954e-02
12269:-1.5175495079459858e-01
12270:-3.0383776408090257e-01
12271:-3.3180341825189757e-01
12272:9.4197815057565049e-01
12273:9.4397793423881626e-01
12274:1.1424754683603888e+00
12275:1.3786112266373607e+00
12276:2.8012561736778258e-01
12277:2.2598620144061649e-01
12278:3.6833490169554756e-01
12279:5.6686710965606235e-01
12280:-1.7182091856262321e-01
12281:-1.6915193571431730e-01
12282:-8.2804393240725971e-02
12283:-1.2104297751067796e-02
12284:-2.9928299097080746e-01
12285:-2.3086539427211908e-01
12286:-1.8306955609626055e-01
12287:-2.1041605484507250e-01
12288:1.5016482378094977e+00
12289:1.4849811805315283e+00
12290:1.0238422130329821e+00
12291:4.1714868771681463e-01
12292:6.7340440224078124e-01
12293:6.9044289237733925e-01
12294:3.7456979156809272e-01
12295:-7.6914756355270633e-02
12296:9.2060979666088137e-03
12297:-1.4409085917551480e-02
12298:-1.6128111991968688e-01
12299:-3.5104801703654792e-01
12300:-2.5244346955536545e-01
12301:-3.1475419942570876e-01
12302:-3.5888914634127705e-01
12303:-3.7370982751170445e-01
12304:4.8141641698683152e-02
12305:-3.7338276400907083e-01
12306:-4.4116382666452814e-01
12307:-2.3055335999587834e-01
12308:-3.6216728589794067e-01
12309:-7.1037710114136732e-01
12310:-8.1811644248704329e-01
12311:-7.0157355378617337e-01
12312:-4.7226563105843211e-01
12313:-6.6846209761778175e-01
12314:-8.6766487308349838e-01
12315:-9.9322879500873973e-01
12316:-3.8181802210367149e-01
12317:-4.7170824388897770e-01
12318:-7.3246915297904525e-01
12319:-1.0262211231393892e+00
12320:-7.2258893371708488e-02
12321:2.4389758158846229e-02
12322:-1.4527939245468321e-01
12323:-3.6532928528621966e-01
12324:-6.0111093527060588e-01
12325:-5.7153948560023438e-01
12326:-7.9049450629293605e-01
12327:-1.0665887719200802e+00
12328:-1.0573326479512035e+00
12329:-1.2067865283618289e+00
12330:-1.4308744650447098e+00
12331:-1.5938912396265785e+00
12332:-1.2049871763014324e+00
12333:-1.4645737036191140e+00
12334:-1.6380153851663839e+00
12335:-1.6507620592412069e+00
12336:-4.7284206146875396e-01
12337:-5.9780228695986359e-01
12338:-6.9175790987770369e-01
12339:-7.9016488545676922e-01
12340:-1.2208544301024258e+00
12341:-1.4099062685785968e+00
12342:-1.4835950741686781e+00
12343:-1.4470648280717273e+00
12344:-1.6668138845155278e+00
12345:-1.7362911080163417e+00
12346:-1.6929852260384091e+00
12347:-1.5620258552601360e+00
12348:-1.6192758786768975e+00
12349:-1.5326027266202042e+00
12350:-1.3678973965547958e+00
12351:-1.1963597209089318e+00
12352:-8.7182103625252727e-01
12353:-1.0375238111972491e+00
12354:-1.2237342630070456e+00
12355:-1.3050996094915386e+00
12356:-1.4090429469926820e+00
12357:-1.3602468147913793e+00
12358:-1.3203512660798207e+00
12359:-1.2802778186625248e+00
12360:-1.4636806465707053e+00
12361:-1.3068424383419657e+00
12362:-1.1560265834867522e+00
12363:-1.0662404518499149e+00
12364:-1.0908712994477314e+00
12365:-9.2804559183723878e-01
12366:-7.8843887104608690e-01
12367:-7.2915027116333020e-01
12368:-1.3182573928261774e+00
12369:-1.3290691708323903e+00
12370:-1.3536909814707243e+00
12371:-1.4053601271453384e+00
12372:-1.2467006574328097e+00
12373:-1.1496965323923547e+00
12374:-1.0095577220084690e+00
12375:-9.4081487372722639e-01
12376:-1.0196144934722495e+00
12377:-8.8005450166172439e-01
12378:-6.4068633558866872e-01
12379:-4.6344830075845089e-01
12380:-7.0818855320561724e-01
12381:-6.2257267191004884e-01
12382:-4.3604257825838377e-01
12383:-2.6221851480208652e-01
12384:-1.4450395149005992e+00
12385:-1.4296899513331363e+00
12386:-1.2073024483013051e+00
12387:-8.7998467446428319e-01
12388:-9.2749593687647647e-01
12389:-8.6915505361731471e-01
12390:-6.7270766759660694e-01
12391:-3.9638367313671291e-01
12392:-3.8591916913836538e-01
12393:-2.7879092834396385e-01
12394:-1.6584077980815351e-01
12395:-5.6574303194842052e-02
12396:-1.6933821331529750e-01
12397:-4.9771915679175244e-02
12398:1.5040194995450479e-02
12399:1.8807185055431958e-02
12400:-6.6225685003111256e-01
12401:-3.9424108891318665e-01
12402:-3.3486296436240881e-01
12403:-4.8350843414505040e-01
12404:-2.0548476434696683e-01
12405:5.0845847926837703e-02
12406:1.3516360314499593e-01
12407:-1.8641898750185995e-03
12408:1.8796998192321484e-02
12409:1.3499791110599657e-01
12410:1.8972107976044067e-01
12411:1.2674510276608145e-01
12412:1.2944507695601700e-02
12413:1.4230962787709883e-02
12414:2.0981160694224565e-02
12415:8.5883047881049075e-03
12416:-6.1232113932302135e-01
12417:-7.5379222610976149e-01
12418:-7.5100384335412340e-01
12419:-6.4889997339202921e-01
12420:-1.3942914431757908e-01
12421:-3.4493340689993351e-01
12422:-4.6837368184600991e-01
12423:-4.4738905051689432e-01
12424:5.2082674016464985e-02
12425:-7.6898604150528183e-02
12426:-1.6971727255751651e-01
12427:-1.5194406083915102e-01
12428:-8.8983274885792701e-03
12429:-3.4489012542986225e-02
12430:-2.2773038155912848e-02
12431:4.2915927298612752e-02
12432:-5.7597058727171213e-01
12433:-4.8670099350712576e-01
12434:-4.5921584665831089e-01
12435:-4.8854623953816140e-01
12436:-3.9798569356865265e-01
12437:-3.0826556760163543e-01
12438:-2.2451676890016870e-01
12439:-1.9664216870122220e-01
12440:-1.0621978698064022e-01
12441:-2.6020806306050734e-02
12442:2.7798893015151014e-02
12443:8.8312907915733506e-03
12444:9.9864921884656233e-02
12445:1.6937764626269941e-01
12446:1.5930907744356476e-01
12447:6.4909915465942589e-02
12448:-5.1354093913662269e-01
12449:-5.1354822225029662e-01
12450:-4.0457311643335125e-01
12451:-2.3349248887892357e-01
12452:-1.9580745995425033e-01
12453:-1.8503378132221099e-01
12454:-1.3192255111713022e-01
12455:-4.9229316991927119e-02
12456:-2.5186330526426957e-02
12457:-7.2431216287419387e-02
12458:-7.7736095142984046e-02
12459:-2.9286137742241578e-02
12460:-1.3210466654939784e-02
12461:-1.1378258498867999e-01
12462:-1.3610479623760621e-01
12463:-7.1603762983834709e-02
12464:-1.1545954785148384e-01
12465:6.0706407766096156e-02
12466:1.7487715505814183e-01
12467:1.6747155229845828e-01
12468:1.0080899279252617e-02
12469:9.4665941304503051e-02
12470:1.3050049991727797e-01
12471:9.1517949250418715e-02
12472:1.4585939033002223e-02
12473:7.3079099160614835e-02
12474:8.3093074670358189e-02
12475:3.3323650986782485e-02
12476:-1.3275867257763864e-02
12477:6.1704052189719423e-02
12478:7.5993444130893276e-02
12479:2.3280724450680381e-02
12480:-8.8482654765985036e-01
12481:-3.1308323805914756e-01
12482:8.0660437814284780e-02
12483:1.0285598725178367e-01
12484:-7.6769473468817273e-01
12485:-3.1552529682476815e-01
12486:3.8581341100012902e-03
12487:5.3560437177562481e-02
12488:-5.2154485615431490e-01
12489:-2.4616266611373344e-01
12490:-5.2237557129744809e-02
12491:1.3349282540763776e-02
12492:-3.1994694940904200e-01
12493:-1.0323716356909858e-01
12494:4.3452374599140392e-03
12495:2.7368747806959633e-02
12496:2.2528248555561955e-02
12497:-1.2523025228225262e-01
12498:-2.4447067849624979e-01
12499:-2.5229167205964675e-01
12500:2.0013235612024411e-02
12501:-4.9960712677612956e-02
12502:-1.2791219059063852e-01
12503:-1.7235506057863051e-01
12504:3.1751806805711609e-02
12505:5.3006748946546174e-02
12506:3.1451657950700977e-02
12507:-4.4974575352419950e-02
12508:3.9733998732275254e-02
12509:7.5862145219558197e-02
12510:9.7142527814655946e-02
12511:4.8938434939310826e-02
12512:-2.2176854116318756e-01
12513:-1.5034410087968450e-01
12514:-9.7770126419863199e-02
12515:-1.3866617166187345e-01
12516:-1.8973448330716644e-01
12517:-2.2283807976286213e-01
12518:-2.8825622222021130e-01
12519:-3.7175761737631607e-01
12520:-1.1079152514005915e-01
12521:-2.4098341987279948e-01
12522:-3.9659304159784020e-01
12523:-4.8890857359280704e-01
12524:-9.9233850372960394e-03
12525:-1.4551225147893801e-01
12526:-3.2337395188023166e-01
12527:-4.2608343761550954e-01
12528:-1.9949028054159010e-01
12529:-3.1834283401393543e-01
12530:-4.1011826024880005e-01
12531:-3.8195420511072498e-01
12532:-4.2964544772452995e-01
12533:-5.1023503412474935e-01
12534:-5.3479056383592793e-01
12535:-4.7945539145557842e-01
12536:-5.2410214596198179e-01
12537:-5.6482734768144915e-01
12538:-5.8645818257836257e-01
12539:-5.9424072619650414e-01
12540:-4.6053437122900392e-01
12541:-5.0764136020285744e-01
12542:-5.6624062993253799e-01
12543:-6.3196243435202171e-01
12544:-3.2416091401259128e-01
12545:-2.3888226488388770e-01
12546:-2.1266961710539800e-01
12547:-2.7225784291430521e-01
12548:-4.2501938022124258e-01
12549:-3.5752616810182597e-01
12550:-3.4533546690293160e-01
12551:-3.8577676680650247e-01
12552:-5.9888759346410436e-01
12553:-5.9516225745314588e-01
12554:-5.4285062313110366e-01
12555:-4.4889404754450041e-01
12556:-6.7620345277597427e-01
12557:-6.9604963941162679e-01
12558:-5.6754742455487150e-01
12559:-3.3918868680854042e-01
12560:-3.3070470777197480e-01
12561:-3.9677865753696751e-01
12562:-3.9660891782829527e-01
12563:-3.4727736124199743e-01
12564:-4.1808452020393405e-01
12565:-4.2183230039885222e-01
12566:-3.2588646775863944e-01
12567:-1.9854043894688383e-01
12568:-3.7590234753197543e-01
12569:-2.1645390428092307e-01
12570:9.5963293629361315e-03
12571:1.7778119971919262e-01
12572:-1.7403640801834289e-01
12573:1.1415151805745466e-01
12574:4.1766101178709730e-01
12575:5.8747252628869251e-01
12576:-3.1539856994121646e-01
12577:-3.6717212701482299e-01
12578:-6.4478140873715795e-01
12579:-9.8868429057799023e-01
12580:-1.2681287259716095e-01
12581:-1.3229161066411266e-01
12582:-3.9436833497573320e-01
12583:-7.4647529469637741e-01
12584:2.5468211618679365e-01
12585:2.8104157469159413e-01
12586:1.1090183599859806e-01
12587:-1.3553658265946647e-01
12588:6.5192884125204187e-01
12589:6.9708619844505781e-01
12590:6.2749773003661713e-01
12591:4.9844766530903312e-01
12592:-1.2004378890113303e+00
12593:-1.4806776598893667e+00
12594:-1.6076465799245103e+00
12595:-1.5445551743970620e+00
12596:-9.6383796936657529e-01
12597:-1.2253972784751428e+00
12598:-1.2847338004359834e+00
12599:-1.1545766330345024e+00
12600:-2.8793601877267161e-01
12601:-4.6304539743563350e-01
12602:-4.9006608970280457e-01
12603:-3.9718084046793445e-01
12604:4.1389035114761763e-01
12605:3.0619964017444173e-01
12606:2.5340522344174871e-01
12607:2.5501208757964561e-01
12608:-1.4645416582223665e+00
12609:-1.3029443487351924e+00
12610:-1.0782545566252413e+00
12611:-8.8994705833662180e-01
12612:-1.0391028324173579e+00
12613:-8.2593123401563573e-01
12614:-5.6839567889754095e-01
12615:-3.8385145571484142e-01
12616:-3.2136966655216781e-01
12617:-1.8004583372483821e-01
12618:-8.2119537571637650e-03
12619:1.1209812444994831e-01
12620:2.6374586872776362e-01
12621:2.9076407852300673e-01
12622:3.4054692887336840e-01
12623:3.8402048864805205e-01
12624:-7.8527872886773942e-01
12625:-6.3109897765884293e-01
12626:-5.1760237807096465e-01
12627:-4.9258756276087506e-01
12628:-2.9129490182939133e-01
12629:-1.6437462144318563e-01
12630:-9.5471590989915672e-02
12631:-1.1445758461565407e-01
12632:1.7014772581615925e-01
12633:2.4109046825929356e-01
12634:2.5808745098852015e-01
12635:2.1714488622359526e-01
12636:4.0605109463271855e-01
12637:4.2201206969229627e-01
12638:3.9921597029232314e-01
12639:3.5798914916078350e-01
12640:-4.9605490149744180e-01
12641:-4.6888785335373823e-01
12642:-3.6119628208392779e-01
12643:-2.2965930401102921e-01
12644:-1.4695797314051240e-01
12645:-2.0194120307485569e-01
12646:-2.2935179122886179e-01
12647:-1.9583143449489815e-01
12648:1.7761492051585118e-01
12649:8.2588481996270238e-02
12650:-4.8539786033351316e-02
12651:-1.2617392915893455e-01
12652:3.2948016555359483e-01
12653:2.5268618852388186e-01
12654:1.1799760247786256e-01
12655:8.6808005526085733e-04
12656:-1.4757035829338272e-01
12657:-3.4452318773087888e-02
12658:2.5630844174567294e-02
12659:9.6866508922078230e-03
12660:-1.5523545745801046e-01
12661:-8.0964908325314000e-02
12662:-1.9254556306971610e-02
12663:-1.8333672422740324e-02
12664:-1.5095768980304977e-01
12665:-1.5920754848532331e-01
12666:-1.1904815913834754e-01
12667:-7.1383619739092671e-02
12668:-6.1094884359659936e-02
12669:-1.4211336387479390e-01
12670:-1.7225600931834470e-01
12671:-1.3761134742141179e-01
12672:-1.6627465654464001e-02
12673:-5.2101153181082986e-02
12674:-7.0590021777234682e-02
12675:-7.1664990633165102e-02
12676:-3.7719248018470222e-02
12677:-7.5297882081633474e-02
12678:-1.0880036038544917e-01
12679:-1.1382213059316770e-01
12680:-4.7235647276840771e-02
12681:-2.2528731608990302e-02
12682:-2.4272720367803393e-02
12683:-4.3202381576345573e-02
12684:-1.0092046273200486e-01
12685:-3.9422928600654196e-02
12686:5.9180477277438739e-03
12687:3.1228175437309478e-03
12688:-6.9347313517390263e-02
12689:-4.8529931911938697e-02
12690:2.2546170728408987e-02
12691:1.1885859415857712e-01
12692:-1.0595149194432875e-01
12693:-5.9325416351402628e-02
12694:5.4768052242039199e-02
12695:1.7270504499597886e-01
12696:-5.4883740507100605e-02
12697:-4.1678916381205779e-02
12698:3.7052870483136886e-02
12699:1.3097443708506348e-01
12700:-1.2150031175054093e-02
12701:-2.1800202971368796e-02
12702:1.3189849215248448e-02
12703:7.7014419767476736e-02
12704:1.8269582073429694e-01
12705:2.4484723786319817e-01
12706:1.9863330582369126e-01
12707:6.8221832983624747e-02
12708:2.3872689738504602e-01
12709:2.8716557088310068e-01
12710:2.0458415622898848e-01
12711:4.6491929925566756e-02
12712:1.8501570189852892e-01
12713:2.2330464557883439e-01
12714:1.5300189777731085e-01
12715:2.2944377329265870e-02
12716:1.2116479204536766e-01
12717:1.6737888155383998e-01
12718:1.4498475885760209e-01
12719:6.5061513107760816e-02
12720:-2.7778893892653547e-02
12721:-1.4486305201159175e-01
12722:-1.6186707073391327e-01
12723:-8.0980378253822621e-02
12724:-5.9648475221191342e-02
12725:-1.7904528233849540e-01
12726:-1.7513392161086552e-01
12727:-6.8926327543531563e-02
12728:-6.2977317955620671e-02
12729:-1.5281787284848730e-01
12730:-1.2726059261231498e-01
12731:-1.4451488582297466e-02
12732:4.8406488901296960e-03
12733:-6.2586877747968658e-02
12734:-4.7970418457478556e-02
12735:3.9108552045700129e-02
12736:-1.2540919658404365e-02
12737:7.2892151333133468e-02
12738:8.7701675356014322e-02
12739:3.0399102732209037e-02
12740:1.3046065652186996e-02
12741:1.1208429333711344e-01
12742:1.2613736414725552e-01
12743:6.0181670485502332e-02
12744:6.8499699087122556e-02
12745:1.6771712864111074e-01
12746:1.7917931029793294e-01
12747:1.0898835436067411e-01
12748:1.0684968672680806e-01
12749:1.8962426084790215e-01
12750:1.9888451477136818e-01
12751:1.3536515329084273e-01
12752:-2.2952928237420456e-01
12753:1.1327230619811422e-02
12754:8.7451017791140090e-02
12755:5.7532442593373936e-02
12756:-1.6108958660246278e-01
12757:2.2911223803100481e-01
12758:3.0129582157452611e-01
12759:1.3738810068761884e-01
12760:-2.4238421990547787e-01
12761:4.3932138509044422e-01
12762:5.9521218655055330e-01
12763:2.5593431051735044e-01
12764:-3.9951817508213483e-01
12765:4.8466613965526301e-01
12766:7.5168437456159887e-01
12767:3.3448506768130742e-01
12768:3.8884282399986182e-02
12769:4.8871042962042179e-02
12770:9.1110563756515078e-02
12771:8.8225978871039973e-02
12772:1.4644515651387906e-02
12773:-9.2017646202726844e-02
12774:-3.6881501501440497e-02
12775:8.1448402742758913e-02
12776:-3.5113988543086727e-02
12777:-3.6002370233802972e-01
12778:-3.4336362685856620e-01
12779:-6.1134659720502339e-02
12780:-5.9857641490231234e-02
12781:-5.4221436571544246e-01
12782:-5.9644523079848966e-01
12783:-2.3915133707209368e-01
12784:5.8575587535263929e-02
12785:-4.3836236153847179e-02
12786:-2.1765676880918217e-01
12787:-3.3930447321203955e-01
12788:1.4556769652842927e-01
12789:1.6476696586211867e-01
12790:3.0691652625762143e-02
12791:-1.4316822168175308e-01
12792:1.5031390018699067e-01
12793:3.8236531547384772e-01
12794:3.5779404399043568e-01
12795:1.3286584249026573e-01
12796:5.9697069572292698e-02
12797:4.4190872170544021e-01
12798:5.4014662713760997e-01
12799:3.3240208101338903e-01
12800:-3.8880162675323604e-01
12801:-4.6110868176488945e-01
12802:-5.4494371140815268e-01
12803:-6.2462864499895687e-01
12804:-2.4390701119301547e-01
12805:-3.9207965479949092e-01
12806:-5.2313229692862317e-01
12807:-6.0018231264795718e-01
12808:-3.8366132647966240e-02
12809:-2.8938229376478342e-01
12810:-4.7363065685645211e-01
12811:-5.2922745149346084e-01
12812:1.4059632366119520e-01
12813:-1.4777534522673386e-01
12814:-3.6188290716700106e-01
12815:-4.2249181850998907e-01
12816:-6.7355632775613516e-01
12817:-6.8103940769871518e-01
12818:-4.9854239404237582e-01
12819:-2.0596380829419972e-01
12820:-6.3478041520656636e-01
12821:-6.0304317109355343e-01
12822:-3.5295626974475169e-01
12823:-7.3998525193098613e-04
12824:-5.3364964317808683e-01
12825:-4.6802996340541037e-01
12826:-2.2113067185674251e-01
12827:1.0047403547925134e-01
12828:-4.2474011823052221e-01
12829:-3.8523664794403312e-01
12830:-2.2219697189693699e-01
12831:1.2700708088229682e-02
12832:-2.0070466994004678e-03
12833:3.3663832560311846e-01
12834:6.6483940044738532e-01
12835:8.2995223381821581e-01
12836:2.3507058839211328e-01
12837:6.1006277518362417e-01
12838:9.4343818704407223e-01
12839:1.0876153928696037e+00
12840:3.1331476487652526e-01
12841:6.5116302275093196e-01
12842:9.4394272298838544e-01
12843:1.0565130496234205e+00
12844:1.7768678403706320e-01
12845:4.5516486392619393e-01
12846:7.1375542479738163e-01
12847:8.1711597448272033e-01
12848:8.8766842499237963e-01
12849:9.4454641868471390e-01
12850:9.2915675646439522e-01
12851:8.5781482571536172e-01
12852:1.1300842840299095e+00
12853:1.1947832815504857e+00
12854:1.2499210331911097e+00
12855:1.2610107397735664e+00
12856:1.0816177159274629e+00
12857:1.1371166110044884e+00
12858:1.2262038340294692e+00
12859:1.2938776177400764e+00
12860:8.3824079451807276e-01
12861:8.8286842020342238e-01
12862:9.6294637815623374e-01
12863:1.0386313062436918e+00
12864:8.0392571840358706e-01
12865:7.1915843912469568e-01
12866:6.3581803159226635e-01
12867:5.8027937313632483e-01
12868:1.2533328249004585e+00
12869:1.2114809483243960e+00
12870:1.1073467704828499e+00
12871:9.9348712372948078e-01
12872:1.3241166761977858e+00
12873:1.3369343278693222e+00
12874:1.2707958471496925e+00
12875:1.1651964347162602e+00
12876:1.0813581313487235e+00
12877:1.1300409340402835e+00
12878:1.1241072778792640e+00
12879:1.0660218762068054e+00
12880:5.5122768456763538e-01
12881:5.1418296687174025e-01
12882:4.9537538666422049e-01
12883:4.9581276028487220e-01
12884:9.2404626677618962e-01
12885:8.1529338841180909e-01
12886:7.1443751453060111e-01
12887:6.6055380753480741e-01
12888:1.0940028206423507e+00
12889:9.7121874270636643e-01
12890:8.3848563584243829e-01
12891:7.5653891257496730e-01
12892:1.0173844552009115e+00
12893:9.1958424209762601e-01
12894:7.9486053663168243e-01
12895:7.1063460535285972e-01
12896:4.9778903039367856e-01
12897:4.8317255779576013e-01
12898:4.3958626183391791e-01
12899:4.0144057424629903e-01
12900:6.3668620131910325e-01
12901:5.8283320550239504e-01
12902:5.1157529302782667e-01
12903:4.7443260875650428e-01
12904:7.1870031431199155e-01
12905:6.4695587468535609e-01
12906:5.6519780603002745e-01
12907:5.2574347748753891e-01
12908:6.7196309486106831e-01
12909:6.0598613154527958e-01
12910:5.3515708312921206e-01
12911:4.9593301512563054e-01
12912:3.8229244461766088e-01
12913:3.3014796407017694e-01
12914:2.2304534076103827e-01
12915:1.0839449245737043e-01
12916:4.6506774204937096e-01
12917:4.4821360766872687e-01
12918:3.9832440639160277e-01
12919:3.1638719182374470e-01
12920:5.1698351644776097e-01
12921:5.2051917819628735e-01
12922:5.3445646132276925e-01
12923:5.2637545989213430e-01
12924:4.8222863501528701e-01
12925:4.8410122113184456e-01
12926:5.3091684573032016e-01
12927:5.8949202671532575e-01
12928:3.6795469886645671e-02
12929:-8.1535777327002262e-02
12930:-1.7596222440921330e-01
12931:-1.8331025921144389e-01
12932:2.5119506338377279e-01
12933:9.9967067548045269e-02
12934:-1.0367265986833132e-01
12935:-2.2196166864924877e-01
12936:5.0519204922873251e-01
12937:3.8803325050118609e-01
12938:1.2118668150256895e-01
12939:-1.2880870245758314e-01
12940:6.2046942248544168e-01
12941:5.8959688910694663e-01
12942:3.7453726924215952e-01
12943:9.1711840764686248e-02
12944:-1.6048141856821235e-01
12945:-1.0140687645728383e-01
12946:-3.0103118192658481e-02
12947:-6.9553401594121909e-03
12948:-2.5827966762647397e-01
12949:-2.5888788137984137e-01
12950:-1.7674244424027760e-01
12951:-9.6869849421564277e-02
12952:-2.5975626904432408e-01
12953:-3.8918016639476383e-01
12954:-3.5737713594703885e-01
12955:-2.2356604231529803e-01
12956:-8.6692542379636917e-02
12957:-3.0423469715349571e-01
12958:-3.4564869351568384e-01
12959:-2.1138706863755416e-01
12960:-1.1458498564195455e-02
12961:-1.6316105799263007e-02
12962:7.1371233840418977e-03
12963:6.1016478452848751e-02
12964:-6.1923616919381613e-02
12965:-1.7218225331239918e-02
12966:3.1720662581769657e-02
12967:9.0219819938400572e-02
12968:-1.3038147801287986e-01
12969:8.5894579536236557e-03
12970:1.3548399732353281e-01
12971:2.1834306963158476e-01
12972:-9.3292165366791177e-02
12973:9.6298763697413664e-02
12974:2.6862793765877785e-01
12975:3.5373491370436122e-01
12976:1.0358273763309936e-01
12977:1.6243484374868400e-01
12978:1.7489884945249762e-01
12979:1.2346063815438192e-01
12980:1.3516284033486034e-01
12981:2.1332259547051416e-01
12982:2.6711991981442074e-01
12983:2.4565773233275776e-01
12984:2.6441567632156754e-01
12985:3.3965307852407051e-01
12986:3.8606556488953381e-01
12987:3.5869417127190834e-01
12988:3.8545099240655301e-01
12989:4.1981050844162010e-01
12990:4.0865033425158137e-01
12991:3.5144554419678414e-01
12992:7.4860471748743648e-02
12993:1.1062963395979978e-02
12994:4.2467140583900284e-03
12995:6.5192324194288692e-02
12996:2.0755529384284582e-01
12997:1.3865501662178312e-01
12998:8.7918166960809341e-02
12999:9.9229743375516349e-02
13000:3.1752089407728135e-01
13001:2.3374072054715403e-01
13002:1.4402213185871884e-01
13003:1.1076040317932152e-01
13004:3.0404343897894420e-01
13005:2.1940780924726047e-01
13006:1.3426987547761129e-01
13007:9.6737084888894334e-02
13008:1.1912755004031088e-01
13009:1.8731826437802288e-01
13010:1.9578804328994981e-01
13011:1.4031082834093372e-01
13012:1.2587959172449012e-01
13013:1.6347720414729638e-01
13014:1.6869580375583890e-01
13015:1.3168963184202270e-01
13016:1.0994744006066182e-01
13017:1.1384460312502138e-01
13018:1.1291978461930213e-01
13019:9.8133491613248830e-02
13020:8.8150667389675988e-02
13021:7.9363313330939003e-02
13022:7.3273616640883138e-02
13023:6.7484166584298538e-02
13024:-5.0274779511426426e-01
13025:4.5514907181940062e-01
13026:7.9065160879717444e-01
13027:3.6741632123805318e-01
13028:-6.6043468096976565e-01
13029:3.7232742389499979e-01
13030:8.2509333918565142e-01
13031:4.4220803416909460e-01
13032:-8.0056958084514196e-01
13033:2.4747663676922727e-01
13034:8.3231754735390295e-01
13035:5.7170593284629134e-01
13036:-8.7087406554026181e-01
13037:1.5903129444562836e-01
13038:8.3286177785455617e-01
13039:6.9390419892041455e-01
13040:-5.8311956384581663e-02
13041:-6.0301921311234052e-01
13042:-7.0831442901322061e-01
13043:-3.4463904854923938e-01
13044:4.2042759455164901e-03
13045:-6.0109810904450800e-01
13046:-8.0438623746678906e-01
13047:-4.8916625848959794e-01
13048:1.8501181851921766e-01
13049:-4.1182568482985504e-01
13050:-7.3314227204593363e-01
13051:-5.6043446950184705e-01
13052:3.7688487827226014e-01
13053:-1.6905668375264982e-01
13054:-5.6475538451384943e-01
13055:-5.2808376284643344e-01
13056:-2.1548464876755172e-02
13057:4.1895192415576521e-01
13058:5.9261975997256056e-01
13059:4.2508123612476922e-01
13060:-1.7054298084554328e-01
13061:3.1069645403211593e-01
13062:5.9883797276782913e-01
13063:5.3490619204829959e-01
13064:-3.1832715082365359e-01
13065:1.0597193257175827e-01
13066:4.6782190036053500e-01
13067:5.4010131777705117e-01
13068:-3.7346328860946715e-01
13069:-5.1131246184852402e-02
13070:2.9630617834890982e-01
13071:4.3002034772313719e-01
13072:2.4416954288557119e-01
13073:-3.7172019171752418e-02
13074:-2.6220169807214838e-01
13075:-3.4282723301073253e-01
13076:4.0449777003368148e-01
13077:1.7664246414599252e-01
13078:-5.1329935226492304e-02
13079:-1.7778306333560978e-01
13080:4.9633056857794344e-01
13081:3.7107475261418549e-01
13082:1.6995878366467618e-01
13083:6.1171512877880030e-03
13084:4.3603031207733156e-01
13085:3.7548608834748176e-01
13086:2.1628846096218560e-01
13087:7.4655949876719904e-02
13088:-3.5942462907714606e-01
13089:-3.6145536194727101e-01
13090:-2.7132710555811707e-01
13091:-9.6285523276439244e-02
13092:-2.3051587541932803e-01
13093:-3.1262864854051980e-01
13094:-3.4134590374355778e-01
13095:-2.6112035755286217e-01
13096:-7.8780278829841385e-02
13097:-2.1555943724714829e-01
13098:-3.1827669577354939e-01
13099:-3.1354502028890485e-01
13100:4.8250143182836823e-03
13101:-9.3727896486185930e-02
13102:-1.6306894357292578e-01
13103:-1.7735530855222811e-01
13104:3.9342014302474686e-02
13105:2.8391935846901917e-01
13106:5.3234953136313312e-01
13107:6.4058711760122833e-01
13108:-1.7360474363270220e-01
13109:1.3676233311664628e-02
13110:2.4284774876429621e-01
13111:3.6566019274794859e-01
13112:-2.7567153343478890e-01
13113:-1.6606606181023181e-01
13114:6.9491091123046319e-03
13115:1.2789620199462517e-01
13116:-1.7273140312144780e-01
13117:-1.3944860725498304e-01
13118:-5.9568177216952282e-02
13119:1.8525509593787591e-02
13120:6.6472623303117917e-01
13121:7.0581939310991160e-01
13122:7.7312502415373041e-01
13123:8.4300010718391660e-01
13124:4.0266334137413096e-01
13125:4.4990667104866544e-01
13126:4.9945980719823085e-01
13127:5.4910851290354512e-01
13128:1.7804206293618580e-01
13129:2.3696411744788218e-01
13130:2.6959382543396310e-01
13131:2.8316182432630949e-01
13132:6.1214374316054553e-02
13133:1.1200731936141135e-01
13134:1.2710002696351363e-01
13135:1.1049691934668482e-01
13136:8.8716063283646629e-01
13137:9.5100863366387589e-01
13138:9.8048198396047592e-01
13139:9.5319036376044841e-01
13140:5.8460731105290997e-01
13141:6.4982181316165888e-01
13142:7.0773024808872453e-01
13143:7.1349771961387265e-01
13144:2.9273355954727842e-01
13145:3.1665976667482842e-01
13146:3.4314091134548524e-01
13147:3.4556297466686492e-01
13148:9.5318213781506012e-02
13149:6.6495221536634314e-02
13150:3.0659489046573351e-02
13151:4.9949005629592955e-03
13152:9.1945195444375261e-01
13153:8.3881629617134423e-01
13154:7.2162719046785540e-01
13155:6.3864683857042182e-01
13156:6.9805532981639284e-01
13157:6.4009470812731706e-01
13158:5.3468638817364522e-01
13159:4.5371957904491406e-01
13160:3.3624589692717671e-01
13161:2.9600129414103982e-01
13162:2.1779570904484732e-01
13163:1.5523437496575981e-01
13164:-8.0341614328573417e-03
13165:-3.2870155351083445e-02
13166:-6.4424651444391759e-02
13167:-8.6196990918499763e-02
13168:6.0122679217223807e-01
13169:5.4247525341131830e-01
13170:4.8232539337797903e-01
13171:4.4429048786211134e-01
13172:4.1716066957087661e-01
13173:3.6566316597206044e-01
13174:3.1662140588835319e-01
13175:2.7898166501477517e-01
13176:1.2608803583508008e-01
13177:8.4195289942747525e-02
13178:4.0530905344060404e-02
13179:2.4563069512018591e-03
13180:-9.6655917212690512e-02
13181:-1.1806177020694922e-01
13182:-1.5262122964439809e-01
13183:-1.8622920392875919e-01
13184:4.2690822405801249e-01
13185:4.2302786567435507e-01
13186:4.8115625028517950e-01
13187:5.7578818210913363e-01
13188:2.5699411462766131e-01
13189:2.5025499443040555e-01
13190:3.3624077637477706e-01
13191:4.9162803331423838e-01
13192:-2.0197486758582513e-02
13193:-1.2930642034680920e-02
13194:1.2236912043114245e-01
13195:3.3738524710816109e-01
13196:-2.0363779348634556e-01
13197:-1.7214532792347179e-01
13198:4.3907865922210750e-03
13199:2.4031038522611389e-01
13200:6.3855568435898813e-01
13201:6.7357365082107812e-01
13202:5.2876076495211166e-01
13203:2.6612374554148011e-01
13204:6.0423872951544688e-01
13205:7.4707611996199752e-01
13206:7.3569919755180979e-01
13207:5.4185313133383572e-01
13208:4.8883632250461623e-01
13209:7.1415265974987940e-01
13210:8.2246732525432742e-01
13211:7.2412239672409306e-01
13212:3.9445041846417933e-01
13213:6.1916169101320762e-01
13214:7.4044444571625379e-01
13215:6.8251554799712899e-01
13216:8.1205007810624161e-02
13217:-1.6548639821423891e-01
13218:-2.5172615598429693e-01
13219:-1.3676192601502207e-01
13220:3.7364645246779582e-01
13221:1.2046860324095665e-01
13222:-1.6590111468974215e-02
13223:5.4943272482731585e-02
13224:6.0443552168986592e-01
13225:4.0123559414076992e-01
13226:2.5366381610540101e-01
13227:2.7015259772931710e-01
13228:5.9853714481279419e-01
13229:4.4831502811267643e-01
13230:3.2020271816623608e-01
13231:3.0179106512458015e-01
13232:-1.8552896504185047e-02
13233:1.7806621844455620e-01
13234:3.5436652972109978e-01
13235:4.2478956087597963e-01
13236:1.5610860932132331e-01
13237:3.2755830032198846e-01
13238:4.6321879189515591e-01
13239:4.7918139062924875e-01
13240:3.2966549191422490e-01
13241:4.2214192883308638e-01
13242:4.5446069558315144e-01
13243:3.8838211815825663e-01
13244:3.2357383021202918e-01
13245:3.4389749247258433e-01
13246:3.0143169523830421e-01
13247:2.0595670849272352e-01
13248:4.3904782424294647e-01
13249:4.3374810744719305e-01
13250:3.7529051464491947e-01
13251:2.9900096407874427e-01
13252:4.5260604658553738e-01
13253:3.7441807121364684e-01
13254:2.5208368310219875e-01
13255:1.6700629312087545e-01
13256:3.1793545274447854e-01
13257:1.8508195685265372e-01
13258:5.0890311697114110e-02
13259:1.6987872445306978e-03
13260:1.3349977453018147e-01
13261:2.1253535872531721e-02
13262:-5.7096434284137854e-02
13263:-5.7751317154365739e-02
13264:2.5103674367145556e-01
13265:1.7596020192348141e-01
13266:1.1091436089409176e-01
13267:8.4496783581895551e-02
13268:1.3201122751952829e-01
13269:9.2125505975117469e-02
13270:7.4848571528718641e-02
13271:7.3541762817568149e-02
13272:-1.5183102836092898e-04
13273:1.6660956445814491e-02
13274:5.3390037331589521e-02
13275:7.5757067895445507e-02
13276:-3.6947368782397405e-02
13277:6.1677293363947266e-03
13278:5.3905481273778380e-02
13279:7.5884382982461251e-02
13280:7.7668165981383638e-02
13281:6.8176312352035237e-02
13282:5.8997485921017848e-02
13283:5.3266768464399136e-02
13284:7.2621643715563108e-02
13285:6.4892383202173887e-02
13286:4.7678215607869688e-02
13287:3.3761380774660510e-02
13288:8.0688724237518022e-02
13289:7.5202718802652849e-02
13290:4.7831572457794479e-02
13291:1.8968725943933396e-02
13292:8.0095344187699397e-02
13293:7.3801214610682106e-02
13294:4.4507514738314956e-02
13295:1.1792682806415275e-02
13296:-8.9518069769604658e-01
13297:1.2185135848567936e-01
13298:8.3688658070858324e-01
13299:7.6380666731351254e-01
13300:-8.7619956471244065e-01
13301:8.8542148244258240e-02
13302:8.2721696303441539e-01
13303:8.5246802184233428e-01
13304:-7.3858946684540927e-01
13305:1.0286867196201054e-01
13306:7.5725326154610739e-01
13307:8.4968530451942925e-01
13308:-5.6846056975728665e-01
13309:1.3644706686948696e-01
13310:6.3624940319191969e-01
13311:7.3093547327899655e-01
13312:4.8823721064172071e-01
13313:-2.0864246615214684e-02
13314:-4.4604669951472692e-01
13315:-4.7977181500870458e-01
13316:6.5470917453744581e-01
13317:2.3938659422959291e-01
13318:-1.8508716802507441e-01
13319:-3.0992215313128324e-01
13320:7.4736278923709321e-01
13321:4.9790280562279726e-01
13322:1.8879071222654761e-01
13323:3.4172748085305980e-02
13324:6.9560997415751880e-01
13325:6.0449063145372017e-01
13326:4.6994194966833613e-01
13327:3.6026625294622877e-01
13328:-3.7384975726558506e-01
13329:-1.1803408473452791e-01
13330:1.9346964224398322e-01
13331:3.3250004752551271e-01
13332:-2.8058477366355167e-01
13333:-1.4822266528779640e-01
13334:6.1417595495962617e-02
13335:1.7171809302734212e-01
13336:-1.5250556192487358e-03
13337:-1.0370644632304681e-02
13338:3.5525534386001312e-02
13339:7.2557053293493143e-02
13340:3.0180748390235951e-01
13341:2.0949578468443864e-01
13342:1.3694892756550103e-01
13343:1.2722370445004497e-01
13344:3.5014428225168670e-01
13345:3.0930233618532044e-01
13346:1.8157283128853269e-01
13347:8.0472183871218531e-02
13348:1.9207645989205310e-01
13349:1.8192739684756865e-01
13350:1.4839776074312253e-01
13351:1.6612638241617395e-01
13352:8.3251875056497823e-02
13353:1.2235354609672766e-01
13354:2.5387125043919440e-01
13355:4.4656737739364027e-01
13356:1.4281533997241258e-01
13357:2.4369049440372109e-01
13358:5.0308077013758368e-01
13359:7.8292110667766091e-01
13360:4.0800766044313111e-02
13361:9.8428150436542274e-04
13362:-1.5631859268976551e-02
13363:-2.9854879532310419e-02
13364:2.0508205448408806e-01
13365:2.8926441873249853e-01
13366:3.4950672493879986e-01
13367:3.0442613794680146e-01
13368:5.8388335003280822e-01
13369:7.8642796767984613e-01
13370:8.6092955955330519e-01
13371:7.2310830905003898e-01
13372:9.4861242431014914e-01
13373:1.1501018199245550e+00
13374:1.1462533811725502e+00
13375:9.1776180515713768e-01
13376:-4.4562395545917677e-02
13377:-6.3649503021962761e-02
13378:-5.8178273673962035e-02
13379:-2.3531866493439940e-02
13380:2.3699183508137248e-01
13381:9.6707566372002562e-02
13382:-5.8592518874743628e-02
13383:-1.2190294165318842e-01
13384:5.7316963045236646e-01
13385:2.6749070757534193e-01
13386:-9.2882302272289843e-02
13387:-2.8642907397664963e-01
13388:7.1676348113641697e-01
13389:3.1821432258114746e-01
13390:-1.5494330258782057e-01
13391:-4.2667039790430999e-01
13392:5.4867980893689864e-03
13393:4.0934753737277826e-02
13394:4.2605758772274523e-02
13395:1.0611091686268961e-02
13396:-1.2880466658294235e-01
13397:-1.3565665811087535e-01
13398:-1.6083347261127540e-01
13399:-2.0842313238453880e-01
13400:-3.4743345866259184e-01
13401:-4.1866908896591604e-01
13402:-4.7060700867661143e-01
13403:-5.0970526430562024e-01
13404:-5.2477655999038697e-01
13405:-6.3819172716502170e-01
13406:-6.9396492385376396e-01
13407:-7.0254350190727533e-01
13408:-1.7386914248294472e-02
13409:-7.7000005185839063e-02
13410:-1.5277442692960411e-01
13411:-1.9752134440735933e-01
13412:-2.4790038508664947e-01
13413:-3.3824494769811059e-01
13414:-4.5570001536917071e-01
13415:-5.1884186350428496e-01
13416:-5.3915323971650753e-01
13417:-6.1240819951706760e-01
13418:-7.0883573100906794e-01
13419:-7.5322354072331332e-01
13420:-7.0597014800362856e-01
13421:-7.2361231054352393e-01
13422:-7.4667478903354223e-01
13423:-7.4350812078486117e-01
13424:-2.1320306249977602e-01
13425:-2.2565407392937675e-01
13426:-2.1937918164911979e-01
13427:-2.0689543390268195e-01
13428:-5.3483415519336097e-01
13429:-5.2155810917048284e-01
13430:-4.4427048689695858e-01
13431:-3.6245444576089286e-01
13432:-7.5693528507282126e-01
13433:-7.0981341961879740e-01
13434:-5.6594169536845484e-01
13435:-4.1587183296677993e-01
13436:-7.2792574993411796e-01
13437:-6.6039854945158338e-01
13438:-5.0556591212803881e-01
13439:-3.4480808394714696e-01
13440:-2.0091568781152247e-01
13441:-2.0309022815984940e-01
13442:-2.2685375063933363e-01
13443:-2.5436726117891861e-01
13444:-3.1917072166914573e-01
13445:-2.6928653048203521e-01
13446:-2.5468517192430423e-01
13447:-2.6739569135685082e-01
13448:-3.3087243707443798e-01
13449:-2.0856884078622490e-01
13450:-1.2472228546177097e-01
13451:-1.1314910765513989e-01
13452:-2.4883033259804707e-01
13453:-9.1331097979586953e-02
13454:4.1977444798596310e-02
13455:7.1188128100280468e-02
13456:-2.6656188741026693e-01
13457:-2.1896509630401662e-01
13458:-2.4555075538724463e-02
13459:2.0844278643360473e-01
13460:-2.7448376780576644e-01
13461:-2.2226878715956030e-01
13462:-4.6402623380160414e-02
13463:1.4038873962303561e-01
13464:-1.2104000695192065e-01
13465:-1.0986627119445762e-01
13466:-5.2282717398233217e-02
13467:8.0431066629848402e-03
13468:5.7534686829951089e-02
13469:7.5293975344535337e-03
13470:-7.9350096941624662e-02
13471:-1.4516076973237874e-01
13472:3.5158587215238468e-01
13473:5.4847859478684080e-01
13474:6.4181991488354295e-01
13475:5.8671882786372198e-01
13476:2.4528606818102464e-01
13477:3.7364847053198996e-01
13478:4.1424087155092160e-01
13479:3.6840311936546272e-01
13480:3.9519282062655786e-02
13481:6.9838248405715342e-02
13482:7.0144560340739653e-02
13483:6.0341997920473414e-02
13484:-1.7441646209951756e-01
13485:-2.0520990820143664e-01
13486:-1.9793520065704567e-01
13487:-1.5767023646871250e-01
13488:5.1662518434717686e-01
13489:3.9259521542904041e-01
13490:2.7954915470209013e-01
13491:2.4543781800023218e-01
13492:3.2451739355419917e-01
13493:2.4463458768108901e-01
13494:1.4967475922749093e-01
13495:8.1453884566084045e-02
13496:5.6212961091725681e-02
13497:3.2548458983870841e-02
13498:-4.5538979396085984e-02
13499:-1.5198081636746061e-01
13500:-1.2722428095981744e-01
13501:-1.0508331067898848e-01
13502:-1.6100405295476941e-01
13503:-2.7388865229330944e-01
13504:2.4694771838726284e-01
13505:2.3143699612929067e-01
13506:1.6465496849188258e-01
13507:7.9126865722314213e-02
13508:4.5787600348155641e-02
13509:-2.0229283092383931e-02
13510:-8.6706566078410582e-02
13511:-1.0637386212867345e-01
13512:-2.2439975709634147e-01
13513:-3.1917982443961712e-01
13514:-3.2431118324659852e-01
13515:-2.1658960088373777e-01
13516:-3.5453472885970039e-01
13517:-4.3919361005112084e-01
13518:-3.8169927404861126e-01
13519:-1.9503471841708661e-01
13520:2.4560193911596841e-02
13521:-4.5825247715160645e-02
13522:-7.1517854115630983e-02
13523:-4.6597457887527081e-02
13524:-1.0132147888200410e-01
13525:-6.8652010685149936e-02
13526:-7.8786970681021893e-03
13527:2.9447492446533937e-02
13528:-1.1885356931380089e-01
13529:4.4759065801550306e-02
13530:1.6830256796928753e-01
13531:1.6625524695176344e-01
13532:-4.9037677880249528e-02
13533:1.6777393675857510e-01
13534:2.8734771216986804e-01
13535:2.3487994421938932e-01
13536:-2.0868079898706284e-02
13537:2.0824055294223563e-02
13538:5.6308917293314442e-02
13539:6.8961727590572883e-02
13540:3.9687812167654733e-02
13541:4.4085102101406190e-02
13542:3.4342561815336521e-02
13543:2.5915521578649459e-02
13544:1.2672838762039842e-01
13545:4.7381808051425417e-02
13546:-3.4424132823133891e-02
13547:-6.5057538855726321e-02
13548:1.5639645135826941e-01
13549:2.0579109368727522e-02
13550:-9.8505653384199615e-02
13551:-1.3343635282028607e-01
13552:7.0461659523085043e-02
13553:6.2945908483748397e-02
13554:3.6828720379844949e-02
13555:8.0083606867520970e-03
13556:2.3811098653296080e-02
13557:1.9007301240880486e-02
13558:9.5558916788279057e-03
13559:-9.1711189194282111e-05
13560:-6.6647984447733719e-02
13561:-5.8914832964759904e-02
13562:-3.5303521216016168e-02
13563:-9.9251356245543005e-03
13564:-1.3020238392589686e-01
13565:-1.0891912835776581e-01
13566:-6.1553211549738016e-02
13567:-1.4285984391506022e-02
13568:-4.6846031951254352e-01
13569:1.4777063536622145e-01
13570:5.3935528310972558e-01
13571:6.2307109050374143e-01
13572:-3.8700147138472174e-01
13573:5.1200220306277744e-02
13574:3.1493802089627226e-01
13575:4.3706699653267511e-01
13576:-5.0401806199335786e-01
13577:-2.6175483036097574e-01
13578:3.1612144367409521e-02
13579:3.1941140112908933e-01
13580:-7.6664744632816695e-01
13581:-5.7633523963864419e-01
13582:-8.0084250356028883e-02
13583:4.0128791107462819e-01
13584:6.2286636565466735e-01
13585:6.2647081230695245e-01
13586:6.1032985321560052e-01
13587:5.4424502993993351e-01
13588:5.1609279170251765e-01
13589:6.8630261204309595e-01
13590:8.4712298059290225e-01
13591:8.3802806915429418e-01
13592:5.1160994294116835e-01
13593:8.4210453862436097e-01
13594:1.1068497354833930e+00
13595:1.1094638745987377e+00
13596:6.6296903818956154e-01
13597:1.0365254487654683e+00
13598:1.2628300203162686e+00
13599:1.2293788232292955e+00
13600:4.8174451419749159e-01
13601:3.5597077212520267e-01
13602:2.3379267142243823e-01
13603:2.1485865954952207e-01
13604:7.6758665437013462e-01
13605:6.0500171277917392e-01
13606:4.4793129115233093e-01
13607:4.5107122409720629e-01
13608:1.0275860198100337e+00
13609:8.6361292403701539e-01
13610:7.5167302541968550e-01
13611:8.2279697472423374e-01
13612:1.1446170346864182e+00
13613:1.0152964291660485e+00
13614:9.7949517148265097e-01
13615:1.0911947339125294e+00
13616:2.4421781381660532e-01
13617:3.8949954327678843e-01
13618:7.0313045618277448e-01
13619:9.9033534532469591e-01
13620:5.1711503125911273e-01
13621:7.1979445472948600e-01
13622:1.0310269448569893e+00
13623:1.2205639922690139e+00
13624:9.3113082035363914e-01
13625:1.1338941541874965e+00
13626:1.2711344223246088e+00
13627:1.1938844572343690e+00
13628:1.2010326645704883e+00
13629:1.3289190784201834e+00
13630:1.2474637543082530e+00
13631:9.4354432461090987e-01
13632:1.1400240886485602e+00
13633:1.2909955175526435e+00
13634:1.2107454545651628e+00
13635:9.3787256931475660e-01
13636:1.2786742706644729e+00
13637:1.2679258990607474e+00
13638:1.0518135856109161e+00
13639:7.6479880138841361e-01
13640:1.0706647012958537e+00
13641:7.9660598423740769e-01
13642:4.4468437290735535e-01
13643:2.3567779540425529e-01
13644:6.9237397010610124e-01
13645:2.4981946710203121e-01
13646:-1.5854622748517833e-01
13647:-2.7962050095000202e-01
13648:7.2343443980723965e-01
13649:3.0327925568877767e-01
13650:-1.9880438621972474e-01
13651:-4.9660623293306455e-01
13652:5.7992030816229623e-01
13653:2.1759780103588880e-01
13654:-2.3658191336496120e-01
13655:-5.3398755558572975e-01
13656:1.5746152508278607e-01
13657:7.5655656324892500e-03
13658:-2.1312906459958031e-01
13659:-4.0447258332225094e-01
13660:-2.6520711459987373e-01
13661:-2.0808716541437591e-01
13662:-1.5724733103756328e-01
13663:-1.8628345693483475e-01
13664:-6.1004345864276144e-01
13665:-7.3982222699574163e-01
13666:-7.9017382575553219e-01
13667:-7.7480381891912564e-01
13668:-6.6244702571131553e-01
13669:-8.1547523470810634e-01
13670:-8.6954154374315296e-01
13671:-8.2819330805735558e-01
13672:-5.1178050949574527e-01
13673:-6.6314106233682280e-01
13674:-7.4656082370100640e-01
13675:-7.1996460939039464e-01
13676:-2.3720667971286860e-01
13677:-3.4992116558895625e-01
13678:-4.6919430435950793e-01
13679:-4.9519574041426112e-01
13680:-7.5888137601445305e-01
13681:-7.3400685838140323e-01
13682:-7.0051855002224828e-01
13683:-6.6203256305130653e-01
13684:-7.8608454349399592e-01
13685:-6.9589245698039914e-01
13686:-5.6635487707023546e-01
13687:-4.6312926356654049e-01
13688:-6.7370228515346164e-01
13689:-5.4803890964962176e-01
13690:-3.4273041079419264e-01
13691:-1.8090365180606691e-01
13692:-4.7348302579790941e-01
13693:-3.6966210094497964e-01
13694:-1.6181294086882547e-01
13695:9.1406069228755597e-03
13696:-6.3342773948182385e-01
13697:-5.5916070873657553e-01
13698:-4.1791658441971546e-01
13699:-2.7268133032946756e-01
13700:-4.0922100177755094e-01
13701:-3.2487255375641866e-01
13702:-2.2768880966697358e-01
13703:-1.4241372458276269e-01
13704:-1.0324294683676215e-01
13705:-1.5185813041212800e-02
13706:1.2828479716214314e-02
13707:-1.9094779878915469e-03
13708:8.9199558601367593e-02
13709:1.6794353156366135e-01
13710:1.5156339667772031e-01
13711:7.4564232112159790e-02
13712:-1.8266662574506462e-01
13713:-2.1244160712287675e-02
13714:1.2999285047189046e-01
13715:1.6600355931451022e-01
13716:-8.6717451759475789e-02
13717:3.8709224100383181e-02
13718:1.8418491294372966e-01
13719:2.2879294911450504e-01
13720:-1.1341646756870620e-02
13721:9.7403842152507802e-03
13722:6.9295045697105664e-02
13723:9.3114977497621931e-02
13724:2.0985345720983595e-02
13725:-5.4521632322106585e-02
13726:-1.1361855854562949e-01
13727:-1.4551252575370360e-01
13728:1.4777227391315423e-01
13729:5.9086722608014730e-02
13730:-1.1231574469308979e-01
13731:-2.4430550314486613e-01
13732:2.1272053745848804e-01
13733:9.5241264669197370e-02
13734:-1.5288752045828469e-01
13735:-3.4624762453123364e-01
13736:8.3055200661683981e-02
13737:-5.2350875109269330e-03
13738:-1.9251847236551040e-01
13739:-3.3009338442925901e-01
13740:-1.6287136835280802e-01
13741:-2.0026216555568996e-01
13742:-2.3582311624570593e-01
13743:-2.3228691966150047e-01
13744:-3.0129332773750700e-01
13745:-3.5206577359669516e-01
13746:-3.2490768339079962e-01
13747:-2.5197442444414042e-01
13748:-4.2802303709240397e-01
13749:-4.9266466702466738e-01
13750:-4.4080432868725689e-01
13751:-3.3769462546105972e-01
13752:-3.8222247569110224e-01
13753:-4.0998519452479781e-01
13754:-3.5035401258291266e-01
13755:-2.7226338744678863e-01
13756:-2.1462352128321460e-01
13757:-1.7095345913474985e-01
13758:-1.1980844241540638e-01
13759:-1.0473850846056279e-01
13760:-2.0352682817035814e-01
13761:-1.5718513995487077e-01
13762:-1.9485875699967284e-01
13763:-2.9766827723393618e-01
13764:-2.7522619197410869e-01
13765:-2.0618912385506261e-01
13766:-2.1044695106666642e-01
13767:-2.7568258820077596e-01
13768:-2.3210271024266388e-01
13769:-1.8468513858228305e-01
13770:-1.6451500020630647e-01
13771:-1.6589889945631806e-01
13772:-1.0946700834062113e-01
13773:-1.1750774961844919e-01
13774:-1.0530027104727324e-01
13775:-6.4794197890585256e-02
13776:-3.7224050358729721e-01
13777:-4.3945039021623805e-01
13778:-3.5392699107545150e-01
13779:-1.4840524897769827e-01
13780:-3.2442604714363804e-01
13781:-3.5118810253070470e-01
13782:-2.4394237401380320e-01
13783:-5.5611441857064348e-02
13784:-1.6660631471700729e-01
13785:-1.3765633744534864e-01
13786:-4.6240839634020432e-02
13787:5.4604380886743256e-02
13788:-2.9656157796256098e-02
13789:3.5899239946192735e-02
13790:1.0091844837177383e-01
13791:1.2241650474072899e-01
13792:4.3059822611048182e-03
13793:2.1928629278813674e-01
13794:3.1579234327831174e-01
13795:2.3802756435922207e-01
13796:7.4210628621515909e-02
13797:2.4184320909658971e-01
13798:2.8614136948245134e-01
13799:1.8786790494438738e-01
13800:1.1297165233891548e-01
13801:1.7229893906689214e-01
13802:1.5026411595422956e-01
13803:6.6954610542771173e-02
13804:1.2044005350341709e-01
13805:9.5848552378429708e-02
13806:3.6570313540125049e-02
13807:-1.8450906062161064e-02
13808:1.4620919933356827e-01
13809:-5.1856525195483460e-03
13810:-1.2892094291569661e-01
13811:-1.5942335916672476e-01
13812:9.4967289625015286e-02
13813:-4.9242014881660724e-02
13814:-1.5484964901968318e-01
13815:-1.7105565016625615e-01
13816:5.1764330786520357e-03
13817:-8.2694342294885967e-02
13818:-1.3411823322269073e-01
13819:-1.2865979381365139e-01
13820:-4.6950669728896721e-02
13821:-8.0443679404449422e-02
13822:-8.7432274030369628e-02
13823:-6.9977864924518851e-02
13824:-1.5228382640650900e-01
13825:-1.2383278243988327e-01
13826:-6.7903135131611461e-02
13827:-1.4681202829857312e-02
13828:-1.5794399403498047e-01
13829:-1.2197644163105477e-01
13830:-6.2849317155089623e-02
13831:-1.1790693064115499e-02
13832:-1.1208027953316950e-01
13833:-7.7941018847592899e-02
13834:-3.4535471468621660e-02
13835:-4.4695208138998757e-03
13836:-5.4859980934311721e-02
13837:-2.9892058635909807e-02
13838:-7.7365165265367020e-03
13839:3.3266339003020537e-04
13840:-9.6364306077975348e-01
13841:-7.3600685835736102e-01
13842:-6.4973679698977563e-02
13843:5.2690070002622413e-01
13844:-1.2946327170904828e+00
13845:-8.1462462412281078e-01
13846:1.5820211432122935e-01
13847:8.3121915366094423e-01
13848:-1.5757124391057957e+00
13849:-5.4597345804166342e-01
13850:6.7037315851061752e-01
13851:1.2116259955821465e+00
13852:-1.6064105675902838e+00
13853:-1.5389709323363038e-01
13854:1.0553146605965738e+00
13855:1.3530326653383913e+00
13856:8.0772376179318606e-01
13857:1.1624723660766989e+00
13858:1.3238361205659579e+00
13859:1.2607365421645083e+00
13860:1.0733115712371639e+00
13861:1.3148601888254388e+00
13862:1.3496888284823565e+00
13863:1.2692465352839273e+00
13864:1.2951539677798345e+00
13865:1.3013983860110894e+00
13866:1.2071238260248707e+00
13867:1.1732424341004306e+00
13868:1.2823084507463356e+00
13869:1.1108516583047001e+00
13870:9.7633840001289118e-01
13871:1.0120961544772422e+00
13872:1.1805569689009408e+00
13873:1.0831862305818591e+00
13874:1.0917847592356309e+00
13875:1.2060574190426732e+00
13876:1.2217699484863465e+00
13877:1.1961974096274686e+00
13878:1.2498733415825303e+00
13879:1.3151503610498627e+00
13880:1.1977454877868201e+00
13881:1.2682468189941833e+00
13882:1.3189471443573548e+00
13883:1.2614122221173487e+00
13884:1.0921005636038872e+00
13885:1.2172505396148181e+00
13886:1.2380278886664753e+00
13887:1.0900494183472675e+00
13888:1.2969302317329525e+00
13889:1.3542066003966613e+00
13890:1.1449004155907367e+00
13891:7.4308188098568673e-01
13892:1.3403960017496146e+00
13893:1.2553668954625052e+00
13894:8.8424808084012807e-01
13895:4.1944937040970531e-01
13896:1.1788031694290764e+00
13897:9.3208882290480943e-01
13898:4.9644756240739552e-01
13899:1.3064423228357275e-01
13900:9.4243968655668775e-01
13901:6.2478852406464902e-01
13902:2.3110828292266228e-01
13903:1.6278506503048511e-02
13904:4.4800745154281102e-01
13905:-4.6734922452405389e-02
13906:-4.6230165887048108e-01
13907:-5.4249882326919963e-01
13908:1.2190253336120663e-01
13909:-3.5922098650075091e-01
13910:-7.4602927434523580e-01
13911:-8.0899596365620852e-01
13912:-5.8053636589089672e-02
13913:-3.5279755698501691e-01
13914:-6.1120877455801570e-01
13915:-7.1075408449519517e-01
13916:-4.9960869220123633e-02
13917:-1.2804810642526279e-01
13918:-2.1875331559533145e-01
13919:-3.3976622200586976e-01
13920:-4.8966548418181077e-01
13921:-3.3123918256947227e-01
13922:-1.2389541688017727e-01
13923:-4.3395600323843334e-02
13924:-7.4916349008030947e-01
13925:-5.3098525923850981e-01
13926:-1.6586897680453241e-01
13927:7.6544451559375393e-02
13928:-7.2564614062602550e-01
13929:-6.4379537099144546e-01
13930:-3.6580754096539703e-01
13931:-6.7924322350112504e-02
13932:-4.3398495684971300e-01
13933:-5.6808084904831424e-01
13934:-5.7267670294893858e-01
13935:-3.8860788699434279e-01
13936:-4.9123350887264862e-02
13937:-1.2419118424766118e-01
13938:-2.6171287786329150e-01
13939:-3.2770658370184214e-01
13940:1.6230667424983602e-01
13941:2.0371470316636017e-01
13942:1.1431043856207050e-01
13943:2.0862688775307631e-02
13944:1.0145276002212601e-01
13945:3.2451488290491110e-01
13946:4.4191421901869171e-01
13947:4.2935342587704350e-01
13948:-2.1491250123924763e-01
13949:1.2307810378358591e-01
13950:4.8095332578619071e-01
13951:6.2199254081697153e-01
13952:-3.2862915580956853e-01
13953:-2.5533703411950465e-01
13954:-7.0618769337497930e-02
13955:8.7602910222677063e-02
13956:-1.1918271932594513e-02
13957:-4.6266391638337409e-03
13958:9.0818215142413505e-02
13959:1.8201359299501832e-01
13960:3.9739565908623059e-01
13961:3.3846785982272298e-01
13962:2.6887443031580077e-01
13963:2.1794935362587428e-01
13964:6.3188475401832711e-01
13965:5.5846575454963010e-01
13966:3.5961233295378608e-01
13967:1.8953663961249451e-01
13968:1.6073410257354287e-01
13969:2.2878472094521604e-01
13970:1.9733261145838543e-01
13971:1.0208403287845880e-01
13972:2.2245788148744530e-01
13973:2.5787645585866253e-01
13974:2.2719869677155344e-01
13975:1.4996888844531803e-01
13976:1.9257855441569144e-01
13977:1.7469594015987122e-01
13978:1.8933324460219725e-01
13979:2.0632643711717610e-01
13980:1.1371417838244192e-01
13981:6.4626681366435471e-02
13982:1.3856048075401373e-01
13983:2.5068868277560674e-01
13984:3.3919064112643012e-02
13985:-8.8576808979672447e-02
13986:-2.2346320784716620e-01
13987:-3.0115061679413579e-01
13988:9.0131351880725810e-02
13989:-6.6888087651926553e-02
13990:-3.1582452727903515e-01
13991:-4.9900128921981957e-01
13992:2.0498991085248430e-01
13993:8.9411780324961471e-02
13994:-2.3193335358990563e-01
13995:-5.4613089074363197e-01
13996:3.0745059717217782e-01
13997:2.6373700231210334e-01
13998:-4.9662377590920598e-02
13999:-4.2668045414077937e-01
14000:-3.3021791121750754e-01
14001:-3.3889881825265666e-01
14002:-2.6828279134754085e-01
14003:-1.6261002349325115e-01
14004:-5.7643916344217083e-01
14005:-5.8774745414842988e-01
14006:-3.8388296853799309e-01
14007:-1.1650244270405252e-01
14008:-7.0825600461891214e-01
14009:-8.0393388120360387e-01
14010:-5.6787233837017936e-01
14011:-1.8867578973298590e-01
14012:-6.4472948150905851e-01
14013:-8.3396728889127347e-01
14014:-6.7261350532445030e-01
14015:-3.0183827418897591e-01
14016:-9.4276276044737345e-02
14017:-1.3896313591114172e-04
14018:4.2642091626142374e-02
14019:1.2332967614424010e-02
14020:4.1900424439746238e-02
14021:2.3296131816746321e-01
14022:2.7569686716399289e-01
14023:1.7508994967479741e-01
14024:4.8840157125166546e-02
14025:3.3370588784724664e-01
14026:3.9217638471306415e-01
14027:2.3864571300966775e-01
14028:-5.0221742013432547e-02
14029:2.5688461591343426e-01
14030:3.2588761611943395e-01
14031:1.6478171351464932e-01
14032:-2.3678919839087879e-02
14033:-7.2642527791980216e-02
14034:-7.5777700183556562e-02
14035:-2.0155331700471655e-02
14036:8.7317472483729397e-02
14037:-2.8905406753036374e-02
14038:-5.6275640933665536e-02
14039:2.4291005947479433e-02
14040:1.0757097529542561e-01
14041:-6.0943210607331363e-02
14042:-9.7288776629204182e-02
14043:1.3903882859344486e-02
14044:2.4998423585197611e-02
14045:-1.4727908303008305e-01
14046:-1.6691592343141512e-01
14047:-3.3170560573315369e-02
14048:3.0400097028758479e-02
14049:1.1131512369886447e-01
14050:1.6391779025627501e-01
14051:1.5077150083871604e-01
14052:9.9813208281802360e-02
14053:2.0821009887996064e-01
14054:2.5129290558540957e-01
14055:1.9691245512134112e-01
14056:1.1493378771426525e-01
14057:2.5498568546862682e-01
14058:3.0509771394395824e-01
14059:2.3357092302421470e-01
14060:8.0859527985317106e-02
14061:2.3778447073803688e-01
14062:2.9899351454867473e-01
14063:2.3259607173409905e-01
14064:1.2294060409687242e-01
14065:6.4079885990576027e-02
14066:-6.8021319759163203e-03
14067:-4.5934515669636390e-02
14068:1.3739523564878023e-01
14069:3.7691913091249196e-02
14070:-4.4028201276557898e-02
14071:-6.0422339568414765e-02
14072:1.5922878111697308e-01
14073:4.3069865335921914e-02
14074:-3.6148720450880911e-02
14075:-3.4723497369969568e-02
14076:1.6128578252056971e-01
14077:5.2847706011630941e-02
14078:-1.4938334299016004e-02
14079:-6.1907207494681935e-03
14080:-5.8424216102541109e-02
14081:-6.6996704042740288e-02
14082:-5.5797889668258674e-02
14083:-3.5680899874429899e-02
14084:-5.1637729377181273e-02
14085:-2.8680895202855699e-02
14086:1.9767690373917943e-03
14087:2.0393285001437726e-02
14088:-1.2400343277826433e-02
14089:2.7553226457573292e-02
14090:6.1795116488628482e-02
14091:6.9713540075125577e-02
14092:1.8699962678672348e-02
14093:5.8881671257416578e-02
14094:8.5801830016576347e-02
14095:8.3830186179242885e-02
14096:-2.2975775347730862e-02
14097:-5.1211299463073704e-03
14098:4.5591130864657417e-03
14099:1.4538173891460980e-03
14100:2.6727735660370830e-02
14101:3.0194498708009113e-02
14102:1.9174677619227479e-02
14103:-1.4979697760175701e-04
14104:6.6484269845612967e-02
14105:5.2642878180020197e-02
14106:2.2494839091179268e-02
14107:-8.3185524942774609e-03
14108:7.4474175514512062e-02
14109:5.1515737561866198e-02
14110:1.4604043840740065e-02
14111:-1.7729914778362294e-02
14112:-1.5322506689930873e+00
14113:7.8038618043266617e-02
14114:1.1910269706585519e+00
14115:1.3287660724299040e+00
14116:-1.2809478433731469e+00
14117:3.1936176455690884e-01
14118:1.1522635411437101e+00
14119:1.0673753589292823e+00
14120:-8.2889292885377863e-01
14121:2.7956029299016988e-01
14122:6.4780093933332150e-01
14123:4.2503935033362611e-01
14124:-4.9652986994504872e-01
14125:3.6323957939411046e-02
14126:6.2073342762709934e-02
14127:-1.7294315579003558e-01
14128:1.1840744144912212e+00
14129:9.4435515747863563e-01
14130:8.1797454744959308e-01
14131:8.9428683198312631e-01
14132:8.5388819860188547e-01
14133:5.7275041694155604e-01
14134:4.8733126666900523e-01
14135:6.0798643027001253e-01
14136:2.3014331731559268e-01
14137:1.8420765874289823e-02
14138:1.2527320780983477e-02
14139:1.4437921348477273e-01
14140:-3.0986768040362617e-01
14141:-4.2741985386936959e-01
14142:-3.7166718578935337e-01
14143:-2.4557933738833540e-01
14144:9.9576204106443555e-01
14145:1.1358793600255865e+00
14146:1.1379917297823809e+00
14147:9.5974914009396295e-01
14148:7.2137948761422288e-01
14149:8.6160876297677613e-01
14150:8.4861374152374958e-01
14151:6.7014935696958977e-01
14152:2.3777089807485660e-01
14153:3.4563897780761316e-01
14154:3.4160097635145004e-01
14155:2.3419023121968302e-01
14156:-1.7332616387433161e-01
14157:-9.3059295018050048e-02
14158:-8.0233792582581676e-02
14159:-1.1701991876889825e-01
14160:7.9529095619362711e-01
14161:4.7009498596826627e-01
14162:1.2391483190217979e-01
14163:-5.7816742022161411e-03
14164:5.1601359517215462e-01
14165:2.3346174370254635e-01
14166:-1.3514436578300771e-02
14167:-3.5518705530857848e-02
14168:1.4518083966258175e-01
14169:-9.1977717126331057e-03
14170:-1.1705904730773198e-01
14171:-8.0125491840316393e-02
14172:-1.4506397525091419e-01
14173:-1.8155797636453463e-01
14174:-1.8302008300851877e-01
14175:-1.4094467735494062e-01
14176:-9.2970413406616541e-03
14177:3.2036087153014460e-02
14178:4.8642228385566325e-02
14179:-6.7582947024969128e-02
14180:2.9174216952597396e-02
14181:2.1042811800276437e-01
14182:3.8536310369566734e-01
14183:3.3105283222531123e-01
14184:-5.7614570865740433e-03
14185:1.9860886190208057e-01
14186:4.5426399189950711e-01
14187:5.2755488641451431e-01
14188:-1.0023476669393570e-01
14189:1.8863853303718078e-02
14190:2.2525281422155913e-01
14191:3.9212005305457215e-01
14192:-1.9801365638572616e-01
14193:-4.6304677130537303e-01
14194:-6.7672919199414783e-01
14195:-6.0932628576390913e-01
14196:1.9863785524958419e-01
14197:-1.6855217013532461e-01
14198:-6.2661713074870995e-01
14199:-7.5390476718410349e-01
14200:4.8930400281344211e-01
14201:2.6033765611957227e-01
14202:-1.5254307997996550e-01
14203:-3.8497483499642610e-01
14204:4.7119559905194214e-01
14205:5.2578078579522469e-01
14206:4.3934272327349982e-01
14207:2.8856558546593342e-01
14208:-4.6078035759868929e-01
14209:-8.5004810286418153e-02
14210:4.1175803275230510e-01
14211:6.5860794922424115e-01
14212:-6.8604722853164590e-01
14213:-3.5335847998811276e-01
14214:2.3175720493647842e-01
14215:5.8706475876224729e-01
14216:-4.2769787492785211e-01
14217:-3.0804584960409243e-01
14218:6.1805316621113902e-02
14219:3.4683394110950982e-01
14220:1.9378527293603173e-01
14221:8.5405009147810976e-02
14222:7.6972945584109886e-02
14223:1.5291390112955694e-01
14224:7.0416070775740480e-01
14225:6.3967524863061187e-01
14226:3.8431003865432767e-01
14227:1.6065046348481146e-01
14228:6.8311083465509936e-01
14229:6.6130403731237952e-01
14230:3.9734783725708345e-01
14231:1.5644519820098621e-01
14232:4.5062099642635112e-01
14233:4.9954599585295478e-01
14234:3.8634448243072367e-01
14235:2.6627557622577241e-01
14236:2.1416202245289129e-01
14237:3.1344419149286290e-01
14238:4.0584475874223985e-01
14239:4.5185179311179374e-01
14240:6.5081861148309314e-02
14241:9.4953706145914901e-03
14242:1.1967671407808131e-01
14243:2.7908198660125177e-01
14244:5.8665921915186443e-02
14245:1.3578993758652826e-02
14246:1.5484117608265432e-01
14247:3.4227247182047604e-01
14248:2.2154001133730550e-01
14249:2.1784835669255084e-01
14250:3.2379025997437033e-01
14251:4.4335711176305748e-01
14252:4.6885073918770226e-01
14253:4.9252702008429200e-01
14254:5.1278393043045778e-01
14255:5.2414287925230740e-01
14256:3.6323599122617478e-01
14257:3.6136052858064055e-01
14258:7.2255957772440274e-02
14259:-3.1774964197980005e-01
14260:4.4107297994697253e-01
14261:4.7464275927743205e-01
14262:2.2838605977388562e-01
14263:-1.5044993050063951e-01
14264:5.0257321700564916e-01
14265:5.1060113662376383e-01
14266:3.0521422932517150e-01
14267:-1.4013290346972632e-02
14268:5.2760461029395112e-01
14269:4.8526535690656808e-01
14270:3.0249360290267180e-01
14271:4.4365583376756355e-02
14272:-5.5575601676102993e-01
14273:-7.9480871200226910e-01
14274:-7.0191575462804257e-01
14275:-3.7003710403564055e-01
14276:-3.9640207911420067e-01
14277:-6.8732873200988109e-01
14278:-7.0392232034765223e-01
14279:-4.5890735927239296e-01
14280:-2.2958873394336957e-01
14281:-5.2274292678745871e-01
14282:-6.3510366794305673e-01
14283:-5.0405185881283276e-01
14284:-1.3298739524889355e-01
14285:-3.9832989902871407e-01
14286:-5.5176916356596140e-01
14287:-4.9426116047443014e-01
14288:-1.3008442381602608e-01
14289:1.6704476239460384e-01
14290:2.3851223285489348e-01
14291:8.5569628870938039e-02
14292:-2.5719723652388055e-01
14293:-1.9851580197959110e-04
14294:6.9440040282460078e-02
14295:-5.8635196067372580e-02
14296:-3.6573698465867560e-01
14297:-1.7816857878002379e-01
14298:-1.1210098495266431e-01
14299:-1.9448154578953039e-01
14300:-4.0222189717360279e-01
14301:-2.6327462481410152e-01
14302:-1.9249052643194897e-01
14303:-2.3418571936898752e-01
14304:-4.9076608967680291e-02
14305:-2.0918759513139776e-01
14306:-2.1156589110424420e-01
14307:-6.7175071971803266e-02
14308:-1.7492900692430999e-01
14309:-3.0549745279715423e-01
14310:-2.8460639249856340e-01
14311:-1.3698426135318870e-01
14312:-2.7665215043746050e-01
14313:-3.6588604628986787e-01
14314:-3.3829821961194273e-01
14315:-2.1719085696066365e-01
14316:-2.8801762099054706e-01
14317:-3.5043348353996884e-01
14318:-3.3633471827156358e-01
14319:-2.5307581363570908e-01
14320:5.0625198663092487e-02
14321:2.1212222625813137e-01
14322:2.7832528494489894e-01
14323:2.1825524677377375e-01
14324:-2.2784265713245083e-02
14325:1.3445612361439085e-01
14326:2.0673737398567157e-01
14327:1.6390826789892071e-01
14328:-1.2534806726319347e-01
14329:5.2800358680820522e-03
14330:7.8549395829348542e-02
14331:6.3347046054397532e-02
14332:-1.8686771426052914e-01
14333:-8.6639539544422134e-02
14334:-1.7583549110700359e-02
14335:-1.3075693717278132e-02
14336:1.5192732448017157e-01
14337:5.2431541821163066e-02
14338:-6.9836599021003958e-03
14339:4.1442293522231744e-03
14340:1.1154785991706963e-01
14341:3.4415754576092014e-02
14342:-8.2309270669341864e-03
14343:4.3529475804274347e-03
14344:3.3731438933301057e-02
14345:-1.0080062930428619e-02
14346:-3.3122724364527296e-02
14347:-2.4255875926591286e-02
14348:-2.6335523837510911e-02
14349:-4.7996467764214325e-02
14350:-6.1566451350575188e-02
14351:-5.9252692831614003e-02
14352:2.8531103730778062e-02
14353:6.6041467682632637e-02
14354:8.7654379837670493e-02
14355:8.1286913241872358e-02
14356:2.5317912084346257e-02
14357:5.5371334886278628e-02
14358:6.8438246260263694e-02
14359:5.8000955706089194e-02
14360:-1.1293205749812039e-02
14361:5.9889857891518251e-03
14362:1.0802078212523998e-02
14363:1.5700603879577500e-03
14364:-5.3764333239749829e-02
14365:-4.6965784065356300e-02
14366:-4.6486670598509243e-02
14367:-5.1726002592588811e-02
14368:6.9834311468282784e-02
14369:4.4500805228022737e-02
14370:7.3566196782449272e-03
14371:-2.3300910781318695e-02
14372:4.5703615087854310e-02
14373:2.1287834139848690e-02
14374:-1.0454431034726708e-02
14375:-3.4337348664472252e-02
14376:-7.2718137966612459e-03
14377:-2.2868863216482758e-02
14378:-3.9818585887941252e-02
14379:-5.0429757012974648e-02
14380:-5.5995051763086182e-02
14381:-6.1879833779303076e-02
14382:-6.5005979973729686e-02
14383:-6.4456886308320763e-02
14384:-3.6882990963997614e-01
14385:-1.4537105588146626e-01
14386:-2.6446333628737728e-01
14387:-4.8297939585961941e-01
14388:-2.7126975065529768e-01
14389:-4.3655908005461841e-01
14390:-7.2321977124768999e-01
14391:-9.2396339852519027e-01
14392:-3.6089949246188857e-01
14393:-7.0478191114810085e-01
14394:-1.0372661659679443e+00
14395:-1.2277028902283631e+00
14396:-5.1610006156802146e-01
14397:-8.3018690413712348e-01
14398:-1.1058981697969430e+00
14399:-1.2793998112867477e+00
14400:-5.8803466293616202e-01
14401:-6.6064071627332266e-01
14402:-5.7955902196256781e-01
14403:-4.5508646405597464e-01
14404:-1.0012444411257468e+00
14405:-1.0418753848969360e+00
14406:-9.4913340470338248e-01
14407:-8.2441971581164564e-01
14408:-1.3101340555467482e+00
14409:-1.3861804672156692e+00
14410:-1.3525787644284801e+00
14411:-1.2523866332750206e+00
14412:-1.3732130925822719e+00
14413:-1.5059176950840569e+00
14414:-1.5737671732564571e+00
14415:-1.5377514953951301e+00
14416:-3.8925306301036749e-01
14417:-3.1709050505837999e-01
14418:-2.9458982576898690e-01
14419:-2.9987313277794453e-01
14420:-7.5770356664727334e-01
14421:-6.8078307237615121e-01
14422:-6.3877042945702300e-01
14423:-6.1236063464908685e-01
14424:-1.1838193464273117e+00
14425:-1.0903684850937772e+00
14426:-1.0209345936209551e+00
14427:-9.8267745337380674e-01
14428:-1.4887255022716905e+00
14429:-1.4008045595309733e+00
14430:-1.3109263913239690e+00
14431:-1.2647424912947089e+00
14432:-3.0070816251214572e-01
14433:-2.8043447931213938e-01
14434:-2.3072181314276624e-01
14435:-1.9432965325317883e-01
14436:-5.8842717401535372e-01
14437:-5.1158688649263162e-01
14438:-4.0846231821347234e-01
14439:-3.8125575781121690e-01
14440:-9.5868783578714922e-01
14441:-8.8296242864143781e-01
14442:-7.8682710211554885e-01
14443:-7.7439106746860620e-01
14444:-1.2473623668366554e+00
14445:-1.2037067790288429e+00
14446:-1.1559431137668870e+00
14447:-1.1583227762536628e+00
14448:-1.7963836261340549e-01
14449:-1.3228411294330314e-01
14450:1.2147125463763873e-02
14451:2.1923359156019748e-01
14452:-3.9865100669702941e-01
14453:-4.4531589485375694e-01
14454:-3.9116838972085888e-01
14455:-1.4506177626094841e-01
14456:-8.0466485494753737e-01
14457:-8.8431316422967010e-01
14458:-8.6361277425038108e-01
14459:-6.1218009597101120e-01
14460:-1.1808953908453377e+00
14461:-1.2215227328193312e+00
14462:-1.1570454948607756e+00
14463:-9.2491188365030952e-01
14464:3.6798980204361753e-01
14465:6.1948010903200690e-01
14466:7.9574138797785177e-01
14467:7.4685405064994237e-01
14468:8.6218261930355977e-02
14469:5.9106953329919598e-01
14470:1.1319283897019430e+00
14471:1.2526395549692095e+00
14472:-3.5985222476841006e-01
14473:2.2533197479003272e-01
14474:9.1112172128454272e-01
14475:1.1375849567721887e+00
14476:-7.1461333589653753e-01
14477:-2.5238451051064181e-01
14478:2.8226047592034936e-01
14479:4.8092103128968144e-01
14480:6.4219701864597811e-01
14481:4.0721599948164833e-01
14482:1.4819388469563236e-01
14483:7.3950489280375037e-02
14484:1.1607600656924344e+00
14485:8.0505134220657504e-01
14486:2.6471552245969171e-01
14487:1.8269937204291976e-02
14488:1.0892844245757021e+00
14489:7.7918580078203104e-01
14490:2.6106996485525574e-01
14491:3.4176130303445788e-02
14492:4.7154726792227625e-01
14493:3.2429098473435281e-01
14494:8.8369073436382603e-02
14495:4.0855128111594988e-02
14496:1.0048680999606149e-01
14497:2.2490343186008410e-01
14498:4.4365394305203126e-01
14499:5.8609163865776359e-01
14500:7.4342680827568942e-03
14501:1.6630021526542157e-01
14502:5.2843000800221818e-01
14503:7.6487940765937579e-01
14504:4.2168590170611600e-02
14505:2.3107789084372318e-01
14506:5.9747008499455634e-01
14507:7.9337175419404427e-01
14508:1.0451652746214900e-01
14509:2.9814697148266223e-01
14510:5.4488065319262891e-01
14511:6.1670642931736597e-01
14512:6.3335221042630863e-01
14513:6.5949121790531395e-01
14514:6.1498517866147073e-01
14515:5.5946936614955289e-01
14516:8.3108330847178735e-01
14517:8.3407522857410388e-01
14518:6.9569020393346148e-01
14519:5.6248877049068335e-01
14520:8.2013382443573746e-01
14521:7.5890674841971784e-01
14522:5.7176304058553118e-01
14523:4.3362824143451095e-01
14524:5.8631778948760571e-01
14525:4.7926876665649598e-01
14526:3.2224475403476416e-01
14527:2.4259925619319028e-01
14528:5.3208260595983259e-01
14529:4.6195667632235882e-01
14530:2.9087373561980734e-01
14531:6.5764116658825089e-02
14532:5.0457679187909343e-01
14533:4.1406740065785202e-01
14534:2.7504436721967129e-01
14535:1.0556993735039724e-01
14536:3.8529028021102846e-01
14537:3.2158768584110481e-01
14538:2.3506213951714844e-01
14539:1.2223462967237218e-01
14540:2.2730811427208195e-01
14541:2.0667221029831959e-01
14542:1.5591887134493848e-01
14543:7.2937922427698559e-02
14544:-9.0528841357402634e-02
14545:-3.3649291206243886e-01
14546:-5.0170602077289073e-01
14547:-4.7489990597834902e-01
14548:-1.6109902668097524e-02
14549:-2.2614778689799636e-01
14550:-4.0181780876595513e-01
14551:-4.2067558860946691e-01
14552:3.5851890236197614e-02
14553:-1.2661803459255302e-01
14554:-2.8786644493005337e-01
14555:-3.3677108564968949e-01
14556:7.9404869849552685e-03
14557:-1.1332195058547677e-01
14558:-2.3605447386928530e-01
14559:-2.8044719731290774e-01
14560:-4.0347111028770255e-01
14561:-2.8475283186988853e-01
14562:-2.0791411031803103e-01
14563:-2.2817694156202359e-01
14564:-3.8262467653008153e-01
14565:-2.9983473913554970e-01
14566:-2.1928383014355715e-01
14567:-2.0748926663425854e-01
14568:-3.2825691679646701e-01
14569:-2.8519714416473818e-01
14570:-2.1728009828601183e-01
14571:-1.8534582596380522e-01
14572:-2.8119528972621632e-01
14573:-2.5989253181062399e-01
14574:-2.1453025517952196e-01
14575:-1.8611604006205879e-01
14576:-2.6808149154473487e-01
14577:-3.1984913226202066e-01
14578:-3.1853323329834055e-01
14579:-2.5867409459339646e-01
14580:-2.2457401740206015e-01
14581:-2.5611308057219645e-01
14582:-2.6952128646431062e-01
14583:-2.4366139172133078e-01
14584:-1.8289750907151281e-01
14585:-1.9128905583008626e-01
14586:-2.0496222742695674e-01
14587:-2.0064676910464765e-01
14588:-1.7861456049579660e-01
14589:-1.7499364070647663e-01
14590:-1.7689652073684670e-01
14591:-1.7229296246866177e-01
14592:-2.0703930952229116e-01
14593:-1.2409198665490799e-01
14594:-5.8872145773147470e-02
14595:-4.6280121275431005e-02
14596:-2.1452082665762501e-01
14597:-1.6069556020323850e-01
14598:-1.0812351612624892e-01
14599:-8.9763363592642240e-02
14600:-1.8907787514399346e-01
14601:-1.6324803497860993e-01
14602:-1.3404755358164450e-01
14603:-1.2343997174874330e-01
14604:-1.6507970465546254e-01
14605:-1.5190096499287445e-01
14606:-1.4250359199663470e-01
14607:-1.4557356986828326e-01
14608:-5.2754446315872248e-02
14609:-6.5961062773346027e-02
14610:-7.7549514945357875e-02
14611:-7.9695665350277223e-02
14612:-8.9457352833317974e-02
14613:-9.4820150064313991e-02
14614:-1.0688678340129730e-01
14615:-1.1657196115532600e-01
14616:-1.2398579112095824e-01
14617:-1.3100984915177682e-01
14618:-1.4710117788784882e-01
14619:-1.6170223376879572e-01
14620:-1.5168014184680720e-01
14621:-1.6480222455244534e-01
14622:-1.8207573475220434e-01
14623:-1.9402446559056882e-01
14624:-7.8149305503496691e-02
14625:-7.6563774611504917e-02
14626:-7.7717510138375245e-02
14627:-8.0368557684945982e-02
14628:-1.2090111772488495e-01
14629:-1.2680717598818100e-01
14630:-1.2967748067392040e-01
14631:-1.2772392685935358e-01
14632:-1.6919748930091458e-01
14633:-1.7828848983041384e-01
14634:-1.7942942785414404e-01
14635:-1.7193070411471484e-01
14636:-1.9936502180489904e-01
14637:-2.0425951297642178e-01
14638:-1.9999499980351557e-01
14639:-1.8857240666757752e-01
14640:-8.2036328996839394e-02
14641:-8.2651145274853413e-02
14642:-7.8659747347946202e-02
14643:-7.2591305341851584e-02
14644:-1.2508543992414156e-01
14645:-1.1727835538348802e-01
14646:-1.0232851693299236e-01
14647:-8.7941040704431983e-02
14648:-1.6507020435962802e-01
14649:-1.4954390572780918e-01
14650:-1.2514914300599495e-01
14651:-1.0373525319509318e-01
14652:-1.7976357094948153e-01
14653:-1.6108748457624988e-01
14654:-1.3311671984653070e-01
14655:-1.0891288490547403e-01
14656:-5.9570115128433954e-01
14657:-8.6758841831159450e-01
14658:-1.0973533521702119e+00
14659:-1.2534288324411997e+00
14660:-6.4261682504967288e-01
14661:-8.7465251090888008e-01
14662:-1.0372712364991397e+00
14663:-1.1381168589651194e+00
14664:-5.1987433853689280e-01
14665:-7.4633314622186220e-01
14666:-8.6020269074074429e-01
14667:-8.7643679988355772e-01
14668:-3.1719198275896132e-01
14669:-5.3404019539554837e-01
14670:-6.3273209680440534e-01
14671:-6.0134687443793167e-01
14672:-1.3479344720695867e+00
14673:-1.5098760245631591e+00
14674:-1.6473895631097053e+00
14675:-1.6672095869605092e+00
14676:-1.2068696338307625e+00
14677:-1.3739497529130773e+00
14678:-1.6048570723126556e+00
14679:-1.7386016567369473e+00
14680:-8.8351731148790003e-01
14681:-9.8179089271793485e-01
14682:-1.2409222702554989e+00
14683:-1.4948564377601952e+00
14684:-5.6294425288195971e-01
14685:-5.7689715254879725e-01
14686:-7.8111951576969008e-01
14687:-1.0735927866587733e+00
14688:-1.6418808971818610e+00
14689:-1.5718948721751813e+00
14690:-1.4747194587455237e+00
14691:-1.4202529587683357e+00
14692:-1.7792865542269816e+00
14693:-1.7898879890719932e+00
14694:-1.7275221155051264e+00
14695:-1.6675406423728618e+00
14696:-1.6322267329318396e+00
14697:-1.8027581123266929e+00
14698:-1.8746485119903227e+00
14699:-1.8474551338195184e+00
14700:-1.2683372958565460e+00
14701:-1.5700014547040988e+00
14702:-1.7992605510832593e+00
14703:-1.8391002944120574e+00
14704:-1.4038218181110207e+00
14705:-1.3792958332313665e+00
14706:-1.3641824884275988e+00
14707:-1.3735440770763780e+00
14708:-1.6445736012967487e+00
14709:-1.6294035661426900e+00
14710:-1.6399060327218440e+00
14711:-1.6490606525951763e+00
14712:-1.8160606091783125e+00
14713:-1.7796879031575707e+00
14714:-1.7580197592890656e+00
14715:-1.7360871031437426e+00
14716:-1.8137328060285718e+00
14717:-1.7542741243276729e+00
14718:-1.6703858813350880e+00
14719:-1.6021070936580393e+00
14720:-1.3865508824824631e+00
14721:-1.3870528857003586e+00
14722:-1.2791207700993881e+00
14723:-1.0657466133771420e+00
14724:-1.6459843389626314e+00
14725:-1.5870604958022818e+00
14726:-1.4196181065891702e+00
14727:-1.2402953271737058e+00
14728:-1.7129281766307487e+00
14729:-1.6105912650429017e+00
14730:-1.4171548300319137e+00
14731:-1.2783723803051410e+00
14732:-1.5621049780237091e+00
14733:-1.4476701246099559e+00
14734:-1.2666857714877424e+00
14735:-1.1501960353206586e+00
14736:-8.9646405943577168e-01
14737:-5.5734041533569811e-01
14738:-1.8399707663090184e-01
14739:-3.3153139289981946e-02
14740:-1.1354340139701020e+00
14741:-9.8168082899415754e-01
14742:-8.4313421546580791e-01
14743:-7.5409883998053839e-01
14744:-1.2257430584288704e+00
14745:-1.1970699679028820e+00
14746:-1.1901739305027099e+00
14747:-1.1092404781979051e+00
14748:-1.1103463784418872e+00
14749:-1.0873036134832348e+00
14750:-1.0555658346375090e+00
14751:-9.3769938640727013e-01
14752:-1.9860214696805722e-02
14753:-4.3763137367025140e-02
14754:-5.7747701700339500e-02
14755:2.8740909984947289e-02
14756:-7.0112260233347046e-01
14757:-5.4044066350920583e-01
14758:-2.4387948676254967e-01
14759:1.1922735667500801e-02
14760:-1.0107178724026484e+00
14761:-7.1807830374723913e-01
14762:-2.5399736551413005e-01
14763:5.1969793485664710e-02
14764:-8.1693865690175904e-01
14765:-5.1097176720768822e-01
14766:-8.4595306928342939e-02
14767:1.5669749768683744e-01
14768:1.2725974026756706e-01
14769:3.0988238783252475e-01
14770:4.5784233986720246e-01
14771:4.4655215641936252e-01
14772:1.4242827584021259e-01
14773:2.8437341893549767e-01
14774:2.8203821509699700e-01
14775:1.6514316018394509e-01
14776:1.6305979102363918e-01
14777:2.2818112110752020e-01
14778:1.1596448281296083e-01
14779:-4.1302134519278492e-02
14780:2.2480029957327785e-01
14781:2.3510411792466979e-01
14782:1.0566112298027641e-01
14783:-2.7491198046963820e-02
14784:3.8626164897033222e-01
14785:2.6772637885067752e-01
14786:1.5235656039595555e-01
14787:1.1902760337052716e-01
14788:7.5899988114981221e-02
14789:-3.8547230415919446e-02
14790:-8.2440420715179069e-02
14791:-5.2202388288970322e-02
14792:-1.2386527532244786e-01
14793:-2.0246332446641180e-01
14794:-1.8851777265945052e-01
14795:-1.2933246352427358e-01
14796:-8.7117625414288635e-02
14797:-1.3777351749219036e-01
14798:-1.1872435993415383e-01
14799:-7.5054660024111874e-02
14800:1.2484369080557342e-01
14801:1.2745225413251968e-01
14802:8.9890197098620270e-02
14803:1.8130918570066993e-02
14804:-2.1404853283441695e-02
14805:6.6717435771061658e-03
14806:-1.6594084204858969e-02
14807:-7.1736456599458168e-02
14808:-9.4381359807419463e-02
14809:-6.4441554419789090e-02
14810:-8.1189567268747209e-02
14811:-1.1771871951622205e-01
14812:-5.2863320679464816e-02
14813:-3.5969475532278611e-02
14814:-4.8871007176326989e-02
14815:-7.0348833251168183e-02
14816:-3.6600476615832711e-02
14817:-1.3319846333363763e-01
14818:-2.2536176982871381e-01
14819:-2.5758118685837061e-01
14820:-1.1015659526887510e-01
14821:-1.6708401645317333e-01
14822:-2.0772874299623750e-01
14823:-2.1528117336759786e-01
14824:-1.3895004561515950e-01
14825:-1.5976530942974995e-01
14826:-1.5786770144667608e-01
14827:-1.4508797461700429e-01
14828:-8.0958300401524491e-02
14829:-8.7731197294412755e-02
14830:-7.9693702987259307e-02
14831:-7.0244932376484062e-02
14832:-2.5843548362771612e-01
14833:-2.4516644778400376e-01
14834:-2.1563177643559922e-01
14835:-1.9558274240660209e-01
14836:-2.1229617041990598e-01
14837:-2.0701492313585867e-01
14838:-2.0337551217275204e-01
14839:-2.0301510072074966e-01
14840:-1.3817627425824358e-01
14841:-1.3917553378028813e-01
14842:-1.6106285446523513e-01
14843:-1.8519226806739961e-01
14844:-6.7448894833687198e-02
14845:-7.7750567065488718e-02
14846:-1.1370463109914319e-01
14847:-1.4951428546434239e-01
14848:-1.8903129423967394e-01
14849:-1.8172396340316868e-01
14850:-1.7448010042922188e-01
14851:-1.6484383412860923e-01
14852:-2.0328206507987270e-01
14853:-1.9830312395666350e-01
14854:-1.8229101403300227e-01
14855:-1.6502948277592680e-01
14856:-1.9747324176855799e-01
14857:-2.0586085859321701e-01
14858:-1.9437939009912825e-01
14859:-1.7636564489809994e-01
14860:-1.6811275450010679e-01
14861:-1.8745040988257036e-01
14862:-1.8872349778587255e-01
14863:-1.7971198082560247e-01
14864:-1.5718052850113953e-01
14865:-1.4777753774698174e-01
14866:-1.4857783972932620e-01
14867:-1.6017255236367933e-01
14868:-1.5547024816642735e-01
14869:-1.4972710011180668e-01
14870:-1.6437302381593738e-01
14871:-1.8861786456727869e-01
14872:-1.6668794065748394e-01
14873:-1.6439622835370130e-01
14874:-1.8790827876450272e-01
14875:-2.1932791123847661e-01
14876:-1.7452886226009040e-01
14877:-1.7771648562368109e-01
14878:-2.0255884823563960e-01
14879:-2.3098031836512828e-01
14880:-1.7002001272555123e-01
14881:-1.8659568923510192e-01
14882:-2.0247260264408035e-01
14883:-2.1008535153211508e-01
14884:-2.0428844595125420e-01
14885:-2.2546496021536735e-01
14886:-2.3618442793590969e-01
14887:-2.3311024743493189e-01
14888:-2.3792651342430149e-01
14889:-2.5939250638490319e-01
14890:-2.6072362118015030e-01
14891:-2.4392498760446843e-01
14892:-2.4680342161241375e-01
14893:-2.6296575652989462e-01
14894:-2.5712825323753846e-01
14895:-2.3420765937431215e-01
14896:-2.1242083910965703e-01
14897:-2.1242571246838937e-01
14898:-2.0368790206488940e-01
14899:-1.9035628182965597e-01
14900:-2.2816653607523432e-01
14901:-2.1686897319319959e-01
14902:-1.9905778712192995e-01
14903:-1.8314209485094698e-01
14904:-2.2998890865802391e-01
14905:-2.0526126322290064e-01
14906:-1.7792661661324910e-01
14907:-1.6077085687824808e-01
14908:-2.1678225604269150e-01
14909:-1.8714822314934618e-01
14910:-1.5701085203355003e-01
14911:-1.4040561692352127e-01
14912:-1.8105156854880053e-01
14913:-1.6175940352745746e-01
14914:-1.3312245913095647e-01
14915:-1.0820344843865180e-01
14916:-1.7388287194462948e-01
14917:-1.5490554213891949e-01
14918:-1.2625371932444021e-01
14919:-1.0065812151158730e-01
14920:-1.5275873046793262e-01
14921:-1.3580140721367559e-01
14922:-1.0845627614967954e-01
14923:-8.2936010724466006e-02
14924:-1.3350674619695505e-01
14925:-1.1813743917643148e-01
14926:-9.1969680481383223e-02
14927:-6.7128611163129029e-02
14928:-1.8553739316811427e-01
14929:-3.8235713646877456e-01
14930:-4.7638116171553163e-01
14931:-4.3264378863434938e-01
14932:2.1260611934696898e-02
14933:-8.8245484525483545e-02
14934:-1.4996956034791295e-01
14935:-1.0818319659386025e-01
14936:2.2586608315645099e-01
14937:2.8952871169959454e-01
14938:3.1152585197194776e-01
14939:3.2541843284737504e-01
14940:3.6144256111711609e-01
14941:5.6654031210475686e-01
14942:6.7385010011513602e-01
14943:6.6537362612913975e-01
14944:-3.7766405669826764e-01
14945:-3.4556242061607334e-01
14946:-4.9673152244796420e-01
14947:-7.8427035584818305e-01
14948:-5.2081659129866946e-02
14949:1.4522956778836185e-02
14950:-6.8632683588862889e-02
14951:-3.2589445067159356e-01
14952:3.4284831023722162e-01
14953:3.6744149275681315e-01
14954:2.9466764111393834e-01
14955:8.6895337483700430e-02
14956:6.3975128683866234e-01
14957:5.8667331416216784e-01
14958:4.6335450595094263e-01
14959:2.8341447181041007e-01
14960:-9.9697125759894223e-01
14961:-1.3600719560348322e+00
14962:-1.6833277645431850e+00
14963:-1.7730647471865810e+00
14964:-5.4164468780467223e-01
14965:-9.5307958186271591e-01
14966:-1.3775222889253320e+00
14967:-1.5341017016536178e+00
14968:-9.2104341263455569e-02
14969:-4.5224602912906875e-01
14970:-8.5095956036382359e-01
14971:-1.0186806922969833e+00
14972:1.4892102908572982e-01
14973:-1.0456368721457268e-01
14974:-3.7128374497491246e-01
14975:-4.8279262056357036e-01
14976:-1.7575585388173449e+00
14977:-1.6888196701392724e+00
14978:-1.5653345907648795e+00
14979:-1.4677745238079882e+00
14980:-1.5390744915205656e+00
14981:-1.4751535370348621e+00
14982:-1.3213577549124846e+00
14983:-1.1980701649502590e+00
14984:-1.0396771334262092e+00
14985:-1.0117839362748076e+00
14986:-9.0843965756344935e-01
14987:-8.2150614357005713e-01
14988:-5.0057402288123387e-01
14989:-5.1283842215662523e-01
14990:-5.1243099614043708e-01
14991:-5.0973877832021985e-01
14992:-1.4189368740452646e+00
14993:-1.3043776922007437e+00
14994:-1.1372597227495513e+00
14995:-1.0260036037370979e+00
14996:-1.1422115376887130e+00
14997:-1.0340655746683474e+00
14998:-8.8927790127964934e-01
14999:-7.8368730249354901e-01
15000:-7.8305266776393412e-01
15001:-7.0563051747024963e-01
15002:-5.8996354314601074e-01
15003:-4.9142343524878745e-01
15004:-5.0848368444000225e-01
15005:-4.7867342411870661e-01
15006:-3.9426760077295286e-01
15007:-3.0756433124048493e-01
15008:-9.8202994091615903e-01
15009:-9.3214640999302434e-01
15010:-8.5196830058989326e-01
15011:-7.0871046426075845e-01
15012:-7.3202077248967257e-01
15013:-6.4385654296998385e-01
15014:-5.0561167024585885e-01
15015:-3.4602616450100215e-01
15016:-4.3628184267783604e-01
15017:-3.3412969833283462e-01
15018:-1.9074702641940200e-01
15019:-6.0677916488510321e-02
15020:-2.5794685539138978e-01
15021:-1.7217191815454230e-01
15022:-6.5408463004070452e-02
15023:2.2790897500774055e-02
15024:-5.8541139034205947e-01
15025:-3.0513914693559313e-01
15026:5.2646961382046935e-02
15027:2.3762181805839769e-01
15028:-2.3390942991866329e-01
15029:-1.3187344076835897e-02
15030:2.3373471636425369e-01
15031:3.4536128713515624e-01
15032:1.8152876990303265e-02
15033:1.6168726475390641e-01
15034:3.1491559433837973e-01
15035:3.8805140143842920e-01
15036:7.4565667327263302e-02
15037:1.7288624907643124e-01
15038:2.8862675752449707e-01
15039:3.5625716289033377e-01
15040:2.8176123339043141e-01
15041:2.7398940215968132e-01
15042:1.5854912737296503e-01
15043:4.9269578751553321e-02
15044:3.6544999358802421e-01
15045:3.4959171932317851e-01
15046:2.6843571681644229e-01
15047:1.9449711357637098e-01
15048:4.0658935536931312e-01
15049:4.1056647139395824e-01
15050:3.7416178653866577e-01
15051:3.2924899003479902e-01
15052:3.8133966765342509e-01
15053:4.0350288330566109e-01
15054:3.9335765584157123e-01
15055:3.6482713045387505e-01
15056:1.7967474953553598e-03
15057:-4.1795814696820394e-02
15058:-3.6353625453934071e-02
15059:-1.1189179630225201e-02
15060:1.6120674037699168e-01
15061:1.2190283227478257e-01
15062:1.0348234568923867e-01
15063:1.0229687369056834e-01
15064:3.0405528709590846e-01
15065:2.6643082983051591e-01
15066:2.3537496220296336e-01
15067:2.2288760546912847e-01
15068:3.4567716398754417e-01
15069:3.1798860705506932e-01
15070:2.9892891359362761e-01
15071:2.9562508812046123e-01
15072:1.4536079353593473e-03
15073:1.0333790044209533e-02
15074:1.6140203199973596e-03
15075:-1.1155832657010185e-02
15076:1.0274259665267696e-01
15077:1.0317600337893901e-01
15078:1.0405655556525935e-01
15079:1.0597848322291271e-01
15080:2.1963593425637304e-01
15081:2.2047662582437486e-01
15082:2.3124257436258364e-01
15083:2.4314770746821845e-01
15084:2.9724385298291306e-01
15085:3.0351961691728735e-01
15086:3.1460204493995630e-01
15087:3.2270863066480354e-01
15088:-1.7146536215275818e-02
15089:-2.1735491699737656e-02
15090:-2.1090376590390026e-02
15091:-2.1925252742257414e-02
15092:1.0740525380938634e-01
15093:1.0489802680529346e-01
15094:8.8679538234659613e-02
15095:6.4959766452510517e-02
15096:2.4894602332986937e-01
15097:2.4478678686473873e-01
15098:2.0914470562608550e-01
15099:1.6050184661290154e-01
15100:3.2546367725567249e-01
15101:3.1534318464940547e-01
15102:2.7138469716397873e-01
15103:2.1564425024744732e-01
15104:-2.5111069973843488e-02
15105:-4.3563369636286486e-02
15106:-8.5199290466832778e-02
15107:-1.2317699692633340e-01
15108:4.8093728710635088e-02
15109:1.2214369826246449e-02
15110:-3.7226466870777755e-02
15111:-7.2740443064750832e-02
15112:1.2849453321369178e-01
15113:7.4636606696194152e-02
15114:2.1773637853779101e-02
15115:-3.8851374844754761e-03
15116:1.7976513137582503e-01
15117:1.2270909929545899e-01
15118:7.3224480232202835e-02
15119:5.4752111137640384e-02
15120:-1.4275670786716793e-01
15121:-1.6616646265995455e-01
15122:-1.7638107200584119e-01
15123:-1.7590591985716525e-01
15124:-8.9423693053214057e-02
15125:-1.1430659513977688e-01
15126:-1.3937619249784319e-01
15127:-1.5789790795756595e-01
15128:-1.2601960103688610e-02
15129:-3.3123226949740500e-02
15130:-7.3282812264865937e-02
15131:-1.1647810102485069e-01
15132:5.0698310488352959e-02
15133:3.2561377518804224e-02
15134:-1.6532282859878310e-02
15135:-7.3964388202195669e-02
15136:-1.7533109989595044e-01
15137:-1.8335277627687999e-01
15138:-2.0748345909031343e-01
15139:-2.3109512863558121e-01
15140:-1.6883777095224881e-01
15141:-1.8954495811000308e-01
15142:-2.1257572903366118e-01
15143:-2.2375772424321194e-01
15144:-1.4345526481654616e-01
15145:-1.8260324042923951e-01
15146:-2.0529515258285216e-01
15147:-1.9921571845193883e-01
15148:-1.1011126951084051e-01
15149:-1.6014584210729396e-01
15150:-1.8336393509838056e-01
15151:-1.6771600355536839e-01
15152:-2.4335822304809102e-01
15153:-2.5450786229121930e-01
15154:-2.4541229847480844e-01
15155:-2.2189670844173837e-01
15156:-2.2641593933335691e-01
15157:-2.2425719929949375e-01
15158:-2.0817305859504370e-01
15159:-1.8641336230277411e-01
15160:-1.8798660000877548e-01
15161:-1.6641210800850842e-01
15162:-1.4098604366918840e-01
15163:-1.2417632426609662e-01
15164:-1.4848681745612408e-01
15165:-1.1539553362130331e-01
15166:-8.4424376678964824e-02
15167:-7.1360237766362647e-02
15168:-2.0461931953019624e-01
15169:-1.7543457214208555e-01
15170:-1.4608332538447871e-01
15171:-1.3021842730460265e-01
15172:-1.7211852530844463e-01
15173:-1.4805312365126849e-01
15174:-1.2352622974617768e-01
15175:-1.0988102329838800e-01
15176:-1.1631113292715485e-01
15177:-1.0317228891167944e-01
15178:-8.8754173711502002e-02
15179:-7.9480911250960767e-02
15180:-6.8218868658050338e-02
15181:-6.3498766802259105e-02
15182:-5.7686826339163014e-02
15183:-5.2890029445809568e-02
15184:-1.2373756891615230e-01
15185:-1.0889918003872943e-01
15186:-8.3252086994330607e-02
15187:-5.9030486543901868e-02
15188:-1.0408878125290932e-01
15189:-9.0504578797581892e-02
15190:-6.7017257022022533e-02
15191:-4.5228273678663125e-02
15192:-7.4921277468482553e-02
15193:-6.4306248470177158e-02
15194:-4.6386109838433429e-02
15195:-3.0013713530764180e-02
15196:-5.0006802854937596e-02
15197:-4.3300287538960577e-02
15198:-3.1781008052484398e-02
15199:-2.0728722792038766e-02
15200:4.3202881611160793e-01
15201:7.0407751007330666e-01
15202:8.5933285097565815e-01
15203:8.4301893806273642e-01
15204:5.1397555735368827e-01
15205:8.6813975304696400e-01
15206:1.0880609312694727e+00
15207:1.0660419791710920e+00
15208:4.9877019469372591e-01
15209:8.7695239869774844e-01
15210:1.1271875359135621e+00
15211:1.1106996486593590e+00
15212:3.8065458370607641e-01
15213:7.1969485896404306e-01
15214:9.5427361712396841e-01
15215:9.4987857598233827e-01
15216:7.9480107242448539e-01
15217:6.9221396308739958e-01
15218:5.2552032547482064e-01
15219:3.5397640722289164e-01
15220:9.9056998295953613e-01
15221:8.2527310070818594e-01
15222:6.0429334486810937e-01
15223:4.4938027138863762e-01
15224:1.0279163936760445e+00
15225:8.4378746851337161e-01
15226:6.1634280715367973e-01
15227:4.9188953448879214e-01
15228:8.8081855923027097e-01
15229:7.2707544296248117e-01
15230:5.4199508265752183e-01
15231:4.4804265179956554e-01
15232:2.4510464599033560e-01
15233:6.4638116980939950e-02
15234:-9.9582869518307082e-02
15235:-1.6018900714792006e-01
15236:3.7951551756820540e-01
15237:3.1033519488729677e-01
15238:3.0738287453332952e-01
15239:3.3563362400438407e-01
15240:4.5619626178439016e-01
15241:4.7275595628718642e-01
15242:5.9404021262432516e-01
15243:7.0344368707653038e-01
15244:4.2651408512424593e-01
15245:4.6280002083548677e-01
15246:6.0832929120298207e-01
15247:7.4610068283472841e-01
15248:-1.7000387202092362e-01
15249:-2.0500015844933225e-01
15250:-2.7722646532892731e-01
15251:-3.3656985157108660e-01
15252:3.4728629724733689e-01
15253:2.9554711259131106e-01
15254:1.2946378141306888e-01
15255:-2.1793406293628796e-02
15256:7.4625062039535961e-01
15257:7.1873227511893012e-01
15258:5.2750764186306198e-01
15259:3.2402231035594581e-01
15260:8.1043552096727711e-01
15261:8.3099633475581880e-01
15262:6.9457769835856764e-01
15263:5.0783625701295299e-01
15264:-3.6291505688602721e-01
15265:-3.6741277634897057e-01
15266:-3.0544257456742957e-01
15267:-2.2987109704285583e-01
15268:-9.3707064629984349e-02
15269:-1.6234373348629005e-01
15270:-1.5413647242597805e-01
15271:-1.0903100624938016e-01
15272:2.1627585810343697e-01
15273:8.1440863623244833e-02
15274:1.3191687115105530e-02
15275:1.1712731536508427e-02
15276:3.9506076842140231e-01
15277:2.3213460242823147e-01
15278:1.1410788322758794e-01
15279:8.3231895275450260e-02
15280:-1.8721586217367436e-01
15281:-1.1897696519808983e-01
15282:-3.9994066004486559e-02
15283:2.6689992939676051e-02
15284:-8.2147677690896023e-02
15285:-4.2887960074322627e-02
15286:2.3610365680162091e-03
15287:4.8489963493658757e-02
15288:1.9494993366899981e-02
15289:3.6603494764923646e-02
15290:7.1266639539236384e-02
15291:1.1530856186932988e-01
15292:8.3613429683413412e-02
15293:1.0034122669507593e-01
15294:1.4429203426605022e-01
15295:1.8906976499543807e-01
15296:6.8045187485794967e-02
15297:1.5156182612183680e-01
15298:2.5696405718257231e-01
15299:3.2285897512436684e-01
15300:8.1029546743209516e-02
15301:1.4647667488500546e-01
15302:2.2589228339364709e-01
15303:2.7164542589652207e-01
15304:1.4578183202383782e-01
15305:1.9142017086339941e-01
15306:2.2158099625381919e-01
15307:2.2098840297433073e-01
15308:2.1361101452499445e-01
15309:2.3384526442350864e-01
15310:2.1633575784233480e-01
15311:1.8008644884792144e-01
15312:3.4894122110966652e-01
15313:3.7509465483794968e-01
15314:3.7369785003740458e-01
15315:3.5429708922083147e-01
15316:2.8787017715531610e-01
15317:3.0581154405836486e-01
15318:3.1310087201216841e-01
15319:3.1298771222818661e-01
15320:2.1320582070640784e-01
15321:2.0697025784921835e-01
15322:2.1940039548361620e-01
15323:2.4422722409317030e-01
15324:1.5743725991753765e-01
15325:1.3897660168566467e-01
15326:1.5823390921893515e-01
15327:1.9756338486929345e-01
15328:3.4079077348014308e-01
15329:3.2475602644106716e-01
15330:3.2112876336232637e-01
15331:3.2821783446448188e-01
15332:3.1325563463902500e-01
15333:3.2269237991364169e-01
15334:3.4848506509656979e-01
15335:3.7363959810478187e-01
15336:2.6245892938927995e-01
15337:3.0006952963302258e-01
15338:3.5107879879215842e-01
15339:3.8849875859639582e-01
15340:2.2405484181016827e-01
15341:2.6990600510412111e-01
15342:3.2070493313061232e-01
15343:3.5375053273900325e-01
15344:3.3423639974362407e-01
15345:3.4373892263208905e-01
15346:3.5095077575597394e-01
15347:3.5198835165468390e-01
15348:3.8694045416090478e-01
15349:4.0050531968206610e-01
15350:3.9633657939982381e-01
15351:3.7872409146354358e-01
15352:4.0610731505996256e-01
15353:4.1988551241876204e-01
15354:4.0042080039645139e-01
15355:3.5977625628098631e-01
15356:3.6878348341659639e-01
15357:3.7859661932264699e-01
15358:3.5345453571393559e-01
15359:3.0598589672249965e-01
15360:3.5035037487416298e-01
15361:3.3509673223427744e-01
15362:2.9015446835901143e-01
15363:2.3696525579519770e-01
15364:3.6513694242219541e-01
15365:3.3622738670939323e-01
15366:2.9135619712372979e-01
15367:2.5032136362748381e-01
15368:3.3103237182037992e-01
15369:2.8514305809721735e-01
15370:2.4344573693643543e-01
15371:2.2370206102067222e-01
15372:2.7250103939742704e-01
15373:2.2203649674928314e-01
15374:1.8540637605258034e-01
15375:1.7905099698081972e-01
15376:2.0323100942557518e-01
15377:1.5000227273338523e-01
15378:1.0455636543510841e-01
15379:8.8206847350090975e-02
15380:2.2637344474949977e-01
15381:1.8809567707719921e-01
15382:1.5326528453920768e-01
15383:1.3798779538868597e-01
15384:2.1666854983086117e-01
15385:2.0332983478538599e-01
15386:1.8387042370283085e-01
15387:1.6695375494675080e-01
15388:1.8225948429420571e-01
15389:1.8409180641316469e-01
15390:1.7401702710170297e-01
15391:1.5596386058582540e-01
15392:8.4807206701698237e-02
15393:6.6007867501859496e-02
15394:1.3039517115538158e-02
15395:-4.8859901953129302e-02
15396:1.3281187727250404e-01
15397:1.1052877378582653e-01
15398:5.4778133363546450e-02
15399:-6.8405408494063187e-03
15400:1.5674660680257158e-01
15401:1.2933389704996681e-01
15402:7.8532631597023492e-02
15403:3.0242125710823308e-02
15404:1.4263043527005614e-01
15405:1.1405125843455050e-01
15406:7.2921293566697673e-02
15407:4.0634440272212961e-02
15408:-8.7579354350672198e-02
15409:-1.4074532684012853e-01
15410:-1.6432353201128455e-01
15411:-1.4608976464861997e-01
15412:-4.4375590212188794e-02
15413:-9.5466266301273195e-02
15414:-1.1737689912858122e-01
15415:-9.8914001155096090e-02
15416:2.7998103321392777e-03
15417:-3.3957588773109476e-02
15418:-4.9582069311533902e-02
15419:-3.6949615613428140e-02
15420:2.4238432395252401e-02
15421:3.1121338552030286e-03
15422:-5.8963035703505050e-03
15423:-3.4533960329843476e-04
15424:-1.2459751042825255e-01
15425:-8.8081277565657021e-02
15426:-5.5472212135695136e-02
15427:-4.3965134232766788e-02
15428:-7.7731118177226666e-02
15429:-4.2505937500892578e-02
15430:-1.3332827909791366e-02
15431:-6.1552142080868342e-03
15432:-2.2606174760113593e-02
15433:-5.3530014565713430e-04
15434:1.3950752420149291e-02
15435:1.3296421583056073e-02
15436:5.8845665239503006e-03
15437:1.2477037547133895e-02
15438:1.0954809322313370e-02
15439:3.9619723983475071e-03
15440:-4.2723241205310042e-02
15441:-4.1652002319512431e-02
15442:-4.0124886001207401e-02
15443:-3.8048139725994502e-02
15444:-7.8378152712222527e-03
15445:-1.1952617816990328e-02
15446:-1.6281152293966983e-02
15447:-1.7991757531885148e-02
15448:9.0074661724084612e-03
15449:1.5133553281454402e-03
15450:-5.5137470741080516e-03
15451:-8.7993980613532332e-03
15452:-1.0088407014706429e-03
15453:-7.8680080665652283e-03
15454:-1.2444736978299641e-02
15455:-1.3860991166668005e-02
15456:-3.6407945515992343e-02
15457:-3.2417046461902708e-02
15458:-2.4875811657405961e-02
15459:-1.6764395851416768e-02
15460:-1.8171359791630842e-02
15461:-1.8002969471603285e-02
15462:-1.5808541712283575e-02
15463:-1.1521942794497288e-02
15464:-9.8670283571212127e-03
15465:-1.1379524488963203e-02
15466:-1.1279039554440854e-02
15467:-8.4499309888172031e-03
15468:-1.4235221216126552e-02
15469:-1.4259960945711539e-02
15470:-1.2112793055682441e-02
15471:-8.0607295800405095e-03
15472:2.8180886100950897e-01
15473:5.8237546478162616e-01
15474:7.9661912883875530e-01
15475:8.0116774311763506e-01
15476:1.3195352442336405e-01
15477:3.4989190852379221e-01
15478:5.1759355413362296e-01
15479:5.3778041055533488e-01
15480:1.4287231650149163e-02
15481:1.2870948497161311e-01
15482:2.3063453455990918e-01
15483:2.6164468711032857e-01
15484:-2.7768053043165503e-02
15485:2.8453455991697466e-02
15486:8.3125935197873285e-02
15487:1.0890239897752971e-01
15488:7.4548759351878013e-01
15489:6.2175550311167582e-01
15490:4.7324984342610271e-01
15491:3.9674957034699354e-01
15492:5.0841718179961604e-01
15493:4.4021757021173141e-01
15494:3.5429819597885603e-01
15495:3.0411960105608105e-01
15496:2.6001888047782851e-01
15497:2.4844623752922507e-01
15498:2.2384112952675805e-01
15499:1.9903755489994895e-01
15500:1.1689270851211184e-01
15501:1.2829839818273620e-01
15502:1.3371768046221810e-01
15503:1.2713380803629587e-01
15504:3.7830933492287044e-01
15505:4.0930118080301858e-01
15506:5.4350231348432865e-01
15507:6.8408253990537082e-01
15508:2.8806567171741665e-01
15509:3.0369212465647666e-01
15510:4.0727311460604126e-01
15511:5.4042623269553769e-01
15512:1.8535361764060265e-01
15513:1.8406634092283392e-01
15514:2.4677627133961105e-01
15515:3.5422103802540017e-01
15516:1.1967324782946652e-01
15517:1.1622782480128871e-01
15518:1.5536602763100371e-01
15519:2.3562667464383419e-01
15520:7.5820940996236463e-01
15521:8.1240705117088929e-01
15522:7.2808788351708487e-01
15523:5.6890269576150787e-01
15524:6.2335827289603163e-01
15525:7.2182333901554485e-01
15526:7.1654911212091998e-01
15527:6.0506041398797838e-01
15528:4.3181057451083932e-01
15529:5.4839815188813146e-01
15530:5.9868662624802060e-01
15531:5.3202925390317157e-01
15532:2.9825356352948329e-01
15533:4.0135836917895734e-01
15534:4.6005119034422109e-01
15535:4.1483076639319205e-01
15536:4.6134699262677165e-01
15537:2.9306141877546288e-01
15538:1.5600547664337652e-01
15539:1.1592040997208664e-01
15540:5.1040425249133292e-01
15541:3.4642342006205240e-01
15542:2.0168557439579868e-01
15543:1.6673247112690667e-01
15544:4.5593555736667346e-01
15545:3.1742284303159074e-01
15546:2.0309945561636858e-01
15547:2.0224191288224797e-01
15548:3.5384188111740544e-01
15549:2.4492305393260197e-01
15550:1.6965584992198979e-01
15551:1.9815598002881527e-01
15552:1.1708953290509228e-01
15553:1.4088017384369453e-01
15554:1.9278928422824615e-01
15555:2.3325831790240020e-01
15556:1.7944984713951917e-01
15557:2.2367755594762817e-01
15558:2.8144886800902524e-01
15559:2.9808042149034408e-01
15560:2.3897195296875903e-01
15561:3.1167946495385923e-01
15562:3.6264538079277986e-01
15563:3.3568346110935798e-01
15564:2.4931864392287495e-01
15565:3.3430150695853728e-01
15566:3.7459230275337763e-01
15567:3.2336863822209166e-01
15568:2.4948857547054082e-01
15569:2.4886201540721398e-01
15570:2.0380833943200338e-01
15571:1.5370387237435357e-01
15572:2.8948359915007849e-01
15573:2.4447905994461669e-01
15574:1.6153964106478585e-01
15575:1.0672470076740792e-01
15576:2.9130148096726033e-01
15577:1.9724873428297326e-01
15578:9.5869357436688230e-02
15579:6.2965206122882506e-02
15580:2.6286140311869793e-01
15581:1.5451108533390262e-01
15582:6.2965934957212019e-02
15583:5.3006835781098931e-02
15584:1.2821541608500994e-01
15585:1.1051317245507782e-01
15586:1.3641840883037051e-01
15587:1.8026186664746596e-01
15588:8.8883523407618251e-02
15589:8.7019030365139527e-02
15590:1.2639950963837596e-01
15591:1.6956448129895779e-01
15592:6.8016237717486855e-02
15593:9.6968334070040713e-02
15594:1.4646519690781198e-01
15595:1.7487590872289346e-01
15596:7.2873691273571406e-02
15597:1.1581911831234781e-01
15598:1.5935646634141545e-01
15599:1.7044379542021582e-01
15600:2.0749672307092346e-01
15601:2.5031768800256443e-01
15602:2.9175190966028786e-01
15603:3.1648101521857391e-01
15604:1.9121124928613767e-01
15605:2.1775430337959600e-01
15606:2.3179289565818167e-01
15607:2.3454564389812088e-01
15608:1.8147260502326637e-01
15609:1.7780120854122372e-01
15610:1.5149002896407143e-01
15611:1.2313453789951552e-01
15612:1.6531201017495389e-01
15613:1.4210398622415793e-01
15614:9.3235270977299375e-02
15615:4.6992514362639418e-02
15616:3.2766980070787438e-01
15617:3.3391328407422149e-01
15618:3.0953054523423873e-01
15619:2.6486950762366601e-01
15620:2.3514917398948523e-01
15621:2.3107421736043418e-01
15622:2.1059902068631561e-01
15623:1.7977734987703811e-01
15624:1.0787118635863643e-01
15625:8.6566232309353230e-02
15626:7.0333109904334543e-02
15627:6.3084493902329175e-02
15628:2.1566261169902654e-02
15629:-1.2993204404117976e-02
15630:-3.0835516783694759e-02
15631:-2.4845787162563006e-02
15632:2.3308159201758169e-01
15633:1.8536570713124523e-01
15634:1.5255437108482342e-01
15635:1.5036839279347450e-01
15636:1.5801194921273373e-01
15637:1.2511176727854992e-01
15638:1.0343740846050366e-01
15639:1.0476057885717237e-01
15640:6.0004762262589467e-02
15641:5.5088277892136710e-02
15642:5.1742018958107830e-02
15643:5.2752821343489222e-02
15644:-1.5775209304884297e-02
15645:-1.4214627297522672e-03
15646:8.3104086778828853e-03
15647:7.9832398737994161e-03
15648:1.5641758769324085e-01
15649:1.6263701255456811e-01
15650:1.5565722913702362e-01
15651:1.3768875225925079e-01
15652:1.1136527466959288e-01
15653:1.1828909323224550e-01
15654:1.1169923679116095e-01
15655:9.3393351534774072e-02
15656:5.4520072595186563e-02
15657:5.3250613352427471e-02
15658:4.0192442606146225e-02
15659:2.0598310191121932e-02
15660:4.8885084149271453e-03
15661:-4.8592891046887673e-03
15662:-2.4815931293730265e-02
15663:-4.5534822072931566e-02
15664:1.2371968387279947e-01
15665:9.6305568216351015e-02
15666:6.1963272262178799e-02
15667:3.8808270391593930e-02
15668:7.9159650031896636e-02
15669:5.4673208686570100e-02
15670:3.1316534327966966e-02
15671:2.1801296601072169e-02
15672:7.1127926320421874e-03
15673:-1.3130974793852251e-02
15674:-2.5919246756563749e-02
15675:-2.3974406447831609e-02
15676:-5.7971396944941626e-02
15677:-7.4964572959048653e-02
15678:-8.1978586992363170e-02
15679:-7.4949410414619236e-02
15680:2.8384622673601621e-02
15681:1.5715824218874939e-02
15682:1.0182893940341223e-02
15683:1.1536868270287338e-02
15684:2.0035590850275429e-02
15685:1.9066330932722329e-02
15686:1.7071578816159578e-02
15687:1.0930461574569667e-02
15688:-1.8914692012993877e-02
15689:-1.1667228956049443e-02
15690:-1.2954347946658598e-02
15691:-2.6046880214286656e-02
15692:-6.7229716060291295e-02
15693:-5.7254825075708955e-02
15694:-5.8228108610561879e-02
15695:-7.2091427911444558e-02
15696:1.3036257274901030e-02
15697:1.0651662241857868e-02
15698:2.7254420900051438e-04
15699:-9.4413976963594378e-03
15700:4.9222899708316371e-03
15701:-9.7990264126826144e-03
15702:-2.8795323785196496e-02
15703:-3.7313780672333728e-02
15704:-3.7843297597181920e-02
15705:-5.8139582194683029e-02
15706:-7.2743234697022666e-02
15707:-6.9494509194438114e-02
15708:-8.3970041556335931e-02
15709:-9.9461353100857422e-02
15710:-1.0031581684179100e-01
15711:-8.3603261679698490e-02
15712:-1.4020887968910064e-02
15713:-1.9029891820492396e-02
15714:-2.0472418612429103e-02
15715:-1.9763058335657165e-02
15716:-3.8217839911004615e-02
15717:-3.6156560577217133e-02
15718:-3.0175093863600941e-02
15719:-2.5990289588538783e-02
15720:-6.1735662569690312e-02
15721:-4.6589314711917469e-02
15722:-3.0787370963210665e-02
15723:-2.4153755924079923e-02
15724:-6.8664081118839052e-02
15725:-4.4221083622348722e-02
15726:-2.3572186072439130e-02
15727:-1.7291311999063998e-02
15728:-1.9292692186188343e-02
15729:-1.7645488144984862e-02
15730:-1.3388215627896091e-02
15731:-8.1436748387939840e-03
15732:-2.4578574231413290e-02
15733:-2.1107408700641688e-02
15734:-1.4552346436776239e-02
15735:-8.1511652657089637e-03
15736:-2.2945255381981979e-02
15737:-1.9931192267391408e-02
15738:-1.3927105625083371e-02
15739:-8.2371086130553616e-03
15740:-1.7198923786780319e-02
15741:-1.6344138571886220e-02
15742:-1.2955332109557592e-02
15743:-9.0737032078539379e-03
15744:-3.7322058100003982e-02
15745:-3.8309981896511103e-04
15746:3.2078930052245554e-02
15747:4.8744957254322749e-02
15748:-5.8554591653718555e-02
15749:-4.4231842602366650e-02
15750:-4.3085877219662290e-02
15751:-4.6198880357271550e-02
15752:-1.1494452697235588e-01
15753:-1.0428928054444607e-01
15754:-1.1300083645379479e-01
15755:-1.3176811951209824e-01
15756:-1.9744433334921482e-01
15757:-1.6688270014235118e-01
15758:-1.4943999779762371e-01
15759:-1.6034545498215885e-01
15760:5.6010976085144312e-02
15761:7.0415182734502618e-02
15762:8.5962687114021150e-02
15763:9.0663836892419331e-02
15764:-4.6264401677718600e-02
15765:-3.5774453636710328e-02
15766:-6.2807316080342136e-03
15767:2.2983970759060623e-02
15768:-1.4340957232574397e-01
15769:-1.4658867348318069e-01
15770:-1.1286487572653467e-01
15771:-6.0648487259403902e-02
15772:-1.7494970118084960e-01
15773:-1.8797908445583816e-01
15774:-1.6665138029472923e-01
15775:-1.1787227785197568e-01
15776:8.9681037952341003e-02
15777:9.1382294103657960e-02
15778:1.2287507030912322e-01
15779:1.8712129468160341e-01
15780:3.8710066674225337e-02
15781:5.8776293599293997e-02
15782:8.4313948390460747e-02
15783:1.2072981745349218e-01
15784:-2.6137404635918952e-02
15785:1.9433991374385898e-02
15786:4.9632371662906065e-02
15787:6.3418603075076518e-02
15788:-8.1572008773022800e-02
15789:-2.8424175563573514e-02
15790:1.1430227228749703e-02
15791:2.5608281303427915e-02
15792:2.3842778704721510e-01
15793:3.2579984505300014e-01
15794:3.7846549950004943e-01
15795:3.4107409238153497e-01
15796:1.5003479562120806e-01
15797:2.0461368618473000e-01
15798:2.4118753780409061e-01
15799:2.1678504739271609e-01
15800:7.1245856227999921e-02
15801:8.8393875892336660e-02
15802:9.7943282885256999e-02
15803:7.9969921849772474e-02
15804:2.9166498804668459e-02
15805:2.9769179665088866e-02
15806:1.4284699754636740e-02
15807:-1.3956956769440105e-02
15808:2.8871607271977562e-01
15809:1.9785426808902878e-01
15810:1.4400746723587921e-01
15811:1.8337819033017855e-01
15812:1.8079143495285124e-01
15813:1.2122735589885369e-01
15814:9.5650060981615992e-02
15815:1.3816877804599570e-01
15816:5.8884692294979966e-02
15817:2.8584736145841550e-02
15818:2.3042514109937400e-02
15819:5.2707163229911133e-02
15820:-3.4280820779583665e-02
15821:-5.5430979356759828e-02
15822:-5.0469133426824624e-02
15823:-2.7462006214865980e-02
15824:2.3726173058496944e-01
15825:3.2181239437935799e-01
15826:3.5612419702847298e-01
15827:3.0085002891374424e-01
15828:1.8537411395271661e-01
15829:2.5482688919330021e-01
15830:2.7785970636069979e-01
15831:2.2967173293718160e-01
15832:8.0491033893614491e-02
15833:1.1612666734291370e-01
15834:1.2086601820106063e-01
15835:9.1571542357917479e-02
15836:-1.1525843174150051e-02
15837:-3.4657217737868391e-04
15838:-1.5605130763628100e-02
15839:-3.9513012601865433e-02
15840:2.3987895308986332e-01
15841:1.3674722193490674e-01
15842:5.8249180694817153e-02
15843:5.7592085895774477e-02
15844:1.8007575461018291e-01
15845:1.0156027290976635e-01
15846:4.8737253350203590e-02
15847:5.3669044472843645e-02
15848:6.5787346380094966e-02
15849:2.9020679203886526e-02
15850:7.8439007999277430e-03
15851:1.0028414721256457e-02
15852:-5.2825222649121942e-02
15853:-6.5431547974292917e-02
15854:-6.4489014325440755e-02
15855:-5.8705646469356228e-02
15856:8.0449068921155567e-02
15857:1.2232740565473592e-01
15858:1.5605749793180707e-01
15859:1.5774194151634452e-01
15860:7.2374680730716415e-02
15861:1.0097079880360779e-01
15862:1.1580347064591513e-01
15863:1.0827897685779533e-01
15864:1.6300019308049651e-02
15865:2.3148924088640482e-02
15866:2.2016347087010502e-02
15867:1.5667523226322921e-02
15868:-5.6205258749134596e-02
15869:-5.4266834456242585e-02
15870:-5.4664183360021545e-02
15871:-5.4976940436812012e-02
15872:1.4827166382550511e-01
15873:1.1929235724507259e-01
15874:6.4866316520894557e-02
15875:1.3425531691626778e-02
15876:9.7381216088307465e-02
15877:6.8720437647293103e-02
15878:1.6297413851658230e-02
15879:-3.5365400664182582e-02
15880:1.0725283464633219e-02
15881:-5.5531837601370442e-03
15882:-4.1562586192548566e-02
15883:-8.0572265270321880e-02
15884:-5.4986848129339551e-02
15885:-6.2173397140074457e-02
15886:-8.4388292927805350e-02
15887:-1.0868835665893131e-01
15888:-1.5661270733552370e-02
15889:-5.6253981669942367e-02
15890:-7.7385549645258594e-02
15891:-6.8305090308978078e-02
15892:-6.5916409329404263e-02
15893:-1.0963763415886171e-01
15894:-1.3257741608250162e-01
15895:-1.2092190370659847e-01
15896:-1.0445058076235070e-01
15897:-1.3717112837584305e-01
15898:-1.5041127158161105e-01
15899:-1.3614063466437534e-01
15900:-1.2270534374050619e-01
15901:-1.3714737710874347e-01
15902:-1.3259307263146944e-01
15903:-1.1354011980934718e-01
15904:-5.5270252077877814e-02
15905:-3.3941699819530810e-02
15906:-1.8943300021091427e-02
15907:-1.9840711631715167e-02
15908:-1.0472727361776291e-01
15909:-7.8469416376749840e-02
15910:-6.1587996579097901e-02
15911:-6.5973560030572240e-02
15912:-1.2059423546913771e-01
15913:-9.8740260594360862e-02
15914:-9.1433338319428750e-02
15915:-1.0406607935105978e-01
15916:-9.9612590684142119e-02
15917:-8.5265852714598203e-02
15918:-9.0600771849752876e-02
15919:-1.1053120952792139e-01
15920:-2.5132724322535924e-02
15921:-3.8854446963513443e-02
15922:-6.2100695070848699e-02
15923:-8.3189885152734830e-02
15924:-7.4993383486569004e-02
15925:-9.4173523836378573e-02
15926:-1.1990663857194638e-01
15927:-1.3887768250715848e-01
15928:-1.1703748251367720e-01
15929:-1.3936996274031746e-01
15930:-1.6159086401565076e-01
15931:-1.7326035716876553e-01
15932:-1.2523854742270002e-01
15933:-1.4648409849361760e-01
15934:-1.6144865275412765e-01
15935:-1.6540242693031149e-01
15936:-9.4933395644345997e-02
15937:-1.1017948087581313e-01
15938:-1.1466921661431358e-01
15939:-1.0583546425723191e-01
15940:-1.4807147549602984e-01
15941:-1.5838752617748217e-01
15942:-1.5720362966146140e-01
15943:-1.4506083081461169e-01
15944:-1.7743684892637934e-01
15945:-1.7927359205415436e-01
15946:-1.6977408607477817e-01
15947:-1.5366572896006522e-01
15948:-1.6542074073625582e-01
15949:-1.6074933677317885e-01
15950:-1.4551826778841295e-01
15951:-1.2715845790539151e-01
15952:-9.7322375661915803e-02
15953:-8.6521157771922125e-02
15954:-8.6471356160959370e-02
15955:-9.8408370161046615e-02
15956:-1.3527834007276687e-01
15957:-1.2261013303895024e-01
15958:-1.1909742026436236e-01
15959:-1.2583569015253612e-01
15960:-1.4262980562180697e-01
15961:-1.2758257721064284e-01
15962:-1.1926287880120078e-01
15963:-1.1983065206778808e-01
15964:-1.1562410474580349e-01
15965:-9.9776955106285078e-02
15966:-9.0322847570545303e-02
15967:-8.9850205363573313e-02
15968:-1.0845344598776205e-01
15969:-1.1815011716999715e-01
15970:-1.0909476316489342e-01
15971:-8.5164551795578913e-02
15972:-1.3173544668476597e-01
15973:-1.3197162882103980e-01
15974:-1.1076598179244614e-01
15975:-8.0615794362850143e-02
15976:-1.2143397501193019e-01
15977:-1.1555336486666488e-01
15978:-9.2357471699032398e-02
15979:-6.6487631827518448e-02
15980:-9.0980357831795811e-02
15981:-8.7177530246201687e-02
15982:-7.2026137076016128e-02
15983:-5.5437144619077096e-02
15984:-6.7181798897301651e-02
15985:-3.9445321508498062e-02
15986:-1.8105742611332503e-02
15987:-1.2933466537406645e-02
15988:-6.1183314713133166e-02
15989:-3.3051567284606807e-02
15990:-1.3766784006680367e-02
15991:-1.0655741409009187e-02
15992:-5.1463122434699929e-02
15993:-3.0708849973873804e-02
15994:-1.7673431728442796e-02
15995:-1.6249930323550401e-02
15996:-4.5966367097104520e-02
15997:-3.2871984335628261e-02
15998:-2.4340229114400119e-02
15999:-2.2791808306797140e-02
16000:-1.3675237866228943e-02
16001:-1.4377382624146787e-02
16002:-1.2831842557476363e-02
16003:-1.0107643465982100e-02
16004:-1.2278992777897865e-02
16005:-1.4590950854695195e-02
16006:-1.5012399902419420e-02
16007:-1.3527348970790415e-02
16008:-1.7658515107382797e-02
16009:-1.9745469788678464e-02
16010:-2.0600401548981011e-02
16011:-1.9903627300456576e-02
16012:-2.3175166722405015e-02
16013:-2.3928216990443986e-02
16014:-2.4668231502069676e-02
16015:-2.5130219247388095e-02
16016:-2.5606757956292686e-01
16017:-2.0579199630819961e-01
16018:-1.6134739675502147e-01
16019:-1.5910961014262601e-01
16020:-2.8641916017055263e-01
16021:-1.9791208154290077e-01
16022:-1.2410289165579358e-01
16023:-1.1159049363004617e-01
16024:-1.9656132105557656e-02
16025:5.0405519965218255e-02
16026:5.0120151900621086e-02
16027:1.3384818657705636e-02
16028:5.3599594011222051e-01
16029:4.7454742546602596e-01
16030:2.7464482043390442e-01
16031:1.2855148561631063e-01
16032:-1.7158918229548306e-01
16033:-1.8775709273877533e-01
16034:-1.7928124128705306e-01
16035:-1.4313999741361824e-01
16036:-1.2200988313971696e-01
16037:-1.4119768925850162e-01
16038:-1.5213226089514753e-01
16039:-1.4424288936639679e-01
16040:-8.5473458558135360e-03
16041:-2.9150604130777427e-02
16042:-3.1495947619669264e-02
16043:-3.1710715917713544e-02
16044:8.0865997935589920e-02
16045:6.0891725852174935e-02
16046:1.1142220920967931e-01
16047:1.5744094989048671e-01
16048:-1.1306922656202857e-01
16049:-6.3841896887840102e-02
16050:-1.8030428633497207e-02
16051:4.4190710671299042e-03
16052:-1.3301281372686025e-01
16053:-1.0326397304983620e-01
16054:-5.3126491061712709e-02
16055:-1.0033672505001572e-02
16056:-3.4929391179904644e-02
16057:-3.0455984199574744e-02
16058:-1.3758046035702086e-03
16059:3.7483031039601052e-02
16060:1.7075643403046967e-01
16061:1.7590961369438410e-01
16062:1.5744115471185499e-01
16063:1.3410542756308724e-01
16064:1.1852743979883147e-02
16065:1.0396593937241336e-02
16066:-1.9393534561567748e-02
16067:-6.0228408275198500e-02
16068:1.1543767038818395e-02
16069:1.7682361083520382e-02
16070:-3.2345459030367327e-02
16071:-1.0123160074353407e-01
16072:6.0902771971370874e-02
16073:6.3914029625500787e-02
16074:-6.6111004385229096e-04
16075:-8.3847726010022577e-02
16076:1.2026117696318701e-01
16077:7.9387715527531710e-02
16078:9.8640738365692818e-03
16079:-4.1718838667565705e-02
16080:-8.5508342293325865e-02
16081:-1.0793281368811455e-01
16082:-9.7214122117093224e-02
16083:-7.2124161531880449e-02
16084:-1.4197931699175714e-01
16085:-1.7758961619038904e-01
16086:-1.6150087022243848e-01
16087:-1.2526574232985241e-01
16088:-1.3170771518723892e-01
16089:-1.7449992297373726e-01
16090:-1.5649522275677002e-01
16091:-1.1164431394936289e-01
16092:-6.3601724664015438e-02
16093:-7.6648966615386963e-02
16094:-5.4178924102323139e-02
16095:-2.3155604508655205e-02
16096:-5.8113394359314043e-02
16097:-5.5412524644295594e-02
16098:-8.3370949483310017e-02
16099:-1.1164762957860846e-01
16100:-1.0613151539212923e-01
16101:-1.0296719517491874e-01
16102:-1.4088656743687936e-01
16103:-1.7726391045077597e-01
16104:-8.5955254138822490e-02
16105:-7.0056067157562227e-02
16106:-9.2775741580934851e-02
16107:-1.2006687131711810e-01
16108:-7.0577950895883779e-03
16109:9.8147317644768153e-03
16110:1.8073850926010996e-02
16111:2.6656511207193079e-02
16112:-1.2371630099929927e-01
16113:-1.3028833914871804e-01
16114:-1.1851808769167030e-01
16115:-1.0523601049021400e-01
16116:-1.9145792636273981e-01
16117:-1.9400741987637538e-01
16118:-1.6635962027930554e-01
16119:-1.3776314933694089e-01
16120:-1.3045036871254079e-01
16121:-1.2378768596471207e-01
16122:-8.3918622611590360e-02
16123:-5.0030588163020855e-02
16124:3.6011294746311227e-02
16125:6.6637784604352795e-02
16126:1.0868425410802603e-01
16127:1.2112081083135826e-01
16128:-9.9765837225580536e-02
16129:-9.2671261399498980e-02
16130:-8.7421236864675289e-02
16131:-8.4858015153848387e-02
16132:-1.2471136511775816e-01
16133:-1.0974506976950957e-01
16134:-1.0448693027675732e-01
16135:-1.0700684056520049e-01
16136:-3.7260863005940913e-02
16137:-3.4942947752689621e-02
16138:-5.7977673011420823e-02
16139:-7.9446276291739490e-02
16140:1.1441932714315246e-01
16141:7.5261241317977193e-02
16142:6.8898713611533925e-03
16143:-2.7932390934765603e-02
16144:-8.3968390922260522e-02
16145:-8.9270271328526357e-02
16146:-1.0614628481003666e-01
16147:-1.2218201134594435e-01
16148:-1.0943648105193947e-01
16149:-1.1484139606264113e-01
16150:-1.2079046005961933e-01
16151:-1.2208324545360601e-01
16152:-8.7172507681626932e-02
16153:-8.6024578618901421e-02
16154:-6.6829548940433206e-02
16155:-5.1279693672848112e-02
16156:-3.1290061842183817e-02
16157:-7.0411749898408220e-03
16158:4.6547616277913623e-02
16159:7.0996621750396574e-02
16160:-1.2992064379190899e-01
16161:-1.3229793372029117e-01
16162:-1.1550629567795787e-01
16163:-9.2748832372361298e-02
16164:-1.2068919575405514e-01
16165:-1.1057512577912544e-01
16166:-8.7261462049959604e-02
16167:-6.6360354285777884e-02
16168:-4.6484894202004454e-02
16169:-4.7183054434879898e-02
16170:-5.6378135477191393e-02
16171:-5.9966045391778473e-02
16172:6.8504309715984174e-02
16173:3.3560941300367707e-02
16174:-3.5620235079692877e-02
16175:-7.5442391623986790e-02
16176:-7.9586188579122030e-02
16177:-6.9437944690911538e-02
16178:-8.1595776678867860e-02
16179:-1.0465448780194873e-01
16180:-5.6148217462315075e-02
16181:-4.9883071423901769e-02
16182:-6.2304086640893729e-02
16183:-8.1445105796170023e-02
16184:-5.8083248743654087e-02
16185:-5.0853174971107883e-02
16186:-4.1033014549742161e-02
16187:-3.8420456294439187e-02
16188:-8.3061726646949802e-02
16189:-7.1139311427721508e-02
16190:-3.0643850311116782e-02
16191:-3.4338862613162865e-03
16192:-1.1944697736495510e-01
16193:-1.3867200080244352e-01
16194:-1.4869244816139462e-01
16195:-1.4860959924100758e-01
16196:-9.2780078200443525e-02
16197:-1.0672335371867270e-01
16198:-1.1308531852623308e-01
16199:-1.1273900687906614e-01
16200:-4.0114632009440591e-02
16201:-4.7017080226378877e-02
16202:-6.0391517054672786e-02
16203:-7.1909344143514103e-02
16204:3.1190242174478707e-03
16205:-1.9145697608993883e-03
16206:-2.9829963784358617e-02
16207:-5.6519718261585382e-02
16208:-1.4681454080694201e-01
16209:-1.3946944322039415e-01
16210:-1.2210152853443201e-01
16211:-1.0310659863202819e-01
16212:-1.1164088323986383e-01
16213:-1.0577921876370630e-01
16214:-9.0597471446448849e-02
16215:-7.3648766409283750e-02
16216:-7.7662654843835957e-02
16217:-8.3365867841290894e-02
16218:-8.1279613285485677e-02
16219:-7.3540476874155769e-02
16220:-6.9337745095541387e-02
16221:-8.7112847000333463e-02
16222:-9.9879116369233994e-02
16223:-1.0366289041448777e-01
16224:-9.1560353939104069e-02
16225:-7.5995675415518854e-02
16226:-6.7652420232218180e-02
16227:-6.8787928664272788e-02
16228:-6.3355326853993504e-02
16229:-5.0189597376106745e-02
16230:-4.5354691176313036e-02
16231:-4.9782114984198704e-02
16232:-6.7947651996934866e-02
16233:-6.1363659554771709e-02
16234:-6.0640150571471992e-02
16235:-6.5084796307609424e-02
16236:-1.0423465147310230e-01
16237:-1.0477805901197322e-01
16238:-1.0390649282614176e-01
16239:-1.0119896851572173e-01
16240:-7.1151017862977756e-02
16241:-7.1125076720005162e-02
16242:-6.2760294695211161e-02
16243:-5.1741424858926729e-02
16244:-5.4237311341968221e-02
16245:-5.9179009176616969e-02
16246:-5.8129352406044624e-02
16247:-5.2189894363444359e-02
16248:-6.8599108494173860e-02
16249:-7.1469557784650140e-02
16250:-6.7772057961901264e-02
16251:-6.0173994193944029e-02
16252:-9.8696812966046571e-02
16253:-9.0659435832050564e-02
16254:-7.6111464359196329e-02
16255:-6.4342550433491727e-02
16256:-4.4994470390578314e-02
16257:-3.5219781470103184e-02
16258:-2.7953025923381416e-02
16259:-2.5643816924652982e-02
16260:-4.7586523214395757e-02
16261:-3.9966195330006636e-02
16262:-3.2401986022825645e-02
16263:-2.8098541988322959e-02
16264:-5.4897714864572546e-02
16265:-4.6106599246024123e-02
16266:-3.6646221724099065e-02
16267:-3.0176018514158007e-02
16268:-5.8637195101706223e-02
16269:-5.0236349575382748e-02
16270:-4.1780685410620376e-02
16271:-3.5240637163983561e-02
16272:-2.5249959001040843e-02
16273:-2.5093922975728655e-02
16274:-2.5990575581464597e-02
16275:-2.7632004955914179e-02
16276:-2.6281336221234648e-02
16277:-2.4509624553641630e-02
16278:-2.5930448413971362e-02
16279:-3.0200974738648915e-02
16280:-2.6859621608547844e-02
16281:-2.2272763472525669e-02
16282:-2.0884506159032729e-02
16283:-2.4318523602416969e-02
16284:-3.1187808460983239e-02
16285:-2.2971369601448278e-02
16286:-1.3223065929346902e-02
16287:-8.3183372380711551e-03
