x	y	stress_xx
 1.0000000000e+00	 0.0000000000e+00	-9.7434836634e-03
 9.9996528199e-01	 8.3330488405e-03	-8.5616297240e-03
 9.9986065485e-01	 1.6693912862e-02	-2.9984574218e-03
 9.9968541457e-01	 2.5081865916e-02	 6.9400846345e-03
 9.9943886492e-01	 3.3496165499e-02	 2.1246768787e-02
 9.9912031795e-01	 4.1936052786e-02	 3.9913325456e-02
 9.9872909431e-01	 5.0400752668e-02	 6.2930691490e-02
 9.9826452377e-01	 5.8889473803e-02	 9.0289269009e-02
 9.9772594558e-01	 6.7401408683e-02	 1.2197919392e-01
 9.9711270890e-01	 7.5935733705e-02	 1.5799061318e-01
 9.9642417327e-01	 8.4491609256e-02	 1.9831396978e-01
 1.0088234573e+00	 0.0000000000e+00	 2.5544690330e-01
 1.0087884330e+00	 8.4065751451e-03	 2.5687068105e-01
 1.0086828827e+00	 1.6841210896e-02	 2.6234430277e-01
 1.0085060962e+00	 2.5303174698e-02	 2.7185930057e-01
 1.0082573711e+00	 3.3791717495e-02	 2.8540562234e-01
 1.0079360134e+00	 4.2306073768e-02	 3.0297187426e-01
 1.0075413379e+00	 5.0845461567e-02	 3.2454557547e-01
 1.0070726682e+00	 5.9409082570e-02	 3.5011342425e-01
 1.0065293379e+00	 6.7996122144e-02	 3.7966157477e-01
 1.0059106903e+00	 7.6605749417e-02	 4.1317592351e-01
 1.0052160794e+00	 8.5237117371e-02	 4.5064240432e-01
 1.0176467822e+00	 0.0000000000e+00	 5.0822935956e-01
 1.0176114515e+00	 8.4801003449e-03	 5.0982949081e-01
 1.0175049780e+00	 1.6988506717e-02	 5.1514981152e-01
 1.0173266453e+00	 2.5524480155e-02	 5.2418069902e-01
 1.0170757449e+00	 3.4087265052e-02	 5.3691067588e-01
 1.0167515765e+00	 4.2676089192e-02	 5.5332665737e-01
 1.0163534491e+00	 5.1290163788e-02	 5.7341421205e-01
 1.0158806804e+00	 5.9928683534e-02	 5.9715783467e-01
 1.0153325980e+00	 6.8590826674e-02	 6.2454123068e-01
 1.0147085397e+00	 7.7275755068e-02	 6.5554761121e-01
 1.0140078536e+00	 8.5982614290e-02	 6.9015999768e-01
 1.0264699920e+00	 0.0000000000e+00	 7.4786451867e-01
 1.0264343550e+00	 8.5536245858e-03	 7.4957347550e-01
 1.0263269584e+00	 1.7135800618e-02	 7.5467554331e-01
 1.0261470795e+00	 2.5745782726e-02	 7.6316126465e-01
 1.0258940037e+00	 3.4382808755e-02	 7.7501909012e-01
 1.0255670248e+00	 4.3046099791e-02	 7.9023563040e-01
 1.0251654454e+00	 5.1734860210e-02	 8.0879592224e-01
 1.0246885777e+00	 6.0448277725e-02	 8.3068370769e-01
 1.0241357434e+00	 6.9185523451e-02	 8.5588172578e-01
 1.0235062743e+00	 7.7945751986e-02	 8.8437201561e-01
 1.0227995132e+00	 8.6728101492e-02	 9.1613622983e-01
 1.0352931043e+00	 0.0000000000e+00	 9.7363840903e-01
 1.0352571610e+00	 8.6271480136e-03	 9.7538674684e-01
 1.0351488413e+00	 1.7283092889e-02	 9.8020443054e-01
 1.0349674162e+00	 2.5967082851e-02	 9.8808344452e-01
 1.0347121651e+00	 3.4678349190e-02	 9.9901347618e-01
 1.0343823756e+00	 4.3416106301e-02	 1.0129821720e+00
 1.0339773444e+00	 5.2179551718e-02	 1.0299754088e+00
 1.0334963778e+00	 6.0967866172e-02	 1.0499775782e+00
 1.0329387915e+00	 6.9780213656e-02	 1.0729718859e+00
 1.0323039118e+00	 7.8615741499e-02	 1.0989406616e+00
 1.0315910756e+00	 8.7473580456e-02	 1.1278656810e+00
 1.0441161367e+00	 0.0000000000e+00	 1.1848613919e+00
 1.0440798870e+00	 8.7006707743e-03	 1.1865777877e+00
 1.0439706441e+00	 1.7430383825e-02	 1.1910437974e+00
 1.0437876729e+00	 2.6188380968e-02	 1.1982540814e+00
 1.0435302465e+00	 3.4973886945e-02	 1.2082008294e+00
 1.0431976464e+00	 4.3786109454e-02	 1.2208740195e+00
 1.0427891635e+00	 5.2624239192e-02	 1.2362616938e+00
 1.0423040979e+00	 6.1487449908e-02	 1.2543502497e+00
 1.0417417598e+00	 7.0374898468e-02	 1.2751247435e+00
 1.0411014694e+00	 7.9285724937e-02	 1.2985692088e+00
 1.0403825583e+00	 8.8219052661e-02	 1.3246669862e+00
 1.0529391065e+00	 0.0000000000e+00	 1.3808671532e+00
 1.0529025505e+00	 8.7741930137e-03	 1.3824784415e+00
 1.0527923845e+00	 1.7577673716e-02	 1.3865243474e+00
 1.0526078672e+00	 2.6409677516e-02	 1.3930034013e+00
 1.0523482654e+00	 3.5269422605e-02	 1.4019115174e+00
 1.0520128549e+00	 4.4156109986e-02	 1.4132422575e+00
 1.0516009202e+00	 5.3068923516e-02	 1.4269871105e+00
 1.0511117557e+00	 6.2007029962e-02	 1.4431357882e+00
 1.0505446657e+00	 7.0969579067e-02	 1.4616765354e+00
 1.0498989648e+00	 7.9955703628e-02	 1.4825964547e+00
 1.0491739787e+00	 8.8964519584e-02	 1.5058818431e+00
 1.0617620313e+00	 0.0000000000e+00	 1.5610117454e+00
 1.0617251691e+00	 8.8477148777e-03	 1.5624429514e+00
 1.0616140799e+00	 1.7724962855e-02	 1.5659992024e+00
 1.0614280165e+00	 2.6630972935e-02	 1.5716840511e+00
 1.0611662394e+00	 3.5564956757e-02	 1.5794983182e+00
 1.0608280183e+00	 4.4526108629e-02	 1.5894403586e+00
 1.0604126319e+00	 5.3513605570e-02	 1.6015063450e+00
 1.0599193686e+00	 6.2526607365e-02	 1.6156905681e+00
 1.0593475267e+00	 7.1564256632e-02	 1.6319857523e+00
 1.0586964153e+00	 8.0625678901e-02	 1.6503833868e+00
 1.0579653543e+00	 8.9709982704e-02	 1.6708740693e+00
 1.0705849287e+00	 0.0000000000e+00	 1.7246726776e+00
 1.0705477601e+00	 8.9212365123e-03	 1.7258470487e+00
 1.0704357479e+00	 1.7872251535e-02	 1.7288429880e+00
 1.0702481382e+00	 2.6852267663e-02	 1.7336701848e+00
 1.0699841859e+00	 3.5860489987e-02	 1.7403355071e+00
 1.0696431543e+00	 4.4896106119e-02	 1.7488432707e+00
 1.0692243162e+00	 5.3958286238e-02	 1.7591955262e+00
 1.0687269540e+00	 6.3046183148e-02	 1.7713923638e+00
 1.0681503603e+00	 7.2158932343e-02	 1.7854322338e+00
 1.0674938383e+00	 8.1295652086e-02	 1.8013122835e+00
 1.0667567025e+00	 9.0455443500e-02	 1.8190287074e+00
 1.0794078160e+00	 0.0000000000e+00	 1.8712480500e+00
 1.0793703411e+00	 8.9947580632e-03	 1.8720870846e+00
 1.0792574058e+00	 1.8019540047e-02	 1.8744509657e+00
 1.0790682500e+00	 2.7073562140e-02	 1.8783565945e+00
 1.0788021224e+00	 3.6156022882e-02	 1.8838179878e+00
 1.0784582803e+00	 4.5266103188e-02	 1.8908465495e+00
 1.0780359905e+00	 5.4402966401e-02	 1.8994513606e+00
 1.0775345294e+00	 6.3565758341e-02	 1.9096394880e+00
 1.0769531839e+00	 7.2753607379e-02	 1.9214163100e+00
 1.0762912514e+00	 8.1965624510e-02	 1.9347858581e+00
 1.0755480407e+00	 9.1200903452e-02	 1.9497511742e+00
 1.0882307108e+00	 0.0000000000e+00	 2.0001557309e+00
 1.0881929296e+00	 9.0682796764e-03	 2.0005792056e+00
 1.0880790712e+00	 1.8166828684e-02	 2.0022382060e+00
 1.0878883693e+00	 2.7294856805e-02	 2.0051578835e+00
 1.0876200664e+00	 3.6451556027e-02	 2.0093604664e+00
 1.0872734138e+00	 4.5636100571e-02	 2.0148655341e+00
 1.0868476722e+00	 5.4847646941e-02	 2.0216903093e+00
 1.0863421123e+00	 6.4085333976e-02	 2.0298499709e+00
 1.0857560150e+00	 7.3348282920e-02	 2.0393579839e+00
 1.0850886720e+00	 8.2635597504e-02	 2.0502264461e+00
 1.0843393864e+00	 9.1946364036e-02	 2.0624664511e+00
 9.9642417327e-01	 8.4491609256e-02	 1.9831396978e-01
 9.9565957252e-01	 9.3069636226e-02	 2.4300849103e-01
 9.9481839835e-01	 1.0166747288e-01	 2.9210308560e-01
 9.9390004351e-01	 1.1028421068e-01	 3.4556451153e-01
 9.9290391285e-01	 1.1891892497e-01	 4.0335941395e-01
 9.9182942379e-01	 1.2757067517e-01	 4.6545463254e-01
 9.9067600676e-01	 1.3623850489e-01	 5.3181751046e-01
 9.8944310564e-01	 1.4492144212e-01	 6.0241620314e-01
 9.8813017818e-01	 1.5361849940e-01	 6.7721998511e-01
 9.8673669648e-01	 1.6232867404e-01	 7.5619955305e-01
 9.8526214738e-01	 1.7105094831e-01	 8.3932732307e-01
 1.0052160794e+00	 8.5237117371e-02	 4.5064240432e-01
 1.0044447323e+00	 9.3890832195e-02	 4.9209995993e-01
 1.0035961360e+00	 1.0256453149e-01	 5.3754976480e-01
 1.0026696781e+00	 1.1125729871e-01	 5.8694136259e-01
 1.0016647582e+00	 1.1996820103e-01	 6.4022449197e-01
 1.0005807884e+00	 1.2869628959e-01	 6.9734943578e-01
 9.9941719423e-01	 1.3744059953e-01	 7.5826737229e-01
 9.9817341465e-01	 1.4620015028e-01	 8.2293072689e-01
 9.9684890263e-01	 1.5497394568e-01	 8.9129352234e-01
 9.9544312560e-01	 1.6376097417e-01	 9.6331172549e-01
 9.9395556588e-01	 1.7256020906e-01	 1.0389435886e+00
 1.0140078536e+00	 8.5982614290e-02	 6.9015999768e-01
 1.0132297601e+00	 9.4712015832e-02	 7.2840736583e-01
 1.0123737419e+00	 1.0346157664e-01	 7.7027434088e-01
 1.0114391811e+00	 1.1223037213e-01	 8.1569613310e-01
 1.0104254719e+00	 1.2101746134e-01	 8.6460839227e-01
 1.0093320216e+00	 1.2982188710e-01	 9.1694759428e-01
 1.0081582504e+00	 1.3864267612e-01	 9.7265143064e-01
 1.0069035926e+00	 1.4747883925e-01	 1.0316591989e+00
 1.0055674962e+00	 1.5632937160e-01	 1.0939121922e+00
 1.0041494240e+00	 1.6519325279e-01	 1.1593540855e+00
 1.0026488538e+00	 1.7406944714e-01	 1.2279313165e+00
 1.0227995132e+00	 8.6728101492e-02	 9.1613622983e-01
 1.0220146734e+00	 9.5533188766e-02	 9.5120209430e-01
 1.0211512334e+00	 1.0435861009e-01	 9.8954723977e-01
 1.0202085697e+00	 1.1320343286e-01	 1.0310953278e+00
 1.0191860715e+00	 1.2206670797e-01	 1.0757706411e+00
 1.0180831407e+00	 1.3094746993e-01	 1.1234985035e+00
 1.0168991927e+00	 1.3984473704e-01	 1.1742057035e+00
 1.0156336567e+00	 1.4875751154e-01	 1.2278209197e+00
 1.0142859761e+00	 1.5768477986e-01	 1.2842751453e+00
 1.0128556089e+00	 1.6662551275e-01	 1.3435021098e+00
 1.0113420285e+00	 1.7557866555e-01	 1.4054386960e+00
 1.0315910756e+00	 8.7473580456e-02	 1.1278656810e+00
 1.0307994897e+00	 9.6354352626e-02	 1.1597805908e+00
 1.0299286279e+00	 1.0525563362e-01	 1.1946640068e+00
 1.0289778614e+00	 1.1417648284e-01	 1.2324307330e+00
 1.0279465742e+00	 1.2311594301e-01	 1.2729963135e+00
 1.0268341631e+00	 1.3207304034e-01	 1.3162774826e+00
 1.0256400384e+00	 1.4104678467e-01	 1.3621926180e+00
 1.0243636244e+00	 1.5003616971e-01	 1.4106621972e+00
 1.0230043596e+00	 1.5904017314e-01	 1.4616092530e+00
 1.0215616976e+00	 1.6805775688e-01	 1.5149598273e+00
 1.0200351071e+00	 1.7708786729e-01	 1.5706434196e+00
 1.0403825583e+00	 8.8219052661e-02	 1.3246669862e+00
 1.0395842263e+00	 9.7175509039e-02	 1.3534633188e+00
 1.0387059428e+00	 1.0615264903e-01	 1.3849442644e+00
 1.0377470737e+00	 1.1514952401e-01	 1.4190183692e+00
 1.0367069976e+00	 1.2416516854e-01	 1.4555949774e+00
 1.0355851062e+00	 1.3319860053e-01	 1.4945847056e+00
 1.0343808048e+00	 1.4224882141e-01	 1.5358999237e+00
 1.0330935129e+00	 1.5131481628e-01	 1.5794552373e+00
 1.0317226641e+00	 1.6039555413e-01	 1.6251679712e+00
 1.0302677074e+00	 1.6948998802e-01	 1.6729586506e+00
 1.0287281069e+00	 1.7859705534e-01	 1.7227514777e+00
 1.0491739787e+00	 8.8964519584e-02	 1.5058818431e+00
 1.0483689007e+00	 9.7996659635e-02	 1.5315937709e+00
 1.0474831955e+00	 1.0704965808e-01	 1.5597307226e+00
 1.0465162238e+00	 1.1612255827e-01	 1.5901974984e+00
 1.0454673588e+00	 1.2521438663e-01	 1.6228996917e+00
 1.0443359873e+00	 1.3432415275e-01	 1.6577441867e+00
 1.0431215094e+00	 1.4345084964e-01	 1.6946396611e+00
 1.0418233396e+00	 1.5259345380e-01	 1.7334970917e+00
 1.0404409069e+00	 1.6175092552e-01	 1.7742302621e+00
 1.0389736555e+00	 1.7092220902e-01	 1.8167562672e+00
 1.0374210451e+00	 1.8010623270e-01	 1.8609960150e+00
 1.0579653543e+00	 8.9709982704e-02	 1.6708740693e+00
 1.0571535302e+00	 9.8817806043e-02	 1.6935375297e+00
 1.0562604034e+00	 1.0794666255e-01	 1.7183882402e+00
 1.0552853291e+00	 1.1709558758e-01	 1.7453296796e+00
 1.0542276754e+00	 1.2626359937e-01	 1.7742660551e+00
 1.0530868237e+00	 1.3544969924e-01	 1.8051028173e+00
 1.0518621693e+00	 1.4465287173e-01	 1.8377471828e+00
 1.0505531217e+00	 1.5387208479e-01	 1.8721086588e+00
 1.0491591052e+00	 1.6310629000e-01	 1.9080995708e+00
 1.0476795592e+00	 1.7235442272e-01	 1.9456355879e+00
 1.0461139390e+00	 1.8161540236e-01	 1.9846362450e+00
 1.0667567025e+00	 9.0455443500e-02	 1.8190287074e+00
 1.0659381324e+00	 9.9638949891e-02	 1.8386813758e+00
 1.0650375840e+00	 1.0884366423e-01	 1.8603029318e+00
 1.0640544072e+00	 1.1806861385e-01	 1.8837978737e+00
 1.0629879647e+00	 1.2731280884e-01	 1.9090713025e+00
 1.0618376329e+00	 1.3657524221e-01	 1.9360294514e+00
 1.0606028020e+00	 1.4585489007e-01	 1.9645802240e+00
 1.0592828766e+00	 1.5515071180e-01	 1.9946337349e+00
 1.0578772763e+00	 1.6446165025e-01	 2.0261028535e+00
 1.0563854358e+00	 1.7378663194e-01	 2.0589037472e+00
 1.0548068057e+00	 1.8312456732e-01	 2.0929564200e+00
 1.0755480407e+00	 9.1200903452e-02	 1.9497511742e+00
 1.0747227247e+00	 1.0046009281e-01	 1.9664324401e+00
 1.0738147547e+00	 1.0974066489e-01	 1.9848813204e+00
 1.0728234753e+00	 1.1904163902e-01	 2.0050055916e+00
 1.0717482441e+00	 1.2836201712e-01	 2.0267134468e+00
 1.0705884322e+00	 1.3770078391e-01	 2.0499140367e+00
 1.0693434248e+00	 1.4705690705e-01	 2.0745180192e+00
 1.0680126217e+00	 1.5642933736e-01	 2.1004381132e+00
 1.0665954375e+00	 1.6581700897e-01	 2.1275896552e+00
 1.0650913025e+00	 1.7521883955e-01	 2.1558911555e+00
 1.0634996626e+00	 1.8463373057e-01	 2.1852648518e+00
 1.0843393864e+00	 9.1946364036e-02	 2.0624664511e+00
 1.0835073244e+00	 1.0128123642e-01	 2.0762173976e+00
 1.0825919328e+00	 1.1063766632e-01	 2.0915495310e+00
 1.0815925508e+00	 1.2001466501e-01	 2.1083760848e+00
 1.0805085309e+00	 1.2941122629e-01	 2.1266104627e+00
 1.0793392389e+00	 1.3882632656e-01	 2.1461667885e+00
 1.0780840550e+00	 1.4825892506e-01	 2.1669604630e+00
 1.0767423742e+00	 1.5770796401e-01	 2.1889087279e+00
 1.0753136062e+00	 1.6717236883e-01	 2.2119312317e+00
 1.0737971766e+00	 1.7665104837e-01	 2.2359505968e+00
 1.0721925270e+00	 1.8614289510e-01	 2.2608929829e+00
 9.8526214738e-01	 1.7105094831e-01	 8.3932732307e-01
 9.8370630427e-01	 1.7978280468e-01	 9.2663626791e-01
 9.8206844073e-01	 1.8852468015e-01	 1.0180445628e+00
 9.8034808995e-01	 1.9727551623e-01	 1.1133136652e+00
 9.7854480164e-01	 2.0603424041e-01	 1.2122097868e+00
 9.7665814235e-01	 2.1479976648e-01	 1.3145044645e+00
 9.7468769596e-01	 2.2357099480e-01	 1.4199751171e+00
 9.7263306406e-01	 2.3234681259e-01	 1.5284055849e+00
 9.7049386637e-01	 2.4112609427e-01	 1.6395866488e+00
 9.6826974115e-01	 2.4990770180e-01	 1.7533165273e+00
 9.6596034556e-01	 2.5869048500e-01	 1.8694013476e+00
 9.9395556588e-01	 1.7256020906e-01	 1.0389435886e+00
 9.9238599486e-01	 1.8136911059e-01	 1.1182617738e+00
 9.9073367969e-01	 1.9018811962e-01	 1.2012305858e+00
 9.8899814948e-01	 1.9901616833e-01	 1.2876115300e+00
 9.8717894993e-01	 2.0785217474e-01	 1.3771710679e+00
 9.8527564378e-01	 2.1669504306e-01	 1.4696812086e+00
 9.8328781124e-01	 2.2554366393e-01	 1.5649200848e+00
 9.8121505038e-01	 2.3439691478e-01	 1.6626725111e+00
 9.7905697758e-01	 2.4325366008e-01	 1.7627305219e+00
 9.7681322788e-01	 2.5211275175e-01	 1.8648938859e+00
 9.7448345545e-01	 2.6097302946e-01	 1.9689705938e+00
 1.0026488538e+00	 1.7406944714e-01	 1.2279313165e+00
 1.0010655551e+00	 1.8295539268e-01	 1.2997504708e+00
 9.9939878854e-01	 1.9185153412e-01	 1.3748153995e+00
 9.9764807911e-01	 2.0075679429e-01	 1.4528884957e+00
 9.9581296856e-01	 2.0967008177e-01	 1.5337373449e+00
 9.9389301581e-01	 2.1859029117e-01	 1.6171353350e+00
 9.9188779738e-01	 2.2751630344e-01	 1.7028622529e+00
 9.8979690784e-01	 2.3644698618e-01	 1.7907048612e+00
 9.8761996020e-01	 2.4538119393e-01	 1.8804574549e+00
 9.8535658633e-01	 2.5431776858e-01	 1.9719223930e+00
 9.8300643735e-01	 2.6325553964e-01	 2.0649106028e+00
 1.0113420285e+00	 1.7557866555e-01	 1.4054386960e+00
 1.0097450022e+00	 1.8454165409e-01	 1.4702216175e+00
 1.0080637845e+00	 1.9351492693e-01	 1.5378896814e+00
 1.0062978960e+00	 2.0249739757e-01	 1.6082069671e+00
 1.0044468747e+00	 2.1148796511e-01	 1.6809430143e+00
 1.0025102755e+00	 2.2048551459e-01	 1.7558734537e+00
 1.0004876714e+00	 2.2948891725e-01	 1.8327806225e+00
 9.9837865345e-01	 2.3849703086e-01	 1.9114541611e+00
 9.9618283122e-01	 2.4750870006e-01	 1.9916915873e+00
 9.9389983343e-01	 2.5652275667e-01	 2.0732988455e+00
 9.9152930816e-01	 2.6553802007e-01	 2.1560908280e+00
 1.0200351071e+00	 1.7708786729e-01	 1.5706434196e+00
 1.0184243535e+00	 1.8612789797e-01	 1.6288249794e+00
 1.0167286846e+00	 1.9517830137e-01	 1.6895756034e+00
 1.0149476173e+00	 2.0423798161e-01	 1.7526618141e+00
 1.0130806854e+00	 2.1330582836e-01	 1.8178558941e+00
 1.0111274400e+00	 2.2238071706e-01	 1.8849365379e+00
 1.0090874505e+00	 2.3146150925e-01	 1.9536894868e+00
 1.0069603042e+00	 2.4054705289e-01	 2.0239081445e+00
 1.0047456076e+00	 2.4963618268e-01	 2.0953941703e+00
 1.0024429861e+00	 2.5872772040e-01	 2.1679580455e+00
 1.0000520848e+00	 2.6782047528e-01	 2.2414196102e+00
 1.0287281069e+00	 1.7859705534e-01	 1.7227514777e+00
 1.0271036260e+00	 1.8771412747e-01	 1.7747395841e+00
 1.0253935062e+00	 1.9684166072e-01	 1.8290255478e+00
 1.0235972602e+00	 2.0597854987e-01	 1.8853790505e+00
 1.0217144178e+00	 2.1512367513e-01	 1.9435758655e+00
 1.0197445264e+00	 2.2427590234e-01	 2.0033985298e+00
 1.0176871515e+00	 2.3343408337e-01	 2.0646370000e+00
 1.0155418772e+00	 2.4259705633e-01	 2.1270892866e+00
 1.0133083064e+00	 2.5176364600e-01	 2.1905620658e+00
 1.0109860614e+00	 2.6093266413e-01	 2.2548712634e+00
 1.0085747842e+00	 2.7010290979e-01	 2.3198426080e+00
 1.0374210451e+00	 1.8010623270e-01	 1.8609960150e+00
 1.0357828370e+00	 1.8930034574e-01	 1.9071725404e+00
 1.0340582665e+00	 1.9850500829e-01	 1.9554208904e+00
 1.0322468419e+00	 2.0771910580e-01	 2.0055145816e+00
 1.0303480891e+00	 2.1694150902e-01	 2.0572335846e+00
 1.0283615517e+00	 2.2617107421e-01	 2.1103650172e+00
 1.0262867917e+00	 2.3540664351e-01	 2.1647038205e+00
 1.0241233894e+00	 2.4464704525e-01	 2.2200534134e+00
 1.0218709445e+00	 2.5389109426e-01	 2.2762263220e+00
 1.0195290761e+00	 2.6313759225e-01	 2.3330447820e+00
 1.0170974231e+00	 2.7238532814e-01	 2.3903413076e+00
 1.0461139390e+00	 1.8161540236e-01	 1.9846362450e+00
 1.0444620038e+00	 1.9088655592e-01	 2.0253579183e+00
 1.0427229825e+00	 2.0016834737e-01	 2.0679708456e+00
 1.0408963794e+00	 2.0945965286e-01	 2.1122530148e+00
 1.0389817163e+00	 2.1875933364e-01	 2.1579892604e+00
 1.0369785331e+00	 2.2806623640e-01	 2.2049719787e+00
 1.0348863879e+00	 2.3737919359e-01	 2.2530018238e+00
 1.0327048578e+00	 2.4669702371e-01	 2.3018883826e+00
 1.0304335389e+00	 2.5601853167e-01	 2.3514508232e+00
 1.0280720472e+00	 2.6534250911e-01	 2.4015185142e+00
 1.0256200187e+00	 2.7466773484e-01	 2.4519316107e+00
 1.0548068057e+00	 1.8312456732e-01	 2.0929564200e+00
 1.0531411436e+00	 1.9247276115e-01	 2.1285556847e+00
 1.0513876715e+00	 2.0183168127e-01	 2.1659113696e+00
 1.0495458899e+00	 2.1120019449e-01	 2.2048065311e+00
 1.0476153166e+00	 2.2057715259e-01	 2.2450314948e+00
 1.0455954876e+00	 2.2996139269e-01	 2.2863845928e+00
 1.0434859574e+00	 2.3935173753e-01	 2.3286728806e+00
 1.0412862995e+00	 2.4874699579e-01	 2.3717128322e+00
 1.0389961067e+00	 2.5814596244e-01	 2.4153310081e+00
 1.0366149917e+00	 2.6754741911e-01	 2.4593646922e+00
 1.0341425876e+00	 2.7695013443e-01	 2.5036624943e+00
 1.0634996626e+00	 1.8463373057e-01	 2.1852648518e+00
 1.0618202734e+00	 1.9405896458e-01	 2.2160506936e+00
 1.0600523507e+00	 2.0349501329e-01	 2.2485041196e+00
 1.0581953907e+00	 2.1294073414e-01	 2.2824138138e+00
 1.0562489071e+00	 2.2239496948e-01	 2.3175761810e+00
 1.0542124324e+00	 2.3185654683e-01	 2.3537961071e+00
 1.0520855171e+00	 2.4132427923e-01	 2.3908876971e+00
 1.0498677314e+00	 2.5079696554e-01	 2.4286749916e+00
 1.0475586647e+00	 2.6027339081e-01	 2.4669926532e+00
 1.0451579266e+00	 2.6975232661e-01	 2.5056866228e+00
 1.0426651469e+00	 2.7923253144e-01	 2.5446147381e+00
 1.0721925270e+00	 1.8614289510e-01	 2.2608929829e+00
 1.0704994107e+00	 1.9564516936e-01	 2.2871517262e+00
 1.0687170373e+00	 2.0515834672e-01	 2.3150354647e+00
 1.0668448987e+00	 2.1468127528e-01	 2.3443390304e+00
 1.0648825050e+00	 2.2421278792e-01	 2.3748654573e+00
 1.0628293844e+00	 2.3375170258e-01	 2.4064267638e+00
 1.0606850842e+00	 2.4329682261e-01	 2.4388447137e+00
 1.0584491706e+00	 2.5284693703e-01	 2.4719515530e+00
 1.0561212300e+00	 2.6240082098e-01	 2.5055907174e+00
 1.0537008686e+00	 2.7195723598e-01	 2.5396175057e+00
 1.0511877135e+00	 2.8151493038e-01	 2.5738997166e+00
 9.6596034556e-01	 2.5869048500e-01	 1.8694013476e+00
 9.6356535632e-01	 2.6747328204e-01	 1.9879491878e+00
 9.6108447067e-01	 2.7625492019e-01	 2.1089579525e+00
 9.5851740614e-01	 2.8503421588e-01	 2.2320815063e+00
 9.5586390071e-01	 2.9380997494e-01	 2.3569832461e+00
 9.5312371316e-01	 3.0258099304e-01	 2.4833366591e+00
 9.5029662344e-01	 3.1134605611e-01	 2.6108258425e+00
 9.4738243296e-01	 3.2010394073e-01	 2.7391459826e+00
 9.4438096497e-01	 3.2885341468e-01	 2.8680037904e+00
 9.4129206486e-01	 3.3759323727e-01	 2.9971178909e+00
 9.3811560045e-01	 3.4632215993e-01	 3.1262191634e+00
 9.7448345545e-01	 2.6097302946e-01	 1.9689705938e+00
 9.7206733412e-01	 2.6983332113e-01	 2.0751001089e+00
 9.6956455848e-01	 2.7869244369e-01	 2.1833620469e+00
 9.6697484357e-01	 2.8754920312e-01	 2.2934881687e+00
 9.6429792505e-01	 2.9640239472e-01	 2.4052201005e+00
 9.6153355958e-01	 3.0525080353e-01	 2.5183098025e+00
 9.5868152515e-01	 3.1409320475e-01	 2.6325199971e+00
 9.5574162144e-01	 3.2292836420e-01	 2.7476245526e+00
 9.5271367013e-01	 3.3175503876e-01	 2.8634088209e+00
 9.4959751524e-01	 3.4057197680e-01	 2.9796699243e+00
 9.4639302343e-01	 3.4937791874e-01	 3.0962169914e+00
 9.8300643735e-01	 2.6325553964e-01	 2.0649106028e+00
 9.8056918426e-01	 2.7219332478e-01	 2.1595844264e+00
 9.7804451896e-01	 2.8112993059e-01	 2.2560841303e+00
 9.7543215400e-01	 2.9006415260e-01	 2.3542016667e+00
 9.7273182274e-01	 2.9899477557e-01	 2.4537392393e+00
 9.6994327971e-01	 3.0792057392e-01	 2.5545097072e+00
 9.6706630095e-01	 3.1684031214e-01	 2.6563369459e+00
 9.6410068439e-01	 3.2575274526e-01	 2.7590561608e+00
 9.6104625015e-01	 3.3465661926e-01	 2.8625141504e+00
 9.5790284089e-01	 3.4355067160e-01	 2.9665695171e+00
 9.5467032212e-01	 3.5243363166e-01	 3.0710928229e+00
 9.9152930816e-01	 2.6553802007e-01	 2.1560908280e+00
 9.8907092358e-01	 2.7455329767e-01	 2.2402463583e+00
 9.8652436891e-01	 2.8356738572e-01	 2.3259477347e+00
 9.8388935420e-01	 2.9257906930e-01	 2.4130298463e+00
 9.8116561051e-01	 3.0158712263e-01	 2.5013382733e+00
 9.7835289023e-01	 3.1059030952e-01	 2.5907296514e+00
 9.7545096747e-01	 3.1958738373e-01	 2.6810719885e+00
 9.7245963839e-01	 3.2857708950e-01	 2.7722449325e+00
 9.6937872157e-01	 3.3755816195e-01	 2.8641399852e+00
 9.6620805830e-01	 3.4652932758e-01	 2.9566606609e+00
 9.6294751292e-01	 3.5548930476e-01	 3.0497225871e+00
 1.0000520848e+00	 2.6782047528e-01	 2.2414196102e+00
 9.9757256896e-01	 2.7691324449e-01	 2.3159698109e+00
 9.9500412515e-01	 2.8600481391e-01	 2.3918167149e+00
 9.9234646095e-01	 2.9509395820e-01	 2.4688213281e+00
 9.8959930508e-01	 3.0417944105e-01	 2.5468558422e+00
 9.8676240782e-01	 3.1326001561e-01	 2.6258039825e+00
 9.8383554133e-01	 3.2233442496e-01	 2.7055613044e+00
 9.8081850002e-01	 3.3140140253e-01	 2.7860354392e+00
 9.7771110092e-01	 3.4045967257e-01	 2.8671462829e+00
 9.7451318394e-01	 3.4950795064e-01	 2.9488261276e+00
 9.7122461225e-01	 3.5854494408e-01	 3.0310197308e+00
 1.0085747842e+00	 2.7010290979e-01	 2.3198426080e+00
 1.0060741373e+00	 2.7927316990e-01	 2.3856767771e+00
 1.0034838045e+00	 2.8844222001e-01	 2.4525936218e+00
 1.0008034910e+00	 2.9760882431e-01	 2.5204638642e+00
 9.9803292319e-01	 3.0677173596e-01	 2.5891699629e+00
 9.9517184916e-01	 3.1592969750e-01	 2.6586064660e+00
 9.9222003916e-01	 3.2508144128e-01	 2.7286803123e+00
 9.8917728587e-01	 3.3422568995e-01	 2.7993110773e+00
 9.8604340471e-01	 3.4336115689e-01	 2.8704311624e+00
 9.8281823426e-01	 3.5248654669e-01	 2.9419859214e+00
 9.7950163653e-01	 3.6160055570e-01	 3.0139337246e+00
 1.0170974231e+00	 2.7238532814e-01	 2.3903413076e+00
 1.0145756453e+00	 2.8163307860e-01	 2.4483258179e+00
 1.0119634238e+00	 2.9087960883e-01	 2.5072181613e+00
 1.0092604612e+00	 3.0012367260e-01	 2.5668827813e+00
 1.0064664815e+00	 3.0936401251e-01	 2.6271964643e+00
 1.0035812309e+00	 3.1859936047e-01	 2.6880487209e+00
 1.0006044776e+00	 3.2782843815e-01	 2.7493421144e+00
 9.9753601250e-01	 3.3704995737e-01	 2.8109925321e+00
 9.9437564948e-01	 3.4626262065e-01	 2.8729293964e+00
 9.9112322576e-01	 3.5546512164e-01	 2.9350958122e+00
 9.8777860218e-01	 3.6465614567e-01	 2.9974486479e+00
 1.0256200187e+00	 2.7466773484e-01	 2.4519316107e+00
 1.0230771100e+00	 2.8399297526e-01	 2.5029106215e+00
 1.0204429998e+00	 2.9331698523e-01	 2.5546657321e+00
 1.0177173882e+00	 3.0263850806e-01	 2.6070395038e+00
 1.0148999969e+00	 3.1195627583e-01	 2.6598875033e+00
 1.0119905698e+00	 3.2126900983e-01	 2.7130787355e+00
 1.0089888733e+00	 3.3057542100e-01	 2.7664960222e+00
 1.0058946965e+00	 3.3987421038e-01	 2.8200363213e+00
 1.0027078517e+00	 3.4916406961e-01	 2.8736109839e+00
 9.9942817490e-01	 3.5844368140e-01	 2.9271459455e+00
 9.9605552561e-01	 3.6771172006e-01	 2.9805818487e+00
 1.0341425876e+00	 2.7695013443e-01	 2.5036624943e+00
 1.0315785482e+00	 2.8635286457e-01	 2.5484586369e+00
 1.0289225495e+00	 2.9575435403e-01	 2.5939460386e+00
 1.0261742889e+00	 3.0515333568e-01	 2.6399301524e+00
 1.0233334860e+00	 3.1454853108e-01	 2.6862301564e+00
 1.0203998825e+00	 3.2393865087e-01	 2.7326794605e+00
 1.0173732428e+00	 3.3332239529e-01	 2.7791261574e+00
 1.0142533544e+00	 3.4269845458e-01	 2.8254334136e+00
 1.0110400280e+00	 3.5206550952e-01	 2.8714797948e+00
 1.0077330981e+00	 3.6142223187e-01	 2.9171595247e+00
 1.0043324232e+00	 3.7076728492e-01	 2.9623845752e+00
 1.0426651469e+00	 2.7923253144e-01	 2.5446147381e+00
 1.0400799768e+00	 2.8871275120e-01	 2.5840297770e+00
 1.0374020895e+00	 2.9819172007e-01	 2.6241017744e+00
 1.0346311799e+00	 3.0766816045e-01	 2.6645842146e+00
 1.0317669655e+00	 3.1714078338e-01	 2.7052450836e+00
 1.0288091856e+00	 3.2660828888e-01	 2.7458674728e+00
 1.0257576029e+00	 3.3606936646e-01	 2.7862501251e+00
 1.0226120029e+00	 3.4552269558e-01	 2.8262079187e+00
 1.0193721949e+00	 3.5496694615e-01	 2.8655722857e+00
 1.0160380120e+00	 3.6440077897e-01	 2.9041915604e+00
 1.0126093115e+00	 3.7382284632e-01	 2.9420997385e+00
 1.0511877135e+00	 2.8151493038e-01	 2.5738997166e+00
 1.0485814126e+00	 2.9107263984e-01	 2.6087151864e+00
 1.0458816367e+00	 3.0062908817e-01	 2.6442073725e+00
 1.0430880782e+00	 3.1018298736e-01	 2.6800632823e+00
 1.0402004521e+00	 3.1973303789e-01	 2.7159852599e+00
 1.0372184959e+00	 3.2927792916e-01	 2.7516917087e+00
 1.0341419700e+00	 3.3881633997e-01	 2.7869177538e+00
 1.0309706585e+00	 3.4834693899e-01	 2.8214158433e+00
 1.0277043688e+00	 3.5786838524e-01	 2.8549562805e+00
 1.0243429329e+00	 3.6737932860e-01	 2.8873276853e+00
 1.0208862068e+00	 3.7687841031e-01	 2.9189492255e+00
 9.3811560045e-01	 3.4632215993e-01	 3.1262191634e+00
 9.3485089983e-01	 3.5504040738e-01	 3.2541932104e+00
 9.3149840861e-01	 3.6374523066e-01	 3.3799370977e+00
 9.2805806304e-01	 3.7243535926e-01	 3.5033291453e+00
 9.2452982293e-01	 3.8110951670e-01	 3.6254490791e+00
 9.2091367195e-01	 3.8976642107e-01	 3.7466516630e+00
 9.1720961780e-01	 3.9840478557e-01	 3.8667376348e+00
 9.1341769248e-01	 4.0702331907e-01	 3.9854939567e+00
 9.0953795245e-01	 4.1562072663e-01	 4.1026936242e+00
 9.0557047888e-01	 4.2419571008e-01	 4.2180955748e+00
 9.0151537777e-01	 4.3274696861e-01	 4.3314447007e+00
 9.4639302343e-01	 3.4937791874e-01	 3.0962169914e+00
 9.4309951687e-01	 3.5817309127e-01	 3.2119060807e+00
 9.3971744509e-01	 3.6695472120e-01	 3.3255245941e+00
 9.3624674377e-01	 3.7572152678e-01	 3.4372081003e+00
 9.3268737239e-01	 3.8447222027e-01	 3.5481640628e+00
 9.2903931446e-01	 3.9320550847e-01	 3.6583145380e+00
 9.2530257775e-01	 4.0192009321e-01	 3.7674191115e+00
 9.2147719453e-01	 4.1061467198e-01	 3.8752235007e+00
 9.1756322178e-01	 4.1928793839e-01	 3.9814594070e+00
 9.1356074138e-01	 4.2793858285e-01	 4.0858444719e+00
 9.0946986025e-01	 4.3656529304e-01	 4.1880823440e+00
 9.5467032212e-01	 3.5243363166e-01	 3.0710928229e+00
 9.5134801004e-01	 3.6130572813e-01	 3.1749274218e+00
 9.4793635814e-01	 3.7016416353e-01	 3.2767872156e+00
 9.4443530154e-01	 3.7900764494e-01	 3.3773731433e+00
 9.4084479935e-01	 3.8783487335e-01	 3.4775000994e+00
 9.3716483494e-01	 3.9664454422e-01	 3.5769140461e+00
 9.3339541616e-01	 4.0543534806e-01	 3.6753463762e+00
 9.2953657555e-01	 4.1420597095e-01	 3.7725144033e+00
 9.2558837060e-01	 4.2295509508e-01	 3.8681212366e+00
 9.2155088388e-01	 4.3168139940e-01	 3.9618557664e+00
 9.1742422329e-01	 4.4038356013e-01	 4.0533927662e+00
 9.6294751292e-01	 3.5548930476e-01	 3.0497225871e+00
 9.5959639570e-01	 3.6443832415e-01	 3.1421678445e+00
 9.5615516407e-01	 3.7337356404e-01	 3.2327835336e+00
 9.5262375257e-01	 3.8229372027e-01	 3.3228163301e+00
 9.4900211999e-01	 3.9119748259e-01	 3.4124754831e+00
 9.4529024952e-01	 4.0008353515e-01	 3.5014910367e+00
 9.4148814909e-01	 4.0895055710e-01	 3.5895788564e+00
 9.3759585153e-01	 4.1779722311e-01	 3.6764403970e+00
 9.3361341482e-01	 4.2662220398e-01	 3.7617625815e+00
 9.2954092225e-01	 4.3542416717e-01	 3.8452177970e+00
 9.2537848265e-01	 4.4420177745e-01	 3.9264640123e+00
 9.7122461225e-01	 3.5854494408e-01	 3.0310197308e+00
 9.6784469021e-01	 3.6757088555e-01	 3.1125741063e+00
 9.6437387917e-01	 3.7658292907e-01	 3.1926568421e+00
 9.6081211312e-01	 3.8557975929e-01	 3.2725627267e+00
 9.5715935048e-01	 3.9456005467e-01	 3.3521404850e+00
 9.5341557431e-01	 4.0352248808e-01	 3.4311174483e+00
 9.4958079259e-01	 4.1246572728e-01	 3.5092063374e+00
 9.4565503845e-01	 4.2138843558e-01	 3.5861050093e+00
 9.4163837035e-01	 4.3028927234e-01	 3.6614963214e+00
 9.3753087232e-01	 4.3916689358e-01	 3.7350481190e+00
 9.3333265411e-01	 4.4801995257e-01	 3.8064133504e+00
 9.7950163653e-01	 3.6160055570e-01	 3.0139337246e+00
 9.7609290993e-01	 3.7070341855e-01	 3.0851289268e+00
 9.7259251976e-01	 3.7979226501e-01	 3.1554371389e+00
 9.6900039943e-01	 3.8886576851e-01	 3.2256689526e+00
 9.6531650701e-01	 3.9792259627e-01	 3.2955759400e+00
 9.6154082542e-01	 4.0696140982e-01	 3.3648949344e+00
 9.5767336271e-01	 4.1598086559e-01	 3.4333476216e+00
 9.5371415229e-01	 4.2497961549e-01	 3.5006402484e+00
 9.4966325312e-01	 4.3395630746e-01	 3.5664634527e+00
 9.4552074994e-01	 4.4290958605e-01	 3.6304922239e+00
 9.4128675344e-01	 4.5183809307e-01	 3.6923859970e+00
 9.8777860218e-01	 3.6465614567e-01	 2.9974486479e+00
 9.8434107123e-01	 3.7383592935e-01	 3.0590077368e+00
 9.8081110212e-01	 3.8300157821e-01	 3.1201849406e+00
 9.7718862773e-01	 3.9215175446e-01	 3.1812217943e+00
 9.7347360575e-01	 4.0128511404e-01	 3.2418919035e+00
 9.6966601897e-01	 4.1040030719e-01	 3.3019535565e+00
 9.6576587551e-01	 4.1949597900e-01	 3.3611492532e+00
 9.6177320904e-01	 4.2857076996e-01	 3.4192053540e+00
 9.5768807905e-01	 4.3762331660e-01	 3.4758318589e+00
 9.5351057097e-01	 4.4665225201e-01	 3.5307223215e+00
 9.4924079643e-01	 4.5565620653e-01	 3.5835539041e+00
 9.9605552561e-01	 3.6771172006e-01	 2.9805818487e+00
 9.9258919045e-01	 3.7696842418e-01	 3.0333801993e+00
 9.8902964256e-01	 3.8621087504e-01	 3.0859906396e+00
 9.8537681426e-01	 3.9543772364e-01	 3.1383368868e+00
 9.8163066289e-01	 4.0464761466e-01	 3.1902263712e+00
 9.7779117108e-01	 4.1383918703e-01	 3.2414505403e+00
 9.7385834702e-01	 4.2301107448e-01	 3.2917843039e+00
 9.6983222469e-01	 4.3216190611e-01	 3.3409856072e+00
 9.6571286404e-01	 4.4129030703e-01	 3.3887951388e+00
 9.6150035124e-01	 4.5039489888e-01	 3.4349361806e+00
 9.5719479885e-01	 4.5947430050e-01	 3.4791146058e+00
 1.0043324232e+00	 3.7076728492e-01	 2.9623845752e+00
 1.0008372840e+00	 3.8010090925e-01	 3.0073385008e+00
 9.9724815739e-01	 3.8942016187e-01	 3.0519732055e+00
 9.9356497527e-01	 3.9872368258e-01	 3.0961574561e+00
 9.8978769460e-01	 4.0801010480e-01	 3.1397440612e+00
 9.8591629786e-01	 4.1727805615e-01	 3.1825690898e+00
 9.8195079332e-01	 4.2652615900e-01	 3.2244512163e+00
 9.7789121521e-01	 4.3575303107e-01	 3.2651911973e+00
 9.7373762401e-01	 4.4495728603e-01	 3.3045714910e+00
 9.6949010660e-01	 4.5413753408e-01	 3.3423560250e+00
 9.6514877647e-01	 4.6329238258e-01	 3.3782901190e+00
 1.0126093115e+00	 3.7382284632e-01	 2.9420997385e+00
 1.0090853681e+00	 3.8323339076e-01	 2.9800032161e+00
 1.0054666629e+00	 3.9262944505e-01	 3.0172789468e+00
 1.0017531270e+00	 4.0200963779e-01	 3.0538531221e+00
 9.9794471706e-01	 4.1137259112e-01	 3.0896352518e+00
 9.9404141543e-01	 4.2071692137e-01	 3.1245172586e+00
 9.9004323043e-01	 4.3004123953e-01	 3.1583727019e+00
 9.8595019660e-01	 4.3934415195e-01	 3.1910561419e+00
 9.8176237489e-01	 4.4862426087e-01	 3.2224026513e+00
 9.7747985291e-01	 4.5788016503e-01	 3.2522274823e+00
 9.7310274507e-01	 4.6711046032e-01	 3.2803258976e+00
 1.0208862068e+00	 3.7687841031e-01	 2.9189492255e+00
 1.0173334593e+00	 3.8636587493e-01	 2.9505220860e+00
 1.0136851754e+00	 3.9583873097e-01	 2.9810803313e+00
 1.0099412857e+00	 4.0529559579e-01	 3.0106187561e+00
 1.0061017465e+00	 4.1473508031e-01	 3.0391146748e+00
 1.0021665399e+00	 4.2415578950e-01	 3.0665268723e+00
 9.9813567443e-01	 4.3355632305e-01	 3.0927946901e+00
 9.9400918483e-01	 4.4293527589e-01	 3.1178372578e+00
 9.8978713259e-01	 4.5229123883e-01	 3.1415528790e+00
 9.8546960600e-01	 4.6162279917e-01	 3.1638185810e+00
 9.8105672044e-01	 4.7092854131e-01	 3.1844898343e+00
 9.0151537777e-01	 4.3274696861e-01	 4.3314447007e+00
 8.9737349163e-01	 4.4127175214e-01	 4.4424500867e+00
 8.9314429419e-01	 4.4977021217e-01	 4.5508186007e+00
 8.8882796619e-01	 4.5824104362e-01	 4.6562174497e+00
 8.8442471375e-01	 4.6668294105e-01	 4.7583054244e+00
 8.7993476851e-01	 4.7509459936e-01	 4.8567335656e+00
 8.7535838762e-01	 4.8347471433e-01	 4.9511459433e+00
 8.7069585389e-01	 4.9182198323e-01	 5.0411805488e+00
 8.6594747579e-01	 5.0013510550e-01	 5.1264702999e+00
 8.6111358749e-01	 5.0841278331e-01	 5.2066441566e+00
 8.5619454885e-01	 5.1665372221e-01	 5.2813283471e+00
 9.0946986025e-01	 4.3656529304e-01	 4.1880823440e+00
 9.0529142836e-01	 4.4516529463e-01	 4.2879043234e+00
 9.0102491477e-01	 4.5373874046e-01	 4.3850983190e+00
 8.9667050184e-01	 4.6228431392e-01	 4.4793836285e+00
 8.9222839749e-01	 4.7080069808e-01	 4.5704701823e+00
 8.8769883541e-01	 4.7928657630e-01	 4.6580591491e+00
 8.8308207502e-01	 4.8774063285e-01	 4.7418436624e+00
 8.7837840162e-01	 4.9616155352e-01	 4.8215096652e+00
 8.7358812641e-01	 5.0454802626e-01	 4.8967368747e+00
 8.6871158650e-01	 5.1289874181e-01	 4.9671998641e+00
 8.6374914493e-01	 5.2121239428e-01	 5.0325692608e+00
 9.1742422329e-01	 4.4038356013e-01	 4.0533927662e+00
 9.1320924619e-01	 4.4905877865e-01	 4.1424766335e+00
 9.0890541702e-01	 4.5770720916e-01	 4.2289557683e+00
 9.0451291972e-01	 4.6632752351e-01	 4.3125963223e+00
 9.0003196405e-01	 4.7491839327e-01	 4.3931540099e+00
 8.9546278571e-01	 4.8347849028e-01	 4.4703746616e+00
 8.9080564643e-01	 4.9200648731e-01	 4.5439949023e+00
 8.8606083398e-01	 5.0050105864e-01	 4.6137429569e+00
 8.8122866229e-01	 5.0896088076e-01	 4.6793395813e+00
 8.7630947141e-01	 5.1738463294e-01	 4.7404991190e+00
 8.7130362757e-01	 5.2577099790e-01	 4.7969306796e+00
 9.2537848265e-01	 4.4420177745e-01	 3.9264640123e+00
 9.2112696081e-01	 4.5295221193e-01	 4.0052518481e+00
 9.1678581655e-01	 4.6167562613e-01	 4.0814721857e+00
 9.1235523538e-01	 4.7037068041e-01	 4.1549329401e+00
 9.0783542889e-01	 4.7903603480e-01	 4.2254304003e+00
 9.0322663483e-01	 4.8767034963e-01	 4.2927497348e+00
 8.9852911717e-01	 4.9627228617e-01	 4.3566656298e+00
 8.9374316621e-01	 5.0484050721e-01	 4.4169430619e+00
 8.8886909858e-01	 5.1337367775e-01	 4.4733382036e+00
 8.8390725729e-01	 5.2187046562e-01	 4.5255994613e+00
 8.7885801174e-01	 5.3032954210e-01	 4.5734686441e+00
 9.3333265411e-01	 4.4801995257e-01	 3.8064133504e+00
 9.2904458795e-01	 4.5684560217e-01	 3.8753441528e+00
 9.2466612900e-01	 4.6564399924e-01	 3.9417583324e+00
 9.2019746438e-01	 4.7441379262e-01	 4.0055006190e+00
 9.1563880750e-01	 4.8315363082e-01	 4.0664028066e+00
 9.1099039814e-01	 4.9186216266e-01	 4.1242842168e+00
 9.0625250257e-01	 5.0053803789e-01	 4.1789523038e+00
 9.0142541355e-01	 5.0917990782e-01	 4.2302034006e+00
 8.9650945044e-01	 5.1778642597e-01	 4.2778236062e+00
 8.9150495921e-01	 5.2635624872e-01	 4.3215898137e+00
 8.8641231243e-01	 5.3488803594e-01	 4.3612708769e+00
 9.4128675344e-01	 4.5183809307e-01	 3.6923859970e+00
 9.3696214329e-01	 4.6073895712e-01	 3.7518958138e+00
 9.3254636999e-01	 4.6961233637e-01	 3.8089532204e+00
 9.2803962227e-01	 4.7845686817e-01	 3.8634349503e+00
 9.2344211535e-01	 4.8727118950e-01	 3.9152033685e+00
 9.1875409106e-01	 4.9605393768e-01	 3.9641068989e+00
 9.1397581793e-01	 5.0480375093e-01	 4.0099806020e+00
 9.0910759122e-01	 5.1351926909e-01	 4.0526469013e+00
 9.0414973303e-01	 5.2219913419e-01	 4.0919164605e+00
 8.9910259224e-01	 5.3084199115e-01	 4.1275892087e+00
 8.9396654463e-01	 5.3944648844e-01	 4.1594555127e+00
 9.4924079643e-01	 4.5565620653e-01	 3.5835539041e+00
 9.4487964254e-01	 4.6463228448e-01	 3.6340759668e+00
 9.4042655516e-01	 4.7358064539e-01	 3.6822229020e+00
 9.3588172461e-01	 4.8249991508e-01	 3.7278987694e+00
 9.3124536793e-01	 4.9138871902e-01	 3.7709917019e+00
 9.2651772899e-01	 5.0024568300e-01	 3.8113743044e+00
 9.2169907858e-01	 5.0906943376e-01	 3.8489042090e+00
 9.1678971448e-01	 5.1785859961e-01	 3.8834247897e+00
 9.1178996149e-01	 5.2661181114e-01	 3.9147660352e+00
 9.0670017145e-01	 5.3532770181e-01	 3.9427455803e+00
 9.0152072331e-01	 5.4400490865e-01	 3.9671698923e+00
 9.5719479885e-01	 4.5947430050e-01	 3.4791146058e+00
 9.5279710140e-01	 4.6852559198e-01	 3.5210794642e+00
 9.4830670014e-01	 4.7754893417e-01	 3.5607593182e+00
 9.4372378695e-01	 4.8654294136e-01	 3.5980810042e+00
 9.3904858070e-01	 4.9550622753e-01	 3.6329537478e+00
 9.3428132731e-01	 5.0443740694e-01	 3.6652695380e+00
 9.2942229984e-01	 5.1333509482e-01	 3.6949036668e+00
 9.2447179856e-01	 5.2219790801e-01	 3.7217154386e+00
 9.1943015098e-01	 5.3102446559e-01	 3.7455490467e+00
 9.1429771191e-01	 5.3981338958e-01	 3.7662346168e+00
 9.0907486346e-01	 5.4856330561e-01	 3.7835894173e+00
 9.6514877647e-01	 4.6329238258e-01	 3.3782901190e+00
 9.6071453559e-01	 4.7241888735e-01	 3.4121257784e+00
 9.5618682055e-01	 4.8151721057e-01	 3.4437792022e+00
 9.5156582484e-01	 4.9058595505e-01	 3.4731955799e+00
 9.4685176915e-01	 4.9962372321e-01	 3.5003006770e+00
 9.4204490143e-01	 5.0862911782e-01	 3.5250011903e+00
 9.3714549703e-01	 5.1760074259e-01	 3.5471852792e+00
 9.3215385868e-01	 5.2653720287e-01	 3.5667232745e+00
 9.2707031665e-01	 5.3543710628e-01	 3.5834685667e+00
 9.2189522869e-01	 5.4429906338e-01	 3.5972586698e+00
 9.1662898006e-01	 5.5312168836e-01	 3.6079164623e+00
 9.7310274507e-01	 4.6711046032e-01	 3.2803258976e+00
 9.6863196080e-01	 4.7631217830e-01	 3.3064579566e+00
 9.6406693203e-01	 4.8548548248e-01	 3.3305230361e+00
 9.5940785384e-01	 4.9462896414e-01	 3.3524803757e+00
 9.5465494875e-01	 5.0374121422e-01	 3.3722678474e+00
 9.4980846675e-01	 5.1282082394e-01	 3.3898022967e+00
 9.4486868545e-01	 5.2186638553e-01	 3.4049800713e+00
 9.3983591010e-01	 5.3087649282e-01	 3.4176777371e+00
 9.3471047367e-01	 5.3984974197e-01	 3.4277529837e+00
 9.2949273685e-01	 5.4878473208e-01	 3.4350457177e+00
 9.2418308810e-01	 5.5768006594e-01	 3.4393793414e+00
 9.8105672044e-01	 4.7092854131e-01	 3.1844898343e+00
 9.7654939274e-01	 4.8020547255e-01	 3.2033416252e+00
 9.7194705020e-01	 4.8945375776e-01	 3.2202540560e+00
 9.6724988951e-01	 4.9867197668e-01	 3.2351962314e+00
 9.6245813498e-01	 5.0785870872e-01	 3.2481138116e+00
 9.5757203867e-01	 5.1701253362e-01	 3.2589293447e+00
 9.5259188044e-01	 5.2613203208e-01	 3.2675427982e+00
 9.4751796805e-01	 5.3521578645e-01	 3.2738322894e+00
 9.4235063717e-01	 5.4426238140e-01	 3.2776550148e+00
 9.3709025147e-01	 5.5327040460e-01	 3.2788483800e+00
 9.3173720256e-01	 5.6223844740e-01	 3.2772313249e+00
 8.5619454885e-01	 5.1665372221e-01	 5.2813283471e+00
 8.5119074566e-01	 5.2485663194e-01	 5.3509067370e+00
 8.4610259018e-01	 5.3302022751e-01	 5.4157784670e+00
 8.4093052051e-01	 5.4114322943e-01	 5.4755888318e+00
 8.3567500029e-01	 5.4922436409e-01	 5.5299809330e+00
 8.3033651862e-01	 5.5726236447e-01	 5.5785973255e+00
 8.2491558997e-01	 5.6525597072e-01	 5.6210817513e+00
 8.1941275406e-01	 5.7320393083e-01	 5.6570809557e+00
 8.1382857572e-01	 5.8110500120e-01	 5.6862465770e+00
 8.0816364470e-01	 5.8895794732e-01	 5.7082371026e+00
 8.0241857555e-01	 5.9676154436e-01	 5.7227198824e+00
 8.6374914493e-01	 5.2121239428e-01	 5.0325692608e+00
 8.5870119090e-01	 5.2948768203e-01	 5.0932068273e+00
 8.5356814030e-01	 5.3772330874e-01	 5.1494591112e+00
 8.4835043509e-01	 5.4591798361e-01	 5.2009680490e+00
 8.4304854300e-01	 5.5407042182e-01	 5.2473719680e+00
 8.3766295747e-01	 5.6217934515e-01	 5.2883072980e+00
 8.3219419749e-01	 5.7024348265e-01	 5.3234103784e+00
 8.2664280754e-01	 5.7826157124e-01	 5.3523193536e+00
 8.2100935744e-01	 5.8623235637e-01	 5.3746761484e+00
 8.1529444214e-01	 5.9415459263e-01	 5.3901285155e+00
 8.0949868162e-01	 6.0202704437e-01	 5.3983321461e+00
 8.7130362757e-01	 5.2577099790e-01	 4.7969306796e+00
 8.6621152335e-01	 5.3411866258e-01	 4.8489696729e+00
 8.6103357830e-01	 5.4242631935e-01	 4.8969132101e+00
 8.5577023824e-01	 5.5069266610e-01	 4.9404051031e+00
 8.5042197499e-01	 5.5891640678e-01	 4.9790842539e+00
 8.4498928630e-01	 5.6709625200e-01	 5.0125864287e+00
 8.3947269570e-01	 5.7523091968e-01	 5.0405461344e+00
 8.3387275245e-01	 5.8331913571e-01	 5.0625985893e+00
 8.2819003132e-01	 5.9135963455e-01	 5.0783817808e+00
 8.2242513250e-01	 5.9935115990e-01	 5.0875386006e+00
 8.1657868137e-01	 6.0729246531e-01	 5.0897190481e+00
 8.7885801174e-01	 5.3032954210e-01	 4.5734686441e+00
 8.7372175792e-01	 5.3874958278e-01	 4.6172521416e+00
 8.6849891900e-01	 5.4712926866e-01	 4.6572021785e+00
 8.6318994468e-01	 5.5546728636e-01	 4.6929695164e+00
 8.5779531088e-01	 5.6376232859e-01	 4.7241988177e+00
 8.5231551964e-01	 5.7201309477e-01	 4.7505304781e+00
 8.4675109905e-01	 5.8021829172e-01	 4.7716025687e+00
 8.4110260312e-01	 5.8837663426e-01	 4.7870528792e+00
 8.3537061162e-01	 5.9648684590e-01	 4.7965210537e+00
 8.2955572993e-01	 6.0454765944e-01	 4.7996508104e+00
 8.2365858884e-01	 6.1255781763e-01	 4.7960922349e+00
 8.8641231243e-01	 5.3488803594e-01	 4.3612708769e+00
 8.8123190949e-01	 5.4338045181e-01	 4.3971430269e+00
 8.7596417721e-01	 5.5183216601e-01	 4.4294194942e+00
 8.7060956914e-01	 5.6024185387e-01	 4.4577629105e+00
 8.6516856529e-01	 5.6860819685e-01	 4.4818287244e+00
 8.5964167202e-01	 5.7692988321e-01	 4.5012670901e+00
 8.5402942198e-01	 5.8520560864e-01	 4.5157248706e+00
 8.4833237391e-01	 5.9343407693e-01	 4.5248477508e+00
 8.4255111257e-01	 6.0161400060e-01	 4.5282824481e+00
 8.3668624855e-01	 6.0974410157e-01	 4.5256790135e+00
 8.3073841808e-01	 6.1782311177e-01	 4.5166932112e+00
 8.9396654463e-01	 5.3944648844e-01	 4.1594555127e+00
 8.8874199297e-01	 5.4801127884e-01	 4.1877617824e+00
 8.8342936772e-01	 5.5653502071e-01	 4.2126894433e+00
 8.7802912632e-01	 5.6501637808e-01	 4.2339177667e+00
 8.7254175284e-01	 5.7345402118e-01	 4.2511178582e+00
 8.6696775798e-01	 5.8184662707e-01	 4.2639545979e+00
 8.6130767891e-01	 5.9019288035e-01	 4.2720887042e+00
 8.5556207914e-01	 5.9849147375e-01	 4.2751789112e+00
 8.4973154842e-01	 6.0674110882e-01	 4.2728842526e+00
 8.4381670253e-01	 6.1494049658e-01	 4.2648664410e+00
 8.3781818312e-01	 6.2308835817e-01	 4.2507923305e+00
 9.0152072331e-01	 5.4400490865e-01	 3.9671698923e+00
 8.9625202324e-01	 5.5264207308e-01	 3.9882573216e+00
 8.9089450536e-01	 5.6123784211e-01	 4.0061659301e+00
 8.8544863094e-01	 5.6979086847e-01	 4.0205962514e+00
 8.7991488817e-01	 5.7829981118e-01	 4.0312397663e+00
 8.7429379204e-01	 5.8676333611e-01	 4.0377808927e+00
 8.6858588428e-01	 5.9518011673e-01	 4.0398991049e+00
 8.6279173315e-01	 6.0354883474e-01	 4.0372711755e+00
 8.5691193340e-01	 6.1186818072e-01	 4.0295735274e+00
 8.5094710599e-01	 6.2013685478e-01	 4.0164846896e+00
 8.4489789802e-01	 6.2835356728e-01	 3.9976878407e+00
 9.0907486346e-01	 5.4856330561e-01	 3.7835894173e+00
 9.0376201521e-01	 5.5727284370e-01	 3.7978068779e+00
 8.9835960492e-01	 5.6594063951e-01	 3.8090313476e+00
 8.9286809771e-01	 5.7456533452e-01	 3.8169891010e+00
 8.8728798588e-01	 5.8314557646e-01	 3.8213965641e+00
 8.8161978874e-01	 5.9168002007e-01	 3.8219623504e+00
 8.7586405253e-01	 6.0016732768e-01	 3.8183894341e+00
 8.7002135030e-01	 6.0860616994e-01	 3.8103774521e+00
 8.6409228175e-01	 6.1699522646e-01	 3.7976251239e+00
 8.5807747309e-01	 6.2533318649e-01	 3.7798327792e+00
 8.5197757680e-01	 6.3361874953e-01	 3.7567049818e+00
 9.1662898006e-01	 5.5312168836e-01	 3.6079164623e+00
 9.1127198378e-01	 5.6190359988e-01	 3.6156149227e+00
 9.0582468120e-01	 5.7064342226e-01	 3.6204955050e+00
 9.0028754136e-01	 5.7933978568e-01	 3.6223145638e+00
 8.9466106062e-01	 5.8799132664e-01	 3.6208178948e+00
 8.8894576260e-01	 5.9659668870e-01	 3.6157428152e+00
 8.8314219809e-01	 6.0515452308e-01	 3.6068203879e+00
 8.7725094490e-01	 6.1366348937e-01	 3.5937777816e+00
 8.7127260773e-01	 6.2212225623e-01	 3.5763407560e+00
 8.6520781796e-01	 6.3052950199e-01	 3.5542362601e+00
 8.5905723351e-01	 6.3888391537e-01	 3.5271951326e+00
 9.2418308810e-01	 5.5768006594e-01	 3.4393793414e+00
 9.1878194382e-01	 5.6653435081e-01	 3.4409121366e+00
 9.1328974903e-01	 5.7534619968e-01	 3.4397946094e+00
 9.0770697660e-01	 5.8411423142e-01	 3.4358173956e+00
 9.0203412699e-01	 5.9283707133e-01	 3.4287599433e+00
 8.9627172815e-01	 6.0151335176e-01	 3.4183926341e+00
 8.9042033540e-01	 6.1014171282e-01	 3.4044790571e+00
 8.8448053131e-01	 6.1872080308e-01	 3.3867784249e+00
 8.7845292556e-01	 6.2724928019e-01	 3.3650481210e+00
 8.7233815474e-01	 6.3572581161e-01	 3.3390463682e+00
 8.6613688220e-01	 6.4414907524e-01	 3.3085350031e+00
 9.3173720256e-01	 5.6223844740e-01	 3.2772313249e+00
 9.2629191025e-01	 5.7116510568e-01	 3.2729544325e+00
 9.2075482320e-01	 5.8004898109e-01	 3.2661902981e+00
 9.1512641814e-01	 5.8888868122e-01	 3.2567679059e+00
 9.0940719963e-01	 5.9768282013e-01	 3.2445044992e+00
 9.0359769993e-01	 6.0643001899e-01	 3.2292077414e+00
 8.9769847889e-01	 6.1512890680e-01	 3.2106780367e+00
 8.9171012387e-01	 6.2377812107e-01	 3.1887110000e+00
 8.8563324950e-01	 6.3237630850e-01	 3.1631000662e+00
 8.7946849759e-01	 6.4092212563e-01	 3.1336392255e+00
 8.7321653691e-01	 6.4941423958e-01	 3.1001258712e+00
 8.0241857555e-01	 5.9676154436e-01	 5.7227198824e+00
 7.9659301098e-01	 6.0451589078e-01	 5.7301139365e+00
 7.9068858747e-01	 6.1221844773e-01	 5.7308355672e+00
 7.8470599631e-01	 6.1986801809e-01	 5.7245771364e+00
 7.7864595270e-01	 6.2746341682e-01	 5.7110538455e+00
 7.7250919548e-01	 6.3500347160e-01	 5.6900059615e+00
 7.6629648686e-01	 6.4248702340e-01	 5.6612010324e+00
 7.6000861212e-01	 6.4991292707e-01	 5.6244360774e+00
 7.5364637927e-01	 6.5728005194e-01	 5.5795397431e+00
 7.4721061873e-01	 6.6458728233e-01	 5.5263744111e+00
 7.4070218296e-01	 6.7183351817e-01	 5.4648382486e+00
 8.0949868162e-01	 6.0202704437e-01	 5.3983321461e+00
 8.0362171543e-01	 6.0984981093e-01	 5.3997762303e+00
 7.9766519449e-01	 6.1762033107e-01	 5.3950059714e+00
 7.9162981619e-01	 6.2533739709e-01	 5.3837858501e+00
 7.8551630204e-01	 6.3299981350e-01	 5.3659024490e+00
 7.7932539740e-01	 6.4060639762e-01	 5.3411666733e+00
 7.7305787122e-01	 6.4815598022e-01	 5.3094159616e+00
 7.6671451568e-01	 6.5564740604e-01	 5.2705164741e+00
 7.6029614594e-01	 6.6307953443e-01	 5.2243652476e+00
 7.5380359974e-01	 6.7045123986e-01	 5.1708923034e+00
 7.4723773707e-01	 6.7776141254e-01	 5.1100626971e+00
 8.1657868137e-01	 6.0729246531e-01	 5.0897190481e+00
 8.1065031433e-01	 6.1518365099e-01	 5.0854809685e+00
 8.0464169675e-01	 6.2302213329e-01	 5.0754823676e+00
 7.9855353210e-01	 6.3080669396e-01	 5.0595440344e+00
 7.9238654822e-01	 6.3853612703e-01	 5.0375080020e+00
 7.8614149698e-01	 6.4620923952e-01	 5.0092397885e+00
 7.7981915404e-01	 6.5382485192e-01	 4.9746306285e+00
 7.7342031854e-01	 6.6138179891e-01	 4.9335996860e+00
 7.6694581276e-01	 6.6887892983e-01	 4.8860962342e+00
 7.6039648175e-01	 6.7631510933e-01	 4.8321017900e+00
 7.5377319304e-01	 6.8368921791e-01	 4.7716321904e+00
 8.2365858884e-01	 6.1255781763e-01	 4.7960922349e+00
 8.1767882162e-01	 6.2051742153e-01	 4.7864680131e+00
 8.1161810807e-01	 6.2842386512e-01	 4.7715309146e+00
 8.0547715777e-01	 6.3627591954e-01	 4.7511425884e+00
 7.9925670485e-01	 6.4407236842e-01	 4.7251849518e+00
 7.9295750771e-01	 6.5181200839e-01	 4.6935624746e+00
 7.8658034874e-01	 6.5949364974e-01	 4.6562044594e+00
 7.8012603401e-01	 6.6711611703e-01	 4.6130673031e+00
 7.7359539291e-01	 6.7467824964e-01	 4.5641367292e+00
 7.6698927784e-01	 6.8217890237e-01	 4.5094299744e+00
 7.6030856382e-01	 6.8961694601e-01	 4.4489979186e+00
 8.3073841808e-01	 6.1782311177e-01	 4.5166932112e+00
 8.2470725125e-01	 6.2585113314e-01	 4.5020065306e+00
 8.1859444231e-01	 6.3382553725e-01	 4.4824465898e+00
 8.1240070693e-01	 6.4174508470e-01	 4.4579007981e+00
 8.0612678556e-01	 6.4960854863e-01	 4.4282757388e+00
 7.9977344313e-01	 6.5741471535e-01	 4.3934995234e+00
 7.9334146873e-01	 6.6516238492e-01	 4.3535241445e+00
 7.8683167537e-01	 6.7285037179e-01	 4.3083278140e+00
 7.8024489958e-01	 6.8047750537e-01	 4.2579172719e+00
 7.7358200107e-01	 6.8804263062e-01	 4.2023300525e+00
 7.6684386240e-01	 6.9554460861e-01	 4.1416366941e+00
 8.3781818312e-01	 6.2308835817e-01	 4.2507923305e+00
 8.3173561715e-01	 6.3118479639e-01	 4.2313940267e+00
 8.2557071329e-01	 6.3922716041e-01	 4.2075522659e+00
 8.1932419332e-01	 6.4721420026e-01	 4.1791654517e+00
 8.1299680399e-01	 6.5514467864e-01	 4.1461499503e+00
 8.0658931674e-01	 6.6301737151e-01	 4.1084425405e+00
 8.0010252742e-01	 6.7083106870e-01	 4.0660028648e+00
 7.9353725594e-01	 6.7858457456e-01	 4.0188158690e+00
 7.8689434596e-01	 6.8627670852e-01	 3.9668942148e+00
 7.8017466452e-01	 6.9390630570e-01	 3.9102806512e+00
 7.7337910171e-01	 7.0147221747e-01	 3.8490503299e+00
 8.4489789802e-01	 6.2835356728e-01	 3.9976878407e+00
 8.3876393326e-01	 6.3651842186e-01	 3.9739554346e+00
 8.3254693485e-01	 6.4462874530e-01	 3.9461978386e+00
 8.2624763066e-01	 6.5268327709e-01	 3.9143100051e+00
 8.1986677375e-01	 6.6068076944e-01	 3.8782035220e+00
 8.1340514208e-01	 6.6861998798e-01	 3.8378091833e+00
 8.0686353822e-01	 6.7649971233e-01	 3.7930795642e+00
 8.0024278900e-01	 6.8431873672e-01	 3.7439915878e+00
 7.9354374523e-01	 6.9207587060e-01	 3.6905490672e+00
 7.8676728128e-01	 6.9976993924e-01	 3.6327852085e+00
 7.7991429473e-01	 7.0739978433e-01	 3.5707650581e+00
 8.5197757680e-01	 6.3361874953e-01	 3.7567049818e+00
 8.4579221352e-01	 6.4185202013e-01	 3.7290422527e+00
 8.3952312083e-01	 6.5003030265e-01	 3.6977594030e+00
 8.3317103268e-01	 6.5815232602e-01	 3.6627337953e+00
 8.2673670846e-01	 6.6621683200e-01	 3.6238579865e+00
 8.2022093265e-01	 6.7422257588e-01	 3.5810424430e+00
 8.1362451452e-01	 6.8216832704e-01	 3.5342182656e+00
 8.0694828787e-01	 6.9005286962e-01	 3.4833399087e+00
 8.0019311059e-01	 6.9787500309e-01	 3.4283878785e+00
 7.9335986441e-01	 7.0563354288e-01	 3.3693713924e+00
 7.8644945442e-01	 7.1332732096e-01	 3.3063309859e+00
 8.5905723351e-01	 6.3888391537e-01	 3.5271951326e+00
 8.5282047188e-01	 6.4718560177e-01	 3.4960317314e+00
 8.4649928506e-01	 6.5543184316e-01	 3.4616384763e+00
 8.4009441313e-01	 6.6362135790e-01	 3.4238612977e+00
 8.3360662177e-01	 6.7175287731e-01	 3.3825597640e+00
 8.2703670197e-01	 6.7982514632e-01	 3.3376099682e+00
 8.2038546976e-01	 6.8783692409e-01	 3.2889074265e+00
 8.1365376583e-01	 6.9578698465e-01	 3.2363699774e+00
 8.0684245523e-01	 7.0367411751e-01	 3.1799406600e+00
 7.9995242698e-01	 7.1149712824e-01	 3.1195905573e+00
 7.9298459374e-01	 7.1925483912e-01	 3.0553215873e+00
 8.6613688220e-01	 6.4414907524e-01	 3.3085350031e+00
 8.5984872227e-01	 6.5251917737e-01	 3.2743261021e+00
 8.5347544139e-01	 6.6083337755e-01	 3.2372612637e+00
 8.4701778573e-01	 6.6909038359e-01	 3.1971414255e+00
 8.4047652728e-01	 6.7728891634e-01	 3.1537794945e+00
 8.3385246357e-01	 6.8542771040e-01	 3.1070034282e+00
 8.2714641733e-01	 6.9350551471e-01	 3.0566593344e+00
 8.2035923619e-01	 7.0152109318e-01	 3.0026145731e+00
 8.1349179232e-01	 7.0947322535e-01	 2.9447608430e+00
 8.0654498209e-01	 7.1736070696e-01	 2.8830172340e+00
 7.9951972565e-01	 7.2518235056e-01	 2.8173332283e+00
 8.7321653691e-01	 6.4941423958e-01	 3.1001258712e+00
 8.6687697863e-01	 6.5785275749e-01	 3.0633518507e+00
 8.6045160364e-01	 6.6623491653e-01	 3.0240779644e+00
 8.5394116421e-01	 6.7455941392e-01	 2.9820468687e+00
 8.4734643864e-01	 6.8282496008e-01	 2.9370114076e+00
 8.4066823096e-01	 6.9103027925e-01	 2.8887379145e+00
 8.3390737064e-01	 6.9917411015e-01	 2.8370095371e+00
 8.2706471224e-01	 7.0725520659e-01	 2.7816295694e+00
 8.2014113507e-01	 7.1527233812e-01	 2.7224247707e+00
 8.1313754280e-01	 7.2322429065e-01	 2.6592486540e+00
 8.0605486311e-01	 7.3110986703e-01	 2.5919847231e+00
 7.4070218296e-01	 6.7183351817e-01	 5.4648382486e+00
 7.3412306872e-01	 6.7901646159e-01	 5.3952591013e+00
 7.2747306107e-01	 6.8613629255e-01	 5.3179450799e+00
 7.2075306414e-01	 6.9319197316e-01	 5.2328425840e+00
 7.1396400252e-01	 7.0018248325e-01	 5.1399113282e+00
 7.0710682082e-01	 7.0710682082e-01	 5.0391241655e+00
 7.0018248325e-01	 7.1396400252e-01	 4.9304668783e+00
 6.9319197316e-01	 7.2075306414e-01	 4.8139379368e+00
 6.8613629255e-01	 7.2747306107e-01	 4.6895482291e+00
 6.7901646159e-01	 7.3412306872e-01	 4.5573207628e+00
 6.7183351817e-01	 7.4070218296e-01	 4.4172903414e+00
 7.4723773707e-01	 6.7776141254e-01	 5.1100626971e+00
 7.4060057230e-01	 6.8500773437e-01	 5.0408269298e+00
 7.3389188859e-01	 6.9219038685e-01	 4.9633561897e+00
 7.2711259805e-01	 6.9930832296e-01	 4.8788175524e+00
 7.2026363343e-01	 7.0636051352e-01	 4.7870899795e+00
 7.1334594768e-01	 7.1334594768e-01	 4.6880652705e+00
 7.0636051352e-01	 7.2026363343e-01	 4.5816479502e+00
 6.9930832296e-01	 7.2711259805e-01	 4.4677551228e+00
 6.9219038685e-01	 7.3389188859e-01	 4.3463162973e+00
 6.8500773437e-01	 7.4060057230e-01	 4.2172731833e+00
 6.7776141254e-01	 7.4723773707e-01	 4.0821194604e+00
 7.5377319304e-01	 6.8368921791e-01	 4.7716321904e+00
 7.4707797860e-01	 6.9099891717e-01	 4.7035851460e+00
 7.4031061972e-01	 6.9824439023e-01	 4.6265665767e+00
 7.3347203646e-01	 7.0542458091e-01	 4.5418593699e+00
 7.2656316974e-01	 7.1253845101e-01	 4.4505405471e+00
 7.1958498085e-01	 7.1958498085e-01	 4.3524414894e+00
 7.1253845101e-01	 7.2656316974e-01	 4.2474061365e+00
 7.0542458091e-01	 7.3347203646e-01	 4.1352909089e+00
 6.9824439023e-01	 7.4031061972e-01	 4.0159645986e+00
 6.9099891717e-01	 7.4707797860e-01	 3.8908070932e+00
 6.8368921791e-01	 7.5377319304e-01	 3.7614678331e+00
 7.6030856382e-01	 6.8961694601e-01	 4.4489979186e+00
 7.5355530049e-01	 6.9699002189e-01	 4.3816882873e+00
 7.4672926719e-01	 7.0429831472e-01	 4.3059957130e+00
 7.3983139199e-01	 7.1154075915e-01	 4.2215510468e+00
 7.3286262395e-01	 7.1871630798e-01	 4.1298715194e+00
 7.2582393271e-01	 7.2582393271e-01	 4.0318871289e+00
 7.1871630798e-01	 7.3286262395e-01	 3.9274013959e+00
 7.1154075915e-01	 7.3983139199e-01	 3.8162302323e+00
 7.0429831472e-01	 7.4672926719e-01	 3.6995667307e+00
 6.9699002189e-01	 7.5355530049e-01	 3.5793317319e+00
 6.8961694601e-01	 7.6030856382e-01	 3.4552126768e+00
 7.6684386240e-01	 6.9554460861e-01	 4.1416366941e+00
 7.6003255079e-01	 7.0298106041e-01	 4.0746380134e+00
 7.5314784373e-01	 7.1035217231e-01	 3.9997478551e+00
 7.4619067724e-01	 7.1765686980e-01	 3.9165418515e+00
 7.3916200855e-01	 7.2489409669e-01	 3.8247100237e+00
 7.3206281563e-01	 7.3206281563e-01	 3.7260540664e+00
 7.2489409669e-01	 7.3916200855e-01	 3.6213101843e+00
 7.1765686980e-01	 7.4619067724e-01	 3.5114225498e+00
 7.1035217231e-01	 7.5314784373e-01	 3.3986430479e+00
 7.0298106041e-01	 7.6003255079e-01	 3.2827052965e+00
 6.9554460861e-01	 7.6684386240e-01	 3.1632356684e+00
 7.7337910171e-01	 7.0147221747e-01	 3.8490503299e+00
 7.6650974237e-01	 7.0897204461e-01	 3.7819608339e+00
 7.5956636207e-01	 7.1640597500e-01	 3.7073708442e+00
 7.5254990483e-01	 7.2377292499e-01	 3.6248431816e+00
 7.4546133604e-01	 7.3107182938e-01	 3.5339802476e+00
 7.3830164197e-01	 7.3830164197e-01	 3.4346112805e+00
 7.3107182938e-01	 7.4546133604e-01	 3.3296987769e+00
 7.2377292499e-01	 7.5254990483e-01	 3.2225493663e+00
 7.1640597500e-01	 7.5956636207e-01	 3.1130363624e+00
 7.0897204461e-01	 7.6650974237e-01	 3.0007897124e+00
 7.0147221747e-01	 7.7337910171e-01	 2.8854220842e+00
 7.7991429473e-01	 7.0739978433e-01	 3.5707650581e+00
 7.7298688807e-01	 7.1496298637e-01	 3.5032072163e+00
 7.6598483495e-01	 7.2245973482e-01	 3.4284408579e+00
 7.5890908738e-01	 7.2988893686e-01	 3.3460336993e+00
 7.5176061890e-01	 7.3724951831e-01	 3.2555942201e+00
 7.4454042413e-01	 7.4454042413e-01	 3.1573468706e+00
 7.3724951831e-01	 7.5176061890e-01	 3.0544172125e+00
 7.2988893686e-01	 7.5890908738e-01	 2.9494550842e+00
 7.2245973482e-01	 7.6598483495e-01	 2.8425874789e+00
 7.1496298637e-01	 7.7298688807e-01	 2.7334501653e+00
 7.0739978433e-01	 7.7991429473e-01	 2.6216599568e+00
 7.8644945442e-01	 7.1332732096e-01	 3.3063309859e+00
 7.7946400072e-01	 7.2095389757e-01	 3.2379510819e+00
 7.7240327509e-01	 7.2851346375e-01	 3.1625570359e+00
 7.6526823749e-01	 7.3600491754e-01	 3.0797386814e+00
 7.5805986963e-01	 7.4342717574e-01	 2.9894171287e+00
 7.5077917446e-01	 7.5077917446e-01	 2.8943801430e+00
 7.4342717574e-01	 7.5805986963e-01	 2.7951143829e+00
 7.3600491754e-01	 7.6526823749e-01	 2.6919586387e+00
 7.2851346375e-01	 7.7240327509e-01	 2.5871401445e+00
 7.2095389757e-01	 7.7946400072e-01	 2.4805542387e+00
 7.1332732096e-01	 7.8644945442e-01	 2.3718392524e+00
 7.9298459374e-01	 7.1925483912e-01	 3.0553215873e+00
 7.8594109319e-01	 7.2694479010e-01	 2.9857893352e+00
 7.7882169522e-01	 7.3456717382e-01	 2.9093410502e+00
 7.7162736778e-01	 7.4212087915e-01	 2.8256835179e+00
 7.6435910073e-01	 7.4960481390e-01	 2.7373654974e+00
 7.5701790534e-01	 7.5701790534e-01	 2.6455043079e+00
 7.4960481390e-01	 7.6435910073e-01	 2.5497637484e+00
 7.4212087915e-01	 7.7162736778e-01	 2.4498181235e+00
 7.3456717382e-01	 7.7882169522e-01	 2.3465401642e+00
 7.2694479010e-01	 7.8594109319e-01	 2.2419710694e+00
 7.1925483912e-01	 7.9298459374e-01	 2.1358510636e+00
 7.9951972565e-01	 7.2518235056e-01	 2.8173332283e+00
 7.9241817832e-01	 7.3293567584e-01	 2.7463414261e+00
 7.8524010808e-01	 7.4062087702e-01	 2.6684367053e+00
 7.7798649087e-01	 7.4823683383e-01	 2.5855263670e+00
 7.7065832468e-01	 7.5578244507e-01	 2.4996385127e+00
 7.6325662916e-01	 7.6325662916e-01	 2.4104817820e+00
 7.5578244507e-01	 7.7065832468e-01	 2.3177746545e+00
 7.4823683383e-01	 7.7798649087e-01	 2.2212458281e+00
 7.4062087702e-01	 7.8524010808e-01	 2.1206345363e+00
 7.3293567584e-01	 7.9241817832e-01	 2.0175705215e+00
 7.2518235056e-01	 7.9951972565e-01	 1.9135868201e+00
 8.0605486311e-01	 7.3110986703e-01	 2.5919847231e+00
 7.9889526895e-01	 7.3892656667e-01	 2.5192489405e+00
 7.9165852639e-01	 7.4667458537e-01	 2.4408981054e+00
 7.8434561935e-01	 7.5435279371e-01	 2.3598441675e+00
 7.7695755399e-01	 7.6196008148e-01	 2.2759792193e+00
 7.6949535827e-01	 7.6949535827e-01	 2.1890828769e+00
 7.6196008148e-01	 7.7695755399e-01	 2.0989447270e+00
 7.5435279371e-01	 7.8434561935e-01	 2.0053642783e+00
 7.4667458537e-01	 7.9165852639e-01	 1.9081509083e+00
 7.3892656667e-01	 7.9889526895e-01	 1.8072223763e+00
 7.3110986703e-01	 8.0605486311e-01	 1.7049375143e+00
 6.7183351817e-01	 7.4070218296e-01	 4.4172903414e+00
 6.6458728233e-01	 7.4721061873e-01	 4.2699954210e+00
 6.5728005194e-01	 7.5364637927e-01	 4.1160166606e+00
 6.4991292707e-01	 7.6000861212e-01	 3.9553693768e+00
 6.4248702340e-01	 7.6629648686e-01	 3.7880558247e+00
 6.3500347160e-01	 7.7250919548e-01	 3.6140668088e+00
 6.2746341682e-01	 7.7864595270e-01	 3.4333833360e+00
 6.1986801809e-01	 7.8470599631e-01	 3.2459782995e+00
 6.1221844773e-01	 7.9068858747e-01	 3.0518181847e+00
 6.0451589078e-01	 7.9659301098e-01	 2.8508647861e+00
 5.9676154436e-01	 8.0241857555e-01	 2.6430769244e+00
 6.7776141254e-01	 7.4723773707e-01	 4.0821194604e+00
 6.7045123986e-01	 7.5380359974e-01	 3.9412601015e+00
 6.6307953443e-01	 7.6029614594e-01	 3.7936679519e+00
 6.5564740604e-01	 7.6671451568e-01	 3.6394412195e+00
 6.4815598022e-01	 7.7305787122e-01	 3.4786642624e+00
 6.4060639762e-01	 7.7932539740e-01	 3.3114091663e+00
 6.3299981350e-01	 7.8551630204e-01	 3.1377373658e+00
 6.2533739709e-01	 7.9162981619e-01	 2.9577013005e+00
 6.1762033107e-01	 7.9766519449e-01	 2.7713460938e+00
 6.0984981093e-01	 8.0362171543e-01	 2.5787112449e+00
 6.0202704437e-01	 8.0949868162e-01	 2.3798323224e+00
 6.8368921791e-01	 7.5377319304e-01	 3.7614678331e+00
 6.7631510933e-01	 7.6039648175e-01	 3.6265037262e+00
 6.6887892983e-01	 7.6694581276e-01	 3.4848282661e+00
 6.6138179891e-01	 7.7342031854e-01	 3.3366068623e+00
 6.5382485192e-01	 7.7981915404e-01	 3.1819903377e+00
 6.4620923952e-01	 7.8614149698e-01	 3.0211164971e+00
 6.3853612703e-01	 7.9238654822e-01	 2.8541117431e+00
 6.3080669396e-01	 7.9855353210e-01	 2.6810927276e+00
 6.2302213329e-01	 8.0464169675e-01	 2.5021680291e+00
 6.1518365099e-01	 8.1065031433e-01	 2.3174398436e+00
 6.0729246531e-01	 8.1657868137e-01	 2.1270056785e+00
 6.8961694601e-01	 7.6030856382e-01	 3.4552126768e+00
 6.8217890237e-01	 7.6698927784e-01	 3.3256274952e+00
 6.7467824964e-01	 7.7359539291e-01	 3.1894241742e+00
 6.6711611703e-01	 7.8012603401e-01	 3.0468200011e+00
 6.5949364974e-01	 7.8658034874e-01	 2.8980169884e+00
 6.5181200839e-01	 7.9295750771e-01	 2.7432034586e+00
 6.4407236842e-01	 7.9925670485e-01	 2.5825556793e+00
 6.3627591954e-01	 8.0547715777e-01	 2.4162395348e+00
 6.2842386512e-01	 8.1161810807e-01	 2.2444122263e+00
 6.2051742153e-01	 8.1767882162e-01	 2.0672239857e+00
 6.1255781763e-01	 8.2365858884e-01	 1.8848197931e+00
 6.9554460861e-01	 7.6684386240e-01	 3.1632356684e+00
 6.8804263062e-01	 7.7358200107e-01	 3.0385365231e+00
 6.8047750537e-01	 7.8024489958e-01	 2.9073855913e+00
 6.7285037179e-01	 7.8683167537e-01	 2.7700370658e+00
 6.6516238492e-01	 7.9334146873e-01	 2.6267292225e+00
 6.5741471535e-01	 7.9977344313e-01	 2.4776860462e+00
 6.4960854863e-01	 8.0612678556e-01	 2.3231189088e+00
 6.4174508470e-01	 8.1240070693e-01	 2.1632282870e+00
 6.3382553725e-01	 8.1859444231e-01	 1.9982055081e+00
 6.2585113314e-01	 8.2470725125e-01	 1.8282345116e+00
 6.1782311177e-01	 8.3073841808e-01	 1.6534936141e+00
 7.0147221747e-01	 7.7337910171e-01	 2.8854220842e+00
 6.9390630570e-01	 7.8017466452e-01	 2.7651390198e+00
 6.8627670852e-01	 7.8689434596e-01	 2.6386450007e+00
 6.7858457456e-01	 7.9353725594e-01	 2.5062164911e+00
 6.7083106870e-01	 8.0010252742e-01	 2.3681134387e+00
 6.6301737151e-01	 8.0658931674e-01	 2.2245809667e+00
 6.5514467864e-01	 8.1299680399e-01	 2.0758511200e+00
 6.4721420026e-01	 8.1932419332e-01	 1.9221446524e+00
 6.3922716041e-01	 8.2557071329e-01	 1.7636728436e+00
 6.3118479639e-01	 8.3173561715e-01	 1.6006393318e+00
 6.2308835817e-01	 8.3781818312e-01	 1.4332419491e+00
 7.0739978433e-01	 7.7991429473e-01	 2.6216599568e+00
 6.9976993924e-01	 7.8676728128e-01	 2.5053454880e+00
 6.9207587060e-01	 7.9354374523e-01	 2.3831366944e+00
 6.8431873672e-01	 8.0024278900e-01	 2.2553180014e+00
 6.7649971233e-01	 8.0686353822e-01	 2.1221567585e+00
 6.6861998798e-01	 8.1340514208e-01	 1.9839050219e+00
 6.6068076944e-01	 8.1986677375e-01	 1.8408013929e+00
 6.5268327709e-01	 8.2624763066e-01	 1.6930729002e+00
 6.4462874530e-01	 8.3254693485e-01	 1.5409369110e+00
 6.3651842186e-01	 8.3876393326e-01	 1.3846030587e+00
 6.2835356728e-01	 8.4489789802e-01	 1.2242751732e+00
 7.1332732096e-01	 7.8644945442e-01	 2.3718392524e+00
 7.0563354288e-01	 7.9335986441e-01	 2.2590679389e+00
 6.9787500309e-01	 8.0019311059e-01	 2.1407960287e+00
 6.9005286962e-01	 8.0694828787e-01	 2.0173019095e+00
 6.8216832704e-01	 8.1362451452e-01	 1.8888463708e+00
 6.7422257588e-01	 8.2022093265e-01	 1.7556745015e+00
 6.6621683200e-01	 8.2673670846e-01	 1.6180176460e+00
 6.5815232602e-01	 8.3317103268e-01	 1.4760954041e+00
 6.5003030265e-01	 8.3952312083e-01	 1.3301176620e+00
 6.4185202013e-01	 8.4579221352e-01	 1.1802866384e+00
 6.3361874953e-01	 8.5197757680e-01	 1.0267989332e+00
 7.1925483912e-01	 7.9298459374e-01	 2.1358510636e+00
 7.1149712824e-01	 7.9995242698e-01	 2.0262191227e+00
 7.0367411751e-01	 8.0684245523e-01	 1.9115586942e+00
 6.9578698465e-01	 8.1365376583e-01	 1.7921284276e+00
 6.8783692409e-01	 8.2038546976e-01	 1.6681688867e+00
 6.7982514632e-01	 8.2703670197e-01	 1.5399045859e+00
 6.7175287731e-01	 8.3360662177e-01	 1.4075460884e+00
 6.6362135790e-01	 8.4009441313e-01	 1.2712921492e+00
 6.5543184316e-01	 8.4649928506e-01	 1.1313318886e+00
 6.4718560177e-01	 8.5282047188e-01	 9.8784698164e-01
 6.3888391537e-01	 8.5905723351e-01	 8.4101384818e-01
 7.2518235056e-01	 7.9951972565e-01	 1.9135868201e+00
 7.1736070696e-01	 8.0654498209e-01	 1.8067117750e+00
 7.0947322535e-01	 8.1349179232e-01	 1.6953599992e+00
 7.0152109318e-01	 8.2035923619e-01	 1.5797569909e+00
 6.9350551471e-01	 8.2714641733e-01	 1.4601097054e+00
 6.8542771040e-01	 8.3385246357e-01	 1.3366087563e+00
 6.7728891634e-01	 8.4047652728e-01	 1.2094306796e+00
 6.6909038359e-01	 8.4701778573e-01	 1.0787402441e+00
 6.6083337755e-01	 8.5347544139e-01	 9.4469279157e-01
 6.5251917737e-01	 8.5984872227e-01	 8.0743659363e-01
 6.4414907524e-01	 8.6613688220e-01	 6.6711520598e-01
 7.3110986703e-01	 8.0605486311e-01	 1.7049375143e+00
 7.2322429065e-01	 8.1313754280e-01	 1.6004578767e+00
 7.1527233812e-01	 8.2014113507e-01	 1.4921341665e+00
 7.0725520659e-01	 8.2706471224e-01	 1.3801455917e+00
 6.9917411015e-01	 8.3390737064e-01	 1.2646523888e+00
 6.9103027925e-01	 8.4066823096e-01	 1.1457982135e+00
 6.8282496008e-01	 8.4734643864e-01	 1.0237125947e+00
 6.7455941392e-01	 8.5394116421e-01	 8.9851343674e-01
 6.6623491653e-01	 8.6045160364e-01	 7.7030955130e-01
 6.5785275749e-01	 8.6687697863e-01	 6.3920320383e-01
 6.4941423958e-01	 8.7321653691e-01	 5.0529265705e-01
 5.9676154436e-01	 8.0241857555e-01	 2.6430769244e+00
 5.8895794732e-01	 8.0816364470e-01	 2.4290839481e+00
 5.8110500120e-01	 8.1382857572e-01	 2.2096202109e+00
 5.7320393083e-01	 8.1941275406e-01	 1.9849082353e+00
 5.6525597072e-01	 8.2491558997e-01	 1.7551710979e+00
 5.5726236447e-01	 8.3033651862e-01	 1.5206336070e+00
 5.4922436409e-01	 8.3567500029e-01	 1.2815234322e+00
 5.4114322943e-01	 8.4093052051e-01	 1.0380721772e+00
 5.3302022751e-01	 8.4610259018e-01	 7.9051638893e-01
 5.2485663194e-01	 8.5119074566e-01	 5.3909849723e-01
 5.1665372221e-01	 8.5619454885e-01	 2.8406767756e-01
 6.0202704437e-01	 8.0949868162e-01	 2.3798323224e+00
 5.9415459263e-01	 8.1529444214e-01	 2.1753842443e+00
 5.8623235637e-01	 8.2100935744e-01	 1.9660645364e+00
 5.7826157124e-01	 8.2664280754e-01	 1.7520437952e+00
 5.7024348265e-01	 8.3219419749e-01	 1.5334937650e+00
 5.6217934515e-01	 8.3766295747e-01	 1.3105886555e+00
 5.5407042182e-01	 8.4304854300e-01	 1.0835064058e+00
 5.4591798361e-01	 8.4835043509e-01	 8.5242988679e-01
 5.3772330874e-01	 8.5356814030e-01	 6.1754803540e-01
 5.2948768203e-01	 8.5870119090e-01	 3.7905691222e-01
 5.2121239428e-01	 8.6374914493e-01	 1.3716067675e-01
 6.0729246531e-01	 8.1657868137e-01	 2.1270056785e+00
 5.9935115990e-01	 8.2242513250e-01	 1.9315844502e+00
 5.9135963455e-01	 8.2819003132e-01	 1.7318499135e+00
 5.8331913571e-01	 8.3387275245e-01	 1.5279281909e+00
 5.7523091968e-01	 8.3947269570e-01	 1.3199470158e+00
 5.6709625200e-01	 8.4498928630e-01	 1.1080371844e+00
 5.5891640678e-01	 8.5042197499e-01	 8.9233395016e-01
 5.5069266610e-01	 8.5577023824e-01	 6.7297835215e-01
 5.4242631935e-01	 8.6103357830e-01	 4.5011846916e-01
 5.3411866258e-01	 8.6621152335e-01	 2.2391059188e-01
 5.2577099790e-01	 8.7130362757e-01	-5.4796936690e-03
 6.1255781763e-01	 8.2365858884e-01	 1.8848197931e+00
 6.0454765944e-01	 8.2955572993e-01	 1.6979576549e+00
 5.9648684590e-01	 8.3537061162e-01	 1.5072969149e+00
 5.8837663426e-01	 8.4110260312e-01	 1.3129264525e+00
 5.8021829172e-01	 8.4675109905e-01	 1.1149370932e+00
 5.7201309477e-01	 8.5231551964e-01	 9.1342319138e-01
 5.6376232859e-01	 8.5779531088e-01	 7.0848415042e-01
 5.5546728636e-01	 8.6318994468e-01	 5.0022587312e-01
 5.4712926866e-01	 8.6849891900e-01	 2.8876213192e-01
 5.3874958278e-01	 8.7372175792e-01	 7.4215851706e-02
 5.3032954210e-01	 8.7885801174e-01	-1.4327970227e-01
 6.1782311177e-01	 8.3073841808e-01	 1.6534936141e+00
 6.0974410157e-01	 8.3668624855e-01	 1.4747717768e+00
 6.0161400060e-01	 8.4255111257e-01	 1.2927197193e+00
 5.9343407693e-01	 8.4833237391e-01	 1.1073960925e+00
 5.8520560864e-01	 8.5402942198e-01	 9.1886170482e-01
 5.7692988321e-01	 8.5964167202e-01	 7.2718123079e-01
 5.6860819685e-01	 8.6516856529e-01	 5.3242485478e-01
 5.6024185387e-01	 8.7060956914e-01	 3.3466983851e-01
 5.5183216601e-01	 8.7596417721e-01	 1.3400200427e-01
 5.4338045181e-01	 8.8123190949e-01	-6.9482875295e-02
 5.3488803594e-01	 8.8641231243e-01	-2.7567778839e-01
 6.2308835817e-01	 8.3781818312e-01	 1.4332419491e+00
 6.1494049658e-01	 8.4381670253e-01	 1.2622893565e+00
 6.0674110882e-01	 8.4973154842e-01	 1.0884259815e+00
 5.9849147375e-01	 8.5556207914e-01	 9.1168704964e-01
 5.9019288035e-01	 8.6130767891e-01	 7.3211003419e-01
 5.8184662707e-01	 8.6696775798e-01	 5.4973648850e-01
 5.7345402118e-01	 8.7254175284e-01	 3.6461380814e-01
 5.6501637808e-01	 8.7802912632e-01	 1.7679691325e-01
 5.5653502071e-01	 8.8342936772e-01	-1.3650159088e-02
 5.4801127884e-01	 8.8874199297e-01	-2.0665276124e-01
 5.3944648844e-01	 8.9396654463e-01	-4.0212424855e-01
 6.2835356728e-01	 8.4489789802e-01	 1.2242751732e+00
 6.2013685478e-01	 8.5094710599e-01	 1.0607673419e+00
 6.1186818072e-01	 8.5691193340e-01	 8.9471669108e-01
 6.0354883474e-01	 8.6279173315e-01	 7.2614161649e-01
 5.9518011673e-01	 8.6858588428e-01	 5.5506273514e-01
 5.8676333611e-01	 8.7429379204e-01	 3.8150483713e-01
 5.7829981118e-01	 8.7991488817e-01	 2.0549876384e-01
 5.6979086847e-01	 8.8544863094e-01	 2.7083201474e-02
 5.6123784211e-01	 8.9089450536e-01	-1.5369362018e-01
 5.5264207308e-01	 8.9625202324e-01	-3.3677233344e-01
 5.4400490865e-01	 9.0152072331e-01	-5.2208095168e-01
 6.3361874953e-01	 8.5197757680e-01	 1.0267989332e+00
 6.2533318649e-01	 8.5807747309e-01	 8.7045686659e-01
 6.1699522646e-01	 8.6409228175e-01	 7.1188602105e-01
 6.0860616994e-01	 8.7002135030e-01	 5.5109435558e-01
 6.0016732768e-01	 8.7586405253e-01	 3.8809190986e-01
 5.9168002007e-01	 8.8161978874e-01	 2.2289287297e-01
 5.8314557646e-01	 8.8728798588e-01	 5.5517574566e-02
 5.7456533452e-01	 8.9286809771e-01	-1.1400561310e-01
 5.6594063951e-01	 8.9835960492e-01	-2.8563847287e-01
 5.5727284370e-01	 9.0376201521e-01	-4.5933125045e-01
 5.4856330561e-01	 9.0907486346e-01	-6.3502108135e-01
 6.3888391537e-01	 8.5905723351e-01	 8.4101384818e-01
 6.3052950199e-01	 8.6520781796e-01	 6.9160302083e-01
 6.2212225623e-01	 8.7127260773e-01	 5.4022116672e-01
 6.1366348937e-01	 8.7725094490e-01	 3.8687200193e-01
 6.0515452308e-01	 8.8314219809e-01	 2.3156107212e-01
 5.9659668870e-01	 8.8894576260e-01	 7.4297935407e-02
 5.8799132664e-01	 8.9466106062e-01	-8.4901736083e-02
 5.7933978568e-01	 9.0028754136e-01	-2.4601414812e-01
 5.7064342226e-01	 9.0582468120e-01	-4.0900548112e-01
 5.6190359988e-01	 9.1127198378e-01	-5.7383010237e-01
 5.5312168836e-01	 9.1662898006e-01	-7.4042890353e-01
 6.4414907524e-01	 8.6613688220e-01	 6.6711520598e-01
 6.3572581161e-01	 8.7233815474e-01	 5.2444461639e-01
 6.2724928019e-01	 8.7845292556e-01	 3.8000217518e-01
 6.1872080308e-01	 8.8448053131e-01	 2.3379335418e-01
 6.1014171282e-01	 8.9042033540e-01	 8.5825096227e-02
 6.0151335176e-01	 8.9627172815e-01	-6.3891890064e-02
 5.9283707133e-01	 9.0203412699e-01	-2.1534092058e-01
 5.8411423142e-01	 9.0770697660e-01	-3.6849722385e-01
 5.7534619968e-01	 9.1328974903e-01	-5.2332593891e-01
 5.6653435081e-01	 9.1878194382e-01	-6.7978023434e-01
 5.5768006594e-01	 9.2418308810e-01	-8.3779955842e-01
 6.4941423958e-01	 8.7321653691e-01	 5.0529265705e-01
 6.4092212563e-01	 8.7946849759e-01	 3.6921394516e-01
 6.3237630850e-01	 8.8563324950e-01	 2.3150176617e-01
 6.2377812107e-01	 8.9171012387e-01	 9.2169154447e-02
 6.1512890680e-01	 8.9769847889e-01	-4.8769847491e-02
 6.0643001899e-01	 9.0359769993e-01	-1.9129778429e-01
 5.9768282013e-01	 9.0940719963e-01	-3.3539147180e-01
 5.8888868122e-01	 9.1512641814e-01	-4.8101978333e-01
 5.8004898109e-01	 9.2075482320e-01	-6.2814155064e-01
 5.7116510568e-01	 9.2629191025e-01	-7.7670359158e-01
 5.6223844740e-01	 9.3173720256e-01	-9.2663887497e-01
 5.1665372221e-01	 8.5619454885e-01	 2.8406767756e-01
 5.0841278331e-01	 8.6111358749e-01	 2.6210365128e-02
 5.0013510550e-01	 8.6594747579e-01	-2.3375413618e-01
 4.9182198323e-01	 8.7069585389e-01	-4.9566761996e-01
 4.8347471433e-01	 8.7535838762e-01	-7.5936575238e-01
 4.7509459936e-01	 8.7993476851e-01	-1.0246774780e+00
 4.6668294105e-01	 8.8442471375e-01	-1.2914245237e+00
 4.5824104362e-01	 8.8882796619e-01	-1.5594210015e+00
 4.4977021217e-01	 8.9314429419e-01	-1.8284731140e+00
 4.4127175214e-01	 8.9737349163e-01	-2.0983789600e+00
 4.3274696861e-01	 9.0151537777e-01	-2.3689284436e+00
 5.2121239428e-01	 8.6374914493e-01	 1.3716067675e-01
 5.1289874181e-01	 8.6871158650e-01	-1.0743493192e-01
 5.0454802626e-01	 8.7358812641e-01	-3.5406260361e-01
 4.9616155352e-01	 8.7837840162e-01	-6.0256397567e-01
 4.8774063285e-01	 8.8308207502e-01	-8.5277314797e-01
 4.7928657630e-01	 8.8769883541e-01	-1.1045160652e+00
 4.7080069808e-01	 8.9222839749e-01	-1.3576100038e+00
 4.6228431392e-01	 8.9667050184e-01	-1.6118631661e+00
 4.5373874046e-01	 9.0102491477e-01	-1.8670743825e+00
 4.4516529463e-01	 9.0529142836e-01	-2.1230329229e+00
 4.3656529304e-01	 9.0946986025e-01	-2.3795184172e+00
 5.2577099790e-01	 8.7130362757e-01	-5.4796936690e-03
 5.1738463294e-01	 8.7630947141e-01	-2.3742221489e-01
 5.0896088076e-01	 8.8122866229e-01	-4.7130172621e-01
 5.0050105864e-01	 8.8606083398e-01	-7.0696122562e-01
 4.9200648731e-01	 8.9080564643e-01	-9.4423481143e-01
 4.8347849028e-01	 8.9546278571e-01	-1.1829470359e+00
 4.7491839327e-01	 9.0003196405e-01	-1.4229123710e+00
 4.6632752351e-01	 9.0451291972e-01	-1.6639347886e+00
 4.5770720916e-01	 9.0890541702e-01	-1.9058074560e+00
 4.4905877865e-01	 9.1320924619e-01	-2.1483125488e+00
 4.4038356013e-01	 9.1742422329e-01	-2.3912211790e+00
 5.3032954210e-01	 8.7885801174e-01	-1.4327970227e-01
 5.2187046562e-01	 8.8390725729e-01	-3.6316411340e-01
 5.1337367775e-01	 8.8886909858e-01	-5.8487345616e-01
 5.0484050721e-01	 8.9374316621e-01	-8.0825358718e-01
 4.9627228617e-01	 8.9852911717e-01	-1.0331401449e+00
 4.8767034963e-01	 9.0322663483e-01	-1.2593578698e+00
 4.7903603480e-01	 9.0783542889e-01	-1.4867200440e+00
 4.7037068041e-01	 9.1235523538e-01	-1.7150280532e+00
 4.6167562613e-01	 9.1678581655e-01	-1.9440710716e+00
 4.5295221193e-01	 9.2112696081e-01	-2.1736258714e+00
 4.4420177745e-01	 9.2537848265e-01	-2.4034567561e+00
 5.3488803594e-01	 8.8641231243e-01	-2.7567778839e-01
 5.2635624872e-01	 8.9150495921e-01	-4.8408560799e-01
 5.1778642597e-01	 8.9650945044e-01	-6.9419219814e-01
 5.0917990782e-01	 9.0142541355e-01	-9.0584775530e-01
 5.0053803789e-01	 9.0625250257e-01	-1.1188909790e+00
 4.9186216266e-01	 9.1099039814e-01	-1.3331483537e+00
 4.8315363082e-01	 9.1563880750e-01	-1.5484335576e+00
 4.7441379262e-01	 9.2019746438e-01	-1.7645470016e+00
 4.6564399924e-01	 9.2466612900e-01	-1.9812754994e+00
 4.5684560217e-01	 9.2904458795e-01	-2.1983920699e+00
 4.4801995257e-01	 9.3333265411e-01	-2.4156558718e+00
 5.3944648844e-01	 8.9396654463e-01	-4.0212424855e-01
 5.3084199115e-01	 8.9910259224e-01	-5.9962368543e-01
 5.2219913419e-01	 9.0414973303e-01	-7.9868443737e-01
 5.1351926909e-01	 9.0910759122e-01	-9.9916250719e-01
 5.0480375093e-01	 9.1397581793e-01	-1.2009011580e+00
 4.9605393768e-01	 9.1875409106e-01	-1.4037301512e+00
 4.8727118950e-01	 9.2344211535e-01	-1.6074651202e+00
 4.7845686817e-01	 9.2803962227e-01	-1.8119070816e+00
 4.6961233637e-01	 9.3254636999e-01	-2.0168420865e+00
 4.6073895712e-01	 9.3696214329e-01	-2.2220410116e+00
 4.5183809307e-01	 9.4128675344e-01	-2.4272594907e+00
 5.4400490865e-01	 9.0152072331e-01	-5.2208095168e-01
 5.3532770181e-01	 9.0670017145e-01	-7.0922702384e-01
 5.2661181114e-01	 9.1178996149e-01	-8.9778839829e-01
 5.1785859961e-01	 9.1678971448e-01	-1.0876283382e+00
 5.0906943376e-01	 9.2169907858e-01	-1.2785961562e+00
 5.0024568300e-01	 9.2651772899e-01	-1.4705264032e+00
 4.9138871902e-01	 9.3124536793e-01	-1.6632382023e+00
 4.8249991508e-01	 9.3588172461e-01	-1.8565347278e+00
 4.7358064539e-01	 9.4042655516e-01	-2.0502028327e+00
 4.6463228448e-01	 9.4487964254e-01	-2.2440128250e+00
 4.5565620653e-01	 9.4924079643e-01	-2.4377183936e+00
 5.4856330561e-01	 9.0907486346e-01	-6.3502108135e-01
 5.3981338958e-01	 9.1429771191e-01	-8.1235570575e-01
 5.3102446559e-01	 9.1943015098e-01	-9.9095373197e-01
 5.2219790801e-01	 9.2447179856e-01	-1.1706871272e+00
 5.1333509482e-01	 9.2942229984e-01	-1.3514127248e+00
 5.0443740694e-01	 9.3428132731e-01	-1.5329713597e+00
 4.9550622753e-01	 9.3904858070e-01	-1.7151871564e+00
 4.8654294136e-01	 9.4372378695e-01	-1.8978669719e+00
 4.7754893417e-01	 9.4830670014e-01	-2.0807999948e+00
 4.6852559198e-01	 9.5279710140e-01	-2.2637575037e+00
 4.5947430050e-01	 9.5719479885e-01	-2.4464927817e+00
 5.5312168836e-01	 9.1662898006e-01	-7.4042890353e-01
 5.4429906338e-01	 9.2189522869e-01	-9.0848095761e-01
 5.3543710628e-01	 9.2707031665e-01	-1.0776412307e+00
 5.2653720287e-01	 9.3215385868e-01	-1.2477918292e+00
 5.1760074259e-01	 9.3714549703e-01	-1.4187985664e+00
 5.0862911782e-01	 9.4204490143e-01	-1.5905100389e+00
 4.9962372321e-01	 9.4685176915e-01	-1.7627568640e+00
 4.9058595505e-01	 9.5156582484e-01	-1.9353510814e+00
 4.8151721057e-01	 9.5618682055e-01	-2.1080857208e+00
 4.7241888735e-01	 9.6071453559e-01	-2.2807345363e+00
 4.6329238258e-01	 9.6514877647e-01	-2.4530519079e+00
 5.5768006594e-01	 9.2418308810e-01	-8.3779955842e-01
 5.4878473208e-01	 9.2949273685e-01	-9.9708491413e-01
 5.3984974197e-01	 9.3471047367e-01	-1.1573225679e+00
 5.3087649282e-01	 9.3983591010e-01	-1.3184061945e+00
 5.2186638553e-01	 9.4486868545e-01	-1.4802120358e+00
 5.1282082394e-01	 9.4980846675e-01	-1.6425979132e+00
 5.0374121422e-01	 9.5465494875e-01	-1.8054024097e+00
 4.9462896414e-01	 9.5940785384e-01	-1.9684442255e+00
 4.8548548248e-01	 9.6406693203e-01	-2.1315217087e+00
 4.7631217830e-01	 9.6863196080e-01	-2.2944125634e+00
 4.6711046032e-01	 9.7310274507e-01	-2.4568737333e+00
 5.6223844740e-01	 9.3173720256e-01	-9.2663887497e-01
 5.5327040460e-01	 9.3709025147e-01	-1.0776604062e+00
 5.4426238140e-01	 9.4235063717e-01	-1.2294800628e+00
 5.3521578645e-01	 9.4751796805e-01	-1.3820045123e+00
 5.2613203208e-01	 9.5259188044e-01	-1.5351218660e+00
 5.1701253362e-01	 9.5757203867e-01	-1.6887006208e+00
 5.0785870872e-01	 9.6245813498e-01	-1.8425887815e+00
 4.9867197668e-01	 9.6724988951e-01	-1.9966131652e+00
 4.8945375776e-01	 9.7194705020e-01	-2.1505788916e+00
 4.8020547255e-01	 9.7654939274e-01	-2.3042690592e+00
 4.7092854131e-01	 9.8105672044e-01	-2.4574446084e+00
 4.3274696861e-01	 9.0151537777e-01	-2.3689284436e+00
 4.2419571008e-01	 9.0557047888e-01	-2.6397516187e+00
 4.1562072663e-01	 9.0953795245e-01	-2.9103472660e+00
 4.0702331907e-01	 9.1341769248e-01	-3.1804303409e+00
 3.9840478557e-01	 9.1720961780e-01	-3.4497028182e+00
 3.8976642107e-01	 9.2091367195e-01	-3.7178542197e+00
 3.8110951670e-01	 9.2452982293e-01	-3.9845622373e+00
 3.7243535926e-01	 9.2805806304e-01	-4.2494934466e+00
 3.6374523066e-01	 9.3149840861e-01	-4.5118676288e+00
 3.5504040738e-01	 9.3485089983e-01	-4.7703136192e+00
 3.4632215993e-01	 9.3811560045e-01	-5.0244264081e+00
 4.3656529304e-01	 9.0946986025e-01	-2.3795184172e+00
 4.2793858285e-01	 9.1356074138e-01	-2.6361036081e+00
 4.1928793839e-01	 9.1756322178e-01	-2.8922715890e+00
 4.1061467198e-01	 9.2147719453e-01	-3.1477823984e+00
 4.0192009321e-01	 9.2530257775e-01	-3.4023846303e+00
 3.9320550847e-01	 9.2903931446e-01	-3.6558158893e+00
 3.8447222027e-01	 9.3268737239e-01	-3.9078033438e+00
 3.7572152678e-01	 9.3624674377e-01	-4.1580643744e+00
 3.6695472120e-01	 9.3971744509e-01	-4.4061888078e+00
 3.5817309127e-01	 9.4309951687e-01	-4.6507412977e+00
 3.4937791874e-01	 9.4639302343e-01	-4.8911353297e+00
 4.4038356013e-01	 9.1742422329e-01	-2.3912211790e+00
 4.3168139940e-01	 9.2155088388e-01	-2.6340876058e+00
 4.2295509508e-01	 9.2558837060e-01	-2.8764129665e+00
 4.1420597095e-01	 9.2953657555e-01	-3.1179963298e+00
 4.0543534806e-01	 9.3339541616e-01	-3.3586263004e+00
 3.9664454422e-01	 9.3716483494e-01	-3.5980814160e+00
 3.8783487335e-01	 9.4084479935e-01	-3.8361306459e+00
 3.7900764494e-01	 9.4443530154e-01	-4.0725339913e+00
 3.7016416353e-01	 9.4793635814e-01	-4.3070426110e+00
 3.6130572813e-01	 9.5134801004e-01	-4.5385680426e+00
 3.5243363166e-01	 9.5467032212e-01	-4.7661071415e+00
 4.4420177745e-01	 9.2537848265e-01	-2.4034567561e+00
 4.3542416717e-01	 9.2954092225e-01	-2.6331302963e+00
 4.2662220398e-01	 9.3361341482e-01	-2.8621915032e+00
 4.1779722311e-01	 9.3759585153e-01	-3.0904725810e+00
 4.0895055710e-01	 9.4148814909e-01	-3.3177957008e+00
 4.0008353515e-01	 9.4529024952e-01	-3.5439733528e+00
 3.9119748259e-01	 9.4900211999e-01	-3.7688088078e+00
 3.8229372027e-01	 9.5262375257e-01	-3.9920966834e+00
 3.7337356404e-01	 9.5615516407e-01	-4.2136236103e+00
 3.6443832415e-01	 9.5959639570e-01	-4.4328059897e+00
 3.5548930476e-01	 9.6294751292e-01	-4.6482497458e+00
 4.4801995257e-01	 9.3333265411e-01	-2.4156558718e+00
 4.3916689358e-01	 9.3753087232e-01	-2.6326688241e+00
 4.3028927234e-01	 9.4163837035e-01	-2.8490380101e+00
 4.2138843558e-01	 9.4565503845e-01	-3.0646230277e+00
 4.1246572728e-01	 9.4958079259e-01	-3.2792733279e+00
 4.0352248808e-01	 9.5341557431e-01	-3.4928285372e+00
 3.9456005467e-01	 9.5715935048e-01	-3.7051188965e+00
 3.8557975929e-01	 9.6081211312e-01	-3.9159658106e+00
 3.7658292907e-01	 9.6437387917e-01	-4.1251825034e+00
 3.6757088555e-01	 9.6784469021e-01	-4.3324919310e+00
 3.5854494408e-01	 9.7122461225e-01	-4.5364999507e+00
 4.5183809307e-01	 9.4128675344e-01	-2.4272594907e+00
 4.4290958605e-01	 9.4552074994e-01	-2.6321503327e+00
 4.3395630746e-01	 9.4966325312e-01	-2.8363935181e+00
 4.2497961549e-01	 9.5371415229e-01	-3.0398704441e+00
 4.1598086559e-01	 9.5767336271e-01	-3.2424517079e+00
 4.0696140982e-01	 9.6154082542e-01	-3.4439974141e+00
 3.9792259627e-01	 9.6531650701e-01	-3.6443576053e+00
 3.8886576851e-01	 9.6900039943e-01	-3.8433728114e+00
 3.7979226501e-01	 9.7259251976e-01	-4.0408747099e+00
 3.7070341855e-01	 9.7609290993e-01	-4.2366868945e+00
 3.6160055570e-01	 9.7950163653e-01	-4.4298219325e+00
 4.5565620653e-01	 9.4924079643e-01	-2.4377183936e+00
 4.4665225201e-01	 9.5351057097e-01	-2.6310315337e+00
 4.3762331660e-01	 9.5768807905e-01	-2.8237088226e+00
 4.2857076996e-01	 9.6177320904e-01	-3.0156480051e+00
 4.1949597900e-01	 9.6576587551e-01	-3.2067348385e+00
 4.1040030719e-01	 9.6966601897e-01	-3.3968433992e+00
 4.0128511404e-01	 9.7347360575e-01	-3.5858365209e+00
 3.9215175446e-01	 9.7718862773e-01	-3.7735663571e+00
 3.8300157821e-01	 9.8081110212e-01	-3.9598750655e+00
 3.7383592935e-01	 9.8434107123e-01	-4.1445956050e+00
 3.6465614567e-01	 9.8777860218e-01	-4.3272057698e+00
 4.5947430050e-01	 9.5719479885e-01	-2.4464927817e+00
 4.5039489888e-01	 9.6150035124e-01	-2.6287783050e+00
 4.4129030703e-01	 9.6571286404e-01	-2.8104440581e+00
 4.3216190611e-01	 9.6983222469e-01	-2.9913988195e+00
 4.2301107448e-01	 9.7385834702e-01	-3.1715376636e+00
 4.1383918703e-01	 9.7779117108e-01	-3.3507422797e+00
 4.0464761466e-01	 9.8163066289e-01	-3.5288814321e+00
 3.9543772364e-01	 9.8537681426e-01	-3.7058115533e+00
 3.8621087504e-01	 9.8902964256e-01	-3.8813774665e+00
 3.7696842418e-01	 9.9258919045e-01	-4.0554132287e+00
 3.6771172006e-01	 9.9605552561e-01	-4.2276660456e+00
 4.6329238258e-01	 9.6514877647e-01	-2.4530519079e+00
 4.5413753408e-01	 9.6949010660e-01	-2.6248653154e+00
 4.4495728603e-01	 9.7373762401e-01	-2.7960682994e+00
 4.3575303107e-01	 9.7789121521e-01	-2.9665754926e+00
 4.2652615900e-01	 9.8195079332e-01	-3.1362855807e+00
 4.1727805615e-01	 9.8591629786e-01	-3.3050816491e+00
 4.0801010480e-01	 9.8978769460e-01	-3.4728316788e+00
 3.9872368258e-01	 9.9356497527e-01	-3.6393891856e+00
 3.8942016187e-01	 9.9724815739e-01	-3.8045939972e+00
 3.8010090925e-01	 1.0008372840e+00	-3.9682731592e+00
 3.7076728492e-01	 1.0043324232e+00	-4.1302419647e+00
 4.6711046032e-01	 9.7310274507e-01	-2.4568737333e+00
 4.5788016503e-01	 9.7747985291e-01	-2.6187756746e+00
 4.4862426087e-01	 9.8176237489e-01	-2.7800591902e+00
 4.3934415195e-01	 9.8595019660e-01	-2.9406397160e+00
 4.3004123953e-01	 9.9004323043e-01	-3.1004139774e+00
 4.2071692137e-01	 9.9404141543e-01	-3.2592603759e+00
 4.1137259112e-01	 9.9794471706e-01	-3.4170395362e+00
 4.0200963779e-01	 1.0017531270e+00	-3.5735950063e+00
 3.9262944505e-01	 1.0054666629e+00	-3.7287541049e+00
 3.8323339076e-01	 1.0090853681e+00	-3.8823289078e+00
 3.7382284632e-01	 1.0126093115e+00	-4.0341173652e+00
 4.7092854131e-01	 9.8105672044e-01	-2.4574446084e+00
 4.6162279917e-01	 9.8546960600e-01	-2.6100006080e+00
 4.5229123883e-01	 9.8978713259e-01	-2.7619025952e+00
 4.4293527589e-01	 9.9400918483e-01	-2.9130618841e+00
 4.3355632305e-01	 9.9813567443e-01	-3.0633677966e+00
 4.2415578950e-01	 1.0021665399e+00	-3.2126881034e+00
 4.1473508031e-01	 1.0061017465e+00	-3.3608696356e+00
 4.0529559579e-01	 1.0099412857e+00	-3.5077390613e+00
 3.9583873097e-01	 1.0136851754e+00	-3.6531038194e+00
 3.8636587493e-01	 1.0173334593e+00	-3.7967532019e+00
 3.7687841031e-01	 1.0208862068e+00	-3.9384595777e+00
 3.4632215993e-01	 9.3811560045e-01	-5.0244264081e+00
 3.3759323727e-01	 9.4129206486e-01	-5.2745546693e+00
 3.2885341468e-01	 9.4438096497e-01	-5.5212307580e+00
 3.2010394073e-01	 9.4738243296e-01	-5.7642572270e+00
 3.1134605611e-01	 9.5029662344e-01	-6.0034554356e+00
 3.0258099304e-01	 9.5312371316e-01	-6.2386657785e+00
 2.9380997494e-01	 9.5586390071e-01	-6.4697478357e+00
 2.8503421588e-01	 9.5851740614e-01	-6.6965804459e+00
 2.7625492019e-01	 9.6108447067e-01	-6.9190617038e+00
 2.6747328204e-01	 9.6356535632e-01	-7.1371088850e+00
 2.5869048500e-01	 9.6596034556e-01	-7.3506582987e+00
 3.4937791874e-01	 9.4639302343e-01	-4.8911353297e+00
 3.4057197680e-01	 9.4959751524e-01	-5.1278773944e+00
 3.3175503876e-01	 9.5271367013e-01	-5.3615886075e+00
 3.2292836420e-01	 9.5574162144e-01	-5.5920356824e+00
 3.1409320475e-01	 9.5868152515e-01	-5.8190028917e+00
 3.0525080353e-01	 9.6153355958e-01	-6.0422923920e+00
 2.9640239472e-01	 9.6429792505e-01	-6.2617244661e+00
 2.8754920312e-01	 9.6697484357e-01	-6.4771376859e+00
 2.7869244369e-01	 9.6956455848e-01	-6.6883889958e+00
 2.6983332113e-01	 9.7206733412e-01	-6.8953537196e+00
 2.6097302946e-01	 9.7448345545e-01	-7.0979254939e+00
 3.5243363166e-01	 9.5467032212e-01	-4.7661071415e+00
 3.4355067160e-01	 9.5790284089e-01	-4.9902660055e+00
 3.3465661926e-01	 9.6104625015e-01	-5.2117102356e+00
 3.2575274526e-01	 9.6410068439e-01	-5.4301819239e+00
 3.1684031214e-01	 9.6706630095e-01	-5.6454398377e+00
 3.0792057392e-01	 9.6994327971e-01	-5.8572598185e+00
 2.9899477557e-01	 9.7273182274e-01	-6.0654350965e+00
 2.9006415260e-01	 9.7543215400e-01	-6.2697765219e+00
 2.8112993059e-01	 9.7804451896e-01	-6.4701127127e+00
 2.7219332478e-01	 9.8056918426e-01	-6.6662901237e+00
 2.6325553964e-01	 9.8300643735e-01	-6.8581730371e+00
 3.5548930476e-01	 9.6294751292e-01	-4.6482497458e+00
 3.4652932758e-01	 9.6620805830e-01	-4.8605235145e+00
 3.3755816195e-01	 9.6937872157e-01	-5.0703044519e+00
 3.2857708950e-01	 9.7245963839e-01	-5.2773208884e+00
 3.1958738373e-01	 9.7545096747e-01	-5.4813173042e+00
 3.1059030952e-01	 9.7835289023e-01	-5.6820547841e+00
 3.0158712263e-01	 9.8116561051e-01	-5.8793113831e+00
 2.9257906930e-01	 9.8388935420e-01	-6.0728824045e+00
 2.8356738572e-01	 9.8652436891e-01	-6.2625805928e+00
 2.7455329767e-01	 9.8907092358e-01	-6.4482362426e+00
 2.6553802007e-01	 9.9152930816e-01	-6.6296972265e+00
 3.5854494408e-01	 9.7122461225e-01	-4.5364999507e+00
 3.4950795064e-01	 9.7451318394e-01	-4.7374860899e+00
 3.4045967257e-01	 9.7771110092e-01	-4.9361170868e+00
 3.3140140253e-01	 9.8081850002e-01	-5.1321180211e+00
 3.2233442496e-01	 9.8383554133e-01	-5.3252299544e+00
 3.1326001561e-01	 9.8676240782e-01	-5.5152104195e+00
 3.0417944105e-01	 9.8959930508e-01	-5.7018338171e+00
 2.9509395820e-01	 9.9234646095e-01	-5.8848917214e+00
 2.8600481391e-01	 9.9500412515e-01	-6.0641930963e+00
 2.7691324449e-01	 9.9757256896e-01	-6.2395644245e+00
 2.6782047528e-01	 1.0000520848e+00	-6.4108497515e+00
 3.6160055570e-01	 9.7950163653e-01	-4.4298219325e+00
 3.5248654669e-01	 9.8281823426e-01	-4.6200213604e+00
 3.4336115689e-01	 9.8604340471e-01	-4.8079291515e+00
 3.3422568995e-01	 9.8917728587e-01	-4.9932773092e+00
 3.2508144128e-01	 9.9222003916e-01	-5.1758140044e+00
 3.1592969750e-01	 9.9517184916e-01	-5.3553040803e+00
 3.0677173596e-01	 9.9803292319e-01	-5.5315294603e+00
 2.9760882431e-01	 1.0008034910e+00	-5.7042894606e+00
 2.8844222001e-01	 1.0034838045e+00	-5.8734010098e+00
 2.7927316990e-01	 1.0060741373e+00	-6.0386987775e+00
 2.7010290979e-01	 1.0085747842e+00	-6.2000352145e+00
 3.6465614567e-01	 9.8777860218e-01	-4.3272057698e+00
 3.5546512164e-01	 9.9112322576e-01	-4.5070267984e+00
 3.4626262065e-01	 9.9437564948e-01	-4.6845550865e+00
 3.3704995737e-01	 9.9753601250e-01	-4.8595394084e+00
 3.2782843815e-01	 1.0006044776e+00	-5.0317452430e+00
 3.1859936047e-01	 1.0035812309e+00	-5.2009552746e+00
 3.0936401251e-01	 1.0064664815e+00	-5.3669697922e+00
 3.0012367260e-01	 1.0092604612e+00	-5.5296069897e+00
 2.9087960883e-01	 1.0119634238e+00	-5.6887031691e+00
 2.8163307860e-01	 1.0145756453e+00	-5.8441128481e+00
 2.7238532814e-01	 1.0170974231e+00	-5.9957087760e+00
 3.6771172006e-01	 9.9605552561e-01	-4.2276660456e+00
 3.5844368140e-01	 9.9942817490e-01	-4.3974281801e+00
 3.4916406961e-01	 1.0027078517e+00	-4.5648410932e+00
 3.3987421038e-01	 1.0058946965e+00	-4.7296798604e+00
 3.3057542100e-01	 1.0089888733e+00	-4.8917371476e+00
 3.2126900983e-01	 1.0119905698e+00	-5.0508236893e+00
 3.1195627583e-01	 1.0148999969e+00	-5.2067686597e+00
 3.0263850806e-01	 1.0177173882e+00	-5.3594199416e+00
 2.9331698523e-01	 1.0204429998e+00	-5.5086442924e+00
 2.8399297526e-01	 1.0230771100e+00	-5.6543274118e+00
 2.7466773484e-01	 1.0256200187e+00	-5.7963739136e+00
 3.7076728492e-01	 1.0043324232e+00	-4.1302419647e+00
 3.6142223187e-01	 1.0077330981e+00	-4.2901781160e+00
 3.5206550952e-01	 1.0110400280e+00	-4.4476635429e+00
 3.4269845458e-01	 1.0142533544e+00	-4.6025073930e+00
 3.3332239529e-01	 1.0173732428e+00	-4.7545390885e+00
 3.2393865087e-01	 1.0203998825e+00	-4.9036073111e+00
 3.1454853108e-01	 1.0233334860e+00	-5.0495803266e+00
 3.0515333568e-01	 1.0261742889e+00	-5.1923462024e+00
 2.9575435403e-01	 1.0289225495e+00	-5.3318129178e+00
 2.8635286457e-01	 1.0315785482e+00	-5.4679083718e+00
 2.7695013443e-01	 1.0341425876e+00	-5.6005802905e+00
 3.7382284632e-01	 1.0126093115e+00	-4.0341173652e+00
 3.6440077897e-01	 1.0160380120e+00	-4.1842546497e+00
 3.5496694615e-01	 1.0193721949e+00	-4.3319274596e+00
 3.4552269558e-01	 1.0226120029e+00	-4.4768623000e+00
 3.3606936646e-01	 1.0257576029e+00	-4.6189346177e+00
 3.2660828888e-01	 1.0288091856e+00	-4.7580406358e+00
 3.1714078338e-01	 1.0317669655e+00	-4.8940976139e+00
 3.0766816045e-01	 1.0346311799e+00	-5.0270439947e+00
 2.9819172007e-01	 1.0374020895e+00	-5.1568394396e+00
 2.8871275120e-01	 1.0400799768e+00	-5.2834647568e+00
 2.7923253144e-01	 1.0426651469e+00	-5.4069217258e+00
 3.7687841031e-01	 1.0208862068e+00	-3.9384595777e+00
 3.6737932860e-01	 1.0243429329e+00	-4.0786599186e+00
 3.5786838524e-01	 1.0277043688e+00	-4.2165650720e+00
 3.4834693899e-01	 1.0309706585e+00	-4.3516148959e+00
 3.3881633997e-01	 1.0341419700e+00	-4.4837398370e+00
 3.2927792916e-01	 1.0372184959e+00	-4.6128929611e+00
 3.1973303789e-01	 1.0402004521e+00	-4.7390501285e+00
 3.1018298736e-01	 1.0430880782e+00	-4.8622100516e+00
 3.0062908817e-01	 1.0458816367e+00	-4.9823942371e+00
 2.9107263984e-01	 1.0485814126e+00	-5.0996468151e+00
 2.8151493038e-01	 1.0511877135e+00	-5.2140342615e+00
 2.5869048500e-01	 9.6596034556e-01	-7.3506582987e+00
 2.4990770180e-01	 9.6826974115e-01	-7.5591552666e+00
 2.4112609427e-01	 9.7049386637e-01	-7.7619186678e+00
 2.3234681259e-01	 9.7263306406e-01	-7.9587291301e+00
 2.2357099480e-01	 9.7468769596e-01	-8.1493935026e+00
 2.1479976648e-01	 9.7665814235e-01	-8.3337445249e+00
 2.0603424041e-01	 9.7854480164e-01	-8.5116404304e+00
 1.9727551623e-01	 9.8034808995e-01	-8.6829644878e+00
 1.8852468015e-01	 9.8206844073e-01	-8.8476244842e+00
 1.7978280468e-01	 9.8370630427e-01	-9.0055521539e+00
 1.7105094831e-01	 9.8526214738e-01	-9.1567025578e+00
 2.6097302946e-01	 9.7448345545e-01	-7.0979254939e+00
 2.5211275175e-01	 9.7681322788e-01	-7.2955888496e+00
 2.4325366008e-01	 9.7905697758e-01	-7.4877508642e+00
 2.3439691478e-01	 9.8121505038e-01	-7.6742209802e+00
 2.2554366393e-01	 9.8328781124e-01	-7.8548328610e+00
 2.1669504306e-01	 9.8527564378e-01	-8.0294440594e+00
 2.0785217474e-01	 9.8717894993e-01	-8.1979356211e+00
 1.9901616833e-01	 9.8899814948e-01	-8.3602116258e+00
 1.9018811962e-01	 9.9073367969e-01	-8.5161986713e+00
 1.8136911059e-01	 9.9238599486e-01	-8.6658453030e+00
 1.7256020906e-01	 9.9395556588e-01	-8.8091213952e+00
 2.6325553964e-01	 9.8300643735e-01	-6.8581730371e+00
 2.5431776858e-01	 9.8535658633e-01	-7.0452863558e+00
 2.4538119393e-01	 9.8761996020e-01	-7.2271149990e+00
 2.3644698618e-01	 9.8979690784e-01	-7.4034936793e+00
 2.2751630344e-01	 9.9188779738e-01	-7.5742796602e+00
 2.1859029117e-01	 9.9389301581e-01	-7.7393524216e+00
 2.0967008177e-01	 9.9581296856e-01	-7.8986132598e+00
 2.0075679429e-01	 9.9764807911e-01	-8.0519848261e+00
 1.9185153412e-01	 9.9939878854e-01	-8.1994106066e+00
 1.8295539268e-01	 1.0010655551e+00	-8.3408543492e+00
 1.7406944714e-01	 1.0026488538e+00	-8.4762994417e+00
 2.6553802007e-01	 9.9152930816e-01	-6.6296972265e+00
 2.5652275667e-01	 9.9389983343e-01	-6.8065293773e+00
 2.4750870006e-01	 9.9618283122e-01	-6.9782847984e+00
 2.3849703086e-01	 9.9837865345e-01	-7.1448200037e+00
 2.2948891725e-01	 1.0004876714e+00	-7.3060127140e+00
 2.2048551459e-01	 1.0025102755e+00	-7.4617615176e+00
 2.1148796511e-01	 1.0044468747e+00	-7.6119854640e+00
 2.0249739757e-01	 1.0062978960e+00	-7.7566235953e+00
 1.9351492693e-01	 1.0080637845e+00	-7.8956344194e+00
 1.8454165409e-01	 1.0097450022e+00	-8.0289953292e+00
 1.7557866555e-01	 1.0113420285e+00	-8.1567019727e+00
 2.6782047528e-01	 1.0000520848e+00	-6.4108497515e+00
 2.5872772040e-01	 1.0024429861e+00	-6.5776558143e+00
 2.4963618268e-01	 1.0047456076e+00	-6.7395909526e+00
 2.4054705289e-01	 1.0069603042e+00	-6.8965300852e+00
 2.3146150925e-01	 1.0090874505e+00	-7.0483683174e+00
 2.2238071706e-01	 1.0111274400e+00	-7.1950205927e+00
 2.1330582836e-01	 1.0130806854e+00	-7.3364212777e+00
 2.0423798161e-01	 1.0149476173e+00	-7.4725236829e+00
 1.9517830137e-01	 1.0167286846e+00	-7.6032995252e+00
 1.8612789797e-01	 1.0184243535e+00	-7.7287383348e+00
 1.7708786729e-01	 1.0200351071e+00	-7.8488468132e+00
 2.7010290979e-01	 1.0085747842e+00	-6.2000352145e+00
 2.6093266413e-01	 1.0109860614e+00	-6.3570573728e+00
 2.5176364600e-01	 1.0133083064e+00	-6.5094185981e+00
 2.4259705633e-01	 1.0155418772e+00	-6.6570088899e+00
 2.3343408337e-01	 1.0176871515e+00	-6.7997377317e+00
 2.2427590234e-01	 1.0197445264e+00	-6.9375337327e+00
 2.1512367513e-01	 1.0217144178e+00	-7.0703442007e+00
 2.0597854987e-01	 1.0235972602e+00	-7.1981346487e+00
 1.9684166072e-01	 1.0253935062e+00	-7.3208882419e+00
 1.8771412747e-01	 1.0271036260e+00	-7.4386051897e+00
 1.7859705534e-01	 1.0287281069e+00	-7.5513020854e+00
 2.7238532814e-01	 1.0170974231e+00	-5.9957087760e+00
 2.6313759225e-01	 1.0195290761e+00	-6.1431771851e+00
 2.5389109426e-01	 1.0218709445e+00	-6.2862049259e+00
 2.4464704525e-01	 1.0241233894e+00	-6.4246938218e+00
 2.3540664351e-01	 1.0262867917e+00	-6.5585647940e+00
 2.2617107421e-01	 1.0283615517e+00	-6.6877574902e+00
 2.1694150902e-01	 1.0303480891e+00	-6.8122298413e+00
 2.0771910580e-01	 1.0322468419e+00	-6.9319575514e+00
 1.9850500829e-01	 1.0340582665e+00	-7.0469335258e+00
 1.8930034574e-01	 1.0357828370e+00	-7.1571672421e+00
 1.8010623270e-01	 1.0374210451e+00	-7.2626840687e+00
 2.7466773484e-01	 1.0256200187e+00	-5.7963739136e+00
 2.6534250911e-01	 1.0280720472e+00	-5.9345075479e+00
 2.5601853167e-01	 1.0304335389e+00	-6.0684369055e+00
 2.4669702371e-01	 1.0327048578e+00	-6.1980724441e+00
 2.3737919359e-01	 1.0348863879e+00	-6.3233436454e+00
 2.2806623640e-01	 1.0369785331e+00	-6.4441986276e+00
 2.1875933364e-01	 1.0389817163e+00	-6.5606036841e+00
 2.0945965286e-01	 1.0408963794e+00	-6.6725427523e+00
 2.0016834737e-01	 1.0427229825e+00	-6.7800168192e+00
 1.9088655592e-01	 1.0444620038e+00	-6.8830432671e+00
 1.8161540236e-01	 1.0461139390e+00	-6.9816551658e+00
 2.7695013443e-01	 1.0341425876e+00	-5.6005802905e+00
 2.6754741911e-01	 1.0366149917e+00	-5.7295877693e+00
 2.5814596244e-01	 1.0389961067e+00	-5.8546491212e+00
 2.4874699579e-01	 1.0412862995e+00	-5.9756803125e+00
 2.3935173753e-01	 1.0434859574e+00	-6.0926165692e+00
 2.2996139269e-01	 1.0455954876e+00	-6.2054119709e+00
 2.2057715259e-01	 1.0476153166e+00	-6.3140389678e+00
 2.1120019449e-01	 1.0495458899e+00	-6.4184878257e+00
 2.0183168127e-01	 1.0513876715e+00	-6.5187660038e+00
 1.9247276115e-01	 1.0531411436e+00	-6.6148974715e+00
 1.8312456732e-01	 1.0548068057e+00	-6.7069219695e+00
 2.7923253144e-01	 1.0426651469e+00	-5.4069217258e+00
 2.6975232661e-01	 1.0451579266e+00	-5.5270021206e+00
 2.6027339081e-01	 1.0475586647e+00	-5.6434217118e+00
 2.5079696554e-01	 1.0498677314e+00	-5.7560989116e+00
 2.4132427923e-01	 1.0520855171e+00	-5.8649719338e+00
 2.3185654683e-01	 1.0542124324e+00	-5.9699983669e+00
 2.2239496948e-01	 1.0562489071e+00	-6.0711546665e+00
 2.1294073414e-01	 1.0581953907e+00	-6.1684355719e+00
 2.0349501329e-01	 1.0600523507e+00	-6.2618534537e+00
 1.9405896458e-01	 1.0618202734e+00	-6.3514375963e+00
 1.8463373057e-01	 1.0634996626e+00	-6.4372334229e+00
 2.8151493038e-01	 1.0511877135e+00	-5.2140342615e+00
 2.7195723598e-01	 1.0537008686e+00	-5.3253778840e+00
 2.6240082098e-01	 1.0561212300e+00	-5.4333784090e+00
 2.5284693703e-01	 1.0584491706e+00	-5.5379536917e+00
 2.4329682261e-01	 1.0606850842e+00	-5.6390422350e+00
 2.3375170258e-01	 1.0628293844e+00	-5.7366027393e+00
 2.2421278792e-01	 1.0648825050e+00	-5.8306135663e+00
 2.1468127528e-01	 1.0668448987e+00	-5.9210721248e+00
 2.0515834672e-01	 1.0687170373e+00	-6.0079941824e+00
 1.9564516936e-01	 1.0704994107e+00	-6.0914131109e+00
 1.8614289510e-01	 1.0721925270e+00	-6.1713790693e+00
 1.7105094831e-01	 9.8526214738e-01	-9.1567025578e+00
 1.6232867404e-01	 9.8673669648e-01	-9.3011250813e+00
 1.5361849940e-01	 9.8813017818e-01	-9.4387516859e+00
 1.4492144212e-01	 9.8944310564e-01	-9.5694631085e+00
 1.3623850489e-01	 9.9067600676e-01	-9.6931522243e+00
 1.2757067517e-01	 9.9182942379e-01	-9.8097236078e+00
 1.1891892497e-01	 9.9290391285e-01	-9.9190930693e+00
 1.1028421068e-01	 9.9390004351e-01	-1.0021187173e+01
 1.0166747288e-01	 9.9481839835e-01	-1.0115942741e+01
 9.3069636226e-02	 9.9565957252e-01	-1.0203306336e+01
 8.4491609256e-02	 9.9642417327e-01	-1.0283233748e+01
 1.7256020906e-01	 9.9395556588e-01	-8.8091213952e+00
 1.6376097417e-01	 9.9544312560e-01	-8.9459658476e+00
 1.5497394568e-01	 9.9684890263e-01	-9.0762016300e+00
 1.4620015028e-01	 9.9817341465e-01	-9.1997221514e+00
 1.3744059953e-01	 9.9941719423e-01	-9.3164342716e+00
 1.2869628959e-01	 1.0005807884e+00	-9.4262577931e+00
 1.1996820103e-01	 1.0016647582e+00	-9.5291249299e+00
 1.1125729871e-01	 1.0026696781e+00	-9.6249797546e+00
 1.0256453149e-01	 1.0035961360e+00	-9.7137776295e+00
 9.3890832195e-02	 1.0044447323e+00	-9.7954846242e+00
 8.5237117371e-02	 1.0052160794e+00	-9.8700769238e+00
 1.7406944714e-01	 1.0026488538e+00	-8.4762994417e+00
 1.6519325279e-01	 1.0041494240e+00	-8.6056168562e+00
 1.5632937160e-01	 1.0055674962e+00	-8.7285624804e+00
 1.4747883925e-01	 1.0069035926e+00	-8.8450401920e+00
 1.3864267612e-01	 1.0081582504e+00	-8.9549684086e+00
 1.2982188710e-01	 1.0093320216e+00	-9.0582795188e+00
 1.2101746134e-01	 1.0104254719e+00	-9.1549192880e+00
 1.1223037213e-01	 1.0114391811e+00	-9.2448462426e+00
 1.0346157664e-01	 1.0123737419e+00	-9.3280310375e+00
 9.4712015832e-02	 1.0132297601e+00	-9.4044558090e+00
 8.5982614290e-02	 1.0140078536e+00	-9.4741135189e+00
 1.7557866555e-01	 1.0113420285e+00	-8.1567019727e+00
 1.6662551275e-01	 1.0128556089e+00	-8.2785921749e+00
 1.5768477986e-01	 1.0142859761e+00	-8.3943888975e+00
 1.4875751154e-01	 1.0156336567e+00	-8.5040043958e+00
 1.3984473704e-01	 1.0168991927e+00	-8.6073663360e+00
 1.3094746993e-01	 1.0180831407e+00	-8.7044171716e+00
 1.2206670797e-01	 1.0191860715e+00	-8.7951134939e+00
 1.1320343286e-01	 1.0202085697e+00	-8.8794253591e+00
 1.0435861009e-01	 1.0211512334e+00	-8.9573355993e+00
 9.5533188766e-02	 1.0220146734e+00	-9.0288391176e+00
 8.6728101492e-02	 1.0227995132e+00	-9.0939421749e+00
 1.7708786729e-01	 1.0200351071e+00	-7.8488468132e+00
 1.6805775688e-01	 1.0215616976e+00	-7.9634569064e+00
 1.5904017314e-01	 1.0230043596e+00	-8.0722853182e+00
 1.5003616971e-01	 1.0243636244e+00	-8.1752506997e+00
 1.4104678467e-01	 1.0256400384e+00	-8.2722877703e+00
 1.3207304034e-01	 1.0268341631e+00	-8.3633466462e+00
 1.2311594301e-01	 1.0279465742e+00	-8.4483921414e+00
 1.1417648284e-01	 1.0289778614e+00	-8.5274030451e+00
 1.0525563362e-01	 1.0299286279e+00	-8.6003713818e+00
 9.6354352626e-02	 1.0307994897e+00	-8.6673016560e+00
 8.7473580456e-02	 1.0315910756e+00	-8.7282100877e+00
 1.7859705534e-01	 1.0287281069e+00	-7.5513020854e+00
 1.6948998802e-01	 1.0302677074e+00	-7.6588250064e+00
 1.6039555413e-01	 1.0317226641e+00	-7.7609038329e+00
 1.5131481628e-01	 1.0330935129e+00	-7.8574617364e+00
 1.4224882141e-01	 1.0343808048e+00	-7.9484384054e+00
 1.3319860053e-01	 1.0355851062e+00	-8.0337893318e+00
 1.2416516854e-01	 1.0367069976e+00	-8.1134850690e+00
 1.1514952401e-01	 1.0377470737e+00	-8.1875104660e+00
 1.0615264903e-01	 1.0387059428e+00	-8.2558638824e+00
 9.7175509039e-02	 1.0395842263e+00	-8.3185563898e+00
 8.8219052661e-02	 1.0403825583e+00	-8.3756109620e+00
 1.8010623270e-01	 1.0374210451e+00	-7.2626840687e+00
 1.7092220902e-01	 1.0389736555e+00	-7.3633572110e+00
 1.6175092552e-01	 1.0404409069e+00	-7.4589421692e+00
 1.5259345380e-01	 1.0418233396e+00	-7.5493648637e+00
 1.4345084964e-01	 1.0431215094e+00	-7.6345679761e+00
 1.3432415275e-01	 1.0443359873e+00	-7.7145102000e+00
 1.2521438663e-01	 1.0454673588e+00	-7.7891654617e+00
 1.1612255827e-01	 1.0465162238e+00	-7.8585221171e+00
 1.0704965808e-01	 1.0474831955e+00	-7.9225821285e+00
 9.7996659635e-02	 1.0483689007e+00	-7.9813602276e+00
 8.8964519584e-02	 1.0491739787e+00	-8.0348830680e+00
 1.8161540236e-01	 1.0461139390e+00	-6.9816551658e+00
 1.7235442272e-01	 1.0476795592e+00	-7.0757590667e+00
 1.6310629000e-01	 1.0491591052e+00	-7.1651417754e+00
 1.5387208479e-01	 1.0505531217e+00	-7.2497302909e+00
 1.4465287173e-01	 1.0518621693e+00	-7.3294684181e+00
 1.3544969924e-01	 1.0530868237e+00	-7.4043159879e+00
 1.2626359937e-01	 1.0542276754e+00	-7.4742480472e+00
 1.1709558758e-01	 1.0552853291e+00	-7.5392540236e+00
 1.0794666255e-01	 1.0562604034e+00	-7.5993368709e+00
 9.8817806043e-02	 1.0571535302e+00	-7.6545121994e+00
 8.9709982704e-02	 1.0579653543e+00	-7.7048073960e+00
 1.8312456732e-01	 1.0548068057e+00	-6.7069219695e+00
 1.7378663194e-01	 1.0563854358e+00	-6.7947790576e+00
 1.6446165025e-01	 1.0578772763e+00	-6.8782859984e+00
 1.5515071180e-01	 1.0592828766e+00	-6.9573692984e+00
 1.4585489007e-01	 1.0606028020e+00	-7.0319721190e+00
 1.3657524221e-01	 1.0618376329e+00	-7.1020534713e+00
 1.2731280884e-01	 1.0629879647e+00	-7.1675873816e+00
 1.1806861385e-01	 1.0640544072e+00	-7.2285620298e+00
 1.0884366423e-01	 1.0650375840e+00	-7.2849788683e+00
 9.9638949891e-02	 1.0659381324e+00	-7.3368517260e+00
 9.0455443500e-02	 1.0667567025e+00	-7.3842059021e+00
 1.8463373057e-01	 1.0634996626e+00	-6.4372334229e+00
 1.7521883955e-01	 1.0650913025e+00	-6.5192068240e+00
 1.6581700897e-01	 1.0665954375e+00	-6.5971983513e+00
 1.5642933736e-01	 1.0680126217e+00	-6.6711325443e+00
 1.4705690705e-01	 1.0693434248e+00	-6.7409502544e+00
 1.3770078391e-01	 1.0705884322e+00	-6.8066078217e+00
 1.2836201712e-01	 1.0717482441e+00	-6.8680762193e+00
 1.1904163902e-01	 1.0728234753e+00	-6.9253401719e+00
 1.0974066489e-01	 1.0738147547e+00	-6.9783972540e+00
 1.0046009281e-01	 1.0747227247e+00	-7.0272569726e+00
 9.1200903452e-02	 1.0755480407e+00	-7.0719398403e+00
 1.8614289510e-01	 1.0721925270e+00	-6.1713790693e+00
 1.7665104837e-01	 1.0737971766e+00	-6.2478714673e+00
 1.6717236883e-01	 1.0753136062e+00	-6.3207408642e+00
 1.5770796401e-01	 1.0767423742e+00	-6.3899084522e+00
 1.4825892506e-01	 1.0780840550e+00	-6.4553112057e+00
 1.3882632656e-01	 1.0793392389e+00	-6.5169010441e+00
 1.2941122629e-01	 1.0805085309e+00	-6.5746439617e+00
 1.2001466501e-01	 1.0815925508e+00	-6.6285191307e+00
 1.1063766632e-01	 1.0825919328e+00	-6.6785179844e+00
 1.0128123642e-01	 1.0835073244e+00	-6.7246432838e+00
 9.1946364036e-02	 1.0843393864e+00	-6.7669081760e+00
 8.4491609256e-02	 9.9642417327e-01	-1.0283233748e+01
 7.5935733705e-02	 9.9711270890e-01	-1.0355553318e+01
 6.7401408683e-02	 9.9772594558e-01	-1.0420125172e+01
 5.8889473803e-02	 9.9826452377e-01	-1.0476932355e+01
 5.0400752668e-02	 9.9872909431e-01	-1.0525973114e+01
 4.1936052786e-02	 9.9912031795e-01	-1.0567260183e+01
 3.3496165499e-02	 9.9943886492e-01	-1.0600820069e+01
 2.5081865916e-02	 9.9968541457e-01	-1.0626692344e+01
 1.6693912862e-02	 9.9986065485e-01	-1.0644928944e+01
 8.3330488405e-03	 9.9996528199e-01	-1.0655593477e+01
 0.0000000000e+00	 1.0000000000e+00	-1.0658760546e+01
 8.5237117371e-02	 1.0052160794e+00	-9.8700769238e+00
 7.6605749417e-02	 1.0059106903e+00	-9.9375032210e+00
 6.7996122144e-02	 1.0065293379e+00	-9.9977307616e+00
 5.9409082570e-02	 1.0070726682e+00	-1.0050745130e+01
 5.0845461567e-02	 1.0075413379e+00	-1.0096545429e+01
 4.2306073768e-02	 1.0079360134e+00	-1.0135143579e+01
 3.3791717495e-02	 1.0082573711e+00	-1.0166563611e+01
 2.5303174698e-02	 1.0085060962e+00	-1.0190840981e+01
 1.6841210896e-02	 1.0086828827e+00	-1.0208021878e+01
 8.4065751451e-03	 1.0087884330e+00	-1.0218162556e+01
 0.0000000000e+00	 1.0088234573e+00	-1.0221328671e+01
 8.5982614290e-02	 1.0140078536e+00	-9.4741135189e+00
 7.7275755068e-02	 1.0147085397e+00	-9.5370335800e+00
 6.8590826674e-02	 1.0153325980e+00	-9.5932526375e+00
 5.9928683534e-02	 1.0158806804e+00	-9.6427578664e+00
 5.1290163788e-02	 1.0163534491e+00	-9.6855484669e+00
 4.2676089192e-02	 1.0167515765e+00	-9.7216349667e+00
 3.4087265052e-02	 1.0170757449e+00	-9.7510385282e+00
 2.5524480155e-02	 1.0173266453e+00	-9.7737902651e+00
 1.6988506717e-02	 1.0175049780e+00	-9.7899305692e+00
 8.4801003449e-03	 1.0176114515e+00	-9.7995084508e+00
 0.0000000000e+00	 1.0176467822e+00	-9.8025808951e+00
 8.6728101492e-02	 1.0227995132e+00	-9.0939421749e+00
 7.7945751986e-02	 1.0235062743e+00	-9.1527214518e+00
 6.9185523451e-02	 1.0241357434e+00	-9.2052513786e+00
 6.0448277725e-02	 1.0246885777e+00	-9.2515198141e+00
 5.1734860210e-02	 1.0251654454e+00	-9.2915253338e+00
 4.3046099791e-02	 1.0255670248e+00	-9.3252765331e+00
 3.4382808755e-02	 1.0258940037e+00	-9.3527913392e+00
 2.5745782726e-02	 1.0261470795e+00	-9.3740963317e+00
 1.7135800618e-02	 1.0263269584e+00	-9.3892260768e+00
 8.5536245858e-03	 1.0264343550e+00	-9.3982224762e+00
 0.0000000000e+00	 1.0264699920e+00	-9.4011341335e+00
 8.7473580456e-02	 1.0315910756e+00	-8.7282100877e+00
 7.8615741499e-02	 1.0323039118e+00	-8.7831931442e+00
 6.9780213656e-02	 1.0329387915e+00	-8.8323373244e+00
 6.0967866172e-02	 1.0334963778e+00	-8.8756303062e+00
 5.2179551718e-02	 1.0339773444e+00	-8.9130693567e+00
 4.3416106301e-02	 1.0343823756e+00	-8.9446606339e+00
 3.4678349190e-02	 1.0347121651e+00	-8.9704184966e+00
 2.5967082851e-02	 1.0349674162e+00	-8.9903648259e+00
 1.7283092889e-02	 1.0351488413e+00	-9.0045283609e+00
 8.6271480136e-03	 1.0352571610e+00	-9.0129440513e+00
 0.0000000000e+00	 1.0352931043e+00	-9.0156524294e+00
 8.8219052661e-02	 1.0403825583e+00	-8.3756109620e+00
 7.9285724937e-02	 1.0411014694e+00	-8.4271221413e+00
 7.0374898468e-02	 1.0417417598e+00	-8.4731684798e+00
 6.1487449908e-02	 1.0423040979e+00	-8.5137366504e+00
 5.2624239192e-02	 1.0427891635e+00	-8.5488219674e+00
 4.3786109454e-02	 1.0431976464e+00	-8.5784276810e+00
 3.4973886945e-02	 1.0435302465e+00	-8.6025642812e+00
 2.6188380968e-02	 1.0437876729e+00	-8.6212488149e+00
 1.7430383825e-02	 1.0439706441e+00	-8.6345042189e+00
 8.7006707743e-03	 1.0440798870e+00	-8.6423586707e+00
 0.0000000000e+00	 1.0441161367e+00	-8.6448449612e+00
 8.8964519584e-02	 1.0491739787e+00	-8.0348830680e+00
 7.9955703628e-02	 1.0498989648e+00	-8.0832271336e+00
 7.0969579067e-02	 1.0505446657e+00	-8.1264485247e+00
 6.2007029962e-02	 1.0511117557e+00	-8.1645321265e+00
 5.3068923516e-02	 1.0516009202e+00	-8.1974706942e+00
 4.4156109986e-02	 1.0520128549e+00	-8.2252641353e+00
 3.5269422605e-02	 1.0523482654e+00	-8.2479188033e+00
 2.6409677516e-02	 1.0526078672e+00	-8.2654468049e+00
 1.7577673716e-02	 1.0527923845e+00	-8.2778653256e+00
 8.7741930137e-03	 1.0529025505e+00	-8.2851959745e+00
 0.0000000000e+00	 1.0529391065e+00	-8.2874641515e+00
 8.9709982704e-02	 1.0579653543e+00	-7.7048073960e+00
 8.0625678901e-02	 1.0586964153e+00	-7.7502701469e+00
 7.1564256632e-02	 1.0593475267e+00	-7.7909249240e+00
 6.2526607365e-02	 1.0599193686e+00	-7.8267540835e+00
 5.3513605570e-02	 1.0604126319e+00	-7.8577472537e+00
 4.4526108629e-02	 1.0608280183e+00	-7.8839006003e+00
 3.5564956757e-02	 1.0611662394e+00	-7.9052161049e+00
 2.6630972935e-02	 1.0614280165e+00	-7.9217008583e+00
 1.7724962855e-02	 1.0616140799e+00	-7.9333663729e+00
 8.8477148777e-03	 1.0617251691e+00	-7.9402279167e+00
 0.0000000000e+00	 1.0617620313e+00	-7.9423038706e+00
 9.0455443500e-02	 1.0667567025e+00	-7.3842059021e+00
 8.1295652086e-02	 1.0674938383e+00	-7.4270547632e+00
 7.2158932343e-02	 1.0681503603e+00	-7.4653871307e+00
 6.3046183148e-02	 1.0687269540e+00	-7.4991821316e+00
 5.3958286238e-02	 1.0692243162e+00	-7.5284257378e+00
 4.4896106119e-02	 1.0696431543e+00	-7.5531100100e+00
 3.5860489987e-02	 1.0699841859e+00	-7.5732323557e+00
 2.6852267663e-02	 1.0702481382e+00	-7.5887948041e+00
 1.7872251535e-02	 1.0704357479e+00	-7.5998033004e+00
 8.9212365123e-03	 1.0705477601e+00	-7.6062670235e+00
 0.0000000000e+00	 1.0705849287e+00	-7.6081977292e+00
 9.1200903452e-02	 1.0755480407e+00	-7.0719398403e+00
 8.1965624510e-02	 1.0762912514e+00	-7.1124244303e+00
 7.2753607379e-02	 1.0769531839e+00	-7.1486648782e+00
 6.3565758341e-02	 1.0775345294e+00	-7.1806364231e+00
 5.4402966401e-02	 1.0780359905e+00	-7.2083208897e+00
 4.5266103188e-02	 1.0784582803e+00	-7.2317059063e+00
 3.6156022882e-02	 1.0788021224e+00	-7.2507841378e+00
 2.7073562140e-02	 1.0790682500e+00	-7.2655525365e+00
 1.8019540047e-02	 1.0792574058e+00	-7.2760116142e+00
 8.9947580632e-03	 1.0793703411e+00	-7.2821647383e+00
 0.0000000000e+00	 1.0794078160e+00	-7.2840174553e+00
 9.1946364036e-02	 1.0843393864e+00	-6.7669081760e+00
 8.2635597504e-02	 1.0850886720e+00	-6.8052608525e+00
 7.3348282920e-02	 1.0857560150e+00	-6.8396265551e+00
 6.4085333976e-02	 1.0863421123e+00	-6.8699760171e+00
 5.4847646941e-02	 1.0868476722e+00	-6.8962864641e+00
 4.5636100571e-02	 1.0872734138e+00	-6.9185408008e+00
 3.6451556027e-02	 1.0876200664e+00	-6.9367268144e+00
 2.7294856805e-02	 1.0878883693e+00	-6.9508363966e+00
 1.8166828684e-02	 1.0880790712e+00	-6.9608647877e+00
 9.0682796764e-03	 1.0881929296e+00	-6.9668098468e+00
 0.0000000000e+00	 1.0882307108e+00	-6.9686713506e+00
 1.0882307108e+00	 0.0000000000e+00	 2.0001557309e+00
 1.0881929296e+00	 9.0682796764e-03	 2.0005792056e+00
 1.0880790712e+00	 1.8166828684e-02	 2.0022382060e+00
 1.0878883693e+00	 2.7294856805e-02	 2.0051578835e+00
 1.0876200664e+00	 3.6451556027e-02	 2.0093604664e+00
 1.0872734138e+00	 4.5636100571e-02	 2.0148655341e+00
 1.0868476722e+00	 5.4847646941e-02	 2.0216903093e+00
 1.0863421123e+00	 6.4085333976e-02	 2.0298499709e+00
 1.0857560150e+00	 7.3348282920e-02	 2.0393579839e+00
 1.0850886720e+00	 8.2635597504e-02	 2.0502264461e+00
 1.0843393864e+00	 9.1946364036e-02	 2.0624664511e+00
 1.0970551273e+00	 0.0000000000e+00	 2.1244516921e+00
 1.0970170397e+00	 9.1418139695e-03	 2.1245785784e+00
 1.0969022580e+00	 1.8314142723e-02	 2.1256493184e+00
 1.0967100097e+00	 2.7516189635e-02	 2.1276967093e+00
 1.0964395312e+00	 3.6747140141e-02	 2.1307505853e+00
 1.0960900676e+00	 4.6006161766e-02	 2.1348380948e+00
 1.0956608737e+00	 5.5292404174e-02	 2.1399839968e+00
 1.0951512142e+00	 6.4604999219e-02	 2.1462109784e+00
 1.0945603642e+00	 7.3943061023e-02	 2.1535399900e+00
 1.0938876098e+00	 8.3305686045e-02	 2.1619905991e+00
 1.0931322483e+00	 9.2691953187e-02	 2.1715813600e+00
 1.1058795663e+00	 0.0000000000e+00	 2.2571955204e+00
 1.1058411723e+00	 9.2153484500e-03	 2.2573422492e+00
 1.1057254673e+00	 1.8461457137e-02	 2.2581289335e+00
 1.1055316727e+00	 2.7737523030e-02	 2.2595938146e+00
 1.1052590185e+00	 3.7042725009e-02	 2.2617721044e+00
 1.1049067439e+00	 4.6376223905e-02	 2.2646962670e+00
 1.1044740977e+00	 5.5737162540e-02	 2.2683963220e+00
 1.1039603386e+00	 6.5124665788e-02	 2.2729001694e+00
 1.1033647360e+00	 7.4537840642e-02	 2.2782339330e+00
 1.1026865701e+00	 8.3975776295e-02	 2.2844223234e+00
 1.1019251326e+00	 9.3437544239e-02	 2.2914890177e+00
 1.1147040253e+00	 0.0000000000e+00	 2.3964484629e+00
 1.1146653250e+00	 9.2888830972e-03	 2.3969257360e+00
 1.1145486967e+00	 1.8608771886e-02	 2.3977923100e+00
 1.1143533556e+00	 2.7958856926e-02	 2.3990877616e+00
 1.1140785257e+00	 3.7338310547e-02	 2.4008432291e+00
 1.1137234401e+00	 4.6746286882e-02	 2.4030811161e+00
 1.1132873416e+00	 5.6181921914e-02	 2.4058148433e+00
 1.1127694829e+00	 6.5644333534e-02	 2.4090486561e+00
 1.1121691277e+00	 7.5132621609e-02	 2.4127774944e+00
 1.1114855503e+00	 8.4645868064e-02	 2.4169869328e+00
 1.1107180368e+00	 9.4183136981e-02	 2.4216734282e+00
 1.1235285018e+00	 0.0000000000e+00	 2.5288249261e+00
 1.1234894951e+00	 9.3624178902e-03	 2.5296591894e+00
 1.1233719435e+00	 1.8756086927e-02	 2.5307283171e+00
 1.1231750561e+00	 2.8180191261e-02	 2.5320852712e+00
 1.1228980505e+00	 3.7633896670e-02	 2.5337740086e+00
 1.1225401539e+00	 4.7116350593e-02	 2.5358291168e+00
 1.1221006030e+00	 5.6626682171e-02	 2.5382754966e+00
 1.1215786448e+00	 6.6164002311e-02	 2.5411280991e+00
 1.1209735368e+00	 7.5727403755e-02	 2.5443917258e+00
 1.1202845479e+00	 8.5315961161e-02	 2.5480608978e+00
 1.1195109585e+00	 9.4928731201e-02	 2.5521198046e+00
 1.1323529932e+00	 0.0000000000e+00	 2.6508509606e+00
 1.1323136802e+00	 9.4359528082e-03	 2.6519451568e+00
 1.1321952054e+00	 1.8903402218e-02	 2.6531186544e+00
 1.1319967715e+00	 2.8401525972e-02	 2.6544365739e+00
 1.1317175903e+00	 3.7929483297e-02	 2.6559544420e+00
 1.1313568826e+00	 4.7486414933e-02	 2.6577177573e+00
 1.1309138794e+00	 5.7071443183e-02	 2.6597616024e+00
 1.1303878216e+00	 6.6683671971e-02	 2.6621103087e+00
 1.1297779609e+00	 7.6322186913e-02	 2.6647771846e+00
 1.1290835605e+00	 8.5986055398e-02	 2.6677643126e+00
 1.1283038952e+00	 9.5674326689e-02	 2.6710624257e+00
 1.1411774972e+00	 0.0000000000e+00	 2.7621265253e+00
 1.1411378778e+00	 9.5094878304e-03	 2.7633758481e+00
 1.1410184797e+00	 1.9050717718e-02	 2.7645480973e+00
 1.1408184994e+00	 2.8622860997e-02	 2.7657193917e+00
 1.1405371425e+00	 3.8225070342e-02	 2.7669556462e+00
 1.1401736239e+00	 4.7856479797e-02	 2.7683120665e+00
 1.1397271683e+00	 5.7516204826e-02	 2.7698326882e+00
 1.1391970108e+00	 6.7203342368e-02	 2.7715499684e+00
 1.1385823975e+00	 7.6916970913e-02	 2.7734844393e+00
 1.1378825856e+00	 8.6656150583e-02	 2.7756444312e+00
 1.1370968443e+00	 9.6419923233e-02	 2.7780258748e+00
 1.1500020112e+00	 0.0000000000e+00	 2.8622652709e+00
 1.1499620855e+00	 9.5830229361e-03	 2.8635574263e+00
 1.1498417640e+00	 1.9198033385e-02	 2.8646156188e+00
 1.1496402374e+00	 2.8844196273e-02	 2.8655258710e+00
 1.1493567048e+00	 3.8520657722e-02	 2.8663633722e+00
 1.1489903751e+00	 4.8226545081e-02	 2.8671918994e+00
 1.1485404671e+00	 5.7960966972e-02	 2.8680632822e+00
 1.1480062101e+00	 6.7723013353e-02	 2.8690169187e+00
 1.1473868441e+00	 7.7511755587e-02	 2.8700793529e+00
 1.1466816207e+00	 8.7326246528e-02	 2.8712639212e+00
 1.1458898033e+00	 9.7165520622e-02	 2.8725704786e+00
 1.1588265327e+00	 0.0000000000e+00	 2.9508940204e+00
 1.1587863006e+00	 9.6565581045e-03	 2.9521094828e+00
 1.1586650559e+00	 1.9345349177e-02	 2.9529338597e+00
 1.1584619828e+00	 2.9065531737e-02	 2.9534620487e+00
 1.1581762745e+00	 3.8816245354e-02	 2.9537774664e+00
 1.1578071338e+00	 4.8596610680e-02	 2.9539513938e+00
 1.1573537735e+00	 5.8405729497e-02	 2.9540423644e+00
 1.1568154168e+00	 6.8242684780e-02	 2.9540956033e+00
 1.1561912981e+00	 7.8106540766e-02	 2.9541425251e+00
 1.1554806632e+00	 8.7996343042e-02	 2.9542003022e+00
 1.1546827698e+00	 9.7911118644e-02	 2.9542715122e+00
 1.1676510592e+00	 0.0000000000e+00	 3.0276522727e+00
 1.1676105207e+00	 9.7300933146e-03	 3.0286645369e+00
 1.1674883527e+00	 1.9492665053e-02	 3.0291286234e+00
 1.1672837332e+00	 2.9286867327e-02	 3.0291473420e+00
 1.1669958493e+00	 3.9111833154e-02	 3.0288113559e+00
 1.1666238976e+00	 4.8966676488e-02	 3.0281984507e+00
 1.1661670849e+00	 5.8850492274e-02	 3.0273728435e+00
 1.1656246286e+00	 6.8762356501e-02	 3.0263845415e+00
 1.1649957572e+00	 7.8701326282e-02	 3.0252687600e+00
 1.1642797107e+00	 8.8666439936e-02	 3.0240454089e+00
 1.1634757414e+00	 9.8656717088e-02	 3.0227186589e+00
 1.1764755882e+00	 0.0000000000e+00	 3.0921917284e+00
 1.1764347433e+00	 9.8036285459e-03	 3.0928675576e+00
 1.1763116521e+00	 1.9639980971e-02	 3.0928383942e+00
 1.1761054862e+00	 2.9508202981e-02	 3.0922140620e+00
 1.1758154265e+00	 3.9407421038e-02	 3.0910915575e+00
 1.1754406638e+00	 4.9336742402e-02	 3.0895542391e+00
 1.1749803987e+00	 5.9295255177e-02	 3.0876710557e+00
 1.1744338428e+00	 6.9282028370e-02	 3.0854958226e+00
 1.1738002187e+00	 7.9296111967e-02	 3.0830665564e+00
 1.1730787607e+00	 8.9336537019e-02	 3.0804048776e+00
 1.1722687154e+00	 9.9402315743e-02	 3.0775154926e+00
 1.0843393864e+00	 9.1946364036e-02	 2.0624664511e+00
 1.0835073244e+00	 1.0128123642e-01	 2.0762173976e+00
 1.0825919328e+00	 1.1063766632e-01	 2.0915495310e+00
 1.0815925508e+00	 1.2001466501e-01	 2.1083760848e+00
 1.0805085309e+00	 1.2941122629e-01	 2.1266104627e+00
 1.0793392389e+00	 1.3882632656e-01	 2.1461667885e+00
 1.0780840550e+00	 1.4825892506e-01	 2.1669604630e+00
 1.0767423742e+00	 1.5770796401e-01	 2.1889087279e+00
 1.0753136062e+00	 1.6717236883e-01	 2.2119312317e+00
 1.0737971766e+00	 1.7665104837e-01	 2.2359505968e+00
 1.0721925270e+00	 1.8614289510e-01	 2.2608929829e+00
 1.0931322483e+00	 9.2691953187e-02	 2.1715813600e+00
 1.0922934391e+00	 1.0210252166e-01	 2.1824671104e+00
 1.0913706247e+00	 1.1153482244e-01	 2.1947335241e+00
 1.0903631388e+00	 1.2098785882e-01	 2.2082996802e+00
 1.0892703285e+00	 1.3046061641e-01	 2.2230845841e+00
 1.0880915548e+00	 1.3995206333e-01	 2.2390077246e+00
 1.0868261927e+00	 1.4946115037e-01	 2.2559896404e+00
 1.0854736322e+00	 1.5898681117e-01	 2.2739524925e+00
 1.0840332784e+00	 1.6852796246e-01	 2.2928206410e+00
 1.0825045521e+00	 1.7808350420e-01	 2.3125212217e+00
 1.0808868905e+00	 1.8765231991e-01	 2.3329847212e+00
 1.1019251326e+00	 9.3437544239e-02	 2.2914890177e+00
 1.1010795762e+00	 1.0292380898e-01	 2.2995991359e+00
 1.1001493389e+00	 1.1243198086e-01	 2.3088492250e+00
 1.0991337491e+00	 1.2196105511e-01	 2.3191628681e+00
 1.0980321485e+00	 1.3151000921e-01	 2.3304633924e+00
 1.0968438930e+00	 1.4107780297e-01	 2.3426744387e+00
 1.0955683527e+00	 1.5066337875e-01	 2.3557205396e+00
 1.0942049125e+00	 1.6026566160e-01	 2.3695277054e+00
 1.0927529729e+00	 1.6988355953e-01	 2.3840240143e+00
 1.0912119499e+00	 1.7951596368e-01	 2.3991402032e+00
 1.0895812762e+00	 1.8916174857e-01	 2.4148102572e+00
 1.1107180368e+00	 9.4183136981e-02	 2.4216734282e+00
 1.1098657333e+00	 1.0374509817e-01	 2.4270982851e+00
 1.1089280731e+00	 1.1332914130e-01	 2.4333842335e+00
 1.1079043792e+00	 1.2293425361e-01	 2.4404580305e+00
 1.1067939884e+00	 1.3255940439e-01	 2.4482460571e+00
 1.1055962511e+00	 1.4220354517e-01	 2.4566749022e+00
 1.1043105325e+00	 1.5186560985e-01	 2.4656719573e+00
 1.1029362126e+00	 1.6154451493e-01	 2.4751660189e+00
 1.1014726871e+00	 1.7123915968e-01	 2.4850878958e+00
 1.0999193674e+00	 1.8094842641e-01	 2.4953710184e+00
 1.0982756816e+00	 1.9067118065e-01	 2.5059520455e+00
 1.1195109585e+00	 9.4928731201e-02	 2.5521198046e+00
 1.1186519078e+00	 1.0456638899e-01	 2.5566893134e+00
 1.1177068246e+00	 1.1422630353e-01	 2.5618141239e+00
 1.1166750268e+00	 1.2390745403e-01	 2.5673502790e+00
 1.1155558456e+00	 1.3360880165e-01	 2.5731431174e+00
 1.1143486265e+00	 1.4332928959e-01	 2.5790278750e+00
 1.1130527296e+00	 1.5306784333e-01	 2.5848304252e+00
 1.1116675300e+00	 1.6282337079e-01	 2.5903681685e+00
 1.1101924186e+00	 1.7259476252e-01	 2.5955735218e+00
 1.1086268022e+00	 1.8238089199e-01	 2.6007913625e+00
 1.1069701042e+00	 1.9218061573e-01	 2.6060062195e+00
 1.1283038952e+00	 9.5674326689e-02	 2.6710624257e+00
 1.1274380972e+00	 1.0538768121e-01	 2.6747988699e+00
 1.1264855911e+00	 1.1512346728e-01	 2.6790254817e+00
 1.1254456893e+00	 1.2488065612e-01	 2.6836036650e+00
 1.1243177177e+00	 1.3465820069e-01	 2.6883827900e+00
 1.1231010168e+00	 1.4445503593e-01	 2.6932007285e+00
 1.1217949416e+00	 1.5427007886e-01	 2.6978845317e+00
 1.1203988623e+00	 1.6410222882e-01	 2.7022512602e+00
 1.1189121650e+00	 1.7395036767e-01	 2.7061089762e+00
 1.1173342518e+00	 1.8381335999e-01	 2.7092579095e+00
 1.1156645417e+00	 1.9369005337e-01	 2.7114918071e+00
 1.1370968443e+00	 9.6419923233e-02	 2.7780258748e+00
 1.1362242991e+00	 1.0620897458e-01	 2.7807609465e+00
 1.1352643700e+00	 1.1602063230e-01	 2.7839075856e+00
 1.1342163642e+00	 1.2585385957e-01	 2.7873320387e+00
 1.1330796023e+00	 1.3570760123e-01	 2.7908872052e+00
 1.1318534195e+00	 1.4558078387e-01	 2.7944131046e+00
 1.1305371660e+00	 1.5547231610e-01	 2.7977374889e+00
 1.1291302069e+00	 1.6538108867e-01	 2.8006766116e+00
 1.1276319237e+00	 1.7530597473e-01	 2.8030361625e+00
 1.1260417137e+00	 1.8524583003e-01	 2.8046123818e+00
 1.1243589914e+00	 1.9519949315e-01	 2.8051933620e+00
 1.1458898033e+00	 9.7165520622e-02	 2.8725704786e+00
 1.1450105109e+00	 1.0703026889e-01	 2.8741350519e+00
 1.1440431589e+00	 1.1691779834e-01	 2.8760213085e+00
 1.1429870490e+00	 1.2682706414e-01	 2.8780998746e+00
 1.1418414967e+00	 1.3675700294e-01	 2.8802267305e+00
 1.1406058321e+00	 1.4670653308e-01	 2.8822436075e+00
 1.1392794002e+00	 1.5667455469e-01	 2.8839785329e+00
 1.1378615615e+00	 1.6665994997e-01	 2.8852465349e+00
 1.1363516922e+00	 1.7666158333e-01	 2.8858505183e+00
 1.1347491855e+00	 1.8667830168e-01	 2.8855823237e+00
 1.1330534510e+00	 1.9670893464e-01	 2.8842239805e+00
 1.1546827698e+00	 9.7911118644e-02	 2.9542715122e+00
 1.1537967302e+00	 1.0785156390e-01	 2.9544957038e+00
 1.1528219553e+00	 1.1781496514e-01	 2.9549425383e+00
 1.1517577413e+00	 1.2780026952e-01	 2.9554866143e+00
 1.1506033987e+00	 1.3780640555e-01	 2.9559865992e+00
 1.1493582522e+00	 1.4783228325e-01	 2.9562855536e+00
 1.1480216420e+00	 1.5787679431e-01	 2.9562114060e+00
 1.1465929234e+00	 1.6793881235e-01	 2.9555775914e+00
 1.1450714682e+00	 1.7801719308e-01	 2.9541838650e+00
 1.1434566647e+00	 1.8811077456e-01	 2.9518173039e+00
 1.1417479180e+00	 1.9821837741e-01	 2.9482535089e+00
 1.1634757414e+00	 9.8656717088e-02	 3.0227186589e+00
 1.1625829545e+00	 1.0867285937e-01	 3.0214318854e+00
 1.1616007566e+00	 1.1871213245e-01	 3.0202616332e+00
 1.1605284386e+00	 1.2877347546e-01	 3.0190861223e+00
 1.1593653055e+00	 1.3885580876e-01	 3.0177663690e+00
 1.1581106772e+00	 1.4895803405e-01	 3.0161464344e+00
 1.1567638886e+00	 1.5907903460e-01	 3.0140538266e+00
 1.1553242903e+00	 1.6921767546e-01	 3.0113000701e+00
 1.1537912492e+00	 1.7937280360e-01	 3.0076814548e+00
 1.1521641488e+00	 1.8954324825e-01	 3.0029799771e+00
 1.1504423900e+00	 1.9972782104e-01	 2.9969644877e+00
 1.1722687154e+00	 9.9402315743e-02	 3.0775154926e+00
 1.1713691813e+00	 1.0949415507e-01	 3.0745465249e+00
 1.1703795604e+00	 1.1960930001e-01	 3.0715829002e+00
 1.1692991383e+00	 1.2974668168e-01	 3.0685061656e+00
 1.1681272149e+00	 1.3990521226e-01	 3.0651794036e+00
 1.1668631048e+00	 1.5008378517e-01	 3.0614474020e+00
 1.1655061378e+00	 1.6028127524e-01	 3.0571369803e+00
 1.1640556597e+00	 1.7049653892e-01	 3.0520574867e+00
 1.1625110326e+00	 1.8072841450e-01	 3.0460014794e+00
 1.1608716354e+00	 1.9097572234e-01	 3.0387456047e+00
 1.1591368644e+00	 2.0123726509e-01	 3.0300516871e+00
 1.0721925270e+00	 1.8614289510e-01	 2.2608929829e+00
 1.0704994107e+00	 1.9564516936e-01	 2.2871517262e+00
 1.0687170373e+00	 2.0515834672e-01	 2.3150354647e+00
 1.0668448987e+00	 2.1468127528e-01	 2.3443390304e+00
 1.0648825050e+00	 2.2421278792e-01	 2.3748654573e+00
 1.0628293844e+00	 2.3375170258e-01	 2.4064267638e+00
 1.0606850842e+00	 2.4329682261e-01	 2.4388447137e+00
 1.0584491706e+00	 2.5284693703e-01	 2.4719515530e+00
 1.0561212300e+00	 2.6240082098e-01	 2.5055907174e+00
 1.0537008686e+00	 2.7195723598e-01	 2.5396175057e+00
 1.0511877135e+00	 2.8151493038e-01	 2.5738997166e+00
 1.0808868905e+00	 1.8765231991e-01	 2.3329847212e+00
 1.0791800448e+00	 1.9723164771e-01	 2.3546663193e+00
 1.0773832182e+00	 2.0682196701e-01	 2.3779369354e+00
 1.0754958986e+00	 2.1642211660e-01	 2.4025989260e+00
 1.0735175919e+00	 2.2603091987e-01	 2.4284633354e+00
 1.0714478226e+00	 2.3564718519e-01	 2.4553506997e+00
 1.0692861343e+00	 2.4526970618e-01	 2.4830918294e+00
 1.0670320899e+00	 2.5489726208e-01	 2.5115285656e+00
 1.0646852721e+00	 2.6452861806e-01	 2.5405145069e+00
 1.0622452841e+00	 2.7416252562e-01	 2.5699157003e+00
 1.0597117498e+00	 2.8379772296e-01	 2.5996112936e+00
 1.0895812762e+00	 1.8916174857e-01	 2.4148102572e+00
 1.0878607011e+00	 1.9881813010e-01	 2.4315575959e+00
 1.0860494213e+00	 2.0848559156e-01	 2.4498236870e+00
 1.0841469205e+00	 2.1816296236e-01	 2.4694206156e+00
 1.0821527008e+00	 2.2784905645e-01	 2.4901696209e+00
 1.0800662828e+00	 2.3754267262e-01	 2.5119019199e+00
 1.0778872064e+00	 2.4724259478e-01	 2.5344595093e+00
 1.0756150310e+00	 2.5694759235e-01	 2.5576959387e+00
 1.0732493360e+00	 2.6665642057e-01	 2.5814770543e+00
 1.0707897214e+00	 2.7636782089e-01	 2.6056817045e+00
 1.0682358080e+00	 2.8608052136e-01	 2.6302024056e+00
 1.0982756816e+00	 1.9067118065e-01	 2.5059520455e+00
 1.0965413770e+00	 2.0040461609e-01	 2.5174272187e+00
 1.0947156439e+00	 2.1014921987e-01	 2.5303149604e+00
 1.0927979620e+00	 2.1990381206e-01	 2.5444392115e+00
 1.0907878292e+00	 2.2966719716e-01	 2.5596335150e+00
 1.0886847625e+00	 2.3943816435e-01	 2.5757418574e+00
 1.0864882980e+00	 2.4921548786e-01	 2.5926194866e+00
 1.0841979916e+00	 2.5899792727e-01	 2.6101337008e+00
 1.0818134193e+00	 2.6878422790e-01	 2.6281646056e+00
 1.0793341780e+00	 2.7857312116e-01	 2.6466058329e+00
 1.0767598854e+00	 2.8836332494e-01	 2.6653652167e+00
 1.1069701042e+00	 1.9218061573e-01	 2.6060062195e+00
 1.1052220702e+00	 2.0199110523e-01	 2.6118899796e+00
 1.1033818838e+00	 2.1181285148e-01	 2.6190426244e+00
 1.1014490207e+00	 2.2164466522e-01	 2.6273020028e+00
 1.0994229748e+00	 2.3148534148e-01	 2.6365159964e+00
 1.0973032594e+00	 2.4133365985e-01	 2.6465433760e+00
 1.0950894067e+00	 2.5118838485e-01	 2.6572546330e+00
 1.0927809692e+00	 2.6104826626e-01	 2.6685327822e+00
 1.0903775196e+00	 2.7091203946e-01	 2.6802741298e+00
 1.0878786515e+00	 2.8077842580e-01	 2.6923890031e+00
 1.0852839798e+00	 2.9064613305e-01	 2.7048024343e+00
 1.1156645417e+00	 1.9369005337e-01	 2.7114918071e+00
 1.1139027781e+00	 2.0357759706e-01	 2.7134042434e+00
 1.1120481384e+00	 2.1347648592e-01	 2.7155174579e+00
 1.1101000940e+00	 2.2338552134e-01	 2.7176680315e+00
 1.1080581351e+00	 2.3330348888e-01	 2.7204894170e+00
 1.1059217708e+00	 2.4322915856e-01	 2.7239903837e+00
 1.1036905300e+00	 2.5316128520e-01	 2.7280585880e+00
 1.1013639614e+00	 2.6309860874e-01	 2.7325946583e+00
 1.0989416345e+00	 2.7303985463e-01	 2.7375129732e+00
 1.0964231396e+00	 2.8298373420e-01	 2.7427423987e+00
 1.0938080886e+00	 2.9292894504e-01	 2.7482269784e+00
 1.1243589914e+00	 1.9519949315e-01	 2.8051933620e+00
 1.1225834983e+00	 2.0516409114e-01	 2.8054402952e+00
 1.1207144053e+00	 2.1514012271e-01	 2.8059518514e+00
 1.1187511797e+00	 2.2512637992e-01	 2.8064184015e+00
 1.1166933076e+00	 2.3512163886e-01	 2.8065340140e+00
 1.1145402945e+00	 2.4512465996e-01	 2.8059991178e+00
 1.1122916654e+00	 2.5513418834e-01	 2.8045234138e+00
 1.1099469657e+00	 2.6514895412e-01	 2.8020310098e+00
 1.1075057615e+00	 2.7516767281e-01	 2.7995985307e+00
 1.1049676398e+00	 2.8518904571e-01	 2.7973871494e+00
 1.1023322096e+00	 2.9521176026e-01	 2.7953616681e+00
 1.1330534510e+00	 1.9670893464e-01	 2.8842239805e+00
 1.1312642283e+00	 2.0675058702e-01	 2.8825024938e+00
 1.1293806820e+00	 2.1680376139e-01	 2.8810927073e+00
 1.1274022751e+00	 2.2686724048e-01	 2.8796928516e+00
 1.1253284899e+00	 2.3693979090e-01	 2.8780030098e+00
 1.1231588279e+00	 2.4702016351e-01	 2.8757277447e+00
 1.1208928106e+00	 2.5710709371e-01	 2.8725789846e+00
 1.1185299798e+00	 2.6719930182e-01	 2.8682791765e+00
 1.1160698982e+00	 2.7729549341e-01	 2.8625647149e+00
 1.1135121497e+00	 2.8739435973e-01	 2.8551896532e+00
 1.1108563401e+00	 2.9749457807e-01	 2.8459389244e+00
 1.1417479180e+00	 1.9821837741e-01	 2.9482535089e+00
 1.1399449658e+00	 2.0833708425e-01	 2.9442819806e+00
 1.1380469660e+00	 2.1846740149e-01	 2.9406519276e+00
 1.1360533779e+00	 2.2860810251e-01	 2.9370713884e+00
 1.1339636796e+00	 2.3875794449e-01	 2.9332482886e+00
 1.1317773687e+00	 2.4891566867e-01	 2.9288930265e+00
 1.1294939632e+00	 2.5908000077e-01	 2.9237213246e+00
 1.1271130012e+00	 2.6924965126e-01	 2.9174573597e+00
 1.1246340422e+00	 2.7942331581e-01	 2.9098371789e+00
 1.1220566669e+00	 2.8959967562e-01	 2.9006124103e+00
 1.1193804780e+00	 2.9977739782e-01	 2.8895542750e+00
 1.1504423900e+00	 1.9972782104e-01	 2.9969644877e+00
 1.1486257081e+00	 2.0992358237e-01	 2.9904822011e+00
 1.1467132550e+00	 2.2013104253e-01	 2.9843533788e+00
 1.1447044856e+00	 2.3034896554e-01	 2.9782977872e+00
 1.1425988741e+00	 2.4057609910e-01	 2.9720329942e+00
 1.1403959144e+00	 2.5081117490e-01	 2.9652769034e+00
 1.1380951206e+00	 2.6105290894e-01	 2.9577505653e+00
 1.1356960275e+00	 2.7130000187e-01	 2.9491812761e+00
 1.1331981910e+00	 2.8155113943e-01	 2.9393059746e+00
 1.1306011888e+00	 2.9180499276e-01	 2.9278749449e+00
 1.1279046207e+00	 3.0206021886e-01	 2.9146558329e+00
 1.1591368644e+00	 2.0123726509e-01	 3.0300516871e+00
 1.1573064529e+00	 2.1151008095e-01	 3.0208184544e+00
 1.1553795464e+00	 2.2179468403e-01	 3.0119324527e+00
 1.1533555958e+00	 2.3208982905e-01	 3.0031270729e+00
 1.1512340711e+00	 2.4239425423e-01	 2.9941312978e+00
 1.1490144625e+00	 2.5270668167e-01	 2.9846721782e+00
 1.1466962804e+00	 2.6302581766e-01	 2.9744775955e+00
 1.1442790561e+00	 2.7335035306e-01	 2.9632793225e+00
 1.1417623423e+00	 2.8367896364e-01	 2.9508163934e+00
 1.1391457133e+00	 2.9401031052e-01	 2.9368387911e+00
 1.1364287657e+00	 3.0434304055e-01	 2.9211114634e+00
 1.0511877135e+00	 2.8151493038e-01	 2.5738997166e+00
 1.0485814126e+00	 2.9107263984e-01	 2.6087151864e+00
 1.0458816367e+00	 3.0062908817e-01	 2.6442073725e+00
 1.0430880782e+00	 3.1018298736e-01	 2.6800632823e+00
 1.0402004521e+00	 3.1973303789e-01	 2.7159852599e+00
 1.0372184959e+00	 3.2927792916e-01	 2.7516917087e+00
 1.0341419700e+00	 3.3881633997e-01	 2.7869177538e+00
 1.0309706585e+00	 3.4834693899e-01	 2.8214158433e+00
 1.0277043688e+00	 3.5786838524e-01	 2.8549562805e+00
 1.0243429329e+00	 3.6737932860e-01	 2.8873276853e+00
 1.0208862068e+00	 3.7687841031e-01	 2.9189492255e+00
 1.0597117498e+00	 2.8379772296e-01	 2.5996112936e+00
 1.0570843146e+00	 2.9343293548e-01	 2.6299146564e+00
 1.0543626463e+00	 3.0306687665e-01	 2.6609514102e+00
 1.0515464350e+00	 3.1269824800e-01	 2.6923408852e+00
 1.0486353933e+00	 3.2232573948e-01	 2.7237186026e+00
 1.0456292565e+00	 3.3194802986e-01	 2.7547371186e+00
 1.0425277832e+00	 3.4156378724e-01	 2.7850668089e+00
 1.0393307556e+00	 3.5117166948e-01	 2.8143965890e+00
 1.0360379798e+00	 3.6077032473e-01	 2.8424345648e+00
 1.0326492861e+00	 3.7035839192e-01	 2.8689086111e+00
 1.0291645295e+00	 3.7993450129e-01	 2.8949086215e+00
 1.0682358080e+00	 2.8608052136e-01	 2.6302024056e+00
 1.0655872383e+00	 2.9579323714e-01	 2.6554009265e+00
 1.0628436776e+00	 3.0550467133e-01	 2.6814043943e+00
 1.0600048134e+00	 3.1521351505e-01	 2.7077761602e+00
 1.0570703559e+00	 3.2491844768e-01	 2.7340966004e+00
 1.0540400385e+00	 3.3461813737e-01	 2.7599640679e+00
 1.0509136178e+00	 3.4431124151e-01	 2.7849957832e+00
 1.0476908741e+00	 3.5399640717e-01	 2.8088286597e+00
 1.0443716120e+00	 3.6367227163e-01	 2.8311200575e+00
 1.0409556605e+00	 3.7333746285e-01	 2.8516734315e+00
 1.0374428734e+00	 3.8299060006e-01	 2.8721802231e+00
 1.0767598854e+00	 2.8836332494e-01	 2.6653652167e+00
 1.0740901813e+00	 2.9815354415e-01	 2.6848650736e+00
 1.0713247281e+00	 3.0794247155e-01	 2.7052525051e+00
 1.0684632109e+00	 3.1772878780e-01	 2.7260462809e+00
 1.0655053377e+00	 3.2751116175e-01	 2.7467830107e+00
 1.0624508397e+00	 3.3728825094e-01	 2.7670181894e+00
 1.0592994714e+00	 3.4705870202e-01	 2.7863271797e+00
 1.0560510115e+00	 3.5682115127e-01	 2.8043061279e+00
 1.0527052631e+00	 3.6657422510e-01	 2.8205728065e+00
 1.0492620537e+00	 3.7631654053e-01	 2.8352783509e+00
 1.0457212360e+00	 3.8604670575e-01	 2.8502443160e+00
 1.0852839798e+00	 2.9064613305e-01	 2.7048024343e+00
 1.0825931411e+00	 3.0051385584e-01	 2.7180087400e+00
 1.0798057954e+00	 3.1038027660e-01	 2.7321926189e+00
 1.0769216252e+00	 3.2024406554e-01	 2.7468393653e+00
 1.0739403363e+00	 3.3010388097e-01	 2.7614529099e+00
 1.0708616575e+00	 3.3995836980e-01	 2.7755569443e+00
 1.0676853416e+00	 3.4980616797e-01	 2.7886959825e+00
 1.0644111655e+00	 3.5964590097e-01	 2.8004363525e+00
 1.0610389307e+00	 3.6947618433e-01	 2.8103671124e+00
 1.0575684634e+00	 3.7929562411e-01	 2.8192633820e+00
 1.0539996151e+00	 3.8910281751e-01	 2.8285960063e+00
 1.0938080886e+00	 2.9292894504e-01	 2.7482269784e+00
 1.0910961154e+00	 3.0287417155e-01	 2.7545438060e+00
 1.0882868771e+00	 3.1281808580e-01	 2.7619319802e+00
 1.0853800539e+00	 3.2275934755e-01	 2.7698541422e+00
 1.0823753491e+00	 3.3269660460e-01	 2.7777923481e+00
 1.0792724896e+00	 3.4262849320e-01	 2.7852492605e+00
 1.0760712260e+00	 3.5255363860e-01	 2.7917492736e+00
 1.0727713337e+00	 3.6247065548e-01	 2.7968395669e+00
 1.0693726125e+00	 3.7237814849e-01	 2.8001464801e+00
 1.0658748872e+00	 3.8227471277e-01	 2.8031814738e+00
 1.0622780082e+00	 3.9215893447e-01	 2.8067445605e+00
 1.1023322096e+00	 2.9521176026e-01	 2.7953616681e+00
 1.0995991017e+00	 3.0523449060e-01	 2.7941920796e+00
 1.0967679709e+00	 3.1525589845e-01	 2.7941878898e+00
 1.0938384946e+00	 3.2527463313e-01	 2.7947996333e+00
 1.0908103739e+00	 3.3528933190e-01	 2.7954980223e+00
 1.0876833336e+00	 3.4529862039e-01	 2.7957751904e+00
 1.0844571224e+00	 3.5530111312e-01	 2.7951458689e+00
 1.0811315138e+00	 3.6529541398e-01	 2.7931484887e+00
 1.0777063061e+00	 3.7528011676e-01	 2.7896837467e+00
 1.0741813228e+00	 3.8525380564e-01	 2.7865979529e+00
 1.0705564131e+00	 3.9521505575e-01	 2.7842127725e+00
 1.1108563401e+00	 2.9749457807e-01	 2.8459389244e+00
 1.1081020977e+00	 3.0759481232e-01	 2.8366850024e+00
 1.1052490742e+00	 3.1769371386e-01	 2.8286874100e+00
 1.1022969449e+00	 3.2778992156e-01	 2.8213948544e+00
 1.0992454083e+00	 3.3788206214e-01	 2.8142769668e+00
 1.0960941871e+00	 3.4796875060e-01	 2.8068255864e+00
 1.0928430283e+00	 3.5804859075e-01	 2.7985559743e+00
 1.0894917034e+00	 3.6812017569e-01	 2.7890079498e+00
 1.0860400091e+00	 3.7818208832e-01	 2.7786046237e+00
 1.0824877678e+00	 3.8823290189e-01	 2.7690899630e+00
 1.0788348274e+00	 3.9827118050e-01	 2.7605363576e+00
 1.1193804780e+00	 2.9977739782e-01	 2.8895542750e+00
 1.1166051009e+00	 3.0995513605e-01	 2.8773131718e+00
 1.1137301848e+00	 3.2013153135e-01	 2.8641620472e+00
 1.1107554023e+00	 3.3030521213e-01	 2.8493685303e+00
 1.1076804498e+00	 3.4047479458e-01	 2.8338462594e+00
 1.1045050478e+00	 3.5063888308e-01	 2.8181017939e+00
 1.1012289412e+00	 3.6079607072e-01	 2.8016608600e+00
 1.0978519000e+00	 3.7094493980e-01	 2.7840784986e+00
 1.0943737193e+00	 3.8108406235e-01	 2.7665331188e+00
 1.0907942199e+00	 3.9121200067e-01	 2.7502459280e+00
 1.0871132486e+00	 4.0132730785e-01	 2.7352633715e+00
 1.1279046207e+00	 3.0206021886e-01	 2.9146558329e+00
 1.1251081089e+00	 3.1231546112e-01	 2.9003867992e+00
 1.1222113002e+00	 3.2256935021e-01	 2.8854203782e+00
 1.1192138646e+00	 3.3282050413e-01	 2.8689876661e+00
 1.1161154962e+00	 3.4306752849e-01	 2.8503599139e+00
 1.1129159133e+00	 3.5330901707e-01	 2.8288551830e+00
 1.1096148590e+00	 3.6354355225e-01	 2.8041525510e+00
 1.1062121014e+00	 3.7376970551e-01	 2.7781665838e+00
 1.1027074341e+00	 3.8398603803e-01	 2.7531031499e+00
 1.0991006766e+00	 3.9419110114e-01	 2.7296650357e+00
 1.0953916746e+00	 4.0438343693e-01	 2.7079536524e+00
 1.1364287657e+00	 3.0434304055e-01	 2.9211114634e+00
 1.1336111194e+00	 3.1467578686e-01	 2.9044672568e+00
 1.1306924180e+00	 3.2500716977e-01	 2.8873504316e+00
 1.1276723292e+00	 3.3533579683e-01	 2.8689817133e+00
 1.1245505449e+00	 3.4566026314e-01	 2.8486201235e+00
 1.1213267811e+00	 3.5597915182e-01	 2.8255697270e+00
 1.1180007791e+00	 3.6629103455e-01	 2.7991867458e+00
 1.1145723051e+00	 3.7659447202e-01	 2.7693897580e+00
 1.1110411513e+00	 3.8688801453e-01	 2.7379580839e+00
 1.1074071358e+00	 3.9717020246e-01	 2.7069567425e+00
 1.1036701029e+00	 4.0743956688e-01	 2.6781782858e+00
 1.0208862068e+00	 3.7687841031e-01	 2.9189492255e+00
 1.0173334593e+00	 3.8636587493e-01	 2.9505220860e+00
 1.0136851754e+00	 3.9583873097e-01	 2.9810803313e+00
 1.0099412857e+00	 4.0529559579e-01	 3.0106187561e+00
 1.0061017465e+00	 4.1473508031e-01	 3.0391146748e+00
 1.0021665399e+00	 4.2415578950e-01	 3.0665268723e+00
 9.9813567443e-01	 4.3355632305e-01	 3.0927946901e+00
 9.9400918483e-01	 4.4293527589e-01	 3.1178372578e+00
 9.8978713259e-01	 4.5229123883e-01	 3.1415528790e+00
 9.8546960600e-01	 4.6162279917e-01	 3.1638185810e+00
 9.8105672044e-01	 4.7092854131e-01	 3.1844898343e+00
 1.0291645295e+00	 3.7993450129e-01	 2.8949086215e+00
 1.0255829730e+00	 3.8949889935e-01	 2.9205891791e+00
 1.0219051053e+00	 3.9904857037e-01	 2.9448717337e+00
 1.0181308566e+00	 4.0858212051e-01	 2.9678180481e+00
 1.0142601827e+00	 4.1809814941e-01	 2.9894715872e+00
 1.0102930657e+00	 4.2759525073e-01	 3.0098563245e+00
 1.0062295141e+00	 4.3707201281e-01	 3.0289756896e+00
 1.0020695630e+00	 4.4652701917e-01	 3.0468116672e+00
 9.9781327428e-01	 4.5595884921e-01	 3.0633240586e+00
 9.9346073706e-01	 4.6536607878e-01	 3.0784499131e+00
 9.8901206759e-01	 4.7474728079e-01	 3.0921031384e+00
 1.0374428734e+00	 3.8299060006e-01	 2.8721802231e+00
 1.0338325077e+00	 3.9263193177e-01	 2.8920781215e+00
 1.0301250562e+00	 4.0225841797e-01	 2.9102847840e+00
 1.0263204483e+00	 4.1186865362e-01	 2.9269148814e+00
 1.0224186397e+00	 4.2146122708e-01	 2.9420640046e+00
 1.0184196122e+00	 4.3103472073e-01	 2.9558073444e+00
 1.0143233744e+00	 4.4058771152e-01	 2.9681985177e+00
 1.0101299617e+00	 4.5011877161e-01	 2.9792685531e+00
 1.0058394364e+00	 4.5962646895e-01	 2.9890250454e+00
 1.0014518885e+00	 4.6910936794e-01	 2.9974514884e+00
 9.9696743504e-01	 4.7856603001e-01	 3.0045067957e+00
 1.0457212360e+00	 3.8604670575e-01	 2.8502443160e+00
 1.0420820611e+00	 3.9576497128e-01	 2.8644224576e+00
 1.0383450257e+00	 4.0546827284e-01	 2.8767112044e+00
 1.0345100586e+00	 4.1515519417e-01	 2.8872644739e+00
 1.0305771152e+00	 4.2482431238e-01	 2.8962163538e+00
 1.0265461771e+00	 4.3447419853e-01	 2.9036796716e+00
 1.0224172531e+00	 4.4410341821e-01	 2.9097447171e+00
 1.0181903786e+00	 4.5371053220e-01	 2.9144781322e+00
 1.0138656168e+00	 4.6329409701e-01	 2.9179219765e+00
 1.0094430580e+00	 4.7285266558e-01	 2.9200929804e+00
 1.0049228205e+00	 4.8238478788e-01	 2.9209819947e+00
 1.0539996151e+00	 3.8910281751e-01	 2.8285960063e+00
 1.0503316309e+00	 3.9889801701e-01	 2.8370718394e+00
 1.0465650115e+00	 4.0867813407e-01	 2.8435599783e+00
 1.0426996852e+00	 4.1844174124e-01	 2.8482403140e+00
 1.0387356069e+00	 4.2818740435e-01	 2.8512721868e+00
 1.0346727582e+00	 4.3791368315e-01	 2.8527928604e+00
 1.0305111478e+00	 4.4761913188e-01	 2.8529161587e+00
 1.0262508116e+00	 4.5730229990e-01	 2.8517312761e+00
 1.0218918131e+00	 4.6696173234e-01	 2.8493017732e+00
 1.0174342434e+00	 4.7659597065e-01	 2.8456647677e+00
 1.0128782218e+00	 4.8620355333e-01	 2.8408303313e+00
 1.0622780082e+00	 3.9215893447e-01	 2.8067445605e+00
 1.0585812147e+00	 4.0203106806e-01	 2.8094913149e+00
 1.0547850113e+00	 4.1188800077e-01	 2.8102565930e+00
 1.0508893257e+00	 4.2172829390e-01	 2.8092333655e+00
 1.0468941124e+00	 4.3155050204e-01	 2.8065933541e+00
 1.0427993530e+00	 4.4135317361e-01	 2.8024854286e+00
 1.0386050562e+00	 4.5113485152e-01	 2.7970341732e+00
 1.0343112582e+00	 4.6089407372e-01	 2.7903386346e+00
 1.0299180230e+00	 4.7062937390e-01	 2.7824712644e+00
 1.0254254424e+00	 4.8033928208e-01	 2.7734770668e+00
 1.0208336366e+00	 4.9002232527e-01	 2.7633729605e+00
 1.0705564131e+00	 3.9521505575e-01	 2.7842127725e+00
 1.0668308102e+00	 4.0516412356e-01	 2.7811606465e+00
 1.0630050227e+00	 4.1509787201e-01	 2.7762423161e+00
 1.0590789777e+00	 4.2501485122e-01	 2.7696513055e+00
 1.0550526295e+00	 4.3491360449e-01	 2.7615592124e+00
 1.0509259594e+00	 4.4479266895e-01	 2.7521140423e+00
 1.0466989762e+00	 4.5465057614e-01	 2.7414387209e+00
 1.0423717163e+00	 4.6448585262e-01	 2.7296297969e+00
 1.0379442443e+00	 4.7429702066e-01	 2.7167563483e+00
 1.0334166527e+00	 4.8408259882e-01	 2.7028591028e+00
 1.0287890626e+00	 4.9384110262e-01	 2.6879497850e+00
 1.0788348274e+00	 3.9827118050e-01	 2.7605363576e+00
 1.0750804151e+00	 4.0829718260e-01	 2.7515736584e+00
 1.0712250434e+00	 4.1830774689e-01	 2.7409735010e+00
 1.0672686391e+00	 4.2830141226e-01	 2.7289177967e+00
 1.0632111559e+00	 4.3827671075e-01	 2.7155658678e+00
 1.0590525750e+00	 4.4823216819e-01	 2.7010527362e+00
 1.0547929053e+00	 4.5816630474e-01	 2.6854875965e+00
 1.0504321835e+00	 4.6807763560e-01	 2.6689524898e+00
 1.0459704747e+00	 4.7796467158e-01	 2.6515011903e+00
 1.0414078721e+00	 4.8782591980e-01	 2.6331583165e+00
 1.0367444977e+00	 4.9765988430e-01	 2.6139186796e+00
 1.0871132486e+00	 4.0132730785e-01	 2.7352633715e+00
 1.0833300269e+00	 4.1143024431e-01	 2.7202376112e+00
 1.0794450712e+00	 4.2151762450e-01	 2.7039209230e+00
 1.0754583074e+00	 4.3158797609e-01	 2.6864717881e+00
 1.0713696892e+00	 4.4163981988e-01	 2.6680254494e+00
 1.0671791975e+00	 4.5167167035e-01	 2.6486921669e+00
 1.0628868413e+00	 4.6168203634e-01	 2.6285556685e+00
 1.0584926576e+00	 4.7166942163e-01	 2.6076718094e+00
 1.0539967119e+00	 4.8163232562e-01	 2.5860674562e+00
 1.0493990983e+00	 4.9156924396e-01	 2.5637396051e+00
 1.0446999395e+00	 5.0147866923e-01	 2.5406547490e+00
 1.0953916746e+00	 4.0438343693e-01	 2.7079536524e+00
 1.0915796435e+00	 4.1456330780e-01	 2.6866726019e+00
 1.0876651036e+00	 4.2472750393e-01	 2.6645691413e+00
 1.0836479804e+00	 4.3487454179e-01	 2.6417668468e+00
 1.0795282271e+00	 4.4500293091e-01	 2.6183654145e+00
 1.0753058246e+00	 4.5511117446e-01	 2.5944388980e+00
 1.0709807819e+00	 4.6519776993e-01	 2.5700341502e+00
 1.0665531362e+00	 4.7526120969e-01	 2.5451694859e+00
 1.0620229537e+00	 4.8529998173e-01	 2.5198335770e+00
 1.0573903290e+00	 4.9531257024e-01	 2.4939845960e+00
 1.0526553859e+00	 5.0529745632e-01	 2.4675496175e+00
 1.1036701029e+00	 4.0743956688e-01	 2.6781782858e+00
 1.0998292624e+00	 4.1769637217e-01	 2.6504109879e+00
 1.0958851383e+00	 4.2793738427e-01	 2.6224158881e+00
 1.0918376557e+00	 4.3816110842e-01	 2.5942705158e+00
 1.0876867674e+00	 4.4836604289e-01	 2.5660278822e+00
 1.0834324540e+00	 4.5855067955e-01	 2.5377147140e+00
 1.0790747247e+00	 4.6871350451e-01	 2.5093299019e+00
 1.0746136171e+00	 4.7885299878e-01	 2.4808431790e+00
 1.0700491977e+00	 4.8896763889e-01	 2.4521940454e+00
 1.0653815619e+00	 4.9905589759e-01	 2.4232909509e+00
 1.0606108344e+00	 5.0911624449e-01	 2.3940107485e+00
 9.8105672044e-01	 4.7092854131e-01	 3.1844898343e+00
 9.7654939274e-01	 4.8020547255e-01	 3.2033416252e+00
 9.7194705020e-01	 4.8945375776e-01	 3.2202540560e+00
 9.6724988951e-01	 4.9867197668e-01	 3.2351962314e+00
 9.6245813498e-01	 5.0785870872e-01	 3.2481138116e+00
 9.5757203867e-01	 5.1701253362e-01	 3.2589293447e+00
 9.5259188044e-01	 5.2613203208e-01	 3.2675427982e+00
 9.4751796805e-01	 5.3521578645e-01	 3.2738322894e+00
 9.4235063717e-01	 5.4426238140e-01	 3.2776550148e+00
 9.3709025147e-01	 5.5327040460e-01	 3.2788483800e+00
 9.3173720256e-01	 5.6223844740e-01	 3.2772313249e+00
 9.8901206759e-01	 4.7474728079e-01	 3.0921031384e+00
 9.8446819017e-01	 4.8409943827e-01	 3.1040722589e+00
 9.7982852743e-01	 4.9342271743e-01	 3.1142179504e+00
 9.7509327766e-01	 5.0271568649e-01	 3.1225189886e+00
 9.7026266700e-01	 5.1197691336e-01	 3.1289285473e+00
 9.6533694954e-01	 5.2120496623e-01	 3.1333745246e+00
 9.6031640743e-01	 5.3039841432e-01	 3.1357600767e+00
 9.5520135089e-01	 5.3955582847e-01	 3.1359643640e+00
 9.4999211835e-01	 5.4867578187e-01	 3.1338435074e+00
 9.4468907640e-01	 5.5775685075e-01	 3.1292317560e+00
 9.3929261984e-01	 5.6679761502e-01	 3.1219428623e+00
 9.9696743504e-01	 4.7856603001e-01	 3.0045067957e+00
 9.9238700779e-01	 4.8799341392e-01	 3.0099800834e+00
 9.8771002475e-01	 4.9739168722e-01	 3.0137111251e+00
 9.8293668581e-01	 5.0675940662e-01	 3.0156920392e+00
 9.7806721892e-01	 5.1609512849e-01	 3.0158871593e+00
 9.7310188022e-01	 5.2539740954e-01	 3.0142333476e+00
 9.6804095411e-01	 5.3466480743e-01	 3.0106405293e+00
 9.6288475333e-01	 5.4389588155e-01	 3.0049924497e+00
 9.5763361901e-01	 5.5308919359e-01	 2.9971476545e+00
 9.5228792071e-01	 5.6224330833e-01	 2.9869406924e+00
 9.4684805640e-01	 5.7135679427e-01	 2.9741835380e+00
 1.0049228205e+00	 4.8238478788e-01	 2.9209819947e+00
 1.0003058434e+00	 4.9188739840e-01	 2.9203626532e+00
 9.9559153995e-01	 5.0136066601e-01	 2.9180489491e+00
 9.9078011175e-01	 5.1080313591e-01	 2.9140499497e+00
 9.8587178854e-01	 5.2021335296e-01	 2.9083447231e+00
 9.8086682850e-01	 5.2958986234e-01	 2.9008826359e+00
 9.7576551830e-01	 5.3893121022e-01	 2.8915838836e+00
 9.7056817318e-01	 5.4823594446e-01	 2.8803402554e+00
 9.6527513700e-01	 5.5750261532e-01	 2.8670161348e+00
 9.5988678225e-01	 5.6672977608e-01	 2.8514497353e+00
 9.5440351008e-01	 5.7591598385e-01	 2.8334545678e+00
 1.0128782218e+00	 4.8620355333e-01	 2.8408303313e+00
 1.0082246946e+00	 4.9578139060e-01	 2.8345375129e+00
 1.0034730708e+00	 5.0532965267e-01	 2.8265663514e+00
 9.9862355324e-01	 5.1484687322e-01	 2.8169464052e+00
 9.9367637363e-01	 5.2433158560e-01	 2.8056749841e+00
 9.8863179217e-01	 5.3378232346e-01	 2.7927174270e+00
 9.8349009781e-01	 5.4319762147e-01	 2.7780076241e+00
 9.7825160827e-01	 5.5257601599e-01	 2.7614487862e+00
 9.7291667014e-01	 5.6191604579e-01	 2.7429144631e+00
 9.6748565886e-01	 5.7121625274e-01	 2.7222498088e+00
 9.6195897875e-01	 5.8047518247e-01	 2.6992730920e+00
 1.0208336366e+00	 4.9002232527e-01	 2.7633729605e+00
 1.0161435594e+00	 4.9967538942e-01	 2.7518413728e+00
 1.0113546150e+00	 5.0929864608e-01	 2.7386170221e+00
 1.0064670081e+00	 5.1889061741e-01	 2.7237534386e+00
 1.0014809720e+00	 5.2844982524e-01	 2.7072696154e+00
 9.9639676905e-01	 5.3797479171e-01	 2.6891502610e+00
 9.9121469045e-01	 5.4746403997e-01	 2.6693463099e+00
 9.8593505643e-01	 5.5691609490e-01	 2.6477756939e+00
 9.8055821627e-01	 5.6632948378e-01	 2.6243243739e+00
 9.7508454838e-01	 5.7570273701e-01	 2.5988476330e+00
 9.6951446026e-01	 5.8503438884e-01	 2.5711716278e+00
 1.0287890626e+00	 4.9384110262e-01	 2.6879497850e+00
 1.0240624354e+00	 5.0356939376e-01	 2.6716293212e+00
 1.0192361704e+00	 5.1326764511e-01	 2.6535726498e+00
 1.0143104740e+00	 5.2293436733e-01	 2.6338606946e+00
 1.0092855814e+00	 5.3256807072e-01	 2.6125375090e+00
 1.0041617569e+00	 5.4216726590e-01	 2.5896105004e+00
 9.9893929404e-01	 5.5173046451e-01	 2.5650509251e+00
 9.9361851547e-01	 5.6125617995e-01	 2.5387946574e+00
 9.8819977323e-01	 5.7074292801e-01	 2.5107432331e+00
 9.8268344868e-01	 5.8018922765e-01	 2.4807651677e+00
 9.7706995248e-01	 5.8959360168e-01	 2.4486975458e+00
 1.0367444977e+00	 4.9765988430e-01	 2.6139186796e+00
 1.0319813203e+00	 5.0746340251e-01	 2.5932740713e+00
 1.0271177347e+00	 5.1723664864e-01	 2.5708221925e+00
 1.0221539488e+00	 5.2697812183e-01	 2.5466747249e+00
 1.0170901997e+00	 5.3668632086e-01	 2.5209040979e+00
 1.0119267536e+00	 5.4635974484e-01	 2.4935436805e+00
 1.0066639064e+00	 5.5599689390e-01	 2.4645882571e+00
 1.0013019832e+00	 5.6559626992e-01	 2.4339947909e+00
 9.9584133886e-01	 5.7515637725e-01	 2.4016834771e+00
 9.9028235758e-01	 5.8467572337e-01	 2.3675390823e+00
 9.8462545326e-01	 5.9415281968e-01	 2.3314125722e+00
 1.0446999395e+00	 5.0147866923e-01	 2.5406547490e+00
 1.0399002120e+00	 5.1135741457e-01	 2.5161652407e+00
 1.0349993057e+00	 5.2120565554e-01	 2.4897711802e+00
 1.0299974303e+00	 5.3102187977e-01	 2.4616183159e+00
 1.0248948246e+00	 5.4080457451e-01	 2.4318107090e+00
 1.0196917569e+00	 5.5055222734e-01	 2.4004108882e+00
 1.0143885253e+00	 5.6026332690e-01	 2.3674403029e+00
 1.0089854575e+00	 5.6993636358e-01	 2.3328800790e+00
 1.0034829110e+00	 5.7956983023e-01	 2.2966720764e+00
 9.9788127295e-01	 5.8916222290e-01	 2.2587202505e+00
 9.9218096046e-01	 5.9871204156e-01	 2.2188923136e+00
 1.0526553859e+00	 5.0529745632e-01	 2.4675496175e+00
 1.0478191081e+00	 5.1525142884e-01	 2.4397086619e+00
 1.0428808812e+00	 5.2517466470e-01	 2.4098410475e+00
 1.0378409163e+00	 5.3506564000e-01	 2.3781298445e+00
 1.0326994539e+00	 5.4492283048e-01	 2.3447139432e+00
 1.0274567646e+00	 5.5474471222e-01	 2.3096881677e+00
 1.0221131486e+00	 5.6452976233e-01	 2.2731037024e+00
 1.0166689361e+00	 5.7427645971e-01	 2.2349688364e+00
 1.0111244874e+00	 5.8398328573e-01	 2.1952500245e+00
 1.0054801926e+00	 5.9364872498e-01	 2.1538732669e+00
 9.9973647194e-01	 6.0327126602e-01	 2.1107258038e+00
 1.0606108344e+00	 5.0911624449e-01	 2.3940107485e+00
 1.0557380065e+00	 5.1914544421e-01	 2.3633257224e+00
 1.0507624590e+00	 5.2914367498e-01	 2.3304684947e+00
 1.0456844044e+00	 5.3910940138e-01	 2.2956626614e+00
 1.0405040854e+00	 5.4904108763e-01	 2.2590850831e+00
 1.0352217745e+00	 5.5893719829e-01	 2.2208659531e+00
 1.0298377741e+00	 5.6879619897e-01	 2.1810891951e+00
 1.0243524169e+00	 5.7861655706e-01	 2.1397931920e+00
 1.0187660660e+00	 5.8839674247e-01	 2.0969718485e+00
 1.0130791144e+00	 5.9813522833e-01	 2.0525759863e+00
 1.0072919856e+00	 6.0783049177e-01	 2.0065150707e+00
 9.3173720256e-01	 5.6223844740e-01	 3.2772313249e+00
 9.2629191025e-01	 5.7116510568e-01	 3.2729544325e+00
 9.2075482320e-01	 5.8004898109e-01	 3.2661902981e+00
 9.1512641814e-01	 5.8888868122e-01	 3.2567679059e+00
 9.0940719963e-01	 5.9768282013e-01	 3.2445044992e+00
 9.0359769993e-01	 6.0643001899e-01	 3.2292077414e+00
 8.9769847889e-01	 6.1512890680e-01	 3.2106780367e+00
 8.9171012387e-01	 6.2377812107e-01	 3.1887110000e+00
 8.8563324950e-01	 6.3237630850e-01	 3.1631000662e+00
 8.7946849759e-01	 6.4092212563e-01	 3.1336392255e+00
 8.7321653691e-01	 6.4941423958e-01	 3.1001258712e+00
 9.3929261984e-01	 5.6679761502e-01	 3.1219428623e+00
 9.3380317190e-01	 5.7579665919e-01	 3.1121301012e+00
 9.2822118484e-01	 5.8475257357e-01	 3.0999988418e+00
 9.2254713929e-01	 5.9366395446e-01	 3.0854159980e+00
 9.1678154388e-01	 6.0252940466e-01	 3.0682360803e+00
 9.1092493519e-01	 6.1134753419e-01	 3.0483033987e+00
 9.0497787762e-01	 6.2011696091e-01	 3.0254544339e+00
 8.9894096328e-01	 6.2883631129e-01	 2.9995203664e+00
 8.9281481179e-01	 6.3750422105e-01	 2.9703297503e+00
 8.8660007018e-01	 6.4611933585e-01	 2.9377113213e+00
 8.8029741261e-01	 6.5468031199e-01	 2.9014969233e+00
 9.4684805640e-01	 5.7135679427e-01	 2.9741835380e+00
 9.4131445269e-01	 5.8042822451e-01	 2.9590434241e+00
 9.3568756552e-01	 5.8945617804e-01	 2.9417644764e+00
 9.2996787936e-01	 5.9843923987e-01	 2.9222467624e+00
 9.2415590693e-01	 6.0737600155e-01	 2.9003769919e+00
 9.1825218913e-01	 6.1626506192e-01	 2.8760307704e+00
 9.1225729491e-01	 6.2510502773e-01	 2.8490750306e+00
 9.0617182113e-01	 6.3389451440e-01	 2.8193706284e+00
 8.9999639240e-01	 6.4263214667e-01	 2.7867750937e+00
 8.9373166095e-01	 6.5131655932e-01	 2.7511455218e+00
 8.8737830637e-01	 6.5994639782e-01	 2.7123415899e+00
 9.5440351008e-01	 5.7591598385e-01	 2.8334545678e+00
 9.4882575052e-01	 5.8505980033e-01	 2.8132205832e+00
 9.4315396313e-01	 5.9415979318e-01	 2.7910342561e+00
 9.3738863625e-01	 6.0321453610e-01	 2.7668241093e+00
 9.3153028670e-01	 6.1222260943e-01	 2.7405040623e+00
 9.2557945969e-01	 6.2118260080e-01	 2.7119757446e+00
 9.1953672871e-01	 6.3009310586e-01	 2.6811309950e+00
 9.1340269537e-01	 6.3895272898e-01	 2.6478545368e+00
 9.0717798930e-01	 6.4776008392e-01	 2.6120268147e+00
 9.0086326789e-01	 6.5651379457e-01	 2.5735269805e+00
 8.9445921619e-01	 6.6521249560e-01	 2.5322360132e+00
 9.6195897875e-01	 5.8047518247e-01	 2.6992730920e+00
 9.5633706324e-01	 5.8969138534e-01	 2.6742033128e+00
 9.5062037554e-01	 5.9886341764e-01	 2.6473705714e+00
 9.4480940786e-01	 6.0798984180e-01	 2.6187272202e+00
 9.3890468109e-01	 6.1706922691e-01	 2.5882094732e+00
 9.3290674478e-01	 6.2610014943e-01	 2.5557397862e+00
 9.2681617694e-01	 6.3508119388e-01	 2.5212294353e+00
 9.2063358396e-01	 6.4401095359e-01	 2.4845812786e+00
 9.1435960043e-01	 6.5288803134e-01	 2.4456926919e+00
 9.0799488897e-01	 6.6171104013e-01	 2.4044586597e+00
 9.0154014004e-01	 6.7047860381e-01	 2.3607750100e+00
 9.6951446026e-01	 5.8503438884e-01	 2.5711716278e+00
 9.6384838874e-01	 5.9432297822e-01	 2.5415483844e+00
 9.5808680065e-01	 6.0356705010e-01	 2.5103506595e+00
 9.5223019208e-01	 6.1276515563e-01	 2.4775500796e+00
 9.4627908802e-01	 6.2191585264e-01	 2.4431003072e+00
 9.4023404232e-01	 6.3101770642e-01	 2.4069394982e+00
 9.3409563755e-01	 6.4006929039e-01	 2.3689929668e+00
 9.2786448484e-01	 6.4906918680e-01	 2.3291760462e+00
 9.2154122378e-01	 6.5801598748e-01	 2.2873971316e+00
 9.1512652218e-01	 6.6690829452e-01	 2.2435608900e+00
 9.0862107594e-01	 6.7574472098e-01	 2.1975716211e+00
 9.7706995248e-01	 5.8959360168e-01	 2.4486975458e+00
 9.7135972488e-01	 5.9895457766e-01	 2.4148271139e+00
 9.6555323634e-01	 6.0827068923e-01	 2.3795661386e+00
 9.5965098682e-01	 6.1754047621e-01	 2.3429010301e+00
 9.5365350540e-01	 6.2676248523e-01	 2.3047981200e+00
 9.4756135025e-01	 6.3593527038e-01	 2.2652062036e+00
 9.4137510847e-01	 6.4505739396e-01	 2.2240593015e+00
 9.3509539596e-01	 6.5412742717e-01	 2.1812796290e+00
 9.2872285730e-01	 6.6314395088e-01	 2.1367807577e+00
 9.2225816550e-01	 6.7210555628e-01	 2.0904709554e+00
 9.1570202187e-01	 6.8101084561e-01	 2.0422566852e+00
 9.8462545326e-01	 5.9415281968e-01	 2.3314125722e+00
 9.7887106952e-01	 6.0358618236e-01	 2.2936248934e+00
 9.7301968049e-01	 6.1297433368e-01	 2.2546225637e+00
 9.6707178997e-01	 6.2231580221e-01	 2.2144023488e+00
 9.6102793114e-01	 6.3160912332e-01	 2.1729385318e+00
 9.5488866648e-01	 6.4085283991e-01	 2.1301855491e+00
 9.4865458764e-01	 6.5004550318e-01	 2.0860808585e+00
 9.4232631528e-01	 6.5918567328e-01	 2.0405480272e+00
 9.3590449895e-01	 6.6827192009e-01	 1.9935000238e+00
 9.2938981689e-01	 6.7730282392e-01	 1.9448426990e+00
 9.2278297582e-01	 6.8627697621e-01	 1.8944784368e+00
 9.9218096046e-01	 5.9871204156e-01	 2.2188923136e+00
 9.8638242056e-01	 6.0821779099e-01	 2.1775407448e+00
 9.8048613099e-01	 6.1767798214e-01	 2.1351390048e+00
 9.7449259942e-01	 6.2709113227e-01	 2.0916898449e+00
 9.6840236314e-01	 6.3645576553e-01	 2.0471708405e+00
 9.6221598894e-01	 6.4577041363e-01	 2.0015371290e+00
 9.5593407300e-01	 6.5503361664e-01	 1.9547243947e+00
 9.4955724074e-01	 6.6424392369e-01	 1.9066520853e+00
 9.4308614672e-01	 6.7339989367e-01	 1.8572268456e+00
 9.3652147435e-01	 6.8250009599e-01	 1.8063461514e+00
 9.2986393579e-01	 6.9154311128e-01	 1.7539021247e+00
 9.9973647194e-01	 6.0327126602e-01	 2.1107258038e+00
 9.9389377585e-01	 6.1284940224e-01	 2.0661868938e+00
 9.8795258571e-01	 6.2238163326e-01	 2.0207476441e+00
 9.8191341308e-01	 6.3186646504e-01	 1.9744124763e+00
 9.7577679933e-01	 6.4130241048e-01	 1.9271576532e+00
 9.6954331555e-01	 6.5068799013e-01	 1.8789341278e+00
 9.6321356248e-01	 6.6002173293e-01	 1.8296706545e+00
 9.5678817031e-01	 6.6930217696e-01	 1.7792771445e+00
 9.5026779855e-01	 6.7852787015e-01	 1.7276482532e+00
 9.4365313585e-01	 6.8769737100e-01	 1.6746671783e+00
 9.3694489977e-01	 6.9680924934e-01	 1.6202096533e+00
 1.0072919856e+00	 6.0783049177e-01	 2.0065150707e+00
 1.0014051333e+00	 6.1748101481e-01	 1.9591883646e+00
 9.9541904256e-01	 6.2708528571e-01	 1.9110933931e+00
 9.8933422885e-01	 6.3664179916e-01	 1.8622319848e+00
 9.8315123760e-01	 6.4614905681e-01	 1.8125745359e+00
 9.7687064424e-01	 6.5560556802e-01	 1.7620629805e+00
 9.7049305402e-01	 6.6500985064e-01	 1.7106140369e+00
 9.6401910192e-01	 6.7436043167e-01	 1.6581227138e+00
 9.5744945241e-01	 6.8365584808e-01	 1.6044660614e+00
 9.5078479937e-01	 6.9289464749e-01	 1.5495071479e+00
 9.4402586576e-01	 7.0207538890e-01	 1.4930992418e+00
 8.7321653691e-01	 6.4941423958e-01	 3.1001258712e+00
 8.6687697863e-01	 6.5785275749e-01	 3.0633518507e+00
 8.6045160364e-01	 6.6623491653e-01	 3.0240779644e+00
 8.5394116421e-01	 6.7455941392e-01	 2.9820468687e+00
 8.4734643864e-01	 6.8282496008e-01	 2.9370114076e+00
 8.4066823096e-01	 6.9103027925e-01	 2.8887379145e+00
 8.3390737064e-01	 6.9917411015e-01	 2.8370095371e+00
 8.2706471224e-01	 7.0725520659e-01	 2.7816295694e+00
 8.2014113507e-01	 7.1527233812e-01	 2.7224247707e+00
 8.1313754280e-01	 7.2322429065e-01	 2.6592486540e+00
 8.0605486311e-01	 7.3110986703e-01	 2.5919847231e+00
 8.8029741261e-01	 6.5468031199e-01	 2.9014969233e+00
 8.7390644713e-01	 6.6318725748e-01	 2.8624362907e+00
 8.6742896905e-01	 6.7163738709e-01	 2.8211856516e+00
 8.6086573674e-01	 6.8002938747e-01	 2.7774255784e+00
 8.5421753482e-01	 6.8836195859e-01	 2.7308451240e+00
 8.4748517384e-01	 6.9663381435e-01	 2.6811453545e+00
 8.4066948999e-01	 7.0484368322e-01	 2.6280429132e+00
 8.3377134477e-01	 7.1299030893e-01	 2.5712735935e+00
 8.2679162460e-01	 7.2107245104e-01	 2.5105959041e+00
 8.1973124050e-01	 7.2908888562e-01	 2.4457946039e+00
 8.1259112766e-01	 7.3703840580e-01	 2.3766841888e+00
 8.8737830637e-01	 6.5994639782e-01	 2.7123415899e+00
 8.8093593355e-01	 6.6852177107e-01	 2.6710495037e+00
 8.7440635224e-01	 6.7703987142e-01	 2.6278074623e+00
 8.6779032693e-01	 6.8549937497e-01	 2.5822393510e+00
 8.6108864852e-01	 6.9389897123e-01	 2.5339760837e+00
 8.5430213410e-01	 7.0223736374e-01	 2.4826593685e+00
 8.4743162659e-01	 7.1051327076e-01	 2.4279455080e+00
 8.4047799440e-01	 7.1872542590e-01	 2.3695092141e+00
 8.3344213109e-01	 7.2687257876e-01	 2.3070474167e+00
 8.2632495501e-01	 7.3495349554e-01	 2.2402830453e+00
 8.1912740888e-01	 7.4296695969e-01	 2.1691634364e+00
 8.9445921619e-01	 6.6521249560e-01	 2.5322360132e+00
 8.8796543591e-01	 6.7385629676e-01	 2.4887598612e+00
 8.8138375126e-01	 6.8244236800e-01	 2.4435097421e+00
 8.7471493281e-01	 6.9096937488e-01	 2.3960580509e+00
 8.6795977780e-01	 6.9943599641e-01	 2.3459830107e+00
 8.6111910982e-01	 7.0784092583e-01	 2.2928726703e+00
 8.5419377851e-01	 7.1618287114e-01	 2.2363289417e+00
 8.4718465923e-01	 7.2446055587e-01	 2.1759716551e+00
 8.4009265266e-01	 7.3267271962e-01	 2.1114426114e+00
 8.3291868447e-01	 7.4081811876e-01	 2.0424100678e+00
 8.2566370492e-01	 7.4889552701e-01	 1.9711211957e+00
 9.0154014004e-01	 6.7047860381e-01	 2.3607750100e+00
 8.9499495221e-01	 6.7919083302e-01	 2.3151552437e+00
 8.8836116411e-01	 6.8784487530e-01	 2.2678790041e+00
 8.8163955243e-01	 6.9643938563e-01	 2.2184721967e+00
 8.7483092070e-01	 7.0497303258e-01	 2.1664656006e+00
 8.6793609906e-01	 7.1344449903e-01	 2.1113990982e+00
 8.6095594385e-01	 7.2185248277e-01	 2.0528259499e+00
 8.5389133736e-01	 7.3019569721e-01	 1.9903170897e+00
 8.4674318742e-01	 7.3847287198e-01	 1.9234654203e+00
 8.3951242701e-01	 7.4668275360e-01	 1.8532237599e+00
 8.3220001392e-01	 7.5482410610e-01	 1.7827998490e+00
 9.0862107594e-01	 6.7574472098e-01	 2.1975716211e+00
 9.0202448046e-01	 6.8452537835e-01	 2.1498425811e+00
 8.9533858883e-01	 6.9324739178e-01	 2.1005214671e+00
 8.8856418382e-01	 7.0190940568e-01	 2.0490925034e+00
 8.8170207529e-01	 7.1051007816e-01	 1.9950440740e+00
 8.7475309988e-01	 7.1904808176e-01	 1.9378731853e+00
 8.6771812068e-01	 7.2752210404e-01	 1.8770899783e+00
 8.6059802689e-01	 7.3593084830e-01	 1.8122222649e+00
 8.5339373348e-01	 7.4427303421e-01	 1.7432846211e+00
 8.4610618077e-01	 7.5254739842e-01	 1.6736716638e+00
 8.3873633404e-01	 7.6075269526e-01	 1.6039345733e+00
 9.1570202187e-01	 6.8101084561e-01	 2.0422566852e+00
 9.0905401867e-01	 6.8985993124e-01	 1.9924474179e+00
 9.0231602343e-01	 6.9864991592e-01	 1.9410626191e+00
 8.9548882502e-01	 7.0737943348e-01	 1.8875494509e+00
 8.8857323962e-01	 7.1604713159e-01	 1.8313587564e+00
 8.8157011037e-01	 7.2465167243e-01	 1.7719497570e+00
 8.7448030709e-01	 7.3319173335e-01	 1.7087948029e+00
 8.6730472593e-01	 7.4166600752e-01	 1.6414168770e+00
 8.6004428897e-01	 7.5007320465e-01	 1.5724149615e+00
 8.5269994386e-01	 7.5841205155e-01	 1.5034631313e+00
 8.4527266341e-01	 7.6668129283e-01	 1.4342668551e+00
 9.2278297582e-01	 6.8627697621e-01	 1.8944784368e+00
 9.1608356484e-01	 6.9519449018e-01	 1.8426135028e+00
 9.0929346594e-01	 7.0405244618e-01	 1.7891468055e+00
 9.0241347407e-01	 7.1284946748e-01	 1.7334928768e+00
 8.9544441173e-01	 7.2158419129e-01	 1.6750696815e+00
 8.8838712858e-01	 7.3025526945e-01	 1.6133035511e+00
 8.8124250117e-01	 7.3886136908e-01	 1.5476341729e+00
 8.7401143257e-01	 7.4740117324e-01	 1.4791019070e+00
 8.6669485199e-01	 7.5587338167e-01	 1.4107287080e+00
 8.5929371442e-01	 7.6427671132e-01	 1.3423142361e+00
 8.5180900020e-01	 7.7260989711e-01	 1.2735439903e+00
 9.2986393579e-01	 6.9154311128e-01	 1.7539021247e+00
 9.2311311700e-01	 7.0052905365e-01	 1.7000024009e+00
 9.1627091438e-01	 7.0945498103e-01	 1.6444368404e+00
 9.0933812901e-01	 7.1831950613e-01	 1.5865915928e+00
 9.0231558968e-01	 7.2712125570e-01	 1.5258562190e+00
 8.9520415258e-01	 7.3585887124e-01	 1.4616288618e+00
 8.8800470099e-01	 7.4453100962e-01	 1.3938218468e+00
 8.8071814491e-01	 7.5313634384e-01	 1.3257692508e+00
 8.7334542067e-01	 7.6167356361e-01	 1.2579216165e+00
 8.6588749059e-01	 7.7014137608e-01	 1.1899472632e+00
 8.5834534253e-01	 7.7853850643e-01	 1.1215186008e+00
 9.3694489977e-01	 6.9680924934e-01	 1.6202096533e+00
 9.3014267313e-01	 7.0586362015e-01	 1.5642931277e+00
 9.2324836677e-01	 7.1485751894e-01	 1.5066136397e+00
 9.1626278787e-01	 7.2378954788e-01	 1.4465330234e+00
 9.0918677152e-01	 7.3265832325e-01	 1.3834167234e+00
 9.0202118045e-01	 7.4146247620e-01	 1.3166580436e+00
 8.9476690465e-01	 7.5020065339e-01	 1.2486386893e+00
 8.8742486104e-01	 7.5887151769e-01	 1.1810991919e+00
 8.7999599312e-01	 7.6747374885e-01	 1.1136959091e+00
 8.7248127050e-01	 7.7600604416e-01	 1.0460902146e+00
 8.6488168858e-01	 7.8446711912e-01	 9.7794816723e-01
 9.4402586576e-01	 7.0207538890e-01	 1.4930992418e+00
 9.3717223126e-01	 7.1119818816e-01	 1.4351818033e+00
 9.3022582114e-01	 7.2026005839e-01	 1.3753758757e+00
 9.2318744869e-01	 7.2925959118e-01	 1.3130228652e+00
 9.1605795531e-01	 7.3819539237e-01	 1.2474682041e+00
 9.0883821025e-01	 7.4706608275e-01	 1.1793849381e+00
 9.0152911022e-01	 7.5587029875e-01	 1.1118719753e+00
 8.9413157908e-01	 7.6460669316e-01	 1.0447786007e+00
 8.8664656745e-01	 7.7327393573e-01	 9.7775977673e-01
 8.7907505228e-01	 7.8187071391e-01	 9.1047633287e-01
 8.7141803647e-01	 7.9039573348e-01	 8.4259457804e-01
 8.0605486311e-01	 7.3110986703e-01	 2.5919847231e+00
 7.9889526895e-01	 7.3892656667e-01	 2.5192489405e+00
 7.9165852639e-01	 7.4667458537e-01	 2.4408981054e+00
 7.8434561935e-01	 7.5435279371e-01	 2.3598441675e+00
 7.7695755399e-01	 7.6196008148e-01	 2.2759792193e+00
 7.6949535827e-01	 7.6949535827e-01	 2.1890828769e+00
 7.6196008148e-01	 7.7695755399e-01	 2.0989447270e+00
 7.5435279371e-01	 7.8434561935e-01	 2.0053642783e+00
 7.4667458537e-01	 7.9165852639e-01	 1.9081509083e+00
 7.3892656667e-01	 7.9889526895e-01	 1.8072223763e+00
 7.3110986703e-01	 8.0605486311e-01	 1.7049375143e+00
 8.1259112766e-01	 7.3703840580e-01	 2.3766841888e+00
 8.0537347665e-01	 7.4491849072e-01	 2.3025621256e+00
 7.9807805166e-01	 7.5272933778e-01	 2.2255752517e+00
 7.9070584457e-01	 7.6046980838e-01	 2.1460735427e+00
 7.8325786970e-01	 7.6813878332e-01	 2.0639030853e+00
 7.7573516335e-01	 7.7573516335e-01	 1.9789199357e+00
 7.6813878332e-01	 7.8325786970e-01	 1.8909899314e+00
 7.6046980838e-01	 7.9070584457e-01	 1.7999884959e+00
 7.5272933778e-01	 7.9807805166e-01	 1.7058004409e+00
 7.4491849072e-01	 8.0537347665e-01	 1.6083197693e+00
 7.3703840580e-01	 8.1259112766e-01	 1.5078609980e+00
 8.1912740888e-01	 7.4296695969e-01	 2.1691634364e+00
 8.1185170088e-01	 7.5091043005e-01	 2.0957501572e+00
 8.0449759330e-01	 7.5878410563e-01	 2.0199904558e+00
 7.9706608601e-01	 7.6658683865e-01	 1.9417910848e+00
 7.8955820148e-01	 7.7431750092e-01	 1.8610689629e+00
 7.8197498435e-01	 7.8197498435e-01	 1.7777508568e+00
 7.7431750092e-01	 7.8955820148e-01	 1.6917730509e+00
 7.6658683865e-01	 7.9706608601e-01	 1.6030810108e+00
 7.5878410563e-01	 8.0449759330e-01	 1.5116290451e+00
 7.5091043005e-01	 8.1185170088e-01	 1.4173799713e+00
 7.4296695969e-01	 8.1912740888e-01	 1.3203047890e+00
 8.2566370492e-01	 7.4889552701e-01	 1.9711211957e+00
 8.1832993980e-01	 7.5690238297e-01	 1.8986928170e+00
 8.1091714950e-01	 7.6483888720e-01	 1.8239356284e+00
 8.0342634186e-01	 7.7270388279e-01	 1.7468217682e+00
 7.9585854754e-01	 7.8049623253e-01	 1.6673334790e+00
 7.8821481949e-01	 7.8821481949e-01	 1.5854626516e+00
 7.8049623253e-01	 7.9585854754e-01	 1.5012103570e+00
 7.7270388279e-01	 8.0342634186e-01	 1.4145863736e+00
 7.6483888720e-01	 8.1091714950e-01	 1.3256087143e+00
 7.5690238297e-01	 8.1832993980e-01	 1.2343031595e+00
 7.4889552701e-01	 8.2566370492e-01	 1.1407028005e+00
 8.3220001392e-01	 7.5482410610e-01	 1.7827998490e+00
 8.2480819156e-01	 7.6289434777e-01	 1.7111537242e+00
 8.1733671842e-01	 7.7089368078e-01	 1.6372080248e+00
 8.0978661033e-01	 7.7882093906e-01	 1.5609949870e+00
 8.0215890609e-01	 7.8667497639e-01	 1.4825568077e+00
 7.9445466701e-01	 7.9445466701e-01	 1.4019450542e+00
 7.8667497639e-01	 8.0215890609e-01	 1.3192200637e+00
 7.7882093906e-01	 8.0978661033e-01	 1.2344503381e+00
 7.7089368078e-01	 8.1733671842e-01	 1.1477119421e+00
 7.6289434777e-01	 8.2480819156e-01	 1.0590879074e+00
 7.5482410610e-01	 8.3220001392e-01	 9.6866765192e-01
 8.3873633404e-01	 7.6075269526e-01	 1.6039345733e+00
 8.3128645434e-01	 7.6888632276e-01	 1.5329023207e+00
 8.2375629826e-01	 7.7694848466e-01	 1.4596097746e+00
 8.1614688962e-01	 7.8493800573e-01	 1.3841441154e+00
 8.0845927536e-01	 7.9285373076e-01	 1.3066022593e+00
 8.0069452513e-01	 8.0069452513e-01	 1.2270901381e+00
 7.9285373076e-01	 8.0845927536e-01	 1.1457219704e+00
 7.8493800573e-01	 8.1614688962e-01	 1.0626195289e+00
 7.7694848466e-01	 8.2375629826e-01	 9.7791141334e-01
 7.6888632276e-01	 8.3128645434e-01	 8.9173233180e-01
 7.6075269526e-01	 8.3873633404e-01	 8.0422239971e-01
 8.4527266341e-01	 7.6668129283e-01	 1.4342668551e+00
 8.3776472629e-01	 7.7487830623e-01	 1.3637133846e+00
 8.3017588720e-01	 7.8300329711e-01	 1.2909474262e+00
 8.2250717791e-01	 7.9105508106e-01	 1.2161060812e+00
 8.1475965355e-01	 7.9903249388e-01	 1.1393358814e+00
 8.0693439210e-01	 8.0693439210e-01	 1.0607919431e+00
 7.9903249388e-01	 8.1475965355e-01	 9.8063711362e-01
 7.9105508106e-01	 8.2250717791e-01	 8.9904111657e-01
 7.8300329711e-01	 8.3017588720e-01	 8.1617970262e-01
 7.7487830623e-01	 8.3776472629e-01	 7.3223381348e-01
 7.6668129283e-01	 8.4527266341e-01	 6.4738876514e-01
 8.5180900020e-01	 7.7260989711e-01	 1.2735439903e+00
 8.4424300559e-01	 7.8087029650e-01	 1.2033665612e+00
 8.3659548341e-01	 7.8905811643e-01	 1.1310315069e+00
 8.2886747342e-01	 7.9717216333e-01	 1.0567209535e+00
 8.2106003889e-01	 8.0521126400e-01	 9.8062607242e-01
 8.1317426614e-01	 8.1317426614e-01	 9.0294611303e-01
 8.0521126400e-01	 8.2106003889e-01	 8.2388742830e-01
 7.9717216333e-01	 8.2886747342e-01	 7.4366250108e-01
 7.8905811643e-01	 8.3659548341e-01	 6.6248897854e-01
 7.8087029650e-01	 8.4424300559e-01	 5.8058872207e-01
 7.7260989711e-01	 8.5180900020e-01	 4.9818687978e-01
 8.5834534253e-01	 7.7853850643e-01	 1.1215186008e+00
 8.5072129039e-01	 7.8686229187e-01	 1.0516459090e+00
 8.4301508508e-01	 7.9511294089e-01	 9.7967609656e-01
 8.3522777433e-01	 8.0328925080e-01	 9.0583154206e-01
 8.2736042958e-01	 8.1139003938e-01	 8.3034320575e-01
 8.1941414548e-01	 8.1941414548e-01	 7.5344954380e-01
 8.1139003938e-01	 8.2736042958e-01	 6.7539541710e-01
 8.0328925080e-01	 8.3522777433e-01	 5.9643100251e-01
 7.9511294089e-01	 8.4301508508e-01	 5.1681071476e-01
 7.8686229187e-01	 8.5072129039e-01	 4.3679214657e-01
 7.7853850643e-01	 8.5834534253e-01	 3.5663503488e-01
 8.6488168858e-01	 7.8446711912e-01	 9.7794816723e-01
 8.5719957887e-01	 7.9285429062e-01	 9.0833946085e-01
 8.4943469038e-01	 8.0116776879e-01	 8.3669841483e-01
 8.4158807884e-01	 8.0940634174e-01	 7.6328300950e-01
 8.3366082384e-01	 8.1756881826e-01	 6.8835926481e-01
 8.2565402836e-01	 8.2565402836e-01	 6.1220003987e-01
 8.1756881826e-01	 8.3366082384e-01	 5.3508382841e-01
 8.0940634174e-01	 8.4158807884e-01	 4.5729355872e-01
 8.0116776879e-01	 8.4943469038e-01	 3.7911540676e-01
 7.9285429062e-01	 8.5719957887e-01	 3.0083763064e-01
 7.8446711912e-01	 8.6488168858e-01	 2.2274943462e-01
 8.7141803647e-01	 7.9039573348e-01	 8.4259457804e-01
 8.6367786918e-01	 7.9884629108e-01	 7.7323879859e-01
 8.5585429751e-01	 8.0722259840e-01	 7.0191842088e-01
 8.4794838516e-01	 8.1552343441e-01	 6.2892249420e-01
 8.3996121988e-01	 8.2374759889e-01	 5.5454748812e-01
 8.3189391300e-01	 8.3189391300e-01	 4.7909598028e-01
 8.2374759889e-01	 8.3996121988e-01	 4.0287534184e-01
 8.1552343441e-01	 8.4794838516e-01	 3.2619642967e-01
 8.0722259840e-01	 8.5585429751e-01	 2.4937229426e-01
 7.9884629108e-01	 8.6367786918e-01	 1.7271691237e-01
 7.9039573348e-01	 8.7141803647e-01	 9.6543952877e-02
 7.3110986703e-01	 8.0605486311e-01	 1.7049375143e+00
 7.2322429065e-01	 8.1313754280e-01	 1.6004578767e+00
 7.1527233812e-01	 8.2014113507e-01	 1.4921341665e+00
 7.0725520659e-01	 8.2706471224e-01	 1.3801455917e+00
 6.9917411015e-01	 8.3390737064e-01	 1.2646523888e+00
 6.9103027925e-01	 8.4066823096e-01	 1.1457982135e+00
 6.8282496008e-01	 8.4734643864e-01	 1.0237125947e+00
 6.7455941392e-01	 8.5394116421e-01	 8.9851343674e-01
 6.6623491653e-01	 8.6045160364e-01	 7.7030955130e-01
 6.5785275749e-01	 8.6687697863e-01	 6.3920320383e-01
 6.4941423958e-01	 8.7321653691e-01	 5.0529265705e-01
 7.3703840580e-01	 8.1259112766e-01	 1.5078609980e+00
 7.2908888562e-01	 8.1973124050e-01	 1.4053850432e+00
 7.2107245104e-01	 8.2679162460e-01	 1.2997397721e+00
 7.1299030893e-01	 8.3377134477e-01	 1.1910536976e+00
 7.0484368322e-01	 8.4066948999e-01	 1.0794358670e+00
 6.9663381435e-01	 8.4748517384e-01	 9.6497845405e-01
 6.8836195859e-01	 8.5421753482e-01	 8.4775941690e-01
 6.8002938747e-01	 8.6086573674e-01	 7.2784520426e-01
 6.7163738709e-01	 8.6742896905e-01	 6.0529349228e-01
 6.6318725748e-01	 8.7390644713e-01	 4.8015593419e-01
 6.5468031199e-01	 8.8029741261e-01	 3.5248090538e-01
 7.4296695969e-01	 8.1912740888e-01	 1.3203047890e+00
 7.3495349554e-01	 8.2632495501e-01	 1.2195674917e+00
 7.2687257876e-01	 8.3344213109e-01	 1.1161811682e+00
 7.1872542590e-01	 8.4047799440e-01	 1.0103831675e+00
 7.1051327076e-01	 8.4743162659e-01	 9.0223525703e-01
 7.0223736374e-01	 8.5430213410e-01	 7.9178188127e-01
 6.9389897123e-01	 8.6108864852e-01	 6.7905302460e-01
 6.8549937497e-01	 8.6779032693e-01	 5.6406712417e-01
 6.7703987142e-01	 8.7440635224e-01	 4.4683401333e-01
 6.6852177107e-01	 8.8093593355e-01	 3.2735787708e-01
 6.5994639782e-01	 8.8737830637e-01	 2.0564020130e-01
 7.4889552701e-01	 8.2566370492e-01	 1.1407028005e+00
 7.4081811876e-01	 8.3291868447e-01	 1.0430287403e+00
 7.3267271962e-01	 8.4009265266e-01	 9.4150430747e-01
 7.2446055587e-01	 8.4718465923e-01	 8.3820007904e-01
 7.1618287114e-01	 8.5419377851e-01	 7.3313466569e-01
 7.0784092583e-01	 8.6111910982e-01	 6.2630838396e-01
 6.9943599641e-01	 8.6795977780e-01	 5.1770669189e-01
 6.9096937488e-01	 8.7471493281e-01	 4.0730331040e-01
 6.8244236800e-01	 8.8138375126e-01	 2.9506337587e-01
 6.7385629676e-01	 8.8796543591e-01	 1.8094660422e-01
 6.6521249560e-01	 8.9445921619e-01	 6.4910446980e-02
 7.5482410610e-01	 8.3220001392e-01	 9.6866765192e-01
 7.4668275360e-01	 8.3951242701e-01	 8.7472901306e-01
 7.3847287198e-01	 8.4674318742e-01	 7.7574760480e-01
 7.3019569721e-01	 8.5389133736e-01	 6.7456284198e-01
 7.2185248277e-01	 8.6095594385e-01	 5.7221049268e-01
 7.1344449903e-01	 8.6793609906e-01	 4.6865019807e-01
 7.0497303258e-01	 8.7483092070e-01	 3.6382618892e-01
 6.9643938563e-01	 8.8163955243e-01	 2.5767061831e-01
 6.8784487530e-01	 8.8836116411e-01	 1.5010692619e-01
 6.7919083302e-01	 8.9499495221e-01	 4.1053215027e-02
 6.7047860381e-01	 9.0154014004e-01	-6.9574383876e-02
 7.6075269526e-01	 8.3873633404e-01	 8.0422239971e-01
 7.5254739842e-01	 8.4610618077e-01	 7.1372344004e-01
 7.4427303421e-01	 8.5339373348e-01	 6.1857503124e-01
 7.3593084830e-01	 8.6059802689e-01	 5.1952172158e-01
 7.2752210404e-01	 8.6771812068e-01	 4.1953098021e-01
 7.1904808176e-01	 8.7475309988e-01	 3.1889147913e-01
 7.1051007816e-01	 8.8170207529e-01	 2.1750937435e-01
 7.0190940568e-01	 8.8856418382e-01	 1.1527825409e-01
 6.9324739178e-01	 8.9533858883e-01	 1.2082718396e-02
 6.8452537835e-01	 9.0202448046e-01	-9.2198030082e-02
 6.7574472098e-01	 9.0862107594e-01	-1.9768660616e-01
 7.6668129283e-01	 8.4527266341e-01	 6.4738876514e-01
 7.5841205155e-01	 8.5269994386e-01	 5.6005699014e-01
 7.5007320465e-01	 8.6004428897e-01	 4.6860019399e-01
 7.4166600752e-01	 8.6730472593e-01	 3.7309269710e-01
 7.3319173335e-01	 8.7448030709e-01	 2.7515576317e-01
 7.2465167243e-01	 8.8157011037e-01	 1.7710787484e-01
 7.1604713159e-01	 8.8857323962e-01	 7.8845787537e-02
 7.0737943348e-01	 8.9548882502e-01	-1.9772616567e-02
 6.9864991592e-01	 9.0231602343e-01	-1.1889886334e-01
 6.8985993124e-01	 9.0905401867e-01	-2.1869007730e-01
 6.8101084561e-01	 9.1570202187e-01	-3.1930518403e-01
 7.7260989711e-01	 8.5180900020e-01	 4.9818687978e-01
 7.6427671132e-01	 8.5929371442e-01	 4.1377251003e-01
 7.5587338167e-01	 8.6669485199e-01	 3.2574185076e-01
 7.4740117324e-01	 8.7401143257e-01	 2.3414615191e-01
 7.3886136908e-01	 8.8124250117e-01	 1.3913541995e-01
 7.3025526945e-01	 8.8838712858e-01	 4.3366097706e-02
 7.2158419129e-01	 8.9544441173e-01	-5.2083759776e-02
 7.1284946748e-01	 9.0241347407e-01	-1.4738926033e-01
 7.0405244618e-01	 9.0929346594e-01	-2.4273548338e-01
 6.9519449018e-01	 9.1608356484e-01	-3.3831344774e-01
 6.8627697621e-01	 9.2278297582e-01	-4.3431609220e-01
 7.7853850643e-01	 8.5834534253e-01	 3.5663503488e-01
 7.7014137608e-01	 8.6588749059e-01	 2.7491049133e-01
 7.6167356361e-01	 8.7334542067e-01	 1.9006094907e-01
 7.5313634384e-01	 8.8071814491e-01	 1.0211845565e-01
 7.4453100962e-01	 8.8800470099e-01	 1.1121488185e-02
 7.3585887124e-01	 8.9520415258e-01	-8.2276502242e-02
 7.2712125570e-01	 9.0231558968e-01	-1.7520759195e-01
 7.1831950613e-01	 9.0933812901e-01	-2.6748776883e-01
 7.0945498103e-01	 9.1627091438e-01	-3.5933323394e-01
 7.0052905365e-01	 9.2311311700e-01	-4.5096660643e-01
 6.9154311128e-01	 9.2986393579e-01	-5.4261267769e-01
 7.8446711912e-01	 8.6488168858e-01	 2.2274943462e-01
 7.7600604416e-01	 8.7248127050e-01	 1.4350884064e-01
 7.6747374885e-01	 8.7999599312e-01	 6.1615420072e-02
 7.5887151769e-01	 8.8742486104e-01	-2.2914204792e-02
 7.5020065339e-01	 8.9476690465e-01	-1.1005756196e-01
 7.4146247620e-01	 9.0202118045e-01	-1.9978693538e-01
 7.3265832325e-01	 9.0918677152e-01	-2.9046357835e-01
 7.2378954788e-01	 9.1626278787e-01	-3.7999345169e-01
 7.1485751894e-01	 9.2324836677e-01	-4.6860701505e-01
 7.0586362015e-01	 9.3014267313e-01	-5.5655633203e-01
 6.9680924934e-01	 9.3694489977e-01	-6.4409602212e-01
 7.9039573348e-01	 8.7141803647e-01	 9.6543952877e-02
 7.8187071391e-01	 8.7907505228e-01	 1.9602652204e-02
 7.7327393573e-01	 8.8664656745e-01	-5.9540034891e-02
 7.6460669316e-01	 8.9413157908e-01	-1.4087922200e-01
 7.5587029875e-01	 9.0152911022e-01	-2.2440488083e-01
 7.4706608275e-01	 9.0883821025e-01	-3.1010247447e-01
 7.3819539237e-01	 9.1605795531e-01	-3.9779954244e-01
 7.2925959118e-01	 9.2318744869e-01	-4.8484123016e-01
 7.2026005839e-01	 9.3022582114e-01	-5.7048091521e-01
 7.1119818816e-01	 9.3717223126e-01	-6.5499808708e-01
 7.0207538890e-01	 9.4402586576e-01	-7.3867530449e-01
 6.4941423958e-01	 8.7321653691e-01	 5.0529265705e-01
 6.4092212563e-01	 8.7946849759e-01	 3.6921394516e-01
 6.3237630850e-01	 8.8563324950e-01	 2.3150176617e-01
 6.2377812107e-01	 8.9171012387e-01	 9.2169154447e-02
 6.1512890680e-01	 8.9769847889e-01	-4.8769847491e-02
 6.0643001899e-01	 9.0359769993e-01	-1.9129778429e-01
 5.9768282013e-01	 9.0940719963e-01	-3.3539147180e-01
 5.8888868122e-01	 9.1512641814e-01	-4.8101978333e-01
 5.8004898109e-01	 9.2075482320e-01	-6.2814155064e-01
 5.7116510568e-01	 9.2629191025e-01	-7.7670359158e-01
 5.6223844740e-01	 9.3173720256e-01	-9.2663887497e-01
 6.5468031199e-01	 8.8029741261e-01	 3.5248090538e-01
 6.4611933585e-01	 8.8660007018e-01	 2.2280300585e-01
 6.3750422105e-01	 8.9281481179e-01	 9.1596611797e-02
 6.2883631129e-01	 8.9894096328e-01	-4.1116412149e-02
 6.2011696091e-01	 9.0497787762e-01	-1.7531360046e-01
 6.1134753419e-01	 9.1092493519e-01	-3.1096936890e-01
 6.0252940466e-01	 9.1678154388e-01	-4.4805258957e-01
 5.9366395446e-01	 9.2254713929e-01	-5.8652427261e-01
 5.8475257357e-01	 9.2822118484e-01	-7.2633536810e-01
 5.7579665919e-01	 9.3380317190e-01	-8.6742470020e-01
 5.6679761502e-01	 9.3929261984e-01	-1.0097170451e+00
 6.5994639782e-01	 8.8737830637e-01	 2.0564020130e-01
 6.5131655932e-01	 8.9373166095e-01	 8.2100652072e-02
 6.4263214667e-01	 8.9999639240e-01	-4.2864431688e-02
 6.3389451440e-01	 9.0617182113e-01	-1.6922750119e-01
 6.2510502773e-01	 9.1225729491e-01	-2.9696060169e-01
 6.1626506192e-01	 9.1825218913e-01	-4.2603273367e-01
 6.0737600155e-01	 9.2415590693e-01	-5.5640731122e-01
 5.9843923987e-01	 9.2996787936e-01	-6.8803973237e-01
 5.8945617804e-01	 9.3568756552e-01	-8.2087507527e-01
 5.8042822451e-01	 9.4131445269e-01	-9.5484593317e-01
 5.7135679427e-01	 9.4684805640e-01	-1.0898704001e+00
 6.6521249560e-01	 8.9445921619e-01	 6.4910446980e-02
 6.5651379457e-01	 9.0086326789e-01	-5.2750504541e-02
 6.4776008392e-01	 9.0717798930e-01	-1.7173220931e-01
 6.3895272898e-01	 9.1340269537e-01	-2.9200457879e-01
 6.3009310586e-01	 9.1953672871e-01	-4.1353710338e-01
 6.2118260080e-01	 9.2557945969e-01	-5.3629608435e-01
 6.1222260943e-01	 9.3153028670e-01	-6.6024196781e-01
 6.0321453610e-01	 9.3738863625e-01	-7.8532679645e-01
 5.9415979318e-01	 9.4315396313e-01	-9.1149179344e-01
 5.8505980033e-01	 9.4882575052e-01	-1.0386650921e+00
 5.7591598385e-01	 9.5440351008e-01	-1.1667596240e+00
 6.7047860381e-01	 9.0154014004e-01	-6.9574383876e-02
 6.6171104013e-01	 9.0799488897e-01	-1.8161324493e-01
 6.5288803134e-01	 9.1435960043e-01	-2.9486254202e-01
 6.4401095359e-01	 9.2063358396e-01	-4.0929279276e-01
 6.3508119388e-01	 9.2681617694e-01	-5.2487387057e-01
 6.2610014943e-01	 9.3290674478e-01	-6.4157209888e-01
 6.1706922691e-01	 9.3890468109e-01	-7.5934745284e-01
 6.0798984180e-01	 9.4480940786e-01	-8.7815088490e-01
 5.9886341764e-01	 9.5062037554e-01	-9.9792178971e-01
 5.8969138534e-01	 9.5633706324e-01	-1.1185856222e+00
 5.8047518247e-01	 9.6195897875e-01	-1.2400516826e+00
 6.7574472098e-01	 9.0862107594e-01	-1.9768660616e-01
 6.6690829452e-01	 9.1512652218e-01	-3.0435609539e-01
 6.5801598748e-01	 9.2154122378e-01	-4.1211656737e-01
 6.4906918680e-01	 9.2786448484e-01	-5.2094229623e-01
 6.4006929039e-01	 9.3409563755e-01	-6.3080648276e-01
 6.3101770642e-01	 9.4023404232e-01	-7.4167820208e-01
 6.2191585264e-01	 9.4627908802e-01	-8.5351946494e-01
 6.1276515563e-01	 9.5223019208e-01	-9.6628240965e-01
 6.0356705010e-01	 9.5808680065e-01	-1.0799066407e+00
 5.9432297822e-01	 9.6384838874e-01	-1.1943167291e+00
 5.8503438884e-01	 9.6951446026e-01	-1.3094198880e+00
 6.8101084561e-01	 9.1570202187e-01	-3.1930518403e-01
 6.7210555628e-01	 9.2225816550e-01	-4.2085368080e-01
 6.6314395088e-01	 9.2872285730e-01	-5.2336108063e-01
 6.5412742717e-01	 9.3509539596e-01	-6.2680857203e-01
 6.4505739396e-01	 9.4137510847e-01	-7.3117563680e-01
 6.3593527038e-01	 9.4756135025e-01	-8.3643684222e-01
 6.2676248523e-01	 9.5365350540e-01	-9.4255875353e-01
 6.1754047621e-01	 9.5965098682e-01	-1.0494969843e+00
 6.0827068923e-01	 9.6555323634e-01	-1.1571934018e+00
 5.9895457766e-01	 9.7135972488e-01	-1.2655735024e+00
 5.8959360168e-01	 9.7706995248e-01	-1.3745439724e+00
 6.8627697621e-01	 9.2278297582e-01	-4.3431609220e-01
 6.7730282392e-01	 9.2938981689e-01	-5.3098707830e-01
 6.6827192009e-01	 9.3590449895e-01	-6.2846887637e-01
 6.5918567328e-01	 9.4232631528e-01	-7.2675275770e-01
 6.5004550318e-01	 9.4865458764e-01	-8.2582745087e-01
 6.4085283991e-01	 9.5488866648e-01	-9.2567576950e-01
 6.3160912332e-01	 9.6102793114e-01	-1.0262713671e+00
 6.2231580221e-01	 9.6707178997e-01	-1.1275756381e+00
 6.1297433368e-01	 9.7301968049e-01	-1.2295347817e+00
 6.0358618236e-01	 9.7887106952e-01	-1.3320770466e+00
 5.9415281968e-01	 9.8462545326e-01	-1.4351101702e+00
 6.9154311128e-01	 9.2986393579e-01	-5.4261267769e-01
 6.8250009599e-01	 9.3652147435e-01	-6.3464417127e-01
 6.7339989367e-01	 9.4308614672e-01	-7.2731909050e-01
 6.6424392369e-01	 9.4955724074e-01	-8.2064197122e-01
 6.5503361664e-01	 9.5593407300e-01	-9.1461376970e-01
 6.4577041363e-01	 9.6221598894e-01	-1.0092283164e+00
 6.3645576553e-01	 9.6840236314e-01	-1.1044689045e+00
 6.2709113227e-01	 9.7449259942e-01	-1.2003050329e+00
 6.1767798214e-01	 9.8048613099e-01	-1.2966893217e+00
 6.0821779099e-01	 9.8638242056e-01	-1.3935546182e+00
 5.9871204156e-01	 9.9218096046e-01	-1.4908113082e+00
 6.9680924934e-01	 9.3694489977e-01	-6.4409602212e-01
 6.8769737100e-01	 9.4365313585e-01	-7.3172000372e-01
 6.7852787015e-01	 9.5026779855e-01	-8.1979754265e-01
 6.6930217696e-01	 9.5678817031e-01	-9.0834963742e-01
 6.6002173293e-01	 9.6321356248e-01	-9.9739247068e-01
 6.5068799013e-01	 9.6954331555e-01	-1.0869336794e+00
 6.4130241048e-01	 9.7577679933e-01	-1.1769687680e+00
 6.3186646504e-01	 9.8191341308e-01	-1.2674776845e+00
 6.2238163326e-01	 9.8795258571e-01	-1.3584215801e+00
 6.1284940224e-01	 9.9389377585e-01	-1.4497397686e+00
 6.0327126602e-01	 9.9973647194e-01	-1.5413469041e+00
 7.0207538890e-01	 9.4402586576e-01	-7.3867530449e-01
 6.9289464749e-01	 9.5078479937e-01	-8.2211713498e-01
 6.8365584808e-01	 9.5744945241e-01	-9.0579707892e-01
 6.7436043167e-01	 9.6401910192e-01	-9.8975581484e-01
 6.6500985064e-01	 9.7049305402e-01	-1.0740277711e+00
 6.5560556802e-01	 9.7687064424e-01	-1.1586372028e+00
 6.4614905681e-01	 9.8315123760e-01	-1.2435944195e+00
 6.3664179916e-01	 9.8933422885e-01	-1.3288921868e+00
 6.2708528571e-01	 9.9541904256e-01	-1.4145023206e+00
 6.1748101481e-01	 1.0014051333e+00	-1.5003724937e+00
 6.0783049177e-01	 1.0072919856e+00	-1.5864232716e+00
 5.6223844740e-01	 9.3173720256e-01	-9.2663887497e-01
 5.5327040460e-01	 9.3709025147e-01	-1.0776604062e+00
 5.4426238140e-01	 9.4235063717e-01	-1.2294800628e+00
 5.3521578645e-01	 9.4751796805e-01	-1.3820045123e+00
 5.2613203208e-01	 9.5259188044e-01	-1.5351218660e+00
 5.1701253362e-01	 9.5757203867e-01	-1.6887006208e+00
 5.0785870872e-01	 9.6245813498e-01	-1.8425887815e+00
 4.9867197668e-01	 9.6724988951e-01	-1.9966131652e+00
 4.8945375776e-01	 9.7194705020e-01	-2.1505788916e+00
 4.8020547255e-01	 9.7654939274e-01	-2.3042690592e+00
 4.7092854131e-01	 9.8105672044e-01	-2.4574446084e+00
 5.6679761502e-01	 9.3929261984e-01	-1.0097170451e+00
 5.5775685075e-01	 9.4468907640e-01	-1.1529296020e+00
 5.4867578187e-01	 9.4999211835e-01	-1.2967934280e+00
 5.3955582847e-01	 9.5520135089e-01	-1.4412284308e+00
 5.3039841432e-01	 9.6031640743e-01	-1.5861347663e+00
 5.2120496623e-01	 9.6533694954e-01	-1.7313917078e+00
 5.1197691336e-01	 9.7026266700e-01	-1.8768567046e+00
 5.0271568649e-01	 9.7509327766e-01	-2.0223646333e+00
 4.9342271743e-01	 9.7982852743e-01	-2.1677272457e+00
 4.8409943827e-01	 9.8446819017e-01	-2.3127328118e+00
 4.7474728079e-01	 9.8901206759e-01	-2.4571459610e+00
 5.7135679427e-01	 9.4684805640e-01	-1.0898704001e+00
 5.6224330833e-01	 9.5228792071e-01	-1.2256652863e+00
 5.5308919359e-01	 9.5763361901e-01	-1.3619748440e+00
 5.4389588155e-01	 9.6288475333e-01	-1.4987313203e+00
 5.3466480743e-01	 9.6804095411e-01	-1.6358458580e+00
 5.2539740954e-01	 9.7310188022e-01	-1.7732072905e+00
 5.1609512849e-01	 9.7806721892e-01	-1.9106811367e+00
 5.0675940662e-01	 9.8293668581e-01	-2.0481087995e+00
 4.9739168722e-01	 9.8771002475e-01	-2.1853069703e+00
 4.8799341392e-01	 9.9238700779e-01	-2.3220672417e+00
 4.7856603001e-01	 9.9696743504e-01	-2.4581559274e+00
 5.7591598385e-01	 9.5440351008e-01	-1.1667596240e+00
 5.6672977608e-01	 9.5988678225e-01	-1.2954883553e+00
 5.5750261532e-01	 9.6527513700e-01	-1.4246039034e+00
 5.4823594446e-01	 9.7056817318e-01	-1.5540500027e+00
 5.3893121022e-01	 9.7576551830e-01	-1.6837477720e+00
 5.2958986234e-01	 9.8086682850e-01	-1.8135944342e+00
 5.2021335296e-01	 9.8587178854e-01	-1.9434622465e+00
 5.1080313591e-01	 9.9078011175e-01	-2.0731976458e+00
 5.0136066601e-01	 9.9559153995e-01	-2.2026206111e+00
 4.9188739840e-01	 1.0003058434e+00	-2.3315242457e+00
 4.8238478788e-01	 1.0049228205e+00	-2.4596745780e+00
 5.8047518247e-01	 9.6195897875e-01	-1.2400516826e+00
 5.7121625274e-01	 9.6748565886e-01	-1.3620267323e+00
 5.6191604579e-01	 9.7291667014e-01	-1.4842680445e+00
 5.5257601599e-01	 9.7825160827e-01	-1.6067300376e+00
 5.4319762147e-01	 9.8349009781e-01	-1.7293428430e+00
 5.3378232346e-01	 9.8863179217e-01	-1.8520109483e+00
 5.2433158560e-01	 9.9367637363e-01	-1.9746120612e+00
 5.1484687322e-01	 9.9862355324e-01	-2.0969962024e+00
 5.0532965267e-01	 1.0034730708e+00	-2.2189850255e+00
 4.9578139060e-01	 1.0082246946e+00	-2.3403713700e+00
 4.8620355333e-01	 1.0128782218e+00	-2.4609190441e+00
 5.8503438884e-01	 9.6951446026e-01	-1.3094198880e+00
 5.7570273701e-01	 9.7508454838e-01	-1.4249153769e+00
 5.6632948378e-01	 9.8055821627e-01	-1.5405625021e+00
 5.5691609490e-01	 9.8593505643e-01	-1.6563256126e+00
 5.4746403997e-01	 9.9121469045e-01	-1.7721429374e+00
 5.3797479171e-01	 9.9639676905e-01	-1.8879251491e+00
 5.2844982524e-01	 1.0014809720e+00	-2.0035541629e+00
 5.1889061741e-01	 1.0064670081e+00	-2.1188821741e+00
 5.0929864608e-01	 1.0113546150e+00	-2.2337309380e+00
 4.9967538942e-01	 1.0161435594e+00	-2.3478912925e+00
 4.9002232527e-01	 1.0208336366e+00	-2.4611229256e+00
 5.8959360168e-01	 9.7706995248e-01	-1.3745439724e+00
 5.8018922765e-01	 9.8268344868e-01	-1.4837963042e+00
 5.7074292801e-01	 9.8819977323e-01	-1.5930902708e+00
 5.6125617995e-01	 9.9361851547e-01	-1.7023994491e+00
 5.5173046451e-01	 9.9893929404e-01	-1.8116692981e+00
 5.4216726590e-01	 1.0041617569e+00	-1.9208156430e+00
 5.3256807072e-01	 1.0092855814e+00	-2.0297234069e+00
 5.2293436733e-01	 1.0143104740e+00	-2.1382455933e+00
 5.1326764511e-01	 1.0192361704e+00	-2.2462025247e+00
 5.0356939376e-01	 1.0240624354e+00	-2.3533813373e+00
 4.9384110262e-01	 1.0287890626e+00	-2.4595357329e+00
 5.9415281968e-01	 9.8462545326e-01	-1.4351101702e+00
 5.8467572337e-01	 9.9028235758e-01	-1.5383186154e+00
 5.7515637725e-01	 9.9584133886e-01	-1.6414620822e+00
 5.6559626992e-01	 1.0013019832e+00	-1.7445227226e+00
 5.5599689390e-01	 1.0066639064e+00	-1.8474524077e+00
 5.4635974484e-01	 1.0119267536e+00	-1.9501711293e+00
 5.3668632086e-01	 1.0170901997e+00	-2.0525656632e+00
 5.2697812183e-01	 1.0221539488e+00	-2.1544884966e+00
 5.1723664864e-01	 1.0271177347e+00	-2.2557570248e+00
 5.0746340251e-01	 1.0319813203e+00	-2.3561530187e+00
 4.9765988430e-01	 1.0367444977e+00	-2.4554223622e+00
 5.9871204156e-01	 9.9218096046e-01	-1.4908113082e+00
 5.8916222290e-01	 9.9788127295e-01	-1.5881385385e+00
 5.7956983023e-01	 1.0034829110e+00	-1.6852963929e+00
 5.6993636358e-01	 1.0089854575e+00	-1.7822749979e+00
 5.6026332690e-01	 1.0143885253e+00	-1.8790318673e+00
 5.5055222734e-01	 1.0196917569e+00	-1.9754902213e+00
 5.4080457451e-01	 1.0248948246e+00	-2.0715375778e+00
 5.3102187977e-01	 1.0299974303e+00	-2.1670246256e+00
 5.2120565554e-01	 1.0349993057e+00	-2.2617643781e+00
 5.1135741457e-01	 1.0399002120e+00	-2.3555316141e+00
 5.0147866923e-01	 1.0446999395e+00	-2.4480626021e+00
 6.0327126602e-01	 9.9973647194e-01	-1.5413469041e+00
 5.9364872498e-01	 1.0054801926e+00	-1.6329194781e+00
 5.8398328573e-01	 1.0111244874e+00	-1.7242193849e+00
 5.7427645971e-01	 1.0166689361e+00	-1.8152441763e+00
 5.6452976233e-01	 1.0221131486e+00	-1.9059562906e+00
 5.5474471222e-01	 1.0274567646e+00	-1.9962812847e+00
 5.4492283048e-01	 1.0326994539e+00	-2.0861063542e+00
 5.3506564000e-01	 1.0378409163e+00	-2.1752791492e+00
 5.2517466470e-01	 1.0428808812e+00	-2.2636068866e+00
 5.1525142884e-01	 1.0478191081e+00	-2.3508557632e+00
 5.0529745632e-01	 1.0526553859e+00	-2.4367506687e+00
 6.0783049177e-01	 1.0072919856e+00	-1.5864232716e+00
 5.9813522833e-01	 1.0130791144e+00	-1.6723320743e+00
 5.8839674247e-01	 1.0187660660e+00	-1.7578649755e+00
 5.7861655706e-01	 1.0243524169e+00	-1.8430264568e+00
 5.6879619897e-01	 1.0298377741e+00	-1.9277832125e+00
 5.5893719829e-01	 1.0352217745e+00	-2.0120622934e+00
 5.4904108763e-01	 1.0405040854e+00	-2.0957495534e+00
 5.3910940138e-01	 1.0456844044e+00	-2.1786884070e+00
 5.2914367498e-01	 1.0507624590e+00	-2.2606788996e+00
 5.1914544421e-01	 1.0557380065e+00	-2.3414770935e+00
 5.0911624449e-01	 1.0606108344e+00	-2.4207947700e+00
 4.7092854131e-01	 9.8105672044e-01	-2.4574446084e+00
 4.6162279917e-01	 9.8546960600e-01	-2.6100006080e+00
 4.5229123883e-01	 9.8978713259e-01	-2.7619025952e+00
 4.4293527589e-01	 9.9400918483e-01	-2.9130618841e+00
 4.3355632305e-01	 9.9813567443e-01	-3.0633677966e+00
 4.2415578950e-01	 1.0021665399e+00	-3.2126881034e+00
 4.1473508031e-01	 1.0061017465e+00	-3.3608696356e+00
 4.0529559579e-01	 1.0099412857e+00	-3.5077390613e+00
 3.9583873097e-01	 1.0136851754e+00	-3.6531038194e+00
 3.8636587493e-01	 1.0173334593e+00	-3.7967532019e+00
 3.7687841031e-01	 1.0208862068e+00	-3.9384595777e+00
 4.7474728079e-01	 9.8901206759e-01	-2.4571459610e+00
 4.6536607878e-01	 9.9346073706e-01	-2.6008636711e+00
 4.5595884921e-01	 9.9781327428e-01	-2.7438546135e+00
 4.4652701917e-01	 1.0020695630e+00	-2.8860275073e+00
 4.3707201281e-01	 1.0062295141e+00	-3.0272657618e+00
 4.2759525073e-01	 1.0102930657e+00	-3.1674279685e+00
 4.1809814941e-01	 1.0142601827e+00	-3.3063485769e+00
 4.0858212051e-01	 1.0181308566e+00	-3.4438387454e+00
 3.9904857037e-01	 1.0219051053e+00	-3.5796873603e+00
 3.8949889935e-01	 1.0255829730e+00	-3.7136622146e+00
 3.7993450129e-01	 1.0291645295e+00	-3.8455113360e+00
 4.7856603001e-01	 9.9696743504e-01	-2.4581559274e+00
 4.6910936794e-01	 1.0014518885e+00	-2.5934542102e+00
 4.5962646895e-01	 1.0058394364e+00	-2.7279223933e+00
 4.5011877161e-01	 1.0101299617e+00	-2.8614743426e+00
 4.4058771152e-01	 1.0143233744e+00	-2.9939957326e+00
 4.3103472073e-01	 1.0184196122e+00	-3.1253445727e+00
 4.2146122708e-01	 1.0224186397e+00	-3.2553519287e+00
 4.1186865362e-01	 1.0263204483e+00	-3.3838228304e+00
 4.0225841797e-01	 1.0301250562e+00	-3.5105373588e+00
 3.9263193177e-01	 1.0338325077e+00	-3.6352519031e+00
 3.8299060006e-01	 1.0374428734e+00	-3.7577005772e+00
 4.8238478788e-01	 1.0049228205e+00	-2.4596745780e+00
 4.7285266558e-01	 1.0094430580e+00	-2.5869269401e+00
 4.6329409701e-01	 1.0138656168e+00	-2.7132292597e+00
 4.5371053220e-01	 1.0181903786e+00	-2.8385080612e+00
 4.4410341821e-01	 1.0224172531e+00	-2.9626592205e+00
 4.3447419853e-01	 1.0265461771e+00	-3.0855485082e+00
 4.2482431238e-01	 1.0305771152e+00	-3.2070123397e+00
 4.1515519417e-01	 1.0345100586e+00	-3.3268587223e+00
 4.0546827284e-01	 1.0383450257e+00	-3.4448683934e+00
 3.9576497128e-01	 1.0420820611e+00	-3.5607961386e+00
 3.8604670575e-01	 1.0457212360e+00	-3.6743722792e+00
 4.8620355333e-01	 1.0128782218e+00	-2.4609190441e+00
 4.7659597065e-01	 1.0174342434e+00	-2.5804548817e+00
 4.6696173234e-01	 1.0218918131e+00	-2.6989176892e+00
 4.5730229990e-01	 1.0262508116e+00	-2.8162539377e+00
 4.4761913188e-01	 1.0305111478e+00	-2.9323774062e+00
 4.3791368315e-01	 1.0346727582e+00	-3.0471697245e+00
 4.2818740435e-01	 1.0387356069e+00	-3.1604811342e+00
 4.1844174124e-01	 1.0426996852e+00	-3.2721314594e+00
 4.0867813407e-01	 1.0465650115e+00	-3.3819112783e+00
 3.9889801701e-01	 1.0503316309e+00	-3.4895832854e+00
 3.8910281751e-01	 1.0539996151e+00	-3.5948838343e+00
 4.9002232527e-01	 1.0208336366e+00	-2.4611229256e+00
 4.8033928208e-01	 1.0254254424e+00	-2.5732287032e+00
 4.7062937390e-01	 1.0299180230e+00	-2.6841485992e+00
 4.6089407372e-01	 1.0343112582e+00	-2.7938561045e+00
 4.5113485152e-01	 1.0386050562e+00	-2.9022903757e+00
 4.4135317361e-01	 1.0427993530e+00	-3.0093567615e+00
 4.3155050204e-01	 1.0468941124e+00	-3.1149275581e+00
 4.2172829390e-01	 1.0508893257e+00	-3.2188429860e+00
 4.1188800077e-01	 1.0547850113e+00	-3.3209123790e+00
 4.0203106806e-01	 1.0585812147e+00	-3.4209155746e+00
 3.9215893447e-01	 1.0622780082e+00	-3.5186044943e+00
 4.9384110262e-01	 1.0287890626e+00	-2.4595357329e+00
 4.8408259882e-01	 1.0334166527e+00	-2.5644560964e+00
 4.7429702066e-01	 1.0379442443e+00	-2.6681006761e+00
 4.6448585262e-01	 1.0423717163e+00	-2.7704768466e+00
 4.5465057614e-01	 1.0466989762e+00	-2.8715563969e+00
 4.4479266895e-01	 1.0509259594e+00	-2.9712760237e+00
 4.3491360449e-01	 1.0550526295e+00	-3.0695380642e+00
 4.2501485122e-01	 1.0590789777e+00	-3.1662114638e+00
 4.1509787201e-01	 1.0630050227e+00	-3.2611329650e+00
 4.0516412356e-01	 1.0668308102e+00	-3.3541085103e+00
 3.9521505575e-01	 1.0705564131e+00	-3.4449148448e+00
 4.9765988430e-01	 1.0367444977e+00	-2.4554223622e+00
 4.8782591980e-01	 1.0414078721e+00	-2.5533611901e+00
 4.7796467158e-01	 1.0459704747e+00	-2.6499697410e+00
 4.6807763560e-01	 1.0504321835e+00	-2.7452959350e+00
 4.5816630474e-01	 1.0547929053e+00	-2.8393512355e+00
 4.4823216819e-01	 1.0590525750e+00	-2.9321110921e+00
 4.3827671075e-01	 1.0632111559e+00	-3.0235156358e+00
 4.2830141226e-01	 1.0672686391e+00	-3.1134706201e+00
 4.1830774689e-01	 1.0712250434e+00	-3.2018485954e+00
 4.0829718260e-01	 1.0750804151e+00	-3.2884903076e+00
 3.9827118050e-01	 1.0788348274e+00	-3.3732063075e+00
 5.0147866923e-01	 1.0446999395e+00	-2.4480626021e+00
 4.9156924396e-01	 1.0493990983e+00	-2.5391839964e+00
 4.8163232562e-01	 1.0539967119e+00	-2.6289681505e+00
 4.7166942163e-01	 1.0584926576e+00	-2.7175099964e+00
 4.6168203634e-01	 1.0628868413e+00	-2.8048675073e+00
 4.5167167035e-01	 1.0671791975e+00	-2.8910620736e+00
 4.4163981988e-01	 1.0713696892e+00	-2.9760791453e+00
 4.3158797609e-01	 1.0754583074e+00	-3.0598691302e+00
 4.2151762450e-01	 1.0794450712e+00	-3.1423485380e+00
 4.1143024431e-01	 1.0833300269e+00	-3.2234013596e+00
 4.0132730785e-01	 1.0871132486e+00	-3.3028806681e+00
 5.0529745632e-01	 1.0526553859e+00	-2.4367506687e+00
 4.9531257024e-01	 1.0573903290e+00	-2.5211798886e+00
 4.8529998173e-01	 1.0620229537e+00	-2.6043242312e+00
 4.7526120969e-01	 1.0665531362e+00	-2.6863319175e+00
 4.6519776993e-01	 1.0709807819e+00	-2.7673140655e+00
 4.5511117446e-01	 1.0753058246e+00	-2.8473449845e+00
 4.4500293091e-01	 1.0795282271e+00	-2.9264627474e+00
 4.3487454179e-01	 1.0836479804e+00	-3.0046700316e+00
 4.2472750393e-01	 1.0876651036e+00	-3.0819352174e+00
 4.1456330780e-01	 1.0915796435e+00	-3.1581937325e+00
 4.0438343693e-01	 1.0953916746e+00	-3.2333496295e+00
 5.0911624449e-01	 1.0606108344e+00	-2.4207947700e+00
 4.9905589759e-01	 1.0653815619e+00	-2.4986191099e+00
 4.8896763889e-01	 1.0700491977e+00	-2.5752817457e+00
 4.7885299878e-01	 1.0746136171e+00	-2.6509902815e+00
 4.6871350451e-01	 1.0790747247e+00	-2.7259154213e+00
 4.5855067955e-01	 1.0834324540e+00	-2.8001911666e+00
 4.4836604289e-01	 1.0876867674e+00	-2.8739153033e+00
 4.3816110842e-01	 1.0918376557e+00	-2.9471501693e+00
 4.2793738427e-01	 1.0958851383e+00	-3.0199236928e+00
 4.1769637217e-01	 1.0998292624e+00	-3.0922306868e+00
 4.0743956688e-01	 1.1036701029e+00	-3.1640343887e+00
 3.7687841031e-01	 1.0208862068e+00	-3.9384595777e+00
 3.6737932860e-01	 1.0243429329e+00	-4.0786599186e+00
 3.5786838524e-01	 1.0277043688e+00	-4.2165650720e+00
 3.4834693899e-01	 1.0309706585e+00	-4.3516148959e+00
 3.3881633997e-01	 1.0341419700e+00	-4.4837398370e+00
 3.2927792916e-01	 1.0372184959e+00	-4.6128929611e+00
 3.1973303789e-01	 1.0402004521e+00	-4.7390501285e+00
 3.1018298736e-01	 1.0430880782e+00	-4.8622100516e+00
 3.0062908817e-01	 1.0458816367e+00	-4.9823942371e+00
 2.9107263984e-01	 1.0485814126e+00	-5.0996468151e+00
 2.8151493038e-01	 1.0511877135e+00	-5.2140342615e+00
 3.7993450129e-01	 1.0291645295e+00	-3.8455113360e+00
 3.7035839192e-01	 1.0326492861e+00	-3.9758230594e+00
 3.6077032473e-01	 1.0360379798e+00	-4.1042702231e+00
 3.5117166948e-01	 1.0393307556e+00	-4.2297818199e+00
 3.4156378724e-01	 1.0425277832e+00	-4.3523434866e+00
 3.3194802986e-01	 1.0456292565e+00	-4.4719653263e+00
 3.2232573948e-01	 1.0486353933e+00	-4.5886819997e+00
 3.1269824800e-01	 1.0515464350e+00	-4.7025526919e+00
 3.0306687665e-01	 1.0543626463e+00	-4.8136609599e+00
 2.9343293548e-01	 1.0570843146e+00	-4.9221144624e+00
 2.8379772296e-01	 1.0597117498e+00	-5.0280445774e+00
 3.8299060006e-01	 1.0374428734e+00	-3.7577005772e+00
 3.7333746285e-01	 1.0409556605e+00	-3.8785596614e+00
 3.6367227163e-01	 1.0443716120e+00	-3.9981194019e+00
 3.5399640717e-01	 1.0476908741e+00	-4.1148429543e+00
 3.4431124151e-01	 1.0509136178e+00	-4.2286658974e+00
 3.3461813737e-01	 1.0540400385e+00	-4.3396467745e+00
 3.2491844768e-01	 1.0570703559e+00	-4.4478701565e+00
 3.1521351505e-01	 1.0600048134e+00	-4.5534465360e+00
 3.0550467133e-01	 1.0628436776e+00	-4.6565120955e+00
 2.9579323714e-01	 1.0655872383e+00	-4.7572283536e+00
 2.8608052136e-01	 1.0682358080e+00	-4.8557816952e+00
 3.8604670575e-01	 1.0457212360e+00	-3.6743722792e+00
 3.7631654053e-01	 1.0492620537e+00	-3.7863858436e+00
 3.6657422510e-01	 1.0527052631e+00	-3.8975852852e+00
 3.5682115127e-01	 1.0560510115e+00	-4.0063262039e+00
 3.4705870202e-01	 1.0592994714e+00	-4.1122795270e+00
 3.3728825094e-01	 1.0624508397e+00	-4.2155438489e+00
 3.2751116175e-01	 1.0655053377e+00	-4.3162449769e+00
 3.1772878780e-01	 1.0684632109e+00	-4.4145357678e+00
 3.0794247155e-01	 1.0713247281e+00	-4.5105958337e+00
 2.9815354415e-01	 1.0740901813e+00	-4.6046311214e+00
 2.8836332494e-01	 1.0767598854e+00	-4.6968733695e+00
 3.8910281751e-01	 1.0539996151e+00	-3.5948838343e+00
 3.7929562411e-01	 1.0575684634e+00	-3.6987286921e+00
 3.6947618433e-01	 1.0610389307e+00	-3.8021478449e+00
 3.5964590097e-01	 1.0644111655e+00	-3.9037658004e+00
 3.4980616797e-01	 1.0676853416e+00	-4.0027624978e+00
 3.3995836980e-01	 1.0708616575e+00	-4.0992683943e+00
 3.3010388097e-01	 1.0739403363e+00	-4.1934420675e+00
 3.2024406554e-01	 1.0769216252e+00	-4.2854700108e+00
 3.1038027660e-01	 1.0798057954e+00	-4.3755662921e+00
 3.0051385584e-01	 1.0825931411e+00	-4.4639720817e+00
 2.9064613305e-01	 1.0852839798e+00	-4.5509550530e+00
 3.9215893447e-01	 1.0622780082e+00	-3.5186044943e+00
 3.8227471277e-01	 1.0658748872e+00	-3.6150251393e+00
 3.7237814849e-01	 1.0693726125e+00	-3.7113384266e+00
 3.6247065548e-01	 1.0727713337e+00	-3.8067017799e+00
 3.5255363860e-01	 1.0760712260e+00	-3.8996981196e+00
 3.4262849320e-01	 1.0792724896e+00	-3.9904371126e+00
 3.3269660460e-01	 1.0823753491e+00	-4.0791018416e+00
 3.2275934755e-01	 1.0853800539e+00	-4.1659039162e+00
 3.1281808580e-01	 1.0882868771e+00	-4.2510831004e+00
 3.0287417155e-01	 1.0910961154e+00	-4.3349068045e+00
 2.9292894504e-01	 1.0938080886e+00	-4.4176694448e+00
 3.9521505575e-01	 1.0705564131e+00	-3.4449148448e+00
 3.8525380564e-01	 1.0741813228e+00	-3.5347215263e+00
 3.7528011676e-01	 1.0777063061e+00	-3.6247929304e+00
 3.6529541398e-01	 1.0811315138e+00	-3.7146794805e+00
 3.5530111312e-01	 1.0844571224e+00	-3.8026744319e+00
 3.4529862039e-01	 1.0876833336e+00	-3.8886711372e+00
 3.3528933190e-01	 1.0908103739e+00	-3.9728691131e+00
 3.2527463313e-01	 1.0938384946e+00	-4.0554967657e+00
 3.1525589845e-01	 1.0967679709e+00	-4.1368110026e+00
 3.0523449060e-01	 1.0995991017e+00	-4.2170967040e+00
 2.9521176026e-01	 1.1023322096e+00	-4.2966660562e+00
 3.9827118050e-01	 1.0788348274e+00	-3.3732063075e+00
 3.8823290189e-01	 1.0824877678e+00	-3.4572731705e+00
 3.7818208832e-01	 1.0860400091e+00	-3.5420313066e+00
 3.6812017569e-01	 1.0894917034e+00	-3.6272490587e+00
 3.5804859075e-01	 1.0928430283e+00	-3.7112837618e+00
 3.4796875060e-01	 1.0960941871e+00	-3.7935956219e+00
 3.3788206214e-01	 1.0992454083e+00	-3.8743927058e+00
 3.2778992156e-01	 1.1022969449e+00	-3.9539120902e+00
 3.1769371386e-01	 1.1052490742e+00	-4.0324194741e+00
 3.0759481232e-01	 1.1081020977e+00	-4.1102086437e+00
 2.9749457807e-01	 1.1108563401e+00	-4.1876007951e+00
 4.0132730785e-01	 1.0871132486e+00	-3.3028806681e+00
 3.9121200067e-01	 1.0907942199e+00	-3.3821439551e+00
 3.8108406235e-01	 1.0943737193e+00	-3.4625709776e+00
 3.7094493980e-01	 1.0978519000e+00	-3.5439684262e+00
 3.6079607072e-01	 1.1012289412e+00	-3.6251222996e+00
 3.5063888308e-01	 1.1045050478e+00	-3.7048393461e+00
 3.4047479458e-01	 1.1076804498e+00	-3.7833250774e+00
 3.3030521213e-01	 1.1107554023e+00	-3.8608173023e+00
 3.2013153135e-01	 1.1137301848e+00	-3.9365782765e+00
 3.0995513605e-01	 1.1166051009e+00	-4.0094763971e+00
 2.9977739782e-01	 1.1193804780e+00	-4.0800346878e+00
 4.0438343693e-01	 1.0953916746e+00	-3.2333496295e+00
 3.9419110114e-01	 1.0991006766e+00	-3.3088059408e+00
 3.8398603803e-01	 1.1027074341e+00	-3.3859360979e+00
 3.7376970551e-01	 1.1062121014e+00	-3.4645188038e+00
 3.6354355225e-01	 1.1096148590e+00	-3.5437896896e+00
 3.5330901707e-01	 1.1129159133e+00	-3.6215722621e+00
 3.4306752849e-01	 1.1161154962e+00	-3.6957398613e+00
 3.3282050413e-01	 1.1192138646e+00	-3.7664023923e+00
 3.2256935021e-01	 1.1222113002e+00	-3.8340352254e+00
 3.1231546112e-01	 1.1251081089e+00	-3.8991636394e+00
 3.0206021886e-01	 1.1279046207e+00	-3.9623564970e+00
 4.0743956688e-01	 1.1036701029e+00	-3.1640343887e+00
 3.9717020246e-01	 1.1074071358e+00	-3.2367389985e+00
 3.8688801453e-01	 1.1110411513e+00	-3.3116572330e+00
 3.7659447202e-01	 1.1145723051e+00	-3.3868964131e+00
 3.6629103455e-01	 1.1180007791e+00	-3.4603074414e+00
 3.5597915182e-01	 1.1213267811e+00	-3.5301395023e+00
 3.4566026314e-01	 1.1245505449e+00	-3.5963222150e+00
 3.3533579683e-01	 1.1276723292e+00	-3.6593049492e+00
 3.2500716977e-01	 1.1306924180e+00	-3.7195906949e+00
 3.1467578686e-01	 1.1336111194e+00	-3.7777293039e+00
 3.0434304055e-01	 1.1364287657e+00	-3.8343110619e+00
 2.8151493038e-01	 1.0511877135e+00	-5.2140342615e+00
 2.7195723598e-01	 1.0537008686e+00	-5.3253778840e+00
 2.6240082098e-01	 1.0561212300e+00	-5.4333784090e+00
 2.5284693703e-01	 1.0584491706e+00	-5.5379536917e+00
 2.4329682261e-01	 1.0606850842e+00	-5.6390422350e+00
 2.3375170258e-01	 1.0628293844e+00	-5.7366027393e+00
 2.2421278792e-01	 1.0648825050e+00	-5.8306135663e+00
 2.1468127528e-01	 1.0668448987e+00	-5.9210721248e+00
 2.0515834672e-01	 1.0687170373e+00	-6.0079941824e+00
 1.9564516936e-01	 1.0704994107e+00	-6.0914131109e+00
 1.8614289510e-01	 1.0721925270e+00	-6.1713790693e+00
 2.8379772296e-01	 1.0597117498e+00	-5.0280445774e+00
 2.7416252562e-01	 1.0622452841e+00	-5.1312904430e+00
 2.6452861806e-01	 1.0646852721e+00	-5.2315235483e+00
 2.5489726208e-01	 1.0670320899e+00	-5.3286577752e+00
 2.4526970618e-01	 1.0692861343e+00	-5.4226286522e+00
 2.3564718519e-01	 1.0714478226e+00	-5.5133928804e+00
 2.2603091987e-01	 1.0735175919e+00	-5.6009277708e+00
 2.1642211660e-01	 1.0754958986e+00	-5.6852305977e+00
 2.0682196701e-01	 1.0773832182e+00	-5.7663178762e+00
 1.9723164771e-01	 1.0791800448e+00	-5.8442245677e+00
 1.8765231991e-01	 1.0808868905e+00	-5.9190032220e+00
 2.8608052136e-01	 1.0682358080e+00	-4.8557816952e+00
 2.7636782089e-01	 1.0707897214e+00	-4.9520113644e+00
 2.6665642057e-01	 1.0732493360e+00	-5.0455460534e+00
 2.5694759235e-01	 1.0756150310e+00	-5.1362918634e+00
 2.4724259478e-01	 1.0778872064e+00	-5.2241775446e+00
 2.3754267262e-01	 1.0800662828e+00	-5.3091540030e+00
 2.2784905645e-01	 1.0821527008e+00	-5.3911937149e+00
 2.1816296236e-01	 1.0841469205e+00	-5.4702900521e+00
 2.0848559156e-01	 1.0860494213e+00	-5.5464565274e+00
 1.9881813010e-01	 1.0878607011e+00	-5.6197259655e+00
 1.8916174857e-01	 1.0895812762e+00	-5.6901496061e+00
 2.8836332494e-01	 1.0767598854e+00	-4.6968733695e+00
 2.7857312116e-01	 1.0793341780e+00	-4.7871474763e+00
 2.6878422790e-01	 1.0818134193e+00	-4.8750289456e+00
 2.5899792727e-01	 1.0841979916e+00	-4.9604123795e+00
 2.4921548786e-01	 1.0864882980e+00	-5.0432160377e+00
 2.3943816435e-01	 1.0886847625e+00	-5.1233813305e+00
 2.2966719716e-01	 1.0907878292e+00	-5.2008722120e+00
 2.1990381206e-01	 1.0927979620e+00	-5.2756744826e+00
 2.1014921987e-01	 1.0947156439e+00	-5.3477950054e+00
 2.0040461609e-01	 1.0965413770e+00	-5.4172608450e+00
 1.9067118065e-01	 1.0982756816e+00	-5.4841183352e+00
 2.9064613305e-01	 1.0852839798e+00	-4.5509550530e+00
 2.8077842580e-01	 1.0878786515e+00	-4.6363144784e+00
 2.7091203946e-01	 1.0903775196e+00	-4.7195653482e+00
 2.6104826626e-01	 1.0927809692e+00	-4.8005871338e+00
 2.5118838485e-01	 1.0950894067e+00	-4.8792839825e+00
 2.4133365985e-01	 1.0973032594e+00	-4.9555841988e+00
 2.3148534148e-01	 1.0994229748e+00	-5.0294396225e+00
 2.2164466522e-01	 1.1014490207e+00	-5.1008249100e+00
 2.1181285148e-01	 1.1033818838e+00	-5.1697367259e+00
 2.0199110523e-01	 1.1052220702e+00	-5.2361928525e+00
 1.9218061573e-01	 1.1069701042e+00	-5.3002312245e+00
 2.9292894504e-01	 1.0938080886e+00	-4.4176694448e+00
 2.8298373420e-01	 1.0964231396e+00	-4.4991364579e+00
 2.7303985463e-01	 1.0989416345e+00	-4.5787579687e+00
 2.6309860874e-01	 1.1013639614e+00	-4.6563947701e+00
 2.5316128520e-01	 1.1036905300e+00	-4.7319333610e+00
 2.4322915856e-01	 1.1059217708e+00	-4.8052854203e+00
 2.3330348888e-01	 1.1080581351e+00	-4.8763871724e+00
 2.2338552134e-01	 1.1101000940e+00	-4.9451986517e+00
 2.1347648592e-01	 1.1120481384e+00	-5.0115725660e+00
 2.0357759706e-01	 1.1139027781e+00	-5.0747638845e+00
 1.9369005337e-01	 1.1156645417e+00	-5.1348199690e+00
 2.9521176026e-01	 1.1023322096e+00	-4.2966660562e+00
 2.8518904571e-01	 1.1049676398e+00	-4.3752454272e+00
 2.7516767281e-01	 1.1075057615e+00	-4.4522186041e+00
 2.6514895412e-01	 1.1099469657e+00	-4.5274242349e+00
 2.5513418834e-01	 1.1122916654e+00	-4.6005186221e+00
 2.4512465996e-01	 1.1145402945e+00	-4.6702699812e+00
 2.3512163886e-01	 1.1166933076e+00	-4.7365990735e+00
 2.2512637992e-01	 1.1187511797e+00	-4.7996483413e+00
 2.1514012271e-01	 1.1207144053e+00	-4.8595791446e+00
 2.0516409114e-01	 1.1225834983e+00	-4.9165688187e+00
 1.9519949315e-01	 1.1243589914e+00	-4.9708079530e+00
 2.9749457807e-01	 1.1108563401e+00	-4.1876007951e+00
 2.8739435973e-01	 1.1135121497e+00	-4.2634225805e+00
 2.7729549341e-01	 1.1160698982e+00	-4.3359073038e+00
 2.6719930182e-01	 1.1185299798e+00	-4.4050791669e+00
 2.5710709371e-01	 1.1208928106e+00	-4.4710031851e+00
 2.4702016351e-01	 1.1231588279e+00	-4.5337720994e+00
 2.3693979090e-01	 1.1253284899e+00	-4.5935027158e+00
 2.2686724048e-01	 1.1274022751e+00	-4.6503324963e+00
 2.1680376139e-01	 1.1293806820e+00	-4.7044163950e+00
 2.0675058702e-01	 1.1312642283e+00	-4.7559239325e+00
 1.9670893464e-01	 1.1330534510e+00	-4.8050365016e+00
 2.9977739782e-01	 1.1193804780e+00	-4.0800346878e+00
 2.8959967562e-01	 1.1220566669e+00	-4.1481301637e+00
 2.7942331581e-01	 1.1246340422e+00	-4.2132628972e+00
 2.6924965126e-01	 1.1271130012e+00	-4.2754644882e+00
 2.5908000077e-01	 1.1294939632e+00	-4.3347966404e+00
 2.4891566867e-01	 1.1317773687e+00	-4.3913472219e+00
 2.3875794449e-01	 1.1339636796e+00	-4.4452265963e+00
 2.2860810251e-01	 1.1360533779e+00	-4.4965642157e+00
 2.1846740149e-01	 1.1380469660e+00	-4.5455054715e+00
 2.0833708425e-01	 1.1399449658e+00	-4.5922087944e+00
 1.9821837741e-01	 1.1417479180e+00	-4.6368429953e+00
 3.0206021886e-01	 1.1279046207e+00	-3.9623564970e+00
 2.9180499276e-01	 1.1306011888e+00	-4.0234864117e+00
 2.8155113943e-01	 1.1331981910e+00	-4.0820298180e+00
 2.7130000187e-01	 1.1356960275e+00	-4.1380141794e+00
 2.6105290894e-01	 1.1380951206e+00	-4.1914953631e+00
 2.5081117490e-01	 1.1403959144e+00	-4.2425536862e+00
 2.4057609910e-01	 1.1425988741e+00	-4.2912902440e+00
 2.3034896554e-01	 1.1447044856e+00	-4.3378235138e+00
 2.2013104253e-01	 1.1467132550e+00	-4.3822862288e+00
 2.0992358237e-01	 1.1486257081e+00	-4.4248225119e+00
 1.9972782104e-01	 1.1504423900e+00	-4.4655852613e+00
 3.0434304055e-01	 1.1364287657e+00	-3.8343110619e+00
 2.9401031052e-01	 1.1391457133e+00	-3.8892112435e+00
 2.8367896364e-01	 1.1417623423e+00	-3.9418929158e+00
 2.7335035306e-01	 1.1442790561e+00	-3.9923771208e+00
 2.6302581766e-01	 1.1466962804e+00	-4.0407114394e+00
 2.5270668167e-01	 1.1490144625e+00	-4.0869660283e+00
 2.4239425423e-01	 1.1512340711e+00	-4.1312299542e+00
 2.3208982905e-01	 1.1533555958e+00	-4.1736078169e+00
 2.2179468403e-01	 1.1553795464e+00	-4.2142166535e+00
 2.1151008095e-01	 1.1573064529e+00	-4.2531831158e+00
 2.0123726509e-01	 1.1591368644e+00	-4.2906409089e+00
 1.8614289510e-01	 1.0721925270e+00	-6.1713790693e+00
 1.7665104837e-01	 1.0737971766e+00	-6.2478714673e+00
 1.6717236883e-01	 1.0753136062e+00	-6.3207408642e+00
 1.5770796401e-01	 1.0767423742e+00	-6.3899084522e+00
 1.4825892506e-01	 1.0780840550e+00	-6.4553112057e+00
 1.3882632656e-01	 1.0793392389e+00	-6.5169010441e+00
 1.2941122629e-01	 1.0805085309e+00	-6.5746439617e+00
 1.2001466501e-01	 1.0815925508e+00	-6.6285191307e+00
 1.1063766632e-01	 1.0825919328e+00	-6.6785179844e+00
 1.0128123642e-01	 1.0835073244e+00	-6.7246432838e+00
 9.1946364036e-02	 1.0843393864e+00	-6.7669081760e+00
 1.8765231991e-01	 1.0808868905e+00	-5.9190032220e+00
 1.7808350420e-01	 1.0825045521e+00	-5.9906284139e+00
 1.6852796246e-01	 1.0840332784e+00	-6.0589433630e+00
 1.5898681117e-01	 1.0854736322e+00	-6.1238655353e+00
 1.4946115037e-01	 1.0868261927e+00	-6.1853276719e+00
 1.3995206333e-01	 1.0880915548e+00	-6.2432769364e+00
 1.3046061641e-01	 1.0892703285e+00	-6.2976740295e+00
 1.2098785882e-01	 1.0903631388e+00	-6.3484922753e+00
 1.1153482244e-01	 1.0913706247e+00	-6.3957166882e+00
 1.0210252166e-01	 1.0922934391e+00	-6.4393430226e+00
 9.2691953187e-02	 1.0931322483e+00	-6.4793768145e+00
 1.8916174857e-01	 1.0895812762e+00	-5.6901496061e+00
 1.7951596368e-01	 1.0912119499e+00	-5.7576795932e+00
 1.6988355953e-01	 1.0927529729e+00	-5.8221366453e+00
 1.6026566160e-01	 1.0942049125e+00	-5.8834350617e+00
 1.5066337875e-01	 1.0955683527e+00	-5.9415041377e+00
 1.4107780297e-01	 1.0968438930e+00	-5.9962872897e+00
 1.3151000921e-01	 1.0980321485e+00	-6.0477411469e+00
 1.2196105511e-01	 1.0991337491e+00	-6.0958346142e+00
 1.1243198086e-01	 1.1001493389e+00	-6.1405479143e+00
 1.0292380898e-01	 1.1010795762e+00	-6.1818716134e+00
 9.3437544239e-02	 1.1019251326e+00	-6.2198056382e+00
 1.9067118065e-01	 1.0982756816e+00	-5.4841183352e+00
 1.8094842641e-01	 1.0999193674e+00	-5.5482829832e+00
 1.7123915968e-01	 1.1014726871e+00	-5.6095411777e+00
 1.6154451493e-01	 1.1029362126e+00	-5.6678046075e+00
 1.5186560985e-01	 1.1043105325e+00	-5.7229999047e+00
 1.4220354517e-01	 1.1055962511e+00	-5.7750677407e+00
 1.3255940439e-01	 1.1067939884e+00	-5.8239618871e+00
 1.2293425361e-01	 1.1079043792e+00	-5.8696482482e+00
 1.1332914130e-01	 1.1089280731e+00	-5.9121038702e+00
 1.0374509817e-01	 1.1098657333e+00	-5.9513159360e+00
 9.4183136981e-02	 1.1107180368e+00	-5.9872807491e+00
 1.9218061573e-01	 1.1069701042e+00	-5.3002312245e+00
 1.8238089199e-01	 1.1086268022e+00	-5.3617197906e+00
 1.7259476252e-01	 1.1101924186e+00	-5.4204020092e+00
 1.6282337079e-01	 1.1116675300e+00	-5.4761429442e+00
 1.5306784333e-01	 1.1130527296e+00	-5.5284712819e+00
 1.4332928959e-01	 1.1143486265e+00	-5.5773275965e+00
 1.3360880165e-01	 1.1155558456e+00	-5.6227742666e+00
 1.2390745403e-01	 1.1166750268e+00	-5.6648754540e+00
 1.1422630353e-01	 1.1177068246e+00	-5.7036959731e+00
 1.0456638899e-01	 1.1186519078e+00	-5.7393002832e+00
 9.4928731201e-02	 1.1195109585e+00	-5.7717515960e+00
 1.9369005337e-01	 1.1156645417e+00	-5.1348199690e+00
 1.8381335999e-01	 1.1173342518e+00	-5.1917151784e+00
 1.7395036767e-01	 1.1189121650e+00	-5.2452978787e+00
 1.6410222882e-01	 1.1203988623e+00	-5.2956190767e+00
 1.5427007886e-01	 1.1217949416e+00	-5.3427343697e+00
 1.4445503593e-01	 1.1231010168e+00	-5.3867024368e+00
 1.3465820069e-01	 1.1243177177e+00	-5.4275836865e+00
 1.2488065612e-01	 1.1254456893e+00	-5.4654390513e+00
 1.1512346728e-01	 1.1264855911e+00	-5.5003289193e+00
 1.0538768121e-01	 1.1274380972e+00	-5.5323121942e+00
 9.5674326689e-02	 1.1283038952e+00	-5.5614454724e+00
 1.9519949315e-01	 1.1243589914e+00	-4.9708079530e+00
 1.8524583003e-01	 1.1260417137e+00	-5.0222174562e+00
 1.7530597473e-01	 1.1276319237e+00	-5.0706007007e+00
 1.6538108867e-01	 1.1291302069e+00	-5.1160108077e+00
 1.5547231610e-01	 1.1305371660e+00	-5.1585041825e+00
 1.4558078387e-01	 1.1318534195e+00	-5.1981390538e+00
 1.3570760123e-01	 1.1330796023e+00	-5.2349741758e+00
 1.2585385957e-01	 1.1342163642e+00	-5.2690676814e+00
 1.1602063230e-01	 1.1352643700e+00	-5.3004760780e+00
 1.0620897458e-01	 1.1362242991e+00	-5.3292533745e+00
 9.6419923233e-02	 1.1370968443e+00	-5.3554503289e+00
 1.9670893464e-01	 1.1330534510e+00	-4.8050365016e+00
 1.8667830168e-01	 1.1347491855e+00	-4.8516195347e+00
 1.7666158333e-01	 1.1363516922e+00	-4.8954313979e+00
 1.6665994997e-01	 1.1378615615e+00	-4.9365272541e+00
 1.5667455469e-01	 1.1392794002e+00	-4.9749643516e+00
 1.4670653308e-01	 1.1406058321e+00	-5.0108006127e+00
 1.3675700294e-01	 1.1418414967e+00	-5.0440933906e+00
 1.2682706414e-01	 1.1429870490e+00	-5.0748983824e+00
 1.1691779834e-01	 1.1440431589e+00	-5.1032686900e+00
 1.0703026889e-01	 1.1450105109e+00	-5.1292540141e+00
 9.7165520622e-02	 1.1458898033e+00	-5.1528999734e+00
 1.9821837741e-01	 1.1417479180e+00	-4.6368429953e+00
 1.8811077456e-01	 1.1434566647e+00	-4.6792188636e+00
 1.7801719308e-01	 1.1450714682e+00	-4.7190525541e+00
 1.6793881235e-01	 1.1465929234e+00	-4.7564011503e+00
 1.5787679431e-01	 1.1480216420e+00	-4.7913227255e+00
 1.4783228325e-01	 1.1493582522e+00	-4.8238749819e+00
 1.3780640555e-01	 1.1506033987e+00	-4.8541140622e+00
 1.2780026952e-01	 1.1517577413e+00	-4.8820935253e+00
 1.1781496514e-01	 1.1528219553e+00	-4.9078634709e+00
 1.0785156390e-01	 1.1537967302e+00	-4.9314698041e+00
 9.7911118644e-02	 1.1546827698e+00	-4.9529536258e+00
 1.9972782104e-01	 1.1504423900e+00	-4.4655852613e+00
 1.8954324825e-01	 1.1521641488e+00	-4.5043342276e+00
 1.7937280360e-01	 1.1537912492e+00	-4.5407488697e+00
 1.6921767546e-01	 1.1553242903e+00	-4.5748880223e+00
 1.5907903460e-01	 1.1567638886e+00	-4.6068105124e+00
 1.4895803405e-01	 1.1581106772e+00	-4.6365738487e+00
 1.3885580876e-01	 1.1593653055e+00	-4.6642330919e+00
 1.2877347546e-01	 1.1605284386e+00	-4.6898398915e+00
 1.1871213245e-01	 1.1616007566e+00	-4.7134416783e+00
 1.0867285937e-01	 1.1625829545e+00	-4.7350809987e+00
 9.8656717088e-02	 1.1634757414e+00	-4.7547949784e+00
 2.0123726509e-01	 1.1591368644e+00	-4.2906409089e+00
 1.9097572234e-01	 1.1608716354e+00	-4.3263050351e+00
 1.8072841450e-01	 1.1625110326e+00	-4.3598264098e+00
 1.7049653892e-01	 1.1640556597e+00	-4.3912654004e+00
 1.6028127524e-01	 1.1655061378e+00	-4.4206814610e+00
 1.5008378517e-01	 1.1668631048e+00	-4.4481318752e+00
 1.3990521226e-01	 1.1681272149e+00	-4.4736706853e+00
 1.2974668168e-01	 1.1692991383e+00	-4.4973477933e+00
 1.1960930001e-01	 1.1703795604e+00	-4.5192082212e+00
 1.0949415507e-01	 1.1713691813e+00	-4.5392915183e+00
 9.9402315743e-02	 1.1722687154e+00	-4.5576312992e+00
 9.1946364036e-02	 1.0843393864e+00	-6.7669081760e+00
 8.2635597504e-02	 1.0850886720e+00	-6.8052608525e+00
 7.3348282920e-02	 1.0857560150e+00	-6.8396265551e+00
 6.4085333976e-02	 1.0863421123e+00	-6.8699760171e+00
 5.4847646941e-02	 1.0868476722e+00	-6.8962864641e+00
 4.5636100571e-02	 1.0872734138e+00	-6.9185408008e+00
 3.6451556027e-02	 1.0876200664e+00	-6.9367268144e+00
 2.7294856805e-02	 1.0878883693e+00	-6.9508363966e+00
 1.8166828684e-02	 1.0880790712e+00	-6.9608647877e+00
 9.0682796764e-03	 1.0881929296e+00	-6.9668098468e+00
 0.0000000000e+00	 1.0882307108e+00	-6.9686713506e+00
 9.2691953187e-02	 1.0931322483e+00	-6.4793768145e+00
 8.3305686045e-02	 1.0938876098e+00	-6.5157460934e+00
 7.3943061023e-02	 1.0945603642e+00	-6.5483581985e+00
 6.4604999219e-02	 1.0951512142e+00	-6.5771802579e+00
 5.5292404174e-02	 1.0956608737e+00	-6.6021858727e+00
 4.6006161766e-02	 1.0960900676e+00	-6.6233542701e+00
 3.6747140141e-02	 1.0964395312e+00	-6.6406694719e+00
 2.7516189635e-02	 1.0967100097e+00	-6.6541194830e+00
 1.8314142723e-02	 1.0969022580e+00	-6.6636955047e+00
 9.1418139695e-03	 1.0970170397e+00	-6.6693911736e+00
 0.0000000000e+00	 1.0970551273e+00	-6.6712018315e+00
 9.3437544239e-02	 1.1019251326e+00	-6.2198056382e+00
 8.3975776295e-02	 1.1026865701e+00	-6.2542690885e+00
 7.4537840642e-02	 1.1033647360e+00	-6.2851628412e+00
 6.5124665788e-02	 1.1039603386e+00	-6.3124528052e+00
 5.5737162540e-02	 1.1044740977e+00	-6.3361113306e+00
 4.6376223905e-02	 1.1049067439e+00	-6.3561163222e+00
 3.7042725009e-02	 1.1052590185e+00	-6.3724503702e+00
 2.7737523030e-02	 1.1055316727e+00	-6.3850999025e+00
 1.8461457137e-02	 1.1057254673e+00	-6.3940543616e+00
 9.2153484500e-03	 1.1058411723e+00	-6.3993054109e+00
 0.0000000000e+00	 1.1058795663e+00	-6.4008461716e+00
 9.4183136981e-02	 1.1107180368e+00	-5.9872807491e+00
 8.4645868064e-02	 1.1114855503e+00	-6.0198988891e+00
 7.5132621609e-02	 1.1121691277e+00	-6.0489868208e+00
 6.5644333534e-02	 1.1127694829e+00	-6.0745402587e+00
 5.6181921914e-02	 1.1132873416e+00	-6.0965727374e+00
 4.6746286882e-02	 1.1137234401e+00	-6.1150956724e+00
 3.7338310547e-02	 1.1140785257e+00	-6.1301179431e+00
 2.7958856926e-02	 1.1143533556e+00	-6.1416455296e+00
 1.8608771886e-02	 1.1145486967e+00	-6.1496811952e+00
 9.2888830972e-03	 1.1146653250e+00	-6.1542242087e+00
 0.0000000000e+00	 1.1147040253e+00	-6.1552701010e+00
 9.4928731201e-02	 1.1195109585e+00	-5.7717515960e+00
 8.5315961161e-02	 1.1202845479e+00	-5.8010342040e+00
 7.5727403755e-02	 1.1209735368e+00	-5.8271095161e+00
 6.6164002311e-02	 1.1215786448e+00	-5.8499877535e+00
 5.6626682171e-02	 1.1221006030e+00	-5.8696767753e+00
 4.7116350593e-02	 1.1225401539e+00	-5.8861816696e+00
 3.7633896670e-02	 1.1228980505e+00	-5.8995044032e+00
 2.8180191261e-02	 1.1231750561e+00	-5.9096435247e+00
 1.8756086927e-02	 1.1233719435e+00	-5.9165939133e+00
 9.3624178902e-03	 1.1234894951e+00	-5.9203465656e+00
 0.0000000000e+00	 1.1235285018e+00	-5.9208884147e+00
 9.5674326689e-02	 1.1283038952e+00	-5.5614454724e+00
 8.5986055398e-02	 1.1290835605e+00	-5.5877160766e+00
 7.6322186913e-02	 1.1297779609e+00	-5.6110901407e+00
 6.6683671971e-02	 1.1303878216e+00	-5.6315740674e+00
 5.7071443183e-02	 1.1309138794e+00	-5.6491711393e+00
 4.7486414933e-02	 1.1313568826e+00	-5.6638811799e+00
 3.7929483297e-02	 1.1317175903e+00	-5.6757002746e+00
 2.8401525972e-02	 1.1319967715e+00	-5.6846205438e+00
 1.8903402218e-02	 1.1321952054e+00	-5.6906299602e+00
 9.4359528082e-03	 1.1323136802e+00	-5.6937122034e+00
 0.0000000000e+00	 1.1323529932e+00	-5.6938465453e+00
 9.6419923233e-02	 1.1370968443e+00	-5.3554503289e+00
 8.6656150583e-02	 1.1378825856e+00	-5.3790581892e+00
 7.6916970913e-02	 1.1385823975e+00	-5.4000489886e+00
 6.7203342368e-02	 1.1391970108e+00	-5.4184263752e+00
 5.7516204826e-02	 1.1397271683e+00	-5.4341900802e+00
 4.7856479797e-02	 1.1401736239e+00	-5.4473356531e+00
 3.8225070342e-02	 1.1405371425e+00	-5.4578542567e+00
 2.8622860997e-02	 1.1408184994e+00	-5.4657325138e+00
 1.9050717718e-02	 1.1410184797e+00	-5.4709523972e+00
 9.5094878304e-03	 1.1411378778e+00	-5.4734911555e+00
 0.0000000000e+00	 1.1411774972e+00	-5.4733212668e+00
 9.7165520622e-02	 1.1458898033e+00	-5.1528999734e+00
 8.7326246528e-02	 1.1466816207e+00	-5.1742004751e+00
 7.7511755587e-02	 1.1473868441e+00	-5.1931324698e+00
 6.7723013353e-02	 1.1480062101e+00	-5.2096978414e+00
 5.7960966972e-02	 1.1485404671e+00	-5.2238937211e+00
 4.8226545081e-02	 1.1489903751e+00	-5.2357123011e+00
 3.8520657722e-02	 1.1493567048e+00	-5.2451407073e+00
 2.8844196273e-02	 1.1496402374e+00	-5.2521609239e+00
 1.9198033385e-02	 1.1498417640e+00	-5.2567497585e+00
 9.5830229361e-03	 1.1499620855e+00	-5.2588788430e+00
 0.0000000000e+00	 1.1500020112e+00	-5.2585146602e+00
 9.7911118644e-02	 1.1546827698e+00	-4.9529536258e+00
 8.7996343042e-02	 1.1554806632e+00	-4.9723081368e+00
 7.8106540766e-02	 1.1561912981e+00	-4.9895121306e+00
 6.8242684780e-02	 1.1568154168e+00	-5.0045666427e+00
 5.8405729497e-02	 1.1573537735e+00	-5.0174670818e+00
 4.8596610680e-02	 1.1578071338e+00	-5.0282031251e+00
 3.8816245354e-02	 1.1581762745e+00	-5.0367586740e+00
 2.9065531737e-02	 1.1584619828e+00	-5.0431118589e+00
 1.9345349177e-02	 1.1586650559e+00	-5.0472350850e+00
 9.6565581045e-03	 1.1587863006e+00	-5.0490951114e+00
 0.0000000000e+00	 1.1588265327e+00	-5.0486531530e+00
 9.8656717088e-02	 1.1634757414e+00	-4.7547949784e+00
 8.8666439936e-02	 1.1642797107e+00	-4.7725707086e+00
 7.8701326282e-02	 1.1649957572e+00	-4.7883837183e+00
 6.8762356501e-02	 1.1656246286e+00	-4.8022350357e+00
 5.8850492274e-02	 1.1661670849e+00	-4.8141191488e+00
 4.8966676488e-02	 1.1666238976e+00	-4.8240239881e+00
 3.9111833154e-02	 1.1669958493e+00	-4.8319309676e+00
 2.9286867327e-02	 1.1672837332e+00	-4.8378150755e+00
 1.9492665053e-02	 1.1674883527e+00	-4.8416450043e+00
 9.7300933146e-03	 1.1676105207e+00	-4.8433833113e+00
 0.0000000000e+00	 1.1676510592e+00	-4.8429866012e+00
 9.9402315743e-02	 1.1722687154e+00	-4.5576312992e+00
 8.9336537019e-02	 1.1730787607e+00	-4.5742011615e+00
 7.9296111967e-02	 1.1738002187e+00	-4.5889662882e+00
 6.9282028370e-02	 1.1744338428e+00	-4.6019284654e+00
 5.9295255177e-02	 1.1749803987e+00	-4.6130819869e+00
 4.9336742402e-02	 1.1754406638e+00	-4.6224137282e+00
 3.9407421038e-02	 1.1758154265e+00	-4.6299032784e+00
 2.9508202981e-02	 1.1761054862e+00	-4.6355231204e+00
 1.9639980971e-02	 1.1763116521e+00	-4.6392388496e+00
 9.8036285459e-03	 1.1764347433e+00	-4.6410094204e+00
 0.0000000000e+00	 1.1764755882e+00	-4.6407874130e+00
 1.1764755882e+00	 0.0000000000e+00	 3.0921917284e+00
 1.1764347433e+00	 9.8036285459e-03	 3.0928675576e+00
 1.1763116521e+00	 1.9639980971e-02	 3.0928383942e+00
 1.1761054862e+00	 2.9508202981e-02	 3.0922140620e+00
 1.1758154265e+00	 3.9407421038e-02	 3.0910915575e+00
 1.1754406638e+00	 4.9336742402e-02	 3.0895542391e+00
 1.1749803987e+00	 5.9295255177e-02	 3.0876710557e+00
 1.1744338428e+00	 6.9282028370e-02	 3.0854958226e+00
 1.1738002187e+00	 7.9296111967e-02	 3.0830665564e+00
 1.1730787607e+00	 8.9336537019e-02	 3.0804048776e+00
 1.1722687154e+00	 9.9402315743e-02	 3.0775154926e+00
 1.1852986176e+00	 0.0000000000e+00	 3.1501696830e+00
 1.1852574664e+00	 9.8771512812e-03	 3.1504929975e+00
 1.1851334520e+00	 1.9787271856e-02	 3.1499589531e+00
 1.1849257400e+00	 2.9729501022e-02	 3.1486830045e+00
 1.1846335050e+00	 3.9702958691e-02	 3.1467670876e+00
 1.1842559317e+00	 4.9706745429e-02	 3.1442987286e+00
 1.1837922149e+00	 5.9739942500e-02	 3.1413501889e+00
 1.1832415601e+00	 6.9801611929e-02	 3.1379776581e+00
 1.1826031841e+00	 7.9890796577e-02	 3.1342205026e+00
 1.1818763155e+00	 9.0006520230e-02	 3.1301005833e+00
 1.1810601952e+00	 1.0014778769e-01	 3.1256216507e+00
 1.1941216471e+00	 0.0000000000e+00	 3.2073057121e+00
 1.1940801895e+00	 9.9506740167e-03	 3.2073733808e+00
 1.1939552520e+00	 1.9934562741e-02	 3.2064402683e+00
 1.1937459938e+00	 2.9950799063e-02	 3.2046256104e+00
 1.1934515835e+00	 3.9998496345e-02	 3.2020344276e+00
 1.1930711997e+00	 5.0076748456e-02	 3.1987565524e+00
 1.1926040311e+00	 6.0184629823e-02	 3.1948656907e+00
 1.1920492773e+00	 7.0321195488e-02	 3.1904185293e+00
 1.1914061494e+00	 8.0485481187e-02	 3.1854538985e+00
 1.1906738703e+00	 9.0676503440e-02	 3.1799920021e+00
 1.1898516750e+00	 1.0089325965e-01	 3.1740337255e+00
 1.2029446765e+00	 0.0000000000e+00	 3.2633311419e+00
 1.2029029126e+00	 1.0024196752e-02	 3.2632276974e+00
 1.2027770520e+00	 2.0081853626e-02	 3.2619897670e+00
 1.2025662476e+00	 3.0172097105e-02	 3.2597386068e+00
 1.2022696620e+00	 4.0294033999e-02	 3.2565805576e+00
 1.2018864676e+00	 5.0446751484e-02	 3.2526059888e+00
 1.2014158472e+00	 6.0629317146e-02	 3.2478882754e+00
 1.2008569946e+00	 7.0840779046e-02	 3.2424828187e+00
 1.2002091148e+00	 8.1080165797e-02	 3.2364261212e+00
 1.1994714250e+00	 9.1346486650e-02	 3.2297349279e+00
 1.1986431547e+00	 1.0163873160e-01	 3.2224054456e+00
 1.2117677059e+00	 0.0000000000e+00	 3.3179864457e+00
 1.2117256357e+00	 1.0097719488e-02	 3.3177845007e+00
 1.2115988519e+00	 2.0229144511e-02	 3.3163248211e+00
 1.2113865014e+00	 3.0393395146e-02	 3.3137290115e+00
 1.2110877405e+00	 4.0589571654e-02	 3.3101030582e+00
 1.2107017356e+00	 5.0816754512e-02	 3.3055361893e+00
 1.2102276634e+00	 6.1074004469e-02	 3.3000997659e+00
 1.2096647118e+00	 7.1360362605e-02	 3.2938462145e+00
 1.2090120802e+00	 8.1674850407e-02	 3.2868080128e+00
 1.2082689798e+00	 9.2016469860e-02	 3.2789967401e+00
 1.2074346345e+00	 1.0238420355e-01	 3.2704022060e+00
 1.2205907353e+00	 0.0000000000e+00	 3.3710209140e+00
 1.2205483588e+00	 1.0171242224e-02	 3.3707815671e+00
 1.2204206519e+00	 2.0376435397e-02	 3.3691723977e+00
 1.2202067552e+00	 3.0614693188e-02	 3.3663137741e+00
 1.2199058190e+00	 4.0885109308e-02	 3.3623097426e+00
 1.2195170035e+00	 5.1186757540e-02	 3.3572468029e+00
 1.2190394796e+00	 6.1518691792e-02	 3.3511927108e+00
 1.2184724291e+00	 7.1879946164e-02	 3.3441953219e+00
 1.2178150455e+00	 8.2269535017e-02	 3.3362814854e+00
 1.2170665345e+00	 9.2686453070e-02	 3.3274560028e+00
 1.2162261143e+00	 1.0312967550e-01	 3.3177006635e+00
 1.2294137647e+00	 0.0000000000e+00	 3.4221923386e+00
 1.2293710819e+00	 1.0244764960e-02	 3.4219655714e+00
 1.2292424519e+00	 2.0523726282e-02	 3.4202687245e+00
 1.2290270091e+00	 3.0835991230e-02	 3.4172194326e+00
 1.2287238975e+00	 4.1180646962e-02	 3.4129183055e+00
 1.2283322715e+00	 5.1556760567e-02	 3.4074476170e+00
 1.2278512958e+00	 6.1963379116e-02	 3.4008700181e+00
 1.2272801463e+00	 7.2399529723e-02	 3.3932272896e+00
 1.2266180109e+00	 8.2864219627e-02	 3.3845391424e+00
 1.2258640893e+00	 9.3356436280e-02	 3.3748020823e+00
 1.2250175941e+00	 1.0387514745e-01	 3.3639883501e+00
 1.2382367941e+00	 0.0000000000e+00	 3.4712667106e+00
 1.2381938050e+00	 1.0318287695e-02	 3.4710917745e+00
 1.2380642518e+00	 2.0671017167e-02	 3.4693589692e+00
 1.2378472629e+00	 3.1057289272e-02	 3.4661817846e+00
 1.2375419760e+00	 4.1476184617e-02	 3.4616559858e+00
 1.2371475394e+00	 5.1926763595e-02	 3.4558582129e+00
 1.2366631119e+00	 6.2408066439e-02	 3.4488446037e+00
 1.2360878636e+00	 7.2919113282e-02	 3.4406494525e+00
 1.2354209763e+00	 8.3458904237e-02	 3.4312839155e+00
 1.2346616440e+00	 9.4026419490e-02	 3.4207347787e+00
 1.2338090739e+00	 1.0462061940e-01	 3.4089633007e+00
 1.2470598236e+00	 0.0000000000e+00	 3.5180179304e+00
 1.2470165281e+00	 1.0391810431e-02	 3.5179237259e+00
 1.2468860518e+00	 2.0818308052e-02	 3.5161969331e+00
 1.2466675167e+00	 3.1278587314e-02	 3.5129455726e+00
 1.2463600545e+00	 4.1771722271e-02	 3.5082592442e+00
 1.2459628074e+00	 5.2296766623e-02	 3.5022076361e+00
 1.2454749281e+00	 6.2852753762e-02	 3.4948390550e+00
 1.2448955809e+00	 7.3438696840e-02	 3.4861789893e+00
 1.2442239416e+00	 8.4053588847e-02	 3.4762287168e+00
 1.2434591988e+00	 9.4696402700e-02	 3.4649639738e+00
 1.2426005537e+00	 1.0536609135e-01	 3.4523336973e+00
 1.2558828530e+00	 0.0000000000e+00	 3.5622275312e+00
 1.2558392512e+00	 1.0465333166e-02	 3.5622329775e+00
 1.2557078518e+00	 2.0965598937e-02	 3.5605447570e+00
 1.2554877705e+00	 3.1499885355e-02	 3.5572641821e+00
 1.2551781330e+00	 4.2067259925e-02	 3.5524734540e+00
 1.2547780753e+00	 5.2666769650e-02	 3.5462340800e+00
 1.2542867443e+00	 6.3297441085e-02	 3.5385853084e+00
 1.2537032981e+00	 7.3958280399e-02	 3.5295425937e+00
 1.2530269070e+00	 8.4648273457e-02	 3.5190961051e+00
 1.2522567536e+00	 9.5366385910e-02	 3.5072092924e+00
 1.2513920335e+00	 1.0611156330e-01	 3.4938175266e+00
 1.2647058824e+00	 0.0000000000e+00	 3.6036844125e+00
 1.2646619743e+00	 1.0538855902e-02	 3.6037988099e+00
 1.2645296518e+00	 2.1112889822e-02	 3.6021726398e+00
 1.2643080243e+00	 3.1721183396e-02	 3.5988993526e+00
 1.2639962115e+00	 4.2362797579e-02	 3.5940526049e+00
 1.2635933433e+00	 5.3036772677e-02	 3.5876845829e+00
 1.2630985605e+00	 6.3742128408e-02	 3.5798243396e+00
 1.2625110154e+00	 7.4477863958e-02	 3.5704761596e+00
 1.2618298723e+00	 8.5242958067e-02	 3.5596179652e+00
 1.2610543083e+00	 9.6036369121e-02	 3.5471997776e+00
 1.2601835133e+00	 1.0685703526e-01	 3.5331422514e+00
 1.1722687154e+00	 9.9402315743e-02	 3.0775154926e+00
 1.1713691813e+00	 1.0949415507e-01	 3.0745465249e+00
 1.1703795604e+00	 1.1960930001e-01	 3.0715829002e+00
 1.1692991383e+00	 1.2974668168e-01	 3.0685061656e+00
 1.1681272149e+00	 1.3990521226e-01	 3.0651794036e+00
 1.1668631048e+00	 1.5008378517e-01	 3.0614474020e+00
 1.1655061378e+00	 1.6028127524e-01	 3.0571369803e+00
 1.1640556597e+00	 1.7049653892e-01	 3.0520574867e+00
 1.1625110326e+00	 1.8072841450e-01	 3.0460014794e+00
 1.1608716354e+00	 1.9097572234e-01	 3.0387456047e+00
 1.1591368644e+00	 2.0123726509e-01	 3.0300516871e+00
 1.1810601952e+00	 1.0014778769e-01	 3.1256216507e+00
 1.1801539149e+00	 1.1031531121e-01	 3.1209375823e+00
 1.1791568724e+00	 1.2050631511e-01	 3.1161438246e+00
 1.1780683476e+00	 1.3071972251e-01	 3.1111254200e+00
 1.1768876353e+00	 1.4095443743e-01	 3.1057476688e+00
 1.1756140449e+00	 1.5120934499e-01	 3.0998562168e+00
 1.1742469013e+00	 1.6148331157e-01	 3.0932773015e+00
 1.1727855453e+00	 1.7177518507e-01	 3.0858181727e+00
 1.1712293342e+00	 1.8208379504e-01	 3.0772677013e+00
 1.1695776423e+00	 1.9240795300e-01	 3.0673971901e+00
 1.1678298613e+00	 2.0274645264e-01	 3.0559614019e+00
 1.1898516750e+00	 1.0089325965e-01	 3.1740337255e+00
 1.1889386486e+00	 1.1113646734e-01	 3.1677390141e+00
 1.1879341844e+00	 1.2140333021e-01	 3.1612158228e+00
 1.1868375570e+00	 1.3169276334e-01	 3.1543533042e+00
 1.1856480558e+00	 1.4200366260e-01	 3.1470195485e+00
 1.1843649851e+00	 1.5233490480e-01	 3.1390615818e+00
 1.1829876649e+00	 1.6268534791e-01	 3.1303055273e+00
 1.1815154309e+00	 1.7305383121e-01	 3.1205569434e+00
 1.1799476358e+00	 1.8343917558e-01	 3.1096013543e+00
 1.1782836492e+00	 1.9384018366e-01	 3.0972049881e+00
 1.1765228582e+00	 2.0425564018e-01	 3.0831157370e+00
 1.1986431547e+00	 1.0163873160e-01	 3.2224054456e+00
 1.1977233823e+00	 1.1195762348e-01	 3.2146034539e+00
 1.1967114963e+00	 1.2230034531e-01	 3.2064508157e+00
 1.1956067663e+00	 1.3266580417e-01	 3.1978414445e+00
 1.1944084762e+00	 1.4305288777e-01	 3.1886468266e+00
 1.1931159253e+00	 1.5346046462e-01	 3.1787159258e+00
 1.1917284284e+00	 1.6388738424e-01	 3.1678752525e+00
 1.1902453166e+00	 1.7433247735e-01	 3.1559291141e+00
 1.1886659375e+00	 1.8479455611e-01	 3.1426600611e+00
 1.1869896561e+00	 1.9527241433e-01	 3.1278295465e+00
 1.1852158551e+00	 2.0576482773e-01	 3.1111788132e+00
 1.2074346345e+00	 1.0238420355e-01	 3.2704022060e+00
 1.2065081160e+00	 1.1277877961e-01	 3.2611952616e+00
 1.2054888083e+00	 1.2319736041e-01	 3.2515125093e+00
 1.2043759756e+00	 1.3363884500e-01	 3.2412533104e+00
 1.2031688966e+00	 1.4410211294e-01	 3.2302931909e+00
 1.2018668655e+00	 1.5458602443e-01	 3.2184836453e+00
 1.2004691920e+00	 1.6508942057e-01	 3.2056521084e+00
 1.1989752022e+00	 1.7561112350e-01	 3.1916021115e+00
 1.1973842391e+00	 1.8614993665e-01	 3.1761136386e+00
 1.1956956630e+00	 1.9670464499e-01	 3.1589437001e+00
 1.1939088520e+00	 2.0727401527e-01	 3.1398271413e+00
 1.2162261143e+00	 1.0312967550e-01	 3.3177006635e+00
 1.2152928497e+00	 1.1359993575e-01	 3.3071901157e+00
 1.2142661203e+00	 1.2409437551e-01	 3.2960759830e+00
 1.2131451849e+00	 1.3461188583e-01	 3.2842638001e+00
 1.2119293170e+00	 1.4515133811e-01	 3.2716338139e+00
 1.2106178056e+00	 1.5571158425e-01	 3.2580406805e+00
 1.2092099555e+00	 1.6629145690e-01	 3.2433133336e+00
 1.2077050878e+00	 1.7688976964e-01	 3.2272550397e+00
 1.2061025407e+00	 1.8750531718e-01	 3.2096436585e+00
 1.2044016699e+00	 1.9813687565e-01	 3.1902321249e+00
 1.2026018489e+00	 2.0878320282e-01	 3.1687491714e+00
 1.2250175941e+00	 1.0387514745e-01	 3.3639883501e+00
 1.2240775834e+00	 1.1442109188e-01	 3.3522746220e+00
 1.2230434323e+00	 1.2499139061e-01	 3.3398272946e+00
 1.2219143942e+00	 1.3558492667e-01	 3.3265588410e+00
 1.2206897375e+00	 1.4620056328e-01	 3.3123549492e+00
 1.2193687458e+00	 1.5683714407e-01	 3.2970741074e+00
 1.2179507190e+00	 1.6749349324e-01	 3.2805473612e+00
 1.2164349734e+00	 1.7816841578e-01	 3.2625782620e+00
 1.2148208423e+00	 1.8886069772e-01	 3.2429430243e+00
 1.2131076767e+00	 1.9956910631e-01	 3.2213909101e+00
 1.2112948458e+00	 2.1029239036e-01	 3.1976448587e+00
 1.2338090739e+00	 1.0462061940e-01	 3.4089633007e+00
 1.2328623171e+00	 1.1524224802e-01	 3.3961459394e+00
 1.2318207443e+00	 1.2588840571e-01	 3.3824631022e+00
 1.2306836035e+00	 1.3655796750e-01	 3.3678350066e+00
 1.2294501579e+00	 1.4724978844e-01	 3.3521535442e+00
 1.2281196860e+00	 1.5796270388e-01	 3.3352817459e+00
 1.2266914826e+00	 1.6869552957e-01	 3.3170534225e+00
 1.2251648591e+00	 1.7944706192e-01	 3.2972729995e+00
 1.2235391440e+00	 1.9021607825e-01	 3.2757155642e+00
 1.2218136836e+00	 2.0100133697e-01	 3.2521271458e+00
 1.2199878427e+00	 2.1180157791e-01	 3.2262252461e+00
 1.2426005537e+00	 1.0536609135e-01	 3.4523336973e+00
 1.2416470508e+00	 1.1606340415e-01	 3.4385114192e+00
 1.2405980563e+00	 1.2678542081e-01	 3.4236902995e+00
 1.2394528128e+00	 1.3753100833e-01	 3.4077991493e+00
 1.2382105783e+00	 1.4829901361e-01	 3.3907368681e+00
 1.2368706262e+00	 1.5908826370e-01	 3.3723717829e+00
 1.2354322461e+00	 1.6989756590e-01	 3.3525411652e+00
 1.2338947447e+00	 1.8072570807e-01	 3.3310509447e+00
 1.2322574456e+00	 1.9157145879e-01	 3.3076756398e+00
 1.2305196905e+00	 2.0243356764e-01	 3.2821585262e+00
 1.2286808396e+00	 2.1331076545e-01	 3.2542120613e+00
 1.2513920335e+00	 1.0611156330e-01	 3.4938175266e+00
 1.2504317845e+00	 1.1688456029e-01	 3.4790882596e+00
 1.2493753683e+00	 1.2768243591e-01	 3.4632256670e+00
 1.2482220222e+00	 1.3850404916e-01	 3.4461680463e+00
 1.2469709987e+00	 1.4934823878e-01	 3.4278221539e+00
 1.2456215664e+00	 1.6021382351e-01	 3.4080624103e+00
 1.2441730097e+00	 1.7109960223e-01	 3.3867302864e+00
 1.2426246303e+00	 1.8200435421e-01	 3.3636338891e+00
 1.2409757472e+00	 1.9292683932e-01	 3.3385477686e+00
 1.2392256974e+00	 2.0386579830e-01	 3.3112129668e+00
 1.2373738365e+00	 2.1481995300e-01	 3.2813373295e+00
 1.2601835133e+00	 1.0685703526e-01	 3.5331422514e+00
 1.2592165182e+00	 1.1770571642e-01	 3.5176031740e+00
 1.2581526803e+00	 1.2857945101e-01	 3.5007955358e+00
 1.2569912315e+00	 1.3947708999e-01	 3.4826680601e+00
 1.2557314192e+00	 1.5039746395e-01	 3.4631362545e+00
 1.2543725065e+00	 1.6133938333e-01	 3.4420814760e+00
 1.2529137732e+00	 1.7230163857e-01	 3.4193501790e+00
 1.2513545159e+00	 1.8328300036e-01	 3.3947533655e+00
 1.2496940488e+00	 1.9428221986e-01	 3.3680662609e+00
 1.2479317043e+00	 2.0529802896e-01	 3.3390282359e+00
 1.2460668334e+00	 2.1632914054e-01	 3.3073429987e+00
 1.1591368644e+00	 2.0123726509e-01	 3.0300516871e+00
 1.1573064529e+00	 2.1151008095e-01	 3.0208184544e+00
 1.1553795464e+00	 2.2179468403e-01	 3.0119324527e+00
 1.1533555958e+00	 2.3208982905e-01	 3.0031270729e+00
 1.1512340711e+00	 2.4239425423e-01	 2.9941312978e+00
 1.1490144625e+00	 2.5270668167e-01	 2.9846721782e+00
 1.1466962804e+00	 2.6302581766e-01	 2.9744775955e+00
 1.1442790561e+00	 2.7335035306e-01	 2.9632793225e+00
 1.1417623423e+00	 2.8367896364e-01	 2.9508163934e+00
 1.1391457133e+00	 2.9401031052e-01	 2.9368387911e+00
 1.1364287657e+00	 3.0434304055e-01	 2.9211114634e+00
 1.1678298613e+00	 2.0274645264e-01	 3.0559614019e+00
 1.1659857226e+00	 2.1309630992e-01	 3.0439031789e+00
 1.1640443652e+00	 2.2345804283e-01	 3.0321683059e+00
 1.1620052358e+00	 2.3383039673e-01	 3.0205042230e+00
 1.1598678006e+00	 2.4421210040e-01	 3.0086516594e+00
 1.1576315460e+00	 2.5460186633e-01	 2.9963470451e+00
 1.1552959786e+00	 2.6499839113e-01	 2.9833252196e+00
 1.1528606263e+00	 2.7540035582e-01	 2.9693224493e+00
 1.1503250382e+00	 2.8580642626e-01	 2.9540797656e+00
 1.1476887857e+00	 2.9621525352e-01	 2.9373466338e+00
 1.1449514623e+00	 3.0662547430e-01	 2.9188849620e+00
 1.1765228582e+00	 2.0425564018e-01	 3.0831157370e+00
 1.1746649922e+00	 2.1468253889e-01	 3.0683132742e+00
 1.1727091839e+00	 2.2512140163e-01	 3.0537946508e+00
 1.1706548758e+00	 2.3557096441e-01	 3.0393203610e+00
 1.1685015302e+00	 2.4602994656e-01	 3.0246418195e+00
 1.1662486295e+00	 2.5649705099e-01	 3.0095037055e+00
 1.1638956768e+00	 2.6697096459e-01	 2.9936466139e+00
 1.1614421964e+00	 2.7745035858e-01	 2.9768100269e+00
 1.1588877341e+00	 2.8793388888e-01	 2.9587356176e+00
 1.1562318581e+00	 2.9842019653e-01	 2.9391708971e+00
 1.1534741588e+00	 3.0890790806e-01	 2.9178732156e+00
 1.1852158551e+00	 2.0576482773e-01	 3.1111788132e+00
 1.1833442619e+00	 2.1626876786e-01	 3.0937176309e+00
 1.1813740027e+00	 2.2678476042e-01	 3.0764869090e+00
 1.1793045158e+00	 2.3731153209e-01	 3.0592592476e+00
 1.1771352598e+00	 2.4784779272e-01	 3.0417957301e+00
 1.1748657130e+00	 2.5839223564e-01	 3.0238481956e+00
 1.1724953750e+00	 2.6894353805e-01	 3.0051618302e+00
 1.1700237665e+00	 2.7950036134e-01	 2.9854780884e+00
 1.1674504301e+00	 2.9006135150e-01	 2.9645379597e+00
 1.1647749305e+00	 3.0062513953e-01	 2.9420855917e+00
 1.1619968554e+00	 3.1119034182e-01	 2.9178722811e+00
 1.1939088520e+00	 2.0727401527e-01	 3.1398271413e+00
 1.1920235315e+00	 2.1785499683e-01	 3.1197976303e+00
 1.1900388214e+00	 2.2844811922e-01	 3.0999330770e+00
 1.1879541559e+00	 2.3905209977e-01	 3.0800172868e+00
 1.1857689893e+00	 2.4966563888e-01	 3.0598200395e+00
 1.1834827965e+00	 2.6028742030e-01	 3.0390992877e+00
 1.1810950732e+00	 2.7091611151e-01	 3.0176036824e+00
 1.1786053367e+00	 2.8155036410e-01	 2.9950754423e+00
 1.1760131260e+00	 2.9218881412e-01	 2.9712535799e+00
 1.1733180029e+00	 3.0283008253e-01	 2.9458774976e+00
 1.1705195519e+00	 3.1347277557e-01	 2.9186909660e+00
 1.2026018489e+00	 2.0878320282e-01	 3.1687491714e+00
 1.2007028012e+00	 2.1944122580e-01	 3.1462466885e+00
 1.1987036401e+00	 2.3011147801e-01	 3.1238332659e+00
 1.1966037959e+00	 2.4079266745e-01	 3.1013030619e+00
 1.1944027189e+00	 2.5148348504e-01	 3.0784336272e+00
 1.1920998801e+00	 2.6218260495e-01	 3.0549880231e+00
 1.1896947714e+00	 2.7288868497e-01	 3.0307172796e+00
 1.1871869068e+00	 2.8360036685e-01	 3.0053632077e+00
 1.1845758219e+00	 2.9431627674e-01	 2.9786615815e+00
 1.1818610753e+00	 3.0503502553e-01	 2.9503457050e+00
 1.1790422484e+00	 3.1575520933e-01	 2.9201503744e+00
 1.2112948458e+00	 2.1029239036e-01	 3.1976448587e+00
 1.2093820709e+00	 2.2102745477e-01	 3.1727698174e+00
 1.2073684589e+00	 2.3177483681e-01	 3.1478992579e+00
 1.2052534359e+00	 2.4253323513e-01	 3.1228368895e+00
 1.2030364485e+00	 2.5330133120e-01	 3.0973671542e+00
 1.2007169636e+00	 2.6407778961e-01	 3.0712572620e+00
 1.1982944697e+00	 2.7486125843e-01	 3.0442595761e+00
 1.1957684769e+00	 2.8565036961e-01	 3.0161143646e+00
 1.1931385178e+00	 2.9644373936e-01	 2.9865529356e+00
 1.1904041477e+00	 3.0723996853e-01	 2.9553011704e+00
 1.1875649450e+00	 3.1803764309e-01	 2.9220834678e+00
 1.2199878427e+00	 2.1180157791e-01	 3.2262252461e+00
 1.2180613405e+00	 2.2261368374e-01	 3.1990832012e+00
 1.2160332776e+00	 2.3343819560e-01	 3.1718540792e+00
 1.2139030760e+00	 2.4427380281e-01	 3.1443503883e+00
 1.2116701780e+00	 2.5511917736e-01	 3.1163626306e+00
 1.2093340471e+00	 2.6597297426e-01	 3.0876612493e+00
 1.2068941679e+00	 2.7683383189e-01	 3.0579989364e+00
 1.2043500471e+00	 2.8770037237e-01	 3.0271133202e+00
 1.2017012138e+00	 2.9857120198e-01	 2.9947300492e+00
 1.1989472201e+00	 3.0944491153e-01	 2.9605662879e+00
 1.1960876415e+00	 3.2032007684e-01	 2.9243346407e+00
 1.2286808396e+00	 2.1331076545e-01	 3.2542120613e+00
 1.2267406102e+00	 2.2419991271e-01	 3.2249137894e+00
 1.2246980963e+00	 2.3510155439e-01	 3.1954315881e+00
 1.2225527160e+00	 2.4601437049e-01	 3.1655860642e+00
 1.2203039076e+00	 2.5693702352e-01	 3.1351729977e+00
 1.2179511306e+00	 2.6786815891e-01	 3.1039651951e+00
 1.2154938661e+00	 2.7880640535e-01	 3.0717147156e+00
 1.2129316172e+00	 2.8975037513e-01	 3.0381554898e+00
 1.2102639097e+00	 3.0069866460e-01	 3.0030063477e+00
 1.2074902925e+00	 3.1164985453e-01	 2.9659744744e+00
 1.2046103380e+00	 3.2260251060e-01	 2.9267593089e+00
 1.2373738365e+00	 2.1481995300e-01	 3.2813373295e+00
 1.2354198798e+00	 2.2578614168e-01	 3.2499989035e+00
 1.2333629151e+00	 2.3676491319e-01	 3.2183760774e+00
 1.2312023560e+00	 2.4775493816e-01	 3.1862969094e+00
 1.2289376372e+00	 2.5875486968e-01	 3.1535617246e+00
 1.2265682141e+00	 2.6976334357e-01	 3.1199448699e+00
 1.2240935643e+00	 2.8077897881e-01	 3.0851968540e+00
 1.2215131873e+00	 2.9180037789e-01	 3.0490468913e+00
 1.2188266056e+00	 3.0282612722e-01	 3.0112058708e+00
 1.2160333649e+00	 3.1385479753e-01	 2.9713697675e+00
 1.2131330346e+00	 3.2488494435e-01	 2.9292235125e+00
 1.2460668334e+00	 2.1632914054e-01	 3.3073429987e+00
 1.2440991495e+00	 2.2737237065e-01	 3.2740858577e+00
 1.2420277338e+00	 2.3842827199e-01	 3.2404418913e+00
 1.2398519961e+00	 2.4949550584e-01	 3.2062460152e+00
 1.2375713667e+00	 2.6057271584e-01	 3.1713024183e+00
 1.2351852976e+00	 2.7165852822e-01	 3.1353862132e+00
 1.2326932625e+00	 2.8275155227e-01	 3.0982454843e+00
 1.2300947574e+00	 2.9385038065e-01	 3.0596037528e+00
 1.2273893016e+00	 3.0495358983e-01	 3.0191628817e+00
 1.2245764373e+00	 3.1605974053e-01	 2.9766064376e+00
 1.2216557311e+00	 3.2716737810e-01	 2.9316035295e+00
 1.1364287657e+00	 3.0434304055e-01	 2.9211114634e+00
 1.1336111194e+00	 3.1467578686e-01	 2.9044672568e+00
 1.1306924180e+00	 3.2500716977e-01	 2.8873504316e+00
 1.1276723292e+00	 3.3533579683e-01	 2.8689817133e+00
 1.1245505449e+00	 3.4566026314e-01	 2.8486201235e+00
 1.1213267811e+00	 3.5597915182e-01	 2.8255697270e+00
 1.1180007791e+00	 3.6629103455e-01	 2.7991867458e+00
 1.1145723051e+00	 3.7659447202e-01	 2.7693897580e+00
 1.1110411513e+00	 3.8688801453e-01	 2.7379580839e+00
 1.1074071358e+00	 3.9717020246e-01	 2.7069567425e+00
 1.1036701029e+00	 4.0743956688e-01	 2.6781782858e+00
 1.1449514623e+00	 3.0662547430e-01	 2.9188849620e+00
 1.1421126848e+00	 3.1703571149e-01	 2.8996266306e+00
 1.1391720945e+00	 3.2744457506e-01	 2.8801125301e+00
 1.1361293565e+00	 3.3785066210e-01	 2.8595533424e+00
 1.1329841602e+00	 3.4825255719e-01	 2.8371960921e+00
 1.1297362197e+00	 3.5864883283e-01	 2.8123309819e+00
 1.1263852741e+00	 3.6903804996e-01	 2.7842986124e+00
 1.1229310882e+00	 3.7941875851e-01	 2.7535500753e+00
 1.1193734524e+00	 3.8978949788e-01	 2.7216124447e+00
 1.1157121833e+00	 4.0014879752e-01	 2.6886154415e+00
 1.1119471245e+00	 4.1049517748e-01	 2.6546954428e+00
 1.1534741588e+00	 3.0890790806e-01	 2.9178732156e+00
 1.1506142503e+00	 3.1939563612e-01	 2.8958764362e+00
 1.1476517711e+00	 3.2988198034e-01	 2.8738170665e+00
 1.1445863837e+00	 3.4036552737e-01	 2.8508881992e+00
 1.1414177755e+00	 3.5084485124e-01	 2.8263172922e+00
 1.1381456582e+00	 3.6131851383e-01	 2.7993731027e+00
 1.1347697692e+00	 3.7178506537e-01	 2.7693954900e+00
 1.1312898713e+00	 3.8224304499e-01	 2.7374791783e+00
 1.1277057534e+00	 3.9269098123e-01	 2.7045963720e+00
 1.1240172309e+00	 4.0312739258e-01	 2.6708672492e+00
 1.1202241460e+00	 4.1355078809e-01	 2.6364411942e+00
 1.1619968554e+00	 3.1119034182e-01	 2.9178722811e+00
 1.1591158158e+00	 3.2175556076e-01	 2.8930379610e+00
 1.1561314476e+00	 3.3231938563e-01	 2.8683149674e+00
 1.1530434110e+00	 3.4288039264e-01	 2.8428714005e+00
 1.1498513908e+00	 3.5343714529e-01	 2.8159077197e+00
 1.1465550968e+00	 3.6398819483e-01	 2.7866637854e+00
 1.1431542643e+00	 3.7453208078e-01	 2.7546219274e+00
 1.1396486543e+00	 3.8506733148e-01	 2.7212333193e+00
 1.1360380544e+00	 3.9559246458e-01	 2.6870208940e+00
 1.1323222785e+00	 4.0610598765e-01	 2.6521105657e+00
 1.1285011675e+00	 4.1660639869e-01	 2.6166580064e+00
 1.1705195519e+00	 3.1347277557e-01	 2.9186909660e+00
 1.1676173813e+00	 3.2411548539e-01	 2.8909451827e+00
 1.1646111242e+00	 3.3475679091e-01	 2.8634697122e+00
 1.1615004383e+00	 3.4539525791e-01	 2.8354003989e+00
 1.1582850061e+00	 3.5602943934e-01	 2.8059034064e+00
 1.1549645353e+00	 3.6665787583e-01	 2.7741823750e+00
 1.1515387593e+00	 3.7727909619e-01	 2.7400145442e+00
 1.1480074374e+00	 3.8789161796e-01	 2.7048768326e+00
 1.1443703554e+00	 3.9849394793e-01	 2.6690046333e+00
 1.1406273260e+00	 4.0908458271e-01	 2.6325227147e+00
 1.1367781891e+00	 4.1966200929e-01	 2.5955863888e+00
 1.1790422484e+00	 3.1575520933e-01	 2.9201503744e+00
 1.1761189468e+00	 3.2647541002e-01	 2.8894443223e+00
 1.1730908007e+00	 3.3719419620e-01	 2.8591568979e+00
 1.1699574655e+00	 3.4791012318e-01	 2.8283845630e+00
 1.1667186214e+00	 3.5862173339e-01	 2.7962520191e+00
 1.1633739739e+00	 3.6932755683e-01	 2.7619194886e+00
 1.1599232544e+00	 3.8002611160e-01	 2.7255963829e+00
 1.1563662205e+00	 3.9071590445e-01	 2.6884818419e+00
 1.1527026565e+00	 4.0139543128e-01	 2.6506729931e+00
 1.1489323736e+00	 4.1206317777e-01	 2.6122866419e+00
 1.1450552106e+00	 4.2271761990e-01	 2.5734711600e+00
 1.1875649450e+00	 3.1803764309e-01	 2.9220834678e+00
 1.1846205122e+00	 3.2883533466e-01	 2.8883934123e+00
 1.1815704773e+00	 3.3963160148e-01	 2.8552638176e+00
 1.1784144928e+00	 3.5042498845e-01	 2.8217447702e+00
 1.1751522367e+00	 3.6121402744e-01	 2.7869124710e+00
 1.1717834124e+00	 3.7199723783e-01	 2.7499003448e+00
 1.1683077494e+00	 3.8277312701e-01	 2.7113988326e+00
 1.1647250035e+00	 3.9354019093e-01	 2.6721279758e+00
 1.1610349575e+00	 4.0429691463e-01	 2.6321578992e+00
 1.1572374212e+00	 4.1504177283e-01	 2.5915906872e+00
 1.1533322321e+00	 4.2577323050e-01	 2.5505612539e+00
 1.1960876415e+00	 3.2032007684e-01	 2.9243346407e+00
 1.1931220777e+00	 3.3119525929e-01	 2.8876618784e+00
 1.1900501538e+00	 3.4206900677e-01	 2.8516890528e+00
 1.1868715201e+00	 3.5293985372e-01	 2.8154130127e+00
 1.1835858520e+00	 3.6380632149e-01	 2.7778545455e+00
 1.1801928510e+00	 3.7466691883e-01	 2.7382279263e+00
 1.1766922445e+00	 3.8552014242e-01	 2.6974613315e+00
 1.1730837866e+00	 3.9636447741e-01	 2.6559020917e+00
 1.1693672585e+00	 4.0719839798e-01	 2.6135975477e+00
 1.1655424687e+00	 4.1802036789e-01	 2.5706283608e+00
 1.1616092537e+00	 4.2882884110e-01	 2.5271095283e+00
 1.2046103380e+00	 3.2260251060e-01	 2.9267593089e+00
 1.2016236432e+00	 3.3355518392e-01	 2.8871301347e+00
 1.1985298304e+00	 3.4450641205e-01	 2.8483420772e+00
 1.1953285473e+00	 3.5545471899e-01	 2.8093320145e+00
 1.1920194673e+00	 3.6639861554e-01	 2.7690585297e+00
 1.1886022895e+00	 3.7733659983e-01	 2.7269176980e+00
 1.1850767395e+00	 3.8826715783e-01	 2.6838310776e+00
 1.1814425697e+00	 3.9918876390e-01	 2.6398980061e+00
 1.1776995595e+00	 4.1009988133e-01	 2.5951361595e+00
 1.1738475163e+00	 4.2099896296e-01	 2.5495981242e+00
 1.1698862752e+00	 4.3188445171e-01	 2.5033725757e+00
 1.2131330346e+00	 3.2488494435e-01	 2.9292235125e+00
 1.2101252087e+00	 3.3591510855e-01	 2.8866891912e+00
 1.2070095069e+00	 3.4694381733e-01	 2.8451428744e+00
 1.2037855746e+00	 3.5796958425e-01	 2.8034548610e+00
 1.2004530826e+00	 3.6899090959e-01	 2.7605148598e+00
 1.1970117281e+00	 3.8000628083e-01	 2.7159821118e+00
 1.1934612346e+00	 3.9101417324e-01	 2.6705627481e+00
 1.1898013527e+00	 4.0201305038e-01	 2.6242162330e+00
 1.1860318606e+00	 4.1300136468e-01	 2.5769237396e+00
 1.1821525639e+00	 4.2397755802e-01	 2.5287031744e+00
 1.1781632967e+00	 4.3494006231e-01	 2.4796105354e+00
 1.2216557311e+00	 3.2716737810e-01	 2.9316035295e+00
 1.2186267741e+00	 3.3827503318e-01	 2.8862402739e+00
 1.2154891835e+00	 3.4938122261e-01	 2.8420215651e+00
 1.2122426019e+00	 3.6048444952e-01	 2.7977446385e+00
 1.2088866979e+00	 3.7158320363e-01	 2.7522324915e+00
 1.2054211666e+00	 3.8267596183e-01	 2.7054414671e+00
 1.2018457296e+00	 3.9376118865e-01	 2.6577182269e+00
 1.1981601358e+00	 4.0483733686e-01	 2.6089637285e+00
 1.1943641616e+00	 4.1590284802e-01	 2.5591158425e+00
 1.1904576115e+00	 4.2695615308e-01	 2.5081512322e+00
 1.1864403182e+00	 4.3799567291e-01	 2.4560869092e+00
 1.1036701029e+00	 4.0743956688e-01	 2.6781782858e+00
 1.0998292624e+00	 4.1769637217e-01	 2.6504109879e+00
 1.0958851383e+00	 4.2793738427e-01	 2.6224158881e+00
 1.0918376557e+00	 4.3816110842e-01	 2.5942705158e+00
 1.0876867674e+00	 4.4836604289e-01	 2.5660278822e+00
 1.0834324540e+00	 4.5855067955e-01	 2.5377147140e+00
 1.0790747247e+00	 4.6871350451e-01	 2.5093299019e+00
 1.0746136171e+00	 4.7885299878e-01	 2.4808431790e+00
 1.0700491977e+00	 4.8896763889e-01	 2.4521940454e+00
 1.0653815619e+00	 4.9905589759e-01	 2.4232909509e+00
 1.0606108344e+00	 5.0911624449e-01	 2.3940107485e+00
 1.1119471245e+00	 4.1049517748e-01	 2.6546954428e+00
 1.1080774793e+00	 4.2082890413e-01	 2.6198336021e+00
 1.1041037761e+00	 4.3114671914e-01	 2.5853063961e+00
 1.1000259393e+00	 4.4144711655e-01	 2.5512391144e+00
 1.0958439212e+00	 4.5172858337e-01	 2.5176427083e+00
 1.0915577024e+00	 4.6198960015e-01	 2.4845010401e+00
 1.0871672922e+00	 4.7222864165e-01	 2.4517693288e+00
 1.0826727283e+00	 4.8244417749e-01	 2.4193728368e+00
 1.0780740778e+00	 4.9263467278e-01	 2.3872058144e+00
 1.0733714369e+00	 5.0279858882e-01	 2.3551307144e+00
 1.0685649311e+00	 5.1293438373e-01	 2.3229776911e+00
 1.1202241460e+00	 4.1355078809e-01	 2.6364411942e+00
 1.1163256963e+00	 4.2396143609e-01	 2.6002703923e+00
 1.1123224140e+00	 4.3435605401e-01	 2.5612138288e+00
 1.1082142229e+00	 4.4473312468e-01	 2.5202671939e+00
 1.1040010750e+00	 4.5509112384e-01	 2.4802055377e+00
 1.0996829508e+00	 4.6542852075e-01	 2.4411638726e+00
 1.0952598596e+00	 4.7574377880e-01	 2.4030729367e+00
 1.0907318395e+00	 4.8603535621e-01	 2.3658323087e+00
 1.0860989579e+00	 4.9630170668e-01	 2.3293093398e+00
 1.0813613118e+00	 5.0654128004e-01	 2.2933383700e+00
 1.0765190278e+00	 5.1675252296e-01	 2.2577202408e+00
 1.1285011675e+00	 4.1660639869e-01	 2.6166580064e+00
 1.1245739133e+00	 4.2709396805e-01	 2.5797236634e+00
 1.1205410518e+00	 4.3756538888e-01	 2.5402370451e+00
 1.1164025065e+00	 4.4801913281e-01	 2.4981918424e+00
 1.1121582288e+00	 4.5845366432e-01	 2.4536217897e+00
 1.1078081992e+00	 4.6886744135e-01	 2.4077395439e+00
 1.1033524270e+00	 4.7925891594e-01	 2.3632786444e+00
 1.0987909506e+00	 4.8962653493e-01	 2.3202521555e+00
 1.0941238380e+00	 4.9996874058e-01	 2.2785185136e+00
 1.0893511868e+00	 5.1028397127e-01	 2.2379014636e+00
 1.0844731245e+00	 5.2057066219e-01	 2.1981895564e+00
 1.1367781891e+00	 4.1966200929e-01	 2.5955863888e+00
 1.1328221303e+00	 4.3022650000e-01	 2.5573743475e+00
 1.1287596897e+00	 4.4077472375e-01	 2.5169120900e+00
 1.1245907900e+00	 4.5130514094e-01	 2.4741607525e+00
 1.1203153826e+00	 4.6181620480e-01	 2.4291232988e+00
 1.1159334476e+00	 4.7230636194e-01	 2.3818442264e+00
 1.1114449944e+00	 4.8277405308e-01	 2.3324089300e+00
 1.1068500618e+00	 4.9321771364e-01	 2.2826591671e+00
 1.1021487181e+00	 5.0363577447e-01	 2.2348439961e+00
 1.0973410618e+00	 5.1402666250e-01	 2.1888051699e+00
 1.0924272212e+00	 5.2438880143e-01	 2.1443356167e+00
 1.1450552106e+00	 4.2271761990e-01	 2.5734711600e+00
 1.1410703473e+00	 4.3335903196e-01	 2.5335279122e+00
 1.1369783275e+00	 4.4398405862e-01	 2.4915979415e+00
 1.1327790736e+00	 4.5459114907e-01	 2.4476258363e+00
 1.1284725364e+00	 4.6517874528e-01	 2.4015996908e+00
 1.1240586961e+00	 4.7574528254e-01	 2.3535508723e+00
 1.1195375619e+00	 4.8628919022e-01	 2.3035534272e+00
 1.1149091730e+00	 4.9680889236e-01	 2.2517231143e+00
 1.1101735982e+00	 5.0730280837e-01	 2.1982932502e+00
 1.1053309367e+00	 5.1776935373e-01	 2.1460323019e+00
 1.1003813179e+00	 5.2820694066e-01	 2.0961071959e+00
 1.1533322321e+00	 4.2577323050e-01	 2.5505612539e+00
 1.1493185642e+00	 4.3649156392e-01	 2.5084926690e+00
 1.1451969654e+00	 4.4719339349e-01	 2.4646553238e+00
 1.1409673572e+00	 4.5787715720e-01	 2.4189928434e+00
 1.1366296903e+00	 4.6854128575e-01	 2.3714939379e+00
 1.1321839445e+00	 4.7918420314e-01	 2.3221922096e+00
 1.1276301293e+00	 4.8980432737e-01	 2.2711655795e+00
 1.1229682841e+00	 5.0040007108e-01	 2.2185353206e+00
 1.1181984783e+00	 5.1096984227e-01	 2.1644646882e+00
 1.1133208117e+00	 5.2151204496e-01	 2.1091571400e+00
 1.1083354146e+00	 5.3202507990e-01	 2.0534518377e+00
 1.1616092537e+00	 4.2882884110e-01	 2.5271095283e+00
 1.1575667812e+00	 4.3962409588e-01	 2.4825796114e+00
 1.1534156033e+00	 4.5040272836e-01	 2.4364465684e+00
 1.1491556408e+00	 4.6116316533e-01	 2.3886682324e+00
 1.1447868441e+00	 4.7190382623e-01	 2.3392490104e+00
 1.1403091929e+00	 4.8262312374e-01	 2.2882397094e+00
 1.1357226967e+00	 4.9331946451e-01	 2.2357369608e+00
 1.1310273953e+00	 5.0399124980e-01	 2.1818822305e+00
 1.1262233584e+00	 5.1463687617e-01	 2.1268604048e+00
 1.1213106867e+00	 5.2525473618e-01	 2.0708979440e+00
 1.1162895113e+00	 5.3584321913e-01	 2.0142605997e+00
 1.1698862752e+00	 4.3188445171e-01	 2.5033725757e+00
 1.1658149982e+00	 4.4275662783e-01	 2.4561022537e+00
 1.1616342411e+00	 4.5361206322e-01	 2.4073354730e+00
 1.1573439244e+00	 4.6444917346e-01	 2.3570590426e+00
 1.1529439979e+00	 4.7526636670e-01	 2.3053077531e+00
 1.1484344413e+00	 4.8606204434e-01	 2.2521642000e+00
 1.1438152642e+00	 4.9683460165e-01	 2.1977581843e+00
 1.1390865064e+00	 5.0758242851e-01	 2.1422656769e+00
 1.1342482385e+00	 5.1830391006e-01	 2.0859073358e+00
 1.1293005616e+00	 5.2899742741e-01	 2.0289465687e+00
 1.1242436080e+00	 5.3966135836e-01	 1.9716871352e+00
 1.1781632967e+00	 4.3494006231e-01	 2.4796105354e+00
 1.1740632152e+00	 4.4588915979e-01	 2.4293764705e+00
 1.1698528790e+00	 4.5682139809e-01	 2.3776871601e+00
 1.1655322079e+00	 4.6773518159e-01	 2.3245727640e+00
 1.1611011517e+00	 4.7862890718e-01	 2.2701127582e+00
 1.1565596897e+00	 4.8950096493e-01	 2.2144357347e+00
 1.1519078316e+00	 5.0034973879e-01	 2.1577187568e+00
 1.1471456176e+00	 5.1117360723e-01	 2.1001862555e+00
 1.1422731186e+00	 5.2197094396e-01	 2.0421084546e+00
 1.1372904366e+00	 5.3274011864e-01	 1.9837993175e+00
 1.1321977046e+00	 5.4347949760e-01	 1.9256140092e+00
 1.1864403182e+00	 4.3799567291e-01	 2.4560869092e+00
 1.1823114322e+00	 4.4902169174e-01	 2.4027203359e+00
 1.1780715168e+00	 4.6003073296e-01	 2.3478679339e+00
 1.1737204915e+00	 4.7102118972e-01	 2.2916172045e+00
 1.1692583055e+00	 4.8199144765e-01	 2.2341062353e+00
 1.1646849381e+00	 4.9293988553e-01	 2.1755234562e+00
 1.1600003990e+00	 5.0386487593e-01	 2.1161069289e+00
 1.1552047288e+00	 5.1476478594e-01	 2.0561431522e+00
 1.1502979987e+00	 5.2563797785e-01	 1.9959653728e+00
 1.1452803116e+00	 5.3648280987e-01	 1.9359513916e+00
 1.1401518013e+00	 5.4729763683e-01	 1.8765208606e+00
 1.0606108344e+00	 5.0911624449e-01	 2.3940107485e+00
 1.0557380065e+00	 5.1914544421e-01	 2.3633257224e+00
 1.0507624590e+00	 5.2914367498e-01	 2.3304684947e+00
 1.0456844044e+00	 5.3910940138e-01	 2.2956626614e+00
 1.0405040854e+00	 5.4904108763e-01	 2.2590850831e+00
 1.0352217745e+00	 5.5893719829e-01	 2.2208659531e+00
 1.0298377741e+00	 5.6879619897e-01	 2.1810891951e+00
 1.0243524169e+00	 5.7861655706e-01	 2.1397931920e+00
 1.0187660660e+00	 5.8839674247e-01	 2.0969718485e+00
 1.0130791144e+00	 5.9813522833e-01	 2.0525759863e+00
 1.0072919856e+00	 6.0783049177e-01	 2.0065150707e+00
 1.0685649311e+00	 5.1293438373e-01	 2.3229776911e+00
 1.0636555592e+00	 5.2303879786e-01	 2.2894857261e+00
 1.0586426973e+00	 5.3311201079e-01	 2.2537111612e+00
 1.0535265597e+00	 5.4315247558e-01	 2.2159154183e+00
 1.0483073907e+00	 5.5315864495e-01	 2.1763105911e+00
 1.0429854648e+00	 5.6312897191e-01	 2.1350594733e+00
 1.0375610869e+00	 5.7306191059e-01	 2.0922759312e+00
 1.0320345921e+00	 5.8295591688e-01	 2.0480256228e+00
 1.0264063461e+00	 5.9280944921e-01	 2.0023270673e+00
 1.0206767449e+00	 6.0262096927e-01	 1.9551530630e+00
 1.0148462152e+00	 6.1238894276e-01	 1.9064324527e+00
 1.0765190278e+00	 5.1675252296e-01	 2.2577202408e+00
 1.0715731119e+00	 5.2693215151e-01	 2.2209511323e+00
 1.0665229357e+00	 5.3708034660e-01	 2.1818844965e+00
 1.0613687150e+00	 5.4719554979e-01	 2.1408111608e+00
 1.0561106960e+00	 5.5727620226e-01	 2.0979700194e+00
 1.0507491551e+00	 5.6732074554e-01	 2.0535480341e+00
 1.0452843996e+00	 5.7732762222e-01	 2.0076805943e+00
 1.0397167672e+00	 5.8729527671e-01	 1.9604522410e+00
 1.0340466261e+00	 5.9722215596e-01	 1.9118977568e+00
 1.0282743755e+00	 6.0710671021e-01	 1.8620036213e+00
 1.0224004449e+00	 6.1694739375e-01	 1.8107098303e+00
 1.0844731245e+00	 5.2057066219e-01	 2.1981895564e+00
 1.0794906646e+00	 5.3082550516e-01	 2.1576335218e+00
 1.0744031741e+00	 5.4104868241e-01	 2.1148645287e+00
 1.0692108703e+00	 5.5123862400e-01	 2.0701945884e+00
 1.0639140012e+00	 5.6139375958e-01	 2.0238811567e+00
 1.0585128455e+00	 5.7151251916e-01	 1.9761271177e+00
 1.0530077124e+00	 5.8159333384e-01	 1.9270811458e+00
 1.0473989423e+00	 5.9163463653e-01	 1.8768384469e+00
 1.0416869062e+00	 6.0163486271e-01	 1.8254418835e+00
 1.0358720060e+00	 6.1159245116e-01	 1.7728834820e+00
 1.0299546746e+00	 6.2150584473e-01	 1.7191063208e+00
 1.0924272212e+00	 5.2438880143e-01	 2.1443356167e+00
 1.0874082173e+00	 5.3471885881e-01	 2.0994446204e+00
 1.0822834125e+00	 5.4501701823e-01	 2.0525286784e+00
 1.0770530256e+00	 5.5528169821e-01	 2.0039129589e+00
 1.0717173065e+00	 5.6551131690e-01	 1.9538654269e+00
 1.0662765358e+00	 5.7570429279e-01	 1.9025968254e+00
 1.0607310252e+00	 5.8585904547e-01	 1.8502610500e+00
 1.0550811174e+00	 5.9597399636e-01	 1.7969559222e+00
 1.0493271862e+00	 6.0604756945e-01	 1.7427243626e+00
 1.0434696365e+00	 6.1607819210e-01	 1.6875559652e+00
 1.0375089043e+00	 6.2606429572e-01	 1.6313889693e+00
 1.1003813179e+00	 5.2820694066e-01	 2.0961071959e+00
 1.0953257700e+00	 5.3861221246e-01	 2.0462962350e+00
 1.0901636508e+00	 5.4898535404e-01	 1.9947556606e+00
 1.0848951808e+00	 5.5932477241e-01	 1.9418159583e+00
 1.0795206117e+00	 5.6962887421e-01	 1.8877477332e+00
 1.0740402261e+00	 5.7989606642e-01	 1.8327616986e+00
 1.0684543380e+00	 5.9012475710e-01	 1.7770090778e+00
 1.0627632926e+00	 6.0031335618e-01	 1.7205824209e+00
 1.0569674662e+00	 6.1046027620e-01	 1.6635168414e+00
 1.0510672670e+00	 6.2056393304e-01	 1.6057916711e+00
 1.0450631340e+00	 6.3062274671e-01	 1.5473325309e+00
 1.1083354146e+00	 5.3202507990e-01	 2.0534518377e+00
 1.1032433227e+00	 5.4250556611e-01	 1.9981001911e+00
 1.0980438892e+00	 5.5295368985e-01	 1.9414253883e+00
 1.0927373361e+00	 5.6336784662e-01	 1.8837555763e+00
 1.0873239170e+00	 5.7374643153e-01	 1.8253563073e+00
 1.0818039165e+00	 5.8408784004e-01	 1.7664305476e+00
 1.0761776508e+00	 5.9439046872e-01	 1.7071191181e+00
 1.0704454677e+00	 6.0465271601e-01	 1.6475015687e+00
 1.0646077463e+00	 6.1487298295e-01	 1.5875974912e+00
 1.0586648975e+00	 6.2504967398e-01	 1.5273682694e+00
 1.0526173637e+00	 6.3518119770e-01	 1.4667192639e+00
 1.1162895113e+00	 5.3584321913e-01	 2.0142605997e+00
 1.1111608755e+00	 5.4639891976e-01	 1.9547680523e+00
 1.1059241276e+00	 5.5692202566e-01	 1.8924188795e+00
 1.1005794914e+00	 5.6741092083e-01	 1.8295859845e+00
 1.0951272222e+00	 5.7786398885e-01	 1.7665225642e+00
 1.0895676068e+00	 5.8827961367e-01	 1.7034162860e+00
 1.0839009636e+00	 5.9865618035e-01	 1.6403899973e+00
 1.0781276428e+00	 6.0899207584e-01	 1.5775026712e+00
 1.0722480263e+00	 6.1928568970e-01	 1.5147508087e+00
 1.0662625280e+00	 6.2953541493e-01	 1.4520702988e+00
 1.0601715933e+00	 6.3973964869e-01	 1.3893387320e+00
 1.1242436080e+00	 5.3966135836e-01	 1.9716871352e+00
 1.1190784282e+00	 5.5029227341e-01	 1.9117605520e+00
 1.1138043659e+00	 5.6089036148e-01	 1.8471450660e+00
 1.1084216467e+00	 5.7145399504e-01	 1.7791634190e+00
 1.1029305275e+00	 5.8198154616e-01	 1.7110809619e+00
 1.0973312972e+00	 5.9247138729e-01	 1.6435357714e+00
 1.0916242764e+00	 6.0292189198e-01	 1.5766253048e+00
 1.0858098179e+00	 6.1333143566e-01	 1.5103805286e+00
 1.0798883064e+00	 6.2369839645e-01	 1.4447674248e+00
 1.0738601585e+00	 6.3402115587e-01	 1.3796889742e+00
 1.0677258230e+00	 6.4429809968e-01	 1.3149876142e+00
 1.1321977046e+00	 5.4347949760e-01	 1.9256140092e+00
 1.1269959809e+00	 5.5418562706e-01	 1.8650289469e+00
 1.1216846043e+00	 5.6485869729e-01	 1.7998050197e+00
 1.1162638020e+00	 5.7549706924e-01	 1.7307946179e+00
 1.1107338328e+00	 5.8609910348e-01	 1.6588688662e+00
 1.1050949875e+00	 5.9666316092e-01	 1.5866096528e+00
 1.0993475892e+00	 6.0718760360e-01	 1.5156332261e+00
 1.0934919930e+00	 6.1767079548e-01	 1.4459352591e+00
 1.0875285864e+00	 6.2811110319e-01	 1.3774439219e+00
 1.0814577890e+00	 6.3850689681e-01	 1.3100220029e+00
 1.0752800527e+00	 6.4885655067e-01	 1.2434695249e+00
 1.1401518013e+00	 5.4729763683e-01	 1.8765208606e+00
 1.1349135336e+00	 5.5807898070e-01	 1.8150337469e+00
 1.1295648427e+00	 5.6882703310e-01	 1.7490582292e+00
 1.1241059573e+00	 5.7954014345e-01	 1.6793997158e+00
 1.1185371380e+00	 5.9021666079e-01	 1.6068776527e+00
 1.1128586778e+00	 6.0085493454e-01	 1.5323195970e+00
 1.1070709020e+00	 6.1145331523e-01	 1.4572263817e+00
 1.1011741682e+00	 6.2201015531e-01	 1.3839721285e+00
 1.0951688665e+00	 6.3252380994e-01	 1.3125826587e+00
 1.0890554195e+00	 6.4299263775e-01	 1.2428734079e+00
 1.0828342824e+00	 6.5341500165e-01	 1.1745948396e+00
 1.0072919856e+00	 6.0783049177e-01	 2.0065150707e+00
 1.0014051333e+00	 6.1748101481e-01	 1.9591883646e+00
 9.9541904256e-01	 6.2708528571e-01	 1.9110933931e+00
 9.8933422885e-01	 6.3664179916e-01	 1.8622319848e+00
 9.8315123760e-01	 6.4614905681e-01	 1.8125745359e+00
 9.7687064424e-01	 6.5560556802e-01	 1.7620629805e+00
 9.7049305402e-01	 6.6500985064e-01	 1.7106140369e+00
 9.6401910192e-01	 6.7436043167e-01	 1.6581227138e+00
 9.5744945241e-01	 6.8365584808e-01	 1.6044660614e+00
 9.5078479937e-01	 6.9289464749e-01	 1.5495071479e+00
 9.4402586576e-01	 7.0207538890e-01	 1.4930992418e+00
 1.0148462152e+00	 6.1238894276e-01	 1.9064324527e+00
 1.0089152142e+00	 6.2211184031e-01	 1.8565712603e+00
 1.0028842306e+00	 6.3178813886e-01	 1.8060595182e+00
 9.9675378356e-01	 6.4141632179e-01	 1.7548924773e+00
 9.9052442270e-01	 6.5099487952e-01	 1.7030305076e+00
 9.8419672776e-01	 6.6052231025e-01	 1.6504021990e+00
 9.7777130853e-01	 6.6999712069e-01	 1.5969077525e+00
 9.7124880474e-01	 6.7941782681e-01	 1.5424226488e+00
 9.6462988587e-01	 6.8878295460e-01	 1.4868015745e+00
 9.5791525097e-01	 6.9809104078e-01	 1.4298825882e+00
 9.5110562845e-01	 7.0734063356e-01	 1.3714915057e+00
 1.0224004449e+00	 6.1694739375e-01	 1.8107098303e+00
 1.0164252952e+00	 6.2674266581e-01	 1.7584095365e+00
 1.0103494186e+00	 6.3649099200e-01	 1.7055686478e+00
 1.0041733383e+00	 6.4619084442e-01	 1.6521721214e+00
 9.9789760780e-01	 6.5584070224e-01	 1.5981665215e+00
 9.9152281128e-01	 6.6543905249e-01	 1.5434632595e+00
 9.8504956304e-01	 6.7498439075e-01	 1.4879421426e+00
 9.7847850757e-01	 6.8447522195e-01	 1.4314552136e+00
 9.7181031933e-01	 6.9391006112e-01	 1.3738308656e+00
 9.6504570257e-01	 7.0328743407e-01	 1.3148782088e+00
 9.5818539114e-01	 7.1260587821e-01	 1.2543916713e+00
 1.0299546746e+00	 6.2150584473e-01	 1.7191063208e+00
 1.0239353762e+00	 6.3137349132e-01	 1.6644692202e+00
 1.0178146067e+00	 6.4119384515e-01	 1.6093954258e+00
 1.0115928930e+00	 6.5096536705e-01	 1.5538559192e+00
 1.0052707929e+00	 6.6068652496e-01	 1.4977797078e+00
 9.9884889480e-01	 6.7035579472e-01	 1.4410572160e+00
 9.9232781755e-01	 6.7997166080e-01	 1.3835440006e+00
 9.8570821039e-01	 6.8953261710e-01	 1.3250647746e+00
 9.7899075278e-01	 6.9903716763e-01	 1.2654177203e+00
 9.7217615418e-01	 7.0848382736e-01	 1.2043790708e+00
 9.6526515383e-01	 7.1787112287e-01	 1.1417079379e+00
 1.0375089043e+00	 6.2606429572e-01	 1.6313889693e+00
 1.0314454572e+00	 6.3600431682e-01	 1.5745246223e+00
 1.0252797947e+00	 6.4589669830e-01	 1.5173231202e+00
 1.0190124477e+00	 6.5573988968e-01	 1.4597378167e+00
 1.0126439780e+00	 6.6553234768e-01	 1.4016764379e+00
 1.0061749783e+00	 6.7527253695e-01	 1.3430046345e+00
 9.9960607206e-01	 6.8495893086e-01	 1.2835498744e+00
 9.9293791322e-01	 6.9459001224e-01	 1.2231056624e+00
 9.8617118624e-01	 7.0416427415e-01	 1.1614360635e+00
 9.7930660578e-01	 7.1368022065e-01	 1.0982805115e+00
 9.7234491652e-01	 7.2313636753e-01	 1.0333588764e+00
 1.0450631340e+00	 6.3062274671e-01	 1.5473325309e+00
 1.0389555382e+00	 6.4063514232e-01	 1.4883581275e+00
 1.0327449827e+00	 6.5059955144e-01	 1.4291434200e+00
 1.0264320024e+00	 6.6051441231e-01	 1.3696205097e+00
 1.0200171631e+00	 6.7037817040e-01	 1.3096721406e+00
 1.0135010618e+00	 6.8018927919e-01	 1.2491354215e+00
 1.0068843266e+00	 6.8994620092e-01	 1.1878059084e+00
 1.0001676160e+00	 6.9964740738e-01	 1.1254420301e+00
 9.9335161969e-01	 7.0929138067e-01	 1.0617698353e+00
 9.8643705738e-01	 7.1887661395e-01	 9.9648803925e-01
 9.7942467921e-01	 7.2840161219e-01	 9.2927334542e-01
 1.0526173637e+00	 6.3518119770e-01	 1.4667192639e+00
 1.0464656191e+00	 6.4526596782e-01	 1.4057599927e+00
 1.0402101708e+00	 6.5530240459e-01	 1.3446562411e+00
 1.0338515571e+00	 6.6528893494e-01	 1.2833152593e+00
 1.0273903482e+00	 6.7522399312e-01	 1.2215911279e+00
 1.0208271454e+00	 6.8510602142e-01	 1.1592886623e+00
 1.0141625811e+00	 6.9493347097e-01	 1.0961676953e+00
 1.0073973189e+00	 7.0470480252e-01	 1.0319477203e+00
 1.0005320531e+00	 7.1441848719e-01	 9.6631287449e-01
 9.9356750898e-01	 7.2407300724e-01	 8.9891723647e-01
 9.8650444190e-01	 7.3366685685e-01	 8.2939041481e-01
 1.0601715933e+00	 6.3973964869e-01	 1.3893387320e+00
 1.0539757001e+00	 6.4989679333e-01	 1.3265281552e+00
 1.0476753588e+00	 6.6000525774e-01	 1.2636695428e+00
 1.0412711118e+00	 6.7006345757e-01	 1.2006417160e+00
 1.0347635333e+00	 6.8006981584e-01	 1.1372664296e+00
 1.0281532289e+00	 6.9002276365e-01	 1.0733124673e+00
 1.0214408356e+00	 6.9992074103e-01	 1.0085001362e+00
 1.0146270217e+00	 7.0976219767e-01	 9.4250614030e-01
 1.0077124866e+00	 7.1954559371e-01	 8.7496881090e-01
 1.0006979606e+00	 7.2926940053e-01	 8.0549366944e-01
 9.9358420459e-01	 7.3893210151e-01	 7.3365929562e-01
 1.0677258230e+00	 6.4429809968e-01	 1.3149876142e+00
 1.0614857811e+00	 6.5452761883e-01	 1.2504680496e+00
 1.0551405468e+00	 6.6470811088e-01	 1.1859991509e+00
 1.0486906665e+00	 6.7483798021e-01	 1.1214277532e+00
 1.0421367184e+00	 6.8491563856e-01	 1.0565396371e+00
 1.0354793124e+00	 6.9493950589e-01	 9.9106382707e-01
 1.0287190901e+00	 7.0490801109e-01	 9.2467730867e-01
 1.0218567245e+00	 7.1481959281e-01	 8.5701014427e-01
 1.0148929201e+00	 7.2467270023e-01	 7.8765096384e-01
 1.0078284122e+00	 7.3446579383e-01	 7.1615280532e-01
 1.0006639673e+00	 7.4419734617e-01	 6.4232104233e-01
 1.0752800527e+00	 6.4885655067e-01	 1.2434695249e+00
 1.0689958621e+00	 6.5915844433e-01	 1.1773924331e+00
 1.0626057349e+00	 6.6941096403e-01	 1.1114685914e+00
 1.0561102212e+00	 6.7961250284e-01	 1.0455093081e+00
 1.0495099035e+00	 6.8976146128e-01	 9.7926075411e-01
 1.0428053959e+00	 6.9985624812e-01	 9.1240847490e-01
 1.0359973446e+00	 7.0989528114e-01	 8.4458234215e-01
 1.0290864273e+00	 7.1987698795e-01	 7.7536192387e-01
 1.0220733535e+00	 7.2979980674e-01	 7.0428224837e-01
 1.0149588638e+00	 7.3966218712e-01	 6.3083993564e-01
 1.0077437300e+00	 7.4946259082e-01	 5.5621015943e-01
 1.0828342824e+00	 6.5341500165e-01	 1.1745948396e+00
 1.0765059431e+00	 6.6378926983e-01	 1.1071212180e+00
 1.0700709229e+00	 6.7411381717e-01	 1.0399089299e+00
 1.0635297760e+00	 6.8438702546e-01	 9.7273023082e-01
 1.0568830886e+00	 6.9460728400e-01	 9.0528805604e-01
 1.0501314794e+00	 7.0477299035e-01	 8.3722075741e-01
 1.0432755991e+00	 7.1488255120e-01	 7.6810730126e-01
 1.0363161302e+00	 7.2493438309e-01	 6.9747290511e-01
 1.0292537870e+00	 7.3492691326e-01	 6.2479508789e-01
 1.0220893154e+00	 7.4485858041e-01	 5.4986514181e-01
 1.0148234927e+00	 7.5472783548e-01	 4.7523894317e-01
 9.4402586576e-01	 7.0207538890e-01	 1.4930992418e+00
 9.3717223126e-01	 7.1119818816e-01	 1.4351818033e+00
 9.3022582114e-01	 7.2026005839e-01	 1.3753758757e+00
 9.2318744869e-01	 7.2925959118e-01	 1.3130228652e+00
 9.1605795531e-01	 7.3819539237e-01	 1.2474682041e+00
 9.0883821025e-01	 7.4706608275e-01	 1.1793849381e+00
 9.0152911022e-01	 7.5587029875e-01	 1.1118719753e+00
 8.9413157908e-01	 7.6460669316e-01	 1.0447786007e+00
 8.8664656745e-01	 7.7327393573e-01	 9.7775977673e-01
 8.7907505228e-01	 7.8187071391e-01	 9.1047633287e-01
 8.7141803647e-01	 7.9039573348e-01	 8.4259457804e-01
 9.5110562845e-01	 7.0734063356e-01	 1.3714915057e+00
 9.4420059482e-01	 7.1653184964e-01	 1.3115056633e+00
 9.3720208980e-01	 7.2566167976e-01	 1.2494927057e+00
 9.3011093277e-01	 7.3472870493e-01	 1.1847771481e+00
 9.2292797145e-01	 7.4373152055e-01	 1.1169740186e+00
 9.1565408160e-01	 7.5266873705e-01	 1.0491596792e+00
 9.0829016666e-01	 7.6153898066e-01	 9.8206619923e-01
 9.0083715742e-01	 7.7034089403e-01	 9.1534503588e-01
 8.9329601162e-01	 7.7907313695e-01	 8.4865481354e-01
 8.8566771354e-01	 7.8773438705e-01	 7.8166091751e-01
 8.7795327362e-01	 7.9632334037e-01	 7.1403504104e-01
 9.5818539114e-01	 7.1260587821e-01	 1.2543916713e+00
 9.5122895838e-01	 7.2186551113e-01	 1.1922022515e+00
 9.4417835846e-01	 7.3106330113e-01	 1.1278448313e+00
 9.3703441686e-01	 7.4019781868e-01	 1.0606302250e+00
 9.2979798759e-01	 7.4926764873e-01	 9.9212674430e-01
 9.2246995295e-01	 7.5827139136e-01	 9.2465329106e-01
 9.1505122310e-01	 7.6720766256e-01	 8.5786741500e-01
 9.0754273576e-01	 7.7607509490e-01	 7.9142734013e-01
 8.9994545579e-01	 7.8487233818e-01	 7.2499930476e-01
 8.9226037481e-01	 7.9359806018e-01	 6.5825708289e-01
 8.8448851077e-01	 8.0225094726e-01	 5.9088145580e-01
 9.6526515383e-01	 7.1787112287e-01	 1.1417079379e+00
 9.5825732195e-01	 7.2719917261e-01	 1.0772028858e+00
 9.5115462712e-01	 7.3646492250e-01	 1.0103846696e+00
 9.4395790094e-01	 7.4566693244e-01	 9.4127408906e-01
 9.3666800373e-01	 7.5480377691e-01	 8.7301049758e-01
 9.2928582430e-01	 7.6387404566e-01	 8.0575574464e-01
 9.2181227954e-01	 7.7287634446e-01	 7.3916954569e-01
 9.1424831410e-01	 7.8180929577e-01	 6.7292086935e-01
 9.0659489996e-01	 7.9067153941e-01	 6.0668743776e-01
 8.9885303607e-01	 7.9946173332e-01	 5.4015516597e-01
 8.9102374791e-01	 8.0817855415e-01	 4.7301754874e-01
 9.7234491652e-01	 7.2313636753e-01	 1.0333588764e+00
 9.6528568551e-01	 7.3253283410e-01	 9.6644936197e-01
 9.5813089578e-01	 7.4186654387e-01	 8.9711263811e-01
 9.5088138502e-01	 7.5113604620e-01	 8.2764815541e-01
 9.4353801987e-01	 7.6033990509e-01	 7.5950832145e-01
 9.3610169565e-01	 7.6947669997e-01	 6.9235628132e-01
 9.2857333598e-01	 7.7854502637e-01	 6.2586567013e-01
 9.2095389243e-01	 7.8754349664e-01	 5.5972009788e-01
 9.1324434413e-01	 7.9647074064e-01	 4.9361256138e-01
 9.0544569734e-01	 8.0532540646e-01	 4.2724479200e-01
 8.9755898506e-01	 8.1410616104e-01	 3.6032654840e-01
 9.7942467921e-01	 7.2840161219e-01	 9.2927334542e-01
 9.7231404907e-01	 7.3786649558e-01	 8.5989389018e-01
 9.6510716444e-01	 7.4726816524e-01	 7.8905818874e-01
 9.5780486910e-01	 7.5660515995e-01	 7.1963425020e-01
 9.5040803601e-01	 7.6587603327e-01	 6.5150249972e-01
 9.4291756700e-01	 7.7507935428e-01	 5.8434319349e-01
 9.3533439242e-01	 7.8421370827e-01	 5.1784779958e-01
 9.2765947077e-01	 7.9327769751e-01	 4.5171838828e-01
 9.1989378830e-01	 8.0226994187e-01	 3.8566694603e-01
 9.1203835861e-01	 8.1118907960e-01	 3.1941462210e-01
 9.0409422220e-01	 8.2003376793e-01	 2.5269091751e-01
 9.8650444190e-01	 7.3366685685e-01	 8.2939041481e-01
 9.7934241263e-01	 7.4320015707e-01	 7.5765774859e-01
 9.7208343310e-01	 7.5266978661e-01	 6.8659646255e-01
 9.6472835319e-01	 7.6207427371e-01	 6.1710572427e-01
 9.5727805215e-01	 7.7141216145e-01	 5.4887434487e-01
 9.4973343835e-01	 7.8068200858e-01	 4.8160361082e-01
 9.4209544886e-01	 7.8988239018e-01	 4.1500665967e-01
 9.3436504911e-01	 7.9901189838e-01	 3.4880776634e-01
 9.2654323247e-01	 8.0806914310e-01	 2.8274154934e-01
 9.1863101987e-01	 8.1705275274e-01	 2.1655210658e-01
 9.1062945935e-01	 8.2596137482e-01	 1.4999209124e-01
 9.9358420459e-01	 7.3893210151e-01	 7.3365929562e-01
 9.8637077619e-01	 7.4853381855e-01	 6.6075648626e-01
 9.7905970176e-01	 7.5807140798e-01	 5.8959017710e-01
 9.7165183727e-01	 7.6754338746e-01	 5.1993500650e-01
 9.6414806829e-01	 7.7694828963e-01	 4.5150399112e-01
 9.5654930970e-01	 7.8628466289e-01	 3.8402329132e-01
 9.4885650530e-01	 7.9555107208e-01	 3.1723147722e-01
 9.4107062744e-01	 8.0474609925e-01	 2.5087870125e-01
 9.3319267664e-01	 8.1386834433e-01	 1.8472578684e-01
 9.2522368114e-01	 8.2291642587e-01	 1.1854324385e-01
 9.1716469649e-01	 8.3188898171e-01	 5.2110221505e-02
 1.0006639673e+00	 7.4419734617e-01	 6.4232104233e-01
 9.9339913975e-01	 7.5386748004e-01	 5.6925264421e-01
 9.8603597042e-01	 7.6347302936e-01	 4.9790123949e-01
 9.7857532135e-01	 7.7301250122e-01	 4.2799340149e-01
 9.7101808443e-01	 7.8248441782e-01	 3.5927019228e-01
 9.6336518105e-01	 7.9188731720e-01	 2.9148641723e-01
 9.5561756174e-01	 8.0121975398e-01	 2.2440977180e-01
 9.4777620578e-01	 8.1048030012e-01	 1.5781989039e-01
 9.3984212081e-01	 8.1966754556e-01	 9.1507307825e-02
 9.3181634240e-01	 8.2878009901e-01	 2.5272344483e-02
 9.2369993364e-01	 8.3781658860e-01	-4.1076073215e-02
 1.0077437300e+00	 7.4946259082e-01	 5.5621015943e-01
 1.0004275033e+00	 7.5920114152e-01	 4.8299621260e-01
 9.9301223908e-01	 7.6887465073e-01	 4.1139054692e-01
 9.8549880543e-01	 7.7848161497e-01	 3.4115089218e-01
 9.7788810057e-01	 7.8802054600e-01	 2.7205012425e-01
 9.7018105241e-01	 7.9748997150e-01	 2.0387539538e-01
 9.6237861818e-01	 8.0688843589e-01	 1.3642715174e-01
 9.5448178412e-01	 8.1621450099e-01	 6.9518048803e-02
 9.4649156497e-01	 8.2546674679e-01	 2.9717757125e-03
 9.3840900366e-01	 8.3464377215e-01	-6.3378199654e-02
 9.3023517078e-01	 8.4374419549e-01	-1.2968995253e-01
 1.0148234927e+00	 7.5472783548e-01	 4.7523894317e-01
 1.0074558669e+00	 7.6453480300e-01	 4.0183633785e-01
 9.9998850774e-01	 7.7427627210e-01	 3.2991779213e-01
 9.9242228952e-01	 7.8395072873e-01	 2.5927594698e-01
 9.8475811671e-01	 7.9355667418e-01	 1.8971919204e-01
 9.7699692376e-01	 8.0309262581e-01	 1.2107066187e-01
 9.6913967462e-01	 8.1255711779e-01	 5.3167114405e-02
 9.6118736245e-01	 8.2194870185e-01	-1.4142297143e-02
 9.5314100914e-01	 8.3126594802e-01	-8.0997346963e-02
 9.4500166493e-01	 8.4050744529e-01	-1.4752814156e-01
 9.3677040792e-01	 8.4967180238e-01	-2.1385659381e-01
 8.7141803647e-01	 7.9039573348e-01	 8.4259457804e-01
 8.6367786918e-01	 7.9884629108e-01	 7.7323879859e-01
 8.5585429751e-01	 8.0722259840e-01	 7.0191842088e-01
 8.4794838516e-01	 8.1552343441e-01	 6.2892249420e-01
 8.3996121988e-01	 8.2374759889e-01	 5.5454748812e-01
 8.3189391300e-01	 8.3189391300e-01	 4.7909598028e-01
 8.2374759889e-01	 8.3996121988e-01	 4.0287534184e-01
 8.1552343441e-01	 8.4794838516e-01	 3.2619642967e-01
 8.0722259840e-01	 8.5585429751e-01	 2.4937229426e-01
 7.9884629108e-01	 8.6367786918e-01	 1.7271691237e-01
 7.9039573348e-01	 8.7141803647e-01	 9.6543952877e-02
 8.7795327362e-01	 7.9632334037e-01	 7.1403504104e-01
 8.7015505860e-01	 8.0483727329e-01	 6.4494815062e-01
 8.6227281372e-01	 8.1327639909e-01	 5.7396973505e-01
 8.5430761064e-01	 8.2163948758e-01	 5.0141437034e-01
 8.4626054528e-01	 8.2992532953e-01	 4.2760344789e-01
 8.3813273728e-01	 8.3813273728e-01	 3.5286375500e-01
 8.2992532953e-01	 8.4626054528e-01	 2.7752605459e-01
 8.2163948758e-01	 8.5430761064e-01	 2.0192367384e-01
 8.1327639909e-01	 8.6227281372e-01	 1.2639111148e-01
 8.0483727329e-01	 8.7015505860e-01	 5.1262672829e-02
 7.9632334037e-01	 8.7795327362e-01	-2.3128857979e-02
 8.8448851077e-01	 8.0225094726e-01	 5.9088145580e-01
 8.7663224803e-01	 8.1082825550e-01	 5.2208241235e-01
 8.6869132994e-01	 8.1933019978e-01	 4.5147505226e-01
 8.6066683613e-01	 8.2775554074e-01	 3.7939295807e-01
 8.5255987067e-01	 8.3610306017e-01	 3.0617602745e-01
 8.4437156156e-01	 8.4437156156e-01	 2.3216895159e-01
 8.3610306017e-01	 8.5255987067e-01	 1.5771969448e-01
 8.2775554074e-01	 8.6066683613e-01	 8.3177983265e-02
 8.1933019978e-01	 8.6869132994e-01	 8.8938197014e-03
 8.1082825550e-01	 8.7663224803e-01	-6.4783977217e-02
 8.0225094726e-01	 8.8448851077e-01	-1.3750918797e-01
 8.9102374791e-01	 8.0817855415e-01	 4.7301754874e-01
 8.8310943746e-01	 8.1681923771e-01	 4.0451838968e-01
 8.7510984615e-01	 8.2538400047e-01	 3.3430654518e-01
 8.6702606161e-01	 8.3387159391e-01	 2.6272823096e-01
 8.5885919606e-01	 8.4228079082e-01	 1.9013557987e-01
 8.5061038584e-01	 8.5061038584e-01	 1.1688502344e-01
 8.4228079082e-01	 8.5885919606e-01	 4.3335675704e-02
 8.3387159391e-01	 8.6702606161e-01	-3.0152269899e-02
 8.2538400047e-01	 8.7510984615e-01	-1.0321911993e-01
 8.1681923771e-01	 8.8310943746e-01	-1.7550722618e-01
 8.0817855415e-01	 8.9102374791e-01	-2.4666248656e-01
 8.9755898506e-01	 8.1410616104e-01	 3.6032654840e-01
 8.8958662689e-01	 8.2281021992e-01	 2.9213262102e-01
 8.8152836237e-01	 8.3143780115e-01	 2.2233629139e-01
 8.7338528709e-01	 8.3998764708e-01	 1.5129017836e-01
 8.6515852146e-01	 8.4845852146e-01	 7.9352520184e-02
 8.5684921011e-01	 8.5684921011e-01	 6.8854641366e-03
 8.4845852146e-01	 8.6515852146e-01	-6.5746640366e-02
 8.3998764708e-01	 8.7338528709e-01	-1.3817893361e-01
 8.3143780115e-01	 8.8152836237e-01	-2.1004771128e-01
 8.2281021992e-01	 8.8958662689e-01	-2.8099205295e-01
 8.1410616104e-01	 8.9755898506e-01	-3.5065540281e-01
 9.0409422220e-01	 8.2003376793e-01	 2.5269091751e-01
 8.9606381631e-01	 8.2880120213e-01	 1.8480109352e-01
 8.8794687858e-01	 8.3749160184e-01	 1.1543597599e-01
 8.7974451258e-01	 8.4610370024e-01	 4.4948497035e-02
 8.7145784685e-01	 8.5463625210e-01	-2.6302991277e-02
 8.6308803439e-01	 8.6308803439e-01	-9.7956514724e-02
 8.5463625210e-01	 8.7145784685e-01	-1.6964826985e-01
 8.4610370024e-01	 8.7974451258e-01	-2.4101440012e-01
 8.3749160184e-01	 8.8794687858e-01	-3.1169274349e-01
 8.2880120213e-01	 8.9606381631e-01	-3.8132453994e-01
 8.2003376793e-01	 9.0409422220e-01	-4.4955608767e-01
 9.1062945935e-01	 8.2596137482e-01	 1.4999209124e-01
 9.0254100574e-01	 8.3479218434e-01	 8.2398965911e-02
 8.9436539479e-01	 8.4354540253e-01	 1.3476601328e-02
 8.8610373806e-01	 8.5221975341e-01	-5.6427709771e-02
 8.7775717224e-01	 8.6081398275e-01	-1.2696135803e-01
 8.6932685867e-01	 8.6932685867e-01	-1.9776829815e-01
 8.6081398275e-01	 8.7775717224e-01	-2.6849092360e-01
 8.5221975341e-01	 8.8610373806e-01	-3.3877192278e-01
 8.4354540253e-01	 8.9436539479e-01	-4.0825610435e-01
 8.3479218434e-01	 9.0254100574e-01	-4.7659217963e-01
 8.2596137482e-01	 9.1062945935e-01	-5.4343449039e-01
 9.1716469649e-01	 8.3188898171e-01	 5.2110221505e-02
 9.0901819517e-01	 8.4078316656e-01	-1.5199702183e-02
 9.0078391101e-01	 8.4959920322e-01	-8.3671796449e-02
 8.9246296354e-01	 8.5833580657e-01	-1.5297022634e-01
 8.8405649763e-01	 8.6699171339e-01	-2.2275384943e-01
 8.7556568294e-01	 8.7556568294e-01	-2.9267817517e-01
 8.6699171339e-01	 8.8405649763e-01	-3.6239731731e-01
 8.5833580657e-01	 8.9246296354e-01	-4.3156592600e-01
 8.4959920322e-01	 9.0078391101e-01	-4.9984108701e-01
 8.4078316656e-01	 9.0901819517e-01	-5.6688417508e-01
 8.3188898171e-01	 9.1716469649e-01	-6.3236264938e-01
 9.2369993364e-01	 8.3781658860e-01	-4.1076073215e-02
 9.1549538459e-01	 8.4677414877e-01	-1.0812221488e-01
 9.0720242722e-01	 8.5565300391e-01	-1.7614042451e-01
 8.9882218902e-01	 8.6445185974e-01	-2.4481201179e-01
 8.9035582303e-01	 8.7316944403e-01	-3.1381289586e-01
 8.8180450722e-01	 8.8180450722e-01	-3.8281563940e-01
 8.7316944403e-01	 8.9035582303e-01	-4.5149147481e-01
 8.6445185974e-01	 8.9882218902e-01	-5.1951230858e-01
 8.5565300391e-01	 9.0720242722e-01	-5.8655269051e-01
 8.4677414877e-01	 9.1549538459e-01	-6.5229173446e-01
 8.3781658860e-01	 9.2369993364e-01	-7.1641497782e-01
 9.3023517078e-01	 8.4374419549e-01	-1.2968995253e-01
 9.2197257402e-01	 8.5276513098e-01	-1.9649749892e-01
 9.1362094343e-01	 8.6170680460e-01	-2.6406200432e-01
 9.0518141451e-01	 8.7056791291e-01	-3.3208748104e-01
 8.9665514842e-01	 8.7934717467e-01	-4.0027237743e-01
 8.8804333150e-01	 8.8804333150e-01	-4.6831168308e-01
 8.7934717467e-01	 8.9665514842e-01	-5.3589902501e-01
 8.7056791291e-01	 9.0518141451e-01	-6.0272874079e-01
 8.6170680460e-01	 9.1362094343e-01	-6.6849791425e-01
 8.5276513098e-01	 9.2197257402e-01	-7.3290836015e-01
 8.4374419549e-01	 9.3023517078e-01	-7.9566854431e-01
 9.3677040792e-01	 8.4967180238e-01	-2.1385659381e-01
 9.2844976344e-01	 8.5875611319e-01	-2.8045635695e-01
 9.2003945964e-01	 8.6776060528e-01	-3.4757103680e-01
 9.1154063999e-01	 8.7668396607e-01	-4.1493277976e-01
 9.0295447381e-01	 8.8552490531e-01	-4.8226790659e-01
 8.9428215577e-01	 8.9428215577e-01	-5.4929908500e-01
 8.8552490531e-01	 9.0295447381e-01	-6.1574749266e-01
 8.7668396607e-01	 9.1154063999e-01	-6.8133495552e-01
 8.6776060528e-01	 9.2003945964e-01	-7.4578604686e-01
 8.5875611319e-01	 9.2844976344e-01	-8.0883013255e-01
 8.4967180238e-01	 9.3677040792e-01	-8.7020334864e-01
 7.9039573348e-01	 8.7141803647e-01	 9.6543952877e-02
 7.8187071391e-01	 8.7907505228e-01	 1.9602652204e-02
 7.7327393573e-01	 8.8664656745e-01	-5.9540034891e-02
 7.6460669316e-01	 8.9413157908e-01	-1.4087922200e-01
 7.5587029875e-01	 9.0152911022e-01	-2.2440488083e-01
 7.4706608275e-01	 9.0883821025e-01	-3.1010247447e-01
 7.3819539237e-01	 9.1605795531e-01	-3.9779954244e-01
 7.2925959118e-01	 9.2318744869e-01	-4.8484123016e-01
 7.2026005839e-01	 9.3022582114e-01	-5.7048091521e-01
 7.1119818816e-01	 9.3717223126e-01	-6.5499808708e-01
 7.0207538890e-01	 9.4402586576e-01	-7.3867530449e-01
 7.9632334037e-01	 8.7795327362e-01	-2.3128857979e-02
 7.8773438705e-01	 8.8566771354e-01	-9.7939907949e-02
 7.7907313695e-01	 8.9329601162e-01	-1.7452742712e-01
 7.7034089403e-01	 9.0083715742e-01	-2.5289533652e-01
 7.6153898066e-01	 9.0829016666e-01	-3.3304320949e-01
 7.5266873705e-01	 9.1565408160e-01	-4.1496693860e-01
 7.4373152055e-01	 9.2292797145e-01	-4.9865933440e-01
 7.3472870493e-01	 9.3011093277e-01	-5.8328174811e-01
 7.2566167976e-01	 9.3720208980e-01	-6.6624147878e-01
 7.1653184964e-01	 9.4420059482e-01	-7.4762454023e-01
 7.0734063356e-01	 9.5110562845e-01	-8.2774004544e-01
 8.0225094726e-01	 8.8448851077e-01	-1.3750918797e-01
 7.9359806018e-01	 8.9226037481e-01	-2.1034266671e-01
 7.8487233818e-01	 8.9994545579e-01	-2.8455878918e-01
 7.7607509490e-01	 9.0754273576e-01	-3.6016809631e-01
 7.6720766256e-01	 9.1505122310e-01	-4.3717762158e-01
 7.5827139136e-01	 9.2246995295e-01	-5.1559159674e-01
 7.4926764873e-01	 9.2979798759e-01	-5.9541208393e-01
 7.4019781868e-01	 9.3703441686e-01	-6.7663362215e-01
 7.3106330113e-01	 9.4417835846e-01	-7.5723387625e-01
 7.2186551113e-01	 9.5122895838e-01	-8.3581626892e-01
 7.1260587821e-01	 9.5818539114e-01	-9.1271558046e-01
 8.0817855415e-01	 8.9102374791e-01	-2.4666248656e-01
 7.9946173332e-01	 8.9885303607e-01	-3.1765055246e-01
 7.9067153941e-01	 9.0659489996e-01	-3.8965847475e-01
 7.8180929577e-01	 9.1424831410e-01	-4.6270127581e-01
 7.7287634446e-01	 9.2181227954e-01	-5.3679135811e-01
 7.6387404566e-01	 9.2928582430e-01	-6.1193925381e-01
 7.5480377691e-01	 9.3666800373e-01	-6.8815429526e-01
 7.4566693244e-01	 9.4395790094e-01	-7.6544520062e-01
 7.3646492250e-01	 9.5115462712e-01	-8.4343449385e-01
 7.2719917261e-01	 9.5825732195e-01	-9.1952615638e-01
 7.1787112287e-01	 9.6526515383e-01	-9.9353171098e-01
 8.1410616104e-01	 8.9755898506e-01	-3.5065540281e-01
 8.0532540646e-01	 9.0544569734e-01	-4.1991013865e-01
 7.9647074064e-01	 9.1324434413e-01	-4.8985291345e-01
 7.8754349664e-01	 9.2095389243e-01	-5.6050113991e-01
 7.7854502637e-01	 9.2857333598e-01	-6.3187054685e-01
 7.6947669997e-01	 9.3610169565e-01	-7.0397597789e-01
 7.6033990509e-01	 9.4353801987e-01	-7.7683210530e-01
 7.5113604620e-01	 9.5088138502e-01	-8.5045405270e-01
 7.4186654387e-01	 9.5813089578e-01	-9.2485792106e-01
 7.3253283410e-01	 9.6528568551e-01	-9.9871697313e-01
 7.2313636753e-01	 9.7234491652e-01	-1.0701279442e+00
 8.2003376793e-01	 9.0409422220e-01	-4.4955608767e-01
 8.1118907960e-01	 9.1203835861e-01	-5.1716993339e-01
 8.0226994187e-01	 9.1989378830e-01	-5.8517088778e-01
 7.9327769751e-01	 9.2765947077e-01	-6.5357670822e-01
 7.8421370827e-01	 9.3533439242e-01	-7.2240445398e-01
 7.7507935428e-01	 9.4291756700e-01	-7.9167133929e-01
 7.6587603327e-01	 9.5040803601e-01	-8.6139549549e-01
 7.5660515995e-01	 9.5780486910e-01	-9.3159663552e-01
 7.4726816524e-01	 9.6510716444e-01	-1.0022966150e+00
 7.3786649558e-01	 9.7231404907e-01	-1.0733617593e+00
 7.2840161219e-01	 9.7942467921e-01	-1.1424538513e+00
 8.2596137482e-01	 9.1062945935e-01	-5.4343449039e-01
 8.1705275274e-01	 9.1863101987e-01	-6.0948066392e-01
 8.0806914310e-01	 9.2654323247e-01	-6.7564380563e-01
 7.9901189838e-01	 9.3436504911e-01	-7.4194001557e-01
 7.8988239018e-01	 9.4209544886e-01	-8.0838573260e-01
 7.8068200858e-01	 9.4973343835e-01	-8.7499864718e-01
 7.7141216145e-01	 9.5727805215e-01	-9.4179851669e-01
 7.6207427371e-01	 9.6472835319e-01	-1.0088078765e+00
 7.5266978661e-01	 9.7208343310e-01	-1.0760526406e+00
 7.4320015707e-01	 9.7934241263e-01	-1.1435625862e+00
 7.3366685685e-01	 9.8650444190e-01	-1.2104694267e+00
 8.3188898171e-01	 9.1716469649e-01	-6.3236264938e-01
 8.2291642587e-01	 9.2522368114e-01	-6.9689555624e-01
 8.1386834433e-01	 9.3319267664e-01	-7.6130596849e-01
 8.0474609925e-01	 9.4107062744e-01	-8.2560636888e-01
 7.9555107208e-01	 9.4885650530e-01	-8.8981066838e-01
 7.8628466289e-01	 9.5654930970e-01	-9.5393518398e-01
 7.7694828963e-01	 9.6414806829e-01	-1.0179995124e+00
 7.6754338746e-01	 9.7165183727e-01	-1.0820272924e+00
 7.5807140798e-01	 9.7905970176e-01	-1.1460468492e+00
 7.4853381855e-01	 9.8637077619e-01	-1.2100917156e+00
 7.3893210151e-01	 9.9358420459e-01	-1.2741454474e+00
 8.3781658860e-01	 9.2369993364e-01	-7.1641497782e-01
 8.2878009901e-01	 9.3181634240e-01	-7.7947061005e-01
 8.1966754556e-01	 9.3984212081e-01	-8.4219483579e-01
 8.1048030012e-01	 9.4777620578e-01	-9.0459460079e-01
 8.0121975398e-01	 9.5561756174e-01	-9.6667942233e-01
 7.9188731720e-01	 9.6336518105e-01	-1.0284624375e+00
 7.8248441782e-01	 9.7101808443e-01	-1.0899613403e+00
 7.7301250122e-01	 9.7857532135e-01	-1.1511992002e+00
 7.6347302936e-01	 9.8603597042e-01	-1.2122051546e+00
 7.5386748004e-01	 9.9339913975e-01	-1.2730149703e+00
 7.4419734617e-01	 1.0006639673e+00	-1.3336714683e+00
 8.4374419549e-01	 9.3023517078e-01	-7.9566854431e-01
 8.3464377215e-01	 9.3840900366e-01	-8.5726486933e-01
 8.2546674679e-01	 9.4649156497e-01	-9.1835128531e-01
 8.1621450099e-01	 9.5448178412e-01	-9.7892731990e-01
 8.0688843589e-01	 9.6237861818e-01	-1.0389962710e+00
 7.9748997150e-01	 9.7018105241e-01	-1.0985663311e+00
 7.8802054600e-01	 9.7788810057e-01	-1.1576515926e+00
 7.7848161497e-01	 9.8549880543e-01	-1.2162729276e+00
 7.6887465073e-01	 9.9301223908e-01	-1.2744587333e+00
 7.5920114152e-01	 1.0004275033e+00	-1.3322455375e+00
 7.4946259082e-01	 1.0077437300e+00	-1.3896784591e+00
 8.4967180238e-01	 9.3677040792e-01	-8.7020334864e-01
 8.4050744529e-01	 9.4500166493e-01	-9.3034068871e-01
 8.3126594802e-01	 9.5314100914e-01	-9.8981987001e-01
 8.2194870185e-01	 9.6118736245e-01	-1.0486311581e+00
 8.1255711779e-01	 9.6913967462e-01	-1.1067698443e+00
 8.0309262581e-01	 9.7699692376e-01	-1.1642374517e+00
 7.9355667418e-01	 9.8475811671e-01	-1.2210428143e+00
 7.8395072873e-01	 9.9242228952e-01	-1.2772030223e+00
 7.7427627210e-01	 9.9998850774e-01	-1.3327442251e+00
 7.6453480300e-01	 1.0074558669e+00	-1.3877022853e+00
 7.5472783548e-01	 1.0148234927e+00	-1.4421232786e+00
 7.0207538890e-01	 9.4402586576e-01	-7.3867530449e-01
 6.9289464749e-01	 9.5078479937e-01	-8.2211713498e-01
 6.8365584808e-01	 9.5744945241e-01	-9.0579707892e-01
 6.7436043167e-01	 9.6401910192e-01	-9.8975581484e-01
 6.6500985064e-01	 9.7049305402e-01	-1.0740277711e+00
 6.5560556802e-01	 9.7687064424e-01	-1.1586372028e+00
 6.4614905681e-01	 9.8315123760e-01	-1.2435944195e+00
 6.3664179916e-01	 9.8933422885e-01	-1.3288921868e+00
 6.2708528571e-01	 9.9541904256e-01	-1.4145023206e+00
 6.1748101481e-01	 1.0014051333e+00	-1.5003724937e+00
 6.0783049177e-01	 1.0072919856e+00	-1.5864232716e+00
 7.0734063356e-01	 9.5110562845e-01	-8.2774004544e-01
 6.9809104078e-01	 9.5791525097e-01	-9.0729058709e-01
 6.8878295460e-01	 9.6462988587e-01	-9.8684356126e-01
 6.7941782681e-01	 9.7124880474e-01	-1.0664612193e+00
 6.6999712069e-01	 9.7777130853e-01	-1.1461980480e+00
 6.6052231025e-01	 9.8419672776e-01	-1.2260966442e+00
 6.5099487952e-01	 9.9052442270e-01	-1.3061837485e+00
 6.4141632179e-01	 9.9675378356e-01	-1.3864664632e+00
 6.3178813886e-01	 1.0028842306e+00	-1.4669286739e+00
 6.2211184031e-01	 1.0089152142e+00	-1.5475276954e+00
 6.1238894276e-01	 1.0148462152e+00	-1.6281911591e+00
 7.1260587821e-01	 9.5818539114e-01	-9.1271558046e-01
 7.0328743407e-01	 9.6504570257e-01	-9.8871986557e-01
 6.9391006112e-01	 9.7181031933e-01	-1.0644789354e+00
 6.8447522195e-01	 9.7847850757e-01	-1.1400772264e+00
 6.7498439075e-01	 9.8504956304e-01	-1.2155899316e+00
 6.6543905249e-01	 9.9152281128e-01	-1.2910786631e+00
 6.5584070224e-01	 9.9789760780e-01	-1.3665872849e+00
 6.4619084442e-01	 1.0041733383e+00	-1.4421379382e+00
 6.3649099200e-01	 1.0103494186e+00	-1.5177272831e+00
 6.2674266581e-01	 1.0164252952e+00	-1.5933229755e+00
 6.1694739375e-01	 1.0224004449e+00	-1.6688603999e+00
 7.1787112287e-01	 9.6526515383e-01	-9.9353171098e-01
 7.0848382736e-01	 9.7217615418e-01	-1.0663126422e+00
 6.9903716763e-01	 9.7899075278e-01	-1.1385901971e+00
 6.8953261710e-01	 9.8570821039e-01	-1.2104716871e+00
 6.7997166080e-01	 9.9232781755e-01	-1.2820537342e+00
 6.7035579472e-01	 9.9884889480e-01	-1.3534177131e+00
 6.6068652496e-01	 1.0052707929e+00	-1.4246253731e+00
 6.5096536705e-01	 1.0115928930e+00	-1.4957146636e+00
 6.4119384515e-01	 1.0178146067e+00	-1.5666957871e+00
 6.3137349132e-01	 1.0239353762e+00	-1.6375474999e+00
 6.2150584473e-01	 1.0299546746e+00	-1.7082136825e+00
 7.2313636753e-01	 9.7234491652e-01	-1.0701279442e+00
 7.1368022065e-01	 9.7930660578e-01	-1.1399860786e+00
 7.0416427415e-01	 9.8617118624e-01	-1.2090735700e+00
 6.9459001224e-01	 9.9293791322e-01	-1.2775213742e+00
 6.8495893086e-01	 9.9960607206e-01	-1.3454483419e+00
 6.7527253695e-01	 1.0061749783e+00	-1.4129564313e+00
 6.6553234768e-01	 1.0126439780e+00	-1.4801261107e+00
 6.5573988968e-01	 1.0190124477e+00	-1.5470119752e+00
 6.4589669830e-01	 1.0252797947e+00	-1.6136386023e+00
 6.3600431682e-01	 1.0314454572e+00	-1.6799966694e+00
 6.2606429572e-01	 1.0375089043e+00	-1.7460393530e+00
 7.2840161219e-01	 9.7942467921e-01	-1.1424538513e+00
 7.1887661395e-01	 9.8643705738e-01	-1.2096671610e+00
 7.0929138067e-01	 9.9335161969e-01	-1.2758348195e+00
 6.9964740738e-01	 1.0001676160e+00	-1.3411122764e+00
 6.8994620092e-01	 1.0068843266e+00	-1.4056414888e+00
 6.8018927919e-01	 1.0135010618e+00	-1.4695458954e+00
 6.7037817040e-01	 1.0200171631e+00	-1.5329255899e+00
 6.6051441231e-01	 1.0264320024e+00	-1.5958527200e+00
 6.5059955144e-01	 1.0327449827e+00	-1.6583671376e+00
 6.4063514232e-01	 1.0389555382e+00	-1.7204723238e+00
 6.3062274671e-01	 1.0450631340e+00	-1.7821316101e+00
 7.3366685685e-01	 9.8650444190e-01	-1.2104694267e+00
 7.2407300724e-01	 9.9356750898e-01	-1.2752930375e+00
 7.1441848719e-01	 1.0005320531e+00	-1.3387895678e+00
 7.0470480252e-01	 1.0073973189e+00	-1.4011398927e+00
 6.9493347097e-01	 1.0141625811e+00	-1.4625100336e+00
 6.8510602142e-01	 1.0208271454e+00	-1.5230458833e+00
 6.7522399312e-01	 1.0273903482e+00	-1.5828681414e+00
 6.6528893494e-01	 1.0338515571e+00	-1.6420674865e+00
 6.5530240459e-01	 1.0402101708e+00	-1.7007000116e+00
 6.4526596782e-01	 1.0464656191e+00	-1.7587829484e+00
 6.3518119770e-01	 1.0526173637e+00	-1.8162907024e+00
 7.3893210151e-01	 9.9358420459e-01	-1.2741454474e+00
 7.2926940053e-01	 1.0006979606e+00	-1.3368113547e+00
 7.1954559371e-01	 1.0077124866e+00	-1.3978636105e+00
 7.0976219767e-01	 1.0146270217e+00	-1.4575095306e+00
 6.9992074103e-01	 1.0214408356e+00	-1.5159402390e+00
 6.9002276365e-01	 1.0281532289e+00	-1.5733251352e+00
 6.8006981584e-01	 1.0347635333e+00	-1.6298065814e+00
 6.7006345757e-01	 1.0412711118e+00	-1.6854948374e+00
 6.6000525774e-01	 1.0476753588e+00	-1.7404632733e+00
 6.4989679333e-01	 1.0539757001e+00	-1.7947438837e+00
 6.3973964869e-01	 1.0601715933e+00	-1.8483231280e+00
 7.4419734617e-01	 1.0006639673e+00	-1.3336714683e+00
 7.3446579383e-01	 1.0078284122e+00	-1.3941805965e+00
 7.2467270023e-01	 1.0148929201e+00	-1.4529932349e+00
 7.1481959281e-01	 1.0218567245e+00	-1.5101366041e+00
 7.0490801109e-01	 1.0287190901e+00	-1.5658280524e+00
 6.9493950589e-01	 1.0354793124e+00	-1.6202616187e+00
 6.8491563856e-01	 1.0421367184e+00	-1.6736024609e+00
 6.7483798021e-01	 1.0486906665e+00	-1.7259815452e+00
 6.6470811088e-01	 1.0551405468e+00	-1.7774906251e+00
 6.5452761883e-01	 1.0614857811e+00	-1.8281775369e+00
 6.4429809968e-01	 1.0677258230e+00	-1.8780418375e+00
 7.4946259082e-01	 1.0077437300e+00	-1.3896784591e+00
 7.3966218712e-01	 1.0149588638e+00	-1.4473704242e+00
 7.2979980674e-01	 1.0220733535e+00	-1.5041255393e+00
 7.1987698795e-01	 1.0290864273e+00	-1.5589469350e+00
 7.0989528114e-01	 1.0359973446e+00	-1.6120793894e+00
 6.9985624812e-01	 1.0428053959e+00	-1.6637427948e+00
 6.8976146128e-01	 1.0495099035e+00	-1.7141263175e+00
 6.7961250284e-01	 1.0561102212e+00	-1.7633828302e+00
 6.6941096403e-01	 1.0626057349e+00	-1.8116236482e+00
 6.5915844433e-01	 1.0689958621e+00	-1.8589135973e+00
 6.4885655067e-01	 1.0752800527e+00	-1.9052664387e+00
 7.5472783548e-01	 1.0148234927e+00	-1.4421232786e+00
 7.4485858041e-01	 1.0220893154e+00	-1.4966199373e+00
 7.3492691326e-01	 1.0292537870e+00	-1.5512187537e+00
 7.2493438309e-01	 1.0363161302e+00	-1.6038770548e+00
 7.1488255120e-01	 1.0432755991e+00	-1.6546104182e+00
 7.0477299035e-01	 1.0501314794e+00	-1.7036658873e+00
 6.9460728400e-01	 1.0568830886e+00	-1.7512579292e+00
 6.8438702546e-01	 1.0635297760e+00	-1.7975626006e+00
 6.7411381717e-01	 1.0700709229e+00	-1.8427120309e+00
 6.6378926983e-01	 1.0765059431e+00	-1.8867892525e+00
 6.5341500165e-01	 1.0828342824e+00	-1.9298234041e+00
 6.0783049177e-01	 1.0072919856e+00	-1.5864232716e+00
 5.9813522833e-01	 1.0130791144e+00	-1.6723320743e+00
 5.8839674247e-01	 1.0187660660e+00	-1.7578649755e+00
 5.7861655706e-01	 1.0243524169e+00	-1.8430264568e+00
 5.6879619897e-01	 1.0298377741e+00	-1.9277832125e+00
 5.5893719829e-01	 1.0352217745e+00	-2.0120622934e+00
 5.4904108763e-01	 1.0405040854e+00	-2.0957495534e+00
 5.3910940138e-01	 1.0456844044e+00	-2.1786884070e+00
 5.2914367498e-01	 1.0507624590e+00	-2.2606788996e+00
 5.1914544421e-01	 1.0557380065e+00	-2.3414770935e+00
 5.0911624449e-01	 1.0606108344e+00	-2.4207947700e+00
 6.1238894276e-01	 1.0148462152e+00	-1.6281911591e+00
 6.0262096927e-01	 1.0206767449e+00	-1.7086025425e+00
 5.9280944921e-01	 1.0264063461e+00	-1.7885395466e+00
 5.8295591688e-01	 1.0320345921e+00	-1.8680180938e+00
 5.7306191059e-01	 1.0375610869e+00	-1.9470136094e+00
 5.6312897191e-01	 1.0429854648e+00	-2.0254590662e+00
 5.5315864495e-01	 1.0483073907e+00	-2.1032433478e+00
 5.4315247558e-01	 1.0535265597e+00	-2.1802099380e+00
 5.3311201079e-01	 1.0586426973e+00	-2.2561559404e+00
 5.2303879786e-01	 1.0636555592e+00	-2.3308314288e+00
 5.1293438373e-01	 1.0685649311e+00	-2.4039391309e+00
 6.1694739375e-01	 1.0224004449e+00	-1.6688603999e+00
 6.0710671021e-01	 1.0282743755e+00	-1.7440365120e+00
 5.9722215596e-01	 1.0340466261e+00	-1.8186538082e+00
 5.8729527671e-01	 1.0397167672e+00	-1.8927490308e+00
 5.7732762222e-01	 1.0452843996e+00	-1.9663158119e+00
 5.6732074554e-01	 1.0507491551e+00	-2.0393025993e+00
 5.5727620226e-01	 1.0561106960e+00	-2.1116109183e+00
 5.4719554979e-01	 1.0613687150e+00	-2.1830939763e+00
 5.3708034660e-01	 1.0665229357e+00	-2.2535556125e+00
 5.2693215151e-01	 1.0715731119e+00	-2.3227495981e+00
 5.1675252296e-01	 1.0765190278e+00	-2.3903792840e+00
 6.2150584473e-01	 1.0299546746e+00	-1.7082136825e+00
 6.1159245116e-01	 1.0358720060e+00	-1.7784141673e+00
 6.0163486271e-01	 1.0416869062e+00	-1.8479912586e+00
 5.9163463653e-01	 1.0473989423e+00	-1.9170117450e+00
 5.8159333384e-01	 1.0530077124e+00	-1.9854967814e+00
 5.7151251916e-01	 1.0585128455e+00	-2.0534196778e+00
 5.6139375958e-01	 1.0639140012e+00	-2.1207040418e+00
 5.5123862400e-01	 1.0692108703e+00	-2.1872222787e+00
 5.4104868241e-01	 1.0744031741e+00	-2.2527944571e+00
 5.3082550516e-01	 1.0794906646e+00	-2.3171875391e+00
 5.2057066219e-01	 1.0844731245e+00	-2.3801149787e+00
 6.2606429572e-01	 1.0375089043e+00	-1.7460393530e+00
 6.1607819210e-01	 1.0434696365e+00	-1.8115206840e+00
 6.0604756945e-01	 1.0493271862e+00	-1.8763395801e+00
 5.9597399636e-01	 1.0550811174e+00	-1.9406019566e+00
 5.8585904547e-01	 1.0607310252e+00	-2.0043656549e+00
 5.7570429279e-01	 1.0662765358e+00	-2.0676380759e+00
 5.6551131690e-01	 1.0717173065e+00	-2.1303741836e+00
 5.5528169821e-01	 1.0770530256e+00	-2.1924748853e+00
 5.4501701823e-01	 1.0822834125e+00	-2.2537857933e+00
 5.3471885881e-01	 1.0874082173e+00	-2.3140963709e+00
 5.2438880143e-01	 1.0924272212e+00	-2.3731394639e+00
 6.3062274671e-01	 1.0450631340e+00	-1.7821316101e+00
 6.2056393304e-01	 1.0510672670e+00	-1.8431464182e+00
 6.1046027620e-01	 1.0569674662e+00	-1.9034908284e+00
 6.0031335618e-01	 1.0627632926e+00	-1.9633188239e+00
 5.9012475710e-01	 1.0684543380e+00	-2.0227339508e+00
 5.7989606642e-01	 1.0740402261e+00	-2.0817867771e+00
 5.6962887421e-01	 1.0795206117e+00	-2.1404727396e+00
 5.5932477241e-01	 1.0848951808e+00	-2.1987303858e+00
 5.4898535404e-01	 1.0901636508e+00	-2.2564400153e+00
 5.3861221246e-01	 1.0953257700e+00	-2.3134227250e+00
 5.2820694066e-01	 1.1003813179e+00	-2.3694398575e+00
 6.3518119770e-01	 1.0526173637e+00	-1.8162907024e+00
 6.2504967398e-01	 1.0586648975e+00	-1.8730870977e+00
 6.1487298295e-01	 1.0646077463e+00	-1.9292416230e+00
 6.0465271601e-01	 1.0704454677e+00	-1.9849651385e+00
 5.9439046872e-01	 1.0761776508e+00	-2.0404157738e+00
 5.8408784004e-01	 1.0818039165e+00	-2.0956961948e+00
 5.7374643153e-01	 1.0873239170e+00	-2.1508512754e+00
 5.6336784662e-01	 1.0927373361e+00	-2.2058661832e+00
 5.5295368985e-01	 1.0980438892e+00	-2.2606648840e+00
 5.4250556611e-01	 1.1032433227e+00	-2.3151090691e+00
 5.3202507990e-01	 1.1083354146e+00	-2.3689975058e+00
 6.3973964869e-01	 1.0601715933e+00	-1.8483231280e+00
 6.2953541493e-01	 1.0662625280e+00	-1.9011440156e+00
 6.1928568970e-01	 1.0722480263e+00	-1.9533933409e+00
 6.0899207584e-01	 1.0781276428e+00	-2.0053475229e+00
 5.9865618035e-01	 1.0839009636e+00	-2.0572280215e+00
 5.8827961367e-01	 1.0895676068e+00	-2.1091983922e+00
 5.7786398885e-01	 1.0951272222e+00	-2.1613617646e+00
 5.6741092083e-01	 1.1005794914e+00	-2.2137587542e+00
 5.5692202566e-01	 1.1059241276e+00	-2.2663658132e+00
 5.4639891976e-01	 1.1111608755e+00	-2.3190938104e+00
 5.3584321913e-01	 1.1162895113e+00	-2.3697752166e+00
 6.4429809968e-01	 1.0677258230e+00	-1.8780418375e+00
 6.3402115587e-01	 1.0738601585e+00	-1.9271242275e+00
 6.2369839645e-01	 1.0798883064e+00	-1.9757523111e+00
 6.1333143566e-01	 1.0858098179e+00	-2.0242766288e+00
 6.0292189198e-01	 1.0916242764e+00	-2.0729905910e+00
 5.9247138729e-01	 1.0973312972e+00	-2.1221273013e+00
 5.8198154616e-01	 1.1029305275e+00	-2.1718568243e+00
 5.7145399504e-01	 1.1084216467e+00	-2.2222839057e+00
 5.6089036148e-01	 1.1138043659e+00	-2.2729910811e+00
 5.5029227341e-01	 1.1190784282e+00	-2.3210054580e+00
 5.3966135836e-01	 1.1242436080e+00	-2.3651845835e+00
 6.4885655067e-01	 1.0752800527e+00	-1.9052664387e+00
 6.3850689681e-01	 1.0814577890e+00	-1.9508407493e+00
 6.2811110319e-01	 1.0875285864e+00	-1.9961300119e+00
 6.1767079548e-01	 1.0934919930e+00	-2.0415673372e+00
 6.0718760360e-01	 1.0993475892e+00	-2.0875265858e+00
 5.9666316092e-01	 1.1050949875e+00	-2.1343189416e+00
 5.8609910348e-01	 1.1107338328e+00	-2.1821899501e+00
 5.7549706924e-01	 1.1162638020e+00	-2.2298524956e+00
 5.6485869729e-01	 1.1216846043e+00	-2.2750459091e+00
 5.5418562706e-01	 1.1269959809e+00	-2.3170924605e+00
 5.4347949760e-01	 1.1321977046e+00	-2.3553371833e+00
 6.5341500165e-01	 1.0828342824e+00	-1.9298234041e+00
 6.4299263775e-01	 1.0890554195e+00	-1.9721127580e+00
 6.3252380994e-01	 1.0951688665e+00	-2.0143432689e+00
 6.2201015531e-01	 1.1011741682e+00	-2.0570389586e+00
 6.1145331523e-01	 1.1070709020e+00	-2.1006625232e+00
 6.0085493454e-01	 1.1128586778e+00	-2.1454824803e+00
 5.9021666079e-01	 1.1185371380e+00	-2.1895941623e+00
 5.7954014345e-01	 1.1241059573e+00	-2.2317905672e+00
 5.6882703310e-01	 1.1295648427e+00	-2.2714694446e+00
 5.5807898070e-01	 1.1349135336e+00	-2.3080423100e+00
 5.4729763683e-01	 1.1401518013e+00	-2.3409387660e+00
 5.0911624449e-01	 1.0606108344e+00	-2.4207947700e+00
 4.9905589759e-01	 1.0653815619e+00	-2.4986191099e+00
 4.8896763889e-01	 1.0700491977e+00	-2.5752817457e+00
 4.7885299878e-01	 1.0746136171e+00	-2.6509902815e+00
 4.6871350451e-01	 1.0790747247e+00	-2.7259154213e+00
 4.5855067955e-01	 1.0834324540e+00	-2.8001911666e+00
 4.4836604289e-01	 1.0876867674e+00	-2.8739153033e+00
 4.3816110842e-01	 1.0918376557e+00	-2.9471501693e+00
 4.2793738427e-01	 1.0958851383e+00	-3.0199236928e+00
 4.1769637217e-01	 1.0998292624e+00	-3.0922306868e+00
 4.0743956688e-01	 1.1036701029e+00	-3.1640343887e+00
 5.1293438373e-01	 1.0685649311e+00	-2.4039391309e+00
 5.0279858882e-01	 1.0733714369e+00	-2.4756089492e+00
 4.9263467278e-01	 1.0780740778e+00	-2.5463617283e+00
 4.8244417749e-01	 1.0826727283e+00	-2.6164602932e+00
 4.7222864165e-01	 1.0871672922e+00	-2.6861305295e+00
 4.6198960015e-01	 1.0915577024e+00	-2.7555614901e+00
 4.5172858337e-01	 1.0958439212e+00	-2.8249058045e+00
 4.4144711655e-01	 1.1000259393e+00	-2.8942803817e+00
 4.3114671914e-01	 1.1041037761e+00	-2.9637673956e+00
 4.2082890413e-01	 1.1080774793e+00	-3.0334155401e+00
 4.1049517748e-01	 1.1119471245e+00	-3.1031517492e+00
 5.1675252296e-01	 1.0765190278e+00	-2.3903792840e+00
 5.0654128004e-01	 1.0813613118e+00	-2.4567566469e+00
 4.9630170668e-01	 1.0860989579e+00	-2.5226154420e+00
 4.8603535621e-01	 1.0907318395e+00	-2.5882596598e+00
 4.7574377880e-01	 1.0952598596e+00	-2.6539554901e+00
 4.6542852075e-01	 1.0996829508e+00	-2.7199313664e+00
 4.5509112384e-01	 1.1040010750e+00	-2.7863783280e+00
 4.4473312468e-01	 1.1082142229e+00	-2.8534506881e+00
 4.3435605401e-01	 1.1123224140e+00	-2.9210911293e+00
 4.2396143609e-01	 1.1163256963e+00	-2.9865764640e+00
 4.1355078809e-01	 1.1202241460e+00	-3.0489753809e+00
 5.2057066219e-01	 1.0844731245e+00	-2.3801149787e+00
 5.1028397127e-01	 1.0893511868e+00	-2.4420998144e+00
 4.9996874058e-01	 1.0941238380e+00	-2.5041023795e+00
 4.8962653493e-01	 1.0987909506e+00	-2.5664541005e+00
 4.7925891594e-01	 1.1033524270e+00	-2.6294469257e+00
 4.6886744135e-01	 1.1078081992e+00	-2.6933333357e+00
 4.5845366432e-01	 1.1121582288e+00	-2.7582051864e+00
 4.4801913281e-01	 1.1164025065e+00	-2.8214117295e+00
 4.3756538888e-01	 1.1205410518e+00	-2.8818281273e+00
 4.2709396805e-01	 1.1245739133e+00	-2.9395113882e+00
 4.1660639869e-01	 1.1285011675e+00	-2.9945538373e+00
 5.2438880143e-01	 1.0924272212e+00	-2.3731394639e+00
 5.1402666250e-01	 1.0973410618e+00	-2.4316680986e+00
 5.0363577447e-01	 1.1021487181e+00	-2.4908731151e+00
 4.9321771364e-01	 1.1068500618e+00	-2.5510999639e+00
 4.8277405308e-01	 1.1114449944e+00	-2.6126406616e+00
 4.7230636194e-01	 1.1159334476e+00	-2.6733678876e+00
 4.6181620480e-01	 1.1203153826e+00	-2.7315540156e+00
 4.5130514094e-01	 1.1245907900e+00	-2.7872276890e+00
 4.4077472375e-01	 1.1287596897e+00	-2.8404545720e+00
 4.3022650000e-01	 1.1328221303e+00	-2.8913373106e+00
 4.1966200929e-01	 1.1367781891e+00	-2.9400152158e+00
 5.2820694066e-01	 1.1003813179e+00	-2.3694398575e+00
 5.1776935373e-01	 1.1053309367e+00	-2.4254835824e+00
 5.0730280837e-01	 1.1101735982e+00	-2.4829697192e+00
 4.9680889236e-01	 1.1149091730e+00	-2.5408948242e+00
 4.8628919022e-01	 1.1195375619e+00	-2.5966451900e+00
 4.7574528254e-01	 1.1240586961e+00	-2.6501261067e+00
 4.6517874528e-01	 1.1284725364e+00	-2.7013571701e+00
 4.5459114907e-01	 1.1327790736e+00	-2.7503958948e+00
 4.4398405862e-01	 1.1369783275e+00	-2.7973379093e+00
 4.3335903196e-01	 1.1410703473e+00	-2.8423168479e+00
 4.2271761990e-01	 1.1450552106e+00	-2.8855039481e+00
 5.3202507990e-01	 1.1083354146e+00	-2.3689975058e+00
 5.2151204496e-01	 1.1133208117e+00	-2.4231595291e+00
 5.1096984227e-01	 1.1181984783e+00	-2.4760599391e+00
 5.0040007108e-01	 1.1229682841e+00	-2.5270321853e+00
 4.8980432737e-01	 1.1276301293e+00	-2.5760353001e+00
 4.7918420314e-01	 1.1321839445e+00	-2.6230655810e+00
 4.6854128575e-01	 1.1366296903e+00	-2.6681574232e+00
 4.5787715720e-01	 1.1409673572e+00	-2.7113838160e+00
 4.4719339349e-01	 1.1451969654e+00	-2.7528565102e+00
 4.3649156392e-01	 1.1493185642e+00	-2.7927258642e+00
 4.2577323050e-01	 1.1533322321e+00	-2.8311803813e+00
 5.3584321913e-01	 1.1162895113e+00	-2.3697752166e+00
 5.2525473618e-01	 1.1213106867e+00	-2.4175765255e+00
 5.1463687617e-01	 1.1262233584e+00	-2.4638363948e+00
 5.0399124980e-01	 1.1310273953e+00	-2.5084794759e+00
 4.9331946451e-01	 1.1357226967e+00	-2.5514666358e+00
 4.8262312374e-01	 1.1403091929e+00	-2.5927961792e+00
 4.7190382623e-01	 1.1447868441e+00	-2.6325047125e+00
 4.6116316533e-01	 1.1491556408e+00	-2.6706676537e+00
 4.5040272836e-01	 1.1534156033e+00	-2.7073993963e+00
 4.3962409588e-01	 1.1575667812e+00	-2.7428531347e+00
 4.2882884110e-01	 1.1616092537e+00	-2.7772203648e+00
 5.3966135836e-01	 1.1242436080e+00	-2.3651845835e+00
 5.2899742741e-01	 1.1293005616e+00	-2.4066539951e+00
 5.1830391006e-01	 1.1342482385e+00	-2.4469299706e+00
 5.0758242851e-01	 1.1390865064e+00	-2.4859280977e+00
 4.9683460165e-01	 1.1438152642e+00	-2.5235997819e+00
 4.8606204434e-01	 1.1484344413e+00	-2.5599335437e+00
 4.7526636670e-01	 1.1529439979e+00	-2.5949559392e+00
 4.6444917346e-01	 1.1573439244e+00	-2.6287321093e+00
 4.5361206322e-01	 1.1616342411e+00	-2.6613659635e+00
 4.4275662783e-01	 1.1658149982e+00	-2.6930000101e+00
 4.3188445171e-01	 1.1698862752e+00	-2.7238148424e+00
 5.4347949760e-01	 1.1321977046e+00	-2.3553371833e+00
 5.3274011864e-01	 1.1372904366e+00	-2.3911057567e+00
 5.2197094396e-01	 1.1422731186e+00	-2.4260525939e+00
 5.1117360723e-01	 1.1471456176e+00	-2.4600737196e+00
 5.0034973879e-01	 1.1519078316e+00	-2.4931000714e+00
 4.8950096493e-01	 1.1565596897e+00	-2.5250988977e+00
 4.7862890718e-01	 1.1611011517e+00	-2.5560747605e+00
 4.6773518159e-01	 1.1655322079e+00	-2.5860701480e+00
 4.5682139809e-01	 1.1698528790e+00	-2.6151657035e+00
 4.4588915979e-01	 1.1740632152e+00	-2.6434800825e+00
 4.3494006231e-01	 1.1781632967e+00	-2.6711694491e+00
 5.4729763683e-01	 1.1401518013e+00	-2.3409387660e+00
 5.3648280987e-01	 1.1452803116e+00	-2.3716497395e+00
 5.2563797785e-01	 1.1502979987e+00	-2.4019200947e+00
 5.1476478594e-01	 1.1552047288e+00	-2.4316160613e+00
 5.0386487593e-01	 1.1600003990e+00	-2.4606373831e+00
 4.9293988553e-01	 1.1646849381e+00	-2.4889188434e+00
 4.8199144765e-01	 1.1692583055e+00	-2.5164313744e+00
 4.7102118972e-01	 1.1737204915e+00	-2.5431827576e+00
 4.6003073296e-01	 1.1780715168e+00	-2.5692179220e+00
 4.4902169174e-01	 1.1823114322e+00	-2.5946188513e+00
 4.3799567291e-01	 1.1864403182e+00	-2.6195041131e+00
 4.0743956688e-01	 1.1036701029e+00	-3.1640343887e+00
 3.9717020246e-01	 1.1074071358e+00	-3.2367389985e+00
 3.8688801453e-01	 1.1110411513e+00	-3.3116572330e+00
 3.7659447202e-01	 1.1145723051e+00	-3.3868964131e+00
 3.6629103455e-01	 1.1180007791e+00	-3.4603074414e+00
 3.5597915182e-01	 1.1213267811e+00	-3.5301395023e+00
 3.4566026314e-01	 1.1245505449e+00	-3.5963222150e+00
 3.3533579683e-01	 1.1276723292e+00	-3.6593049492e+00
 3.2500716977e-01	 1.1306924180e+00	-3.7195906949e+00
 3.1467578686e-01	 1.1336111194e+00	-3.7777293039e+00
 3.0434304055e-01	 1.1364287657e+00	-3.8343110619e+00
 4.1049517748e-01	 1.1119471245e+00	-3.1031517492e+00
 4.0014879752e-01	 1.1157121833e+00	-3.1718336286e+00
 3.8978949788e-01	 1.1193734524e+00	-3.2395775190e+00
 3.7941875851e-01	 1.1229310882e+00	-3.3061982819e+00
 3.6903804996e-01	 1.1263852741e+00	-3.3715091596e+00
 3.5864883283e-01	 1.1297362197e+00	-3.4339645445e+00
 3.4825255719e-01	 1.1329841602e+00	-3.4929911443e+00
 3.3785066210e-01	 1.1361293565e+00	-3.5490682111e+00
 3.2744457506e-01	 1.1391720945e+00	-3.6027256907e+00
 3.1703571149e-01	 1.1421126848e+00	-3.6545373404e+00
 3.0662547430e-01	 1.1449514623e+00	-3.7051141979e+00
 4.1355078809e-01	 1.1202241460e+00	-3.0489753809e+00
 4.0312739258e-01	 1.1240172309e+00	-3.1095560062e+00
 3.9269098123e-01	 1.1277057534e+00	-3.1694451029e+00
 3.8224304499e-01	 1.1312898713e+00	-3.2284684190e+00
 3.7178506537e-01	 1.1347697692e+00	-3.2864699940e+00
 3.6131851383e-01	 1.1381456582e+00	-3.3424219307e+00
 3.5084485124e-01	 1.1414177755e+00	-3.3950945699e+00
 3.4036552737e-01	 1.1445863837e+00	-3.4449787247e+00
 3.2988198034e-01	 1.1476517711e+00	-3.4926357119e+00
 3.1939563612e-01	 1.1506142503e+00	-3.5386679863e+00
 3.0890790806e-01	 1.1534741588e+00	-3.5837124927e+00
 4.1660639869e-01	 1.1285011675e+00	-2.9945538373e+00
 4.0610598765e-01	 1.1323222785e+00	-3.0481042537e+00
 3.9559246458e-01	 1.1360380544e+00	-3.1011339194e+00
 3.8506733148e-01	 1.1396486543e+00	-3.1534812241e+00
 3.7453208078e-01	 1.1431542643e+00	-3.2050021492e+00
 3.6398819483e-01	 1.1465550968e+00	-3.2551174900e+00
 3.5343714529e-01	 1.1498513908e+00	-3.3021810913e+00
 3.4288039264e-01	 1.1530434110e+00	-3.3465406828e+00
 3.3231938563e-01	 1.1561314476e+00	-3.3887933099e+00
 3.2175556076e-01	 1.1591158158e+00	-3.4295748471e+00
 3.1119034182e-01	 1.1619968554e+00	-3.4695532183e+00
 4.1966200929e-01	 1.1367781891e+00	-2.9400152158e+00
 4.0908458271e-01	 1.1406273260e+00	-2.9874847556e+00
 3.9849394793e-01	 1.1443703554e+00	-3.0345404740e+00
 3.8789161796e-01	 1.1480074374e+00	-3.0810351629e+00
 3.7727909619e-01	 1.1515387593e+00	-3.1268391211e+00
 3.6665787583e-01	 1.1549645353e+00	-3.1716822343e+00
 3.5602943934e-01	 1.1582850061e+00	-3.2138248590e+00
 3.4539525791e-01	 1.1615004383e+00	-3.2532838853e+00
 3.3475679091e-01	 1.1646111242e+00	-3.2906963912e+00
 3.2411548539e-01	 1.1676173813e+00	-3.3267363252e+00
 3.1347277557e-01	 1.1705195519e+00	-3.3621075822e+00
 4.2271761990e-01	 1.1450552106e+00	-2.8855039481e+00
 4.1206317777e-01	 1.1489323736e+00	-2.9277229670e+00
 4.0139543128e-01	 1.1527026565e+00	-2.9695827028e+00
 3.9071590445e-01	 1.1563662205e+00	-3.0109521189e+00
 3.8002611160e-01	 1.1599232544e+00	-3.0517182121e+00
 3.6932755683e-01	 1.1633739739e+00	-3.0917719458e+00
 3.5862173339e-01	 1.1667186214e+00	-3.1296251095e+00
 3.4791012318e-01	 1.1699574655e+00	-3.1647632361e+00
 3.3719419620e-01	 1.1730908007e+00	-3.1978676876e+00
 3.2647541002e-01	 1.1761189468e+00	-3.2296550767e+00
 3.1575520933e-01	 1.1790422484e+00	-3.2608701843e+00
 4.2577323050e-01	 1.1533322321e+00	-2.8311803813e+00
 4.1504177283e-01	 1.1572374212e+00	-2.8688629120e+00
 4.0429691463e-01	 1.1610349575e+00	-2.9061994015e+00
 3.9354019093e-01	 1.1647250035e+00	-2.9430767635e+00
 3.8277312701e-01	 1.1683077494e+00	-2.9794010806e+00
 3.7199723783e-01	 1.1717834124e+00	-3.0150965962e+00
 3.6121402744e-01	 1.1751522367e+00	-3.0492057259e+00
 3.5042498845e-01	 1.1784144928e+00	-3.0805582649e+00
 3.3963160148e-01	 1.1815704773e+00	-3.1098542531e+00
 3.2883533466e-01	 1.1846205122e+00	-3.1378574956e+00
 3.1803764309e-01	 1.1875649450e+00	-3.1653585002e+00
 4.2882884110e-01	 1.1616092537e+00	-2.7772203648e+00
 4.1802036789e-01	 1.1655424687e+00	-2.8109666934e+00
 4.0719839798e-01	 1.1693672585e+00	-2.8443496677e+00
 3.9636447741e-01	 1.1730837866e+00	-2.8772759425e+00
 3.8552014242e-01	 1.1766922445e+00	-2.9096730835e+00
 3.7466691883e-01	 1.1801928510e+00	-2.9414884061e+00
 3.6380632149e-01	 1.1835858520e+00	-2.9722148219e+00
 3.5293985372e-01	 1.1868715201e+00	-3.0002726748e+00
 3.4206900677e-01	 1.1900501538e+00	-3.0262269865e+00
 3.3119525929e-01	 1.1931220777e+00	-3.0508932235e+00
 3.2032007684e-01	 1.1960876415e+00	-3.0751123896e+00
 4.3188445171e-01	 1.1698862752e+00	-2.7238148424e+00
 4.2099896296e-01	 1.1738475163e+00	-2.7541140106e+00
 4.1009988133e-01	 1.1776995595e+00	-2.7840123563e+00
 3.9918876390e-01	 1.1814425697e+00	-2.8134380789e+00
 3.8826715783e-01	 1.1850767395e+00	-2.8423426369e+00
 3.7733659983e-01	 1.1886022895e+00	-2.8706994144e+00
 3.6639861554e-01	 1.1920194673e+00	-2.8983243477e+00
 3.5545471899e-01	 1.1953285473e+00	-2.9235339130e+00
 3.4450641205e-01	 1.1985298304e+00	-2.9465801783e+00
 3.3355518392e-01	 1.2016236432e+00	-2.9683346839e+00
 3.2260251060e-01	 1.2046103380e+00	-2.9896936296e+00
 4.3494006231e-01	 1.1781632967e+00	-2.6711694491e+00
 4.2397755802e-01	 1.1821525639e+00	-2.6984016871e+00
 4.1300136468e-01	 1.1860318606e+00	-2.7251855463e+00
 4.0201305038e-01	 1.1898013527e+00	-2.7514725908e+00
 3.9101417324e-01	 1.1934612346e+00	-2.7772405940e+00
 3.8000628083e-01	 1.1970117281e+00	-2.8024920187e+00
 3.6899090959e-01	 1.2004530826e+00	-2.8272297177e+00
 3.5796958425e-01	 1.2037855746e+00	-2.8499927642e+00
 3.4694381733e-01	 1.2070095069e+00	-2.8705310804e+00
 3.3591510855e-01	 1.2101252087e+00	-2.8897766392e+00
 3.2488494435e-01	 1.2131330346e+00	-2.9086854699e+00
 4.3799567291e-01	 1.1864403182e+00	-2.6195041131e+00
 4.2695615308e-01	 1.1904576115e+00	-2.6439432054e+00
 4.1590284802e-01	 1.1943641616e+00	-2.6678860206e+00
 4.0483733686e-01	 1.1981601358e+00	-2.6913093234e+00
 3.9376118865e-01	 1.2018457296e+00	-2.7142196411e+00
 3.8267596183e-01	 1.2054211666e+00	-2.7366515383e+00
 3.7158320363e-01	 1.2088866979e+00	-2.7586656331e+00
 3.6048444952e-01	 1.2122426019e+00	-2.7793229642e+00
 3.4938122261e-01	 1.2154891835e+00	-2.7977194975e+00
 3.3827503318e-01	 1.2186267741e+00	-2.8148357702e+00
 3.2716737810e-01	 1.2216557311e+00	-2.8316922104e+00
 3.0434304055e-01	 1.1364287657e+00	-3.8343110619e+00
 2.9401031052e-01	 1.1391457133e+00	-3.8892112435e+00
 2.8367896364e-01	 1.1417623423e+00	-3.9418929158e+00
 2.7335035306e-01	 1.1442790561e+00	-3.9923771208e+00
 2.6302581766e-01	 1.1466962804e+00	-4.0407114394e+00
 2.5270668167e-01	 1.1490144625e+00	-4.0869660283e+00
 2.4239425423e-01	 1.1512340711e+00	-4.1312299542e+00
 2.3208982905e-01	 1.1533555958e+00	-4.1736078169e+00
 2.2179468403e-01	 1.1553795464e+00	-4.2142166535e+00
 2.1151008095e-01	 1.1573064529e+00	-4.2531831158e+00
 2.0123726509e-01	 1.1591368644e+00	-4.2906409089e+00
 3.0662547430e-01	 1.1449514623e+00	-3.7051141979e+00
 2.9621525352e-01	 1.1476887857e+00	-3.7543479881e+00
 2.8580642626e-01	 1.1503250382e+00	-3.8017027994e+00
 2.7540035582e-01	 1.1528606263e+00	-3.8471933716e+00
 2.6499839113e-01	 1.1552959786e+00	-3.8908589784e+00
 2.5460186633e-01	 1.1576315460e+00	-3.9327594603e+00
 2.4421210040e-01	 1.1598678006e+00	-3.9729715686e+00
 2.3383039673e-01	 1.1620052358e+00	-4.0115856119e+00
 2.2345804283e-01	 1.1640443652e+00	-4.0487023977e+00
 2.1309630992e-01	 1.1659857226e+00	-4.0844304574e+00
 2.0274645264e-01	 1.1678298613e+00	-4.1188835457e+00
 3.0890790806e-01	 1.1534741588e+00	-3.5837124927e+00
 2.9842019653e-01	 1.1562318581e+00	-3.6276924610e+00
 2.8793388888e-01	 1.1588877341e+00	-3.6700861382e+00
 2.7745035858e-01	 1.1614421964e+00	-3.7109044194e+00
 2.6697096459e-01	 1.1638956768e+00	-3.7501806144e+00
 2.5649705099e-01	 1.1662486295e+00	-3.7879664766e+00
 2.4602994656e-01	 1.1685015302e+00	-3.8243285591e+00
 2.3557096441e-01	 1.1706548758e+00	-3.8593448863e+00
 2.2512140163e-01	 1.1727091839e+00	-3.8931019345e+00
 2.1468253889e-01	 1.1746649922e+00	-3.9256919089e+00
 2.0425564018e-01	 1.1765228582e+00	-3.9572103054e+00
 3.1119034182e-01	 1.1619968554e+00	-3.4695532183e+00
 3.0062513953e-01	 1.1647749305e+00	-3.5086927329e+00
 2.9006135150e-01	 1.1674504301e+00	-3.5464935069e+00
 2.7950036134e-01	 1.1700237665e+00	-3.5829650305e+00
 2.6894353805e-01	 1.1724953750e+00	-3.6181369697e+00
 2.5839223564e-01	 1.1748657130e+00	-3.6520551923e+00
 2.4784779272e-01	 1.1771352598e+00	-3.6847781372e+00
 2.3731153209e-01	 1.1793045158e+00	-3.7163735138e+00
 2.2678476042e-01	 1.1813740027e+00	-3.7469153240e+00
 2.1626876786e-01	 1.1833442619e+00	-3.7764811939e+00
 2.0576482773e-01	 1.1852158551e+00	-3.8051500020e+00
 3.1347277557e-01	 1.1705195519e+00	-3.3621075822e+00
 3.0283008253e-01	 1.1733180029e+00	-3.3968198060e+00
 2.9218881412e-01	 1.1760131260e+00	-3.4303974227e+00
 2.8155036410e-01	 1.1786053367e+00	-3.4628509403e+00
 2.7091611151e-01	 1.1810950732e+00	-3.4942086780e+00
 2.6028742030e-01	 1.1834827965e+00	-3.5245127917e+00
 2.4966563888e-01	 1.1857689893e+00	-3.5538156571e+00
 2.3905209977e-01	 1.1879541559e+00	-3.5821765998e+00
 2.2844811922e-01	 1.1900388214e+00	-3.6096589617e+00
 2.1785499683e-01	 1.1920235315e+00	-3.6363274903e+00
 2.0727401527e-01	 1.1939088520e+00	-3.6622460374e+00
 3.1575520933e-01	 1.1790422484e+00	-3.2608701843e+00
 3.0503502553e-01	 1.1818610753e+00	-3.2915670775e+00
 2.9431627674e-01	 1.1845758219e+00	-3.3212918170e+00
 2.8360036685e-01	 1.1871869068e+00	-3.3500583336e+00
 2.7288868497e-01	 1.1896947714e+00	-3.3778958750e+00
 2.6218260495e-01	 1.1920998801e+00	-3.4048450301e+00
 2.5148348504e-01	 1.1944027189e+00	-3.4309541297e+00
 2.4079266745e-01	 1.1966037959e+00	-3.4562760089e+00
 2.3011147801e-01	 1.1987036401e+00	-3.4808651209e+00
 2.1944122580e-01	 1.2007028012e+00	-3.5047749883e+00
 2.0878320282e-01	 1.2026018489e+00	-3.5280559757e+00
 3.1803764309e-01	 1.1875649450e+00	-3.1653585002e+00
 3.0723996853e-01	 1.1904041477e+00	-3.1924498288e+00
 2.9644373936e-01	 1.1931385178e+00	-3.2186915311e+00
 2.8565036961e-01	 1.1957684769e+00	-3.2441033497e+00
 2.7486125843e-01	 1.1982944697e+00	-3.2687177125e+00
 2.6407778961e-01	 1.2007169636e+00	-3.2925757590e+00
 2.5330133120e-01	 1.2030364485e+00	-3.3157237598e+00
 2.4253323513e-01	 1.2052534359e+00	-3.3382099144e+00
 2.3177483681e-01	 1.2073684589e+00	-3.3600815162e+00
 2.2102745477e-01	 1.2093820709e+00	-3.3813824686e+00
 2.1029239036e-01	 1.2112948458e+00	-3.4021511366e+00
 3.2032007684e-01	 1.1960876415e+00	-3.0751123896e+00
 3.0944491153e-01	 1.1989472201e+00	-3.0990047393e+00
 2.9857120198e-01	 1.2017012138e+00	-3.1221318377e+00
 2.8770037237e-01	 1.2043500471e+00	-3.1445216105e+00
 2.7683383189e-01	 1.2068941679e+00	-3.1662118958e+00
 2.6597297426e-01	 1.2093340471e+00	-3.1872464730e+00
 2.5511917736e-01	 1.2116701780e+00	-3.2076715038e+00
 2.4427380281e-01	 1.2139030760e+00	-3.2275323687e+00
 2.3343819560e-01	 1.2160332776e+00	-3.2468708863e+00
 2.2261368374e-01	 1.2180613405e+00	-3.2657228990e+00
 2.1180157791e-01	 1.2199878427e+00	-3.2841162076e+00
 3.2260251060e-01	 1.2046103380e+00	-2.9896936296e+00
 3.1164985453e-01	 1.2074902925e+00	-3.0107894247e+00
 3.0069866460e-01	 1.2102639097e+00	-3.0311679837e+00
 2.8975037513e-01	 1.2129316172e+00	-3.0508677714e+00
 2.7880640535e-01	 1.2154938661e+00	-3.0699342426e+00
 2.6786815891e-01	 1.2179511306e+00	-3.0884158782e+00
 2.5693702352e-01	 1.2203039076e+00	-3.1063606484e+00
 2.4601437049e-01	 1.2225527160e+00	-3.1238128927e+00
 2.3510155439e-01	 1.2246980963e+00	-3.1408105962e+00
 2.2419991271e-01	 1.2267406102e+00	-3.1573830498e+00
 2.1331076545e-01	 1.2286808396e+00	-3.1735488729e+00
 3.2488494435e-01	 1.2131330346e+00	-2.9086854699e+00
 3.1385479753e-01	 1.2160333649e+00	-2.9273819960e+00
 3.0282612722e-01	 1.2188266056e+00	-2.9453747564e+00
 2.9180037789e-01	 1.2215131873e+00	-2.9627150930e+00
 2.8077897881e-01	 1.2240935643e+00	-2.9794582628e+00
 2.6976334357e-01	 1.2265682141e+00	-2.9956594802e+00
 2.5875486968e-01	 1.2289376372e+00	-3.0113704087e+00
 2.4775493816e-01	 1.2312023560e+00	-3.0266360846e+00
 2.3676491319e-01	 1.2333629151e+00	-3.0414922572e+00
 2.2578614168e-01	 1.2354198798e+00	-3.0559631263e+00
 2.1481995300e-01	 1.2373738365e+00	-3.0700594590e+00
 3.2716737810e-01	 1.2216557311e+00	-2.8316922104e+00
 3.1605974053e-01	 1.2245764373e+00	-2.8483806416e+00
 3.0495358983e-01	 1.2273893016e+00	-2.8643460687e+00
 2.9385038065e-01	 1.2300947574e+00	-2.8796550336e+00
 2.8275155227e-01	 1.2326932625e+00	-2.8943747569e+00
 2.7165852822e-01	 1.2351852976e+00	-2.9085691916e+00
 2.6057271584e-01	 1.2375713667e+00	-2.9222955438e+00
 2.4949550584e-01	 1.2398519961e+00	-2.9356012459e+00
 2.3842827199e-01	 1.2420277338e+00	-2.9485213637e+00
 2.2737237065e-01	 1.2440991495e+00	-2.9610764174e+00
 2.1632914054e-01	 1.2460668334e+00	-2.9732705964e+00
 2.0123726509e-01	 1.1591368644e+00	-4.2906409089e+00
 1.9097572234e-01	 1.1608716354e+00	-4.3263050351e+00
 1.8072841450e-01	 1.1625110326e+00	-4.3598264098e+00
 1.7049653892e-01	 1.1640556597e+00	-4.3912654004e+00
 1.6028127524e-01	 1.1655061378e+00	-4.4206814610e+00
 1.5008378517e-01	 1.1668631048e+00	-4.4481318752e+00
 1.3990521226e-01	 1.1681272149e+00	-4.4736706853e+00
 1.2974668168e-01	 1.1692991383e+00	-4.4973477933e+00
 1.1960930001e-01	 1.1703795604e+00	-4.5192082212e+00
 1.0949415507e-01	 1.1713691813e+00	-4.5392915183e+00
 9.9402315743e-02	 1.1722687154e+00	-4.5576312992e+00
 2.0274645264e-01	 1.1678298613e+00	-4.1188835457e+00
 1.9240795300e-01	 1.1695776423e+00	-4.1517422775e+00
 1.8208379504e-01	 1.1712293342e+00	-4.1826404039e+00
 1.7177518507e-01	 1.1727855453e+00	-4.2116405945e+00
 1.6148331157e-01	 1.1742469013e+00	-4.2388036165e+00
 1.5120934499e-01	 1.1756140449e+00	-4.2641871354e+00
 1.4095443743e-01	 1.1768876353e+00	-4.2878447081e+00
 1.3071972251e-01	 1.1780683476e+00	-4.3098249527e+00
 1.2050631511e-01	 1.1791568724e+00	-4.3301708829e+00
 1.1031531121e-01	 1.1801539149e+00	-4.3489193918e+00
 1.0014778769e-01	 1.1810601952e+00	-4.3661008712e+00
 2.0425564018e-01	 1.1765228582e+00	-3.9572103054e+00
 1.9384018366e-01	 1.1782836492e+00	-3.9873145942e+00
 1.8343917558e-01	 1.1799476358e+00	-4.0156328072e+00
 1.7305383121e-01	 1.1815154309e+00	-4.0422316685e+00
 1.6268534791e-01	 1.1829876649e+00	-4.0671747537e+00
 1.5233490480e-01	 1.1843649851e+00	-4.0905213564e+00
 1.4200366260e-01	 1.1856480558e+00	-4.1123255527e+00
 1.3169276334e-01	 1.1868375570e+00	-4.1326354488e+00
 1.2140333021e-01	 1.1879341844e+00	-4.1514925981e+00
 1.1113646734e-01	 1.1889386486e+00	-4.1689315700e+00
 1.0089325965e-01	 1.1898516750e+00	-4.1849796594e+00
 2.0576482773e-01	 1.1852158551e+00	-3.8051500020e+00
 1.9527241433e-01	 1.1869896561e+00	-3.8325652214e+00
 1.8479455611e-01	 1.1886659375e+00	-3.8583585050e+00
 1.7433247735e-01	 1.1902453166e+00	-3.8826023236e+00
 1.6388738424e-01	 1.1917284284e+00	-3.9053644964e+00
 1.5346046462e-01	 1.1931159253e+00	-3.9267071306e+00
 1.4305288777e-01	 1.1944084762e+00	-3.9466857660e+00
 1.3266580417e-01	 1.1956067663e+00	-3.9653487091e+00
 1.2230034531e-01	 1.1967114963e+00	-3.9827365406e+00
 1.1195762348e-01	 1.1977233823e+00	-3.9988817807e+00
 1.0163873160e-01	 1.1986431547e+00	-4.0138086954e+00
 2.0727401527e-01	 1.1939088520e+00	-3.6622460374e+00
 1.9670464499e-01	 1.1956956630e+00	-3.6870511900e+00
 1.8614993665e-01	 1.1973842391e+00	-3.7103855163e+00
 1.7561112350e-01	 1.1989752022e+00	-3.7323288660e+00
 1.6508942057e-01	 1.2004691920e+00	-3.7529546757e+00
 1.5458602443e-01	 1.2018668655e+00	-3.7723289902e+00
 1.4410211294e-01	 1.2031688966e+00	-3.7905096963e+00
 1.3363884500e-01	 1.2043759756e+00	-3.8075459513e+00
 1.2319736041e-01	 1.2054888083e+00	-3.8234777914e+00
 1.1277877961e-01	 1.2065081160e+00	-3.8383359004e+00
 1.0238420355e-01	 1.2074346345e+00	-3.8521415251e+00
 2.0878320282e-01	 1.2026018489e+00	-3.5280559757e+00
 1.9813687565e-01	 1.2044016699e+00	-3.5503429149e+00
 1.8750531718e-01	 1.2061025407e+00	-3.5712945956e+00
 1.7688976964e-01	 1.2077050878e+00	-3.5909998167e+00
 1.6629145690e-01	 1.2092099555e+00	-3.6095389441e+00
 1.5571158425e-01	 1.2106178056e+00	-3.6269830225e+00
 1.4515133811e-01	 1.2119293170e+00	-3.6433931060e+00
 1.3461188583e-01	 1.2131451849e+00	-3.6588197913e+00
 1.2409437551e-01	 1.2142661203e+00	-3.6733029352e+00
 1.1359993575e-01	 1.2152928497e+00	-3.6868715378e+00
 1.0312967550e-01	 1.2162261143e+00	-3.6995437751e+00
 2.1029239036e-01	 1.2112948458e+00	-3.4021511366e+00
 1.9956910631e-01	 1.2131076767e+00	-3.4220238034e+00
 1.8886069772e-01	 1.2148208423e+00	-3.4406788516e+00
 1.7816841578e-01	 1.2164349734e+00	-3.4582155379e+00
 1.6749349324e-01	 1.2179507190e+00	-3.4747224072e+00
 1.5683714407e-01	 1.2193687458e+00	-3.4902765022e+00
 1.4620056328e-01	 1.2206897375e+00	-3.5049428016e+00
 1.3558492667e-01	 1.2219143942e+00	-3.5187738663e+00
 1.2499139061e-01	 1.2230434323e+00	-3.5318096758e+00
 1.1442109188e-01	 1.2240775834e+00	-3.5440776358e+00
 1.0387514745e-01	 1.2250175941e+00	-3.5555927377e+00
 2.1180157791e-01	 1.2199878427e+00	-3.2841162076e+00
 2.0100133697e-01	 1.2218136836e+00	-3.3016898803e+00
 1.9021607825e-01	 1.2235391440e+00	-3.3181433833e+00
 1.7944706192e-01	 1.2251648591e+00	-3.3335878772e+00
 1.6869552957e-01	 1.2266914826e+00	-3.3481212710e+00
 1.5796270388e-01	 1.2281196860e+00	-3.3618275402e+00
 1.4724978844e-01	 1.2294501579e+00	-3.3747762800e+00
 1.3655796750e-01	 1.2306836035e+00	-3.3870224755e+00
 1.2588840571e-01	 1.2318207443e+00	-3.3986064667e+00
 1.1524224802e-01	 1.2328623171e+00	-3.4095540897e+00
 1.0462061940e-01	 1.2338090739e+00	-3.4198769740e+00
 2.1331076545e-01	 1.2286808396e+00	-3.1735488729e+00
 2.0243356764e-01	 1.2305196905e+00	-3.1889494302e+00
 1.9157145879e-01	 1.2322574456e+00	-3.2033049323e+00
 1.8072570807e-01	 1.2338947447e+00	-3.2167398259e+00
 1.6989756590e-01	 1.2354322461e+00	-3.2293625051e+00
 1.5908826370e-01	 1.2368706262e+00	-3.2412647467e+00
 1.4829901361e-01	 1.2382105783e+00	-3.2525213894e+00
 1.3753100833e-01	 1.2394528128e+00	-3.2631902362e+00
 1.2678542081e-01	 1.2405980563e+00	-3.2733121587e+00
 1.1606340415e-01	 1.2416470508e+00	-3.2829113827e+00
 1.0536609135e-01	 1.2426005537e+00	-3.2919959335e+00
 2.1481995300e-01	 1.2373738365e+00	-3.0700594590e+00
 2.0386579830e-01	 1.2392256974e+00	-3.0834226556e+00
 1.9292683932e-01	 1.2409757472e+00	-3.0957915503e+00
 1.8200435421e-01	 1.2426246303e+00	-3.1073051935e+00
 1.7109960223e-01	 1.2441730097e+00	-3.1180835199e+00
 1.6021382351e-01	 1.2456215664e+00	-3.1282269102e+00
 1.4934823878e-01	 1.2469709987e+00	-3.1378160056e+00
 1.3850404916e-01	 1.2482220222e+00	-3.1469117536e+00
 1.2768243591e-01	 1.2493753683e+00	-3.1555556614e+00
 1.1688456029e-01	 1.2504317845e+00	-3.1637702363e+00
 1.0611156330e-01	 1.2513920335e+00	-3.1715595901e+00
 2.1632914054e-01	 1.2460668334e+00	-2.9732705964e+00
 2.0529802896e-01	 1.2479317043e+00	-2.9847413496e+00
 1.9428221986e-01	 1.2496940488e+00	-2.9952422804e+00
 1.8328300036e-01	 1.2513545159e+00	-3.0049282952e+00
 1.7230163857e-01	 1.2529137732e+00	-3.0139318582e+00
 1.6133938333e-01	 1.2543725065e+00	-3.0223626886e+00
 1.5039746395e-01	 1.2557314192e+00	-3.0303077213e+00
 1.3947708999e-01	 1.2569912315e+00	-3.0378313058e+00
 1.2857945101e-01	 1.2581526803e+00	-3.0449756198e+00
 1.1770571642e-01	 1.2592165182e+00	-3.0517612755e+00
 1.0685703526e-01	 1.2601835133e+00	-3.0581880933e+00
 9.9402315743e-02	 1.1722687154e+00	-4.5576312992e+00
 8.9336537019e-02	 1.1730787607e+00	-4.5742011615e+00
 7.9296111967e-02	 1.1738002187e+00	-4.5889662882e+00
 6.9282028370e-02	 1.1744338428e+00	-4.6019284654e+00
 5.9295255177e-02	 1.1749803987e+00	-4.6130819869e+00
 4.9336742402e-02	 1.1754406638e+00	-4.6224137282e+00
 3.9407421038e-02	 1.1758154265e+00	-4.6299032784e+00
 2.9508202981e-02	 1.1761054862e+00	-4.6355231204e+00
 1.9639980971e-02	 1.1763116521e+00	-4.6392388496e+00
 9.8036285459e-03	 1.1764347433e+00	-4.6410094204e+00
 0.0000000000e+00	 1.1764755882e+00	-4.6407874130e+00
 1.0014778769e-01	 1.1810601952e+00	-4.3661008712e+00
 9.0006520230e-02	 1.1818763155e+00	-4.3816667911e+00
 7.9890796577e-02	 1.1826031841e+00	-4.3955637511e+00
 6.9801611929e-02	 1.1832415601e+00	-4.4077950328e+00
 5.9739942500e-02	 1.1837922149e+00	-4.4183554802e+00
 4.9706745429e-02	 1.1842559317e+00	-4.4272316672e+00
 3.9702958691e-02	 1.1846335050e+00	-4.4344021244e+00
 2.9729501022e-02	 1.1849257400e+00	-4.4398376125e+00
 1.9787271856e-02	 1.1851334520e+00	-4.4435014314e+00
 9.8771512812e-03	 1.1852574664e+00	-4.4453497571e+00
 0.0000000000e+00	 1.1852986176e+00	-4.4453319940e+00
 1.0089325965e-01	 1.1898516750e+00	-4.1849796594e+00
 9.0676503440e-02	 1.1906738703e+00	-4.1995596533e+00
 8.0485481187e-02	 1.1914061494e+00	-4.2125934782e+00
 7.0321195488e-02	 1.1920492773e+00	-4.2240866115e+00
 6.0184629823e-02	 1.1926040311e+00	-4.2340351966e+00
 5.0076748456e-02	 1.1930711997e+00	-4.2424263077e+00
 3.9998496345e-02	 1.1934515835e+00	-4.2492382732e+00
 2.9950799063e-02	 1.1937459938e+00	-4.2544410441e+00
 1.9934562741e-02	 1.1939552520e+00	-4.2579965969e+00
 9.9506740167e-03	 1.1940801895e+00	-4.2598593609e+00
 0.0000000000e+00	 1.1941216471e+00	-4.2599766594e+00
 1.0163873160e-01	 1.1986431547e+00	-4.0138086954e+00
 9.1346486650e-02	 1.1994714250e+00	-4.0274078258e+00
 8.1080165797e-02	 1.2002091148e+00	-4.0395732999e+00
 7.0840779046e-02	 1.2008569946e+00	-4.0503133970e+00
 6.0629317146e-02	 1.2014158472e+00	-4.0596262140e+00
 5.0446751484e-02	 1.2018864676e+00	-4.0675000308e+00
 4.0294033999e-02	 1.2022696620e+00	-4.0739137326e+00
 3.0172097105e-02	 1.2025662476e+00	-4.0788372759e+00
 2.0081853626e-02	 1.2027770520e+00	-4.0822321874e+00
 1.0024196752e-02	 1.2029029126e+00	-4.0840520842e+00
 0.0000000000e+00	 1.2029446765e+00	-4.0842432054e+00
 1.0238420355e-01	 1.2074346345e+00	-3.8521415251e+00
 9.2016469860e-02	 1.2082689798e+00	-3.8647522999e+00
 8.1674850407e-02	 1.2090120802e+00	-3.8760343038e+00
 7.1360362605e-02	 1.2096647118e+00	-3.8859991291e+00
 6.1074004469e-02	 1.2102276634e+00	-3.8946473846e+00
 5.0816754512e-02	 1.2107017356e+00	-3.9019691647e+00
 4.0589571654e-02	 1.2110877405e+00	-3.9079445727e+00
 3.0393395146e-02	 1.2113865014e+00	-3.9125442879e+00
 2.0229144511e-02	 1.2115988519e+00	-3.9157301628e+00
 1.0097719488e-02	 1.2117256357e+00	-3.9174558382e+00
 0.0000000000e+00	 1.2117677059e+00	-3.9176673678e+00
 1.0312967550e-01	 1.2162261143e+00	-3.6995437751e+00
 9.2686453070e-02	 1.2170665345e+00	-3.7111465292e+00
 8.2269535017e-02	 1.2178150455e+00	-3.7215203677e+00
 7.1879946164e-02	 1.2184724291e+00	-3.7306806120e+00
 6.1518691792e-02	 1.2190394796e+00	-3.7386308452e+00
 5.1186757540e-02	 1.2195170035e+00	-3.7453634871e+00
 4.0885109308e-02	 1.2199058190e+00	-3.7508604228e+00
 3.0614693188e-02	 1.2202067552e+00	-3.7550936733e+00
 2.0376435397e-02	 1.2204206519e+00	-3.7580260935e+00
 1.0171242224e-02	 1.2205483588e+00	-3.7596120859e+00
 0.0000000000e+00	 1.2205907353e+00	-3.7597983190e+00
 1.0387514745e-01	 1.2250175941e+00	-3.5555927377e+00
 9.3356436280e-02	 1.2258640893e+00	-3.5661559977e+00
 8.2864219627e-02	 1.2266180109e+00	-3.5755877132e+00
 7.2399529723e-02	 1.2272801463e+00	-3.5839072559e+00
 6.1963379116e-02	 1.2278512958e+00	-3.5911215485e+00
 5.1556760567e-02	 1.2283322715e+00	-3.5972257492e+00
 4.1180646962e-02	 1.2287238975e+00	-3.6022039902e+00
 3.0835991230e-02	 1.2290270091e+00	-3.6060301539e+00
 2.0523726282e-02	 1.2292424519e+00	-3.6086686756e+00
 1.0244764960e-02	 1.2293710819e+00	-3.6100753579e+00
 0.0000000000e+00	 1.2294137647e+00	-3.6101981864e+00
 1.0462061940e-01	 1.2338090739e+00	-3.4198769740e+00
 9.4026419490e-02	 1.2346616440e+00	-3.4293578056e+00
 8.3458904237e-02	 1.2354209763e+00	-3.4378044782e+00
 7.2919113282e-02	 1.2360878636e+00	-3.4452406379e+00
 6.2408066439e-02	 1.2366631119e+00	-3.4516768145e+00
 5.1926763595e-02	 1.2371475394e+00	-3.4571112200e+00
 4.1476184617e-02	 1.2375419760e+00	-3.4615305992e+00
 3.1057289272e-02	 1.2378472629e+00	-3.4649111164e+00
 2.0671017167e-02	 1.2380642518e+00	-3.4672192656e+00
 1.0318287695e-02	 1.2381938050e+00	-3.4684127886e+00
 0.0000000000e+00	 1.2382367941e+00	-3.4684415915e+00
 1.0536609135e-01	 1.2426005537e+00	-3.2919959335e+00
 9.4696402700e-02	 1.2434591988e+00	-3.3003402743e+00
 8.4053588847e-02	 1.2442239416e+00	-3.3077503074e+00
 7.3438696840e-02	 1.2448955809e+00	-3.3142540809e+00
 6.2852753762e-02	 1.2454749281e+00	-3.3198659011e+00
 5.2296766623e-02	 1.2459628074e+00	-3.3245872496e+00
 4.1771722271e-02	 1.2463600545e+00	-3.3284077497e+00
 3.1278587314e-02	 1.2466675167e+00	-3.3313061681e+00
 2.0818308052e-02	 1.2468860518e+00	-3.3332514354e+00
 1.0391810431e-02	 1.2470165281e+00	-3.3342036723e+00
 0.0000000000e+00	 1.2470598236e+00	-3.3341152087e+00
 1.0611156330e-01	 1.2513920335e+00	-3.1715595901e+00
 9.5366385910e-02	 1.2522567536e+00	-3.1787025665e+00
 8.4648273457e-02	 1.2530269070e+00	-3.1850159603e+00
 7.3958280399e-02	 1.2537032981e+00	-3.1905322513e+00
 6.3297441085e-02	 1.2542867443e+00	-3.1952695926e+00
 5.2666769650e-02	 1.2547780753e+00	-3.1992328512e+00
 4.2067259925e-02	 1.2551781330e+00	-3.2024146946e+00
 3.1499885355e-02	 1.2554877705e+00	-3.2047967114e+00
 2.0965598937e-02	 1.2557078518e+00	-3.2063505462e+00
 1.0465333166e-02	 1.2558392512e+00	-3.2070390374e+00
 0.0000000000e+00	 1.2558828530e+00	-3.2068173424e+00
 1.0685703526e-01	 1.2601835133e+00	-3.0581880933e+00
 9.6036369121e-02	 1.2610543083e+00	-3.0640543232e+00
 8.5242958067e-02	 1.2618298723e+00	-3.0692029358e+00
 7.4477863958e-02	 1.2625110154e+00	-3.0736707730e+00
 6.3742128408e-02	 1.2630985605e+00	-3.0774798056e+00
 5.3036772677e-02	 1.2635933433e+00	-3.0806383008e+00
 4.2362797579e-02	 1.2639962115e+00	-3.0831420350e+00
 3.1721183396e-02	 1.2643080243e+00	-3.0849755365e+00
 2.1112889822e-02	 1.2645296518e+00	-3.0861133401e+00
 1.0538855902e-02	 1.2646619743e+00	-3.0865212391e+00
 0.0000000000e+00	 1.2647058824e+00	-3.0861575217e+00
 1.2647058824e+00	 0.0000000000e+00	 3.6036844125e+00
 1.2646619743e+00	 1.0538855902e-02	 3.6037988099e+00
 1.2645296518e+00	 2.1112889822e-02	 3.6021726398e+00
 1.2643080243e+00	 3.1721183396e-02	 3.5988993526e+00
 1.2639962115e+00	 4.2362797579e-02	 3.5940526049e+00
 1.2635933433e+00	 5.3036772677e-02	 3.5876845829e+00
 1.2630985605e+00	 6.3742128408e-02	 3.5798243396e+00
 1.2625110154e+00	 7.4477863958e-02	 3.5704761596e+00
 1.2618298723e+00	 8.5242958067e-02	 3.5596179652e+00
 1.2610543083e+00	 9.6036369121e-02	 3.5471997776e+00
 1.2601835133e+00	 1.0685703526e-01	 3.5331422514e+00
 1.2735289118e+00	 0.0000000000e+00	 3.6415113663e+00
 1.2734846974e+00	 1.0612378637e-02	 3.6417143660e+00
 1.2733514517e+00	 2.1260180706e-02	 3.6401419830e+00
 1.2731282781e+00	 3.1942481437e-02	 3.6368792869e+00
 1.2728142900e+00	 4.2658335232e-02	 3.6319908880e+00
 1.2724086113e+00	 5.3406775704e-02	 3.6255191635e+00
 1.2719103766e+00	 6.4186815730e-02	 3.6174824944e+00
 1.2713187326e+00	 7.4997447517e-02	 3.6078735270e+00
 1.2706328377e+00	 8.5837642678e-02	 3.5966574726e+00
 1.2698518631e+00	 9.6706352331e-02	 3.5837704604e+00
 1.2689749930e+00	 1.0760250721e-01	 3.5691179624e+00
 1.2823519412e+00	 0.0000000000e+00	 3.6748726764e+00
 1.2823074205e+00	 1.0685901372e-02	 3.6751112836e+00
 1.2821732517e+00	 2.1407471590e-02	 3.6735496657e+00
 1.2819485320e+00	 3.2163779477e-02	 3.6702646110e+00
 1.2816323685e+00	 4.2953872885e-02	 3.6653118085e+00
 1.2812238792e+00	 5.3776778731e-02	 3.6587239744e+00
 1.2807221928e+00	 6.4631503053e-02	 3.6505089849e+00
 1.2801264499e+00	 7.5517031075e-02	 3.6406480297e+00
 1.2794358031e+00	 8.6432327288e-02	 3.6290938013e+00
 1.2786494178e+00	 9.7376335543e-02	 3.6157687360e+00
 1.2777664728e+00	 1.0834797916e-01	 3.6005633229e+00
 1.2911749706e+00	 0.0000000000e+00	 3.7036287280e+00
 1.2911301436e+00	 1.0759424106e-02	 3.7038364569e+00
 1.2909950516e+00	 2.1554762474e-02	 3.7022295483e+00
 1.2907687858e+00	 3.2385077517e-02	 3.6988766687e+00
 1.2904504470e+00	 4.3249410537e-02	 3.6938247737e+00
 1.2900391472e+00	 5.4146781757e-02	 3.6870971304e+00
 1.2895340090e+00	 6.5076190375e-02	 3.6786913419e+00
 1.2889341671e+00	 7.6036614634e-02	 3.6685773897e+00
 1.2882387684e+00	 8.7027011899e-02	 3.6566957078e+00
 1.2874469726e+00	 9.8046318754e-02	 3.6429553064e+00
 1.2865579526e+00	 1.0909345111e-01	 3.6272319613e+00
 1.2999980000e+00	 0.0000000000e+00	 3.7276449349e+00
 1.2999528667e+00	 1.0832946841e-02	 3.7277422747e+00
 1.2998168516e+00	 2.1702053357e-02	 3.7260214191e+00
 1.2995890396e+00	 3.2606375557e-02	 3.7225431336e+00
 1.2992685255e+00	 4.3544948190e-02	 3.7173458908e+00
 1.2988544151e+00	 5.4516784784e-02	 3.7104437846e+00
 1.2983458252e+00	 6.5520877698e-02	 3.7018244433e+00
 1.2977418844e+00	 7.6556198193e-02	 3.6914469558e+00
 1.2970417338e+00	 8.7621696510e-02	 3.6792398261e+00
 1.2962445273e+00	 9.8716301966e-02	 3.6650989746e+00
 1.2953494324e+00	 1.0983892307e-01	 3.6488858031e+00
 1.3088210294e+00	 0.0000000000e+00	 3.7467915703e+00
 1.3087755898e+00	 1.0906469576e-02	 3.7466864403e+00
 1.3086386516e+00	 2.1849344241e-02	 3.7447708036e+00
 1.3084092934e+00	 3.2827673597e-02	 3.7410978070e+00
 1.3080866040e+00	 4.3840485843e-02	 3.7356977538e+00
 1.3076696830e+00	 5.4886787810e-02	 3.7285759059e+00
 1.3071576413e+00	 6.5965565021e-02	 3.7197102818e+00
 1.3065496016e+00	 7.7075781752e-02	 3.7090494611e+00
 1.3058446991e+00	 8.8216381121e-02	 3.6965104155e+00
 1.3050420821e+00	 9.9386285178e-02	 3.6819763825e+00
 1.3041409122e+00	 1.1058439502e-01	 3.6652948006e+00
 1.3176440588e+00	 0.0000000000e+00	 3.7609436044e+00
 1.3175983129e+00	 1.0979992310e-02	 3.7605317987e+00
 1.3174604515e+00	 2.1996635124e-02	 3.7583287811e+00
 1.3172295472e+00	 3.3048971637e-02	 3.7543804245e+00
 1.3169046825e+00	 4.4136023495e-02	 3.7487092400e+00
 1.3164849510e+00	 5.5256790837e-02	 3.7413120653e+00
 1.3159694575e+00	 6.6410252343e-02	 3.7321577407e+00
 1.3153573189e+00	 7.7595365311e-02	 3.7211847893e+00
 1.3146476645e+00	 8.8811065732e-02	 3.7082991183e+00
 1.3138396368e+00	 1.0005626839e-01	 3.6933717605e+00
 1.3129323920e+00	 1.1132986698e-01	 3.6762366734e+00
 1.3264670883e+00	 0.0000000000e+00	 3.7699805493e+00
 1.3264210360e+00	 1.1053515045e-02	 3.7691461707e+00
 1.3262822515e+00	 2.2143926008e-02	 3.7665518089e+00
 1.3260498010e+00	 3.3270269677e-02	 3.7622364693e+00
 1.3257227610e+00	 4.4431561148e-02	 3.7562153141e+00
 1.3253002189e+00	 5.5626793863e-02	 3.7484772299e+00
 1.3247812737e+00	 6.6854939666e-02	 3.7389823793e+00
 1.3241650361e+00	 7.8114948871e-02	 3.7276597510e+00
 1.3234506299e+00	 8.9405750344e-02	 3.7144047270e+00
 1.3226371916e+00	 1.0072625160e-01	 3.6990766851e+00
 1.3217238717e+00	 1.1207533893e-01	 3.6814966578e+00
 1.3352901177e+00	 0.0000000000e+00	 3.7737863091e+00
 1.3352437590e+00	 1.1127037780e-02	 3.7724021937e+00
 1.3351040515e+00	 2.2291216892e-02	 3.7693015527e+00
 1.3348700548e+00	 3.3491567718e-02	 3.7645169945e+00
 1.3345408395e+00	 4.4727098801e-02	 3.7580568398e+00
 1.3341154869e+00	 5.5996796890e-02	 3.7499025655e+00
 1.3335930898e+00	 6.7299626990e-02	 3.7400062258e+00
 1.3329727534e+00	 7.8634532431e-02	 3.7282878678e+00
 1.3322535952e+00	 9.0000434956e-02	 3.7146329591e+00
 1.3314347463e+00	 1.0139623482e-01	 3.6988898462e+00
 1.3305153515e+00	 1.1282081089e-01	 3.6808672663e+00
 1.3441131471e+00	 0.0000000000e+00	 3.7722490363e+00
 1.3440664821e+00	 1.1200560515e-02	 3.7701771684e+00
 1.3439258514e+00	 2.2438507776e-02	 3.7664447244e+00
 1.3436903087e+00	 3.3712865758e-02	 3.7610784503e+00
 1.3433589180e+00	 4.5022636455e-02	 3.7540803992e+00
 1.3429307548e+00	 5.6366799918e-02	 3.7454252469e+00
 1.3424049060e+00	 6.7744314314e-02	 3.7350575788e+00
 1.3417804706e+00	 7.9154115991e-02	 3.7228891648e+00
 1.3410565606e+00	 9.0595119568e-02	 3.7087962419e+00
 1.3402323011e+00	 1.0206621803e-01	 3.6926168231e+00
 1.3393068313e+00	 1.1356628284e-01	 3.6741480554e+00
 1.3529361765e+00	 0.0000000000e+00	 3.7652609941e+00
 1.3528892052e+00	 1.1274083250e-02	 3.7623529118e+00
 1.3527476514e+00	 2.2585798660e-02	 3.7578529261e+00
 1.3525105625e+00	 3.3934163799e-02	 3.7517825195e+00
 1.3521769965e+00	 4.5318174109e-02	 3.7441381181e+00
 1.3517460228e+00	 5.6736802946e-02	 3.7348882747e+00
 1.3512167222e+00	 6.8189001638e-02	 3.7239708157e+00
 1.3505881879e+00	 7.9673699552e-02	 3.7112899708e+00
 1.3498595259e+00	 9.1189804181e-02	 3.6967135043e+00
 1.3490298559e+00	 1.0273620124e-01	 3.6800698684e+00
 1.3480983111e+00	 1.1431175480e-01	 3.6611454016e+00
 1.2601835133e+00	 1.0685703526e-01	 3.5331422514e+00
 1.2592165182e+00	 1.1770571642e-01	 3.5176031740e+00
 1.2581526803e+00	 1.2857945101e-01	 3.5007955358e+00
 1.2569912315e+00	 1.3947708999e-01	 3.4826680601e+00
 1.2557314192e+00	 1.5039746395e-01	 3.4631362545e+00
 1.2543725065e+00	 1.6133938333e-01	 3.4420814760e+00
 1.2529137732e+00	 1.7230163857e-01	 3.4193501790e+00
 1.2513545159e+00	 1.8328300036e-01	 3.3947533655e+00
 1.2496940488e+00	 1.9428221986e-01	 3.3680662609e+00
 1.2479317043e+00	 2.0529802896e-01	 3.3390282359e+00
 1.2460668334e+00	 2.1632914054e-01	 3.3073429987e+00
 1.2689749930e+00	 1.0760250721e-01	 3.5691179624e+00
 1.2680012519e+00	 1.1852687256e-01	 3.5528448137e+00
 1.2669299922e+00	 1.2947646612e-01	 3.5351709875e+00
 1.2657604408e+00	 1.4045013082e-01	 3.5160573769e+00
 1.2644918396e+00	 1.5144668913e-01	 3.4954299697e+00
 1.2631234467e+00	 1.6246494315e-01	 3.4731787661e+00
 1.2616545368e+00	 1.7350367490e-01	 3.4491568802e+00
 1.2600844015e+00	 1.8456164650e-01	 3.4231798471e+00
 1.2584123505e+00	 1.9563760040e-01	 3.3950251585e+00
 1.2566377112e+00	 2.0673025963e-01	 3.3644320506e+00
 1.2547598303e+00	 2.1783832809e-01	 3.3311015668e+00
 1.2777664728e+00	 1.0834797916e-01	 3.6005633229e+00
 1.2767859856e+00	 1.1934802870e-01	 3.5836068566e+00
 1.2757073042e+00	 1.3037348122e-01	 3.5651252335e+00
 1.2745296501e+00	 1.4142317166e-01	 3.5450940470e+00
 1.2732522600e+00	 1.5249591430e-01	 3.5234523106e+00
 1.2718743869e+00	 1.6359050297e-01	 3.5001012195e+00
 1.2703953003e+00	 1.7470571124e-01	 3.4749030967e+00
 1.2688142872e+00	 1.8584029265e-01	 3.4476805480e+00
 1.2671306521e+00	 1.9699298093e-01	 3.4182158500e+00
 1.2653437181e+00	 2.0816249029e-01	 3.3862505935e+00
 1.2634528272e+00	 2.1934751563e-01	 3.3514856087e+00
 1.2865579526e+00	 1.0909345111e-01	 3.6272319613e+00
 1.2855707192e+00	 1.2016918483e-01	 3.6096370203e+00
 1.2844846162e+00	 1.3127049632e-01	 3.5904013959e+00
 1.2832988594e+00	 1.4239621249e-01	 3.5695179352e+00
 1.2820126804e+00	 1.5354513947e-01	 3.5469412445e+00
 1.2806253271e+00	 1.6471606279e-01	 3.5225862857e+00
 1.2791360639e+00	 1.7590774757e-01	 3.4963271590e+00
 1.2775441728e+00	 1.8711893879e-01	 3.4679960973e+00
 1.2758489537e+00	 1.9834836147e-01	 3.4373826961e+00
 1.2740497250e+00	 2.0959472096e-01	 3.4042334042e+00
 1.2721458241e+00	 2.2085670318e-01	 3.3682513016e+00
 1.2953494324e+00	 1.0983892307e-01	 3.6488858031e+00
 1.2943554529e+00	 1.2099034097e-01	 3.6306914866e+00
 1.2932619282e+00	 1.3216751143e-01	 3.6107511988e+00
 1.2920680687e+00	 1.4336925333e-01	 3.5890776183e+00
 1.2907731009e+00	 1.5459436464e-01	 3.5656435348e+00
 1.2893762672e+00	 1.6584162261e-01	 3.5403802721e+00
 1.2878768274e+00	 1.7710978391e-01	 3.5131762979e+00
 1.2862740584e+00	 1.8839758494e-01	 3.4838760483e+00
 1.2845672553e+00	 1.9970374201e-01	 3.4522789905e+00
 1.2827557319e+00	 2.1102695162e-01	 3.4181389516e+00
 1.2808388210e+00	 2.2236589073e-01	 3.3811637389e+00
 1.3041409122e+00	 1.1058439502e-01	 3.6652948006e+00
 1.3031401866e+00	 1.2181149711e-01	 3.6465346237e+00
 1.3020392402e+00	 1.3306452653e-01	 3.6259346824e+00
 1.3008372780e+00	 1.4434229416e-01	 3.6035300917e+00
 1.2995335213e+00	 1.5564358982e-01	 3.5793144420e+00
 1.2981272074e+00	 1.6696718243e-01	 3.5532380393e+00
 1.2966175909e+00	 1.7831182025e-01	 3.5252063333e+00
 1.2950039440e+00	 1.8967623109e-01	 3.4950785625e+00
 1.2932855569e+00	 2.0105912255e-01	 3.4626666402e+00
 1.2914617388e+00	 2.1245918229e-01	 3.4277343110e+00
 1.2895318179e+00	 2.2387507828e-01	 3.3899966048e+00
 1.3129323920e+00	 1.1132986698e-01	 3.6762366734e+00
 1.3119249203e+00	 1.2263265325e-01	 3.6569387180e+00
 1.3108165522e+00	 1.3396154164e-01	 3.6357199274e+00
 1.3096064874e+00	 1.4531533500e-01	 3.6126404874e+00
 1.3082939417e+00	 1.5669281499e-01	 3.5877174348e+00
 1.3068781476e+00	 1.6809274225e-01	 3.5609227061e+00
 1.3053583545e+00	 1.7951385658e-01	 3.5321813747e+00
 1.3037338296e+00	 1.9095487723e-01	 3.5013701058e+00
 1.3020038586e+00	 2.0241450309e-01	 3.4683158569e+00
 1.3001677457e+00	 2.1389141296e-01	 3.4327948516e+00
 1.2982248148e+00	 2.2538426583e-01	 3.3945318574e+00
 1.3217238717e+00	 1.1207533893e-01	 3.6814966578e+00
 1.3207096540e+00	 1.2345380939e-01	 3.6616837161e+00
 1.3195938641e+00	 1.3485855674e-01	 3.6398827899e+00
 1.3183756967e+00	 1.4628837584e-01	 3.6161818016e+00
 1.3170543621e+00	 1.5774204017e-01	 3.5906239117e+00
 1.3156290877e+00	 1.6921830207e-01	 3.5632053658e+00
 1.3140991180e+00	 1.8071589292e-01	 3.5338735315e+00
 1.3124637152e+00	 1.9223352338e-01	 3.5025251537e+00
 1.3107221602e+00	 2.0376988363e-01	 3.4690048584e+00
 1.3088737526e+00	 2.1532364362e-01	 3.4331039347e+00
 1.3069178117e+00	 2.2689345338e-01	 3.3945594243e+00
 1.3305153515e+00	 1.1282081089e-01	 3.6808672663e+00
 1.3294943877e+00	 1.2427496553e-01	 3.6605569763e+00
 1.3283711761e+00	 1.3575557185e-01	 3.6382066454e+00
 1.3271449060e+00	 1.4726141667e-01	 3.6139346324e+00
 1.3258147825e+00	 1.5879126534e-01	 3.5878129323e+00
 1.3243800279e+00	 1.7034386189e-01	 3.5598648114e+00
 1.3228398816e+00	 1.8191792926e-01	 3.5300626339e+00
 1.3211936009e+00	 1.9351216953e-01	 3.4983259075e+00
 1.3194404618e+00	 2.0512526417e-01	 3.4645195806e+00
 1.3175797595e+00	 2.1675587429e-01	 3.4284526206e+00
 1.3156108086e+00	 2.2840264093e-01	 3.3898769065e+00
 1.3393068313e+00	 1.1356628284e-01	 3.6741480554e+00
 1.3382791214e+00	 1.2509612167e-01	 3.6533530290e+00
 1.3371484881e+00	 1.3665258695e-01	 3.6304821422e+00
 1.3359141153e+00	 1.4823445751e-01	 3.6056869267e+00
 1.3345752030e+00	 1.5984049051e-01	 3.5790709584e+00
 1.3331309681e+00	 1.7146942171e-01	 3.5506872712e+00
 1.3315806451e+00	 1.8311996559e-01	 3.5205359627e+00
 1.3299234865e+00	 1.9479081568e-01	 3.4885620198e+00
 1.3281587634e+00	 2.0648064471e-01	 3.4546533981e+00
 1.3262857663e+00	 2.1818810496e-01	 3.4186393869e+00
 1.3243038055e+00	 2.2991182847e-01	 3.3802892923e+00
 1.3480983111e+00	 1.1431175480e-01	 3.6611454016e+00
 1.3470638551e+00	 1.2591727781e-01	 3.6398733455e+00
 1.3459258001e+00	 1.3754960206e-01	 3.6165069635e+00
 1.3446833246e+00	 1.4920749834e-01	 3.5912337356e+00
 1.3433356234e+00	 1.6088971569e-01	 3.5641916032e+00
 1.3418819083e+00	 1.7259498153e-01	 3.5354661527e+00
 1.3403214086e+00	 1.8432200193e-01	 3.5050879883e+00
 1.3386533721e+00	 1.9606946182e-01	 3.4730303282e+00
 1.3368770650e+00	 2.0783602525e-01	 3.4392068546e+00
 1.3349917732e+00	 2.1962033562e-01	 3.4034698540e+00
 1.3329968024e+00	 2.3142101602e-01	 3.3656086804e+00
 1.2460668334e+00	 2.1632914054e-01	 3.3073429987e+00
 1.2440991495e+00	 2.2737237065e-01	 3.2740858577e+00
 1.2420277338e+00	 2.3842827199e-01	 3.2404418913e+00
 1.2398519961e+00	 2.4949550584e-01	 3.2062460152e+00
 1.2375713667e+00	 2.6057271584e-01	 3.1713024183e+00
 1.2351852976e+00	 2.7165852822e-01	 3.1353862132e+00
 1.2326932625e+00	 2.8275155227e-01	 3.0982454843e+00
 1.2300947574e+00	 2.9385038065e-01	 3.0596037528e+00
 1.2273893016e+00	 3.0495358983e-01	 3.0191628817e+00
 1.2245764373e+00	 3.1605974053e-01	 2.9766064376e+00
 1.2216557311e+00	 3.2716737810e-01	 2.9316035295e+00
 1.2547598303e+00	 2.1783832809e-01	 3.3311015668e+00
 1.2527784191e+00	 2.2895859963e-01	 3.2961037797e+00
 1.2506925525e+00	 2.4009163078e-01	 3.2606243977e+00
 1.2485016361e+00	 2.5123607352e-01	 3.2245011204e+00
 1.2462050963e+00	 2.6239056200e-01	 3.1875378388e+00
 1.2438023811e+00	 2.7355371288e-01	 3.1495061815e+00
 1.2412929607e+00	 2.8472412573e-01	 3.1101474693e+00
 1.2386763276e+00	 2.9590038340e-01	 3.0691751021e+00
 1.2359519975e+00	 3.0708105245e-01	 3.0262773990e+00
 1.2331195097e+00	 3.1826468353e-01	 2.9811209121e+00
 1.2301784277e+00	 3.2944981186e-01	 2.9333542342e+00
 1.2634528272e+00	 2.1934751563e-01	 3.3514856087e+00
 1.2614576888e+00	 2.3054482860e-01	 3.3149842405e+00
 1.2593573713e+00	 2.4175498958e-01	 3.2779248787e+00
 1.2571512761e+00	 2.5297664121e-01	 3.2401405557e+00
 1.2548388259e+00	 2.6420840816e-01	 3.2014273272e+00
 1.2524194647e+00	 2.7544889753e-01	 3.1615457162e+00
 1.2498926589e+00	 2.8669669919e-01	 3.1202225791e+00
 1.2472578977e+00	 2.9795038616e-01	 3.0771534184e+00
 1.2445146934e+00	 3.0920851507e-01	 3.0320051623e+00
 1.2416625821e+00	 3.2046962653e-01	 2.9844194369e+00
 1.2387011242e+00	 3.3173224561e-01	 2.9340163479e+00
 1.2721458241e+00	 2.2085670318e-01	 3.3682513016e+00
 1.2701369584e+00	 2.3213105757e-01	 3.3304923519e+00
 1.2680221900e+00	 2.4341834838e-01	 3.2921206507e+00
 1.2658009162e+00	 2.5471720889e-01	 3.2529573206e+00
 1.2634725554e+00	 2.6602625432e-01	 3.2127832490e+00
 1.2610365482e+00	 2.7734408219e-01	 3.1713404341e+00
 1.2584923571e+00	 2.8866927265e-01	 3.1283337660e+00
 1.2558394678e+00	 3.0000038892e-01	 3.0834332679e+00
 1.2530773893e+00	 3.1133597769e-01	 3.0362768217e+00
 1.2502056545e+00	 3.2267456953e-01	 2.9864734013e+00
 1.2472238207e+00	 3.3401467937e-01	 2.9336068357e+00
 1.2808388210e+00	 2.2236589073e-01	 3.3811637389e+00
 1.2788162281e+00	 2.3371728655e-01	 3.3424020996e+00
 1.2766870088e+00	 2.4508170717e-01	 3.3029978092e+00
 1.2744505562e+00	 2.5645777657e-01	 3.2627530420e+00
 1.2721062850e+00	 2.6784410049e-01	 3.2214263871e+00
 1.2696536317e+00	 2.7923926685e-01	 3.1787340981e+00
 1.2670920553e+00	 2.9064184611e-01	 3.1343517920e+00
 1.2644210380e+00	 3.0205039168e-01	 3.0879166236e+00
 1.2616400853e+00	 3.1346344031e-01	 3.0390299599e+00
 1.2587487269e+00	 3.2487951253e-01	 2.9872605805e+00
 1.2557465173e+00	 3.3629711312e-01	 2.9321484255e+00
 1.2895318179e+00	 2.2387507828e-01	 3.3899966048e+00
 1.2874954977e+00	 2.3530351552e-01	 3.3504960152e+00
 1.2853518275e+00	 2.4674506597e-01	 3.3103508996e+00
 1.2831001962e+00	 2.5819834425e-01	 3.2693376482e+00
 1.2807400145e+00	 2.6966194665e-01	 3.2271856208e+00
 1.2782707152e+00	 2.8113445150e-01	 3.1835783032e+00
 1.2756917535e+00	 2.9261441957e-01	 3.1381549259e+00
 1.2730026081e+00	 3.0410039444e-01	 3.0905125752e+00
 1.2702027812e+00	 3.1559090293e-01	 3.0402088200e+00
 1.2672917993e+00	 3.2708445554e-01	 2.9867648830e+00
 1.2642692138e+00	 3.3857954688e-01	 2.9296693792e+00
 1.2982248148e+00	 2.2538426583e-01	 3.3945318574e+00
 1.2961747674e+00	 2.3688974449e-01	 3.3545648584e+00
 1.2940166462e+00	 2.4840842477e-01	 3.3139826003e+00
 1.2917498362e+00	 2.5993891193e-01	 3.2725290536e+00
 1.2893737441e+00	 2.7147979281e-01	 3.2298976152e+00
 1.2868877987e+00	 2.8302963616e-01	 3.1857321733e+00
 1.2842914517e+00	 2.9458699304e-01	 3.1396286497e+00
 1.2815841782e+00	 3.0615039720e-01	 3.0911370484e+00
 1.2787654771e+00	 3.1771836555e-01	 3.0397640393e+00
 1.2758348717e+00	 3.2928939854e-01	 2.9849761038e+00
 1.2727919104e+00	 3.4086198063e-01	 2.9262032680e+00
 1.3069178117e+00	 2.2689345338e-01	 3.3945594243e+00
 1.3048540370e+00	 2.3847597347e-01	 3.3544073092e+00
 1.3026814650e+00	 2.5007178357e-01	 3.3137034148e+00
 1.3003994763e+00	 2.6167947961e-01	 3.2721528530e+00
 1.2980074737e+00	 2.7329763897e-01	 3.2294065192e+00
 1.2955048822e+00	 2.8492482082e-01	 3.1850620664e+00
 1.2928911499e+00	 2.9655956650e-01	 3.1386653729e+00
 1.2901657484e+00	 3.0820039996e-01	 3.0897125312e+00
 1.2873281730e+00	 3.1984582817e-01	 3.0376523915e+00
 1.2843779441e+00	 3.3149434154e-01	 2.9818896843e+00
 1.2813146069e+00	 3.4314441439e-01	 2.9217887532e+00
 1.3156108086e+00	 2.2840264093e-01	 3.3898769065e+00
 1.3135333067e+00	 2.4006220244e-01	 3.3498296704e+00
 1.3113462837e+00	 2.5173514237e-01	 3.3093313734e+00
 1.3090491163e+00	 2.6342004730e-01	 3.2680420252e+00
 1.3066412032e+00	 2.7511548514e-01	 3.2255636733e+00
 1.3041219657e+00	 2.8682000547e-01	 3.1814412878e+00
 1.3014908481e+00	 2.9853213996e-01	 3.1351641545e+00
 1.2987473185e+00	 3.1025040272e-01	 3.0861678075e+00
 1.2958908690e+00	 3.2197329079e-01	 3.0338365337e+00
 1.2929210165e+00	 3.3369928454e-01	 2.9775064766e+00
 1.2898373034e+00	 3.4542684815e-01	 2.9164693713e+00
 1.3243038055e+00	 2.2991182847e-01	 3.3802892923e+00
 1.3222125763e+00	 2.4164843142e-01	 3.3406455793e+00
 1.3200111024e+00	 2.5339850116e-01	 3.3006917442e+00
 1.3176987563e+00	 2.6516061498e-01	 3.2600366451e+00
 1.3152749328e+00	 2.7693333130e-01	 3.2182273257e+00
 1.3127390492e+00	 2.8871519013e-01	 3.1747498123e+00
 1.3100905464e+00	 3.0050471342e-01	 3.1290304335e+00
 1.3073288886e+00	 3.1230040548e-01	 3.0804376979e+00
 1.3044535649e+00	 3.2410075341e-01	 3.0282847613e+00
 1.3014640889e+00	 3.3590422754e-01	 2.9718325146e+00
 1.2983600000e+00	 3.4770928190e-01	 2.9102933239e+00
 1.3329968024e+00	 2.3142101602e-01	 3.3656086804e+00
 1.3308918460e+00	 2.4323466039e-01	 3.3266757276e+00
 1.3286759212e+00	 2.5506185996e-01	 3.2876167532e+00
 1.3263483964e+00	 2.6690118266e-01	 3.2479836049e+00
 1.3239086624e+00	 2.7875117746e-01	 3.2072623560e+00
 1.3213561328e+00	 2.9061037479e-01	 3.1648740133e+00
 1.3186902446e+00	 3.0247728689e-01	 3.1201757658e+00
 1.3159104587e+00	 3.1435040825e-01	 3.0724628070e+00
 1.3130162608e+00	 3.2622821604e-01	 3.0209707676e+00
 1.3100071613e+00	 3.3810917055e-01	 2.9648787890e+00
 1.3068826965e+00	 3.4999171566e-01	 2.9033132717e+00
 1.2216557311e+00	 3.2716737810e-01	 2.9316035295e+00
 1.2186267741e+00	 3.3827503318e-01	 2.8862402739e+00
 1.2154891835e+00	 3.4938122261e-01	 2.8420215651e+00
 1.2122426019e+00	 3.6048444952e-01	 2.7977446385e+00
 1.2088866979e+00	 3.7158320363e-01	 2.7522324915e+00
 1.2054211666e+00	 3.8267596183e-01	 2.7054414671e+00
 1.2018457296e+00	 3.9376118865e-01	 2.6577182269e+00
 1.1981601358e+00	 4.0483733686e-01	 2.6089637285e+00
 1.1943641616e+00	 4.1590284802e-01	 2.5591158425e+00
 1.1904576115e+00	 4.2695615308e-01	 2.5081512322e+00
 1.1864403182e+00	 4.3799567291e-01	 2.4560869092e+00
 1.2301784277e+00	 3.2944981186e-01	 2.9333542342e+00
 1.2271283396e+00	 3.4063495781e-01	 2.8852373975e+00
 1.2239688600e+00	 3.5181862790e-01	 2.8384180898e+00
 1.2206996291e+00	 3.6299931479e-01	 2.7916217403e+00
 1.2173203133e+00	 3.7417549768e-01	 2.7436700206e+00
 1.2138306052e+00	 3.8534564283e-01	 2.6946681280e+00
 1.2102302247e+00	 3.9650820405e-01	 2.6446748642e+00
 1.2065189189e+00	 4.0766162334e-01	 2.5935462888e+00
 1.2026964626e+00	 4.1880433137e-01	 2.5411773168e+00
 1.1987626590e+00	 4.2993474813e-01	 2.4875038181e+00
 1.1947173398e+00	 4.4105128351e-01	 2.4325043760e+00
 1.2387011242e+00	 3.3173224561e-01	 2.9340163479e+00
 1.2356299051e+00	 3.4299488244e-01	 2.8832355355e+00
 1.2324485366e+00	 3.5425603318e-01	 2.8338844788e+00
 1.2291566564e+00	 3.6551418005e-01	 2.7846255821e+00
 1.2257539286e+00	 3.7676779173e-01	 2.7343445726e+00
 1.2222400438e+00	 3.8801532382e-01	 2.6831522651e+00
 1.2186147198e+00	 3.9925521946e-01	 2.6309205247e+00
 1.2148777020e+00	 4.1048590982e-01	 2.5774678155e+00
 1.2110287637e+00	 4.2170581472e-01	 2.5226533769e+00
 1.2070677066e+00	 4.3291334319e-01	 2.4663795369e+00
 1.2029943613e+00	 4.4410689411e-01	 2.4085936689e+00
 1.2472238207e+00	 3.3401467937e-01	 2.9336068357e+00
 1.2441314706e+00	 3.4535480707e-01	 2.8802987827e+00
 1.2409282131e+00	 3.5669343846e-01	 2.8285299795e+00
 1.2376136837e+00	 3.6802904532e-01	 2.7769083854e+00
 1.2341875439e+00	 3.7936008577e-01	 2.7244268615e+00
 1.2306494823e+00	 3.9068500482e-01	 2.6710984452e+00
 1.2269992148e+00	 4.0200223487e-01	 2.6166897032e+00
 1.2232364850e+00	 4.1331019630e-01	 2.5609885196e+00
 1.2193610647e+00	 4.2460729806e-01	 2.5038254564e+00
 1.2153727542e+00	 4.3589193825e-01	 2.4450762775e+00
 1.2112713829e+00	 4.4716250471e-01	 2.3846640982e+00
 1.2557465173e+00	 3.3629711312e-01	 2.9321484255e+00
 1.2526330361e+00	 3.4771473171e-01	 2.8764963891e+00
 1.2494078897e+00	 3.5913084374e-01	 2.8224684979e+00
 1.2460707109e+00	 3.7054391059e-01	 2.7686267091e+00
 1.2426211592e+00	 3.8195237982e-01	 2.7140903823e+00
 1.2390589209e+00	 3.9335468582e-01	 2.6587136082e+00
 1.2353837099e+00	 4.0474925027e-01	 2.6022189417e+00
 1.2315952681e+00	 4.1613448278e-01	 2.5443704183e+00
 1.2276933657e+00	 4.2750878141e-01	 2.4849766442e+00
 1.2236778018e+00	 4.3887053331e-01	 2.4238935271e+00
 1.2195484044e+00	 4.5021811531e-01	 2.3610266140e+00
 1.2642692138e+00	 3.3857954688e-01	 2.9296693792e+00
 1.2611346015e+00	 3.5007465634e-01	 2.8719025539e+00
 1.2578875662e+00	 3.6156824903e-01	 2.8158184147e+00
 1.2545277382e+00	 3.7305877585e-01	 2.7599562555e+00
 1.2510547745e+00	 3.8454467387e-01	 2.7035113058e+00
 1.2474683594e+00	 3.9602436682e-01	 2.6462069676e+00
 1.2437682049e+00	 4.0749626568e-01	 2.5877467303e+00
 1.2399540512e+00	 4.1895876926e-01	 2.5278772325e+00
 1.2360256667e+00	 4.3041026476e-01	 2.4663915734e+00
 1.2319828493e+00	 4.4184912837e-01	 2.4031322472e+00
 1.2278254259e+00	 4.5327372591e-01	 2.3379936641e+00
 1.2727919104e+00	 3.4086198063e-01	 2.9262032680e+00
 1.2696361670e+00	 3.5243458097e-01	 2.8665962242e+00
 1.2663672428e+00	 3.6400565431e-01	 2.8087024037e+00
 1.2629847655e+00	 3.7557364112e-01	 2.7510582067e+00
 1.2594883898e+00	 3.8713696792e-01	 2.6928683757e+00
 1.2558777980e+00	 3.9869404781e-01	 2.6337899119e+00
 1.2521527000e+00	 4.1024328109e-01	 2.5735134089e+00
 1.2483128342e+00	 4.2178305574e-01	 2.5117742844e+00
 1.2443579678e+00	 4.3331174810e-01	 2.4483563106e+00
 1.2402878969e+00	 4.4482772342e-01	 2.3830947488e+00
 1.2361024475e+00	 4.5632933651e-01	 2.3158790510e+00
 1.2813146069e+00	 3.4314441439e-01	 2.9217887532e+00
 1.2781377325e+00	 3.5479450560e-01	 2.8606608973e+00
 1.2748469193e+00	 3.6644305959e-01	 2.8012472533e+00
 1.2714417927e+00	 3.7808850639e-01	 2.7420781809e+00
 1.2679220051e+00	 3.8972926196e-01	 2.6823428070e+00
 1.2642872365e+00	 4.0136372881e-01	 2.6216759068e+00
 1.2605371951e+00	 4.1299029649e-01	 2.5597610695e+00
 1.2566716173e+00	 4.2460734222e-01	 2.4963283957e+00
 1.2526902688e+00	 4.3621323145e-01	 2.4311582448e+00
 1.2485929445e+00	 4.4780631848e-01	 2.3640845685e+00
 1.2443794690e+00	 4.5938494711e-01	 2.2949977894e+00
 1.2898373034e+00	 3.4542684815e-01	 2.9164693713e+00
 1.2866392980e+00	 3.5715443023e-01	 2.8541844268e+00
 1.2833265959e+00	 3.6888046488e-01	 2.7935836909e+00
 1.2798988200e+00	 3.8060337166e-01	 2.7331646186e+00
 1.2763556204e+00	 3.9232155601e-01	 2.6721181846e+00
 1.2726966751e+00	 4.0403340981e-01	 2.6100803978e+00
 1.2689216901e+00	 4.1573731190e-01	 2.5467334586e+00
 1.2650304004e+00	 4.2743162870e-01	 2.4818077849e+00
 1.2610225698e+00	 4.3911471479e-01	 2.4150859762e+00
 1.2568979920e+00	 4.5078491354e-01	 2.3464063440e+00
 1.2526564905e+00	 4.6244055771e-01	 2.2756659641e+00
 1.2983600000e+00	 3.4770928190e-01	 2.9102933239e+00
 1.2951408634e+00	 3.5951435487e-01	 2.8472588318e+00
 1.2918062724e+00	 3.7131787016e-01	 2.7858448559e+00
 1.2883558473e+00	 3.8311823692e-01	 2.7244686762e+00
 1.2847892357e+00	 3.9491385006e-01	 2.6623803644e+00
 1.2811061136e+00	 4.0670309081e-01	 2.5992207140e+00
 1.2773061852e+00	 4.1848432731e-01	 2.5346758796e+00
 1.2733891834e+00	 4.3025591518e-01	 2.4684819653e+00
 1.2693548709e+00	 4.4201619814e-01	 2.4004292054e+00
 1.2652030396e+00	 4.5376350860e-01	 2.3303656896e+00
 1.2609335121e+00	 4.6549616831e-01	 2.2582005877e+00
 1.3068826965e+00	 3.4999171566e-01	 2.9033132717e+00
 1.3036424289e+00	 3.6187427950e-01	 2.8399801097e+00
 1.3002859490e+00	 3.7375527545e-01	 2.7781479208e+00
 1.2968128745e+00	 3.8563310219e-01	 2.7161441220e+00
 1.2932228510e+00	 3.9750614411e-01	 2.6533173748e+00
 1.2895155522e+00	 4.0937277181e-01	 2.5893159720e+00
 1.2856906802e+00	 4.2123134272e-01	 2.5238350957e+00
 1.2817479665e+00	 4.3308020167e-01	 2.4566216429e+00
 1.2776871719e+00	 4.4491768149e-01	 2.3874786218e+00
 1.2735080872e+00	 4.5674210366e-01	 2.3162690718e+00
 1.2692105336e+00	 4.6855177891e-01	 2.2429194586e+00
 1.1864403182e+00	 4.3799567291e-01	 2.4560869092e+00
 1.1823114322e+00	 4.4902169174e-01	 2.4027203359e+00
 1.1780715168e+00	 4.6003073296e-01	 2.3478679339e+00
 1.1737204915e+00	 4.7102118972e-01	 2.2916172045e+00
 1.1692583055e+00	 4.8199144765e-01	 2.2341062353e+00
 1.1646849381e+00	 4.9293988553e-01	 2.1755234562e+00
 1.1600003990e+00	 5.0386487593e-01	 2.1161069289e+00
 1.1552047288e+00	 5.1476478594e-01	 2.0561431522e+00
 1.1502979987e+00	 5.2563797785e-01	 1.9959653728e+00
 1.1452803116e+00	 5.3648280987e-01	 1.9359513916e+00
 1.1401518013e+00	 5.4729763683e-01	 1.8765208606e+00
 1.1947173398e+00	 4.4105128351e-01	 2.4325043760e+00
 1.1905596492e+00	 4.5215422370e-01	 2.3760225580e+00
 1.1862901547e+00	 4.6324006783e-01	 2.3179857360e+00
 1.1819087751e+00	 4.7430719784e-01	 2.2585415798e+00
 1.1774154593e+00	 4.8535398812e-01	 2.1978896587e+00
 1.1728101865e+00	 4.9637880612e-01	 2.1362811521e+00
 1.1680929665e+00	 5.0738001307e-01	 2.0740180673e+00
 1.1632638399e+00	 5.1835596466e-01	 2.0114519488e+00
 1.1583228788e+00	 5.2930501175e-01	 1.9489820678e+00
 1.1532701865e+00	 5.4022550109e-01	 1.8870530806e+00
 1.1481058980e+00	 5.5111577606e-01	 1.8261521519e+00
 1.2029943613e+00	 4.4410689411e-01	 2.4085936689e+00
 1.1988078661e+00	 4.5528675565e-01	 2.3491701966e+00
 1.1945087925e+00	 4.6644940269e-01	 2.2881219183e+00
 1.1900970587e+00	 4.7759320597e-01	 2.2256486420e+00
 1.1855726132e+00	 4.8871652860e-01	 2.1620035409e+00
 1.1809354349e+00	 4.9981772672e-01	 2.0974928292e+00
 1.1761855339e+00	 5.1089515021e-01	 2.0324749212e+00
 1.1713229511e+00	 5.2194714337e-01	 1.9673590555e+00
 1.1663477589e+00	 5.3297204564e-01	 1.9026033722e+00
 1.1612600615e+00	 5.4396819232e-01	 1.8387124325e+00
 1.1560599947e+00	 5.5493391529e-01	 1.7762341755e+00
 1.2112713829e+00	 4.4716250471e-01	 2.3846640982e+00
 1.2070560831e+00	 4.5841928761e-01	 2.3224817818e+00
 1.2027274304e+00	 4.6965873756e-01	 2.2586050840e+00
 1.1982853423e+00	 4.8087921410e-01	 2.1932780026e+00
 1.1937297670e+00	 4.9207906907e-01	 2.1267995238e+00
 1.1890606833e+00	 5.0325664731e-01	 2.0595232777e+00
 1.1842781013e+00	 5.1441028735e-01	 1.9918566486e+00
 1.1793820623e+00	 5.2553832208e-01	 1.9242593254e+00
 1.1743726390e+00	 5.3663907953e-01	 1.8572412762e+00
 1.1692499365e+00	 5.4771088354e-01	 1.7913601382e+00
 1.1640140914e+00	 5.5875205452e-01	 1.7272180146e+00
 1.2195484044e+00	 4.5021811531e-01	 2.3610266140e+00
 1.2153043001e+00	 4.6155181956e-01	 2.2962775450e+00
 1.2109460682e+00	 4.7286807242e-01	 2.2297655333e+00
 1.2064736259e+00	 4.8416522222e-01	 2.1617708954e+00
 1.2018869208e+00	 4.9544160954e-01	 2.0926307251e+00
 1.1971859318e+00	 5.0669556791e-01	 2.0227385396e+00
 1.1923706688e+00	 5.1792542449e-01	 1.9525433546e+00
 1.1874411734e+00	 5.2912950080e-01	 1.8825481706e+00
 1.1823975192e+00	 5.4030611342e-01	 1.8133078552e+00
 1.1772398114e+00	 5.5145357476e-01	 1.7454264107e+00
 1.1719681881e+00	 5.6257019375e-01	 1.6795536197e+00
 1.2278254259e+00	 4.5327372591e-01	 2.3379936641e+00
 1.2235525171e+00	 4.6468435151e-01	 2.2708792554e+00
 1.2191647061e+00	 4.7607740729e-01	 2.2019350789e+00
 1.2146619095e+00	 4.8745123035e-01	 2.1314699731e+00
 1.2100440746e+00	 4.9880415001e-01	 2.0598515138e+00
 1.2053111802e+00	 5.1013448850e-01	 1.9875056651e+00
 1.2004632362e+00	 5.2144056162e-01	 1.9149158302e+00
 1.1955002846e+00	 5.3272067951e-01	 1.8426212849e+00
 1.1904223993e+00	 5.4397314732e-01	 1.7712149762e+00
 1.1852296864e+00	 5.5519626599e-01	 1.7013406771e+00
 1.1799222848e+00	 5.6638833298e-01	 1.6336894877e+00
 1.2361024475e+00	 4.5632933651e-01	 2.3158790510e+00
 1.2318007341e+00	 4.6781688346e-01	 2.2466100562e+00
 1.2273833439e+00	 4.7928674215e-01	 2.1754468624e+00
 1.2228501930e+00	 4.9073723847e-01	 2.1027191026e+00
 1.2182012284e+00	 5.0216669048e-01	 2.0288172872e+00
 1.2134364286e+00	 5.1357340909e-01	 1.9541924711e+00
 1.2085558036e+00	 5.2495569876e-01	 1.8793552933e+00
 1.2035593958e+00	 5.3631185822e-01	 1.8048743668e+00
 1.1984472794e+00	 5.4764018121e-01	 1.7313740053e+00
 1.1932195614e+00	 5.5893895721e-01	 1.6595312715e+00
 1.1878763815e+00	 5.7020647220e-01	 1.5900723415e+00
 1.2443794690e+00	 4.5938494711e-01	 2.2949977894e+00
 1.2400489511e+00	 4.7094941542e-01	 2.2237943020e+00
 1.2356019818e+00	 4.8249607701e-01	 2.1506351707e+00
 1.2310384766e+00	 4.9402324660e-01	 2.0758631627e+00
 1.2263583823e+00	 5.0552923095e-01	 1.9998842489e+00
 1.2215616770e+00	 5.1701232969e-01	 1.9231673007e+00
 1.2166483711e+00	 5.2847083590e-01	 1.8462431292e+00
 1.2116185069e+00	 5.3990303693e-01	 1.7697028444e+00
 1.2064721595e+00	 5.5130721510e-01	 1.6941955165e+00
 1.2012094364e+00	 5.6268164843e-01	 1.6204251285e+00
 1.1958304782e+00	 5.7402461143e-01	 1.5491468099e+00
 1.2526564905e+00	 4.6244055771e-01	 2.2756659641e+00
 1.2482971680e+00	 4.7408194737e-01	 2.2027573963e+00
 1.2438206197e+00	 4.8570541188e-01	 2.1278352543e+00
 1.2392267602e+00	 4.9730925472e-01	 2.0512478421e+00
 1.2345155361e+00	 5.0889177143e-01	 1.9734091877e+00
 1.2296869254e+00	 5.2045125028e-01	 1.8947987828e+00
 1.2247409385e+00	 5.3198597304e-01	 1.8159606340e+00
 1.2196776181e+00	 5.4349421564e-01	 1.7375016001e+00
 1.2144970396e+00	 5.5497424899e-01	 1.6600890005e+00
 1.2091993113e+00	 5.6642433966e-01	 1.5844474778e+00
 1.2037845749e+00	 5.7784275066e-01	 1.5113551082e+00
 1.2609335121e+00	 4.6549616831e-01	 2.2582005877e+00
 1.2565453850e+00	 4.7721447932e-01	 2.1838256293e+00
 1.2520392575e+00	 4.8891474675e-01	 2.1073831447e+00
 1.2474150438e+00	 5.0059526285e-01	 2.0292194376e+00
 1.2426726899e+00	 5.1225431190e-01	 1.9497492570e+00
 1.2378121738e+00	 5.2389017087e-01	 1.8694555942e+00
 1.2328335059e+00	 5.3550111017e-01	 1.7888887572e+00
 1.2277367293e+00	 5.4708539436e-01	 1.7086646980e+00
 1.2225219197e+00	 5.5864128289e-01	 1.6294625756e+00
 1.2171891863e+00	 5.7016703088e-01	 1.5520215388e+00
 1.2117386716e+00	 5.8166088989e-01	 1.4771367191e+00
 1.2692105336e+00	 4.6855177891e-01	 2.2429194586e+00
 1.2647936020e+00	 4.8034701128e-01	 2.1673260159e+00
 1.2602578954e+00	 4.9212408161e-01	 2.0896154738e+00
 1.2556033274e+00	 5.0388127097e-01	 2.0101246540e+00
 1.2508298437e+00	 5.1561685237e-01	 1.9292617556e+00
 1.2459374222e+00	 5.2732909147e-01	 1.8475062211e+00
 1.2409260734e+00	 5.3901624731e-01	 1.7654078466e+00
 1.2357958404e+00	 5.5067657307e-01	 1.6835851100e+00
 1.2305467998e+00	 5.6230831678e-01	 1.6027226980e+00
 1.2251790613e+00	 5.7390972211e-01	 1.5235682166e+00
 1.2196927683e+00	 5.8547902912e-01	 1.4469280740e+00
 1.1401518013e+00	 5.4729763683e-01	 1.8765208606e+00
 1.1349135336e+00	 5.5807898070e-01	 1.8150337469e+00
 1.1295648427e+00	 5.6882703310e-01	 1.7490582292e+00
 1.1241059573e+00	 5.7954014345e-01	 1.6793997158e+00
 1.1185371380e+00	 5.9021666079e-01	 1.6068776527e+00
 1.1128586778e+00	 6.0085493454e-01	 1.5323195970e+00
 1.1070709020e+00	 6.1145331523e-01	 1.4572263817e+00
 1.1011741682e+00	 6.2201015531e-01	 1.3839721285e+00
 1.0951688665e+00	 6.3252380994e-01	 1.3125826587e+00
 1.0890554195e+00	 6.4299263775e-01	 1.2428734079e+00
 1.0828342824e+00	 6.5341500165e-01	 1.1745948396e+00
 1.1481058980e+00	 5.5111577606e-01	 1.8261521519e+00
 1.1428310863e+00	 5.6197233435e-01	 1.7635586514e+00
 1.1374450811e+00	 5.7279536891e-01	 1.6966808278e+00
 1.1319481126e+00	 5.8358321765e-01	 1.6262757528e+00
 1.1263404433e+00	 5.9433421811e-01	 1.5531173278e+00
 1.1206223682e+00	 6.0504670816e-01	 1.4779902430e+00
 1.1147942148e+00	 6.1571902685e-01	 1.4016834504e+00
 1.1088563433e+00	 6.2634951513e-01	 1.3251576676e+00
 1.1028091465e+00	 6.3693651668e-01	 1.2506900809e+00
 1.0966530500e+00	 6.4747837869e-01	 1.1785864431e+00
 1.0903885121e+00	 6.5797345264e-01	 1.1085460303e+00
 1.1560599947e+00	 5.5493391529e-01	 1.7762341755e+00
 1.1507486390e+00	 5.6586568800e-01	 1.7123953304e+00
 1.1453253194e+00	 5.7676370472e-01	 1.6444797303e+00
 1.1397902678e+00	 5.8762629186e-01	 1.5732009948e+00
 1.1341437485e+00	 5.9845177542e-01	 1.4992924242e+00
 1.1283860585e+00	 6.0923848178e-01	 1.4235008304e+00
 1.1225175276e+00	 6.1998473847e-01	 1.3465798534e+00
 1.1165385184e+00	 6.3068887495e-01	 1.2692827887e+00
 1.1104494265e+00	 6.4134922343e-01	 1.1923669009e+00
 1.1042506805e+00	 6.5196411963e-01	 1.1175943623e+00
 1.0979427418e+00	 6.6253190362e-01	 1.0455866752e+00
 1.1640140914e+00	 5.5875205452e-01	 1.7272180146e+00
 1.1586661917e+00	 5.6975904164e-01	 1.6620148175e+00
 1.1532055578e+00	 5.8073204052e-01	 1.5929432038e+00
 1.1476324231e+00	 5.9166936606e-01	 1.5206781402e+00
 1.1419470538e+00	 6.0256933273e-01	 1.4459171925e+00
 1.1361497489e+00	 6.1343025541e-01	 1.3693742139e+00
 1.1302408404e+00	 6.2425045010e-01	 1.2917724899e+00
 1.1242206935e+00	 6.3502823477e-01	 1.2138373660e+00
 1.1180897066e+00	 6.4576193017e-01	 1.1362883823e+00
 1.1118483110e+00	 6.5644986057e-01	 1.0598309501e+00
 1.1054969714e+00	 6.6709035461e-01	 9.8565617739e-01
 1.1719681881e+00	 5.6257019375e-01	 1.6795536197e+00
 1.1665837444e+00	 5.7365239529e-01	 1.6128863267e+00
 1.1610857962e+00	 5.8470037633e-01	 1.5425570398e+00
 1.1554745784e+00	 5.9571244026e-01	 1.4692067917e+00
 1.1497503591e+00	 6.0668689005e-01	 1.3935022077e+00
 1.1439134392e+00	 6.1762202903e-01	 1.3161290369e+00
 1.1379641532e+00	 6.2851616172e-01	 1.2377851115e+00
 1.1319028687e+00	 6.3936759459e-01	 1.1591727567e+00
 1.1257299866e+00	 6.5017463691e-01	 1.0809906816e+00
 1.1194459415e+00	 6.6093560150e-01	 1.0039253820e+00
 1.1130512011e+00	 6.7164880559e-01	 9.2864209349e-01
 1.1799222848e+00	 5.6638833298e-01	 1.6336894877e+00
 1.1745012971e+00	 5.7754574893e-01	 1.5654769177e+00
 1.1689660346e+00	 5.8866871214e-01	 1.4938042037e+00
 1.1633167337e+00	 5.9975551447e-01	 1.4192830869e+00
 1.1575536643e+00	 6.1080444736e-01	 1.3425539777e+00
 1.1516771296e+00	 6.2181380265e-01	 1.2642793164e+00
 1.1456874660e+00	 6.3278187334e-01	 1.1851363301e+00
 1.1395850438e+00	 6.4370695442e-01	 1.1058092100e+00
 1.1333702667e+00	 6.5458734366e-01	 1.0269807389e+00
 1.1270435720e+00	 6.6542134244e-01	 9.4932340279e-01
 1.1206054308e+00	 6.7620725658e-01	 8.7349002493e-01
 1.1878763815e+00	 5.7020647220e-01	 1.5900723415e+00
 1.1824188498e+00	 5.8143910258e-01	 1.5202511620e+00
 1.1768462729e+00	 5.9263704795e-01	 1.4471644843e+00
 1.1711588890e+00	 6.0379858867e-01	 1.3713993287e+00
 1.1653569696e+00	 6.1492200467e-01	 1.2935745528e+00
 1.1594408199e+00	 6.2600557627e-01	 1.2143340273e+00
 1.1534107788e+00	 6.3704758496e-01	 1.1343391756e+00
 1.1472672189e+00	 6.4804631424e-01	 1.0542609012e+00
 1.1410105467e+00	 6.5900005040e-01	 9.7477093392e-01
 1.1346412025e+00	 6.6990708338e-01	 8.9653263106e-01
 1.1281596605e+00	 6.8076570756e-01	 8.2019127182e-01
 1.1958304782e+00	 5.7402461143e-01	 1.5491468099e+00
 1.1903364025e+00	 5.8533245622e-01	 1.4776708084e+00
 1.1847265113e+00	 5.9660538376e-01	 1.4031141432e+00
 1.1790010443e+00	 6.0784166287e-01	 1.3260436158e+00
 1.1731602748e+00	 6.1903956198e-01	 1.2470611337e+00
 1.1672045102e+00	 6.3019734989e-01	 1.1667966868e+00
 1.1611340916e+00	 6.4131329658e-01	 1.0859006533e+00
 1.1549493941e+00	 6.5238567406e-01	 1.0050354602e+00
 1.1486508268e+00	 6.6341275714e-01	 9.2486663087e-01
 1.1422388330e+00	 6.7439282432e-01	 8.4605325521e-01
 1.1357138902e+00	 6.8532415854e-01	 7.6923792449e-01
 1.2037845749e+00	 5.7784275066e-01	 1.5113551082e+00
 1.1982539552e+00	 5.8922580987e-01	 1.4381944495e+00
 1.1926067497e+00	 6.0057371956e-01	 1.3621255637e+00
 1.1868431996e+00	 6.1188473708e-01	 1.2836994725e+00
 1.1809635801e+00	 6.2315711930e-01	 1.2035056807e+00
 1.1749682006e+00	 6.3438912351e-01	 1.1221649393e+00
 1.1688574044e+00	 6.4557900820e-01	 1.0403213016e+00
 1.1626315692e+00	 6.5672503388e-01	 9.5863349978e-01
 1.1562911068e+00	 6.6782546389e-01	 8.7776567455e-01
 1.1498364636e+00	 6.7887856526e-01	 7.9837749537e-01
 1.1432681199e+00	 6.8988260953e-01	 7.2111371419e-01
 1.2117386716e+00	 5.8166088989e-01	 1.4771367191e+00
 1.2061715080e+00	 5.9311916351e-01	 1.4022771878e+00
 1.2004869881e+00	 6.0454205537e-01	 1.3246669010e+00
 1.1946853549e+00	 6.1592781128e-01	 1.2448454794e+00
 1.1887668854e+00	 6.2727467661e-01	 1.1633945220e+00
 1.1827318909e+00	 6.3858089713e-01	 1.0809301406e+00
 1.1765807172e+00	 6.4984471983e-01	 9.9809475019e-01
 1.1703137443e+00	 6.6106439370e-01	 9.1554814426e-01
 1.1639313869e+00	 6.7223817063e-01	 8.3395788755e-01
 1.1574340941e+00	 6.8336430619e-01	 7.5398906610e-01
 1.1508223496e+00	 6.9444106051e-01	 6.7629343882e-01
 1.2196927683e+00	 5.8547902912e-01	 1.4469280740e+00
 1.2140890607e+00	 5.9701251716e-01	 1.3703703023e+00
 1.2083672264e+00	 6.0851039118e-01	 1.2912017311e+00
 1.2025275101e+00	 6.1997088548e-01	 1.2099549032e+00
 1.1965701906e+00	 6.3139223392e-01	 1.1272079621e+00
 1.1904955813e+00	 6.4277267076e-01	 1.0435769422e+00
 1.1843040300e+00	 6.5411043145e-01	 9.5970727774e-01
 1.1779959194e+00	 6.6540375352e-01	 8.7626455872e-01
 1.1715716669e+00	 6.7665087737e-01	 7.9392456789e-01
 1.1650317246e+00	 6.8785004713e-01	 7.1336264018e-01
 1.1583765792e+00	 6.9899951150e-01	 6.3524239028e-01
 1.0828342824e+00	 6.5341500165e-01	 1.1745948396e+00
 1.0765059431e+00	 6.6378926983e-01	 1.1071212180e+00
 1.0700709229e+00	 6.7411381717e-01	 1.0399089299e+00
 1.0635297760e+00	 6.8438702546e-01	 9.7273023082e-01
 1.0568830886e+00	 6.9460728400e-01	 9.0528805604e-01
 1.0501314794e+00	 7.0477299035e-01	 8.3722075741e-01
 1.0432755991e+00	 7.1488255120e-01	 7.6810730126e-01
 1.0363161302e+00	 7.2493438309e-01	 6.9747290511e-01
 1.0292537870e+00	 7.3492691326e-01	 6.2479508789e-01
 1.0220893154e+00	 7.4485858041e-01	 5.4986514181e-01
 1.0148234927e+00	 7.5472783548e-01	 4.7523894317e-01
 1.0903885121e+00	 6.5797345264e-01	 1.1085460303e+00
 1.0840160240e+00	 6.6842009533e-01	 1.0396825354e+00
 1.0775361109e+00	 6.7881667031e-01	 9.7120180224e-01
 1.0709493307e+00	 6.8916154809e-01	 9.0283502396e-01
 1.0642562737e+00	 6.9945310671e-01	 8.3423987780e-01
 1.0574575630e+00	 7.0968973258e-01	 7.6500549614e-01
 1.0505538536e+00	 7.1986982125e-01	 6.9465792084e-01
 1.0435458330e+00	 7.2999177823e-01	 6.2266601732e-01
 1.0364342204e+00	 7.4005401978e-01	 5.4844782225e-01
 1.0292197670e+00	 7.5005497370e-01	 4.7309989675e-01
 1.0219032553e+00	 7.5999308014e-01	 3.9844639719e-01
 1.0979427418e+00	 6.6253190362e-01	 1.0455866752e+00
 1.0915261050e+00	 6.7305092083e-01	 9.7517545524e-01
 1.0850012990e+00	 6.8351952346e-01	 9.0529176832e-01
 1.0783688854e+00	 6.9393607072e-01	 8.3562520833e-01
 1.0716294588e+00	 7.0429892943e-01	 7.6578772945e-01
 1.0647836465e+00	 7.1460647481e-01	 6.9531885977e-01
 1.0578321081e+00	 7.2485709130e-01	 6.2369142061e-01
 1.0507755358e+00	 7.3504917337e-01	 5.5031772701e-01
 1.0436146539e+00	 7.4518112629e-01	 4.7491600057e-01
 1.0363502186e+00	 7.5525136699e-01	 3.9969430292e-01
 1.0289830180e+00	 7.6525832479e-01	 3.2493146114e-01
 1.1054969714e+00	 6.6709035461e-01	 9.8565617739e-01
 1.0990361860e+00	 6.7768174633e-01	 9.1353460022e-01
 1.0924664870e+00	 6.8822237660e-01	 8.4211343965e-01
 1.0857884401e+00	 6.9871059335e-01	 7.7104009930e-01
 1.0790026439e+00	 7.0914475215e-01	 6.9988028371e-01
 1.0721097300e+00	 7.1952321704e-01	 6.2812346299e-01
 1.0651103626e+00	 7.2984436136e-01	 5.5518886587e-01
 1.0580052387e+00	 7.4010656851e-01	 4.8043197601e-01
 1.0507950873e+00	 7.5030823281e-01	 4.0472061415e-01
 1.0434806702e+00	 7.6044776028e-01	 3.2955027888e-01
 1.0360627807e+00	 7.7052356945e-01	 2.5461783620e-01
 1.1130512011e+00	 6.7164880559e-01	 9.2864209349e-01
 1.1065462670e+00	 6.8231257183e-01	 8.5469859606e-01
 1.0999316750e+00	 6.9292522974e-01	 7.8160618011e-01
 1.0932079948e+00	 7.0348511597e-01	 7.0902442243e-01
 1.0863758290e+00	 7.1399057486e-01	 6.3647218906e-01
 1.0794358135e+00	 7.2443995927e-01	 5.6338836877e-01
 1.0723886171e+00	 7.3483163141e-01	 4.8913814905e-01
 1.0652349415e+00	 7.4516396364e-01	 4.1332329170e-01
 1.0579755208e+00	 7.5543533932e-01	 3.3775134873e-01
 1.0506111218e+00	 7.6564415357e-01	 2.6256680203e-01
 1.0431425434e+00	 7.7578881410e-01	 1.8742560270e-01
 1.1206054308e+00	 6.7620725658e-01	 8.7349002493e-01
 1.1140563480e+00	 6.8694339732e-01	 7.9853942343e-01
 1.1073968631e+00	 6.9762808288e-01	 7.2371405533e-01
 1.1006275495e+00	 7.0825963860e-01	 6.4952826273e-01
 1.0937490141e+00	 7.1883639758e-01	 5.7552402268e-01
 1.0867618971e+00	 7.2935670150e-01	 5.0108904891e-01
 1.0796668717e+00	 7.3981890146e-01	 4.2553396156e-01
 1.0724646443e+00	 7.5022135878e-01	 3.4939105203e-01
 1.0651559543e+00	 7.6056244583e-01	 2.7388733306e-01
 1.0577415734e+00	 7.7084054685e-01	 1.9863979833e-01
 1.0502223061e+00	 7.8105405876e-01	 1.2327112321e-01
 1.1281596605e+00	 6.8076570756e-01	 8.2019127182e-01
 1.1215664290e+00	 6.9157422282e-01	 7.4450251000e-01
 1.1148620511e+00	 7.0233093602e-01	 6.6835946434e-01
 1.1080471042e+00	 7.1303416123e-01	 5.9250701701e-01
 1.1011221992e+00	 7.2368222029e-01	 5.1700224664e-01
 1.0940879806e+00	 7.3427344373e-01	 4.4120734777e-01
 1.0869451262e+00	 7.4480617151e-01	 3.6458858720e-01
 1.0796943471e+00	 7.5527875392e-01	 2.8850495982e-01
 1.0723363877e+00	 7.6568955235e-01	 2.1300508865e-01
 1.0648720250e+00	 7.7603694014e-01	 1.3766203394e-01
 1.0573020688e+00	 7.8631930341e-01	 6.2066946635e-02
 1.1357138902e+00	 6.8532415854e-01	 7.6923792449e-01
 1.1290765099e+00	 6.9620504832e-01	 6.9287010100e-01
 1.1223272392e+00	 7.0703378917e-01	 6.1553564658e-01
 1.1154666590e+00	 7.1780868385e-01	 5.3800041624e-01
 1.1084953844e+00	 7.2852804301e-01	 4.6087916730e-01
 1.1014140641e+00	 7.3919018596e-01	 3.8373144922e-01
 1.0942233807e+00	 7.4979344156e-01	 3.0662614507e-01
 1.0869240500e+00	 7.6033614906e-01	 2.3052656966e-01
 1.0795168212e+00	 7.7081665886e-01	 1.5497841431e-01
 1.0720024766e+00	 7.8123333343e-01	 7.9523008402e-02
 1.0643818315e+00	 7.9158454807e-01	 3.7217133298e-03
 1.1432681199e+00	 6.8988260953e-01	 7.2111371419e-01
 1.1365865909e+00	 7.0083587382e-01	 6.4411772216e-01
 1.1297924272e+00	 7.1173664231e-01	 5.6566608119e-01
 1.1228862137e+00	 7.2258320648e-01	 4.8652280740e-01
 1.1158685695e+00	 7.3337386572e-01	 4.0735786793e-01
 1.1087401476e+00	 7.4410692819e-01	 3.2876927768e-01
 1.1015016352e+00	 7.5478071162e-01	 2.5150808371e-01
 1.0941537528e+00	 7.6539354420e-01	 1.7531503958e-01
 1.0866972546e+00	 7.7594376538e-01	 9.9678272902e-02
 1.0791329282e+00	 7.8642972672e-01	 2.4108849453e-02
 1.0714615942e+00	 7.9684979272e-01	-5.1859938928e-02
 1.1508223496e+00	 6.9444106051e-01	 6.7629343882e-01
 1.1440966719e+00	 7.0546669932e-01	 5.9871151608e-01
 1.1372576152e+00	 7.1643949545e-01	 5.1921164087e-01
 1.1303057684e+00	 7.2735772911e-01	 4.3855786284e-01
 1.1232417546e+00	 7.3821968844e-01	 3.5741990738e-01
 1.1160662312e+00	 7.4902367042e-01	 2.7696190960e-01
 1.1087798897e+00	 7.5976798167e-01	 1.9908295800e-01
 1.1013834556e+00	 7.7045093933e-01	 1.2272701521e-01
 1.0938776881e+00	 7.8107087189e-01	 4.6972680031e-02
 1.0862633799e+00	 7.9162612001e-01	-2.8697790606e-02
 1.0785413569e+00	 8.0211503738e-01	-1.0477746804e-01
 1.1583765792e+00	 6.9899951150e-01	 6.3524239028e-01
 1.1516067529e+00	 7.1009752482e-01	 5.5710763326e-01
 1.1447228033e+00	 7.2114234859e-01	 4.7662262217e-01
 1.1377253231e+00	 7.3213225174e-01	 3.9455340115e-01
 1.1306149397e+00	 7.4306551116e-01	 3.1161122918e-01
 1.1233923147e+00	 7.5394041265e-01	 2.2956776279e-01
 1.1160581442e+00	 7.6475525172e-01	 1.4969982285e-01
 1.1086131585e+00	 7.7550833447e-01	 7.2616516153e-02
 1.1010581216e+00	 7.8619797841e-01	-3.2734052114e-03
 1.0933938315e+00	 7.9682251330e-01	-7.9017837136e-02
 1.0856211196e+00	 8.0738028204e-01	-1.5513451988e-01
 1.0148234927e+00	 7.5472783548e-01	 4.7523894317e-01
 1.0074558669e+00	 7.6453480300e-01	 4.0183633785e-01
 9.9998850774e-01	 7.7427627210e-01	 3.2991779213e-01
 9.9242228952e-01	 7.8395072873e-01	 2.5927594698e-01
 9.8475811671e-01	 7.9355667418e-01	 1.8971919204e-01
 9.7699692376e-01	 8.0309262581e-01	 1.2107066187e-01
 9.6913967462e-01	 8.1255711779e-01	 5.3167114405e-02
 9.6118736245e-01	 8.2194870185e-01	-1.4142297143e-02
 9.5314100914e-01	 8.3126594802e-01	-8.0997346963e-02
 9.4500166493e-01	 8.4050744529e-01	-1.4752814156e-01
 9.3677040792e-01	 8.4967180238e-01	-2.1385659381e-01
 1.0219032553e+00	 7.5999308014e-01	 3.9844639719e-01
 1.0144842304e+00	 7.6986846449e-01	 3.2479906027e-01
 1.0069647764e+00	 7.7967789347e-01	 2.5251383314e-01
 9.9934577360e-01	 7.8941984248e-01	 1.8141921184e-01
 9.9162813285e-01	 7.9909280236e-01	 1.1135992913e-01
 9.8381279511e-01	 8.0869528011e-01	 4.2195810460e-02
 9.7590073106e-01	 8.1822579969e-01	-2.6199492679e-02
 9.6789294079e-01	 8.2768290272e-01	-9.3939880251e-02
 9.5979045331e-01	 8.3706514924e-01	-1.6112827942e-01
 9.5159432619e-01	 8.4637111842e-01	-2.2785820528e-01
 9.4330564507e-01	 8.5559940926e-01	-2.9421539277e-01
 1.0289830180e+00	 7.6525832479e-01	 3.2493146114e-01
 1.0215125940e+00	 7.7520212597e-01	 2.5097733784e-01
 1.0139410451e+00	 7.8507951483e-01	 1.7828209502e-01
 1.0062692577e+00	 7.9488895623e-01	 1.0670829769e-01
 9.9849814899e-01	 8.0462893054e-01	 3.6135062032e-02
 9.9062866646e-01	 8.1429793442e-01	-3.3543231104e-02
 9.8266178750e-01	 8.2389448159e-01	-1.0241835032e-01
 9.7459851912e-01	 8.3341710359e-01	-1.7056974276e-01
 9.6643989748e-01	 8.4286435047e-01	-2.3806616483e-01
 9.5818698745e-01	 8.5223479156e-01	-3.0496740059e-01
 9.4984088221e-01	 8.6152701615e-01	-3.7132605320e-01
 1.0360627807e+00	 7.7052356945e-01	 2.5461783620e-01
 1.0285409576e+00	 7.8053578745e-01	 1.8031676512e-01
 1.0209173137e+00	 7.9048113620e-01	 1.0718647594e-01
 1.0131927418e+00	 8.0035806999e-01	 3.5121868924e-02
 1.0053681651e+00	 8.1016505872e-01	-3.5965459864e-02
 9.9744453781e-01	 8.1990058872e-01	-1.0614865011e-01
 9.8942284394e-01	 8.2956316350e-01	-1.7548714124e-01
 9.8130409746e-01	 8.3915130446e-01	-2.4402835543e-01
 9.7308934164e-01	 8.4866355170e-01	-3.1180948549e-01
 9.6477964872e-01	 8.5809846470e-01	-3.7885937296e-01
 9.5637611935e-01	 8.6745462304e-01	-4.4520046086e-01
 1.0431425434e+00	 7.7578881410e-01	 1.8742560270e-01
 1.0355693211e+00	 7.8586944893e-01	 1.1275863060e-01
 1.0278935824e+00	 7.9588275757e-01	 3.9185978775e-02
 1.0201162258e+00	 8.0582718374e-01	-3.3366798963e-02
 1.0122381813e+00	 8.1570118689e-01	-1.0495747451e-01
 1.0042604092e+00	 8.2550324302e-01	-1.7562872485e-01
 9.9618390038e-01	 8.3523184540e-01	-2.4540984853e-01
 9.8800967579e-01	 8.4488550533e-01	-3.1431860506e-01
 9.7973878581e-01	 8.5446275293e-01	-3.8236316238e-01
 9.7137230998e-01	 8.6396213783e-01	-4.4954413680e-01
 9.6291135649e-01	 8.7338222993e-01	-5.1585670906e-01
 1.0502223061e+00	 7.8105405876e-01	 1.2327112321e-01
 1.0425976847e+00	 7.9120311041e-01	 4.8239833176e-02
 1.0348698510e+00	 8.0128437894e-01	-2.5765362466e-02
 1.0270397099e+00	 8.1129629749e-01	-9.8789886225e-02
 1.0191081974e+00	 8.2123731507e-01	-1.7086267048e-01
 1.0110762805e+00	 8.3110589733e-01	-2.4199788755e-01
 1.0029449568e+00	 8.4090052730e-01	-3.1219682139e-01
 9.9471525413e-01	 8.5061970620e-01	-3.8144986613e-01
 9.8638822998e-01	 8.6026195415e-01	-4.4973863564e-01
 9.7796497124e-01	 8.6982581097e-01	-5.1703816770e-01
 9.6944659363e-01	 8.7930983682e-01	-5.8331920565e-01
 1.0573020688e+00	 7.8631930341e-01	 6.2066946635e-02
 1.0496260483e+00	 7.9653677189e-01	-1.3307201171e-02
 1.0418461197e+00	 8.0668600031e-01	-8.7718556469e-02
 1.0339631940e+00	 8.1676541124e-01	-1.6118509645e-01
 1.0259782136e+00	 8.2677344325e-01	-2.3370865146e-01
 1.0178921519e+00	 8.3670855163e-01	-3.0527678874e-01
 1.0097060133e+00	 8.4656920920e-01	-3.7586484239e-01
 1.0014208325e+00	 8.5635390706e-01	-4.4543807387e-01
 9.9303767415e-01	 8.6606115538e-01	-5.1395394636e-01
 9.8455763250e-01	 8.7568948410e-01	-5.8136449585e-01
 9.7598183078e-01	 8.8523744370e-01	-6.4761878074e-01
 1.0643818315e+00	 7.9158454807e-01	 3.7217133298e-03
 1.0566544118e+00	 8.0187043338e-01	-7.1954602366e-02
 1.0488223884e+00	 8.1208762167e-01	-1.4672972882e-01
 1.0408866781e+00	 8.2223452499e-01	-2.2059572496e-01
 1.0328482297e+00	 8.3230957143e-01	-2.9352900175e-01
 1.0247080232e+00	 8.4231120594e-01	-3.6549236288e-01
 1.0164670697e+00	 8.5223789110e-01	-4.3643719609e-01
 1.0081264108e+00	 8.6208810793e-01	-5.0630579865e-01
 9.9968711831e-01	 8.7186035661e-01	-5.7503381958e-01
 9.9115029376e-01	 8.8155315724e-01	-6.4255280032e-01
 9.8251706792e-01	 8.9116505059e-01	-7.0879279493e-01
 1.0714615942e+00	 7.9684979272e-01	-5.1859938928e-02
 1.0636827754e+00	 8.0720409486e-01	-1.2777913902e-01
 1.0557986570e+00	 8.1748924304e-01	-2.0286019648e-01
 1.0478101622e+00	 8.2770363875e-01	-2.7707072788e-01
 1.0397182458e+00	 8.3784569961e-01	-3.5036335288e-01
 1.0315238946e+00	 8.4791386024e-01	-4.2267789528e-01
 1.0232281261e+00	 8.5790657300e-01	-4.9394373898e-01
 1.0148319891e+00	 8.6782230880e-01	-5.6408232181e-01
 1.0063365625e+00	 8.7765955784e-01	-6.3300974855e-01
 9.9774295503e-01	 8.8741683038e-01	-7.0063950431e-01
 9.8905230506e-01	 8.9709265748e-01	-7.6688524814e-01
 1.0785413569e+00	 8.0211503738e-01	-1.0477746804e-01
 1.0707111390e+00	 8.1253775634e-01	-1.8086230096e-01
 1.0627749257e+00	 8.2289086441e-01	-2.5617654259e-01
 1.0547336463e+00	 8.3317275250e-01	-3.3066479200e-01
 1.0465882620e+00	 8.4338182779e-01	-4.0425745123e-01
 1.0383397659e+00	 8.5351651454e-01	-4.7687309018e-01
 1.0299891826e+00	 8.6357525491e-01	-5.4842097080e-01
 1.0215375675e+00	 8.7355650967e-01	-6.1880371261e-01
 1.0129860066e+00	 8.8345875907e-01	-6.8792007998e-01
 1.0043356163e+00	 8.9328050351e-01	-7.5566787129e-01
 9.9558754220e-01	 9.0302026437e-01	-8.2194688903e-01
 1.0856211196e+00	 8.0738028204e-01	-1.5513451988e-01
 1.0777395025e+00	 8.1787141782e-01	-2.3129038153e-01
 1.0697511944e+00	 8.2829248578e-01	-3.0675069149e-01
 1.0616571303e+00	 8.3864186625e-01	-3.8143840525e-01
 1.0534582781e+00	 8.4891795597e-01	-4.5526322659e-01
 1.0451556373e+00	 8.5911916885e-01	-5.2812414002e-01
 1.0367502390e+00	 8.6924393681e-01	-5.9991210696e-01
 1.0282431458e+00	 8.7929071054e-01	-6.7051290649e-01
 1.0196354508e+00	 8.8925796029e-01	-7.3981010048e-01
 1.0109282776e+00	 8.9914417665e-01	-8.0768810196e-01
 1.0021227793e+00	 9.0894787126e-01	-8.7403532488e-01
 9.3677040792e-01	 8.4967180238e-01	-2.1385659381e-01
 9.2844976344e-01	 8.5875611319e-01	-2.8045635695e-01
 9.2003945964e-01	 8.6776060528e-01	-3.4757103680e-01
 9.1154063999e-01	 8.7668396607e-01	-4.1493277976e-01
 9.0295447381e-01	 8.8552490531e-01	-4.8226790659e-01
 8.9428215577e-01	 8.9428215577e-01	-5.4929908500e-01
 8.8552490531e-01	 9.0295447381e-01	-6.1574749266e-01
 8.7668396607e-01	 9.1154063999e-01	-6.8133495552e-01
 8.6776060528e-01	 9.2003945964e-01	-7.4578604686e-01
 8.5875611319e-01	 9.2844976344e-01	-8.0883013255e-01
 8.4967180238e-01	 9.3677040792e-01	-8.7020334864e-01
 9.4330564507e-01	 8.5559940926e-01	-2.9421539277e-01
 9.3492695287e-01	 8.6474709540e-01	-3.6060378087e-01
 9.2645797586e-01	 8.7381440597e-01	-4.2724344032e-01
 9.1789986547e-01	 8.8280001924e-01	-4.9389980403e-01
 9.0925379920e-01	 8.9170263595e-01	-5.6033220472e-01
 9.0052098005e-01	 9.0052098005e-01	-6.2629611206e-01
 8.9170263595e-01	 9.0925379920e-01	-6.9154535938e-01
 8.8280001924e-01	 9.1789986547e-01	-7.5583434423e-01
 8.7381440597e-01	 9.2645797586e-01	-8.1892018759e-01
 8.6474709540e-01	 9.3492695287e-01	-8.8056483661e-01
 8.5559940926e-01	 9.4330564507e-01	-9.4053709638e-01
 9.4984088221e-01	 8.6152701615e-01	-3.7132605320e-01
 9.4140414229e-01	 8.7073807760e-01	-4.3746830223e-01
 9.3287649207e-01	 8.7986820666e-01	-5.0358372850e-01
 9.2425909095e-01	 8.8891607240e-01	-5.6947593389e-01
 9.1555312459e-01	 8.9788036659e-01	-6.3494220689e-01
 9.0675980432e-01	 9.0675980432e-01	-6.9977582184e-01
 8.9788036659e-01	 9.1555312459e-01	-7.6376832675e-01
 8.8891607240e-01	 9.2425909095e-01	-8.2671180337e-01
 8.7986820666e-01	 9.3287649207e-01	-8.8840108359e-01
 8.7073807760e-01	 9.4140414229e-01	-9.4863590662e-01
 8.6152701615e-01	 9.4984088221e-01	-1.0072230016e+00
 9.5637611935e-01	 8.6745462304e-01	-4.4520046086e-01
 9.4788133172e-01	 8.7672905981e-01	-5.1107200323e-01
 9.3929500828e-01	 8.8592200735e-01	-5.7662499665e-01
 9.3061831643e-01	 8.9503212556e-01	-6.4170598494e-01
 9.2185244998e-01	 9.0405809723e-01	-7.0615504652e-01
 9.1299862859e-01	 9.1299862859e-01	-7.6980815348e-01
 9.0405809723e-01	 9.2185244998e-01	-8.3249951812e-01
 8.9503212556e-01	 9.3061831643e-01	-8.9406391001e-01
 8.8592200735e-01	 9.3929500828e-01	-9.5433892694e-01
 8.7672905981e-01	 9.4788133172e-01	-1.0131672035e+00
 8.6745462304e-01	 9.5637611935e-01	-1.0703985417e+00
 9.6291135649e-01	 8.7338222993e-01	-5.1585670906e-01
 9.5435852114e-01	 8.8272004202e-01	-5.8144294981e-01
 9.4571352449e-01	 8.9197580803e-01	-6.4640606723e-01
 9.3697754191e-01	 9.0114817873e-01	-7.1064021239e-01
 9.2815177537e-01	 9.1023582787e-01	-7.7403297992e-01
 9.1923745287e-01	 9.1923745287e-01	-8.3646782488e-01
 9.1023582787e-01	 9.2815177537e-01	-8.9782646592e-01
 9.0114817873e-01	 9.3697754191e-01	-9.5799125700e-01
 8.9197580803e-01	 9.4571352449e-01	-1.0168475104e+00
 8.8272004202e-01	 9.5435852114e-01	-1.0742857543e+00
 8.7338222993e-01	 9.6291135649e-01	-1.1302039077e+00
 9.6944659363e-01	 8.7930983682e-01	-5.8331920565e-01
 9.6083571056e-01	 8.8871102423e-01	-6.4861531522e-01
 9.5213204070e-01	 8.9802960872e-01	-7.1297163087e-01
 9.4333676739e-01	 9.0726423189e-01	-7.7633447023e-01
 9.3445110076e-01	 9.1641355851e-01	-8.3864356418e-01
 9.2547627714e-01	 9.2547627714e-01	-8.9983452987e-01
 9.1641355851e-01	 9.3445110076e-01	-9.5984132857e-01
 9.0726423189e-01	 9.4333676739e-01	-1.0185986900e+00
 8.9802960872e-01	 9.5213204070e-01	-1.0760444850e+00
 8.8871102423e-01	 9.6083571056e-01	-1.1321220296e+00
 8.7930983682e-01	 9.6944659363e-01	-1.1867823024e+00
 9.7598183078e-01	 8.8523744370e-01	-6.4761878074e-01
 9.6731289999e-01	 8.9470200644e-01	-7.1262950381e-01
 9.5855055691e-01	 9.0408340941e-01	-7.7637238708e-01
 9.4969599287e-01	 9.1338028506e-01	-8.3885036947e-01
 9.4075042615e-01	 9.2259128915e-01	-9.0005983362e-01
 9.3171510142e-01	 9.3171510142e-01	-9.5999313341e-01
 9.2259128915e-01	 9.4075042615e-01	-1.0186411048e+00
 9.1338028506e-01	 9.4969599287e-01	-1.0759955410e+00
 9.0408340941e-01	 9.5855055691e-01	-1.1320516129e+00
 8.9470200644e-01	 9.6731289999e-01	-1.1868102172e+00
 8.8523744370e-01	 9.7598183078e-01	-1.2402802335e+00
 9.8251706792e-01	 8.9116505059e-01	-7.0879279493e-01
 9.7379008941e-01	 9.0069298865e-01	-7.7353227496e-01
 9.6496907312e-01	 9.1013721009e-01	-8.3666518451e-01
 9.5605521835e-01	 9.1949633822e-01	-8.9825543557e-01
 9.4704975154e-01	 9.2876901979e-01	-9.5836047489e-01
 9.3795392569e-01	 9.3795392569e-01	-1.0170338648e+00
 9.2876901979e-01	 9.4704975154e-01	-1.0743278455e+00
 9.1949633822e-01	 9.5605521835e-01	-1.1302958594e+00
 9.1013721009e-01	 9.6496907312e-01	-1.1849950178e+00
 9.0069298865e-01	 9.7379008941e-01	-1.2384884906e+00
 8.9116505059e-01	 9.8251706792e-01	-1.2908478016e+00
 9.8905230506e-01	 8.9709265748e-01	-7.6688524814e-01
 9.8026727883e-01	 9.0668397086e-01	-8.3137686716e-01
 9.7138758933e-01	 9.1619101078e-01	-8.9391316106e-01
 9.6241444383e-01	 9.2561239139e-01	-9.5462326505e-01
 9.5334907693e-01	 9.3494675044e-01	-1.0136300007e+00
 9.4419274996e-01	 9.4419274996e-01	-1.0710525089e+00
 9.3494675044e-01	 9.5334907693e-01	-1.1270088627e+00
 9.2561239139e-01	 9.6241444383e-01	-1.1816186392e+00
 9.1619101078e-01	 9.7138758933e-01	-1.2350054304e+00
 9.0668397086e-01	 9.8026727883e-01	-1.2872992739e+00
 8.9709265748e-01	 9.8905230506e-01	-1.3386389832e+00
 9.9558754220e-01	 9.0302026437e-01	-8.2194688903e-01
 9.8674446826e-01	 9.1267495307e-01	-8.8622312219e-01
 9.7780610554e-01	 9.2224481147e-01	-9.4818588356e-01
 9.6877366931e-01	 9.3172844455e-01	-1.0080336814e+00
 9.5964840232e-01	 9.4112448108e-01	-1.0659589224e+00
 9.5043157424e-01	 9.5043157424e-01	-1.1221505961e+00
 9.4112448108e-01	 9.5964840232e-01	-1.1767969372e+00
 9.3172844455e-01	 9.6877366931e-01	-1.2300880436e+00
 9.2224481147e-01	 9.7780610554e-01	-1.2822184311e+00
 9.1267495307e-01	 9.8674446826e-01	-1.3333895020e+00
 9.0302026437e-01	 9.9558754220e-01	-1.3838119099e+00
 1.0021227793e+00	 9.0894787126e-01	-8.7403532488e-01
 9.9322165768e-01	 9.1866593528e-01	-9.3813760952e-01
 9.8422462175e-01	 9.2829861215e-01	-9.9955948724e-01
 9.7513289479e-01	 9.3784449771e-01	-1.0585728900e+00
 9.6594772771e-01	 9.4730221172e-01	-1.1154439210e+00
 9.5667039851e-01	 9.5667039851e-01	-1.1704355897e+00
 9.4730221172e-01	 9.6594772771e-01	-1.2238105226e+00
 9.3784449771e-01	 9.7513289479e-01	-1.2758336276e+00
 9.2829861215e-01	 9.8422462175e-01	-1.3267746897e+00
 9.1866593528e-01	 9.9322165768e-01	-1.3769108780e+00
 9.0894787126e-01	 1.0021227793e+00	-1.4265291421e+00
 8.4967180238e-01	 9.3677040792e-01	-8.7020334864e-01
 8.4050744529e-01	 9.4500166493e-01	-9.3034068871e-01
 8.3126594802e-01	 9.5314100914e-01	-9.8981987001e-01
 8.2194870185e-01	 9.6118736245e-01	-1.0486311581e+00
 8.1255711779e-01	 9.6913967462e-01	-1.1067698443e+00
 8.0309262581e-01	 9.7699692376e-01	-1.1642374517e+00
 7.9355667418e-01	 9.8475811671e-01	-1.2210428143e+00
 7.8395072873e-01	 9.9242228952e-01	-1.2772030223e+00
 7.7427627210e-01	 9.9998850774e-01	-1.3327442251e+00
 7.6453480300e-01	 1.0074558669e+00	-1.3877022853e+00
 7.5472783548e-01	 1.0148234927e+00	-1.4421232786e+00
 8.5559940926e-01	 9.4330564507e-01	-9.4053709638e-01
 8.4637111842e-01	 9.5159432619e-01	-9.9923164929e-01
 8.3706514924e-01	 9.5979045331e-01	-1.0571552018e+00
 8.2768290272e-01	 9.6789294079e-01	-1.1142848708e+00
 8.1822579969e-01	 9.7590073106e-01	-1.1706040024e+00
 8.0869528011e-01	 9.8381279511e-01	-1.2261034687e+00
 7.9909280236e-01	 9.9162813285e-01	-1.2807828295e+00
 7.8941984248e-01	 9.9934577360e-01	-1.3346513528e+00
 7.7967789347e-01	 1.0069647764e+00	-1.3877288827e+00
 7.6986846449e-01	 1.0144842304e+00	-1.4400465510e+00
 7.5999308014e-01	 1.0219032553e+00	-1.4916473249e+00
 8.6152701615e-01	 9.4984088221e-01	-1.0072230016e+00
 8.5223479156e-01	 9.5818698745e-01	-1.0645262084e+00
 8.4286435047e-01	 9.6643989748e-01	-1.1209833313e+00
 8.3341710359e-01	 9.7459851912e-01	-1.1765524727e+00
 8.2389448159e-01	 9.8266178750e-01	-1.2311990087e+00
 8.1429793442e-01	 9.9062866646e-01	-1.2848969890e+00
 8.0462893054e-01	 9.9849814899e-01	-1.3376303945e+00
 7.9488895623e-01	 1.0062692577e+00	-1.3893942450e+00
 7.8507951483e-01	 1.0139410451e+00	-1.4401955453e+00
 7.7520212597e-01	 1.0215125940e+00	-1.4900540664e+00
 7.6525832479e-01	 1.0289830180e+00	-1.5390029527e+00
 8.6745462304e-01	 9.5637611935e-01	-1.0703985417e+00
 8.5809846470e-01	 9.6477964872e-01	-1.1263732091e+00
 8.4866355170e-01	 9.7308934164e-01	-1.1814601660e+00
 8.3915130446e-01	 9.8130409746e-01	-1.2355927624e+00
 8.2956316350e-01	 9.8942284394e-01	-1.2887125115e+00
 8.1990058872e-01	 9.9744453781e-01	-1.3407706061e+00
 8.1016505872e-01	 1.0053681651e+00	-1.3917292850e+00
 8.0035806999e-01	 1.0131927418e+00	-1.4415630393e+00
 7.9048113620e-01	 1.0209173137e+00	-1.4902596509e+00
 7.8053578745e-01	 1.0285409576e+00	-1.5378210546e+00
 7.7052356945e-01	 1.0360627807e+00	-1.5842640169e+00
 8.7338222993e-01	 9.6291135649e-01	-1.1302039077e+00
 8.6396213783e-01	 9.7137230998e-01	-1.1849237966e+00
 8.5446275293e-01	 9.7973878581e-01	-1.2387436004e+00
 8.4488550533e-01	 9.8800967579e-01	-1.2915663020e+00
 8.3523184540e-01	 9.9618390038e-01	-1.3433037873e+00
 8.2550324302e-01	 1.0042604092e+00	-1.3938784905e+00
 8.1570118689e-01	 1.0122381813e+00	-1.4432248813e+00
 8.0582718374e-01	 1.0201162258e+00	-1.4912907843e+00
 7.9588275757e-01	 1.0278935824e+00	-1.5380385205e+00
 7.8586944893e-01	 1.0355693211e+00	-1.5834458633e+00
 7.7578881410e-01	 1.0431425434e+00	-1.6275068014e+00
 8.7930983682e-01	 9.6944659363e-01	-1.1867823024e+00
 8.6982581097e-01	 9.7796497124e-01	-1.2403317352e+00
 8.6026195415e-01	 9.8638822998e-01	-1.2929938475e+00
 8.5061970620e-01	 9.9471525413e-01	-1.3446357602e+00
 8.4090052730e-01	 1.0029449568e+00	-1.3951340912e+00
 8.3110589733e-01	 1.0110762805e+00	-1.4443767429e+00
 8.2123731507e-01	 1.0191081974e+00	-1.4922645228e+00
 8.1129629749e-01	 1.0270397099e+00	-1.5387125881e+00
 8.0128437894e-01	 1.0348698510e+00	-1.5836517033e+00
 7.9120311041e-01	 1.0425976847e+00	-1.6270293014e+00
 7.8105405876e-01	 1.0502223061e+00	-1.6688103441e+00
 8.8523744370e-01	 9.7598183078e-01	-1.2402802335e+00
 8.7568948410e-01	 9.8455763250e-01	-1.2927537192e+00
 8.6606115538e-01	 9.9303767415e-01	-1.3443737639e+00
 8.5635390706e-01	 1.0014208325e+00	-1.3949662474e+00
 8.4656920920e-01	 1.0097060133e+00	-1.4443669993e+00
 8.3670855163e-01	 1.0178921519e+00	-1.4924237416e+00
 8.2677344325e-01	 1.0259782136e+00	-1.5389978555e+00
 8.1676541124e-01	 1.0339631940e+00	-1.5839659638e+00
 8.0668600031e-01	 1.0418461197e+00	-1.6272213163e+00
 7.9653677189e-01	 1.0496260483e+00	-1.6686749701e+00
 7.8631930341e-01	 1.0573020688e+00	-1.7082567569e+00
 8.9116505059e-01	 9.8251706792e-01	-1.2908478016e+00
 8.8155315724e-01	 9.9115029376e-01	-1.3423496783e+00
 8.7186035661e-01	 9.9968711831e-01	-1.3930491694e+00
 8.6208810793e-01	 1.0081264108e+00	-1.4427256460e+00
 8.5223789110e-01	 1.0164670697e+00	-1.4911687460e+00
 8.4231120594e-01	 1.0247080232e+00	-1.5381804829e+00
 8.3230957143e-01	 1.0328482297e+00	-1.5835771731e+00
 8.2223452499e-01	 1.0408866781e+00	-1.6271911676e+00
 8.1208762167e-01	 1.0488223884e+00	-1.6688723782e+00
 8.0187043338e-01	 1.0566544118e+00	-1.7084895885e+00
 7.9158454807e-01	 1.0643818315e+00	-1.7459315407e+00
 8.9709265748e-01	 9.8905230506e-01	-1.3386389832e+00
 8.8741683038e-01	 9.9774295503e-01	-1.3892830776e+00
 8.7765955784e-01	 1.0063365625e+00	-1.4391891600e+00
 8.6782230880e-01	 1.0148319891e+00	-1.4880849338e+00
 8.5790657300e-01	 1.0232281261e+00	-1.5357085539e+00
 8.4791386024e-01	 1.0315238946e+00	-1.5818109151e+00
 8.3784569961e-01	 1.0397182458e+00	-1.6261577518e+00
 8.2770363875e-01	 1.0478101622e+00	-1.6685315320e+00
 8.1748924304e-01	 1.0557986570e+00	-1.7087331369e+00
 8.0720409486e-01	 1.0636827754e+00	-1.7465833138e+00
 7.9684979272e-01	 1.0714615942e+00	-1.7819238949e+00
 9.0302026437e-01	 9.9558754220e-01	-1.3838119099e+00
 8.9328050351e-01	 1.0043356163e+00	-1.4337212129e+00
 8.8345875907e-01	 1.0129860066e+00	-1.4829664163e+00
 8.7355650967e-01	 1.0215375675e+00	-1.5312185017e+00
 8.6357525491e-01	 1.0299891826e+00	-1.5781589587e+00
 8.5351651454e-01	 1.0383397659e+00	-1.6234822669e+00
 8.4338182779e-01	 1.0465882620e+00	-1.6668981795e+00
 8.3317275250e-01	 1.0547336463e+00	-1.7081337931e+00
 8.2289086441e-01	 1.0627749257e+00	-1.7469353920e+00
 8.1253775634e-01	 1.0707111390e+00	-1.7830700563e+00
 8.0211503738e-01	 1.0785413569e+00	-1.8163270237e+00
 9.0894787126e-01	 1.0021227793e+00	-1.4265291421e+00
 8.9914417665e-01	 1.0109282776e+00	-1.4758355004e+00
 8.8925796029e-01	 1.0196354508e+00	-1.5245575060e+00
 8.7929071054e-01	 1.0282431458e+00	-1.5723044659e+00
 8.6924393681e-01	 1.0367502390e+00	-1.6186961280e+00
 8.5911916885e-01	 1.0451556373e+00	-1.6633653700e+00
 8.4891795597e-01	 1.0534582781e+00	-1.7059606794e+00
 8.3864186625e-01	 1.0616571303e+00	-1.7461484117e+00
 8.2829248578e-01	 1.0697511944e+00	-1.7836148122e+00
 8.1787141782e-01	 1.0777395025e+00	-1.8180677902e+00
 8.0738028204e-01	 1.0856211196e+00	-1.8492384366e+00
 7.5472783548e-01	 1.0148234927e+00	-1.4421232786e+00
 7.4485858041e-01	 1.0220893154e+00	-1.4966199373e+00
 7.3492691326e-01	 1.0292537870e+00	-1.5512187537e+00
 7.2493438309e-01	 1.0363161302e+00	-1.6038770548e+00
 7.1488255120e-01	 1.0432755991e+00	-1.6546104182e+00
 7.0477299035e-01	 1.0501314794e+00	-1.7036658873e+00
 6.9460728400e-01	 1.0568830886e+00	-1.7512579292e+00
 6.8438702546e-01	 1.0635297760e+00	-1.7975626006e+00
 6.7411381717e-01	 1.0700709229e+00	-1.8427120309e+00
 6.6378926983e-01	 1.0765059431e+00	-1.8867892525e+00
 6.5341500165e-01	 1.0828342824e+00	-1.9298234041e+00
 7.5999308014e-01	 1.0219032553e+00	-1.4916473249e+00
 7.5005497370e-01	 1.0292197670e+00	-1.5431159228e+00
 7.4005401978e-01	 1.0364342204e+00	-1.5949288195e+00
 7.2999177823e-01	 1.0435458330e+00	-1.6455233430e+00
 7.1986982125e-01	 1.0505538536e+00	-1.6939560338e+00
 7.0968973258e-01	 1.0574575630e+00	-1.7405068331e+00
 6.9945310671e-01	 1.0642562737e+00	-1.7854212591e+00
 6.8916154809e-01	 1.0709493307e+00	-1.8289042889e+00
 6.7881667031e-01	 1.0775361109e+00	-1.8711145718e+00
 6.6842009533e-01	 1.0840160240e+00	-1.9121590058e+00
 6.5797345264e-01	 1.0903885121e+00	-1.9520877043e+00
 7.6525832479e-01	 1.0289830180e+00	-1.5390029527e+00
 7.5525136699e-01	 1.0363502186e+00	-1.5875889492e+00
 7.4518112629e-01	 1.0436146539e+00	-1.6362777241e+00
 7.3504917337e-01	 1.0507755358e+00	-1.6845887044e+00
 7.2485709130e-01	 1.0578321081e+00	-1.7307557054e+00
 7.1460647481e-01	 1.0647836465e+00	-1.7748448152e+00
 7.0429892943e-01	 1.0716294588e+00	-1.8171426913e+00
 6.9393607072e-01	 1.0783688854e+00	-1.8578933065e+00
 6.8351952346e-01	 1.0850012990e+00	-1.8972918698e+00
 6.7305092083e-01	 1.0915261050e+00	-1.9354791262e+00
 6.6253190362e-01	 1.0979427418e+00	-1.9725360650e+00
 7.7052356945e-01	 1.0360627807e+00	-1.5842640169e+00
 7.6044776028e-01	 1.0434806702e+00	-1.6300901872e+00
 7.5030823281e-01	 1.0507950873e+00	-1.6757516174e+00
 7.4010656851e-01	 1.0580052387e+00	-1.7211835106e+00
 7.2984436136e-01	 1.0651103626e+00	-1.7650958244e+00
 7.1952321704e-01	 1.0721097300e+00	-1.8067445303e+00
 7.0914475215e-01	 1.0790026439e+00	-1.8464674202e+00
 6.9871059335e-01	 1.0857884401e+00	-1.8845574419e+00
 6.8822237660e-01	 1.0924664870e+00	-1.9212563037e+00
 6.7768174633e-01	 1.0990361860e+00	-1.9567484759e+00
 6.6709035461e-01	 1.1054969714e+00	-1.9911556178e+00
 7.7578881410e-01	 1.0431425434e+00	-1.6275068014e+00
 7.6564415357e-01	 1.0506111218e+00	-1.6706735273e+00
 7.5543533932e-01	 1.0579755208e+00	-1.7133899790e+00
 7.4516396364e-01	 1.0652349415e+00	-1.7556381227e+00
 7.3483163141e-01	 1.0723886171e+00	-1.7970704528e+00
 7.2443995927e-01	 1.0794358135e+00	-1.8362778248e+00
 7.1399057486e-01	 1.0863758290e+00	-1.8734472207e+00
 7.0348511597e-01	 1.0932079948e+00	-1.9089304524e+00
 6.9292522974e-01	 1.0999316750e+00	-1.9430255744e+00
 6.8231257183e-01	 1.1065462670e+00	-1.9759705631e+00
 6.7164880559e-01	 1.1130512011e+00	-2.0079156226e+00
 7.8105405876e-01	 1.0502223061e+00	-1.6688103441e+00
 7.7084054685e-01	 1.0577415734e+00	-1.7093958926e+00
 7.6056244583e-01	 1.0651559543e+00	-1.7492297554e+00
 7.5022135878e-01	 1.0724646443e+00	-1.7883448417e+00
 7.3981890146e-01	 1.0796668717e+00	-1.8267817428e+00
 7.2935670150e-01	 1.0867618971e+00	-1.8635240980e+00
 7.1883639758e-01	 1.0937490141e+00	-1.8981408364e+00
 7.0825963860e-01	 1.1006275495e+00	-1.9310524399e+00
 6.9762808288e-01	 1.1073968631e+00	-1.9626230686e+00
 6.8694339732e-01	 1.1140563480e+00	-1.9931695909e+00
 6.7620725658e-01	 1.1206054308e+00	-2.0225693443e+00
 7.8631930341e-01	 1.0573020688e+00	-1.7082567569e+00
 7.7603694014e-01	 1.0648720250e+00	-1.7463175476e+00
 7.6568955235e-01	 1.0723363877e+00	-1.7833114208e+00
 7.5527875392e-01	 1.0796943471e+00	-1.8193303750e+00
 7.4480617151e-01	 1.0869451262e+00	-1.8544831000e+00
 7.3427344373e-01	 1.0940879806e+00	-1.8885707016e+00
 7.2368222029e-01	 1.1011221992e+00	-1.9206143651e+00
 7.1303416123e-01	 1.1080471042e+00	-1.9509702228e+00
 7.0233093602e-01	 1.1148620511e+00	-1.9802084993e+00
 6.9157422282e-01	 1.1215664290e+00	-2.0087663125e+00
 6.8076570756e-01	 1.1281596605e+00	-2.0356648956e+00
 7.9158454807e-01	 1.0643818315e+00	-1.7459315407e+00
 7.8123333343e-01	 1.0720024766e+00	-1.7815024017e+00
 7.7081665886e-01	 1.0795168212e+00	-1.8156792721e+00
 7.6033614906e-01	 1.0869240500e+00	-1.8486212530e+00
 7.4979344156e-01	 1.0942233807e+00	-1.8805060398e+00
 7.3919018596e-01	 1.1014140641e+00	-1.9115133360e+00
 7.2852804301e-01	 1.1084953844e+00	-1.9409416402e+00
 7.1780868385e-01	 1.1154666590e+00	-1.9690512029e+00
 7.0703378917e-01	 1.1223272392e+00	-1.9968819859e+00
 6.9620504832e-01	 1.1290765099e+00	-2.0235582975e+00
 6.8532415854e-01	 1.1357138902e+00	-2.0480032898e+00
 7.9684979272e-01	 1.0714615942e+00	-1.7819238949e+00
 7.8642972672e-01	 1.0791329282e+00	-1.8150183092e+00
 7.7594376538e-01	 1.0866972546e+00	-1.8463817200e+00
 7.6539354420e-01	 1.0941537528e+00	-1.8762482162e+00
 7.5478071162e-01	 1.1015016352e+00	-1.9048725590e+00
 7.4410692819e-01	 1.1087401476e+00	-1.9325298370e+00
 7.3337386572e-01	 1.1158685695e+00	-1.9597380028e+00
 7.2258320648e-01	 1.1228862137e+00	-1.9870211072e+00
 7.1173664231e-01	 1.1297924272e+00	-2.0135515854e+00
 7.0083587382e-01	 1.1365865909e+00	-2.0383504830e+00
 6.8988260953e-01	 1.1432681199e+00	-2.0603820178e+00
 8.0211503738e-01	 1.0785413569e+00	-1.8163270237e+00
 7.9162612001e-01	 1.0862633799e+00	-1.8469373644e+00
 7.8107087189e-01	 1.0938776881e+00	-1.8754715762e+00
 7.7045093933e-01	 1.1013834556e+00	-1.9022464954e+00
 7.5976798167e-01	 1.1087798897e+00	-1.9276018866e+00
 7.4902367042e-01	 1.1160662312e+00	-1.9526449740e+00
 7.3821968844e-01	 1.1232417546e+00	-1.9792857596e+00
 7.2735772911e-01	 1.1303057684e+00	-2.0058287687e+00
 7.1643949545e-01	 1.1372576152e+00	-2.0310248644e+00
 7.0546669932e-01	 1.1440966719e+00	-2.0539428547e+00
 6.9444106051e-01	 1.1508223496e+00	-2.0735943322e+00
 8.0738028204e-01	 1.0856211196e+00	-1.8492384366e+00
 7.9682251330e-01	 1.0933938315e+00	-1.8773361937e+00
 7.8619797841e-01	 1.1010581216e+00	-1.9030063371e+00
 7.7550833447e-01	 1.1086131585e+00	-1.9266560895e+00
 7.6475525172e-01	 1.1160581442e+00	-1.9496192652e+00
 7.5394041265e-01	 1.1233923147e+00	-1.9745473174e+00
 7.4306551116e-01	 1.1306149397e+00	-2.0005714893e+00
 7.3213225174e-01	 1.1377253231e+00	-2.0262831477e+00
 7.2114234859e-01	 1.1447228033e+00	-2.0501029198e+00
 7.1009752482e-01	 1.1516067529e+00	-2.0711296996e+00
 6.9899951150e-01	 1.1583765792e+00	-2.0884285281e+00
 6.5341500165e-01	 1.0828342824e+00	-1.9298234041e+00
 6.4299263775e-01	 1.0890554195e+00	-1.9721127580e+00
 6.3252380994e-01	 1.0951688665e+00	-2.0143432689e+00
 6.2201015531e-01	 1.1011741682e+00	-2.0570389586e+00
 6.1145331523e-01	 1.1070709020e+00	-2.1006625232e+00
 6.0085493454e-01	 1.1128586778e+00	-2.1454824803e+00
 5.9021666079e-01	 1.1185371380e+00	-2.1895941623e+00
 5.7954014345e-01	 1.1241059573e+00	-2.2317905672e+00
 5.6882703310e-01	 1.1295648427e+00	-2.2714694446e+00
 5.5807898070e-01	 1.1349135336e+00	-2.3080423100e+00
 5.4729763683e-01	 1.1401518013e+00	-2.3409387660e+00
 6.5797345264e-01	 1.0903885121e+00	-1.9520877043e+00
 6.4747837869e-01	 1.0966530500e+00	-1.9913638805e+00
 6.3693651668e-01	 1.1028091465e+00	-2.0308888585e+00
 6.2634951513e-01	 1.1088563433e+00	-2.0712794728e+00
 6.1571902685e-01	 1.1147942148e+00	-2.1126220626e+00
 6.0504670816e-01	 1.1206223682e+00	-2.1531994550e+00
 5.9433421811e-01	 1.1263404433e+00	-2.1923271503e+00
 5.8358321765e-01	 1.1319481126e+00	-2.2294728500e+00
 5.7279536891e-01	 1.1374450811e+00	-2.2641155055e+00
 5.6197233435e-01	 1.1428310863e+00	-2.2957500751e+00
 5.5111577606e-01	 1.1481058980e+00	-2.3238918797e+00
 6.6253190362e-01	 1.0979427418e+00	-1.9725360650e+00
 6.5196411963e-01	 1.1042506805e+00	-2.0091163592e+00
 6.4134922343e-01	 1.1104494265e+00	-2.0463529494e+00
 6.3068887495e-01	 1.1165385184e+00	-2.0841669847e+00
 6.1998473847e-01	 1.1225175276e+00	-2.1213774114e+00
 6.0923848178e-01	 1.1283860585e+00	-2.1575050110e+00
 5.9845177542e-01	 1.1341437485e+00	-2.1920821771e+00
 5.8762629186e-01	 1.1397902678e+00	-2.2246494325e+00
 5.7676370472e-01	 1.1453253194e+00	-2.2547606656e+00
 5.6586568800e-01	 1.1507486390e+00	-2.2819879608e+00
 5.5493391529e-01	 1.1560599947e+00	-2.3059260046e+00
 6.6709035461e-01	 1.1054969714e+00	-1.9911556178e+00
 6.5644986057e-01	 1.1118483110e+00	-2.0253369125e+00
 6.4576193017e-01	 1.1180897066e+00	-2.0597752382e+00
 6.3502823477e-01	 1.1242206935e+00	-2.0938178417e+00
 6.2425045010e-01	 1.1302408404e+00	-2.1270593857e+00
 6.1343025541e-01	 1.1361497489e+00	-2.1590927167e+00
 6.0256933273e-01	 1.1419470538e+00	-2.1895149979e+00
 5.9166936606e-01	 1.1476324231e+00	-2.2179334629e+00
 5.8073204052e-01	 1.1532055578e+00	-2.2439707660e+00
 5.6975904164e-01	 1.1586661917e+00	-2.2672699025e+00
 5.5875205452e-01	 1.1640140914e+00	-2.2874986813e+00
 6.7164880559e-01	 1.1130512011e+00	-2.0079156226e+00
 6.6093560150e-01	 1.1194459415e+00	-2.0392549638e+00
 6.5017463691e-01	 1.1257299866e+00	-2.0703446800e+00
 6.3936759460e-01	 1.1319028687e+00	-2.1008419406e+00
 6.2851616172e-01	 1.1379641532e+00	-2.1303969624e+00
 6.1762202903e-01	 1.1439134392e+00	-2.1586596861e+00
 6.0668689005e-01	 1.1497503591e+00	-2.1852860847e+00
 5.9571244026e-01	 1.1554745784e+00	-2.2099440724e+00
 5.8470037633e-01	 1.1610857962e+00	-2.2323189858e+00
 5.7365239529e-01	 1.1665837444e+00	-2.2521186118e+00
 5.6257019375e-01	 1.1719681881e+00	-2.2690777423e+00
 6.7620725658e-01	 1.1206054308e+00	-2.0225693443e+00
 6.6542134244e-01	 1.1270435720e+00	-2.0509232624e+00
 6.5458734366e-01	 1.1333702667e+00	-2.0788302645e+00
 6.4370695442e-01	 1.1395850438e+00	-2.1059961477e+00
 6.3278187334e-01	 1.1456874660e+00	-2.1321209753e+00
 6.2181380265e-01	 1.1516771296e+00	-2.1569059712e+00
 6.1080444736e-01	 1.1575536643e+00	-2.1800600255e+00
 5.9975551447e-01	 1.1633167337e+00	-2.2013057765e+00
 5.8866871214e-01	 1.1689660346e+00	-2.2203852416e+00
 5.7754574893e-01	 1.1745012971e+00	-2.2370649697e+00
 5.6638833298e-01	 1.1799222848e+00	-2.2511406952e+00
 6.8076570756e-01	 1.1281596605e+00	-2.0356648956e+00
 6.6990708338e-01	 1.1346412025e+00	-2.0611348346e+00
 6.5900005040e-01	 1.1410105467e+00	-2.0860094337e+00
 6.4804631424e-01	 1.1472672189e+00	-2.1100375713e+00
 6.3704758496e-01	 1.1534107788e+00	-2.1329634949e+00
 6.2600557627e-01	 1.1594408199e+00	-2.1545339541e+00
 6.1492200467e-01	 1.1653569696e+00	-2.1745049233e+00
 6.0379858867e-01	 1.1711588890e+00	-2.1926478767e+00
 5.9263704795e-01	 1.1768462729e+00	-2.2087555874e+00
 5.8143910258e-01	 1.1824188498e+00	-2.2226474222e+00
 5.7020647220e-01	 1.1878763815e+00	-2.2341741103e+00
 6.8532415854e-01	 1.1357138902e+00	-2.0480032898e+00
 6.7439282432e-01	 1.1422388330e+00	-2.0706805926e+00
 6.6341275714e-01	 1.1486508268e+00	-2.0926583216e+00
 6.5238567406e-01	 1.1549493941e+00	-2.1137229234e+00
 6.4131329658e-01	 1.1611340916e+00	-2.1336572066e+00
 6.3019734989e-01	 1.1672045102e+00	-2.1522477362e+00
 6.1903956198e-01	 1.1731602748e+00	-2.1692917930e+00
 6.0784166287e-01	 1.1790010443e+00	-2.1846038619e+00
 5.9660538376e-01	 1.1847265113e+00	-2.1980216175e+00
 5.8533245622e-01	 1.1903364025e+00	-2.2094113789e+00
 5.7402461143e-01	 1.1958304782e+00	-2.2186730110e+00
 6.8988260953e-01	 1.1432681199e+00	-2.0603820178e+00
 6.7887856526e-01	 1.1498364636e+00	-2.0803486497e+00
 6.6782546389e-01	 1.1562911068e+00	-2.0995510940e+00
 6.5672503388e-01	 1.1626315692e+00	-2.1178078791e+00
 6.4557900820e-01	 1.1688574044e+00	-2.1349347864e+00
 6.3438912351e-01	 1.1749682006e+00	-2.1507525267e+00
 6.2315711930e-01	 1.1809635801e+00	-2.1650939588e+00
 6.1188473708e-01	 1.1868431996e+00	-2.1778108102e+00
 6.0057371956e-01	 1.1926067497e+00	-2.1887798682e+00
 5.8922580987e-01	 1.1982539552e+00	-2.1979086134e+00
 5.7784275066e-01	 1.2037845749e+00	-2.2051402691e+00
 6.9444106051e-01	 1.1508223496e+00	-2.0735943322e+00
 6.8336430619e-01	 1.1574340941e+00	-2.0909236322e+00
 6.7223817063e-01	 1.1639313869e+00	-2.1074592844e+00
 6.6106439370e-01	 1.1703137443e+00	-2.1230464340e+00
 6.4984471983e-01	 1.1765807172e+00	-2.1375282743e+00
 6.3858089713e-01	 1.1827318909e+00	-2.1507540292e+00
 6.2727467661e-01	 1.1887668854e+00	-2.1625864501e+00
 6.1592781128e-01	 1.1946853549e+00	-2.1729087908e+00
 6.0454205537e-01	 1.2004869881e+00	-2.1816312229e+00
 5.9311916351e-01	 1.2061715080e+00	-2.1886966658e+00
 5.8166088989e-01	 1.2117386716e+00	-2.1940860023e+00
 6.9899951150e-01	 1.1583765792e+00	-2.0884285281e+00
 6.8785004713e-01	 1.1650317246e+00	-2.1031859887e+00
 6.7665087737e-01	 1.1715716669e+00	-2.1171511281e+00
 6.6540375352e-01	 1.1779959194e+00	-2.1301902579e+00
 6.5411043145e-01	 1.1843040300e+00	-2.1421684463e+00
 6.4277267076e-01	 1.1904955813e+00	-2.1529578266e+00
 6.3139223392e-01	 1.1965701906e+00	-2.1624453965e+00
 6.1997088548e-01	 1.2025275101e+00	-2.1705402655e+00
 6.0851039118e-01	 1.2083672264e+00	-2.1771803164e+00
 5.9701251716e-01	 1.2140890607e+00	-2.1823382481e+00
 5.8547902912e-01	 1.2196927683e+00	-2.1860269757e+00
 5.4729763683e-01	 1.1401518013e+00	-2.3409387660e+00
 5.3648280987e-01	 1.1452803116e+00	-2.3716497395e+00
 5.2563797785e-01	 1.1502979987e+00	-2.4019200947e+00
 5.1476478594e-01	 1.1552047288e+00	-2.4316160613e+00
 5.0386487593e-01	 1.1600003990e+00	-2.4606373831e+00
 4.9293988553e-01	 1.1646849381e+00	-2.4889188434e+00
 4.8199144765e-01	 1.1692583055e+00	-2.5164313744e+00
 4.7102118972e-01	 1.1737204915e+00	-2.5431827576e+00
 4.6003073296e-01	 1.1780715168e+00	-2.5692179220e+00
 4.4902169174e-01	 1.1823114322e+00	-2.5946188513e+00
 4.3799567291e-01	 1.1864403182e+00	-2.6195041131e+00
 5.5111577606e-01	 1.1481058980e+00	-2.3238918797e+00
 5.4022550109e-01	 1.1532701865e+00	-2.3501507568e+00
 5.2930501175e-01	 1.1583228788e+00	-2.3763108051e+00
 5.1835596466e-01	 1.1632638399e+00	-2.4022027530e+00
 5.0738001307e-01	 1.1680929665e+00	-2.4276895578e+00
 4.9637880612e-01	 1.1728101865e+00	-2.4526680669e+00
 4.8535398812e-01	 1.1774154593e+00	-2.4770702454e+00
 4.7430719784e-01	 1.1819087751e+00	-2.5008639724e+00
 4.6324006783e-01	 1.1862901547e+00	-2.5240534158e+00
 4.5215422370e-01	 1.1905596492e+00	-2.5466789970e+00
 4.4105128351e-01	 1.1947173398e+00	-2.5688169569e+00
 5.5493391529e-01	 1.1560599947e+00	-2.3059260046e+00
 5.4396819232e-01	 1.1612600615e+00	-2.3282563447e+00
 5.3297204564e-01	 1.1663477589e+00	-2.3507579234e+00
 5.2194714337e-01	 1.1713229511e+00	-2.3732246287e+00
 5.1089515021e-01	 1.1761855339e+00	-2.3954819982e+00
 4.9981772672e-01	 1.1809354349e+00	-2.4173890148e+00
 4.8871652860e-01	 1.1855726132e+00	-2.4388394456e+00
 4.7759320597e-01	 1.1900970587e+00	-2.4597627283e+00
 4.6644940269e-01	 1.1945087925e+00	-2.4801244143e+00
 4.5528675565e-01	 1.1988078661e+00	-2.4999261797e+00
 4.4410689411e-01	 1.2029943613e+00	-2.5192054185e+00
 5.5875205452e-01	 1.1640140914e+00	-2.2874986813e+00
 5.4771088354e-01	 1.1692499365e+00	-2.3063705602e+00
 5.3663907953e-01	 1.1743726390e+00	-2.3256222899e+00
 5.2553832208e-01	 1.1793820623e+00	-2.3450095958e+00
 5.1441028735e-01	 1.1842781013e+00	-2.3643199790e+00
 5.0325664731e-01	 1.1890606833e+00	-2.3833746436e+00
 4.9207906907e-01	 1.1937297670e+00	-2.4020299415e+00
 4.8087921410e-01	 1.1982853423e+00	-2.4201783430e+00
 4.6965873756e-01	 1.2027274304e+00	-2.4377489389e+00
 4.5841928761e-01	 1.2070560831e+00	-2.4547074888e+00
 4.4716250471e-01	 1.2112713829e+00	-2.4710560285e+00
 5.6257019375e-01	 1.1719681881e+00	-2.2690777423e+00
 5.5145357476e-01	 1.1772398114e+00	-2.2849091424e+00
 5.4030611342e-01	 1.1823975192e+00	-2.3012774903e+00
 5.2912950080e-01	 1.1874411734e+00	-2.3178990414e+00
 5.1792542449e-01	 1.1923706688e+00	-2.3345226582e+00
 5.0669556791e-01	 1.1971859318e+00	-2.3509318647e+00
 4.9544160954e-01	 1.2018869208e+00	-2.3669463937e+00
 4.8416522222e-01	 1.2064736259e+00	-2.3824232339e+00
 4.7286807242e-01	 1.2109460682e+00	-2.3972571835e+00
 4.6155181956e-01	 1.2153043001e+00	-2.4113809252e+00
 4.5021811531e-01	 1.2195484044e+00	-2.4247646366e+00
 5.6638833298e-01	 1.1799222848e+00	-2.2511406952e+00
 5.5519626599e-01	 1.1852296864e+00	-2.2642988891e+00
 5.4397314732e-01	 1.1904223993e+00	-2.2781092345e+00
 5.3272067951e-01	 1.1955002846e+00	-2.2922472232e+00
 5.2144056162e-01	 1.2004632362e+00	-2.3064224889e+00
 5.1013448850e-01	 1.2053111802e+00	-2.3203809871e+00
 4.9880415001e-01	 1.2100440746e+00	-2.3339066393e+00
 4.8745123035e-01	 1.2146619095e+00	-2.3468224504e+00
 4.7607740729e-01	 1.2191647061e+00	-2.3589911053e+00
 4.6468435151e-01	 1.2235525171e+00	-2.3703150610e+00
 4.5327372591e-01	 1.2278254259e+00	-2.3807361487e+00
 5.7020647220e-01	 1.1878763815e+00	-2.2341741103e+00
 5.5893895721e-01	 1.1932195614e+00	-2.2449770376e+00
 5.4764018121e-01	 1.1984472794e+00	-2.2565147408e+00
 5.3631185822e-01	 1.2035593958e+00	-2.2684206653e+00
 5.2495569876e-01	 1.2085558036e+00	-2.2803646374e+00
 5.1357340909e-01	 1.2134364286e+00	-2.2920551660e+00
 5.0216669048e-01	 1.2182012284e+00	-2.3032411804e+00
 4.9073723847e-01	 1.2228501930e+00	-2.3137132104e+00
 4.7928674215e-01	 1.2273833439e+00	-2.3233040190e+00
 4.6781688346e-01	 1.2318007341e+00	-2.3318887006e+00
 4.5632933651e-01	 1.2361024475e+00	-2.3393842629e+00
 5.7402461143e-01	 1.1958304782e+00	-2.2186730110e+00
 5.6268164843e-01	 1.2012094364e+00	-2.2273906512e+00
 5.5130721510e-01	 1.2064721595e+00	-2.2369021266e+00
 5.3990303693e-01	 1.2116185069e+00	-2.2467975625e+00
 5.2847083590e-01	 1.2166483711e+00	-2.2567064080e+00
 5.1701232969e-01	 1.2215616770e+00	-2.2662998577e+00
 5.0552923095e-01	 1.2263583823e+00	-2.2752926775e+00
 4.9402324660e-01	 1.2310384766e+00	-2.2834444420e+00
 4.8249607701e-01	 1.2356019818e+00	-2.2905601944e+00
 4.7094941542e-01	 1.2400489511e+00	-2.2964905415e+00
 4.5938494711e-01	 1.2443794690e+00	-2.3011312040e+00
 5.7784275066e-01	 1.2037845749e+00	-2.2051402691e+00
 5.6642433966e-01	 1.2091993113e+00	-2.2119960106e+00
 5.5497424899e-01	 1.2144970396e+00	-2.2196898043e+00
 5.4349421564e-01	 1.2196776181e+00	-2.2277671887e+00
 5.3198597304e-01	 1.2247409385e+00	-2.2358166739e+00
 5.2045125028e-01	 1.2296869254e+00	-2.2434722802e+00
 5.0889177143e-01	 1.2345155361e+00	-2.2504154485e+00
 4.9730925472e-01	 1.2392267602e+00	-2.2563763282e+00
 4.8570541188e-01	 1.2438206197e+00	-2.2611344560e+00
 4.7408194737e-01	 1.2482971680e+00	-2.2645188383e+00
 4.6244055771e-01	 1.2526564905e+00	-2.2664074578e+00
 5.8166088989e-01	 1.2117386716e+00	-2.1940860023e+00
 5.7016703088e-01	 1.2171891863e+00	-2.1992580093e+00
 5.5864128289e-01	 1.2225219197e+00	-2.2053058827e+00
 5.4708539436e-01	 1.2277367293e+00	-2.2117293125e+00
 5.3550111017e-01	 1.2328335059e+00	-2.2180753137e+00
 5.2389017087e-01	 1.2378121738e+00	-2.2239408799e+00
 5.1225431190e-01	 1.2426726899e+00	-2.2289749730e+00
 5.0059526285e-01	 1.2474150438e+00	-2.2328798567e+00
 4.8891474675e-01	 1.2520392575e+00	-2.2354117857e+00
 4.7721447932e-01	 1.2565453850e+00	-2.2363810653e+00
 4.6549616831e-01	 1.2609335121e+00	-2.2356515035e+00
 5.8547902912e-01	 1.2196927683e+00	-2.1860269757e+00
 5.7390972211e-01	 1.2251790613e+00	-2.1896495538e+00
 5.6230831678e-01	 1.2305467998e+00	-2.1941875735e+00
 5.5067657307e-01	 1.2357958404e+00	-2.1990936175e+00
 5.3901624731e-01	 1.2409260734e+00	-2.2038726539e+00
 5.2732909147e-01	 1.2459374222e+00	-2.2080848025e+00
 5.1561685237e-01	 1.2508298437e+00	-2.2113474000e+00
 5.0388127097e-01	 1.2556033274e+00	-2.2133363727e+00
 4.9212408161e-01	 1.2602578954e+00	-2.2137869280e+00
 4.8034701128e-01	 1.2647936020e+00	-2.2124935823e+00
 4.6855177891e-01	 1.2692105336e+00	-2.2093095454e+00
 4.3799567291e-01	 1.1864403182e+00	-2.6195041131e+00
 4.2695615308e-01	 1.1904576115e+00	-2.6439432054e+00
 4.1590284802e-01	 1.1943641616e+00	-2.6678860206e+00
 4.0483733686e-01	 1.1981601358e+00	-2.6913093234e+00
 3.9376118865e-01	 1.2018457296e+00	-2.7142196411e+00
 3.8267596183e-01	 1.2054211666e+00	-2.7366515383e+00
 3.7158320363e-01	 1.2088866979e+00	-2.7586656331e+00
 3.6048444952e-01	 1.2122426019e+00	-2.7793229642e+00
 3.4938122261e-01	 1.2154891835e+00	-2.7977194975e+00
 3.3827503318e-01	 1.2186267741e+00	-2.8148357702e+00
 3.2716737810e-01	 1.2216557311e+00	-2.8316922104e+00
 4.4105128351e-01	 1.1947173398e+00	-2.5688169569e+00
 4.2993474813e-01	 1.1987626590e+00	-2.5904895092e+00
 4.1880433137e-01	 1.2026964626e+00	-2.6116425987e+00
 4.0766162334e-01	 1.2065189189e+00	-2.6322792940e+00
 3.9650820405e-01	 1.2102302247e+00	-2.6524359801e+00
 3.8534564283e-01	 1.2138306052e+00	-2.6721804240e+00
 3.7417549768e-01	 1.2173203133e+00	-2.6916095635e+00
 3.6299931479e-01	 1.2206996291e+00	-2.7102648696e+00
 3.5181862790e-01	 1.2239688600e+00	-2.7267813857e+00
 3.4063495781e-01	 1.2271283396e+00	-2.7420524061e+00
 3.2944981186e-01	 1.2301784277e+00	-2.7571625825e+00
 4.4410689411e-01	 1.2029943613e+00	-2.5192054185e+00
 4.3291334319e-01	 1.2070677066e+00	-2.5379862065e+00
 4.2170581472e-01	 1.2110287637e+00	-2.5562575955e+00
 4.1048590982e-01	 1.2148777020e+00	-2.5740494129e+00
 3.9925521946e-01	 1.2186147198e+00	-2.5914277672e+00
 3.8801532382e-01	 1.2222400438e+00	-2.6084929106e+00
 3.7676779173e-01	 1.2257539286e+00	-2.6253768078e+00
 3.6551418005e-01	 1.2291566564e+00	-2.6419814050e+00
 3.5425603318e-01	 1.2324485366e+00	-2.6567565474e+00
 3.4299488244e-01	 1.2356299051e+00	-2.6703363692e+00
 3.3173224561e-01	 1.2387011242e+00	-2.6838649806e+00
 4.4716250471e-01	 1.2112713829e+00	-2.4710560285e+00
 4.3589193825e-01	 1.2153727542e+00	-2.4868569130e+00
 4.2460729806e-01	 1.2193610647e+00	-2.5021767228e+00
 4.1331019630e-01	 1.2232364850e+00	-2.5170726428e+00
 4.0200223487e-01	 1.2269992148e+00	-2.5316405306e+00
 3.9068500482e-01	 1.2306494823e+00	-2.5460125807e+00
 3.7936008577e-01	 1.2341875439e+00	-2.5603546804e+00
 3.6802904532e-01	 1.2376136837e+00	-2.5748012274e+00
 3.5669343846e-01	 1.2409282131e+00	-2.5879115246e+00
 3.4535480707e-01	 1.2441314706e+00	-2.5998795953e+00
 3.3401467937e-01	 1.2472238207e+00	-2.6119044099e+00
 4.5021811531e-01	 1.2195484044e+00	-2.4247646366e+00
 4.3887053331e-01	 1.2236778018e+00	-2.4375329859e+00
 4.2750878141e-01	 1.2276933657e+00	-2.4498522150e+00
 4.1613448278e-01	 1.2315952681e+00	-2.4618076081e+00
 4.0474925027e-01	 1.2353837099e+00	-2.4735249543e+00
 3.9335468582e-01	 1.2390589209e+00	-2.4851680205e+00
 3.8195237982e-01	 1.2426211592e+00	-2.4969356988e+00
 3.7054391059e-01	 1.2460707109e+00	-2.5090588590e+00
 3.5913084374e-01	 1.2494078897e+00	-2.5205187383e+00
 3.4771473171e-01	 1.2526330361e+00	-2.5308805606e+00
 3.3629711312e-01	 1.2557465173e+00	-2.5413934908e+00
 4.5327372591e-01	 1.2278254259e+00	-2.3807361487e+00
 4.4184912837e-01	 1.2319828493e+00	-2.3904533356e+00
 4.3041026476e-01	 1.2360256667e+00	-2.3997427027e+00
 4.1895876926e-01	 1.2399540512e+00	-2.4087185153e+00
 4.0749626568e-01	 1.2437682049e+00	-2.4175368323e+00
 3.9602436682e-01	 1.2474683594e+00	-2.4263927932e+00
 3.8454467387e-01	 1.2510547745e+00	-2.4355175623e+00
 3.7305877585e-01	 1.2545277382e+00	-2.4451749626e+00
 3.6156824903e-01	 1.2578875662e+00	-2.4548566886e+00
 3.5007465634e-01	 1.2611346015e+00	-2.4635444252e+00
 3.3857954688e-01	 1.2642692138e+00	-2.4724525327e+00
 4.5632933651e-01	 1.2361024475e+00	-2.3393842629e+00
 4.4482772342e-01	 1.2402878969e+00	-2.3460642349e+00
 4.3331174810e-01	 1.2443579678e+00	-2.3523130807e+00
 4.2178305574e-01	 1.2483128342e+00	-2.3582750671e+00
 4.1024328109e-01	 1.2521527000e+00	-2.3641370150e+00
 3.9869404781e-01	 1.2558777980e+00	-2.3701254053e+00
 3.8713696792e-01	 1.2594883898e+00	-2.3765031245e+00
 3.7557364112e-01	 1.2629847655e+00	-2.3835658846e+00
 3.6400565431e-01	 1.2663672428e+00	-2.3912101498e+00
 3.5243458097e-01	 1.2696361670e+00	-2.3980831732e+00
 3.4086198063e-01	 1.2727919104e+00	-2.4052096082e+00
 4.5938494711e-01	 1.2443794690e+00	-2.3011312040e+00
 4.4780631848e-01	 1.2485929445e+00	-2.3048191245e+00
 4.3621323145e-01	 1.2526902688e+00	-2.3080343716e+00
 4.2460734222e-01	 1.2566716173e+00	-2.3109523710e+00
 4.1299029649e-01	 1.2605371951e+00	-2.3137913498e+00
 4.0136372881e-01	 1.2642872365e+00	-2.3168092658e+00
 3.8972926196e-01	 1.2679220051e+00	-2.3203003587e+00
 3.7808850639e-01	 1.2714417927e+00	-2.3245913602e+00
 3.6644305959e-01	 1.2748469193e+00	-2.3298703623e+00
 3.5479450560e-01	 1.2781377325e+00	-2.3347157511e+00
 3.4314441439e-01	 1.2813146069e+00	-2.3398006271e+00
 4.6244055771e-01	 1.2526564905e+00	-2.2664074578e+00
 4.5078491354e-01	 1.2568979920e+00	-2.2671784156e+00
 4.3911471479e-01	 1.2610225698e+00	-2.2673835845e+00
 4.2743162870e-01	 1.2650304004e+00	-2.2672308416e+00
 4.1573731190e-01	 1.2689216901e+00	-2.2669706149e+00
 4.0403340981e-01	 1.2726966751e+00	-2.2668926395e+00
 3.9232155601e-01	 1.2763556204e+00	-2.2673223183e+00
 3.8060337166e-01	 1.2798988200e+00	-2.2686167265e+00
 3.6888046488e-01	 1.2833265959e+00	-2.2711352194e+00
 3.5715443023e-01	 1.2866392980e+00	-2.2736682036e+00
 3.4542684815e-01	 1.2898373034e+00	-2.2763694108e+00
 4.6549616831e-01	 1.2609335121e+00	-2.2356515035e+00
 4.5376350860e-01	 1.2652030396e+00	-2.2336092894e+00
 4.4201619814e-01	 1.2693548709e+00	-2.2308435691e+00
 4.3025591518e-01	 1.2733891834e+00	-2.2275960976e+00
 4.1848432731e-01	 1.2773061852e+00	-2.2241504469e+00
 4.0670309081e-01	 1.2811061136e+00	-2.2208285932e+00
 3.9491385006e-01	 1.2847892357e+00	-2.2179870905e+00
 3.8311823692e-01	 1.2883558473e+00	-2.2160128719e+00
 3.7131787016e-01	 1.2918062724e+00	-2.2153187185e+00
 3.5951435487e-01	 1.2951408634e+00	-2.2151738081e+00
 3.4770928190e-01	 1.2983600000e+00	-2.2150677660e+00
 4.6855177891e-01	 1.2692105336e+00	-2.2093095454e+00
 4.5674210366e-01	 1.2735080872e+00	-2.2045854938e+00
 4.4491768149e-01	 1.2776871719e+00	-2.1989028661e+00
 4.3308020167e-01	 1.2817479665e+00	-2.1925388536e+00
 4.2123134272e-01	 1.2856906802e+00	-2.1858112631e+00
 4.0937277181e-01	 1.2895155522e+00	-2.1790749373e+00
 3.9750614411e-01	 1.2932228510e+00	-2.1727177449e+00
 3.8563310219e-01	 1.2968128745e+00	-2.1671561807e+00
 3.7375527545e-01	 1.3002859490e+00	-2.1628306204e+00
 3.6187427950e-01	 1.3036424289e+00	-2.1594732064e+00
 3.4999171566e-01	 1.3068826965e+00	-2.1560555596e+00
 3.2716737810e-01	 1.2216557311e+00	-2.8316922104e+00
 3.1605974053e-01	 1.2245764373e+00	-2.8483806416e+00
 3.0495358983e-01	 1.2273893016e+00	-2.8643460687e+00
 2.9385038065e-01	 1.2300947574e+00	-2.8796550336e+00
 2.8275155227e-01	 1.2326932625e+00	-2.8943747569e+00
 2.7165852822e-01	 1.2351852976e+00	-2.9085691916e+00
 2.6057271584e-01	 1.2375713667e+00	-2.9222955438e+00
 2.4949550584e-01	 1.2398519961e+00	-2.9356012459e+00
 2.3842827199e-01	 1.2420277338e+00	-2.9485213637e+00
 2.2737237065e-01	 1.2440991495e+00	-2.9610764174e+00
 2.1632914054e-01	 1.2460668334e+00	-2.9732705964e+00
 3.2944981186e-01	 1.2301784277e+00	-2.7571625825e+00
 3.1826468353e-01	 1.2331195097e+00	-2.7721406070e+00
 3.0708105245e-01	 1.2359519975e+00	-2.7863405802e+00
 2.9590038340e-01	 1.2386763276e+00	-2.7998485677e+00
 2.8472412573e-01	 1.2412929607e+00	-2.8127480194e+00
 2.7355371288e-01	 1.2438023811e+00	-2.8251158297e+00
 2.6239056200e-01	 1.2462050963e+00	-2.8370188871e+00
 2.5123607352e-01	 1.2485016361e+00	-2.8485110949e+00
 2.4009163078e-01	 1.2506925525e+00	-2.8596308444e+00
 2.2895859963e-01	 1.2527784191e+00	-2.8703989192e+00
 2.1783832809e-01	 1.2547598303e+00	-2.8808168089e+00
 3.3173224561e-01	 1.2387011242e+00	-2.6838649806e+00
 3.2046962653e-01	 1.2416625821e+00	-2.6972811269e+00
 3.0920851507e-01	 1.2445146934e+00	-2.7098288934e+00
 2.9795038616e-01	 1.2472578977e+00	-2.7216201124e+00
 2.8669669919e-01	 1.2498926589e+00	-2.7327607459e+00
 2.7544889753e-01	 1.2524194647e+00	-2.7433469458e+00
 2.6420840816e-01	 1.2548388259e+00	-2.7534616242e+00
 2.5297664121e-01	 1.2571512761e+00	-2.7631715162e+00
 2.4175498958e-01	 1.2593573713e+00	-2.7725247130e+00
 2.3054482860e-01	 1.2614576888e+00	-2.7815486446e+00
 2.1934751563e-01	 1.2634528272e+00	-2.7902484878e+00
 3.3401467937e-01	 1.2472238207e+00	-2.6119044099e+00
 3.2267456953e-01	 1.2502056545e+00	-2.6238178156e+00
 3.1133597769e-01	 1.2530773893e+00	-2.6347444359e+00
 3.0000038892e-01	 1.2558394678e+00	-2.6448279742e+00
 2.8866927265e-01	 1.2584923571e+00	-2.6542030405e+00
 2.7734408219e-01	 1.2610365482e+00	-2.6629912037e+00
 2.6602625432e-01	 1.2634725554e+00	-2.6712975774e+00
 2.5471720889e-01	 1.2658009162e+00	-2.6792079172e+00
 2.4341834838e-01	 1.2680221900e+00	-2.6867862096e+00
 2.3213105757e-01	 1.2701369584e+00	-2.6940727278e+00
 2.2085670318e-01	 1.2721458241e+00	-2.7010825301e+00
 3.3629711312e-01	 1.2557465173e+00	-2.5413934908e+00
 3.2487951253e-01	 1.2587487269e+00	-2.5517751225e+00
 3.1346344031e-01	 1.2616400853e+00	-2.5610305727e+00
 3.0205039168e-01	 1.2644210380e+00	-2.5693413852e+00
 2.9064184611e-01	 1.2670920553e+00	-2.5768768098e+00
 2.7923926685e-01	 1.2696536317e+00	-2.5837898400e+00
 2.6784410049e-01	 1.2721062850e+00	-2.5902138068e+00
 2.5645777657e-01	 1.2744505562e+00	-2.5962595067e+00
 2.4508170717e-01	 1.2766870088e+00	-2.6020128407e+00
 2.3371728655e-01	 1.2788162281e+00	-2.6075329387e+00
 2.2236589073e-01	 1.2808388210e+00	-2.6128507452e+00
 3.3857954688e-01	 1.2642692138e+00	-2.4724525327e+00
 3.2708445554e-01	 1.2672917993e+00	-2.4811863336e+00
 3.1559090293e-01	 1.2702027812e+00	-2.4886405416e+00
 3.0410039444e-01	 1.2730026081e+00	-2.4950403784e+00
 2.9261441957e-01	 1.2756917535e+00	-2.5005955843e+00
 2.8113445150e-01	 1.2782707152e+00	-2.5054964348e+00
 2.6966194665e-01	 1.2807400145e+00	-2.5099103372e+00
 2.5819834425e-01	 1.2831001962e+00	-2.5139789830e+00
 2.4674506597e-01	 1.2853518275e+00	-2.5178160332e+00
 2.3530351552e-01	 1.2874954977e+00	-2.5215053081e+00
 2.2387507828e-01	 1.2895318179e+00	-2.5250994556e+00
 3.4086198063e-01	 1.2727919104e+00	-2.4052096082e+00
 3.2928939854e-01	 1.2758348717e+00	-2.4120935764e+00
 3.1771836555e-01	 1.2787654771e+00	-2.4175373945e+00
 3.0615039720e-01	 1.2815841782e+00	-2.4218156705e+00
 2.9458699304e-01	 1.2842914517e+00	-2.4251843479e+00
 2.8302963616e-01	 1.2868877987e+00	-2.4278766949e+00
 2.7147979281e-01	 1.2893737441e+00	-2.4300998982e+00
 2.5993891193e-01	 1.2917498362e+00	-2.4320322359e+00
 2.4840842477e-01	 1.2940166462e+00	-2.4338208040e+00
 2.3688974449e-01	 1.2961747674e+00	-2.4355797684e+00
 2.2538426583e-01	 1.2982248148e+00	-2.4373891139e+00
 3.4314441439e-01	 1.2813146069e+00	-2.3398006271e+00
 3.3149434154e-01	 1.2843779441e+00	-2.3445478274e+00
 3.1984582817e-01	 1.2873281730e+00	-2.3476939433e+00
 3.0820039996e-01	 1.2901657484e+00	-2.3495685517e+00
 2.9655956650e-01	 1.2928911499e+00	-2.3504793766e+00
 2.8492482082e-01	 1.2955048822e+00	-2.3507082456e+00
 2.7329763897e-01	 1.2980074737e+00	-2.3505076756e+00
 2.6167947961e-01	 1.3003994763e+00	-2.3500980620e+00
 2.5007178357e-01	 1.3026814650e+00	-2.3496654429e+00
 2.3847597347e-01	 1.3048540370e+00	-2.3493598101e+00
 2.2689345338e-01	 1.3069178117e+00	-2.3492939361e+00
 3.4542684815e-01	 1.2898373034e+00	-2.2763694108e+00
 3.3369928454e-01	 1.2929210165e+00	-2.2786089214e+00
 3.2197329079e-01	 1.2958908690e+00	-2.2790927102e+00
 3.1025040272e-01	 1.2987473185e+00	-2.2782107819e+00
 2.9853213996e-01	 1.3014908481e+00	-2.2763280857e+00
 2.8682000547e-01	 1.3041219657e+00	-2.2737804339e+00
 2.7511548514e-01	 1.3066412032e+00	-2.2708710746e+00
 2.6342004730e-01	 1.3090491163e+00	-2.2678678930e+00
 2.5173514237e-01	 1.3113462837e+00	-2.2650012106e+00
 2.4006220244e-01	 1.3135333067e+00	-2.2624621525e+00
 2.2840264093e-01	 1.3156108086e+00	-2.2604015504e+00
 3.4770928190e-01	 1.2983600000e+00	-2.2150677660e+00
 3.3590422754e-01	 1.3014640889e+00	-2.2143455637e+00
 3.2410075341e-01	 1.3044535649e+00	-2.2117258824e+00
 3.1230040548e-01	 1.3073288886e+00	-2.2076644928e+00
 3.0050471342e-01	 1.3100905464e+00	-2.2025888845e+00
 2.8871519013e-01	 1.3127390492e+00	-2.1968941403e+00
 2.7693333130e-01	 1.3152749328e+00	-2.1909394931e+00
 2.6516061498e-01	 1.3176987563e+00	-2.1850455348e+00
 2.5339850116e-01	 1.3200111024e+00	-2.1794920482e+00
 2.4164843142e-01	 1.3222125763e+00	-2.1745164283e+00
 2.2991182847e-01	 1.3243038055e+00	-2.1703126601e+00
 3.4999171566e-01	 1.3068826965e+00	-2.1560555596e+00
 3.3810917055e-01	 1.3100071613e+00	-2.1518353441e+00
 3.2622821604e-01	 1.3130162608e+00	-2.1455952708e+00
 3.1435040825e-01	 1.3159104587e+00	-2.1378620968e+00
 3.0247728689e-01	 1.3186902446e+00	-2.1291310388e+00
 2.9061037479e-01	 1.3213561328e+00	-2.1198616000e+00
 2.7875117746e-01	 1.3239086624e+00	-2.1104741060e+00
 2.6690118266e-01	 1.3263483964e+00	-2.1013469191e+00
 2.5506185996e-01	 1.3286759212e+00	-2.0928143000e+00
 2.4323466039e-01	 1.3308918460e+00	-2.0851648819e+00
 2.3142101602e-01	 1.3329968024e+00	-2.0786407213e+00
 2.1632914054e-01	 1.2460668334e+00	-2.9732705964e+00
 2.0529802896e-01	 1.2479317043e+00	-2.9847413496e+00
 1.9428221986e-01	 1.2496940488e+00	-2.9952422804e+00
 1.8328300036e-01	 1.2513545159e+00	-3.0049282952e+00
 1.7230163857e-01	 1.2529137732e+00	-3.0139318582e+00
 1.6133938333e-01	 1.2543725065e+00	-3.0223626886e+00
 1.5039746395e-01	 1.2557314192e+00	-3.0303077213e+00
 1.3947708999e-01	 1.2569912315e+00	-3.0378313058e+00
 1.2857945101e-01	 1.2581526803e+00	-3.0449756198e+00
 1.1770571642e-01	 1.2592165182e+00	-3.0517612755e+00
 1.0685703526e-01	 1.2601835133e+00	-3.0581880933e+00
 2.1783832809e-01	 1.2547598303e+00	-2.8808168089e+00
 2.0673025963e-01	 1.2566377112e+00	-2.8905144153e+00
 1.9563760040e-01	 1.2584123505e+00	-2.8992530472e+00
 1.8456164650e-01	 1.2600844015e+00	-2.9072021054e+00
 1.7350367490e-01	 1.2616545368e+00	-2.9145051568e+00
 1.6246494315e-01	 1.2631234467e+00	-2.9212797772e+00
 1.5144668913e-01	 1.2644918396e+00	-2.9276176661e+00
 1.4045013082e-01	 1.2657604408e+00	-2.9335850079e+00
 1.2947646612e-01	 1.2669299922e+00	-2.9392230545e+00
 1.1852687256e-01	 1.2680012519e+00	-2.9445489057e+00
 1.0760250721e-01	 1.2689749930e+00	-2.9495564620e+00
 2.1934751563e-01	 1.2634528272e+00	-2.7902484878e+00
 2.0816249029e-01	 1.2653437181e+00	-2.7982444617e+00
 1.9699298093e-01	 1.2671306521e+00	-2.8052964811e+00
 1.8584029265e-01	 1.2688142872e+00	-2.8115845118e+00
 1.7470571124e-01	 1.2703953003e+00	-2.8172594255e+00
 1.6359050297e-01	 1.2718743869e+00	-2.8224429957e+00
 1.5249591430e-01	 1.2732522600e+00	-2.8272281732e+00
 1.4142317166e-01	 1.2745296501e+00	-2.8316796175e+00
 1.3037348122e-01	 1.2757073042e+00	-2.8358344551e+00
 1.1934802870e-01	 1.2767859856e+00	-2.8397032416e+00
 1.0834797916e-01	 1.2777664728e+00	-2.8432710991e+00
 2.2085670318e-01	 1.2721458241e+00	-2.7010825301e+00
 2.0959472096e-01	 1.2740497250e+00	-2.7074239282e+00
 1.9834836147e-01	 1.2758489537e+00	-2.7128464015e+00
 1.8711893879e-01	 1.2775441728e+00	-2.7175365538e+00
 1.7590774757e-01	 1.2791360639e+00	-2.7216487597e+00
 1.6471606279e-01	 1.2806253271e+00	-2.7253053193e+00
 1.5354513947e-01	 1.2820126804e+00	-2.7285969044e+00
 1.4239621249e-01	 1.2832988594e+00	-2.7315832662e+00
 1.3127049632e-01	 1.2844846162e+00	-2.7342941773e+00
 1.2016918483e-01	 1.2855707192e+00	-2.7367305821e+00
 1.0909345111e-01	 1.2865579526e+00	-2.7388659269e+00
 2.2236589073e-01	 1.2808388210e+00	-2.6128507452e+00
 2.1102695162e-01	 1.2827557319e+00	-2.6175603510e+00
 1.9970374201e-01	 1.2845672553e+00	-2.6213918114e+00
 1.8839758494e-01	 1.2862740584e+00	-2.6245344415e+00
 1.7710978391e-01	 1.2878768274e+00	-2.6271423086e+00
 1.6584162261e-01	 1.2893762672e+00	-2.6293345553e+00
 1.5459436464e-01	 1.2907731009e+00	-2.6311960233e+00
 1.4336925333e-01	 1.2920680687e+00	-2.6327781453e+00
 1.3216751143e-01	 1.2932619282e+00	-2.6341000796e+00
 1.2099034097e-01	 1.2943554529e+00	-2.6351500556e+00
 1.0983892307e-01	 1.2953494324e+00	-2.6358869037e+00
 2.2387507828e-01	 1.2895318179e+00	-2.5250994556e+00
 2.1245918229e-01	 1.2914617388e+00	-2.5281759430e+00
 2.0105912255e-01	 1.2932855569e+00	-2.5304364621e+00
 1.8967623109e-01	 1.2950039440e+00	-2.5320691092e+00
 1.7831182025e-01	 1.2966175909e+00	-2.5332238240e+00
 1.6696718243e-01	 1.2981272074e+00	-2.5340128904e+00
 1.5564358982e-01	 1.2995335213e+00	-2.5345117451e+00
 1.4434229416e-01	 1.3008372780e+00	-2.5347600639e+00
 1.3306452653e-01	 1.3020392402e+00	-2.5347630951e+00
 1.2181149711e-01	 1.3031401866e+00	-2.5344932091e+00
 1.1058439502e-01	 1.3041409122e+00	-2.5338916361e+00
 2.2538426583e-01	 1.2982248148e+00	-2.4373891139e+00
 2.1389141296e-01	 1.3001677457e+00	-2.4388071919e+00
 2.0241450309e-01	 1.3020038586e+00	-2.4394984364e+00
 1.9095487723e-01	 1.3037338296e+00	-2.4396457885e+00
 1.7951385658e-01	 1.3053583545e+00	-2.4393912272e+00
 1.6809274225e-01	 1.3068781476e+00	-2.4388364559e+00
 1.5669281499e-01	 1.3082939417e+00	-2.4380439061e+00
 1.4531533500e-01	 1.3096064874e+00	-2.4370380258e+00
 1.3396154164e-01	 1.3108165522e+00	-2.4358068202e+00
 1.2263265325e-01	 1.3119249203e+00	-2.4343036147e+00
 1.1132986698e-01	 1.3129323920e+00	-2.4324490067e+00
 2.2689345338e-01	 1.3069178117e+00	-2.3492939361e+00
 2.1532364362e-01	 1.3088737526e+00	-2.3490044744e+00
 2.0376988363e-01	 1.3107221602e+00	-2.3481097484e+00
 1.9223352338e-01	 1.3124637152e+00	-2.3467835982e+00
 1.8071589292e-01	 1.3140991180e+00	-2.3451561927e+00
 1.6921830207e-01	 1.3156290877e+00	-2.3433149109e+00
 1.5774204017e-01	 1.3170543621e+00	-2.3413055497e+00
 1.4628837584e-01	 1.3183756967e+00	-2.3391338233e+00
 1.3485855674e-01	 1.3195938641e+00	-2.3367671213e+00
 1.2345380939e-01	 1.3207096540e+00	-2.3341364916e+00
 1.1207533893e-01	 1.3217238717e+00	-2.3311388176e+00
 2.2840264093e-01	 1.3156108086e+00	-2.2604015504e+00
 2.1675587429e-01	 1.3175797595e+00	-2.2583316873e+00
 2.0512526417e-01	 1.3194404618e+00	-2.2558159604e+00
 1.9351216953e-01	 1.3211936009e+00	-2.2530151513e+00
 1.8191792926e-01	 1.3228398816e+00	-2.2500437502e+00
 1.7034386189e-01	 1.3243800279e+00	-2.2469710424e+00
 1.5879126534e-01	 1.3258147825e+00	-2.2438225290e+00
 1.4726141667e-01	 1.3271449060e+00	-2.2405816475e+00
 1.3575557185e-01	 1.3283711761e+00	-2.2371917552e+00
 1.2427496553e-01	 1.3294943877e+00	-2.2335583436e+00
 1.1282081089e-01	 1.3305153515e+00	-2.2295514468e+00
 2.2991182847e-01	 1.3243038055e+00	-2.1703126601e+00
 2.1818810496e-01	 1.3262857663e+00	-2.1663658928e+00
 2.0648064471e-01	 1.3281587634e+00	-2.1621758150e+00
 1.9479081568e-01	 1.3299234865e+00	-2.1578861774e+00
 1.8311996559e-01	 1.3315806451e+00	-2.1535919016e+00
 1.7146942171e-01	 1.3331309681e+00	-2.1493403811e+00
 1.5984049051e-01	 1.3345752030e+00	-2.1451331260e+00
 1.4823445751e-01	 1.3359141153e+00	-2.1409277131e+00
 1.3665258695e-01	 1.3371484881e+00	-2.1366400064e+00
 1.2509612167e-01	 1.3382791214e+00	-2.1321466100e+00
 1.1356628284e-01	 1.3393068313e+00	-2.1272875195e+00
 2.3142101602e-01	 1.3329968024e+00	-2.0786407213e+00
 2.1962033562e-01	 1.3349917732e+00	-2.0726969790e+00
 2.0783602525e-01	 1.3368770650e+00	-2.0667608823e+00
 1.9606946182e-01	 1.3386533721e+00	-2.0609551611e+00
 1.8432200193e-01	 1.3403214086e+00	-2.0553512538e+00
 1.7259498153e-01	 1.3418819083e+00	-2.0499708332e+00
 1.6088971569e-01	 1.3433356234e+00	-2.0447876851e+00
 1.4920749834e-01	 1.3446833246e+00	-2.0397298998e+00
 1.3754960206e-01	 1.3459258001e+00	-2.0346823375e+00
 1.2591727781e-01	 1.3470638551e+00	-2.0294893316e+00
 1.1431175480e-01	 1.3480983111e+00	-2.0239575914e+00
 1.0685703526e-01	 1.2601835133e+00	-3.0581880933e+00
 9.6036369121e-02	 1.2610543083e+00	-3.0640543232e+00
 8.5242958067e-02	 1.2618298723e+00	-3.0692029358e+00
 7.4477863958e-02	 1.2625110154e+00	-3.0736707730e+00
 6.3742128408e-02	 1.2630985605e+00	-3.0774798056e+00
 5.3036772677e-02	 1.2635933433e+00	-3.0806383008e+00
 4.2362797579e-02	 1.2639962115e+00	-3.0831420350e+00
 3.1721183396e-02	 1.2643080243e+00	-3.0849755365e+00
 2.1112889822e-02	 1.2645296518e+00	-3.0861133401e+00
 1.0538855902e-02	 1.2646619743e+00	-3.0865212391e+00
 0.0000000000e+00	 1.2647058824e+00	-3.0861575217e+00
 1.0760250721e-01	 1.2689749930e+00	-2.9495564620e+00
 9.6706352331e-02	 1.2698518631e+00	-2.9540791127e+00
 8.5837642678e-02	 1.2706328377e+00	-2.9580033416e+00
 7.4997447517e-02	 1.2713187326e+00	-2.9613711244e+00
 6.4186815730e-02	 1.2719103766e+00	-2.9642089744e+00
 5.3406775704e-02	 1.2724086113e+00	-2.9665292440e+00
 4.2658335232e-02	 1.2728142900e+00	-2.9683314692e+00
 3.1942481437e-02	 1.2731282781e+00	-2.9696037406e+00
 2.1260180706e-02	 1.2733514517e+00	-2.9703240835e+00
 1.0612378637e-02	 1.2734846974e+00	-2.9704618303e+00
 0.0000000000e+00	 1.2735289118e+00	-2.9699789727e+00
 1.0834797916e-01	 1.2777664728e+00	-2.8432710991e+00
 9.7376335543e-02	 1.2786494178e+00	-2.8464191323e+00
 8.6432327288e-02	 1.2794358031e+00	-2.8490928551e+00
 7.5517031075e-02	 1.2801264499e+00	-2.8513409783e+00
 6.4631503053e-02	 1.2807221928e+00	-2.8531960278e+00
 5.3776778731e-02	 1.2812238792e+00	-2.8546757872e+00
 4.2953872885e-02	 1.2816323685e+00	-2.8557847825e+00
 3.2163779477e-02	 1.2819485320e+00	-2.8565157888e+00
 2.1407471590e-02	 1.2821732517e+00	-2.8568513431e+00
 1.0685901372e-02	 1.2823074205e+00	-2.8567652449e+00
 0.0000000000e+00	 1.2823519412e+00	-2.8562240306e+00
 1.0909345111e-01	 1.2865579526e+00	-2.7388659269e+00
 9.8046318754e-02	 1.2874469726e+00	-2.7406382482e+00
 8.7027011899e-02	 1.2882387684e+00	-2.7420642088e+00
 7.6036614634e-02	 1.2889341671e+00	-2.7432007393e+00
 6.5076190375e-02	 1.2895340090e+00	-2.7440877321e+00
 5.4146781757e-02	 1.2900391472e+00	-2.7447496349e+00
 4.3249410537e-02	 1.2904504470e+00	-2.7451970812e+00
 3.2385077517e-02	 1.2907687858e+00	-2.7454285426e+00
 2.1554762474e-02	 1.2909950516e+00	-2.7454319811e+00
 1.0759424106e-02	 1.2911301436e+00	-2.7451864853e+00
 0.0000000000e+00	 1.2911749706e+00	-2.7446638750e+00
 1.0983892307e-01	 1.2953494324e+00	-2.6358869037e+00
 9.8716301966e-02	 1.2962445273e+00	-2.6363115373e+00
 8.7621696510e-02	 1.2970417338e+00	-2.6365205766e+00
 7.6556198193e-02	 1.2977418844e+00	-2.6365805392e+00
 6.5520877698e-02	 1.2983458252e+00	-2.6365399230e+00
 5.4516784784e-02	 1.2988544151e+00	-2.6364309562e+00
 4.3544948190e-02	 1.2992685255e+00	-2.6362713856e+00
 3.2606375557e-02	 1.2995890396e+00	-2.6360662796e+00
 2.1702053357e-02	 1.2998168516e+00	-2.6358098294e+00
 1.0832946841e-02	 1.2999528667e+00	-2.6354871286e+00
 0.0000000000e+00	 1.2999980000e+00	-2.6350759152e+00
 1.1058439502e-01	 1.3041409122e+00	-2.5338916361e+00
 9.9386285178e-02	 1.3050420821e+00	-2.5330249236e+00
 8.8216381121e-02	 1.3058446991e+00	-2.5320752335e+00
 7.7075781752e-02	 1.3065496016e+00	-2.5311199200e+00
 6.5965565021e-02	 1.3071576413e+00	-2.5302172072e+00
 5.4886787810e-02	 1.3076696830e+00	-2.5294081065e+00
 4.3840485843e-02	 1.3080866040e+00	-2.5287183683e+00
 3.2827673597e-02	 1.3084092934e+00	-2.5281604469e+00
 2.1849344241e-02	 1.3086386516e+00	-2.5277354572e+00
 1.0906469576e-02	 1.3087755898e+00	-2.5274351062e+00
 0.0000000000e+00	 1.3088210294e+00	-2.5272435803e+00
 1.1132986698e-01	 1.3129323920e+00	-2.4324490067e+00
 1.0005626839e-01	 1.3138396368e+00	-2.4303748299e+00
 8.8811065732e-02	 1.3146476645e+00	-2.4283512296e+00
 7.7595365311e-02	 1.3153573189e+00	-2.4264675272e+00
 6.6410252343e-02	 1.3159694575e+00	-2.4247926769e+00
 5.5256790837e-02	 1.3164849510e+00	-2.4233773584e+00
 4.4136023495e-02	 1.3169046825e+00	-2.4222561026e+00
 3.3048971637e-02	 1.3172295472e+00	-2.4214494251e+00
 2.1996635124e-02	 1.3174604515e+00	-2.4209659483e+00
 1.0979992310e-02	 1.3175983129e+00	-2.4208044930e+00
 0.0000000000e+00	 1.3176440588e+00	-2.4209561188e+00
 1.1207533893e-01	 1.3217238717e+00	-2.3311388176e+00
 1.0072625160e-01	 1.3226371916e+00	-2.3279678429e+00
 8.9405750344e-02	 1.3234506299e+00	-2.3249810762e+00
 7.8114948871e-02	 1.3241650361e+00	-2.3222808171e+00
 6.6854939666e-02	 1.3247812737e+00	-2.3199476345e+00
 5.5626793863e-02	 1.3253002189e+00	-2.3180426454e+00
 4.4431561148e-02	 1.3257227610e+00	-2.3166098212e+00
 3.3270269677e-02	 1.3260498010e+00	-2.3156783008e+00
 2.2143926008e-02	 1.3262822515e+00	-2.3152646869e+00
 1.1053515045e-02	 1.3264210360e+00	-2.3153753046e+00
 0.0000000000e+00	 1.3264670883e+00	-2.3160084051e+00
 1.1282081089e-01	 1.3305153515e+00	-2.2295514468e+00
 1.0139623482e-01	 1.3314347463e+00	-2.2254203922e+00
 9.0000434956e-02	 1.3322535952e+00	-2.2216064452e+00
 7.8634532431e-02	 1.3329727534e+00	-2.2182257745e+00
 6.7299626990e-02	 1.3335930898e+00	-2.2153713296e+00
 5.5996796890e-02	 1.3341154869e+00	-2.2131153140e+00
 4.4727098801e-02	 1.3345408395e+00	-2.2115116840e+00
 3.3491567718e-02	 1.3348700548e+00	-2.2105986493e+00
 2.2291216892e-02	 1.3351040515e+00	-2.2104011519e+00
 1.1127037780e-02	 1.3352437590e+00	-2.2109333027e+00
 0.0000000000e+00	 1.3352901177e+00	-2.2122007549e+00
 1.1356628284e-01	 1.3393068313e+00	-2.1272875195e+00
 1.0206621803e-01	 1.3402323011e+00	-2.1223584413e+00
 9.0595119568e-02	 1.3410565606e+00	-2.1178778800e+00
 7.9154115991e-02	 1.3417804706e+00	-2.1139766427e+00
 6.7744314314e-02	 1.3424049060e+00	-2.1107607046e+00
 5.6366799918e-02	 1.3429307548e+00	-2.1083138866e+00
 4.5022636455e-02	 1.3433589180e+00	-2.1067005560e+00
 3.3712865758e-02	 1.3436903087e+00	-2.1059683247e+00
 2.2438507776e-02	 1.3439258514e+00	-2.1061507201e+00
 1.1200560515e-02	 1.3440664821e+00	-2.1072698080e+00
 0.0000000000e+00	 1.3441131471e+00	-2.1093387464e+00
 1.1431175480e-01	 1.3480983111e+00	-2.0239575914e+00
 1.0273620124e-01	 1.3490298559e+00	-2.0184171910e+00
 9.1189804181e-02	 1.3498595259e+00	-2.0134545175e+00
 7.9673699552e-02	 1.3505881879e+00	-2.0092156632e+00
 6.8189001638e-02	 1.3512167222e+00	-2.0058201522e+00
 5.6736802946e-02	 1.3517460228e+00	-2.0033638335e+00
 4.5318174109e-02	 1.3521769965e+00	-2.0019217930e+00
 3.3934163799e-02	 1.3525105625e+00	-2.0015512589e+00
 2.2585798660e-02	 1.3527476514e+00	-2.0022944755e+00
 1.1274083250e-02	 1.3528892052e+00	-2.0041815209e+00
 0.0000000000e+00	 1.3529361765e+00	-2.0072330501e+00
 1.3529361765e+00	 0.0000000000e+00	 3.7652609941e+00
 1.3528892052e+00	 1.1274083250e-02	 3.7623529118e+00
 1.3527476514e+00	 2.2585798660e-02	 3.7578529261e+00
 1.3525105625e+00	 3.3934163799e-02	 3.7517825195e+00
 1.3521769965e+00	 4.5318174109e-02	 3.7441381181e+00
 1.3517460228e+00	 5.6736802946e-02	 3.7348882747e+00
 1.3512167222e+00	 6.8189001638e-02	 3.7239708157e+00
 1.3505881879e+00	 7.9673699552e-02	 3.7112899708e+00
 1.3498595259e+00	 9.1189804181e-02	 3.6967135043e+00
 1.3490298559e+00	 1.0273620124e-01	 3.6800698684e+00
 1.3480983111e+00	 1.1431175480e-01	 3.6611454016e+00
 1.3617607059e+00	 0.0000000000e+00	 3.7580763820e+00
 1.3617134283e+00	 1.1347618485e-02	 3.7543792294e+00
 1.3615709511e+00	 2.2733114586e-02	 3.7491578418e+00
 1.3613323158e+00	 3.4155499464e-02	 3.7424274992e+00
 1.3609965742e+00	 4.5613762008e-02	 3.7341781177e+00
 1.3605627894e+00	 5.7106868879e-02	 3.7243712966e+00
 1.3600300364e+00	 6.8633764564e-02	 3.7129373228e+00
 1.3593974025e+00	 8.0193371447e-02	 3.6997721519e+00
 1.3586639879e+00	 9.1784589896e-02	 3.6847343848e+00
 1.3578289063e+00	 1.0340629836e-01	 3.6676422612e+00
 1.3568912855e+00	 1.1505735349e-01	 3.6482706938e+00
 1.3705852353e+00	 0.0000000000e+00	 3.7559264102e+00
 1.3705376513e+00	 1.1421153720e-02	 3.7516819128e+00
 1.3703942509e+00	 2.2880430512e-02	 3.7459669810e+00
 1.3701540692e+00	 3.4376835129e-02	 3.7387882594e+00
 1.3698161518e+00	 4.5909349907e-02	 3.7301267908e+00
 1.3693795561e+00	 5.7476934812e-02	 3.7199349264e+00
 1.3688433507e+00	 6.9078527490e-02	 3.7081331873e+00
 1.3682066172e+00	 8.0713043343e-02	 3.6946070951e+00
 1.3674684499e+00	 9.2379375611e-02	 3.6792039922e+00
 1.3666279567e+00	 1.0407639548e-01	 3.6617298742e+00
 1.3656842599e+00	 1.1580295218e-01	 3.6419462575e+00
 1.3794097647e+00	 0.0000000000e+00	 3.7586705350e+00
 1.3793618744e+00	 1.1494688955e-02	 3.7541086026e+00
 1.3792175507e+00	 2.3027746439e-02	 3.7481176590e+00
 1.3789758225e+00	 3.4598170794e-02	 3.7406934086e+00
 1.3786357295e+00	 4.6204937807e-02	 3.7318057875e+00
 1.3781963227e+00	 5.7847000746e-02	 3.7213957370e+00
 1.3776566650e+00	 6.9523290417e-02	 3.7093719198e+00
 1.3770158318e+00	 8.1232715239e-02	 3.6956073993e+00
 1.3762729118e+00	 9.2974161327e-02	 3.6799363020e+00
 1.3754270071e+00	 1.0474649260e-01	 3.6621504863e+00
 1.3744772344e+00	 1.1654855087e-01	 3.6419962407e+00
 1.3882342941e+00	 0.0000000000e+00	 3.7661729515e+00
 1.3881860974e+00	 1.1568224191e-02	 3.7615121155e+00
 1.3880408504e+00	 2.3175062365e-02	 3.7554527383e+00
 1.3877975758e+00	 3.4819506460e-02	 3.7479774061e+00
 1.3874553072e+00	 4.6500525707e-02	 3.7390428447e+00
 1.3870130893e+00	 5.8217066680e-02	 3.7285765547e+00
 1.3864699792e+00	 6.9968053344e-02	 3.7164733816e+00
 1.3858250465e+00	 8.1752387136e-02	 3.7025920422e+00
 1.3850773738e+00	 9.3568947043e-02	 3.6867516264e+00
 1.3842260576e+00	 1.0541658971e-01	 3.6687281000e+00
 1.3832702088e+00	 1.1729414957e-01	 3.6482508319e+00
 1.3970588236e+00	 0.0000000000e+00	 3.7783024449e+00
 1.3970103204e+00	 1.1641759426e-02	 3.7737502861e+00
 1.3968641502e+00	 2.3322378292e-02	 3.7678204615e+00
 1.3966193292e+00	 3.5040842126e-02	 3.7604803876e+00
 1.3962748848e+00	 4.6796113607e-02	 3.7516716047e+00
 1.3958298560e+00	 5.8587132614e-02	 3.7413062733e+00
 1.3952832935e+00	 7.0412816271e-02	 3.7292635961e+00
 1.3946342611e+00	 8.2272059032e-02	 3.7153861895e+00
 1.3938818357e+00	 9.4163732759e-02	 3.6994764225e+00
 1.3930251080e+00	 1.0608668683e-01	 3.6812927514e+00
 1.3920631832e+00	 1.1803974826e-01	 3.6605460721e+00
 1.4058833530e+00	 0.0000000000e+00	 3.7949322464e+00
 1.4058345435e+00	 1.1715294662e-02	 3.7906858134e+00
 1.4056874499e+00	 2.3469694219e-02	 3.7850742900e+00
 1.4054410825e+00	 3.5262177791e-02	 3.7780479966e+00
 1.4050944625e+00	 4.7091701508e-02	 3.7695314415e+00
 1.4046466226e+00	 5.8957198548e-02	 3.7594196757e+00
 1.4040966078e+00	 7.0857579198e-02	 3.7475745665e+00
 1.4034434758e+00	 8.2791730928e-02	 3.7338210103e+00
 1.4026862977e+00	 9.4758518475e-02	 3.7179431078e+00
 1.4018241584e+00	 1.0675678395e-01	 3.6996803260e+00
 1.4008561577e+00	 1.1878534695e-01	 3.6787236733e+00
 1.4147078824e+00	 0.0000000000e+00	 3.8159398952e+00
 1.4146587665e+00	 1.1788829897e-02	 3.8121861145e+00
 1.4145107497e+00	 2.3617010145e-02	 3.8070727495e+00
 1.4142628359e+00	 3.5483513457e-02	 3.8005312234e+00
 1.4139140402e+00	 4.7387289408e-02	 3.7924672932e+00
 1.4134633892e+00	 5.9327264481e-02	 3.7827572618e+00
 1.4129099221e+00	 7.1302342125e-02	 3.7712441000e+00
 1.4122526905e+00	 8.3311402825e-02	 3.7577334998e+00
 1.4114907596e+00	 9.5353304191e-02	 3.7419898814e+00
 1.4106232089e+00	 1.0742688107e-01	 3.7237323806e+00
 1.4096491321e+00	 1.1953094565e-01	 3.7026308425e+00
 1.4235324118e+00	 0.0000000000e+00	 3.8412071058e+00
 1.4234829896e+00	 1.1862365133e-02	 3.8381231826e+00
 1.4233340495e+00	 2.3764326072e-02	 3.8336792803e+00
 1.4230845892e+00	 3.5704849122e-02	 3.8277862483e+00
 1.4227336178e+00	 4.7682877308e-02	 3.8203295004e+00
 1.4222801559e+00	 5.9697330415e-02	 3.8111650818e+00
 1.4217232363e+00	 7.1747105052e-02	 3.8001156387e+00
 1.4210619051e+00	 8.3831074721e-02	 3.7869663074e+00
 1.4202952216e+00	 9.5948089907e-02	 3.7714605519e+00
 1.4194222593e+00	 1.0809697818e-01	 3.7532959721e+00
 1.4184421065e+00	 1.2027654434e-01	 3.7321201128e+00
 1.4323569412e+00	 0.0000000000e+00	 3.8706196391e+00
 1.4323072126e+00	 1.1935900368e-02	 3.8683734506e+00
 1.4321573492e+00	 2.3911641998e-02	 3.8647620941e+00
 1.4319063426e+00	 3.5926184787e-02	 3.8596742924e+00
 1.4315531955e+00	 4.7978465207e-02	 3.8529736507e+00
 1.4310969225e+00	 6.0067396348e-02	 3.8444945773e+00
 1.4305365506e+00	 7.2191867979e-02	 3.8340380962e+00
 1.4298711198e+00	 8.4350746617e-02	 3.8213675718e+00
 1.4290996835e+00	 9.6542875622e-02	 3.8062043713e+00
 1.4282213097e+00	 1.0876707530e-01	 3.7882234915e+00
 1.4272350809e+00	 1.2102214303e-01	 3.7670491787e+00
 1.4411814706e+00	 0.0000000000e+00	 3.9040671800e+00
 1.4411314357e+00	 1.2009435603e-02	 3.9028176603e+00
 1.4409806490e+00	 2.4058957924e-02	 3.9001940351e+00
 1.4407280959e+00	 3.6147520452e-02	 3.8960614721e+00
 1.4403727731e+00	 4.8274053106e-02	 3.8902604288e+00
 1.4399136891e+00	 6.0437462281e-02	 3.8826024260e+00
 1.4393498649e+00	 7.2636630905e-02	 3.8728657003e+00
 1.4386803344e+00	 8.4870418512e-02	 3.8607907609e+00
 1.4379041455e+00	 9.7137661338e-02	 3.8460758741e+00
 1.4370203602e+00	 1.0943717242e-01	 3.8283725038e+00
 1.4360280554e+00	 1.2176774173e-01	 3.8072807380e+00
 1.3480983111e+00	 1.1431175480e-01	 3.6611454016e+00
 1.3470638551e+00	 1.2591727781e-01	 3.6398733455e+00
 1.3459258001e+00	 1.3754960206e-01	 3.6165069635e+00
 1.3446833246e+00	 1.4920749834e-01	 3.5912337356e+00
 1.3433356234e+00	 1.6088971569e-01	 3.5641916032e+00
 1.3418819083e+00	 1.7259498153e-01	 3.5354661527e+00
 1.3403214086e+00	 1.8432200193e-01	 3.5050879883e+00
 1.3386533721e+00	 1.9606946182e-01	 3.4730303282e+00
 1.3368770650e+00	 2.0783602525e-01	 3.4392068546e+00
 1.3349917732e+00	 2.1962033562e-01	 3.4034698540e+00
 1.3329968024e+00	 2.3142101602e-01	 3.3656086804e+00
 1.3568912855e+00	 1.1505735349e-01	 3.6482706938e+00
 1.3558500822e+00	 1.2673857355e-01	 3.6265202262e+00
 1.3547046043e+00	 1.3844676966e-01	 3.6026441652e+00
 1.3534540248e+00	 1.5018070460e-01	 3.5768653970e+00
 1.3520975332e+00	 1.6193911924e-01	 3.5493556941e+00
 1.3506343362e+00	 1.7372073270e-01	 3.5202326609e+00
 1.3490636582e+00	 1.8552424262e-01	 3.4895568691e+00
 1.3473847419e+00	 1.9734832535e-01	 3.4573292155e+00
 1.3455968489e+00	 2.0919163622e-01	 3.4234885377e+00
 1.3436992602e+00	 2.2105280978e-01	 3.3879095220e+00
 1.3416912772e+00	 2.3293046015e-01	 3.3504009396e+00
 1.3656842599e+00	 1.1580295218e-01	 3.6419462575e+00
 1.3646363094e+00	 1.2755986929e-01	 3.6197162984e+00
 1.3634834085e+00	 1.3934393727e-01	 3.5952874120e+00
 1.3622247249e+00	 1.5115391087e-01	 3.5689141105e+00
 1.3608594430e+00	 1.6298852279e-01	 3.5407982226e+00
 1.3593867641e+00	 1.7484648388e-01	 3.5110855986e+00
 1.3578059078e+00	 1.8672648332e-01	 3.4798630058e+00
 1.3561161117e+00	 1.9862718888e-01	 3.4471552459e+00
 1.3543166327e+00	 2.1054724718e-01	 3.4129225330e+00
 1.3524067472e+00	 2.2248528394e-01	 3.3770581673e+00
 1.3503857520e+00	 2.3443990427e-01	 3.3393865413e+00
 1.3744772344e+00	 1.1654855087e-01	 3.6419962407e+00
 1.3734225366e+00	 1.2838116504e-01	 3.6192945445e+00
 1.3722622128e+00	 1.4024110487e-01	 3.5942809063e+00
 1.3709954251e+00	 1.5212711713e-01	 3.5672378603e+00
 1.3696213527e+00	 1.6403792634e-01	 3.5383936929e+00
 1.3681391920e+00	 1.7597223506e-01	 3.5079189052e+00
 1.3665481573e+00	 1.8792872401e-01	 3.4759228641e+00
 1.3648474815e+00	 1.9990605241e-01	 3.4424506781e+00
 1.3630364165e+00	 2.1190285815e-01	 3.4074803336e+00
 1.3611142342e+00	 2.2391775810e-01	 3.3709201310e+00
 1.3590802268e+00	 2.3594934840e-01	 3.3326064593e+00
 1.3832702088e+00	 1.1729414957e-01	 3.6482508319e+00
 1.3822087638e+00	 1.2920246078e-01	 3.6250937391e+00
 1.3810410170e+00	 1.4113827248e-01	 3.5994743347e+00
 1.3797661253e+00	 1.5310032339e-01	 3.5716997465e+00
 1.3783832625e+00	 1.6508732990e-01	 3.5420212957e+00
 1.3768916200e+00	 1.7709798623e-01	 3.5106307141e+00
 1.3752904069e+00	 1.8913096471e-01	 3.4776565486e+00
 1.3735788513e+00	 2.0118491594e-01	 3.4431607903e+00
 1.3717562003e+00	 2.1325846911e-01	 3.4071357671e+00
 1.3698217213e+00	 2.2535023226e-01	 3.3695013386e+00
 1.3677747016e+00	 2.3745879252e-01	 3.3301024350e+00
 1.3920631832e+00	 1.1803974826e-01	 3.6605460721e+00
 1.3909949910e+00	 1.3002375653e-01	 3.6369582649e+00
 1.3898198212e+00	 1.4203544009e-01	 3.6107226900e+00
 1.3885368255e+00	 1.5407352965e-01	 3.5821678139e+00
 1.3871451723e+00	 1.6613673345e-01	 3.5515647450e+00
 1.3856440479e+00	 1.7822373741e-01	 3.5191232008e+00
 1.3840326565e+00	 1.9033320540e-01	 3.4849876626e+00
 1.3823102211e+00	 2.0246377947e-01	 3.4492337541e+00
 1.3804759842e+00	 2.1461408008e-01	 3.4118648866e+00
 1.3785292083e+00	 2.2678270641e-01	 3.3728092090e+00
 1.3764691764e+00	 2.3896823664e-01	 3.3319169072e+00
 1.4008561577e+00	 1.1878534695e-01	 3.6787236733e+00
 1.3997812182e+00	 1.3084505227e-01	 3.6547379354e+00
 1.3985986254e+00	 1.4293260769e-01	 3.6278860982e+00
 1.3973075256e+00	 1.5504673591e-01	 3.5985148862e+00
 1.3959070821e+00	 1.6718613700e-01	 3.5669121210e+00
 1.3943964758e+00	 1.7934948858e-01	 3.5333024352e+00
 1.3927749060e+00	 1.9153544609e-01	 3.4978431722e+00
 1.3910415909e+00	 2.0374264300e-01	 3.4606205121e+00
 1.3891957680e+00	 2.1596969105e-01	 3.4216458634e+00
 1.3872366953e+00	 2.2821518057e-01	 3.3808525653e+00
 1.3851636512e+00	 2.4047768077e-01	 3.3380929424e+00
 1.4096491321e+00	 1.1953094565e-01	 3.7026308425e+00
 1.4085674454e+00	 1.3166634801e-01	 3.6782878224e+00
 1.4073774296e+00	 1.4382977530e-01	 3.6508296517e+00
 1.4060782258e+00	 1.5601994218e-01	 3.6206184053e+00
 1.4046689919e+00	 1.6823554055e-01	 3.5879557171e+00
 1.4031489038e+00	 1.8047523976e-01	 3.5530782375e+00
 1.4015171556e+00	 1.9273768679e-01	 3.5161532738e+00
 1.3997729606e+00	 2.0502150652e-01	 3.4772746581e+00
 1.3979155518e+00	 2.1732530201e-01	 3.4364588821e+00
 1.3959441823e+00	 2.2964765473e-01	 3.3936415460e+00
 1.3938581260e+00	 2.4198712489e-01	 3.3486741652e+00
 1.4184421065e+00	 1.2027654434e-01	 3.7321201128e+00
 1.4173536725e+00	 1.3248764376e-01	 3.7074680899e+00
 1.4161562339e+00	 1.4472694290e-01	 3.6794232476e+00
 1.4148489260e+00	 1.5699314844e-01	 3.6483602751e+00
 1.4134309017e+00	 1.6928494410e-01	 3.6145918912e+00
 1.4119013317e+00	 1.8160099093e-01	 3.5783640392e+00
 1.4102594052e+00	 1.9393992748e-01	 3.5398512650e+00
 1.4085043304e+00	 2.0630037005e-01	 3.4991523206e+00
 1.4066353356e+00	 2.1868091298e-01	 3.4562860379e+00
 1.4046516693e+00	 2.3108012889e-01	 3.4111875191e+00
 1.4025526008e+00	 2.4349656902e-01	 3.3637046896e+00
 1.4272350809e+00	 1.2102214303e-01	 3.7670491787e+00
 1.4261398997e+00	 1.3330893950e-01	 3.7421438335e+00
 1.4249350381e+00	 1.4562411051e-01	 3.7135414313e+00
 1.4236196261e+00	 1.5796635470e-01	 3.6816267114e+00
 1.4221928115e+00	 1.7033434766e-01	 3.6467209218e+00
 1.4206537596e+00	 1.8272674211e-01	 3.6090767474e+00
 1.4190016547e+00	 1.9514216818e-01	 3.5688734190e+00
 1.4172357002e+00	 2.0757923358e-01	 3.5262120485e+00
 1.4153551195e+00	 2.2003652394e-01	 3.4811112359e+00
 1.4133591563e+00	 2.3251260305e-01	 3.4335029954e+00
 1.4112470756e+00	 2.4500601314e-01	 3.3832290502e+00
 1.4360280554e+00	 1.2176774173e-01	 3.8072807380e+00
 1.4349261269e+00	 1.3413023525e-01	 3.7821849245e+00
 1.4337138423e+00	 1.4652127812e-01	 3.7530632444e+00
 1.4323903263e+00	 1.5893956096e-01	 3.7203080944e+00
 1.4309547213e+00	 1.7138375121e-01	 3.6842468684e+00
 1.4294061875e+00	 1.8385249329e-01	 3.6451366127e+00
 1.4277439043e+00	 1.9634440887e-01	 3.6031588619e+00
 1.4259670700e+00	 2.0885809711e-01	 3.5584146996e+00
 1.4240749033e+00	 2.2139213491e-01	 3.5109200920e+00
 1.4220666433e+00	 2.3394507721e-01	 3.4606015452e+00
 1.4199415504e+00	 2.4651545727e-01	 3.4072921347e+00
 1.3329968024e+00	 2.3142101602e-01	 3.3656086804e+00
 1.3308918460e+00	 2.4323466039e-01	 3.3266757276e+00
 1.3286759212e+00	 2.5506185996e-01	 3.2876167532e+00
 1.3263483964e+00	 2.6690118266e-01	 3.2479836049e+00
 1.3239086624e+00	 2.7875117746e-01	 3.2072623560e+00
 1.3213561328e+00	 2.9061037479e-01	 3.1648740133e+00
 1.3186902446e+00	 3.0247728689e-01	 3.1201757658e+00
 1.3159104587e+00	 3.1435040825e-01	 3.0724628070e+00
 1.3130162608e+00	 3.2622821604e-01	 3.0209707676e+00
 1.3100071613e+00	 3.3810917055e-01	 2.9648787890e+00
 1.3068826965e+00	 3.4999171566e-01	 2.9033132717e+00
 1.3416912772e+00	 2.3293046015e-01	 3.3504009396e+00
 1.3395725912e+00	 2.4482115904e-01	 3.3120293372e+00
 1.3373422130e+00	 2.5672550155e-01	 3.2737117924e+00
 1.3349995069e+00	 2.6864204626e-01	 3.2349497411e+00
 1.3325438597e+00	 2.8056933268e-01	 3.1951747825e+00
 1.3299746813e+00	 2.9250588165e-01	 3.1537492824e+00
 1.3272914048e+00	 3.0445019571e-01	 3.1099675326e+00
 1.3244934878e+00	 3.1640075953e-01	 3.0630575042e+00
 1.3215804125e+00	 3.2835604035e-01	 3.0121832283e+00
 1.3185516861e+00	 3.4031448841e-01	 2.9564478403e+00
 1.3154068420e+00	 3.5227453746e-01	 2.8948973215e+00
 1.3503857520e+00	 2.3443990427e-01	 3.3393865413e+00
 1.3482533364e+00	 2.4640765769e-01	 3.3009898166e+00
 1.3460085048e+00	 2.5838914313e-01	 3.2627727378e+00
 1.3436506175e+00	 2.7038290985e-01	 3.2242050821e+00
 1.3411790571e+00	 2.8238748789e-01	 3.1846826313e+00
 1.3385932298e+00	 2.9440138850e-01	 3.1435276385e+00
 1.3358925650e+00	 3.0642310453e-01	 3.0999898667e+00
 1.3330765169e+00	 3.1845111081e-01	 3.0532482384e+00
 1.3301445641e+00	 3.3048386466e-01	 3.0024131328e+00
 1.3270962110e+00	 3.4251980628e-01	 2.9465293682e+00
 1.3239309875e+00	 3.5455735925e-01	 2.8845799030e+00
 1.3590802268e+00	 2.3594934840e-01	 3.3326064593e+00
 1.3569340817e+00	 2.4799415633e-01	 3.2936358855e+00
 1.3546747967e+00	 2.6005278472e-01	 3.2549142072e+00
 1.3523017280e+00	 2.7212377345e-01	 3.2158980069e+00
 1.3498142545e+00	 2.8420564311e-01	 3.1759656143e+00
 1.3472117783e+00	 2.9629689536e-01	 3.1344174026e+00
 1.3444937253e+00	 3.0839601335e-01	 3.0904766744e+00
 1.3416595460e+00	 3.2050146209e-01	 3.0432911743e+00
 1.3387087158e+00	 3.3261168897e-01	 2.9919352703e+00
 1.3356407358e+00	 3.4472512415e-01	 2.9354128401e+00
 1.3324551329e+00	 3.5684018105e-01	 2.8726608996e+00
 1.3677747016e+00	 2.3745879252e-01	 3.3301024350e+00
 1.3656148269e+00	 2.4958065498e-01	 3.2900462194e+00
 1.3633410885e+00	 2.6171642630e-01	 3.2502500456e+00
 1.3609528386e+00	 2.7386463704e-01	 3.2101754883e+00
 1.3584494519e+00	 2.8602379832e-01	 3.1692015085e+00
 1.3558303268e+00	 2.9819240222e-01	 3.1266245480e+00
 1.3530948855e+00	 3.1036892217e-01	 3.0816592282e+00
 1.3502425751e+00	 3.2255181338e-01	 3.0334396942e+00
 1.3472728675e+00	 3.3473951329e-01	 2.9810216460e+00
 1.3441852606e+00	 3.4693044202e-01	 2.9233850968e+00
 1.3409792784e+00	 3.5912300284e-01	 2.8594378955e+00
 1.3764691764e+00	 2.3896823664e-01	 3.3319169072e+00
 1.3742955721e+00	 2.5116715363e-01	 3.2902994002e+00
 1.3720073804e+00	 2.6338006789e-01	 3.2488932946e+00
 1.3696039491e+00	 2.7560550064e-01	 3.2071830774e+00
 1.3670846493e+00	 2.8784195354e-01	 3.1645661538e+00
 1.3644488753e+00	 3.0008790908e-01	 3.1203527079e+00
 1.3616960458e+00	 3.1234183099e-01	 3.0737661809e+00
 1.3588256041e+00	 3.2460216466e-01	 3.0239444143e+00
 1.3558370191e+00	 3.3686733760e-01	 2.9699414972e+00
 1.3527297854e+00	 3.4913575988e-01	 2.9107303634e+00
 1.3495034239e+00	 3.6140582464e-01	 2.8452061756e+00
 1.3851636512e+00	 2.4047768077e-01	 3.3380929424e+00
 1.3829763173e+00	 2.5275365228e-01	 3.2944738660e+00
 1.3806736722e+00	 2.6504370947e-01	 3.2509561601e+00
 1.3782550597e+00	 2.7734636423e-01	 3.2070648865e+00
 1.3757198467e+00	 2.8966010875e-01	 3.1622334479e+00
 1.3730674238e+00	 3.0198341594e-01	 3.1158031794e+00
 1.3702972060e+00	 3.1431473981e-01	 3.0670235757e+00
 1.3674086332e+00	 3.2665251595e-01	 3.0150531977e+00
 1.3644011708e+00	 3.3899516191e-01	 2.9589613048e+00
 1.3612743102e+00	 3.5134107775e-01	 2.8977302560e+00
 1.3580275694e+00	 3.6368864644e-01	 2.8302587234e+00
 1.3938581260e+00	 2.4198712489e-01	 3.3486741652e+00
 1.3916570625e+00	 2.5434015092e-01	 3.3026478605e+00
 1.3893399641e+00	 2.6670735106e-01	 3.2565499777e+00
 1.3869061703e+00	 2.7908722783e-01	 3.2099635696e+00
 1.3843550441e+00	 2.9147826397e-01	 3.1623753381e+00
 1.3816859723e+00	 3.0387892280e-01	 3.1131749249e+00
 1.3788983662e+00	 3.1628764863e-01	 3.0616548527e+00
 1.3759916623e+00	 3.2870286723e-01	 3.0070111635e+00
 1.3729653225e+00	 3.4112298623e-01	 2.9483448011e+00
 1.3698188350e+00	 3.5354639562e-01	 2.8846637838e+00
 1.3665517149e+00	 3.6597146823e-01	 2.8148862136e+00
 1.4025526008e+00	 2.4349656902e-01	 3.3637046896e+00
 1.4003378077e+00	 2.5592664957e-01	 3.3148993825e+00
 1.3980062559e+00	 2.6837099264e-01	 3.2657851785e+00
 1.3955572808e+00	 2.8082809143e-01	 3.2160203007e+00
 1.3929902414e+00	 2.9329641918e-01	 3.1651618114e+00
 1.3903045208e+00	 3.0577442965e-01	 3.1126645695e+00
 1.3874995265e+00	 3.1826055745e-01	 3.0578808524e+00
 1.3845746914e+00	 3.3075321851e-01	 3.0000606918e+00
 1.3815294741e+00	 3.4325081054e-01	 2.9383529734e+00
 1.3783633598e+00	 3.5575171349e-01	 2.8718073481e+00
 1.3750758603e+00	 3.6825429003e-01	 2.7993770026e+00
 1.4112470756e+00	 2.4500601314e-01	 3.3832290502e+00
 1.4090185530e+00	 2.5751314822e-01	 3.3313061339e+00
 1.4066725477e+00	 2.7003463423e-01	 3.2787712525e+00
 1.4042083914e+00	 2.8256895502e-01	 3.2253747508e+00
 1.4016254388e+00	 2.9511457440e-01	 3.1707608816e+00
 1.3989230693e+00	 3.0766993651e-01	 3.1144663967e+00
 1.3961006867e+00	 3.2023346627e-01	 3.0559198156e+00
 1.3931577205e+00	 3.3280356980e-01	 2.9944414257e+00
 1.3900936258e+00	 3.4537863485e-01	 2.9292440650e+00
 1.3869078846e+00	 3.5795703135e-01	 2.8594347378e+00
 1.3836000058e+00	 3.7053711183e-01	 2.7840169323e+00
 1.4199415504e+00	 2.4651545727e-01	 3.4072921347e+00
 1.4176992982e+00	 2.5909964687e-01	 3.3519454688e+00
 1.4153388396e+00	 2.7169827581e-01	 3.2956167117e+00
 1.4128595019e+00	 2.8430981862e-01	 3.2381650626e+00
 1.4102606362e+00	 2.9693272962e-01	 3.1793385738e+00
 1.4075416178e+00	 3.0956544337e-01	 3.1187723397e+00
 1.4047018470e+00	 3.2220637509e-01	 3.0559873800e+00
 1.4017407496e+00	 3.3485392108e-01	 2.9903902696e+00
 1.3986577775e+00	 3.4750645917e-01	 2.9212735709e+00
 1.3954524094e+00	 3.6016234922e-01	 2.8478171207e+00
 1.3921241513e+00	 3.7281993362e-01	 2.7690296924e+00
 1.3068826965e+00	 3.4999171566e-01	 2.9033132717e+00
 1.3036424289e+00	 3.6187427950e-01	 2.8399801097e+00
 1.3002859490e+00	 3.7375527545e-01	 2.7781479208e+00
 1.2968128745e+00	 3.8563310219e-01	 2.7161441220e+00
 1.2932228510e+00	 3.9750614411e-01	 2.6533173748e+00
 1.2895155522e+00	 4.0937277181e-01	 2.5893159720e+00
 1.2856906802e+00	 4.2123134272e-01	 2.5238350957e+00
 1.2817479665e+00	 4.3308020167e-01	 2.4566216429e+00
 1.2776871719e+00	 4.4491768149e-01	 2.3874786218e+00
 1.2735080872e+00	 4.5674210366e-01	 2.3162690718e+00
 1.2692105336e+00	 4.6855177891e-01	 2.2429194586e+00
 1.3154068420e+00	 3.5227453746e-01	 2.8948973215e+00
 1.3121454398e+00	 3.6423460535e-01	 2.8313411614e+00
 1.3087670672e+00	 3.7619309512e-01	 2.7691417620e+00
 1.3052713396e+00	 3.8814839502e-01	 2.7065691455e+00
 1.3016579001e+00	 4.0009887888e-01	 2.6430786725e+00
 1.2979264204e+00	 4.1204290668e-01	 2.5783262368e+00
 1.2940766007e+00	 4.2397882515e-01	 2.5120162387e+00
 1.2901081707e+00	 4.3590496831e-01	 2.4439066551e+00
 1.2860208895e+00	 4.4781965812e-01	 2.3738136602e+00
 1.2818145467e+00	 4.5972120511e-01	 2.3016157466e+00
 1.2774889623e+00	 4.7160790899e-01	 2.2272572976e+00
 1.3239309875e+00	 3.5455735925e-01	 2.8845799030e+00
 1.3206484506e+00	 3.6659493119e-01	 2.8204784992e+00
 1.3172481853e+00	 3.7863091479e-01	 2.7576003286e+00
 1.3137298046e+00	 3.9066368784e-01	 2.6942263694e+00
 1.3100929492e+00	 4.0269161364e-01	 2.6299022586e+00
 1.3063372887e+00	 4.1471304156e-01	 2.5642867781e+00
 1.3024625212e+00	 4.2672630758e-01	 2.4970889763e+00
 1.2984683748e+00	 4.3872973495e-01	 2.4280734993e+00
 1.2943546071e+00	 4.5072163475e-01	 2.3570654517e+00
 1.2901210062e+00	 4.6270030656e-01	 2.2839547339e+00
 1.2857673910e+00	 4.7466403908e-01	 2.2086998034e+00
 1.3324551329e+00	 3.5684018105e-01	 2.8726608996e+00
 1.3291514614e+00	 3.6895525704e-01	 2.8077012199e+00
 1.3257293035e+00	 3.8106873446e-01	 2.7438214078e+00
 1.3221882696e+00	 3.9317898066e-01	 2.6794228454e+00
 1.3185279984e+00	 4.0528434841e-01	 2.6141051260e+00
 1.3147481569e+00	 4.1738317643e-01	 2.5475251218e+00
 1.3108484417e+00	 4.2947379001e-01	 2.4793918802e+00
 1.3068285789e+00	 4.4155450159e-01	 2.4094722333e+00
 1.3026883247e+00	 4.5362361139e-01	 2.3375959139e+00
 1.2984274657e+00	 4.6567940802e-01	 2.2636601241e+00
 1.2940458197e+00	 4.7772016917e-01	 2.1876335003e+00
 1.3409792784e+00	 3.5912300284e-01	 2.8594378955e+00
 1.3376544722e+00	 3.7131558289e-01	 2.7933115793e+00
 1.3342104217e+00	 3.8350655413e-01	 2.7281010742e+00
 1.3306467347e+00	 3.9569427349e-01	 2.6624641260e+00
 1.3269630475e+00	 4.0787708318e-01	 2.5960029330e+00
 1.3231590251e+00	 4.2005331131e-01	 2.5283675730e+00
 1.3192343622e+00	 4.3222127244e-01	 2.4592623626e+00
 1.3151887831e+00	 4.4437926823e-01	 2.3884517611e+00
 1.3110220423e+00	 4.5652558802e-01	 2.3157657589e+00
 1.3067339252e+00	 4.6865850947e-01	 2.2411046922e+00
 1.3023242484e+00	 4.8077629926e-01	 2.1644434263e+00
 1.3495034239e+00	 3.6140582464e-01	 2.8452061756e+00
 1.3461574831e+00	 3.7367590874e-01	 2.7775597903e+00
 1.3426915399e+00	 3.8594437380e-01	 2.7107337253e+00
 1.3391051997e+00	 3.9820956631e-01	 2.6436542845e+00
 1.3353980966e+00	 4.1046981795e-01	 2.5759100083e+00
 1.3315698934e+00	 4.2272344618e-01	 2.5071392064e+00
 1.3276202827e+00	 4.3496875488e-01	 2.4370366507e+00
 1.3235489872e+00	 4.4720403488e-01	 2.3653597920e+00
 1.3193557599e+00	 4.5942756465e-01	 2.2919344373e+00
 1.3150403847e+00	 4.7163761093e-01	 2.2166598256e+00
 1.3106026771e+00	 4.8383242935e-01	 2.1395130455e+00
 1.3580275694e+00	 3.6368864644e-01	 2.8302587234e+00
 1.3546604939e+00	 3.7603623458e-01	 2.7607182279e+00
 1.3511726581e+00	 3.8838219348e-01	 2.6920121137e+00
 1.3475636648e+00	 4.0072485914e-01	 2.6232959327e+00
 1.3438331457e+00	 4.1306255272e-01	 2.5541393541e+00
 1.3399807616e+00	 4.2539358106e-01	 2.4841638535e+00
 1.3360062032e+00	 4.3771623731e-01	 2.4130497588e+00
 1.3319091914e+00	 4.5002880152e-01	 2.3405427975e+00
 1.3276894775e+00	 4.6232954129e-01	 2.2664600792e+00
 1.3233468443e+00	 4.7461671238e-01	 2.1906954502e+00
 1.3188811058e+00	 4.8688855944e-01	 2.1132241583e+00
 1.3665517149e+00	 3.6597146823e-01	 2.8148862136e+00
 1.3631635047e+00	 3.7839656043e-01	 2.7430685832e+00
 1.3596537762e+00	 3.9082001315e-01	 2.6722273763e+00
 1.3560221298e+00	 4.0324015197e-01	 2.6016902356e+00
 1.3522681948e+00	 4.1565528749e-01	 2.5310026454e+00
 1.3483916299e+00	 4.2806371594e-01	 2.4597640876e+00
 1.3443921237e+00	 4.4046371974e-01	 2.3876354586e+00
 1.3402693955e+00	 4.5285356817e-01	 2.3143459659e+00
 1.3360231951e+00	 4.6523151792e-01	 2.2396994341e+00
 1.3316533038e+00	 4.7759581384e-01	 2.1635799538e+00
 1.3271595345e+00	 4.8994468953e-01	 2.0859568100e+00
 1.3750758603e+00	 3.6825429003e-01	 2.7993770026e+00
 1.3716665155e+00	 3.8075688628e-01	 2.7248907569e+00
 1.3681348944e+00	 3.9325783282e-01	 2.6516690603e+00
 1.3644805948e+00	 4.0575544479e-01	 2.5791369226e+00
 1.3607032439e+00	 4.1824802226e-01	 2.5068102275e+00
 1.3568024981e+00	 4.3073385081e-01	 2.4342612061e+00
 1.3527780442e+00	 4.4321120218e-01	 2.3611262459e+00
 1.3486295997e+00	 4.5567833481e-01	 2.2871131547e+00
 1.3443569127e+00	 4.6813349455e-01	 2.2120078078e+00
 1.3399597633e+00	 4.8057491529e-01	 2.1356801091e+00
 1.3354379633e+00	 4.9300081962e-01	 2.0580891977e+00
 1.3836000058e+00	 3.7053711183e-01	 2.7840169323e+00
 1.3801695264e+00	 3.8311721213e-01	 2.7064628965e+00
 1.3766160126e+00	 3.9569565249e-01	 2.6306251464e+00
 1.3729390599e+00	 4.0827073762e-01	 2.5559342970e+00
 1.3691382930e+00	 4.2084075703e-01	 2.4818711103e+00
 1.3652133663e+00	 4.3340398569e-01	 2.4079752110e+00
 1.3611639648e+00	 4.4595868461e-01	 2.3338533071e+00
 1.3569898038e+00	 4.5850310145e-01	 2.2591868416e+00
 1.3526906303e+00	 4.7103547119e-01	 2.1837389986e+00
 1.3482662228e+00	 4.8355401675e-01	 2.1073609934e+00
 1.3437163920e+00	 4.9605694971e-01	 2.0299975748e+00
 1.3921241513e+00	 3.7281993362e-01	 2.7690296924e+00
 1.3886725372e+00	 3.8547753797e-01	 2.6880614299e+00
 1.3850971308e+00	 3.9813347216e-01	 2.6093820691e+00
 1.3813975249e+00	 4.1078603044e-01	 2.5323792422e+00
 1.3775733421e+00	 4.2343349180e-01	 2.4564929610e+00
 1.3736242346e+00	 4.3607412057e-01	 2.3812247863e+00
 1.3695498853e+00	 4.4870616704e-01	 2.3061464820e+00
 1.3653500079e+00	 4.6132786810e-01	 2.2309080729e+00
 1.3610243479e+00	 4.7393744782e-01	 2.1552452301e+00
 1.3565726823e+00	 4.8653311820e-01	 2.0789859074e+00
 1.3519948207e+00	 4.9911307980e-01	 2.0020561549e+00
 1.2692105336e+00	 4.6855177891e-01	 2.2429194586e+00
 1.2647936020e+00	 4.8034701128e-01	 2.1673260159e+00
 1.2602578954e+00	 4.9212408161e-01	 2.0896154738e+00
 1.2556033274e+00	 5.0388127097e-01	 2.0101246540e+00
 1.2508298437e+00	 5.1561685237e-01	 1.9292617556e+00
 1.2459374222e+00	 5.2732909147e-01	 1.8475062211e+00
 1.2409260734e+00	 5.3901624731e-01	 1.7654078466e+00
 1.2357958404e+00	 5.5067657307e-01	 1.6835851100e+00
 1.2305467998e+00	 5.6230831678e-01	 1.6027226980e+00
 1.2251790613e+00	 5.7390972211e-01	 1.5235682166e+00
 1.2196927683e+00	 5.8547902912e-01	 1.4469280740e+00
 1.2774889623e+00	 4.7160790899e-01	 2.2272572976e+00
 1.2730432213e+00	 4.8348007580e-01	 2.1506424488e+00
 1.2684779305e+00	 4.9533396210e-01	 2.0718789929e+00
 1.2637930031e+00	 5.0716783776e-01	 1.9912851338e+00
 1.2589883843e+00	 5.1897996451e-01	 1.9092536106e+00
 1.2540640520e+00	 5.3076859672e-01	 1.8262516490e+00
 1.2490200166e+00	 5.4253198206e-01	 1.7428201218e+00
 1.2438563217e+00	 5.5426836232e-01	 1.6595718911e+00
 1.2385730442e+00	 5.6597597411e-01	 1.5771893121e+00
 1.2331702946e+00	 5.7765304963e-01	 1.4964208813e+00
 1.2276482172e+00	 5.8929781748e-01	 1.4180770188e+00
 1.2857673910e+00	 4.7466403908e-01	 2.2086998034e+00
 1.2812928405e+00	 4.8661314031e-01	 2.1312128306e+00
 1.2766979656e+00	 4.9854384259e-01	 2.0515779400e+00
 1.2719826787e+00	 5.1045440454e-01	 1.9700839758e+00
 1.2671469249e+00	 5.2234307665e-01	 1.8870977164e+00
 1.2621906818e+00	 5.3420810196e-01	 1.8030639297e+00
 1.2571139599e+00	 5.4604771681e-01	 1.7185046016e+00
 1.2519168030e+00	 5.5786015158e-01	 1.6340173079e+00
 1.2465992886e+00	 5.6964363144e-01	 1.5502727094e+00
 1.2411615279e+00	 5.8139637715e-01	 1.4680111509e+00
 1.2356036662e+00	 5.9311660583e-01	 1.3880383546e+00
 1.2940458197e+00	 4.7772016917e-01	 2.1876335003e+00
 1.2895424598e+00	 4.8974620483e-01	 2.1094366651e+00
 1.2849180007e+00	 5.0175372308e-01	 2.0291257309e+00
 1.2801723544e+00	 5.1374097132e-01	 1.9469495572e+00
 1.2753054656e+00	 5.2570618879e-01	 1.8632385865e+00
 1.2703173116e+00	 5.3764760721e-01	 1.7784050227e+00
 1.2652079031e+00	 5.4956345156e-01	 1.6929421434e+00
 1.2599772843e+00	 5.6145194083e-01	 1.6074227188e+00
 1.2546255330e+00	 5.7331128877e-01	 1.5224965113e+00
 1.2491527612e+00	 5.8513970467e-01	 1.4388868401e+00
 1.2435591152e+00	 5.9693539419e-01	 1.3573861959e+00
 1.3023242484e+00	 4.8077629926e-01	 2.1644434263e+00
 1.2977920791e+00	 4.9287926935e-01	 2.0857117291e+00
 1.2931380358e+00	 5.0496360357e-01	 2.0049337311e+00
 1.2883620301e+00	 5.1702753811e-01	 1.9223077952e+00
 1.2834640062e+00	 5.2906930094e-01	 1.8381177742e+00
 1.2784439414e+00	 5.4108711246e-01	 1.7527333308e+00
 1.2733018464e+00	 5.5307918632e-01	 1.6666093522e+00
 1.2680377656e+00	 5.6504373008e-01	 1.5802844302e+00
 1.2626517774e+00	 5.7697894610e-01	 1.4943783820e+00
 1.2571439946e+00	 5.8888303220e-01	 1.4095887909e+00
 1.2515145641e+00	 6.0075418255e-01	 1.3266865552e+00
 1.3106026771e+00	 4.8383242935e-01	 2.1395130455e+00
 1.3060416983e+00	 4.9601233388e-01	 2.0604339690e+00
 1.3013580709e+00	 5.0817348406e-01	 1.9794111384e+00
 1.2965517058e+00	 5.2031410489e-01	 1.8965820155e+00
 1.2916225468e+00	 5.3243241308e-01	 1.8121737267e+00
 1.2865705712e+00	 5.4452661771e-01	 1.7265035425e+00
 1.2813957896e+00	 5.5659492107e-01	 1.6399784115e+00
 1.2760982469e+00	 5.6863551934e-01	 1.5530935192e+00
 1.2706780219e+00	 5.8064660343e-01	 1.4664298420e+00
 1.2651352279e+00	 5.9262635972e-01	 1.3806506790e+00
 1.2594700131e+00	 6.0457297090e-01	 1.2964971453e+00
 1.3188811058e+00	 4.8688855944e-01	 2.1132241583e+00
 1.3142913176e+00	 4.9914539840e-01	 2.0339973961e+00
 1.3095781060e+00	 5.1138336455e-01	 1.9529648625e+00
 1.3047413814e+00	 5.2360067168e-01	 1.8701928180e+00
 1.2997810874e+00	 5.3579552522e-01	 1.7858416381e+00
 1.2946972009e+00	 5.4796612296e-01	 1.7001664719e+00
 1.2894897329e+00	 5.6011065582e-01	 1.6135169130e+00
 1.2841587282e+00	 5.7222730859e-01	 1.5263356518e+00
 1.2787042663e+00	 5.8431426076e-01	 1.4391560785e+00
 1.2731264612e+00	 5.9636968725e-01	 1.3525988176e+00
 1.2674254621e+00	 6.0839175926e-01	 1.2673671769e+00
 1.3271595345e+00	 4.8994468953e-01	 2.0859568100e+00
 1.3225409368e+00	 5.0227846292e-01	 2.0067939794e+00
 1.3177981411e+00	 5.1459324504e-01	 1.9259994037e+00
 1.3129310571e+00	 5.2688723847e-01	 1.8435579408e+00
 1.3079396280e+00	 5.3915863737e-01	 1.7595532999e+00
 1.3028238307e+00	 5.5140562821e-01	 1.6741688973e+00
 1.2975836761e+00	 5.6362639057e-01	 1.5876876827e+00
 1.2922192095e+00	 5.7581909785e-01	 1.5004908996e+00
 1.2867305107e+00	 5.8798191809e-01	 1.4130557527e+00
 1.2811176945e+00	 6.0011301477e-01	 1.3259519568e+00
 1.2753809110e+00	 6.1221054762e-01	 1.2398371533e+00
 1.3354379633e+00	 4.9300081962e-01	 2.0580891977e+00
 1.3307905561e+00	 5.0541152744e-01	 1.9792135375e+00
 1.3260181762e+00	 5.1780312553e-01	 1.8989167294e+00
 1.3211207328e+00	 5.3017380525e-01	 1.8170921228e+00
 1.3160981686e+00	 5.4252174951e-01	 1.7337369498e+00
 1.3109504605e+00	 5.5484513347e-01	 1.6489533975e+00
 1.3056776194e+00	 5.6714212532e-01	 1.5629486059e+00
 1.3002796908e+00	 5.7941088710e-01	 1.4760335541e+00
 1.2947567551e+00	 5.9164957542e-01	 1.3886208047e+00
 1.2891089279e+00	 6.0385634229e-01	 1.3012210808e+00
 1.2833363600e+00	 6.1602933597e-01	 1.2144386599e+00
 1.3437163920e+00	 4.9605694971e-01	 2.0299975748e+00
 1.3390401754e+00	 5.0854459196e-01	 1.9516436278e+00
 1.3342382113e+00	 5.2101300602e-01	 1.8721161489e+00
 1.3293104084e+00	 5.3346037204e-01	 1.7912069642e+00
 1.3242567092e+00	 5.4588486165e-01	 1.7088171192e+00
 1.3190770903e+00	 5.5828463872e-01	 1.6249581856e+00
 1.3137715626e+00	 5.7065786008e-01	 1.5397524493e+00
 1.3083401721e+00	 5.8300267636e-01	 1.4534319376e+00
 1.3027829995e+00	 5.9531723275e-01	 1.3663362549e+00
 1.2971001612e+00	 6.0759966982e-01	 1.2789092007e+00
 1.2912918090e+00	 6.1984812433e-01	 1.1916941509e+00
 1.3519948207e+00	 4.9911307980e-01	 2.0020561549e+00
 1.3472897946e+00	 5.1167765648e-01	 1.9244694354e+00
 1.3424582464e+00	 5.2422288651e-01	 1.8459941870e+00
 1.3375000841e+00	 5.3674693882e-01	 1.7663107859e+00
 1.3324152499e+00	 5.4924797379e-01	 1.6852144782e+00
 1.3272037201e+00	 5.6172414397e-01	 1.6026169418e+00
 1.3218655059e+00	 5.7417359483e-01	 1.5185466814e+00
 1.3164006534e+00	 5.8659446561e-01	 1.4331482126e+00
 1.3108092439e+00	 5.9898489008e-01	 1.3466800036e+00
 1.3050913945e+00	 6.1134299734e-01	 1.2595111455e+00
 1.2992472579e+00	 6.2366691268e-01	 1.1721167324e+00
 1.2196927683e+00	 5.8547902912e-01	 1.4469280740e+00
 1.2140890607e+00	 5.9701251716e-01	 1.3703703023e+00
 1.2083672264e+00	 6.0851039118e-01	 1.2912017311e+00
 1.2025275101e+00	 6.1997088548e-01	 1.2099549032e+00
 1.1965701906e+00	 6.3139223392e-01	 1.1272079621e+00
 1.1904955813e+00	 6.4277267076e-01	 1.0435769422e+00
 1.1843040300e+00	 6.5411043145e-01	 9.5970727774e-01
 1.1779959194e+00	 6.6540375352e-01	 8.7626455872e-01
 1.1715716669e+00	 6.7665087737e-01	 7.9392456789e-01
 1.1650317246e+00	 6.8785004713e-01	 7.1336264018e-01
 1.1583765792e+00	 6.9899951150e-01	 6.3524239028e-01
 1.2276482172e+00	 5.8929781748e-01	 1.4180770188e+00
 1.2220079594e+00	 6.0090653272e-01	 1.3398342160e+00
 1.2162488045e+00	 6.1247940165e-01	 1.2591011233e+00
 1.2103709987e+00	 6.2401464705e-01	 1.1764103699e+00
 1.2043748225e+00	 6.3551049127e-01	 1.0923438440e+00
 1.1982605915e+00	 6.4696515702e-01	 1.0075247197e+00
 1.1920286558e+00	 6.5837686829e-01	 9.2260866262e-01
 1.1856794006e+00	 6.6974385108e-01	 8.3827424308e-01
 1.1792132459e+00	 6.8106433433e-01	 7.5521259371e-01
 1.1726306468e+00	 6.9233655070e-01	 6.7411635256e-01
 1.1659320932e+00	 7.0355873747e-01	 5.9566794017e-01
 1.2356036662e+00	 5.9311660583e-01	 1.3880383546e+00
 1.2299268582e+00	 6.0480054828e-01	 1.3081440888e+00
 1.2241303826e+00	 6.1644841212e-01	 1.2258559339e+00
 1.2182144872e+00	 6.2805840862e-01	 1.1417165396e+00
 1.2121794544e+00	 6.3962874861e-01	 1.0563214197e+00
 1.2060256018e+00	 6.5115764329e-01	 9.7031069077e-01
 1.1997532817e+00	 6.6264330513e-01	 8.8435994721e-01
 1.1933628818e+00	 6.7408394864e-01	 7.9917030488e-01
 1.1868548249e+00	 6.8547779128e-01	 7.1545764944e-01
 1.1802295689e+00	 6.9682305426e-01	 6.3394113323e-01
 1.1734876072e+00	 7.0811796344e-01	 5.5533097042e-01
 1.2435591152e+00	 5.9693539419e-01	 1.3573861959e+00
 1.2378457570e+00	 6.0869456383e-01	 1.2758982563e+00
 1.2320119607e+00	 6.2041742259e-01	 1.1920822348e+00
 1.2260579757e+00	 6.3210217019e-01	 1.1065005792e+00
 1.2199840863e+00	 6.4374700595e-01	 1.0197721658e+00
 1.2137906120e+00	 6.5535012956e-01	 9.3256372320e-01
 1.2074779075e+00	 6.6690974197e-01	 8.4558035181e-01
 1.2010463630e+00	 6.7842404620e-01	 7.5955516860e-01
 1.1944964038e+00	 6.8989124823e-01	 6.7523811755e-01
 1.1878284911e+00	 7.0130955782e-01	 5.9338398961e-01
 1.1810431212e+00	 7.1267718941e-01	 5.1473970428e-01
 1.2515145641e+00	 6.0075418255e-01	 1.3266865552e+00
 1.2457646558e+00	 6.1258857939e-01	 1.2436858186e+00
 1.2398935388e+00	 6.2438643306e-01	 1.1583858380e+00
 1.2339014643e+00	 6.3614593177e-01	 1.0713784879e+00
 1.2277887182e+00	 6.4786526330e-01	 9.8331560559e-01
 1.2215556223e+00	 6.5954261583e-01	 8.9490007663e-01
 1.2152025334e+00	 6.7117617881e-01	 8.0687597005e-01
 1.2087298441e+00	 6.8276414376e-01	 7.2001775759e-01
 1.2021379828e+00	 6.9430470518e-01	 6.3511865602e-01
 1.1954274133e+00	 7.0579606139e-01	 5.5297813957e-01
 1.1885986352e+00	 7.1723641538e-01	 4.7438867597e-01
 1.2594700131e+00	 6.0457297090e-01	 1.2964971453e+00
 1.2536835545e+00	 6.1648259495e-01	 1.2120864357e+00
 1.2477751169e+00	 6.2835544353e-01	 1.1253620801e+00
 1.2417449528e+00	 6.4018969334e-01	 1.0369548643e+00
 1.2355933501e+00	 6.5198352064e-01	 9.4755905516e-01
 1.2293206325e+00	 6.6373510210e-01	 8.5792312024e-01
 1.2229271592e+00	 6.7544261565e-01	 7.6883945352e-01
 1.2164133253e+00	 6.8710424132e-01	 6.8113313974e-01
 1.2097795618e+00	 6.9871816214e-01	 5.9564979922e-01
 1.2030263355e+00	 7.1028256495e-01	 5.1324256164e-01
 1.1961541492e+00	 7.2179564136e-01	 4.3475822422e-01
 1.2674254621e+00	 6.0839175926e-01	 1.2673671769e+00
 1.2616024533e+00	 6.2037661051e-01	 1.1816701190e+00
 1.2556566950e+00	 6.3232445400e-01	 1.0935956011e+00
 1.2495884413e+00	 6.4423345491e-01	 1.0038226692e+00
 1.2433979820e+00	 6.5610177798e-01	 9.1309736294e-01
 1.2370856428e+00	 6.6792758837e-01	 8.2222304547e-01
 1.2306517850e+00	 6.7970905249e-01	 7.3204969159e-01
 1.2240968065e+00	 6.9144433889e-01	 6.4346216897e-01
 1.2174211408e+00	 7.0313161909e-01	 5.5736755552e-01
 1.2106252577e+00	 7.1476906852e-01	 4.7468154297e-01
 1.2037096631e+00	 7.2635486733e-01	 3.9631398476e-01
 1.2753809110e+00	 6.1221054762e-01	 1.2398371533e+00
 1.2695213521e+00	 6.2427062607e-01	 1.1529970176e+00
 1.2635382731e+00	 6.3629346447e-01	 1.0636601193e+00
 1.2574319299e+00	 6.4827721648e-01	 9.7256298236e-01
 1.2512026139e+00	 6.6022003533e-01	 8.8051264510e-01
 1.2448506530e+00	 6.7212007464e-01	 7.8837657392e-01
 1.2383764109e+00	 6.8397548933e-01	 6.9707148687e-01
 1.2317802877e+00	 6.9578443645e-01	 6.0755112296e-01
 1.2250627197e+00	 7.0754507604e-01	 5.2079300170e-01
 1.2182241799e+00	 7.1925557208e-01	 4.3778422505e-01
 1.2112651771e+00	 7.3091409330e-01	 3.5950638177e-01
 1.2833363600e+00	 6.1602933597e-01	 1.2144386599e+00
 1.2774402508e+00	 6.2816464163e-01	 1.1266172008e+00
 1.2714198512e+00	 6.4026247494e-01	 1.0361182005e+00
 1.2652754184e+00	 6.5232097805e-01	 9.4374475514e-01
 1.2590072458e+00	 6.6433829267e-01	 8.5037401580e-01
 1.2526156633e+00	 6.7631256091e-01	 7.5694666061e-01
 1.2461010367e+00	 6.8824192617e-01	 6.6445522639e-01
 1.2394637688e+00	 7.0012453401e-01	 5.7393133696e-01
 1.2327042987e+00	 7.1195853299e-01	 4.8643187443e-01
 1.2258231020e+00	 7.2374207564e-01	 4.0302414735e-01
 1.2188206911e+00	 7.3547331927e-01	 3.2477011833e-01
 1.2912918090e+00	 6.1984812433e-01	 1.1916941509e+00
 1.2853591496e+00	 6.3205865719e-01	 1.1030704359e+00
 1.2793014293e+00	 6.4423148541e-01	 1.0115210235e+00
 1.2731189069e+00	 6.5636473962e-01	 9.1792455839e-01
 1.2668118777e+00	 6.6845655001e-01	 8.2323731296e-01
 1.2603806735e+00	 6.8050504718e-01	 7.2848219283e-01
 1.2538256626e+00	 6.9250836301e-01	 6.3473654865e-01
 1.2471472500e+00	 7.0446463157e-01	 5.4311883428e-01
 1.2403458777e+00	 7.1637198995e-01	 4.5477415887e-01
 1.2334220242e+00	 7.2822857921e-01	 3.7085878906e-01
 1.2263762051e+00	 7.4003254524e-01	 2.9252366602e-01
 1.2992472579e+00	 6.2366691268e-01	 1.1721167324e+00
 1.2932780484e+00	 6.3595267275e-01	 1.0828859624e+00
 1.2871830074e+00	 6.4820049588e-01	 9.9040814136e-01
 1.2809623955e+00	 6.6040850119e-01	 8.9564632587e-01
 1.2746165096e+00	 6.7257480735e-01	 7.9964481960e-01
 1.2681456837e+00	 6.8469753345e-01	 7.0351768476e-01
 1.2615502884e+00	 6.9677479985e-01	 6.0843600683e-01
 1.2548307312e+00	 7.0880472913e-01	 5.1561395310e-01
 1.2479874567e+00	 7.2078544690e-01	 4.2629367441e-01
 1.2410209464e+00	 7.3271508277e-01	 3.4172910874e-01
 1.2339317191e+00	 7.4459177121e-01	 2.6309102786e-01
 1.1583765792e+00	 6.9899951150e-01	 6.3524239028e-01
 1.1516067529e+00	 7.1009752482e-01	 5.5710763326e-01
 1.1447228033e+00	 7.2114234859e-01	 4.7662262217e-01
 1.1377253231e+00	 7.3213225174e-01	 3.9455340115e-01
 1.1306149397e+00	 7.4306551116e-01	 3.1161122918e-01
 1.1233923147e+00	 7.5394041265e-01	 2.2956776279e-01
 1.1160581442e+00	 7.6475525172e-01	 1.4969982285e-01
 1.1086131585e+00	 7.7550833447e-01	 7.2616516153e-02
 1.1010581216e+00	 7.8619797841e-01	-3.2734052114e-03
 1.0933938315e+00	 7.9682251330e-01	-7.9017837136e-02
 1.0856211196e+00	 8.0738028204e-01	-1.5513451988e-01
 1.1659320932e+00	 7.0355873747e-01	 5.9566794017e-01
 1.1591181107e+00	 7.1472913760e-01	 5.1712517148e-01
 1.1521892605e+00	 7.2584600127e-01	 4.3585356469e-01
 1.1451461392e+00	 7.3690758608e-01	 3.5262021169e-01
 1.1379893783e+00	 7.4791215771e-01	 2.6840851683e-01
 1.1307196437e+00	 7.5885799078e-01	 1.8496807211e-01
 1.1233376361e+00	 7.6974336967e-01	 1.0318217463e-01
 1.1158440904e+00	 7.8056658942e-01	 2.3831337140e-02
 1.1082397758e+00	 7.9132595658e-01	-5.2566617682e-02
 1.1005254953e+00	 8.0201979003e-01	-1.2814107017e-01
 1.0927020859e+00	 8.1264642184e-01	-2.0400371040e-01
 1.1734876072e+00	 7.0811796344e-01	 5.5533097042e-01
 1.1666294684e+00	 7.1936075039e-01	 4.7661610300e-01
 1.1596557177e+00	 7.3054965395e-01	 3.9487190790e-01
 1.1525669553e+00	 7.4168292043e-01	 3.1086700344e-01
 1.1453638169e+00	 7.5275880427e-01	 2.2596023907e-01
 1.1380469728e+00	 7.6377556890e-01	 1.4141798873e-01
 1.1306171280e+00	 7.7473148761e-01	 5.8059367886e-02
 1.1230750224e+00	 7.8562484437e-01	-2.3316335857e-02
 1.1154214300e+00	 7.9645393476e-01	-1.0193569660e-01
 1.1076571592e+00	 8.0721706676e-01	-1.7744811896e-01
 1.0997830522e+00	 8.1791256164e-01	-2.5256135746e-01
 1.1810431212e+00	 7.1267718941e-01	 5.1473970428e-01
 1.1741408262e+00	 7.2399236318e-01	 4.3604802779e-01
 1.1671221749e+00	 7.3525330663e-01	 3.5410853885e-01
 1.1599877715e+00	 7.4645825478e-01	 2.6978924482e-01
 1.1527382555e+00	 7.5760545083e-01	 1.8446900222e-01
 1.1453743018e+00	 7.6869314703e-01	 9.9083279189e-02
 1.1378966199e+00	 7.7971960555e-01	 1.4464720812e-02
 1.1303059543e+00	 7.9068309932e-01	-6.8571663458e-02
 1.1226030842e+00	 8.0158191294e-01	-1.4923468037e-01
 1.1147888230e+00	 8.1241434350e-01	-2.2676328296e-01
 1.1068640185e+00	 8.2317870144e-01	-3.0109492622e-01
 1.1885986352e+00	 7.1723641538e-01	 4.7438867597e-01
 1.1816521840e+00	 7.2862397597e-01	 3.9587498691e-01
 1.1745886321e+00	 7.3995695931e-01	 3.1398080506e-01
 1.1674085876e+00	 7.5123358913e-01	 2.2969376137e-01
 1.1601126942e+00	 7.6245209739e-01	 1.4412014273e-01
 1.1527016308e+00	 7.7361072516e-01	 5.8113000237e-02
 1.1451761118e+00	 7.8470772349e-01	-2.7484721650e-02
 1.1375368863e+00	 7.9574135427e-01	-1.1184524650e-01
 1.1297847384e+00	 8.0670989112e-01	-1.9416228856e-01
 1.1219204869e+00	 8.1761162023e-01	-2.7365753678e-01
 1.1139449849e+00	 8.2844484125e-01	-3.4958727993e-01
 1.1961541492e+00	 7.2179564136e-01	 4.3475822422e-01
 1.1891635418e+00	 7.3325558876e-01	 3.5653689779e-01
 1.1820550893e+00	 7.4466061199e-01	 2.7490381013e-01
 1.1748294037e+00	 7.5600892348e-01	 1.9078896933e-01
 1.1674871328e+00	 7.6729874395e-01	 1.0508229483e-01
 1.1600289599e+00	 7.7852830329e-01	 1.8640055358e-02
 1.1524556037e+00	 7.8969584144e-01	-6.7687639344e-02
 1.1447678182e+00	 8.0079960923e-01	-1.5306310531e-01
 1.1369663926e+00	 8.1183786930e-01	-2.3666754438e-01
 1.1290521507e+00	 8.2280889696e-01	-3.1770767832e-01
 1.1210259512e+00	 8.3371098105e-01	-3.9542253622e-01
 1.2037096631e+00	 7.2635486733e-01	 3.9631398476e-01
 1.1966748995e+00	 7.3788720155e-01	 3.1845898974e-01
 1.1895215464e+00	 7.4936426467e-01	 2.3720011351e-01
 1.1822502198e+00	 7.6078425782e-01	 1.5326650010e-01
 1.1748615714e+00	 7.7214539051e-01	 6.7507961486e-02
 1.1673562889e+00	 7.8344588142e-01	-1.9218244597e-02
 1.1597350956e+00	 7.9468395938e-01	-1.0605788377e-01
 1.1519987502e+00	 8.0585786418e-01	-1.9216613110e-01
 1.1441480468e+00	 8.1696584748e-01	-2.7671416390e-01
 1.1361838146e+00	 8.2800617369e-01	-3.5889594194e-01
 1.1281069175e+00	 8.3897712086e-01	-4.3793515407e-01
 1.2112651771e+00	 7.3091409330e-01	 3.5950638177e-01
 1.2041862573e+00	 7.4251881434e-01	 2.8204568958e-01
 1.1969880036e+00	 7.5406791735e-01	 2.0108844918e-01
 1.1896710359e+00	 7.6555959217e-01	 1.1730178665e-01
 1.1822360100e+00	 7.7699203707e-01	 3.1534088456e-02
 1.1746836179e+00	 7.8836345955e-01	-5.5359616939e-02
 1.1670145874e+00	 7.9967207732e-01	-1.4252392048e-01
 1.1592296821e+00	 8.1091611913e-01	-2.2910953255e-01
 1.1513297010e+00	 8.2209382566e-01	-3.1428000386e-01
 1.1433154784e+00	 8.3320345043e-01	-3.9721864802e-01
 1.1351878838e+00	 8.4424326066e-01	-4.7713564419e-01
 1.2188206911e+00	 7.3547331927e-01	 3.2477011833e-01
 1.2116976151e+00	 7.4715042713e-01	 2.4758979477e-01
 1.2044544608e+00	 7.5877157003e-01	 1.6677012362e-01
 1.1970918520e+00	 7.7033492652e-01	 8.3054651975e-02
 1.1896104486e+00	 7.8183868363e-01	-2.7173586271e-03
 1.1820109470e+00	 7.9328103768e-01	-8.9696238974e-02
 1.1742940793e+00	 8.0466019527e-01	-1.7702826721e-01
 1.1664606141e+00	 8.1597437408e-01	-2.6386227747e-01
 1.1585113552e+00	 8.2722180383e-01	-3.4935650435e-01
 1.1504471423e+00	 8.3840072716e-01	-4.3268564387e-01
 1.1422688501e+00	 8.4950940046e-01	-5.1304810922e-01
 1.2263762051e+00	 7.4003254524e-01	 2.9252366602e-01
 1.2192089729e+00	 7.5178203992e-01	 2.1531675731e-01
 1.2119209180e+00	 7.6347522270e-01	 1.3443070037e-01
 1.2045126681e+00	 7.7511026087e-01	 5.0669899748e-02
 1.1969848873e+00	 7.8668533018e-01	-3.5138814321e-02
 1.1893382760e+00	 7.9819861581e-01	-1.2215417628e-01
 1.1815735712e+00	 8.0964831321e-01	-2.0952692789e-01
 1.1736915460e+00	 8.2103262903e-01	-2.9640653011e-01
 1.1656930094e+00	 8.3234978201e-01	-3.8194812668e-01
 1.1575788061e+00	 8.4359800389e-01	-4.6531973962e-01
 1.1493498165e+00	 8.5477554027e-01	-5.4570967502e-01
 1.2339317191e+00	 7.4459177121e-01	 2.6309102786e-01
 1.2267203306e+00	 7.5641365271e-01	 1.8544038766e-01
 1.2193873752e+00	 7.6817887538e-01	 1.0424060486e-01
 1.2119334843e+00	 7.7988559522e-01	 2.0277906939e-02
 1.2043593259e+00	 7.9153197674e-01	-6.5636530690e-02
 1.1966656050e+00	 8.0311619394e-01	-1.5267280764e-01
 1.1888530631e+00	 8.1463643115e-01	-2.3998882276e-01
 1.1809224780e+00	 8.2609088398e-01	-3.2673708404e-01
 1.1728746636e+00	 8.3747776019e-01	-4.1207178666e-01
 1.1647104700e+00	 8.4879528062e-01	-4.9515613930e-01
 1.1564307828e+00	 8.6004168007e-01	-5.7516991700e-01
 1.0856211196e+00	 8.0738028204e-01	-1.5513451988e-01
 1.0777395025e+00	 8.1787141782e-01	-2.3129038153e-01
 1.0697511944e+00	 8.2829248578e-01	-3.0675069149e-01
 1.0616571303e+00	 8.3864186625e-01	-3.8143840525e-01
 1.0534582781e+00	 8.4891795597e-01	-4.5526322659e-01
 1.0451556373e+00	 8.5911916885e-01	-5.2812414002e-01
 1.0367502390e+00	 8.6924393681e-01	-5.9991210696e-01
 1.0282431458e+00	 8.7929071054e-01	-6.7051290649e-01
 1.0196354508e+00	 8.8925796029e-01	-7.3981010048e-01
 1.0109282776e+00	 8.9914417665e-01	-8.0768810196e-01
 1.0021227793e+00	 9.0894787126e-01	-8.7403532488e-01
 1.0927020859e+00	 8.1264642184e-01	-2.0400371040e-01
 1.0847690610e+00	 8.2320598608e-01	-2.7992426476e-01
 1.0767286491e+00	 8.3369502548e-01	-3.5524358006e-01
 1.0685817915e+00	 8.4411190981e-01	-4.2986785710e-01
 1.0603294622e+00	 8.5445502535e-01	-5.0369101179e-01
 1.0519726674e+00	 8.6472277566e-01	-5.7659737384e-01
 1.0435124449e+00	 8.7491358244e-01	-6.4846455356e-01
 1.0349498642e+00	 8.8502588628e-01	-7.1916645679e-01
 1.0262860255e+00	 8.9505814745e-01	-7.8857642666e-01
 1.0175220596e+00	 9.0500884667e-01	-8.5657049018e-01
 1.0086591275e+00	 9.1487648590e-01	-9.2303068673e-01
 1.0997830522e+00	 8.1791256164e-01	-2.5256135746e-01
 1.0917986194e+00	 8.2854055434e-01	-3.2773940681e-01
 1.0837061038e+00	 8.3909756518e-01	-4.0243866986e-01
 1.0755064526e+00	 8.4958195337e-01	-4.7655691410e-01
 1.0672006463e+00	 8.5999209473e-01	-5.4998048832e-01
 1.0587896975e+00	 8.7032638248e-01	-6.2258718091e-01
 1.0502746508e+00	 8.8058322808e-01	-6.9424925117e-01
 1.0416565825e+00	 8.9076106202e-01	-7.6483661238e-01
 1.0329366001e+00	 9.0085833460e-01	-8.3422014459e-01
 1.0241158417e+00	 9.1087351669e-01	-9.0227511385e-01
 1.0151954757e+00	 9.2080510054e-01	-9.6888467420e-01
 1.1068640185e+00	 8.2317870144e-01	-3.0109492622e-01
 1.0988281779e+00	 8.3387512261e-01	-3.7502283562e-01
 1.0906835584e+00	 8.4450010489e-01	-4.4862117124e-01
 1.0824311138e+00	 8.5505199693e-01	-5.2178740603e-01
 1.0740718304e+00	 8.6552916411e-01	-5.9440835923e-01
 1.0656067276e+00	 8.7592998929e-01	-6.6636320830e-01
 1.0570368567e+00	 8.8625287372e-01	-7.3752667869e-01
 1.0483633009e+00	 8.9649623777e-01	-8.0777238951e-01
 1.0395871747e+00	 9.0665852175e-01	-8.7697633178e-01
 1.0307096238e+00	 9.1673818671e-01	-9.4502045539e-01
 1.0217318239e+00	 9.2673371519e-01	-1.0117963394e+00
 1.1139449849e+00	 8.2844484125e-01	-3.4958727993e-01
 1.1058577363e+00	 8.3920969087e-01	-4.2206198957e-01
 1.0976610131e+00	 8.4990264459e-01	-4.9407693941e-01
 1.0893557749e+00	 8.6052204049e-01	-5.6584208255e-01
 1.0809430146e+00	 8.7106623349e-01	-6.3725256651e-01
 1.0724237577e+00	 8.8153359611e-01	-7.0819670824e-01
 1.0637990626e+00	 8.9192251936e-01	-7.7855933678e-01
 1.0550700192e+00	 9.0223141351e-01	-8.4822529610e-01
 1.0462377494e+00	 9.1245870890e-01	-9.1708308395e-01
 1.0373034059e+00	 9.2260285674e-01	-9.8502860142e-01
 1.0282681722e+00	 9.3266232983e-01	-1.0519689873e+00
 1.1210259512e+00	 8.3371098105e-01	-3.9542253622e-01
 1.1128872948e+00	 8.4454425913e-01	-4.6901367349e-01
 1.1046384678e+00	 8.5530518429e-01	-5.3909270871e-01
 1.0962804361e+00	 8.6599208405e-01	-6.0900485013e-01
 1.0878141987e+00	 8.7660330287e-01	-6.7879252923e-01
 1.0792407878e+00	 8.8713720292e-01	-7.4836077594e-01
 1.0705612685e+00	 8.9759216499e-01	-8.1761198359e-01
 1.0617767376e+00	 9.0796658925e-01	-8.8644956387e-01
 1.0528883240e+00	 9.1825889606e-01	-9.5478174136e-01
 1.0438971880e+00	 9.2846752676e-01	-1.0225254614e+00
 1.0348045204e+00	 9.3859094447e-01	-1.0896103841e+00
 1.1281069175e+00	 8.3897712086e-01	-4.3793515407e-01
 1.1199168533e+00	 8.4987882739e-01	-5.1327869112e-01
 1.1116159225e+00	 8.6070772399e-01	-5.8394470648e-01
 1.1032050972e+00	 8.7146212762e-01	-6.5156100328e-01
 1.0946853828e+00	 8.8214037225e-01	-7.1930937603e-01
 1.0860578180e+00	 8.9274080974e-01	-7.8713058200e-01
 1.0773234743e+00	 9.0326181063e-01	-8.5495186560e-01
 1.0684834559e+00	 9.1370176499e-01	-9.2270237561e-01
 1.0595388987e+00	 9.2405908321e-01	-9.9031711097e-01
 1.0504909701e+00	 9.3433219678e-01	-1.0577409826e+00
 1.0413408686e+00	 9.4451955912e-01	-1.1249329631e+00
 1.1351878838e+00	 8.4424326066e-01	-4.7713564419e-01
 1.1269464117e+00	 8.5521339565e-01	-5.5376611829e-01
 1.1185933772e+00	 8.6611026369e-01	-6.2640922205e-01
 1.1101297584e+00	 8.7693217118e-01	-6.9379745038e-01
 1.1015565669e+00	 8.8767744163e-01	-7.5908617251e-01
 1.0928748481e+00	 8.9834441655e-01	-8.2478359980e-01
 1.0840856802e+00	 9.0893145627e-01	-8.9084894351e-01
 1.0751901743e+00	 9.1943694074e-01	-9.5724408813e-01
 1.0661894733e+00	 9.2985927036e-01	-1.0239376844e+00
 1.0570847521e+00	 9.4019686680e-01	-1.0909093613e+00
 1.0478772168e+00	 9.5044817376e-01	-1.1581540273e+00
 1.1422688501e+00	 8.4950940046e-01	-5.1304810922e-01
 1.1339759702e+00	 8.6054796392e-01	-5.9051160930e-01
 1.1255708319e+00	 8.7151280340e-01	-6.6470364903e-01
 1.1170544195e+00	 8.8240221474e-01	-7.3429332521e-01
 1.1084277510e+00	 8.9321451101e-01	-7.9840814350e-01
 1.0996918782e+00	 9.0394802337e-01	-8.6159982815e-01
 1.0908478861e+00	 9.1460110191e-01	-9.2557611368e-01
 1.0818968926e+00	 9.2517211648e-01	-9.9033845085e-01
 1.0728400480e+00	 9.3565945751e-01	-1.0558958522e+00
 1.0636785342e+00	 9.4606153682e-01	-1.1222692503e+00
 1.0544135650e+00	 9.5637678840e-01	-1.1894959485e+00
 1.1493498165e+00	 8.5477554027e-01	-5.4570967502e-01
 1.1410055286e+00	 8.6588253218e-01	-6.2356398490e-01
 1.1325482866e+00	 8.7691534310e-01	-6.9888723573e-01
 1.1239790807e+00	 8.8787225830e-01	-7.7033596583e-01
 1.1152989351e+00	 8.9875158039e-01	-8.3666814169e-01
 1.1065089083e+00	 9.0955163018e-01	-8.9786200916e-01
 1.0976100920e+00	 9.2027074754e-01	-9.5940942510e-01
 1.0886036110e+00	 9.3090729222e-01	-1.0222528203e+00
 1.0794906226e+00	 9.4145964467e-01	-1.0864481138e+00
 1.0702723163e+00	 9.5192620685e-01	-1.1520639640e+00
 1.0609499132e+00	 9.6230540305e-01	-1.2191863640e+00
 1.1564307828e+00	 8.6004168007e-01	-5.7516991700e-01
 1.1480350871e+00	 8.7121710044e-01	-6.5298465258e-01
 1.1395257413e+00	 8.8231788280e-01	-7.2903200224e-01
 1.1309037418e+00	 8.9334230186e-01	-8.0196136489e-01
 1.1221701192e+00	 9.0428864976e-01	-8.7052626858e-01
 1.1133259384e+00	 9.1515523699e-01	-9.3359372229e-01
 1.1043722979e+00	 9.2594039318e-01	-9.9262829220e-01
 1.0953103293e+00	 9.3664246796e-01	-1.0532583706e+00
 1.0861411972e+00	 9.4725983182e-01	-1.1158552850e+00
 1.0768660984e+00	 9.5779087687e-01	-1.1805416791e+00
 1.0674862614e+00	 9.6823401769e-01	-1.2474583711e+00
 1.0021227793e+00	 9.0894787126e-01	-8.7403532488e-01
 9.9322165768e-01	 9.1866593528e-01	-9.3813760952e-01
 9.8422462175e-01	 9.2829861215e-01	-9.9955948724e-01
 9.7513289479e-01	 9.3784449771e-01	-1.0585728900e+00
 9.6594772771e-01	 9.4730221172e-01	-1.1154439210e+00
 9.5667039851e-01	 9.5667039851e-01	-1.1704355897e+00
 9.4730221172e-01	 9.6594772771e-01	-1.2238105226e+00
 9.3784449771e-01	 9.7513289479e-01	-1.2758336276e+00
 9.2829861215e-01	 9.8422462175e-01	-1.3267746897e+00
 9.1866593528e-01	 9.9322165768e-01	-1.3769108780e+00
 9.0894787126e-01	 1.0021227793e+00	-1.4265291421e+00
 1.0086591275e+00	 9.1487648590e-01	-9.2303068673e-01
 9.9969994830e-01	 9.2465793602e-01	-9.8704644168e-01
 9.9064422918e-01	 9.3435344205e-01	-1.0480341168e+00
 9.8149320140e-01	 9.4396159067e-01	-1.1063334250e+00
 9.7224812405e-01	 9.5348099264e-01	-1.1622786064e+00
 9.6291028345e-01	 9.6291028345e-01	-1.2162012275e+00
 9.5348099264e-01	 9.7224812405e-01	-1.2684329536e+00
 9.4396159067e-01	 9.8149320140e-01	-1.3193082711e+00
 9.3435344205e-01	 9.9064422918e-01	-1.3691671378e+00
 9.2465793602e-01	 9.9969994830e-01	-1.4183575392e+00
 9.1487648590e-01	 1.0086591275e+00	-1.4672379285e+00
 1.0151954757e+00	 9.2080510054e-01	-9.6888467420e-01
 1.0061782389e+00	 9.3064993675e-01	-1.0329274988e+00
 9.9706383660e-01	 9.4040827195e-01	-1.0936424247e+00
 9.8785350802e-01	 9.5007868363e-01	-1.1514218240e+00
 9.7854852039e-01	 9.5965977355e-01	-1.2066530579e+00
 9.6915016839e-01	 9.6915016839e-01	-1.2597213667e+00
 9.5965977355e-01	 9.7854852039e-01	-1.3110127296e+00
 9.5007868363e-01	 9.8785350802e-01	-1.3609166718e+00
 9.4040827195e-01	 9.9706383660e-01	-1.4098289942e+00
 9.3064993675e-01	 1.0061782389e+00	-1.4581544048e+00
 9.2080510054e-01	 1.0151954757e+00	-1.5063090270e+00
 1.0217318239e+00	 9.2673371519e-01	-1.0117963394e+00
 1.0126565295e+00	 9.3664193749e-01	-1.0759594304e+00
 1.0034834440e+00	 9.4646310184e-01	-1.1365438308e+00
 9.9421381464e-01	 9.5619577659e-01	-1.1939797060e+00
 9.8484891673e-01	 9.6583855447e-01	-1.2486927781e+00
 9.7539005333e-01	 9.7539005333e-01	-1.3011073325e+00
 9.6583855447e-01	 9.8484891673e-01	-1.3516491920e+00
 9.5619577659e-01	 9.9421381464e-01	-1.4007486341e+00
 9.4646310184e-01	 1.0034834440e+00	-1.4488432264e+00
 9.3664193749e-01	 1.0126565295e+00	-1.4963805572e+00
 9.2673371519e-01	 1.0217318239e+00	-1.5438208375e+00
 1.0282681722e+00	 9.3266232983e-01	-1.0519689873e+00
 1.0191348201e+00	 9.4263393823e-01	-1.1163258007e+00
 1.0099030515e+00	 9.5251793174e-01	-1.1769032891e+00
 1.0005741213e+00	 9.6231286954e-01	-1.2341547933e+00
 9.9114931307e-01	 9.7201733539e-01	-1.2885298834e+00
 9.8162993827e-01	 9.8162993827e-01	-1.3404775082e+00
 9.7201733539e-01	 9.9114931307e-01	-1.3904491102e+00
 9.6231286954e-01	 1.0005741213e+00	-1.4389016786e+00
 9.5251793174e-01	 1.0099030515e+00	-1.4863007160e+00
 9.4263393823e-01	 1.0191348201e+00	-1.5331230937e+00
 9.3266232983e-01	 1.0282681722e+00	-1.5798597713e+00
 1.0348045204e+00	 9.3859094447e-01	-1.0896103841e+00
 1.0256131108e+00	 9.4862593897e-01	-1.1542152872e+00
 1.0163226589e+00	 9.5857276163e-01	-1.2148914769e+00
 1.0069344279e+00	 9.6842996250e-01	-1.2721010923e+00
 9.9744970941e-01	 9.7819611631e-01	-1.3263032780e+00
 9.8786982321e-01	 9.8786982321e-01	-1.3779575042e+00
 9.7819611631e-01	 9.9744970941e-01	-1.4275268476e+00
 9.6842996250e-01	 1.0069344279e+00	-1.4754812066e+00
 9.5857276163e-01	 1.0163226589e+00	-1.5223004248e+00
 9.4862593897e-01	 1.0256131108e+00	-1.5684772960e+00
 9.3859094447e-01	 1.0348045204e+00	-1.6145204261e+00
 1.0413408686e+00	 9.4451955912e-01	-1.1249329631e+00
 1.0320914014e+00	 9.5461793971e-01	-1.1898218756e+00
 1.0227422663e+00	 9.6462759153e-01	-1.2506849811e+00
 1.0132947345e+00	 9.7454705546e-01	-1.3079790719e+00
 1.0037501058e+00	 9.8437489723e-01	-1.3621588264e+00
 9.9410970815e-01	 9.9410970815e-01	-1.4136803254e+00
 9.8437489723e-01	 1.0037501058e+00	-1.4630045256e+00
 9.7454705546e-01	 1.0132947345e+00	-1.5106006633e+00
 9.6462759153e-01	 1.0227422663e+00	-1.5569495593e+00
 9.5461793971e-01	 1.0320914014e+00	-1.6025467993e+00
 9.4451955912e-01	 1.0413408686e+00	-1.6479057622e+00
 1.0478772168e+00	 9.5044817376e-01	-1.1581540273e+00
 1.0385696920e+00	 9.6060994045e-01	-1.2233450535e+00
 1.0291618737e+00	 9.7068242143e-01	-1.2844664827e+00
 1.0196550411e+00	 9.8066414842e-01	-1.3419558411e+00
 1.0100505021e+00	 9.9055367815e-01	-1.3962495246e+00
 1.0003495931e+00	 1.0003495931e+00	-1.4477865382e+00
 9.9055367815e-01	 1.0100505021e+00	-1.4970121887e+00
 9.8066414842e-01	 1.0196550411e+00	-1.5443817023e+00
 9.7068242143e-01	 1.0291618737e+00	-1.5903637365e+00
 9.6060994045e-01	 1.0385696920e+00	-1.6354437611e+00
 9.5044817376e-01	 1.0478772168e+00	-1.6801272772e+00
 1.0544135650e+00	 9.5637678840e-01	-1.1894959485e+00
 1.0450479826e+00	 9.6660194119e-01	-1.2549900003e+00
 1.0355814812e+00	 9.7673725132e-01	-1.3164249397e+00
 1.0260153477e+00	 9.8678124138e-01	-1.3742053246e+00
 1.0163508984e+00	 9.9673245907e-01	-1.4287356701e+00
 1.0065894780e+00	 1.0065894780e+00	-1.4804244366e+00
 9.9673245907e-01	 1.0163508984e+00	-1.5296879678e+00
 9.8678124138e-01	 1.0260153477e+00	-1.5769543482e+00
 9.7673725132e-01	 1.0355814812e+00	-1.6226671483e+00
 9.6660194119e-01	 1.0450479826e+00	-1.6672890299e+00
 9.5637678840e-01	 1.0544135650e+00	-1.7113051811e+00
 1.0609499132e+00	 9.6230540305e-01	-1.2191863640e+00
 1.0515262732e+00	 9.7259394193e-01	-1.2849677763e+00
 1.0420010886e+00	 9.8279208122e-01	-1.3467557676e+00
 1.0323756543e+00	 9.9289833433e-01	-1.4049084374e+00
 1.0226512948e+00	 1.0029112400e+00	-1.4597850317e+00
 1.0128293630e+00	 1.0128293630e+00	-1.5117502078e+00
 1.0029112400e+00	 1.0226512948e+00	-1.5611782435e+00
 9.9289833433e-01	 1.0323756543e+00	-1.6084571601e+00
 9.8279208122e-01	 1.0420010886e+00	-1.6539927263e+00
 9.7259394193e-01	 1.0515262732e+00	-1.6982123135e+00
 9.6230540305e-01	 1.0609499132e+00	-1.7415685711e+00
 1.0674862614e+00	 9.6823401769e-01	-1.2474583711e+00
 1.0580045638e+00	 9.7858594266e-01	-1.3134955080e+00
 1.0484206960e+00	 9.8884691112e-01	-1.3756610187e+00
 1.0387359610e+00	 9.9901542729e-01	-1.4342532573e+00
 1.0289516911e+00	 1.0090900209e+00	-1.4895730171e+00
 1.0190692479e+00	 1.0190692479e+00	-1.5419280971e+00
 1.0090900209e+00	 1.0289516911e+00	-1.5916378095e+00
 9.9901542729e-01	 1.0387359610e+00	-1.6390373941e+00
 9.8884691112e-01	 1.0484206960e+00	-1.6844823065e+00
 9.7858594266e-01	 1.0580045638e+00	-1.7283523478e+00
 9.6823401769e-01	 1.0674862614e+00	-1.7710556053e+00
 9.0894787126e-01	 1.0021227793e+00	-1.4265291421e+00
 8.9914417665e-01	 1.0109282776e+00	-1.4758355004e+00
 8.8925796029e-01	 1.0196354508e+00	-1.5245575060e+00
 8.7929071054e-01	 1.0282431458e+00	-1.5723044659e+00
 8.6924393681e-01	 1.0367502390e+00	-1.6186961280e+00
 8.5911916885e-01	 1.0451556373e+00	-1.6633653700e+00
 8.4891795597e-01	 1.0534582781e+00	-1.7059606794e+00
 8.3864186625e-01	 1.0616571303e+00	-1.7461484117e+00
 8.2829248578e-01	 1.0697511944e+00	-1.7836148122e+00
 8.1787141782e-01	 1.0777395025e+00	-1.8180677902e+00
 8.0738028204e-01	 1.0856211196e+00	-1.8492384366e+00
 9.1487648590e-01	 1.0086591275e+00	-1.4672379285e+00
 9.0500884667e-01	 1.0175220596e+00	-1.5159699823e+00
 8.9505814745e-01	 1.0262860255e+00	-1.5641501239e+00
 8.8502588628e-01	 1.0349498642e+00	-1.6113289700e+00
 8.7491358244e-01	 1.0435124449e+00	-1.6570674294e+00
 8.6472277566e-01	 1.0519726674e+00	-1.7009395999e+00
 8.5445502535e-01	 1.0603294622e+00	-1.7425354464e+00
 8.4411190981e-01	 1.0685817915e+00	-1.7814632486e+00
 8.3369502548e-01	 1.0767286491e+00	-1.8173518010e+00
 8.2320598608e-01	 1.0847690610e+00	-1.8498523548e+00
 8.1264642184e-01	 1.0927020859e+00	-1.8786402914e+00
 9.2080510054e-01	 1.0151954757e+00	-1.5063090270e+00
 9.1087351669e-01	 1.0241158417e+00	-1.5543867906e+00
 9.0085833460e-01	 1.0329366001e+00	-1.6018458518e+00
 8.9076106202e-01	 1.0416565825e+00	-1.6481888746e+00
 8.8058322808e-01	 1.0502746508e+00	-1.6929286253e+00
 8.7032638248e-01	 1.0587896975e+00	-1.7355910669e+00
 8.5999209473e-01	 1.0672006463e+00	-1.7757182272e+00
 8.4958195337e-01	 1.0755064526e+00	-1.8128708244e+00
 8.3909756518e-01	 1.0837061038e+00	-1.8466306361e+00
 8.2854055434e-01	 1.0917986194e+00	-1.8766025990e+00
 8.1791256164e-01	 1.0997830522e+00	-1.9024166270e+00
 9.2673371519e-01	 1.0217318239e+00	-1.5438208375e+00
 9.1673818671e-01	 1.0307096238e+00	-1.5911645149e+00
 9.0665852175e-01	 1.0395871747e+00	-1.6377217018e+00
 8.9649623777e-01	 1.0483633009e+00	-1.6829576395e+00
 8.8625287372e-01	 1.0570368567e+00	-1.7263474448e+00
 8.7592998929e-01	 1.0656067276e+00	-1.7673793919e+00
 8.6552916411e-01	 1.0740718304e+00	-1.8055579611e+00
 8.5505199693e-01	 1.0824311138e+00	-1.8404066332e+00
 8.4450010489e-01	 1.0906835584e+00	-1.8714704177e+00
 8.3387512261e-01	 1.0988281779e+00	-1.8983180988e+00
 8.2317870144e-01	 1.1068640185e+00	-1.9205441898e+00
 9.3266232983e-01	 1.0282681722e+00	-1.5798597713e+00
 9.2260285674e-01	 1.0373034059e+00	-1.6263897050e+00
 9.1245870890e-01	 1.0462377494e+00	-1.6718626148e+00
 9.0223141351e-01	 1.0550700192e+00	-1.7157166466e+00
 8.9192251936e-01	 1.0637990626e+00	-1.7573995604e+00
 8.8153359611e-01	 1.0724237577e+00	-1.7963721931e+00
 8.7106623349e-01	 1.0809430146e+00	-1.8321116765e+00
 8.6052204049e-01	 1.0893557749e+00	-1.8641143922e+00
 8.4990264459e-01	 1.0976610131e+00	-1.8918986483e+00
 8.3920969087e-01	 1.1058577363e+00	-1.9150070634e+00
 8.2844484125e-01	 1.1139449849e+00	-1.9334882899e+00
 9.3859094447e-01	 1.0348045204e+00	-1.6145204261e+00
 9.2846752676e-01	 1.0438971880e+00	-1.6601570544e+00
 9.1825889606e-01	 1.0528883240e+00	-1.7043616508e+00
 9.0796658925e-01	 1.0617767376e+00	-1.7465553936e+00
 8.9759216499e-01	 1.0705612685e+00	-1.7861687852e+00
 8.8713720292e-01	 1.0792407878e+00	-1.8226452851e+00
 8.7660330287e-01	 1.0878141987e+00	-1.8554446894e+00
 8.6599208405e-01	 1.0962804361e+00	-1.8840462365e+00
 8.5530518429e-01	 1.1046384678e+00	-1.9079514237e+00
 8.4454425913e-01	 1.1128872948e+00	-1.9268908134e+00
 8.3371098105e-01	 1.1210259512e+00	-1.9458331170e+00
 9.4451955912e-01	 1.0413408686e+00	-1.6479057622e+00
 9.3433219678e-01	 1.0504909701e+00	-1.6925695827e+00
 9.2405908321e-01	 1.0595388987e+00	-1.7353201764e+00
 9.1370176499e-01	 1.0684834559e+00	-1.7755716879e+00
 9.0326181063e-01	 1.0773234743e+00	-1.8127472694e+00
 8.9274080974e-01	 1.0860578180e+00	-1.8462828765e+00
 8.8214037225e-01	 1.0946853828e+00	-1.8756308003e+00
 8.7146212762e-01	 1.1032050972e+00	-1.9002629147e+00
 8.6070772399e-01	 1.1116159225e+00	-1.9196915616e+00
 8.4987882739e-01	 1.1199168533e+00	-1.9385081417e+00
 8.3897712086e-01	 1.1281069175e+00	-1.9591410462e+00
 9.5044817376e-01	 1.0478772168e+00	-1.6801272772e+00
 9.4019686680e-01	 1.0570847521e+00	-1.7237388180e+00
 9.2985927036e-01	 1.0661894733e+00	-1.7648480542e+00
 9.1943694074e-01	 1.0751901743e+00	-1.8028718391e+00
 9.0893145627e-01	 1.0840856802e+00	-1.8372356959e+00
 8.9834441655e-01	 1.0928748481e+00	-1.8673777673e+00
 8.8767744163e-01	 1.1015565669e+00	-1.8927524914e+00
 8.7693217118e-01	 1.1101297584e+00	-1.9128339830e+00
 8.6611026369e-01	 1.1185933772e+00	-1.9310679421e+00
 8.5521339565e-01	 1.1269464117e+00	-1.9521049040e+00
 8.4424326066e-01	 1.1351878838e+00	-1.9739235979e+00
 9.5637678840e-01	 1.0544135650e+00	-1.7113051811e+00
 9.4606153682e-01	 1.0636785342e+00	-1.7537849789e+00
 9.3565945751e-01	 1.0728400480e+00	-1.7930638295e+00
 9.2517211648e-01	 1.0818968926e+00	-1.8285708513e+00
 9.1460110191e-01	 1.0908478861e+00	-1.8597434761e+00
 9.0394802337e-01	 1.0996918782e+00	-1.8860315458e+00
 8.9321451101e-01	 1.1084277510e+00	-1.9069011238e+00
 8.8240221474e-01	 1.1170544195e+00	-1.9244737827e+00
 8.7151280340e-01	 1.1255708319e+00	-1.9454067067e+00
 8.6054796392e-01	 1.1339759702e+00	-1.9681879415e+00
 8.4950940046e-01	 1.1422688501e+00	-1.9906792256e+00
 9.6230540305e-01	 1.0609499132e+00	-1.7415685711e+00
 9.5192620685e-01	 1.0702723163e+00	-1.7828371557e+00
 9.4145964467e-01	 1.0794906226e+00	-1.8200949184e+00
 9.3090729222e-01	 1.0886036110e+00	-1.8527926148e+00
 9.2027074754e-01	 1.0976100920e+00	-1.8803889445e+00
 9.0955163018e-01	 1.1065089083e+00	-1.9023547852e+00
 8.9875158039e-01	 1.1152989351e+00	-1.9195515640e+00
 8.8787225830e-01	 1.1239790807e+00	-1.9399404666e+00
 8.7691534310e-01	 1.1325482866e+00	-1.9632064756e+00
 8.6588253218e-01	 1.1410055286e+00	-1.9872502772e+00
 8.5477554027e-01	 1.1493498165e+00	-2.0098931909e+00
 9.6823401769e-01	 1.0674862614e+00	-1.7710556053e+00
 9.5779087687e-01	 1.0768660984e+00	-1.8110334916e+00
 9.4725983182e-01	 1.0861411972e+00	-1.8460777936e+00
 9.3664246796e-01	 1.0953103293e+00	-1.8756700973e+00
 9.2594039318e-01	 1.1043722979e+00	-1.8992995526e+00
 9.1515523699e-01	 1.1133259384e+00	-1.9168688811e+00
 9.0428864976e-01	 1.1221701192e+00	-1.9364181787e+00
 8.9334230186e-01	 1.1309037418e+00	-1.9597908445e+00
 8.8231788280e-01	 1.1395257413e+00	-1.9849513770e+00
 8.7121710044e-01	 1.1480350871e+00	-2.0097709955e+00
 8.6004168007e-01	 1.1564307828e+00	-2.0320374383e+00
 8.0738028204e-01	 1.0856211196e+00	-1.8492384366e+00
 7.9682251330e-01	 1.0933938315e+00	-1.8773361937e+00
 7.8619797841e-01	 1.1010581216e+00	-1.9030063371e+00
 7.7550833447e-01	 1.1086131585e+00	-1.9266560895e+00
 7.6475525172e-01	 1.1160581442e+00	-1.9496192652e+00
 7.5394041265e-01	 1.1233923147e+00	-1.9745473174e+00
 7.4306551116e-01	 1.1306149397e+00	-2.0005714893e+00
 7.3213225174e-01	 1.1377253231e+00	-2.0262831477e+00
 7.2114234859e-01	 1.1447228033e+00	-2.0501029198e+00
 7.1009752482e-01	 1.1516067529e+00	-2.0711296996e+00
 6.9899951150e-01	 1.1583765792e+00	-2.0884285281e+00
 8.1264642184e-01	 1.0927020859e+00	-1.8786402914e+00
 8.0201979003e-01	 1.1005254953e+00	-1.9039233460e+00
 7.9132595658e-01	 1.1082397758e+00	-1.9264444052e+00
 7.8056658942e-01	 1.1158440904e+00	-1.9476716649e+00
 7.6974336967e-01	 1.1233376361e+00	-1.9710592458e+00
 7.5885799078e-01	 1.1307196437e+00	-1.9959277914e+00
 7.4791215771e-01	 1.1379893783e+00	-2.0211995708e+00
 7.3690758608e-01	 1.1451461392e+00	-2.0457452408e+00
 7.2584600127e-01	 1.1521892605e+00	-2.0680354694e+00
 7.1472913760e-01	 1.1591181107e+00	-2.0870718528e+00
 7.0355873747e-01	 1.1659320932e+00	-2.1019791309e+00
 8.1791256164e-01	 1.0997830522e+00	-1.9024166270e+00
 8.0721706676e-01	 1.1076571592e+00	-1.9243092896e+00
 7.9645393476e-01	 1.1154214300e+00	-1.9440571103e+00
 7.8562484437e-01	 1.1230750224e+00	-1.9659814021e+00
 7.7473148761e-01	 1.1306171280e+00	-1.9897100345e+00
 7.6377556890e-01	 1.1380469728e+00	-2.0142286102e+00
 7.5275880427e-01	 1.1453638169e+00	-2.0385097295e+00
 7.4168292043e-01	 1.1525669553e+00	-2.0615190436e+00
 7.3054965395e-01	 1.1596557177e+00	-2.0820321363e+00
 7.1936075039e-01	 1.1666294684e+00	-2.0989119141e+00
 7.0811796344e-01	 1.1734876072e+00	-2.1113470868e+00
 8.2317870144e-01	 1.1068640185e+00	-1.9205441898e+00
 8.1241434350e-01	 1.1147888230e+00	-1.9391855428e+00
 8.0158191294e-01	 1.1226030842e+00	-1.9597608629e+00
 7.9068309932e-01	 1.1303059543e+00	-1.9823898312e+00
 7.7971960555e-01	 1.1378966199e+00	-2.0061301063e+00
 7.6869314703e-01	 1.1453743018e+00	-2.0300215367e+00
 7.5760545083e-01	 1.1527382555e+00	-2.0530924075e+00
 7.4645825478e-01	 1.1599877715e+00	-2.0743656036e+00
 7.3525330663e-01	 1.1671221749e+00	-2.0928328306e+00
 7.2399236318e-01	 1.1741408262e+00	-2.1074154574e+00
 7.1267718941e-01	 1.1810431212e+00	-2.1173283072e+00
 8.2844484125e-01	 1.1139449849e+00	-1.9334882899e+00
 8.1761162023e-01	 1.1219204869e+00	-1.9528736718e+00
 8.0670989112e-01	 1.1297847384e+00	-1.9744771853e+00
 7.9574135427e-01	 1.1375368863e+00	-1.9974365821e+00
 7.8470772349e-01	 1.1451761118e+00	-2.0208670203e+00
 7.7361072516e-01	 1.1527016308e+00	-2.0438674799e+00
 7.6245209739e-01	 1.1601126942e+00	-2.0655271205e+00
 7.5123358913e-01	 1.1674085876e+00	-2.0849315507e+00
 7.3995695931e-01	 1.1745886321e+00	-2.1011688065e+00
 7.2862397597e-01	 1.1816521840e+00	-2.1133395231e+00
 7.1723641538e-01	 1.1885986352e+00	-2.1207101676e+00
 8.3371098105e-01	 1.1210259512e+00	-1.9458331170e+00
 8.2280889696e-01	 1.1290521507e+00	-1.9665254152e+00
 8.1183786930e-01	 1.1369663926e+00	-1.9887317714e+00
 8.0079960923e-01	 1.1447678182e+00	-2.0116500387e+00
 7.8969584144e-01	 1.1524556037e+00	-2.0344572977e+00
 7.7852830329e-01	 1.1600289599e+00	-2.0563163864e+00
 7.6729874395e-01	 1.1674871328e+00	-2.0763823670e+00
 7.5600892348e-01	 1.1748294037e+00	-2.0938088960e+00
 7.4466061199e-01	 1.1820550893e+00	-2.1077544673e+00
 7.3325558876e-01	 1.1891635418e+00	-2.1174318511e+00
 7.2179564136e-01	 1.1961541492e+00	-2.1222707971e+00
 8.3897712086e-01	 1.1281069175e+00	-1.9591410462e+00
 8.2800617369e-01	 1.1361838146e+00	-1.9806571798e+00
 8.1696584748e-01	 1.1441480468e+00	-2.0030385943e+00
 8.0585786418e-01	 1.1519987502e+00	-2.0255472108e+00
 7.9468395938e-01	 1.1597350956e+00	-2.0474263019e+00
 7.8344588142e-01	 1.1673562889e+00	-2.0679071334e+00
 7.7214539051e-01	 1.1748615714e+00	-2.0862155372e+00
 7.6078425782e-01	 1.1822502198e+00	-2.1015783801e+00
 7.4936426467e-01	 1.1895215464e+00	-2.1132298966e+00
 7.3788720155e-01	 1.1966748995e+00	-2.1204301122e+00
 7.2635486733e-01	 1.2037096631e+00	-2.1227783652e+00
 8.4424326066e-01	 1.1351878838e+00	-1.9739235979e+00
 8.3320345043e-01	 1.1433154784e+00	-1.9957730402e+00
 8.2209382566e-01	 1.1513297010e+00	-2.0178997741e+00
 8.1091611913e-01	 1.1592296821e+00	-2.0396336067e+00
 7.9967207732e-01	 1.1670145874e+00	-2.0602881196e+00
 7.8836345955e-01	 1.1746836179e+00	-2.0791674215e+00
 7.7699203707e-01	 1.1822360100e+00	-2.0955728232e+00
 7.6555959217e-01	 1.1896710359e+00	-2.1088094029e+00
 7.5406791735e-01	 1.1969880036e+00	-2.1181924250e+00
 7.4251881434e-01	 1.2041862573e+00	-2.1230535820e+00
 7.3091409330e-01	 1.2112651771e+00	-2.1229903657e+00
 8.4950940046e-01	 1.1422688501e+00	-1.9906792256e+00
 8.3840072716e-01	 1.1504471423e+00	-2.0123646092e+00
 8.2722180383e-01	 1.1585113552e+00	-2.0338054482e+00
 8.1597437408e-01	 1.1664606141e+00	-2.0544031069e+00
 8.0466019527e-01	 1.1742940793e+00	-2.0735454433e+00
 7.9328103768e-01	 1.1820109470e+00	-2.0906136696e+00
 7.8183868363e-01	 1.1896104486e+00	-2.1049891290e+00
 7.7033492652e-01	 1.1970918520e+00	-2.1160599534e+00
 7.5877157003e-01	 1.2044544608e+00	-2.1232275654e+00
 7.4715042713e-01	 1.2116976151e+00	-2.1259129937e+00
 7.3547331927e-01	 1.2188206911e+00	-2.1236528976e+00
 8.5477554027e-01	 1.1493498165e+00	-2.0098931909e+00
 8.4359800389e-01	 1.1575788061e+00	-2.0309109083e+00
 8.3234978201e-01	 1.1656930094e+00	-2.0512336422e+00
 8.2103262903e-01	 1.1736915460e+00	-2.0703378400e+00
 8.0964831321e-01	 1.1815735712e+00	-2.0876894543e+00
 7.9819861581e-01	 1.1893382760e+00	-2.1027509101e+00
 7.8668533018e-01	 1.1969848873e+00	-2.1149879816e+00
 7.7511026087e-01	 1.2045126681e+00	-2.1238765396e+00
 7.6347522270e-01	 1.2119209180e+00	-2.1289091346e+00
 7.5178203992e-01	 1.2192089729e+00	-2.1296013812e+00
 7.4003254524e-01	 1.2263762051e+00	-2.1254999438e+00
 8.6004168007e-01	 1.1564307828e+00	-2.0320374383e+00
 8.4879528062e-01	 1.1647104700e+00	-2.0518782394e+00
 8.3747776019e-01	 1.1728746636e+00	-2.0706501420e+00
 8.2609088398e-01	 1.1809224780e+00	-2.0879080587e+00
 8.1463643115e-01	 1.1888530631e+00	-2.1031997073e+00
 8.0311619394e-01	 1.1966656050e+00	-2.1160726847e+00
 7.9153197674e-01	 1.2043593259e+00	-2.1260814417e+00
 7.7988559522e-01	 1.2119334843e+00	-2.1327941184e+00
 7.6817887538e-01	 1.2193873752e+00	-2.1357992054e+00
 7.5641365271e-01	 1.2267203306e+00	-2.1347119937e+00
 7.4459177121e-01	 1.2339317191e+00	-2.1291807821e+00
 6.9899951150e-01	 1.1583765792e+00	-2.0884285281e+00
 6.8785004713e-01	 1.1650317246e+00	-2.1031859887e+00
 6.7665087737e-01	 1.1715716669e+00	-2.1171511281e+00
 6.6540375352e-01	 1.1779959194e+00	-2.1301902579e+00
 6.5411043145e-01	 1.1843040300e+00	-2.1421684463e+00
 6.4277267076e-01	 1.1904955813e+00	-2.1529578266e+00
 6.3139223392e-01	 1.1965701906e+00	-2.1624453965e+00
 6.1997088548e-01	 1.2025275101e+00	-2.1705402655e+00
 6.0851039118e-01	 1.2083672264e+00	-2.1771803164e+00
 5.9701251716e-01	 1.2140890607e+00	-2.1823382481e+00
 5.8547902912e-01	 1.2196927683e+00	-2.1860269757e+00
 7.0355873747e-01	 1.1659320932e+00	-2.1019791309e+00
 6.9233655070e-01	 1.1726306468e+00	-2.1141831534e+00
 6.8106433433e-01	 1.1792132459e+00	-2.1256400368e+00
 6.6974385108e-01	 1.1856794006e+00	-2.1362278465e+00
 6.5837686829e-01	 1.1920286558e+00	-2.1458239902e+00
 6.4696515702e-01	 1.1982605915e+00	-2.1543138829e+00
 6.3551049127e-01	 1.2043748225e+00	-2.1615990757e+00
 6.2401464705e-01	 1.2103709987e+00	-2.1676048040e+00
 6.1247940165e-01	 1.2162488045e+00	-2.1722869199e+00
 6.0090653272e-01	 1.2220079594e+00	-2.1756381741e+00
 5.8929781748e-01	 1.2276482172e+00	-2.1776938231e+00
 7.0811796344e-01	 1.1734876072e+00	-2.1113470868e+00
 6.9682305426e-01	 1.1802295689e+00	-2.1209942851e+00
 6.8547779128e-01	 1.1868548249e+00	-2.1299950317e+00
 6.7408394864e-01	 1.1933628818e+00	-2.1382258708e+00
 6.6264330513e-01	 1.1997532817e+00	-2.1455631181e+00
 6.5115764329e-01	 1.2060256018e+00	-2.1518919188e+00
 6.3962874861e-01	 1.2121794544e+00	-2.1571147399e+00
 6.2805840862e-01	 1.2182144872e+00	-2.1611592538e+00
 6.1644841212e-01	 1.2241303826e+00	-2.1639855731e+00
 6.0480054828e-01	 1.2299268582e+00	-2.1655928035e+00
 5.9311660583e-01	 1.2356036662e+00	-2.1660248871e+00
 7.1267718941e-01	 1.1810431212e+00	-2.1173283072e+00
 7.0130955782e-01	 1.1878284911e+00	-2.1244446829e+00
 6.8989124823e-01	 1.1944964038e+00	-2.1310644941e+00
 6.7842404620e-01	 1.2010463630e+00	-2.1370496525e+00
 6.6690974197e-01	 1.2074779075e+00	-2.1422621230e+00
 6.5535012956e-01	 1.2137906120e+00	-2.1465734100e+00
 6.4374700595e-01	 1.2199840863e+00	-2.1498734490e+00
 6.3210217019e-01	 1.2260579757e+00	-2.1520788583e+00
 6.2041742259e-01	 1.2320119607e+00	-2.1531405100e+00
 6.0869456383e-01	 1.2378457570e+00	-2.1530503840e+00
 5.9693539419e-01	 1.2435591152e+00	-2.1518476782e+00
 7.1723641538e-01	 1.1885986352e+00	-2.1207101676e+00
 7.0579606139e-01	 1.1954274133e+00	-2.1253511201e+00
 6.9430470518e-01	 1.2021379828e+00	-2.1296884311e+00
 6.8276414376e-01	 1.2087298441e+00	-2.1335564238e+00
 6.7117617881e-01	 1.2152025334e+00	-2.1367896160e+00
 6.5954261583e-01	 1.2215556223e+00	-2.1392326715e+00
 6.4786526330e-01	 1.2277887182e+00	-2.1407497262e+00
 6.3614593177e-01	 1.2339014643e+00	-2.1412330427e+00
 6.2438643306e-01	 1.2398935388e+00	-2.1406109489e+00
 6.1258857939e-01	 1.2457646558e+00	-2.1388550260e+00
 6.0075418255e-01	 1.2515145641e+00	-2.1359865144e+00
 7.2179564136e-01	 1.1961541492e+00	-2.1222707971e+00
 7.1028256495e-01	 1.2030263355e+00	-2.1245211889e+00
 6.9871816214e-01	 1.2097795618e+00	-2.1266978725e+00
 6.8710424132e-01	 1.2164133253e+00	-2.1285947708e+00
 6.7544261565e-01	 1.2229271592e+00	-2.1300060114e+00
 6.6373510210e-01	 1.2293206325e+00	-2.1307363794e+00
 6.5198352064e-01	 1.2355933501e+00	-2.1306111139e+00
 6.4018969334e-01	 1.2417449528e+00	-2.1294849989e+00
 6.2835544353e-01	 1.2477751169e+00	-2.1272507039e+00
 6.1648259495e-01	 1.2536835545e+00	-2.1238463360e+00
 6.0457297090e-01	 1.2594700131e+00	-2.1192621726e+00
 7.2635486733e-01	 1.2037096631e+00	-2.1227783652e+00
 7.1476906852e-01	 1.2106252577e+00	-2.1227526426e+00
 7.0313161909e-01	 1.2174211408e+00	-2.1229142623e+00
 6.9144433889e-01	 1.2240968065e+00	-2.1230040706e+00
 6.7970905249e-01	 1.2306517850e+00	-2.1227630056e+00
 6.6792758837e-01	 1.2370856428e+00	-2.1219430878e+00
 6.5610177798e-01	 1.2433979820e+00	-2.1203177231e+00
 6.4423345491e-01	 1.2495884413e+00	-2.1176912648e+00
 6.3232445400e-01	 1.2556566950e+00	-2.1139077889e+00
 6.2037661051e-01	 1.2616024533e+00	-2.1088590425e+00
 6.0839175926e-01	 1.2674254621e+00	-2.1024915333e+00
 7.3091409330e-01	 1.2112651771e+00	-2.1229903657e+00
 7.1925557208e-01	 1.2182241799e+00	-2.1208327332e+00
 7.0754507604e-01	 1.2250627197e+00	-2.1191488461e+00
 6.9578443645e-01	 1.2317802877e+00	-2.1176139242e+00
 6.8397548933e-01	 1.2383764109e+00	-2.1159030507e+00
 6.7212007464e-01	 1.2448506530e+00	-2.1137027386e+00
 6.6022003533e-01	 1.2512026139e+00	-2.1107217766e+00
 6.4827721648e-01	 1.2574319299e+00	-2.1067012961e+00
 6.3629346447e-01	 1.2635382731e+00	-2.1014240154e+00
 6.2427062607e-01	 1.2695213521e+00	-2.0947226162e+00
 6.1221054762e-01	 1.2753809110e+00	-2.0864872195e+00
 7.3547331927e-01	 1.2188206911e+00	-2.1236528976e+00
 7.2374207564e-01	 1.2258231020e+00	-2.1195375454e+00
 7.1195853299e-01	 1.2327042987e+00	-2.1162020539e+00
 7.0012453401e-01	 1.2394637688e+00	-2.1132435830e+00
 6.8824192617e-01	 1.2461010367e+00	-2.1102588212e+00
 6.7631256091e-01	 1.2526156633e+00	-2.1068561653e+00
 6.6433829267e-01	 1.2590072458e+00	-2.1026671451e+00
 6.5232097805e-01	 1.2652754184e+00	-2.0973570319e+00
 6.4026247494e-01	 1.2714198512e+00	-2.0906345838e+00
 6.2816464163e-01	 1.2774402508e+00	-2.0822608832e+00
 6.1602933597e-01	 1.2833363600e+00	-2.0720572298e+00
 7.4003254524e-01	 1.2263762051e+00	-2.1254999438e+00
 7.2822857921e-01	 1.2334220242e+00	-2.1196313272e+00
 7.1637198995e-01	 1.2403458777e+00	-2.1148628782e+00
 7.0446463157e-01	 1.2471472500e+00	-2.1107013716e+00
 6.9250836301e-01	 1.2538256626e+00	-2.1066526770e+00
 6.8050504718e-01	 1.2603806735e+00	-2.1022345915e+00
 6.6845655001e-01	 1.2668118777e+00	-2.0969888787e+00
 6.5636473962e-01	 1.2731189069e+00	-2.0904924548e+00
 6.4423148541e-01	 1.2793014293e+00	-2.0823676690e+00
 6.3205865719e-01	 1.2853591496e+00	-2.0722916336e+00
 6.1984812433e-01	 1.2912918090e+00	-2.0600045653e+00
 7.4459177121e-01	 1.2339317191e+00	-2.1291807821e+00
 7.3271508277e-01	 1.2410209464e+00	-2.1218658174e+00
 7.2078544690e-01	 1.2479874567e+00	-2.1159082489e+00
 7.0880472913e-01	 1.2548307312e+00	-2.1107841049e+00
 6.9677479985e-01	 1.2615502884e+00	-2.1058961199e+00
 6.8469753345e-01	 1.2681456837e+00	-2.1006591235e+00
 6.7257480735e-01	 1.2746165096e+00	-2.0945127316e+00
 6.6040850119e-01	 1.2809623955e+00	-2.0869331451e+00
 6.4820049588e-01	 1.2871830074e+00	-2.0774440001e+00
 6.3595267275e-01	 1.2932780484e+00	-2.0656262232e+00
 6.2366691268e-01	 1.2992472579e+00	-2.0511268520e+00
 5.8547902912e-01	 1.2196927683e+00	-2.1860269757e+00
 5.7390972211e-01	 1.2251790613e+00	-2.1896495538e+00
 5.6230831678e-01	 1.2305467998e+00	-2.1941875735e+00
 5.5067657307e-01	 1.2357958404e+00	-2.1990936175e+00
 5.3901624731e-01	 1.2409260734e+00	-2.2038726539e+00
 5.2732909147e-01	 1.2459374222e+00	-2.2080848025e+00
 5.1561685237e-01	 1.2508298437e+00	-2.2113474000e+00
 5.0388127097e-01	 1.2556033274e+00	-2.2133363727e+00
 4.9212408161e-01	 1.2602578954e+00	-2.2137869280e+00
 4.8034701128e-01	 1.2647936020e+00	-2.2124935823e+00
 4.6855177891e-01	 1.2692105336e+00	-2.2093095454e+00
 5.8929781748e-01	 1.2276482172e+00	-2.1776938231e+00
 5.7765304963e-01	 1.2331702946e+00	-2.1798108203e+00
 5.6597597411e-01	 1.2385730442e+00	-2.1828800603e+00
 5.5426836232e-01	 1.2438563217e+00	-2.1863145165e+00
 5.4253198206e-01	 1.2490200166e+00	-2.1895848613e+00
 5.3076859672e-01	 1.2540640520e+00	-2.1922223375e+00
 5.1897996451e-01	 1.2589883843e+00	-2.1938208901e+00
 5.0716783776e-01	 1.2637930031e+00	-2.1940385676e+00
 4.9533396210e-01	 1.2684779305e+00	-2.1925982050e+00
 4.8348007580e-01	 1.2730432213e+00	-2.1892874063e+00
 4.7160790899e-01	 1.2774889623e+00	-2.1839578487e+00
 5.9311660583e-01	 1.2356036662e+00	-2.1660248871e+00
 5.8139637715e-01	 1.2411615279e+00	-2.1666008370e+00
 5.6964363144e-01	 1.2465992886e+00	-2.1681488894e+00
 5.5786015158e-01	 1.2519168030e+00	-2.1700584682e+00
 5.4604771681e-01	 1.2571139599e+00	-2.1717818158e+00
 5.3420810196e-01	 1.2621906818e+00	-2.1728369565e+00
 5.2234307665e-01	 1.2671469249e+00	-2.1728098814e+00
 5.1045440454e-01	 1.2719826787e+00	-2.1713559636e+00
 4.9854384259e-01	 1.2766979656e+00	-2.1682006181e+00
 4.8661314031e-01	 1.2812928405e+00	-2.1631392233e+00
 4.7466403908e-01	 1.2857673910e+00	-2.1560363286e+00
 5.9693539419e-01	 1.2435591152e+00	-2.1518476782e+00
 5.8513970467e-01	 1.2491527612e+00	-2.1508209902e+00
 5.7331128877e-01	 1.2546255330e+00	-2.1507629376e+00
 5.6145194083e-01	 1.2599772843e+00	-2.1510551433e+00
 5.4956345156e-01	 1.2652079031e+00	-2.1511469882e+00
 5.3764760721e-01	 1.2703173116e+00	-2.1505586537e+00
 5.2570618879e-01	 1.2753054656e+00	-2.1488833466e+00
 5.1374097132e-01	 1.2801723544e+00	-2.1457887142e+00
 5.0175372308e-01	 1.2849180007e+00	-2.1410174654e+00
 4.8974620483e-01	 1.2895424598e+00	-2.1343872162e+00
 4.7772016917e-01	 1.2940458197e+00	-2.1257895853e+00
 6.0075418255e-01	 1.2515145641e+00	-2.1359865144e+00
 5.8888303220e-01	 1.2571439946e+00	-2.1332704975e+00
 5.7697894610e-01	 1.2626517774e+00	-2.1314900393e+00
 5.6504373008e-01	 1.2680377656e+00	-2.1300344038e+00
 5.5307918632e-01	 1.2733018464e+00	-2.1283653872e+00
 5.4108711246e-01	 1.2784439414e+00	-2.1260204275e+00
 5.2906930094e-01	 1.2834640062e+00	-2.1226148543e+00
 5.1702753811e-01	 1.2883620301e+00	-2.1178432908e+00
 5.0496360357e-01	 1.2931380358e+00	-2.1114802214e+00
 4.9287926935e-01	 1.2977920791e+00	-2.1033797463e+00
 4.8077629926e-01	 1.3023242484e+00	-2.0934745476e+00
 6.0457297090e-01	 1.2594700131e+00	-2.1192621726e+00
 5.9262635972e-01	 1.2651352279e+00	-2.1147460740e+00
 5.8064660343e-01	 1.2706780219e+00	-2.1110966614e+00
 5.6863551934e-01	 1.2760982469e+00	-2.1077259822e+00
 5.5659492107e-01	 1.2813957896e+00	-2.1041232391e+00
 5.4452661771e-01	 1.2865705712e+00	-2.0998579534e+00
 5.3243241308e-01	 1.2916225468e+00	-2.0945822287e+00
 5.2031410489e-01	 1.2965517058e+00	-2.0880321241e+00
 5.0817348406e-01	 1.3013580709e+00	-2.0800281546e+00
 4.9601233388e-01	 1.3060416983e+00	-2.0704749388e+00
 4.8383242935e-01	 1.3106026771e+00	-2.0593600206e+00
 6.0839175926e-01	 1.2674254621e+00	-2.1024915333e+00
 5.9636968725e-01	 1.2731264612e+00	-2.0960415914e+00
 5.8431426076e-01	 1.2787042663e+00	-2.0903475734e+00
 5.7222730859e-01	 1.2841587282e+00	-2.0848591571e+00
 5.6011065582e-01	 1.2894897329e+00	-2.0791076617e+00
 5.4796612296e-01	 1.2946972009e+00	-2.0727092535e+00
 5.3579552522e-01	 1.2997810874e+00	-2.0653672088e+00
 5.2360067168e-01	 1.3047413814e+00	-2.0568732466e+00
 5.1138336455e-01	 1.3095781060e+00	-2.0471079463e+00
 4.9914539840e-01	 1.3142913176e+00	-2.0360402729e+00
 4.8688855944e-01	 1.3188811058e+00	-2.0237262398e+00
 6.1221054762e-01	 1.2753809110e+00	-2.0864872195e+00
 6.0011301477e-01	 1.2811176945e+00	-2.0779477321e+00
 5.8798191809e-01	 1.2867305107e+00	-2.0700055117e+00
 5.7581909785e-01	 1.2922192095e+00	-2.0621624234e+00
 5.6362639057e-01	 1.2975836761e+00	-2.0540063370e+00
 5.5140562821e-01	 1.3028238307e+00	-2.0452143636e+00
 5.3915863737e-01	 1.3079396280e+00	-2.0355551056e+00
 5.2688723847e-01	 1.3129310571e+00	-2.0248899345e+00
 5.1459324504e-01	 1.3177981411e+00	-2.0131733112e+00
 5.0227846292e-01	 1.3225409368e+00	-2.0004521754e+00
 4.8994468953e-01	 1.3271595345e+00	-1.9868644312e+00
 6.1602933597e-01	 1.2833363600e+00	-2.0720572298e+00
 6.0385634229e-01	 1.2891089279e+00	-2.0612516380e+00
 5.9164957542e-01	 1.2947567551e+00	-2.0508308399e+00
 5.7941088710e-01	 1.3002796908e+00	-2.0403631588e+00
 5.6714212532e-01	 1.3056776194e+00	-2.0295071785e+00
 5.5484513347e-01	 1.3109504605e+00	-2.0180149984e+00
 5.4252174951e-01	 1.3160981686e+00	-2.0057344588e+00
 5.3017380525e-01	 1.3211207328e+00	-1.9926103495e+00
 5.1780312553e-01	 1.3260181762e+00	-1.9786846203e+00
 5.0541152744e-01	 1.3307905561e+00	-1.9640956171e+00
 4.9300081962e-01	 1.3354379633e+00	-1.9490763757e+00
 6.1984812433e-01	 1.2912918090e+00	-2.0600045653e+00
 6.0759966982e-01	 1.2971001612e+00	-2.0467365531e+00
 5.9531723275e-01	 1.3027829995e+00	-2.0335812028e+00
 5.8300267636e-01	 1.3083401721e+00	-2.0201872858e+00
 5.7065786008e-01	 1.3137715626e+00	-2.0062979962e+00
 5.5828463872e-01	 1.3190770903e+00	-1.9917542136e+00
 5.4588486165e-01	 1.3242567092e+00	-1.9764966911e+00
 5.3346037204e-01	 1.3293104084e+00	-1.9605671820e+00
 5.2101300602e-01	 1.3342382113e+00	-1.9441085250e+00
 5.0854459196e-01	 1.3390401754e+00	-1.9273637134e+00
 4.9605694971e-01	 1.3437163920e+00	-1.9106739807e+00
 6.2366691268e-01	 1.2992472579e+00	-2.0511268520e+00
 6.1134299734e-01	 1.3050913945e+00	-2.0351814626e+00
 5.9898489008e-01	 1.3108092439e+00	-2.0190111778e+00
 5.8659446561e-01	 1.3164006534e+00	-2.0023589302e+00
 5.7417359483e-01	 1.3218655059e+00	-1.9850661583e+00
 5.6172414397e-01	 1.3272037201e+00	-1.9670760665e+00
 5.4924797379e-01	 1.3324152499e+00	-1.9484357632e+00
 5.3674693882e-01	 1.3375000841e+00	-1.9292972931e+00
 5.2422288651e-01	 1.3424582464e+00	-1.9099175827e+00
 5.1167765648e-01	 1.3472897946e+00	-1.8906573279e+00
 4.9911307980e-01	 1.3519948207e+00	-1.8719788549e+00
 4.6855177891e-01	 1.2692105336e+00	-2.2093095454e+00
 4.5674210366e-01	 1.2735080872e+00	-2.2045854938e+00
 4.4491768149e-01	 1.2776871719e+00	-2.1989028661e+00
 4.3308020167e-01	 1.2817479665e+00	-2.1925388536e+00
 4.2123134272e-01	 1.2856906802e+00	-2.1858112631e+00
 4.0937277181e-01	 1.2895155522e+00	-2.1790749373e+00
 3.9750614411e-01	 1.2932228510e+00	-2.1727177449e+00
 3.8563310219e-01	 1.2968128745e+00	-2.1671561807e+00
 3.7375527545e-01	 1.3002859490e+00	-2.1628306204e+00
 3.6187427950e-01	 1.3036424289e+00	-2.1594732064e+00
 3.4999171566e-01	 1.3068826965e+00	-2.1560555596e+00
 4.7160790899e-01	 1.2774889623e+00	-2.1839578487e+00
 4.5972120511e-01	 1.2818145467e+00	-2.1768776491e+00
 4.4781965812e-01	 1.2860208895e+00	-2.1685650316e+00
 4.3590496831e-01	 1.2901081707e+00	-2.1593291912e+00
 4.2397882515e-01	 1.2940766007e+00	-2.1495190450e+00
 4.1204290668e-01	 1.2979264204e+00	-2.1395194834e+00
 4.0009887888e-01	 1.3016579001e+00	-2.1297471700e+00
 3.8814839502e-01	 1.3052713396e+00	-2.1206459350e+00
 3.7619309512e-01	 1.3087670672e+00	-2.1126818069e+00
 3.6423460535e-01	 1.3121454398e+00	-2.1059513315e+00
 3.5227453746e-01	 1.3154068420e+00	-2.0991437398e+00
 4.7466403908e-01	 1.2857673910e+00	-2.1560363286e+00
 4.6270030656e-01	 1.2901210062e+00	-2.1470416331e+00
 4.5072163475e-01	 1.2943546071e+00	-2.1365588557e+00
 4.3872973495e-01	 1.2984683748e+00	-2.1249208215e+00
 4.2672630758e-01	 1.3024625212e+00	-2.1125002591e+00
 4.1471304156e-01	 1.3063372887e+00	-2.0997058699e+00
 4.0269161364e-01	 1.3100929492e+00	-2.0869779247e+00
 3.9066368784e-01	 1.3137298046e+00	-2.0747834345e+00
 3.7863091479e-01	 1.3172481853e+00	-2.0636109411e+00
 3.6659493119e-01	 1.3206484506e+00	-2.0538156381e+00
 3.5455735925e-01	 1.3239309875e+00	-2.0440527403e+00
 4.7772016917e-01	 1.2940458197e+00	-2.1257895853e+00
 4.6567940802e-01	 1.2984274657e+00	-2.1152313709e+00
 4.5362361139e-01	 1.3026883247e+00	-2.1029621205e+00
 4.4155450159e-01	 1.3068285789e+00	-2.0893301411e+00
 4.2947379001e-01	 1.3108484417e+00	-2.0747248940e+00
 4.1738317643e-01	 1.3147481569e+00	-2.0595728710e+00
 4.0528434841e-01	 1.3185279984e+00	-2.0443329734e+00
 3.9317898066e-01	 1.3221882696e+00	-2.0294914440e+00
 3.8106873446e-01	 1.3257293035e+00	-2.0155563997e+00
 3.6895525704e-01	 1.3291514614e+00	-2.0030301949e+00
 3.5684018105e-01	 1.3324551329e+00	-1.9907928969e+00
 4.8077629926e-01	 1.3023242484e+00	-2.0934745476e+00
 4.6865850947e-01	 1.3067339252e+00	-2.0816151267e+00
 4.5652558802e-01	 1.3110220423e+00	-2.0678685249e+00
 4.4437926823e-01	 1.3151887831e+00	-2.0525906033e+00
 4.3222127244e-01	 1.3192343622e+00	-2.0361806945e+00
 4.2005331131e-01	 1.3231590251e+00	-2.0190772728e+00
 4.0787708318e-01	 1.3269630475e+00	-2.0017531019e+00
 3.9569427349e-01	 1.3306467347e+00	-1.9847099122e+00
 3.8350655413e-01	 1.3342104217e+00	-1.9684726561e+00
 3.7131558289e-01	 1.3376544722e+00	-1.9535833968e+00
 3.5912300284e-01	 1.3409792784e+00	-1.9393873392e+00
 4.8383242935e-01	 1.3106026771e+00	-2.0593600206e+00
 4.7163761093e-01	 1.3150403847e+00	-2.0463750166e+00
 4.5942756465e-01	 1.3193557599e+00	-2.0313871727e+00
 4.4720403488e-01	 1.3235489872e+00	-2.0147521940e+00
 4.3496875488e-01	 1.3276202827e+00	-1.9968726367e+00
 4.2272344618e-01	 1.3315698934e+00	-1.9781933599e+00
 4.1046981795e-01	 1.3353980966e+00	-1.9591964286e+00
 3.9820956631e-01	 1.3391051997e+00	-1.9403955183e+00
 3.8594437380e-01	 1.3426915399e+00	-1.9223298756e+00
 3.7367590874e-01	 1.3461574831e+00	-1.9055578908e+00
 3.6140582464e-01	 1.3495034239e+00	-1.8898719247e+00
 4.8688855944e-01	 1.3188811058e+00	-2.0237262398e+00
 4.7461671238e-01	 1.3233468443e+00	-2.0097065285e+00
 4.6232954129e-01	 1.3276894775e+00	-1.9936420707e+00
 4.5002880152e-01	 1.3319091914e+00	-1.9758809186e+00
 4.3771623731e-01	 1.3360062032e+00	-1.9568224151e+00
 4.2539358106e-01	 1.3399807616e+00	-1.9369124146e+00
 4.1306255272e-01	 1.3438331457e+00	-1.9166379261e+00
 4.0072485914e-01	 1.3475636648e+00	-1.8965212287e+00
 3.8838219348e-01	 1.3511726581e+00	-1.8771135188e+00
 3.7603623458e-01	 1.3546604939e+00	-1.8589881447e+00
 3.6368864644e-01	 1.3580275694e+00	-1.8422951791e+00
 4.8994468953e-01	 1.3271595345e+00	-1.9868644312e+00
 4.7759581384e-01	 1.3316533038e+00	-1.9718180509e+00
 4.6523151792e-01	 1.3360231951e+00	-1.9547716359e+00
 4.5285356817e-01	 1.3402693955e+00	-1.9360582994e+00
 4.4046371974e-01	 1.3443921237e+00	-1.9160679413e+00
 4.2806371594e-01	 1.3483916299e+00	-1.8952422271e+00
 4.1565528749e-01	 1.3522681948e+00	-1.8740689547e+00
 4.0324015197e-01	 1.3560221298e+00	-1.8530758647e+00
 3.9082001315e-01	 1.3596537762e+00	-1.8328239539e+00
 3.7839656043e-01	 1.3631635047e+00	-1.8139003522e+00
 3.6597146823e-01	 1.3665517149e+00	-1.7967182411e+00
 4.9300081962e-01	 1.3354379633e+00	-1.9490763757e+00
 4.8057491529e-01	 1.3399597633e+00	-1.9329304077e+00
 4.6813349455e-01	 1.3443569127e+00	-1.9149282119e+00
 4.5567833481e-01	 1.3486295997e+00	-1.8953808824e+00
 4.4321120218e-01	 1.3527780442e+00	-1.8746628521e+00
 4.3073385081e-01	 1.3568024981e+00	-1.8532066159e+00
 4.1824802226e-01	 1.3607032439e+00	-1.8314968057e+00
 4.0575544479e-01	 1.3644805948e+00	-1.8100636790e+00
 3.9325783282e-01	 1.3681348944e+00	-1.7894760786e+00
 3.8075688628e-01	 1.3716665155e+00	-1.7703339301e+00
 3.6825429003e-01	 1.3750758603e+00	-1.7532148122e+00
 4.9605694971e-01	 1.3437163920e+00	-1.9106739807e+00
 4.8355401675e-01	 1.3482662228e+00	-1.8932764016e+00
 4.7103547119e-01	 1.3526906303e+00	-1.8742775933e+00
 4.5850310145e-01	 1.3569898038e+00	-1.8539597543e+00
 4.4595868461e-01	 1.3611639648e+00	-1.8326760286e+00
 4.3340398569e-01	 1.3652133663e+00	-1.8108449585e+00
 4.2084075703e-01	 1.3691382930e+00	-1.7889442545e+00
 4.0827073762e-01	 1.3729390599e+00	-1.7675039420e+00
 3.9569565249e-01	 1.3766160126e+00	-1.7470989487e+00
 3.8311721213e-01	 1.3801695264e+00	-1.7283412011e+00
 3.7053711183e-01	 1.3836000058e+00	-1.7118712947e+00
 4.9911307980e-01	 1.3519948207e+00	-1.8719788549e+00
 4.8653311820e-01	 1.3565726823e+00	-1.8531003632e+00
 4.7393744782e-01	 1.3610243479e+00	-1.8329985586e+00
 4.6132786810e-01	 1.3653500079e+00	-1.8119200682e+00
 4.4870616704e-01	 1.3695498853e+00	-1.7901911239e+00
 4.3607412057e-01	 1.3736242346e+00	-1.7682117327e+00
 4.2343349180e-01	 1.3775733421e+00	-1.7464491238e+00
 4.1078603044e-01	 1.3813975249e+00	-1.7254305366e+00
 3.9813347216e-01	 1.3850971308e+00	-1.7057354157e+00
 3.8547753797e-01	 1.3886725372e+00	-1.6879870829e+00
 3.7281993362e-01	 1.3921241513e+00	-1.6728439569e+00
 3.4999171566e-01	 1.3068826965e+00	-2.1560555596e+00
 3.3810917055e-01	 1.3100071613e+00	-2.1518353441e+00
 3.2622821604e-01	 1.3130162608e+00	-2.1455952708e+00
 3.1435040825e-01	 1.3159104587e+00	-2.1378620968e+00
 3.0247728689e-01	 1.3186902446e+00	-2.1291310388e+00
 2.9061037479e-01	 1.3213561328e+00	-2.1198616000e+00
 2.7875117746e-01	 1.3239086624e+00	-2.1104741060e+00
 2.6690118266e-01	 1.3263483964e+00	-2.1013469191e+00
 2.5506185996e-01	 1.3286759212e+00	-2.0928143000e+00
 2.4323466039e-01	 1.3308918460e+00	-2.0851648819e+00
 2.3142101602e-01	 1.3329968024e+00	-2.0786407213e+00
 3.5227453746e-01	 1.3154068420e+00	-2.0991437398e+00
 3.4031448841e-01	 1.3185516861e+00	-2.0913404082e+00
 3.2835604035e-01	 1.3215804125e+00	-2.0814372965e+00
 3.1640075953e-01	 1.3244934878e+00	-2.0700292885e+00
 3.0445019571e-01	 1.3272914048e+00	-2.0576761117e+00
 2.9250588165e-01	 1.3299746813e+00	-2.0448981299e+00
 2.8056933268e-01	 1.3325438597e+00	-2.0321728717e+00
 2.6864204626e-01	 1.3349995069e+00	-2.0199322660e+00
 2.5672550155e-01	 1.3373422130e+00	-2.0085605486e+00
 2.4482115904e-01	 1.3395725912e+00	-1.9983928047e+00
 2.3293046015e-01	 1.3416912772e+00	-1.9897141107e+00
 3.5455735925e-01	 1.3239309875e+00	-2.0440527403e+00
 3.4251980628e-01	 1.3270962110e+00	-2.0331232959e+00
 3.3048386466e-01	 1.3301445641e+00	-2.0200691574e+00
 3.1845111081e-01	 1.3330765169e+00	-2.0055426304e+00
 3.0642310453e-01	 1.3358925650e+00	-1.9901565740e+00
 2.9440138850e-01	 1.3385932298e+00	-1.9744801889e+00
 2.8238748789e-01	 1.3411790571e+00	-1.9590355712e+00
 2.7038290985e-01	 1.3436506175e+00	-1.9442950007e+00
 2.5838914313e-01	 1.3460085048e+00	-1.9306789259e+00
 2.4640765769e-01	 1.3482533364e+00	-1.9185546100e+00
 2.3443990427e-01	 1.3503857520e+00	-1.9082353960e+00
 3.5684018105e-01	 1.3324551329e+00	-1.9907928969e+00
 3.4472512415e-01	 1.3356407358e+00	-1.9772450023e+00
 3.3261168897e-01	 1.3387087158e+00	-1.9615933475e+00
 3.2050146209e-01	 1.3416595460e+00	-1.9445372230e+00
 3.0839601335e-01	 1.3444937253e+00	-1.9267315048e+00
 2.9629689536e-01	 1.3472117783e+00	-1.9087824687e+00
 2.8420564311e-01	 1.3498142545e+00	-1.8912444017e+00
 2.7212377345e-01	 1.3523017280e+00	-1.8746169752e+00
 2.6005278472e-01	 1.3546747967e+00	-1.8593433423e+00
 2.4799415633e-01	 1.3569340817e+00	-1.8458089201e+00
 2.3594934840e-01	 1.3590802268e+00	-1.8343408142e+00
 3.5912300284e-01	 1.3409792784e+00	-1.9393873392e+00
 3.4693044202e-01	 1.3441852606e+00	-1.9237765930e+00
 3.3473951329e-01	 1.3472728675e+00	-1.9061200333e+00
 3.2255181338e-01	 1.3502425751e+00	-1.8871537586e+00
 3.1036892217e-01	 1.3530948855e+00	-1.8675638037e+00
 2.9819240222e-01	 1.3558303268e+00	-1.8479820118e+00
 2.8602379832e-01	 1.3584494519e+00	-1.8289827348e+00
 2.7386463704e-01	 1.3609528386e+00	-1.8110803243e+00
 2.6171642630e-01	 1.3633410885e+00	-1.7947273746e+00
 2.4958065498e-01	 1.3656148269e+00	-1.7803136750e+00
 2.3745879252e-01	 1.3677747016e+00	-1.7681658289e+00
 3.6140582464e-01	 1.3495034239e+00	-1.8898719247e+00
 3.4913575988e-01	 1.3527297854e+00	-1.8727991932e+00
 3.3686733760e-01	 1.3558370191e+00	-1.8537670892e+00
 3.2460216466e-01	 1.3588256041e+00	-1.8335385943e+00
 3.1234183099e-01	 1.3616960458e+00	-1.8128202939e+00
 3.0008790908e-01	 1.3644488753e+00	-1.7922583368e+00
 2.8784195354e-01	 1.3670846493e+00	-1.7724352563e+00
 2.7560550064e-01	 1.3696039491e+00	-1.7538676126e+00
 2.6338006789e-01	 1.3720073804e+00	-1.7370044139e+00
 2.5116715363e-01	 1.3742955721e+00	-1.7222262738e+00
 2.3896823664e-01	 1.3764691764e+00	-1.7098452588e+00
 3.6368864644e-01	 1.3580275694e+00	-1.8422951791e+00
 3.5134107775e-01	 1.3612743102e+00	-1.8244039796e+00
 3.3899516191e-01	 1.3644011708e+00	-1.8046601323e+00
 3.2665251595e-01	 1.3674086332e+00	-1.7838438235e+00
 3.1431473981e-01	 1.3702972060e+00	-1.7626718222e+00
 3.0198341594e-01	 1.3730674238e+00	-1.7417935594e+00
 2.8966010875e-01	 1.3757198467e+00	-1.7217881017e+00
 2.7734636423e-01	 1.3782550597e+00	-1.7031619770e+00
 2.6504370947e-01	 1.3806736722e+00	-1.6863478086e+00
 2.5275365228e-01	 1.3829763173e+00	-1.6717037114e+00
 2.4047768077e-01	 1.3851636512e+00	-1.6595134022e+00
 3.6597146823e-01	 1.3665517149e+00	-1.7967182411e+00
 3.5354639562e-01	 1.3698188350e+00	-1.7786921747e+00
 3.4112298623e-01	 1.3729653225e+00	-1.7589325598e+00
 3.2870286723e-01	 1.3759916623e+00	-1.7382273473e+00
 3.1628764863e-01	 1.3788983662e+00	-1.7172933578e+00
 3.0387892280e-01	 1.3816859723e+00	-1.6967725119e+00
 2.9147826397e-01	 1.3843550441e+00	-1.6772289883e+00
 2.7908722783e-01	 1.3869061703e+00	-1.6591472657e+00
 2.6670735106e-01	 1.3893399641e+00	-1.6429310037e+00
 2.5434015092e-01	 1.3916570625e+00	-1.6289027117e+00
 2.4198712489e-01	 1.3938581260e+00	-1.6173041578e+00
 3.6825429003e-01	 1.3750758603e+00	-1.7532148122e+00
 3.5575171349e-01	 1.3783633598e+00	-1.7357750441e+00
 3.4325081054e-01	 1.3815294741e+00	-1.7167255861e+00
 3.3075321851e-01	 1.3845746914e+00	-1.6968529448e+00
 3.1826055745e-01	 1.3874995265e+00	-1.6768640885e+00
 3.0577442965e-01	 1.3903045208e+00	-1.6573828584e+00
 2.9329641918e-01	 1.3929902414e+00	-1.6389473436e+00
 2.8082809143e-01	 1.3955572808e+00	-1.6220081729e+00
 2.6837099264e-01	 1.3980062559e+00	-1.6069276751e+00
 2.5592664957e-01	 1.4003378077e+00	-1.5939798563e+00
 2.4349656902e-01	 1.4025526008e+00	-1.5833511417e+00
 3.7053711183e-01	 1.3836000058e+00	-1.7118712947e+00
 3.5795703135e-01	 1.3869078846e+00	-1.6957738968e+00
 3.4537863485e-01	 1.3900936258e+00	-1.6781882811e+00
 3.3280356980e-01	 1.3931577205e+00	-1.6598903433e+00
 3.2023346627e-01	 1.3961006867e+00	-1.6415675158e+00
 3.0766993651e-01	 1.3989230693e+00	-1.6238152081e+00
 2.9511457440e-01	 1.4016254388e+00	-1.6071344306e+00
 2.8256895502e-01	 1.4042083914e+00	-1.5919303695e+00
 2.7003463423e-01	 1.4066725477e+00	-1.5785118605e+00
 2.5751314822e-01	 1.4090185530e+00	-1.5670917089e+00
 2.4500601314e-01	 1.4112470756e+00	-1.5577878004e+00
 3.7281993362e-01	 1.3921241513e+00	-1.6728439569e+00
 3.6016234922e-01	 1.3954524094e+00	-1.6588200871e+00
 3.4750645917e-01	 1.3986577775e+00	-1.6434776098e+00
 3.3485392108e-01	 1.4017407496e+00	-1.6275152875e+00
 3.2220637509e-01	 1.4047018470e+00	-1.6115915476e+00
 3.0956544337e-01	 1.4075416178e+00	-1.5962632256e+00
 2.9693272962e-01	 1.4102606362e+00	-1.5819834694e+00
 2.8430981862e-01	 1.4128595019e+00	-1.5691006305e+00
 2.7169827581e-01	 1.4153388396e+00	-1.5578580863e+00
 2.5909964687e-01	 1.4176992982e+00	-1.5483949370e+00
 2.4651545727e-01	 1.4199415504e+00	-1.5407475209e+00
 2.3142101602e-01	 1.3329968024e+00	-2.0786407213e+00
 2.1962033562e-01	 1.3349917732e+00	-2.0726969790e+00
 2.0783602525e-01	 1.3368770650e+00	-2.0667608823e+00
 1.9606946182e-01	 1.3386533721e+00	-2.0609551611e+00
 1.8432200193e-01	 1.3403214086e+00	-2.0553512538e+00
 1.7259498153e-01	 1.3418819083e+00	-2.0499708332e+00
 1.6088971569e-01	 1.3433356234e+00	-2.0447876851e+00
 1.4920749834e-01	 1.3446833246e+00	-2.0397298998e+00
 1.3754960206e-01	 1.3459258001e+00	-2.0346823375e+00
 1.2591727781e-01	 1.3470638551e+00	-2.0294893316e+00
 1.1431175480e-01	 1.3480983111e+00	-2.0239575914e+00
 2.3293046015e-01	 1.3416912772e+00	-1.9897141107e+00
 2.2105280978e-01	 1.3436992602e+00	-1.9819399560e+00
 2.0919163622e-01	 1.3455968489e+00	-1.9744196799e+00
 1.9734832535e-01	 1.3473847419e+00	-1.9672561389e+00
 1.8552424262e-01	 1.3490636582e+00	-1.9604983330e+00
 1.7372073270e-01	 1.3506343362e+00	-1.9541431650e+00
 1.6193911924e-01	 1.3520975332e+00	-1.9481375613e+00
 1.5018070460e-01	 1.3534540248e+00	-1.9423809129e+00
 1.3844676966e-01	 1.3547046043e+00	-1.9367277958e+00
 1.2673857355e-01	 1.3558500822e+00	-1.9309909329e+00
 1.1505735349e-01	 1.3568912855e+00	-1.9249443568e+00
 2.3443990427e-01	 1.3503857520e+00	-1.9082353960e+00
 2.2248528394e-01	 1.3524067472e+00	-1.8990833302e+00
 2.1054724718e-01	 1.3543166327e+00	-1.8903702414e+00
 1.9862718888e-01	 1.3561161117e+00	-1.8821852836e+00
 1.8672648332e-01	 1.3578059078e+00	-1.8745609121e+00
 1.7484648388e-01	 1.3593867641e+00	-1.8674748833e+00
 1.6298852279e-01	 1.3608594430e+00	-1.8608526243e+00
 1.5115391087e-01	 1.3622247249e+00	-1.8545699301e+00
 1.3934393727e-01	 1.3634834085e+00	-1.8484559469e+00
 1.2755986929e-01	 1.3646363094e+00	-1.8422964001e+00
 1.1580295218e-01	 1.3656842599e+00	-1.8358370259e+00
 2.3594934840e-01	 1.3590802268e+00	-1.8343408142e+00
 2.2391775810e-01	 1.3611142342e+00	-1.8242377777e+00
 2.1190285815e-01	 1.3630364165e+00	-1.8146981399e+00
 1.9990605241e-01	 1.3648474815e+00	-1.8058033201e+00
 1.8792872401e-01	 1.3665481573e+00	-1.7975749194e+00
 1.7597223506e-01	 1.3681391920e+00	-1.7899769654e+00
 1.6403792634e-01	 1.3696213527e+00	-1.7829185387e+00
 1.5212711713e-01	 1.3709954251e+00	-1.7762567342e+00
 1.4024110487e-01	 1.3722622128e+00	-1.7697999149e+00
 1.2838116504e-01	 1.3734225366e+00	-1.7633112141e+00
 1.1654855087e-01	 1.3744772344e+00	-1.7565122449e+00
 2.3745879252e-01	 1.3677747016e+00	-1.7681658289e+00
 2.2535023226e-01	 1.3698217213e+00	-1.7575132655e+00
 2.1325846911e-01	 1.3717562003e+00	-1.7474883624e+00
 2.0118491594e-01	 1.3735788513e+00	-1.7381705730e+00
 1.8913096471e-01	 1.3752904069e+00	-1.7295761305e+00
 1.7709798623e-01	 1.3768916200e+00	-1.7216605478e+00
 1.6508732990e-01	 1.3783832625e+00	-1.7143215063e+00
 1.5310032339e-01	 1.3797661253e+00	-1.7074020905e+00
 1.4113827248e-01	 1.3810410170e+00	-1.7006943198e+00
 1.2920246078e-01	 1.3822087638e+00	-1.6939429344e+00
 1.1729414957e-01	 1.3832702088e+00	-1.6868493912e+00
 2.3896823664e-01	 1.3764691764e+00	-1.7098452588e+00
 2.2678270641e-01	 1.3785292083e+00	-1.6990191632e+00
 2.1461408008e-01	 1.3804759842e+00	-1.6888254062e+00
 2.0246377947e-01	 1.3823102211e+00	-1.6793470439e+00
 1.9033320540e-01	 1.3840326565e+00	-1.6706002285e+00
 1.7822373741e-01	 1.3856440479e+00	-1.6625369682e+00
 1.6613673345e-01	 1.3871451723e+00	-1.6550482888e+00
 1.5407352965e-01	 1.3885368255e+00	-1.6479677482e+00
 1.4203544009e-01	 1.3898198212e+00	-1.6410752566e+00
 1.3002375653e-01	 1.3909949910e+00	-1.6341011545e+00
 1.1803974826e-01	 1.3920631832e+00	-1.6267305045e+00
 2.4047768077e-01	 1.3851636512e+00	-1.6595134022e+00
 2.2821518057e-01	 1.3872366953e+00	-1.6488643524e+00
 2.1596969105e-01	 1.3891957680e+00	-1.6387933710e+00
 2.0374264300e-01	 1.3910415909e+00	-1.6293924886e+00
 1.9153544609e-01	 1.3927749060e+00	-1.6206828627e+00
 1.7934948858e-01	 1.3943964758e+00	-1.6126178059e+00
 1.6718613700e-01	 1.3959070821e+00	-1.6050862284e+00
 1.5504673591e-01	 1.3973075256e+00	-1.5979164417e+00
 1.4293260769e-01	 1.3985986254e+00	-1.5908802759e+00
 1.3084505227e-01	 1.3997812182e+00	-1.5836974604e+00
 1.1878534695e-01	 1.4008561577e+00	-1.5760402209e+00
 2.4198712489e-01	 1.3938581260e+00	-1.6173041578e+00
 2.2964765473e-01	 1.3959441823e+00	-1.6071573318e+00
 2.1732530201e-01	 1.3979155518e+00	-1.5974760488e+00
 2.0502150652e-01	 1.3997729606e+00	-1.5883664899e+00
 1.9273768679e-01	 1.4015171556e+00	-1.5798597055e+00
 1.8047523976e-01	 1.4031489038e+00	-1.5719149214e+00
 1.6823554055e-01	 1.4046689919e+00	-1.5644232695e+00
 1.5601994218e-01	 1.4060782258e+00	-1.5572118920e+00
 1.4382977530e-01	 1.4073774296e+00	-1.5500483644e+00
 1.3166634801e-01	 1.4085674454e+00	-1.5426453893e+00
 1.1953094565e-01	 1.4096491321e+00	-1.5346657092e+00
 2.4349656902e-01	 1.4025526008e+00	-1.5833511417e+00
 2.3108012889e-01	 1.4046516693e+00	-1.5740063195e+00
 2.1868091298e-01	 1.4066353356e+00	-1.5649570110e+00
 2.0630037005e-01	 1.4085043304e+00	-1.5563285291e+00
 1.9393992748e-01	 1.4102594052e+00	-1.5481665076e+00
 1.8160099093e-01	 1.4119013317e+00	-1.5404404939e+00
 1.6928494410e-01	 1.4134309017e+00	-1.5330479787e+00
 1.5699314844e-01	 1.4148489260e+00	-1.5258188087e+00
 1.4472694290e-01	 1.4161562339e+00	-1.5185199273e+00
 1.3248764376e-01	 1.4173536725e+00	-1.5108603912e+00
 1.2027654434e-01	 1.4184421065e+00	-1.5024966097e+00
 2.4500601314e-01	 1.4112470756e+00	-1.5577878004e+00
 2.3251260305e-01	 1.4133591563e+00	-1.5495193516e+00
 2.2003652394e-01	 1.4153551195e+00	-1.5413196925e+00
 2.0757923358e-01	 1.4172357002e+00	-1.5333380552e+00
 1.9514216818e-01	 1.4190016547e+00	-1.5256391509e+00
 1.8272674211e-01	 1.4206537596e+00	-1.5182070589e+00
 1.7033434766e-01	 1.4221928115e+00	-1.5109495644e+00
 1.5796635470e-01	 1.4236196261e+00	-1.5037028914e+00
 1.4562411051e-01	 1.4249350381e+00	-1.4962367707e+00
 1.3330893950e-01	 1.4261398997e+00	-1.4882597909e+00
 1.2102214303e-01	 1.4272350809e+00	-1.4794249757e+00
 2.4651545727e-01	 1.4199415504e+00	-1.5407475209e+00
 2.3394507721e-01	 1.4220666433e+00	-1.5338043786e+00
 2.2139213491e-01	 1.4240749033e+00	-1.5266474734e+00
 2.0885809711e-01	 1.4259670700e+00	-1.5194545516e+00
 1.9634440887e-01	 1.4277439043e+00	-1.5123137006e+00
 1.8385249329e-01	 1.4294061875e+00	-1.5052275435e+00
 1.7138375121e-01	 1.4309547213e+00	-1.4981178964e+00
 1.5893956096e-01	 1.4323903263e+00	-1.4908308317e+00
 1.4652127812e-01	 1.4337138423e+00	-1.4831420851e+00
 1.3413023525e-01	 1.4349261269e+00	-1.4747627524e+00
 1.2176774173e-01	 1.4360280554e+00	-1.4653452166e+00
 1.1431175480e-01	 1.3480983111e+00	-2.0239575914e+00
 1.0273620124e-01	 1.3490298559e+00	-2.0184171910e+00
 9.1189804181e-02	 1.3498595259e+00	-2.0134545175e+00
 7.9673699552e-02	 1.3505881879e+00	-2.0092156632e+00
 6.8189001638e-02	 1.3512167222e+00	-2.0058201522e+00
 5.6736802946e-02	 1.3517460228e+00	-2.0033638335e+00
 4.5318174109e-02	 1.3521769965e+00	-2.0019217930e+00
 3.3934163799e-02	 1.3525105625e+00	-2.0015512589e+00
 2.2585798660e-02	 1.3527476514e+00	-2.0022944755e+00
 1.1274083250e-02	 1.3528892052e+00	-2.0041815209e+00
 0.0000000000e+00	 1.3529361765e+00	-2.0072330501e+00
 1.1505735349e-01	 1.3568912855e+00	-1.9249443568e+00
 1.0340629836e-01	 1.3578289063e+00	-1.9189418209e+00
 9.1784589896e-02	 1.3586639879e+00	-1.9136272518e+00
 8.0193371447e-02	 1.3593974025e+00	-1.9091630077e+00
 6.8633764564e-02	 1.3600300364e+00	-1.9056831040e+00
 5.7106868879e-02	 1.3605627894e+00	-1.9032963286e+00
 4.5613762008e-02	 1.3609965742e+00	-1.9020893740e+00
 3.4155499464e-02	 1.3613323158e+00	-1.9021299571e+00
 2.2733114586e-02	 1.3615709511e+00	-1.9034699019e+00
 1.1347618485e-02	 1.3617134283e+00	-1.9061481606e+00
 0.0000000000e+00	 1.3617607059e+00	-1.9101937511e+00
 1.1580295218e-01	 1.3656842599e+00	-1.8358370259e+00
 1.0407639548e-01	 1.3666279567e+00	-1.8294492217e+00
 9.2379375611e-02	 1.3674684499e+00	-1.8238264765e+00
 8.0713043343e-02	 1.3682066172e+00	-1.8191486945e+00
 6.9078527490e-02	 1.3688433507e+00	-1.8155657077e+00
 5.7476934812e-02	 1.3693795561e+00	-1.8132006193e+00
 4.5909349907e-02	 1.3698161518e+00	-1.8121531599e+00
 3.4376835129e-02	 1.3701540692e+00	-1.8125030273e+00
 2.2880430512e-02	 1.3703942509e+00	-1.8143131831e+00
 1.1421153720e-02	 1.3705376513e+00	-1.8176330803e+00
 0.0000000000e+00	 1.3705852353e+00	-1.8225017998e+00
 1.1654855087e-01	 1.3744772344e+00	-1.7565122449e+00
 1.0474649260e-01	 1.3754270071e+00	-1.7497882216e+00
 9.2974161327e-02	 1.3762729118e+00	-1.7438764436e+00
 8.1232715239e-02	 1.3770158318e+00	-1.7389754742e+00
 6.9523290417e-02	 1.3776566650e+00	-1.7352521193e+00
 5.7847000746e-02	 1.3781963227e+00	-1.7328450046e+00
 4.6204937807e-02	 1.3786357295e+00	-1.7318681618e+00
 3.4598170794e-02	 1.3789758225e+00	-1.7324145933e+00
 2.3027746439e-02	 1.3792175507e+00	-1.7345597873e+00
 1.1494688955e-02	 1.3793618744e+00	-1.7383651572e+00
 0.0000000000e+00	 1.3794097647e+00	-1.7438813813e+00
 1.1729414957e-01	 1.3832702088e+00	-1.6868493912e+00
 1.0541658971e-01	 1.3842260576e+00	-1.6798110425e+00
 9.3568947043e-02	 1.3850773738e+00	-1.6736054100e+00
 8.1752387136e-02	 1.3858250465e+00	-1.6684506620e+00
 6.9968053344e-02	 1.3864699792e+00	-1.6645315674e+00
 5.8217066680e-02	 1.3870130893e+00	-1.6620033129e+00
 4.6500525707e-02	 1.3874553072e+00	-1.6609953251e+00
 3.4819506460e-02	 1.3877975758e+00	-1.6616150657e+00
 2.3175062365e-02	 1.3880408504e+00	-1.6639517707e+00
 1.1568224191e-02	 1.3881860974e+00	-1.6680801061e+00
 0.0000000000e+00	 1.3882342941e+00	-1.6740637159e+00
 1.1803974826e-01	 1.3920631832e+00	-1.6267305045e+00
 1.0608668683e-01	 1.3930251080e+00	-1.6193732068e+00
 9.4163732759e-02	 1.3938818357e+00	-1.6128455222e+00
 8.2272059032e-02	 1.3946342611e+00	-1.6073860027e+00
 7.0412816271e-02	 1.3952832935e+00	-1.6031982006e+00
 5.8587132614e-02	 1.3958298560e+00	-1.6004547332e+00
 4.6796113607e-02	 1.3962748848e+00	-1.5993013465e+00
 3.5040842126e-02	 1.3966193292e+00	-1.5998609473e+00
 2.3322378292e-02	 1.3968641502e+00	-1.6022375723e+00
 1.1641759426e-02	 1.3970103204e+00	-1.6065202651e+00
 0.0000000000e+00	 1.3970588236e+00	-1.6127868374e+00
 1.1878534695e-01	 1.4008561577e+00	-1.5760402209e+00
 1.0675678395e-01	 1.4018241584e+00	-1.5683334478e+00
 9.4758518475e-02	 1.4026862977e+00	-1.5614327056e+00
 8.2791730928e-02	 1.4034434758e+00	-1.5555975404e+00
 7.0857579198e-02	 1.4040966078e+00	-1.5510509400e+00
 5.8957198548e-02	 1.4046466226e+00	-1.5479836522e+00
 4.7091701508e-02	 1.4050944625e+00	-1.5465584977e+00
 3.5262177791e-02	 1.4054410825e+00	-1.5469146451e+00
 2.3469694219e-02	 1.4056874499e+00	-1.5491718159e+00
 1.1715294662e-02	 1.4058345435e+00	-1.5534343889e+00
 0.0000000000e+00	 1.4058833530e+00	-1.5597953797e+00
 1.1953094565e-01	 1.4096491321e+00	-1.5346657092e+00
 1.0742688107e-01	 1.4106232089e+00	-1.5265536237e+00
 9.5353304191e-02	 1.4114907596e+00	-1.5192065576e+00
 8.3311402825e-02	 1.4122526905e+00	-1.5129054936e+00
 7.1302342125e-02	 1.4129099221e+00	-1.5078933375e+00
 5.9327264481e-02	 1.4134633892e+00	-1.5043794982e+00
 4.7387289408e-02	 1.4139140402e+00	-1.5025444564e+00
 3.5483513457e-02	 1.4142628359e+00	-1.5025442897e+00
 2.3617010145e-02	 1.4145107497e+00	-1.5045151198e+00
 1.1788829897e-02	 1.4146587665e+00	-1.5085774506e+00
 0.0000000000e+00	 1.4147078824e+00	-1.5148403716e+00
 1.2027654434e-01	 1.4184421065e+00	-1.5024966097e+00
 1.0809697818e-01	 1.4194222593e+00	-1.4938986345e+00
 9.5948089907e-02	 1.4202952216e+00	-1.4860102452e+00
 8.3831074721e-02	 1.4210619051e+00	-1.4791341344e+00
 7.1747105052e-02	 1.4217232363e+00	-1.4735334393e+00
 5.9697330415e-02	 1.4222801559e+00	-1.4694365901e+00
 4.7682877308e-02	 1.4227336178e+00	-1.4670421426e+00
 3.5704849122e-02	 1.4230845892e+00	-1.4665235611e+00
 2.3764326072e-02	 1.4233340495e+00	-1.4680339134e+00
 1.1862365133e-02	 1.4234829896e+00	-1.4717104506e+00
 0.0000000000e+00	 1.4235324118e+00	-1.4776790393e+00
 1.2102214303e-01	 1.4272350809e+00	-1.4794249757e+00
 1.0876707530e-01	 1.4282213097e+00	-1.4702363427e+00
 9.6542875622e-02	 1.4290996835e+00	-1.4616904059e+00
 8.4350746617e-02	 1.4298711198e+00	-1.4541116728e+00
 7.2191867979e-02	 1.4305365506e+00	-1.4477836546e+00
 6.0067396348e-02	 1.4310969225e+00	-1.4429539924e+00
 4.7978465207e-02	 1.4315531955e+00	-1.4398395621e+00
 3.5926184787e-02	 1.4319063426e+00	-1.4386315210e+00
 2.3911641998e-02	 1.4321573492e+00	-1.4395002605e+00
 1.1935900368e-02	 1.4323072126e+00	-1.4426002320e+00
 0.0000000000e+00	 1.4323569412e+00	-1.4480746158e+00
 1.2176774173e-01	 1.4360280554e+00	-1.4653452166e+00
 1.0943717242e-01	 1.4370203602e+00	-1.4554374957e+00
 9.7137661338e-02	 1.4379041455e+00	-1.4460970528e+00
 8.4870418512e-02	 1.4386803344e+00	-1.4376701447e+00
 7.2636630905e-02	 1.4393498649e+00	-1.4304606288e+00
 6.0437462281e-02	 1.4399136891e+00	-1.4247353757e+00
 4.8274053106e-02	 1.4403727731e+00	-1.4207296545e+00
 3.6147520452e-02	 1.4407280959e+00	-1.4186524518e+00
 2.4058957924e-02	 1.4409806490e+00	-1.4186916894e+00
 1.2009435603e-02	 1.4411314357e+00	-1.4210193035e+00
 0.0000000000e+00	 1.4411814706e+00	-1.4257961576e+00
 1.4411814706e+00	 0.0000000000e+00	 3.9040671800e+00
 1.4411314357e+00	 1.2009435603e-02	 3.9028176603e+00
 1.4409806490e+00	 2.4058957924e-02	 3.9001940351e+00
 1.4407280959e+00	 3.6147520452e-02	 3.8960614721e+00
 1.4403727731e+00	 4.8274053106e-02	 3.8902604288e+00
 1.4399136891e+00	 6.0437462281e-02	 3.8826024260e+00
 1.4393498649e+00	 7.2636630905e-02	 3.8728657003e+00
 1.4386803344e+00	 8.4870418512e-02	 3.8607907609e+00
 1.4379041455e+00	 9.7137661338e-02	 3.8460758741e+00
 1.4370203602e+00	 1.0943717242e-01	 3.8283725038e+00
 1.4360280554e+00	 1.2176774173e-01	 3.8072807380e+00
 1.4500045000e+00	 0.0000000000e+00	 3.9270224039e+00
 1.4499541587e+00	 1.2082958338e-02	 3.9264499298e+00
 1.4498024489e+00	 2.4206248808e-02	 3.9245398596e+00
 1.4495483497e+00	 3.6368818493e-02	 3.9211372454e+00
 1.4491908516e+00	 4.8569590760e-02	 3.9160629041e+00
 1.4487289571e+00	 6.0807465309e-02	 3.9091090323e+00
 1.4481616810e+00	 7.3081318229e-02	 3.9000346920e+00
 1.4474880517e+00	 8.5390002073e-02	 3.8885611881e+00
 1.4467071109e+00	 9.7732345950e-02	 3.8743673651e+00
 1.4458179149e+00	 1.1010715563e-01	 3.8570848507e+00
 1.4448195352e+00	 1.2251321368e-01	 3.8362932769e+00
 1.4588275294e+00	 0.0000000000e+00	 3.9250515845e+00
 1.4587768818e+00	 1.2156481073e-02	 3.9243656220e+00
 1.4586242489e+00	 2.4353539692e-02	 3.9224708110e+00
 1.4583686035e+00	 3.6590116533e-02	 3.9192002758e+00
 1.4580089301e+00	 4.8865128414e-02	 3.9143634221e+00
 1.4575442250e+00	 6.1177468337e-02	 3.9077413803e+00
 1.4569734972e+00	 7.3526005553e-02	 3.8990823064e+00
 1.4562957689e+00	 8.5909585633e-02	 3.8880965657e+00
 1.4555100762e+00	 9.8327030562e-02	 3.8744518235e+00
 1.4546154697e+00	 1.1077713885e-01	 3.8577680741e+00
 1.4536110149e+00	 1.2325868564e-01	 3.8376126388e+00
 1.4676505588e+00	 0.0000000000e+00	 3.8981701685e+00
 1.4675996049e+00	 1.2230003808e-02	 3.8965825305e+00
 1.4674460489e+00	 2.4500830576e-02	 3.8940044507e+00
 1.4671888574e+00	 3.6811414574e-02	 3.8902652687e+00
 1.4668270086e+00	 4.9160666067e-02	 3.8851711681e+00
 1.4663594930e+00	 6.1547471364e-02	 3.8785004321e+00
 1.4657853134e+00	 7.3970692876e-02	 3.8699985455e+00
 1.4651034862e+00	 8.6429169193e-02	 3.8593731659e+00
 1.4643130416e+00	 9.8921715174e-02	 3.8462889928e+00
 1.4634130244e+00	 1.1144712206e-01	 3.8303625634e+00
 1.4624024947e+00	 1.2400415759e-01	 3.8111570086e+00
 1.4764735882e+00	 0.0000000000e+00	 3.8463943329e+00
 1.4764223280e+00	 1.2303526542e-02	 3.8431192922e+00
 1.4762678488e+00	 2.4648121460e-02	 3.8391593202e+00
 1.4760091112e+00	 3.7032712614e-02	 3.8343480748e+00
 1.4756450871e+00	 4.9456203720e-02	 3.8284966695e+00
 1.4751747609e+00	 6.1917474391e-02	 3.8213887259e+00
 1.4745971296e+00	 7.4415380199e-02	 3.8127752605e+00
 1.4739112034e+00	 8.6948752753e-02	 3.8023694279e+00
 1.4731160069e+00	 9.9516399786e-02	 3.7898411498e+00
 1.4722105792e+00	 1.1211710527e-01	 3.7748116599e+00
 1.4711939745e+00	 1.2474962954e-01	 3.7568479991e+00
 1.4852966177e+00	 0.0000000000e+00	 3.7738301620e+00
 1.4852450511e+00	 1.2377049277e-02	 3.7681120579e+00
 1.4850896488e+00	 2.4795412343e-02	 3.7618621807e+00
 1.4848293650e+00	 3.7254010654e-02	 3.7549332772e+00
 1.4844631656e+00	 4.9751741372e-02	 3.7471821540e+00
 1.4839900289e+00	 6.2287477417e-02	 3.7384681710e+00
 1.4834089457e+00	 7.4860067522e-02	 3.7286513769e+00
 1.4827189207e+00	 8.7468336312e-02	 3.7175902501e+00
 1.4819189723e+00	 1.0011108440e-01	 3.7051390108e+00
 1.4810081339e+00	 1.1278708848e-01	 3.6910615704e+00
 1.4799854543e+00	 1.2549510150e-01	 3.6746105459e+00
 1.4941196471e+00	 0.0000000000e+00	 3.7131538619e+00
 1.4940677742e+00	 1.2450572012e-02	 3.7053327232e+00
 1.4939114487e+00	 2.4942703227e-02	 3.6968528361e+00
 1.4936496188e+00	 3.7475308694e-02	 3.6875279107e+00
 1.4932812441e+00	 5.0047279025e-02	 3.6771784943e+00
 1.4928052968e+00	 6.2657480444e-02	 3.6656306782e+00
 1.4922207619e+00	 7.5304754845e-02	 3.6527144463e+00
 1.4915266379e+00	 8.7987919871e-02	 3.6382616280e+00
 1.4907219377e+00	 1.0070576901e-01	 3.6221034179e+00
 1.4898056887e+00	 1.1345707170e-01	 3.6040674258e+00
 1.4887769341e+00	 1.2624057345e-01	 3.5839742145e+00
 1.5029426765e+00	 0.0000000000e+00	 3.6713596312e+00
 1.5028904973e+00	 1.2524094746e-02	 3.6621826071e+00
 1.5027332487e+00	 2.5089994111e-02	 3.6522656050e+00
 1.5024698726e+00	 3.7696606734e-02	 3.6413875714e+00
 1.5020993226e+00	 5.0342816678e-02	 3.6293370901e+00
 1.5016205648e+00	 6.3027483470e-02	 3.6159113043e+00
 1.5010325781e+00	 7.5749442167e-02	 3.6009144803e+00
 1.5003343552e+00	 8.8507503430e-02	 3.5841561740e+00
 1.4995249030e+00	 1.0130045362e-01	 3.5654489622e+00
 1.4986032435e+00	 1.1412705491e-01	 3.5446056991e+00
 1.4975684139e+00	 1.2698604541e-01	 3.5214362554e+00
 1.5117657059e+00	 0.0000000000e+00	 3.6483542667e+00
 1.5117132204e+00	 1.2597617481e-02	 3.6385805576e+00
 1.5115550487e+00	 2.5237284994e-02	 3.6280290108e+00
 1.5112901264e+00	 3.7917904774e-02	 3.6164479300e+00
 1.5109174011e+00	 5.0638354330e-02	 3.6035980772e+00
 1.5104358327e+00	 6.3397486497e-02	 3.5892518127e+00
 1.5098443942e+00	 7.6194129490e-02	 3.5731918762e+00
 1.5091420724e+00	 8.9027086989e-02	 3.5552097693e+00
 1.5083278684e+00	 1.0189513823e-01	 3.5351037011e+00
 1.5074007982e+00	 1.1479703812e-01	 3.5126760541e+00
 1.5063598937e+00	 1.2773151736e-01	 3.4877303279e+00
 1.5205887353e+00	 0.0000000000e+00	 3.6440451946e+00
 1.5205359435e+00	 1.2671140216e-02	 3.6344457738e+00
 1.5203768486e+00	 2.5384575878e-02	 3.6240717076e+00
 1.5201103802e+00	 3.8139202814e-02	 3.6126446253e+00
 1.5197354796e+00	 5.0933891983e-02	 3.5999014561e+00
 1.5192511007e+00	 6.3767489523e-02	 3.5855937881e+00
 1.5186562104e+00	 7.6638816813e-02	 3.5694868698e+00
 1.5179497897e+00	 8.9546670548e-02	 3.5513582120e+00
 1.5171308337e+00	 1.0248982284e-01	 3.5309957498e+00
 1.5161983530e+00	 1.1546702133e-01	 3.5081955215e+00
 1.5151513734e+00	 1.2847698931e-01	 3.4827588199e+00
 1.5294117647e+00	 0.0000000000e+00	 3.6583404524e+00
 1.5293586666e+00	 1.2744662951e-02	 3.6496977893e+00
 1.5291986486e+00	 2.5531866762e-02	 3.6403224628e+00
 1.5289306340e+00	 3.8360500855e-02	 3.6299132465e+00
 1.5285535581e+00	 5.1229429637e-02	 3.6181870726e+00
 1.5280663686e+00	 6.4137492550e-02	 3.6048786144e+00
 1.5274680266e+00	 7.7083504135e-02	 3.5897395101e+00
 1.5267575069e+00	 9.0066254107e-02	 3.5725371872e+00
 1.5259337991e+00	 1.0308450745e-01	 3.5530532448e+00
 1.5249959077e+00	 1.1613700454e-01	 3.5310813485e+00
 1.5239428532e+00	 1.2922246127e-01	 3.5064245935e+00
 1.4360280554e+00	 1.2176774173e-01	 3.8072807380e+00
 1.4349261269e+00	 1.3413023525e-01	 3.7821849245e+00
 1.4337138423e+00	 1.4652127812e-01	 3.7530632444e+00
 1.4323903263e+00	 1.5893956096e-01	 3.7203080944e+00
 1.4309547213e+00	 1.7138375121e-01	 3.6842468684e+00
 1.4294061875e+00	 1.8385249329e-01	 3.6451366127e+00
 1.4277439043e+00	 1.9634440887e-01	 3.6031588619e+00
 1.4259670700e+00	 2.0885809711e-01	 3.5584146996e+00
 1.4240749033e+00	 2.2139213491e-01	 3.5109200920e+00
 1.4220666433e+00	 2.3394507721e-01	 3.4606015452e+00
 1.4199415504e+00	 2.4651545727e-01	 3.4072921347e+00
 1.4448195352e+00	 1.2251321368e-01	 3.8362932769e+00
 1.4437108606e+00	 1.3495139139e-01	 3.8112973473e+00
 1.4424911543e+00	 1.4741829322e-01	 3.7820133375e+00
 1.4411595356e+00	 1.5991260180e-01	 3.7488383046e+00
 1.4397151417e+00	 1.7243297638e-01	 3.7121027228e+00
 1.4381571277e+00	 1.8497805311e-01	 3.6720648610e+00
 1.4364846678e+00	 1.9754644521e-01	 3.6289053376e+00
 1.4346969556e+00	 2.1013674326e-01	 3.5827219006e+00
 1.4327932049e+00	 2.2274751545e-01	 3.5335244827e+00
 1.4307726502e+00	 2.3537730787e-01	 3.4812305817e+00
 1.4286345473e+00	 2.4802464481e-01	 3.4256610194e+00
 1.4536110149e+00	 1.2325868564e-01	 3.8376126388e+00
 1.4524955943e+00	 1.3577254752e-01	 3.8132135051e+00
 1.4512684663e+00	 1.4831530833e-01	 3.7844201170e+00
 1.4499287449e+00	 1.6088564264e-01	 3.7516306092e+00
 1.4484755621e+00	 1.7348220156e-01	 3.7151748086e+00
 1.4469080679e+00	 1.8610361293e-01	 3.6753083268e+00
 1.4452254314e+00	 1.9874848154e-01	 3.6322068271e+00
 1.4434268413e+00	 2.1141538940e-01	 3.5859605170e+00
 1.4415115065e+00	 2.2410289599e-01	 3.5365689165e+00
 1.4394786571e+00	 2.3680953854e-01	 3.4839359555e+00
 1.4373275442e+00	 2.4953383236e-01	 3.4278654546e+00
 1.4624024947e+00	 1.2400415759e-01	 3.8111570086e+00
 1.4612803280e+00	 1.3659370366e-01	 3.7878276532e+00
 1.4600457783e+00	 1.4921232343e-01	 3.7601534605e+00
 1.4586979543e+00	 1.6185868347e-01	 3.7285302545e+00
 1.4572359825e+00	 1.7453142673e-01	 3.6932836846e+00
 1.4556590081e+00	 1.8722917275e-01	 3.6546630240e+00
 1.4539661949e+00	 1.9995051788e-01	 3.6128351422e+00
 1.4521567269e+00	 2.1269403555e-01	 3.5678787020e+00
 1.4502298082e+00	 2.2545827653e-01	 3.5197786335e+00
 1.4481846640e+00	 2.3824176920e-01	 3.4684209411e+00
 1.4460205411e+00	 2.5104301991e-01	 3.4135878981e+00
 1.4711939745e+00	 1.2474962954e-01	 3.7568479991e+00
 1.4700650617e+00	 1.3741485980e-01	 3.7350379845e+00
 1.4688230902e+00	 1.5010933854e-01	 3.7090876996e+00
 1.4674671636e+00	 1.6283172431e-01	 3.6793874643e+00
 1.4659964030e+00	 1.7558065191e-01	 3.6462554157e+00
 1.4644099482e+00	 1.8835473257e-01	 3.6099310063e+00
 1.4627069585e+00	 2.0115255422e-01	 3.5705686725e+00
 1.4608866125e+00	 2.1397268170e-01	 3.5282317287e+00
 1.4589481098e+00	 2.2681365707e-01	 3.4828865391e+00
 1.4568906709e+00	 2.3967399987e-01	 3.4343970257e+00
 1.4547135380e+00	 2.5255220746e-01	 3.3825195700e+00
 1.4799854543e+00	 1.2549510150e-01	 3.6746105459e+00
 1.4788497954e+00	 1.3823601594e-01	 3.6547465042e+00
 1.4776004022e+00	 1.5100635364e-01	 3.6311014744e+00
 1.4762363729e+00	 1.6380476514e-01	 3.6040572723e+00
 1.4747568234e+00	 1.7662987708e-01	 3.5739213843e+00
 1.4731608884e+00	 1.8948029239e-01	 3.5409201567e+00
 1.4714477220e+00	 2.0235459056e-01	 3.5051921528e+00
 1.4696164981e+00	 2.1525132785e-01	 3.4667817350e+00
 1.4676664114e+00	 2.2816903761e-01	 3.4256329258e+00
 1.4655966777e+00	 2.4110623054e-01	 3.3815836088e+00
 1.4634065349e+00	 2.5406139501e-01	 3.3343601288e+00
 1.4887769341e+00	 1.2624057345e-01	 3.5839742145e+00
 1.4876345291e+00	 1.3905717208e-01	 3.5610678830e+00
 1.4863777142e+00	 1.5190336875e-01	 3.5352324173e+00
 1.4850055822e+00	 1.6477780598e-01	 3.5072167377e+00
 1.4835172438e+00	 1.7767910225e-01	 3.4777465273e+00
 1.4819118286e+00	 1.9060585221e-01	 3.4475162717e+00
 1.4801884855e+00	 2.0355662689e-01	 3.4164964373e+00
 1.4783463837e+00	 2.1652997400e-01	 3.3832974754e+00
 1.4763847130e+00	 2.2952441815e-01	 3.3477652029e+00
 1.4743026846e+00	 2.4253846121e-01	 3.3097077092e+00
 1.4720995319e+00	 2.5557058256e-01	 3.2688173571e+00
 1.4975684139e+00	 1.2698604541e-01	 3.5214362554e+00
 1.4964192628e+00	 1.3987832822e-01	 3.4951046312e+00
 1.4951550262e+00	 1.5280038385e-01	 3.4653954746e+00
 1.4937747915e+00	 1.6575084681e-01	 3.4330230712e+00
 1.4922776642e+00	 1.7872832743e-01	 3.3986831423e+00
 1.4906627688e+00	 1.9173141203e-01	 3.3630450648e+00
 1.4889292491e+00	 2.0475866323e-01	 3.3267432764e+00
 1.4870762694e+00	 2.1780862014e-01	 3.2903678207e+00
 1.4851030147e+00	 2.3087979869e-01	 3.2544539901e+00
 1.4830086915e+00	 2.4397069187e-01	 3.2194710218e+00
 1.4807925288e+00	 2.5707977011e-01	 3.1856068560e+00
 1.5063598937e+00	 1.2773151736e-01	 3.4877303279e+00
 1.5052039965e+00	 1.4069948436e-01	 3.4593562985e+00
 1.5039323382e+00	 1.5369739896e-01	 3.4272379225e+00
 1.5025440008e+00	 1.6672388765e-01	 3.3920490658e+00
 1.5010380847e+00	 1.7977755260e-01	 3.3544497473e+00
 1.4994137089e+00	 1.9285697185e-01	 3.3150785575e+00
 1.4976700126e+00	 2.0596069957e-01	 3.2745442442e+00
 1.4958061550e+00	 2.1908726629e-01	 3.2334164227e+00
 1.4938213163e+00	 2.3223517923e-01	 3.1922153633e+00
 1.4917146984e+00	 2.4540292254e-01	 3.1514008104e+00
 1.4894855257e+00	 2.5858895766e-01	 3.1113597909e+00
 1.5151513734e+00	 1.2847698931e-01	 3.4827588199e+00
 1.5139887301e+00	 1.4152064050e-01	 3.4537079118e+00
 1.5127096502e+00	 1.5459441406e-01	 3.4206256781e+00
 1.5113132102e+00	 1.6769692849e-01	 3.3841398110e+00
 1.5097985051e+00	 1.8082677778e-01	 3.3448689225e+00
 1.5081646491e+00	 1.9398253167e-01	 3.3034151752e+00
 1.5064107762e+00	 2.0716273591e-01	 3.2603560678e+00
 1.5045360406e+00	 2.2036591244e-01	 3.2162353258e+00
 1.5025396179e+00	 2.3359055977e-01	 3.1715528508e+00
 1.5004207053e+00	 2.4683515321e-01	 3.1267536798e+00
 1.4981785226e+00	 2.6009814521e-01	 3.0822159087e+00
 1.5239428532e+00	 1.2922246127e-01	 3.5064245935e+00
 1.5227734638e+00	 1.4234179663e-01	 3.4780452688e+00
 1.5214869622e+00	 1.5549142916e-01	 3.4454257384e+00
 1.5200824195e+00	 1.6866996932e-01	 3.4091417959e+00
 1.5185589255e+00	 1.8187600295e-01	 3.3697649712e+00
 1.5169155893e+00	 1.9510809149e-01	 3.3278553919e+00
 1.5151515397e+00	 2.0836477224e-01	 3.2839537841e+00
 1.5132659262e+00	 2.2164455859e-01	 3.2385725618e+00
 1.5112579195e+00	 2.3494594031e-01	 3.1921859548e+00
 1.5091267122e+00	 2.4826738388e-01	 3.1452191251e+00
 1.5068715195e+00	 2.6160733276e-01	 3.0980362237e+00
 1.4199415504e+00	 2.4651545727e-01	 3.4072921347e+00
 1.4176992982e+00	 2.5909964687e-01	 3.3519454688e+00
 1.4153388396e+00	 2.7169827581e-01	 3.2956167117e+00
 1.4128595019e+00	 2.8430981862e-01	 3.2381650626e+00
 1.4102606362e+00	 2.9693272962e-01	 3.1793385738e+00
 1.4075416178e+00	 3.0956544337e-01	 3.1187723397e+00
 1.4047018470e+00	 3.2220637509e-01	 3.0559873800e+00
 1.4017407496e+00	 3.3485392108e-01	 2.9903902696e+00
 1.3986577775e+00	 3.4750645917e-01	 2.9212735709e+00
 1.3954524094e+00	 3.6016234922e-01	 2.8478171207e+00
 1.3921241513e+00	 3.7281993362e-01	 2.7690296924e+00
 1.4286345473e+00	 2.4802464481e-01	 3.4256610194e+00
 1.4263785678e+00	 2.6068587584e-01	 3.3676817579e+00
 1.4240036583e+00	 2.7336163461e-01	 3.3083390940e+00
 1.4215091420e+00	 2.8605038630e-01	 3.2475931774e+00
 1.4188943658e+00	 2.9875057578e-01	 3.1852878838e+00
 1.4161587013e+00	 3.1146062803e-01	 3.1211486028e+00
 1.4133015452e+00	 3.2417894856e-01	 3.0547807348e+00
 1.4103223197e+00	 3.3690392384e-01	 2.9856689513e+00
 1.4072204734e+00	 3.4963392179e-01	 2.9131772773e+00
 1.4039954818e+00	 3.6236729222e-01	 2.8365500506e+00
 1.4006468478e+00	 3.7510236738e-01	 2.7546737768e+00
 1.4373275442e+00	 2.4953383236e-01	 3.4278654546e+00
 1.4350578375e+00	 2.6227210481e-01	 3.3691091082e+00
 1.4326684771e+00	 2.7502499341e-01	 3.3086603672e+00
 1.4301587820e+00	 2.8779095398e-01	 3.2465484441e+00
 1.4275280953e+00	 3.0056842194e-01	 3.1826811309e+00
 1.4247757848e+00	 3.1335581269e-01	 3.1168422180e+00
 1.4219012434e+00	 3.2615152202e-01	 3.0486896372e+00
 1.4189038898e+00	 3.3895392660e-01	 2.9777543867e+00
 1.4157831693e+00	 3.5176138441e-01	 2.9034402984e+00
 1.4125385542e+00	 3.6457223523e-01	 2.8250247060e+00
 1.4091695444e+00	 3.7738480114e-01	 2.7411057016e+00
 1.4460205411e+00	 2.5104301991e-01	 3.4135878981e+00
 1.4437371071e+00	 2.6385833379e-01	 3.3558946894e+00
 1.4413332958e+00	 2.7668835221e-01	 3.2962426496e+00
 1.4388084220e+00	 2.8953152166e-01	 3.2346988663e+00
 1.4361618249e+00	 3.0238626810e-01	 3.1712038380e+00
 1.4333928683e+00	 3.1525099734e-01	 3.1055685538e+00
 1.4305009416e+00	 3.2812409548e-01	 3.0374723155e+00
 1.4274854599e+00	 3.4100392936e-01	 2.9664613593e+00
 1.4243458653e+00	 3.5388884703e-01	 2.8919483432e+00
 1.4210816266e+00	 3.6677717823e-01	 2.8132127576e+00
 1.4176922409e+00	 3.7966723490e-01	 2.7283837286e+00
 1.4547135380e+00	 2.5255220746e-01	 3.3825195700e+00
 1.4524163768e+00	 2.6544456276e-01	 3.3277148845e+00
 1.4499981145e+00	 2.7835171101e-01	 3.2707575157e+00
 1.4474580620e+00	 2.9127208935e-01	 3.2117219272e+00
 1.4447955545e+00	 3.0420411427e-01	 3.1505507976e+00
 1.4420099519e+00	 3.1714618200e-01	 3.0870517933e+00
 1.4391006398e+00	 3.3009666894e-01	 3.0208950986e+00
 1.4360670301e+00	 3.4305393212e-01	 2.9516117686e+00
 1.4329085612e+00	 3.5601630965e-01	 2.8785929677e+00
 1.4296246990e+00	 3.6898212123e-01	 2.8010901585e+00
 1.4262149375e+00	 3.8194966865e-01	 2.7165691974e+00
 1.4634065349e+00	 2.5406139501e-01	 3.3343601288e+00
 1.4610956464e+00	 2.6703079174e-01	 3.2842549455e+00
 1.4586629333e+00	 2.8001506981e-01	 3.2318856395e+00
 1.4561077021e+00	 2.9301265703e-01	 3.1773042259e+00
 1.4534292840e+00	 3.0602196043e-01	 3.1204257098e+00
 1.4506270354e+00	 3.1904136666e-01	 3.0610245804e+00
 1.4477003380e+00	 3.3206924241e-01	 2.9987320803e+00
 1.4446486002e+00	 3.4510393488e-01	 2.9330343200e+00
 1.4414712571e+00	 3.5814377228e-01	 2.8632713007e+00
 1.4381677714e+00	 3.7118706424e-01	 2.7886287440e+00
 1.4347376340e+00	 3.8423210241e-01	 2.7057264141e+00
 1.4720995319e+00	 2.5557058256e-01	 3.2688173571e+00
 1.4697749161e+00	 2.6861702071e-01	 3.2252086605e+00
 1.4673277520e+00	 2.8167842861e-01	 3.1793164478e+00
 1.4647573421e+00	 2.9475322471e-01	 3.1311411252e+00
 1.4620630136e+00	 3.0783980660e-01	 3.0805408305e+00
 1.4592441189e+00	 3.2093655132e-01	 3.0272276768e+00
 1.4563000362e+00	 3.3404181587e-01	 2.9707647918e+00
 1.4532301703e+00	 3.4715393765e-01	 2.9105642224e+00
 1.4500339530e+00	 3.6027123490e-01	 2.8458857746e+00
 1.4467108438e+00	 3.7339200724e-01	 2.7757152765e+00
 1.4432603305e+00	 3.8651453617e-01	 2.6959225437e+00
 1.4807925288e+00	 2.5707977011e-01	 3.1856068560e+00
 1.4784541858e+00	 2.7020324969e-01	 3.1502780289e+00
 1.4759925707e+00	 2.8334178740e-01	 3.1127477836e+00
 1.4734069821e+00	 2.9649379240e-01	 3.0729364084e+00
 1.4706967432e+00	 3.0965765276e-01	 3.0306166288e+00
 1.4678612024e+00	 3.2283173597e-01	 2.9854096279e+00
 1.4648997344e+00	 3.3601438933e-01	 2.9367818834e+00
 1.4618117405e+00	 3.4920394041e-01	 2.8840428936e+00
 1.4585966490e+00	 3.6239869752e-01	 2.8263438634e+00
 1.4552539162e+00	 3.7559695024e-01	 2.7623010038e+00
 1.4517830271e+00	 3.8879696993e-01	 2.6872275031e+00
 1.4894855257e+00	 2.5858895766e-01	 3.1113597909e+00
 1.4871334554e+00	 2.7178947866e-01	 3.0726579348e+00
 1.4846573895e+00	 2.8500514620e-01	 3.0361545608e+00
 1.4820566222e+00	 2.9823436008e-01	 3.0025401058e+00
 1.4793304727e+00	 3.1147549892e-01	 2.9703814547e+00
 1.4764782859e+00	 3.2472692063e-01	 2.9353264367e+00
 1.4734994326e+00	 3.3798696279e-01	 2.8965788140e+00
 1.4703933106e+00	 3.5125394317e-01	 2.8533176727e+00
 1.4671593449e+00	 3.6452616014e-01	 2.8045578263e+00
 1.4637969887e+00	 3.7780189324e-01	 2.7483674261e+00
 1.4603057236e+00	 3.9107940368e-01	 2.6797138585e+00
 1.4981785226e+00	 2.6009814521e-01	 3.0822159087e+00
 1.4958127251e+00	 2.7337570764e-01	 3.0383713866e+00
 1.4933222082e+00	 2.8666850500e-01	 2.9959000698e+00
 1.4907062622e+00	 2.9997492776e-01	 2.9554267817e+00
 1.4879642023e+00	 3.1329334509e-01	 2.9174421478e+00
 1.4850953694e+00	 3.2662210529e-01	 2.8822838619e+00
 1.4820991308e+00	 3.3995953626e-01	 2.8501166723e+00
 1.4789748807e+00	 3.5330394593e-01	 2.8182415392e+00
 1.4757220408e+00	 3.6665362276e-01	 2.7804444564e+00
 1.4723400611e+00	 3.8000683624e-01	 2.7339003144e+00
 1.4688284202e+00	 3.9336183744e-01	 2.6734567235e+00
 1.5068715195e+00	 2.6160733276e-01	 3.0980362237e+00
 1.5044919947e+00	 2.7496193661e-01	 3.0509395737e+00
 1.5019870269e+00	 2.8833186380e-01	 3.0044195454e+00
 1.4993559022e+00	 3.0171549544e-01	 2.9590080614e+00
 1.4965979319e+00	 3.1511119125e-01	 2.9151098247e+00
 1.4937124529e+00	 3.2851728995e-01	 2.8729836991e+00
 1.4906988290e+00	 3.4193210972e-01	 2.8327227706e+00
 1.4875564508e+00	 3.5535394869e-01	 2.7942330608e+00
 1.4842847367e+00	 3.6878108538e-01	 2.7572108641e+00
 1.4808831335e+00	 3.8221177925e-01	 2.7188895694e+00
 1.4773511167e+00	 3.9564427119e-01	 2.6685336606e+00
 1.3921241513e+00	 3.7281993362e-01	 2.7690296924e+00
 1.3886725372e+00	 3.8547753797e-01	 2.6880614299e+00
 1.3850971308e+00	 3.9813347216e-01	 2.6093820691e+00
 1.3813975249e+00	 4.1078603044e-01	 2.5323792422e+00
 1.3775733421e+00	 4.2343349180e-01	 2.4564929610e+00
 1.3736242346e+00	 4.3607412057e-01	 2.3812247863e+00
 1.3695498853e+00	 4.4870616704e-01	 2.3061464820e+00
 1.3653500079e+00	 4.6132786810e-01	 2.2309080729e+00
 1.3610243479e+00	 4.7393744782e-01	 2.1552452301e+00
 1.3565726823e+00	 4.8653311820e-01	 2.0789859074e+00
 1.3519948207e+00	 4.9911307980e-01	 2.0020561549e+00
 1.4006468478e+00	 3.7510236738e-01	 2.7546737768e+00
 1.3971741027e+00	 3.8783746261e-01	 2.6705523373e+00
 1.3935768073e+00	 4.0057087745e-01	 2.5892206151e+00
 1.3898545522e+00	 4.1330089571e-01	 2.5100291871e+00
 1.3860069574e+00	 4.2602578585e-01	 2.4323833311e+00
 1.3820336731e+00	 4.3874380157e-01	 2.3557526554e+00
 1.3779343803e+00	 4.5145318246e-01	 2.2796801888e+00
 1.3737087910e+00	 4.6415215458e-01	 2.2037908492e+00
 1.3693566489e+00	 4.7683893117e-01	 2.1277992090e+00
 1.3648777299e+00	 4.8951171327e-01	 2.0515164781e+00
 1.3602718422e+00	 5.0216869040e-01	 1.9748566292e+00
 1.4091695444e+00	 3.7738480114e-01	 2.7411057016e+00
 1.4056756681e+00	 3.9019738724e-01	 2.6547201616e+00
 1.4020564839e+00	 4.0300828274e-01	 2.5713992611e+00
 1.3983115795e+00	 4.1581576098e-01	 2.4904738476e+00
 1.3944405727e+00	 4.2861807990e-01	 2.4113318222e+00
 1.3904431117e+00	 4.4141348257e-01	 2.3334282174e+00
 1.3863188754e+00	 4.5420019787e-01	 2.2562947118e+00
 1.3820675741e+00	 4.6697644107e-01	 2.1795484949e+00
 1.3776889500e+00	 4.7974041452e-01	 2.1029003980e+00
 1.3731827774e+00	 4.9249030833e-01	 2.0261622083e+00
 1.3685488637e+00	 5.0522430101e-01	 1.9492530871e+00
 1.4176922409e+00	 3.7966723490e-01	 2.7283837286e+00
 1.4141772336e+00	 3.9255731188e-01	 2.6407280007e+00
 1.4105361604e+00	 4.0544568802e-01	 2.5561799034e+00
 1.4067686067e+00	 4.1833062625e-01	 2.4740673341e+00
 1.4028741880e+00	 4.3121037395e-01	 2.3937776349e+00
 1.3988525502e+00	 4.4408316357e-01	 2.3147681094e+00
 1.3947033704e+00	 4.5694721328e-01	 2.2365759499e+00
 1.3904263571e+00	 4.6980072755e-01	 2.1588274867e+00
 1.3860212510e+00	 4.8264189788e-01	 2.0812466693e+00
 1.3814878250e+00	 4.9546890339e-01	 2.0036626967e+00
 1.3768258853e+00	 5.0827991161e-01	 1.9260167117e+00
 1.4262149375e+00	 3.8194966865e-01	 2.7165691974e+00
 1.4226787991e+00	 3.9491723651e-01	 2.6287399292e+00
 1.4190158370e+00	 4.0788309331e-01	 2.5438234237e+00
 1.4152256340e+00	 4.2084549152e-01	 2.4611608673e+00
 1.4113078033e+00	 4.3380266800e-01	 2.3801553296e+00
 1.4072619888e+00	 4.4675284457e-01	 2.3002827095e+00
 1.4030878655e+00	 4.5969422869e-01	 2.2211020648e+00
 1.3987851402e+00	 4.7262501404e-01	 2.1422652331e+00
 1.3943535520e+00	 4.8554338123e-01	 2.0635256515e+00
 1.3897928726e+00	 4.9844749846e-01	 1.9847462874e+00
 1.3851029068e+00	 5.1133552222e-01	 1.9059065933e+00
 1.4347376340e+00	 3.8423210241e-01	 2.7057264141e+00
 1.4311803646e+00	 3.9727716114e-01	 2.6189209425e+00
 1.4274955135e+00	 4.1032049859e-01	 2.5345896827e+00
 1.4236826613e+00	 4.2336035679e-01	 2.4521028169e+00
 1.4197414186e+00	 4.3639496205e-01	 2.3708949046e+00
 1.4156714273e+00	 4.4942252558e-01	 2.2904762491e+00
 1.4114723605e+00	 4.6244124410e-01	 2.2104436200e+00
 1.4071439233e+00	 4.7544930052e-01	 2.1304902350e+00
 1.4026858530e+00	 4.8844486458e-01	 2.0504149053e+00
 1.3980979202e+00	 5.0142609352e-01	 1.9701302532e+00
 1.3933799283e+00	 5.1439113282e-01	 1.8896699120e+00
 1.4432603305e+00	 3.8651453617e-01	 2.6959225437e+00
 1.4396819301e+00	 3.9963708578e-01	 2.6114369011e+00
 1.4359751901e+00	 4.1275790388e-01	 2.5287375125e+00
 1.4321396885e+00	 4.2587522206e-01	 2.4472387372e+00
 1.4281750339e+00	 4.3898725610e-01	 2.3664218693e+00
 1.4240808659e+00	 4.5209220658e-01	 2.2858469177e+00
 1.4198568556e+00	 4.6518825951e-01	 2.2051637124e+00
 1.4155027064e+00	 4.7827358701e-01	 2.1241222369e+00
 1.4110181541e+00	 4.9134634793e-01	 2.0425820879e+00
 1.4064029677e+00	 5.0440468858e-01	 1.9605209669e+00
 1.4016569499e+00	 5.1744674343e-01	 1.8780421096e+00
 1.4517830271e+00	 3.8879696993e-01	 2.6872275031e+00
 1.4481834955e+00	 4.0199701041e-01	 2.6064544750e+00
 1.4444548666e+00	 4.1519530916e-01	 2.5265247073e+00
 1.4405967158e+00	 4.2839008733e-01	 2.4469113985e+00
 1.4366086492e+00	 4.4157955015e-01	 2.3671573118e+00
 1.4324903045e+00	 4.5476188758e-01	 2.2868869616e+00
 1.4282413507e+00	 4.6793527492e-01	 2.2058180957e+00
 1.4238614894e+00	 4.8109787349e-01	 2.1237723693e+00
 1.4193504551e+00	 4.9424783128e-01	 2.0406851085e+00
 1.4147080153e+00	 5.0738328364e-01	 1.9566140626e+00
 1.4099339714e+00	 5.2050235403e-01	 1.8717470503e+00
 1.4603057236e+00	 3.9107940368e-01	 2.6797138585e+00
 1.4566850610e+00	 4.0435693504e-01	 2.6041410890e+00
 1.4529345432e+00	 4.1763271445e-01	 2.5282080127e+00
 1.4490537431e+00	 4.3090495260e-01	 2.4514608163e+00
 1.4450422646e+00	 4.4417184420e-01	 2.3735179623e+00
 1.4408997430e+00	 4.5743156858e-01	 2.2940827759e+00
 1.4366258457e+00	 4.7068229033e-01	 2.2129552960e+00
 1.4322202725e+00	 4.8392215997e-01	 2.1300432827e+00
 1.4276827561e+00	 4.9714931463e-01	 2.0453722737e+00
 1.4230130629e+00	 5.1036187871e-01	 1.9590945874e+00
 1.4182109929e+00	 5.2355796463e-01	 1.8714971714e+00
 1.4688284202e+00	 3.9336183744e-01	 2.6734567235e+00
 1.4651866265e+00	 4.0671685968e-01	 2.6046648681e+00
 1.4614142197e+00	 4.2007011973e-01	 2.5340431133e+00
 1.4575107703e+00	 4.3341981787e-01	 2.4612242765e+00
 1.4534758799e+00	 4.4676413825e-01	 2.3859162515e+00
 1.4493091816e+00	 4.6010124958e-01	 2.3079149912e+00
 1.4450103408e+00	 4.7342930574e-01	 2.2271167211e+00
 1.4405790556e+00	 4.8674644646e-01	 2.1435292729e+00
 1.4360150572e+00	 5.0005079798e-01	 2.0572824245e+00
 1.4313181105e+00	 5.1334047377e-01	 1.9686371427e+00
 1.4264880145e+00	 5.2661357524e-01	 1.8779936228e+00
 1.4773511167e+00	 3.9564427119e-01	 2.6685336606e+00
 1.4736881920e+00	 4.0907678431e-01	 2.6081945835e+00
 1.4698938963e+00	 4.2250752502e-01	 2.5442846193e+00
 1.4659677976e+00	 4.3593468314e-01	 2.4765363580e+00
 1.4619094952e+00	 4.4935643230e-01	 2.4047603645e+00
 1.4577186201e+00	 4.6277093058e-01	 2.3288585538e+00
 1.4533948358e+00	 4.7617632115e-01	 2.2488367623e+00
 1.4489378386e+00	 4.8957073294e-01	 2.1648163993e+00
 1.4443473582e+00	 5.0295228133e-01	 2.0770450640e+00
 1.4396231580e+00	 5.1631906883e-01	 1.9859060167e+00
 1.4347650360e+00	 5.2966918584e-01	 1.8919263986e+00
 1.3519948207e+00	 4.9911307980e-01	 2.0020561549e+00
 1.3472897946e+00	 5.1167765648e-01	 1.9244694354e+00
 1.3424582464e+00	 5.2422288651e-01	 1.8459941870e+00
 1.3375000841e+00	 5.3674693882e-01	 1.7663107859e+00
 1.3324152499e+00	 5.4924797379e-01	 1.6852144782e+00
 1.3272037201e+00	 5.6172414397e-01	 1.6026169418e+00
 1.3218655059e+00	 5.7417359483e-01	 1.5185466814e+00
 1.3164006534e+00	 5.8659446561e-01	 1.4331482126e+00
 1.3108092439e+00	 5.9898489008e-01	 1.3466800036e+00
 1.3050913945e+00	 6.1134299734e-01	 1.2595111455e+00
 1.2992472579e+00	 6.2366691268e-01	 1.1721167324e+00
 1.3602718422e+00	 5.0216869040e-01	 1.9748566292e+00
 1.3555380116e+00	 5.1481018844e-01	 1.8978660439e+00
 1.3506768843e+00	 5.2743222138e-01	 1.8202789811e+00
 1.3456883677e+00	 5.4003294695e-01	 1.7416711829e+00
 1.3405724037e+00	 5.5261051427e-01	 1.6617391097e+00
 1.3353289685e+00	 5.6516306456e-01	 1.5803017519e+00
 1.3299580733e+00	 5.7768873197e-01	 1.4973012237e+00
 1.3244597645e+00	 5.9018564433e-01	 1.4128020961e+00
 1.3188341240e+00	 6.0265192397e-01	 1.3269894327e+00
 1.3130812695e+00	 6.1508568857e-01	 1.2401655004e+00
 1.3072013546e+00	 6.2748505191e-01	 1.1527451328e+00
 1.3685488637e+00	 5.0522430101e-01	 1.9492530871e+00
 1.3637862286e+00	 5.1794272040e-01	 1.8722794747e+00
 1.3588955221e+00	 5.3064155625e-01	 1.7949726533e+00
 1.3538766513e+00	 5.4331895508e-01	 1.7168268344e+00
 1.3487295575e+00	 5.5597305475e-01	 1.6374628807e+00
 1.3434542169e+00	 5.6860198516e-01	 1.5566303370e+00
 1.3380506407e+00	 5.8120386911e-01	 1.4742081927e+00
 1.3325188757e+00	 5.9377682304e-01	 1.3902043291e+00
 1.3268590041e+00	 6.0631895787e-01	 1.3047536143e+00
 1.3210711445e+00	 6.1882837979e-01	 1.2181146157e+00
 1.3151554513e+00	 6.3130319115e-01	 1.1306649076e+00
 1.3768258853e+00	 5.0827991161e-01	 1.9260167117e+00
 1.3720344456e+00	 5.2107525236e-01	 1.8485034587e+00
 1.3671141600e+00	 5.3385089112e-01	 1.7708834897e+00
 1.3620649349e+00	 5.4660496321e-01	 1.6925920576e+00
 1.3568867113e+00	 5.5933559522e-01	 1.6131970961e+00
 1.3515794653e+00	 5.7204090576e-01	 1.5324014419e+00
 1.3461432082e+00	 5.8471900625e-01	 1.4500437340e+00
 1.3405779869e+00	 5.9736800176e-01	 1.3660979423e+00
 1.3348838842e+00	 6.0998599176e-01	 1.2806714864e+00
 1.3290610194e+00	 6.2257107102e-01	 1.1940019129e+00
 1.3231095480e+00	 6.3512133038e-01	 1.1064521078e+00
 1.3851029068e+00	 5.1133552222e-01	 1.9059065933e+00
 1.3802826626e+00	 5.2420778431e-01	 1.8273189384e+00
 1.3753327978e+00	 5.3706022599e-01	 1.7488064085e+00
 1.3702532185e+00	 5.4989097134e-01	 1.6697673494e+00
 1.3650438651e+00	 5.6269813570e-01	 1.5897389274e+00
 1.3597047137e+00	 5.7547982635e-01	 1.5083995148e+00
 1.3542357756e+00	 5.8823414339e-01	 1.4255696946e+00
 1.3486370980e+00	 6.0095918047e-01	 1.3412118388e+00
 1.3429087643e+00	 6.1365302566e-01	 1.2554282161e+00
 1.3370508944e+00	 6.2631376224e-01	 1.1684575966e+00
 1.3310636447e+00	 6.3893946961e-01	 1.0806703308e+00
 1.3933799283e+00	 5.1439113282e-01	 1.8896699120e+00
 1.3885308796e+00	 5.2734031627e-01	 1.8094942445e+00
 1.3835514357e+00	 5.4026956085e-01	 1.7295231255e+00
 1.3784415020e+00	 5.5317697947e-01	 1.6491395350e+00
 1.3732010190e+00	 5.6606067617e-01	 1.5678715375e+00
 1.3678299621e+00	 5.7891874695e-01	 1.4853948010e+00
 1.3623283430e+00	 5.9174928053e-01	 1.4015336796e+00
 1.3566962092e+00	 6.0455035919e-01	 1.3162608072e+00
 1.3509336445e+00	 6.1732005955e-01	 1.2296951607e+00
 1.3450407694e+00	 6.3005645347e-01	 1.1420985559e+00
 1.3390177414e+00	 6.4275760884e-01	 1.0538705535e+00
 1.4016569499e+00	 5.1744674343e-01	 1.8780421096e+00
 1.3967790965e+00	 5.3047284823e-01	 1.7957852621e+00
 1.3917700735e+00	 5.4347889572e-01	 1.7138023079e+00
 1.3866297856e+00	 5.5646298760e-01	 1.6314819044e+00
 1.3813581728e+00	 5.6942321665e-01	 1.5483641931e+00
 1.3759552106e+00	 5.8235766755e-01	 1.4641434268e+00
 1.3704209105e+00	 5.9526441767e-01	 1.3786690995e+00
 1.3647553204e+00	 6.0814153790e-01	 1.2919455250e+00
 1.3589585246e+00	 6.2098709344e-01	 1.2041298205e+00
 1.3530306443e+00	 6.3379914469e-01	 1.1155282587e+00
 1.3469718381e+00	 6.4657574807e-01	 1.0265909618e+00
 1.4099339714e+00	 5.2050235403e-01	 1.8717470503e+00
 1.4050273135e+00	 5.3360538019e-01	 1.7869355840e+00
 1.3999887114e+00	 5.4668823059e-01	 1.7023997173e+00
 1.3948180692e+00	 5.5974899573e-01	 1.6175543376e+00
 1.3895153266e+00	 5.7278575712e-01	 1.5319723673e+00
 1.3840804590e+00	 5.8579658814e-01	 1.4453874718e+00
 1.3785134779e+00	 5.9877955481e-01	 1.3576952072e+00
 1.3728144315e+00	 6.1173271662e-01	 1.2689525532e+00
 1.3669834047e+00	 6.2465412734e-01	 1.1793757842e+00
 1.3610205193e+00	 6.3754183592e-01	 1.0893366405e+00
 1.3549259348e+00	 6.5039388730e-01	 9.9935677328e-01
 1.4182109929e+00	 5.2355796463e-01	 1.8714971714e+00
 1.4132755305e+00	 5.3673791214e-01	 1.7836766554e+00
 1.4082073493e+00	 5.4989756546e-01	 1.6960583407e+00
 1.4030063528e+00	 5.6303500386e-01	 1.6081034188e+00
 1.3976724804e+00	 5.7614829760e-01	 1.5194378313e+00
 1.3922057074e+00	 5.8923550874e-01	 1.4298550321e+00
 1.3866060454e+00	 6.0229469195e-01	 1.3393171255e+00
 1.3808735427e+00	 6.1532389533e-01	 1.2479543225e+00
 1.3750082848e+00	 6.2832116123e-01	 1.1560626658e+00
 1.3690103943e+00	 6.4128452714e-01	 1.0640999856e+00
 1.3628800315e+00	 6.5421202653e-01	 9.7268005728e-01
 1.4264880145e+00	 5.2661357524e-01	 1.8779936228e+00
 1.4215237475e+00	 5.3987044410e-01	 1.7867279063e+00
 1.4164259871e+00	 5.5310690033e-01	 1.6955085124e+00
 1.4111946364e+00	 5.6632101199e-01	 1.6038625412e+00
 1.4058296342e+00	 5.7951083807e-01	 1.5114887355e+00
 1.4003309558e+00	 5.9267442934e-01	 1.4182602729e+00
 1.3946986128e+00	 6.0580982910e-01	 1.3242258658e+00
 1.3889326539e+00	 6.1891507405e-01	 1.2296091109e+00
 1.3830331649e+00	 6.3198819513e-01	 1.1348060358e+00
 1.3770002693e+00	 6.4502721837e-01	 1.0403808041e+00
 1.3708341282e+00	 6.5803016576e-01	 9.4705954903e-01
 1.4347650360e+00	 5.2966918584e-01	 1.8919263986e+00
 1.4297719645e+00	 5.4300297606e-01	 1.7967968749e+00
 1.4246446250e+00	 5.5631623520e-01	 1.7014680250e+00
 1.4193829200e+00	 5.6960702012e-01	 1.6055520006e+00
 1.4139867881e+00	 5.8287337855e-01	 1.5088396817e+00
 1.4084562042e+00	 5.9611334994e-01	 1.4113034728e+00
 1.4027911802e+00	 6.0932496624e-01	 1.3130983380e+00
 1.3969917650e+00	 6.2250625276e-01	 1.2145610135e+00
 1.3910580450e+00	 6.3565522902e-01	 1.1162073439e+00
 1.3849901442e+00	 6.4876990960e-01	 1.0187277020e+00
 1.3787882249e+00	 6.6184830499e-01	 9.2298046040e-01
 1.2992472579e+00	 6.2366691268e-01	 1.1721167324e+00
 1.2932780484e+00	 6.3595267275e-01	 1.0828859624e+00
 1.2871830074e+00	 6.4820049588e-01	 9.9040814136e-01
 1.2809623955e+00	 6.6040850119e-01	 8.9564632587e-01
 1.2746165096e+00	 6.7257480735e-01	 7.9964481960e-01
 1.2681456837e+00	 6.8469753345e-01	 7.0351768476e-01
 1.2615502884e+00	 6.9677479985e-01	 6.0843600683e-01
 1.2548307312e+00	 7.0880472913e-01	 5.1561395310e-01
 1.2479874567e+00	 7.2078544690e-01	 4.2629367441e-01
 1.2410209464e+00	 7.3271508277e-01	 3.4172910874e-01
 1.2339317191e+00	 7.4459177121e-01	 2.6309102786e-01
 1.3072013546e+00	 6.2748505191e-01	 1.1527451328e+00
 1.3011956011e+00	 6.3984602640e-01	 1.0631097353e+00
 1.2950632458e+00	 6.5216883169e-01	 9.6992457389e-01
 1.2888045507e+00	 6.6445157540e-01	 8.7422636141e-01
 1.2824198149e+00	 6.7669236467e-01	 7.7713708522e-01
 1.2759093741e+00	 6.8888930707e-01	 6.7985202968e-01
 1.2692736012e+00	 7.0104051148e-01	 5.8362649597e-01
 1.2625129063e+00	 7.1314408895e-01	 4.8976126137e-01
 1.2556277367e+00	 7.2519815364e-01	 3.9958682934e-01
 1.2486185769e+00	 7.3720082371e-01	 3.1444653077e-01
 1.2414859488e+00	 7.4915022220e-01	 2.3523149670e-01
 1.3151554513e+00	 6.3130319115e-01	 1.1306649076e+00
 1.3091131538e+00	 6.4373938004e-01	 1.0407778553e+00
 1.3029434842e+00	 6.5613716750e-01	 9.4715892996e-01
 1.2966467060e+00	 6.6849464960e-01	 8.5088863556e-01
 1.2902231202e+00	 6.8080992198e-01	 7.5313754514e-01
 1.2836730644e+00	 6.9308108069e-01	 6.5515386868e-01
 1.2769969140e+00	 7.0530622310e-01	 5.5824966003e-01
 1.2701950814e+00	 7.1748344877e-01	 4.6378570670e-01
 1.2632680168e+00	 7.2961086039e-01	 3.7315515551e-01
 1.2562162074e+00	 7.4168656465e-01	 2.8775892144e-01
 1.2490401784e+00	 7.5370867318e-01	 2.0777426573e-01
 1.3231095480e+00	 6.3512133038e-01	 1.1064521078e+00
 1.3170307065e+00	 6.4763273369e-01	 1.0163974407e+00
 1.3108237225e+00	 6.6010550331e-01	 9.2255877951e-01
 1.3044888613e+00	 6.7253772380e-01	 8.2603115821e-01
 1.2980264254e+00	 6.8492747930e-01	 7.2800524700e-01
 1.2914367548e+00	 6.9727285432e-01	 6.2975449876e-01
 1.2847202268e+00	 7.0957193472e-01	 5.3262087431e-01
 1.2778772566e+00	 7.2182280859e-01	 4.3799919156e-01
 1.2709082968e+00	 7.3402356713e-01	 3.4732015331e-01
 1.2638138379e+00	 7.4617230559e-01	 2.6178131990e-01
 1.2565944081e+00	 7.5826712417e-01	 1.8096706640e-01
 1.3310636447e+00	 6.3893946961e-01	 1.0806703308e+00
 1.3249482592e+00	 6.5152608734e-01	 9.9046388546e-01
 1.3187039609e+00	 6.6407383912e-01	 8.9656040422e-01
 1.3123310166e+00	 6.7658079801e-01	 8.0004078321e-01
 1.3058297307e+00	 6.8904503661e-01	 7.0208789985e-01
 1.2992004451e+00	 7.0146462794e-01	 6.0397337058e-01
 1.2924435396e+00	 7.1383764634e-01	 5.0704282483e-01
 1.2855594317e+00	 7.2616216841e-01	 4.1269974150e-01
 1.2785485769e+00	 7.3843627387e-01	 3.2238790443e-01
 1.2714114684e+00	 7.5065804652e-01	 2.3663561792e-01
 1.2641486378e+00	 7.6282557515e-01	 1.5504250359e-01
 1.3390177414e+00	 6.4275760884e-01	 1.0538705535e+00
 1.3328658119e+00	 6.5541944098e-01	 9.6346062394e-01
 1.3265841993e+00	 6.6804217492e-01	 8.6958850088e-01
 1.3201731719e+00	 6.8062387221e-01	 7.7329285741e-01
 1.3136330360e+00	 6.9316259392e-01	 6.7572147662e-01
 1.3069641355e+00	 7.0565640156e-01	 5.7811765263e-01
 1.3001668524e+00	 7.1810335797e-01	 4.8180504283e-01
 1.2932416068e+00	 7.3050152823e-01	 3.8817101882e-01
 1.2861888569e+00	 7.4284898062e-01	 2.9860103681e-01
 1.2790090990e+00	 7.5514378746e-01	 2.1250674904e-01
 1.2717028675e+00	 7.6738402614e-01	 1.3021871150e-01
 1.3469718381e+00	 6.4657574807e-01	 1.0265909618e+00
 1.3407833646e+00	 6.5931279463e-01	 9.3585889272e-01
 1.3344644377e+00	 6.7201051073e-01	 8.4205588284e-01
 1.3280153272e+00	 6.8466694641e-01	 7.4615086901e-01
 1.3214363412e+00	 6.9728015123e-01	 6.4922981683e-01
 1.3147278258e+00	 7.0984817518e-01	 5.5248179612e-01
 1.3078901652e+00	 7.2236906959e-01	 4.5718344013e-01
 1.3009237820e+00	 7.3484088805e-01	 3.6468183714e-01
 1.2938291369e+00	 7.4726168736e-01	 2.7588727261e-01
 1.2866067295e+00	 7.5962952840e-01	 1.8956677006e-01
 1.2792570972e+00	 7.7194247712e-01	 1.0670000803e-01
 1.3549259348e+00	 6.5039388730e-01	 9.9935677328e-01
 1.3487009174e+00	 6.6320614827e-01	 9.0811748906e-01
 1.3423446760e+00	 6.7597884654e-01	 8.1436317971e-01
 1.3358574825e+00	 6.8871002062e-01	 7.1896609519e-01
 1.3292396465e+00	 7.0139770855e-01	 6.2292422942e-01
 1.3224915161e+00	 7.1403994880e-01	 5.2734710062e-01
 1.3156134780e+00	 7.2663478121e-01	 4.3343984548e-01
 1.3086059571e+00	 7.3918024787e-01	 3.4248567682e-01
 1.3014694170e+00	 7.5167439410e-01	 2.5434013566e-01
 1.2942043600e+00	 7.6411526934e-01	 1.6797547169e-01
 1.2868113269e+00	 7.7650092810e-01	 8.4677547638e-02
 1.3628800315e+00	 6.5421202653e-01	 9.7268005728e-01
 1.3566184701e+00	 6.6709950192e-01	 8.8068252639e-01
 1.3502249144e+00	 6.7994718235e-01	 7.8689853530e-01
 1.3436996378e+00	 6.9275309482e-01	 6.9207724918e-01
 1.3370429517e+00	 7.0551526586e-01	 5.9710309576e-01
 1.3302552065e+00	 7.1823172242e-01	 5.0298128032e-01
 1.3233367908e+00	 7.3090049283e-01	 4.1082154181e-01
 1.3162881322e+00	 7.4351960770e-01	 3.2171647309e-01
 1.3091096970e+00	 7.5608710085e-01	 2.3409016831e-01
 1.3018019905e+00	 7.6860101028e-01	 1.4788098888e-01
 1.2943655566e+00	 7.8105937909e-01	 6.4329972824e-02
 1.3708341282e+00	 6.5803016576e-01	 9.4705954903e-01
 1.3645360228e+00	 6.7099285557e-01	 8.5398718684e-01
 1.3581051528e+00	 6.8391551816e-01	 7.6003730396e-01
 1.3515417930e+00	 6.9679616903e-01	 6.6581012660e-01
 1.3448462570e+00	 7.0963282317e-01	 5.7205147280e-01
 1.3380188968e+00	 7.2242349604e-01	 4.7963803094e-01
 1.3310601036e+00	 7.3516620445e-01	 3.8956080429e-01
 1.3239703073e+00	 7.4785896752e-01	 3.0218909219e-01
 1.3167499771e+00	 7.6049980759e-01	 2.1525736523e-01
 1.3093996210e+00	 7.7308675121e-01	 1.2942041080e-01
 1.3019197862e+00	 7.8561783007e-01	 4.5824064253e-02
 1.3787882249e+00	 6.6184830499e-01	 9.2298046040e-01
 1.3724535755e+00	 6.7488620921e-01	 8.2845147101e-01
 1.3659853912e+00	 6.8788385397e-01	 7.3414174531e-01
 1.3593839483e+00	 7.0083924323e-01	 6.4047725130e-01
 1.3526495623e+00	 7.1375038049e-01	 5.4804069631e-01
 1.3457825872e+00	 7.2661526967e-01	 4.5755659731e-01
 1.3387834164e+00	 7.3943191608e-01	 3.6987443928e-01
 1.3316524825e+00	 7.5219832734e-01	 2.8398042997e-01
 1.3243902571e+00	 7.6491251433e-01	 1.9795175243e-01
 1.3169972515e+00	 7.7757249215e-01	 1.1272039060e-01
 1.3094740159e+00	 7.9017628106e-01	 2.9315389574e-02
 1.2339317191e+00	 7.4459177121e-01	 2.6309102786e-01
 1.2267203306e+00	 7.5641365271e-01	 1.8544038766e-01
 1.2193873752e+00	 7.6817887538e-01	 1.0424060486e-01
 1.2119334843e+00	 7.7988559522e-01	 2.0277906939e-02
 1.2043593259e+00	 7.9153197674e-01	-6.5636530690e-02
 1.1966656050e+00	 8.0311619394e-01	-1.5267280764e-01
 1.1888530631e+00	 8.1463643115e-01	-2.3998882276e-01
 1.1809224780e+00	 8.2609088398e-01	-3.2673708404e-01
 1.1728746636e+00	 8.3747776019e-01	-4.1207178666e-01
 1.1647104700e+00	 8.4879528062e-01	-4.9515613930e-01
 1.1564307828e+00	 8.6004168007e-01	-5.7516991700e-01
 1.2414859488e+00	 7.4915022220e-01	 2.3523149670e-01
 1.2342304116e+00	 7.6104447821e-01	 1.5688801969e-01
 1.2268525633e+00	 7.7288172853e-01	 7.5167677518e-02
 1.2193530390e+00	 7.8466011784e-01	-9.1550388401e-03
 1.2117325110e+00	 7.9637779946e-01	-9.5276508082e-02
 1.2039916885e+00	 8.0803293617e-01	-1.8237027882e-01
 1.1961313176e+00	 8.1962370120e-01	-2.6959368766e-01
 1.1881521808e+00	 8.3114827912e-01	-3.5609477968e-01
 1.1800550971e+00	 8.4260486670e-01	-4.4101951365e-01
 1.1718409216e+00	 8.5399167391e-01	-5.2351923213e-01
 1.1635105455e+00	 8.6530692473e-01	-6.0275837448e-01
 1.2490401784e+00	 7.5370867318e-01	 2.0777426573e-01
 1.2417404926e+00	 7.6567530371e-01	 1.2864052098e-01
 1.2343177513e+00	 7.7758458167e-01	 4.6278607582e-02
 1.2267725937e+00	 7.8943464047e-01	-3.8528982540e-02
 1.2191056961e+00	 8.0122362217e-01	-1.2496703634e-01
 1.2113177721e+00	 8.1294967840e-01	-2.1219402785e-01
 1.2034095721e+00	 8.2461097126e-01	-2.9934886059e-01
 1.1953818836e+00	 8.3620567426e-01	-3.8555792870e-01
 1.1872355305e+00	 8.4773197322e-01	-4.6994247918e-01
 1.1789713732e+00	 8.5918806720e-01	-5.5162625524e-01
 1.1705903082e+00	 8.7057216938e-01	-6.2974339846e-01
 1.2565944081e+00	 7.5826712417e-01	 1.8096706640e-01
 1.2492505736e+00	 7.7030612921e-01	 1.0098242419e-01
 1.2417829393e+00	 7.8228743481e-01	 1.7882714384e-02
 1.2341921484e+00	 7.9420916310e-01	-6.7522166964e-02
 1.2264788812e+00	 8.0606944489e-01	-1.5438659296e-01
 1.2186438556e+00	 8.1786642063e-01	-2.4183575232e-01
 1.2106878266e+00	 8.2959824131e-01	-3.2897254613e-01
 1.2026115865e+00	 8.4126306939e-01	-4.1488481939e-01
 1.1944159640e+00	 8.5285907973e-01	-4.9865290979e-01
 1.1861018248e+00	 8.6438446049e-01	-5.7935749337e-01
 1.1776700709e+00	 8.7583741404e-01	-6.5608770459e-01
 1.2641486378e+00	 7.6282557515e-01	 1.5504250359e-01
 1.2567606546e+00	 7.7493695470e-01	 7.4182053860e-02
 1.2492481274e+00	 7.8699028795e-01	-9.7277025411e-03
 1.2416117031e+00	 7.9898368572e-01	-9.5830389514e-02
 1.2338520663e+00	 8.1091526761e-01	-1.8323146114e-01
 1.2259699391e+00	 8.2278316286e-01	-2.7100491622e-01
 1.2179660812e+00	 8.3458551136e-01	-3.5820037895e-01
 1.2098412893e+00	 8.4632046453e-01	-4.4385053041e-01
 1.2015963974e+00	 8.5798618625e-01	-5.2697887286e-01
 1.1932322764e+00	 8.6958085378e-01	-6.0660780661e-01
 1.1847498336e+00	 8.8110265869e-01	-6.8176699647e-01
 1.2717028675e+00	 7.6738402614e-01	 1.3021871150e-01
 1.2642707355e+00	 7.7956778020e-01	 4.8492227586e-02
 1.2567133154e+00	 7.9169314109e-01	-3.6276625791e-02
 1.2490312578e+00	 8.0375820835e-01	-1.2316623721e-01
 1.2412252514e+00	 8.1576109032e-01	-2.1121494687e-01
 1.2332960227e+00	 8.2769990509e-01	-2.9942795868e-01
 1.2252443357e+00	 8.3957278141e-01	-3.8678463412e-01
 1.2170709921e+00	 8.5137785967e-01	-4.7224615268e-01
 1.2087768309e+00	 8.6311329276e-01	-5.5476352051e-01
 1.2003627280e+00	 8.7477724707e-01	-6.3328590689e-01
 1.1918295963e+00	 8.8636790335e-01	-7.0676928530e-01
 1.2792570972e+00	 7.7194247712e-01	 1.0670000803e-01
 1.2717808165e+00	 7.8419860570e-01	 2.4150954529e-02
 1.2641785035e+00	 7.9639599424e-01	-6.1503586093e-02
 1.2564508126e+00	 8.0853273098e-01	-1.4925832596e-01
 1.2485984365e+00	 8.2060691304e-01	-2.3806660054e-01
 1.2406221062e+00	 8.3261664732e-01	-3.2684750727e-01
 1.2325225902e+00	 8.4456005147e-01	-4.1449344159e-01
 1.2243006949e+00	 8.5643525481e-01	-4.9987801486e-01
 1.2159572644e+00	 8.6824039928e-01	-5.8186433591e-01
 1.2074931796e+00	 8.7997364036e-01	-6.5931363532e-01
 1.1989093590e+00	 8.9163314800e-01	-7.3109420880e-01
 1.2868113269e+00	 7.7650092810e-01	 8.4677547638e-02
 1.2792908975e+00	 7.8882943120e-01	 1.3821312243e-03
 1.2716436915e+00	 8.0109884738e-01	-8.5162931807e-02
 1.2638703673e+00	 8.1330725360e-01	-1.7385054394e-01
 1.2559716216e+00	 8.2545273575e-01	-2.6353144293e-01
 1.2479481897e+00	 8.3753338955e-01	-3.5302159563e-01
 1.2398008447e+00	 8.4954732152e-01	-4.4111000462e-01
 1.2315303978e+00	 8.6149264994e-01	-5.2656691202e-01
 1.2231376978e+00	 8.7336750579e-01	-6.0815238198e-01
 1.2146236312e+00	 8.8517003365e-01	-6.8462524062e-01
 1.2059891216e+00	 8.9689839266e-01	-7.5475234934e-01
 1.2943655566e+00	 7.8105937909e-01	 6.4329972824e-02
 1.2868009785e+00	 7.9346025670e-01	-1.9603765106e-02
 1.2791088795e+00	 8.0580170052e-01	-1.0702310181e-01
 1.2712899220e+00	 8.1808177623e-01	-1.9670129890e-01
 1.2633448067e+00	 8.3029855847e-01	-2.8736919546e-01
 1.2552742732e+00	 8.4245013178e-01	-3.7772288525e-01
 1.2470790992e+00	 8.5453459157e-01	-4.6643182211e-01
 1.2387601006e+00	 8.6655004508e-01	-5.5214733760e-01
 1.2303181313e+00	 8.7849461231e-01	-6.3351155220e-01
 1.2217540829e+00	 8.9036642693e-01	-7.0916665843e-01
 1.2130688843e+00	 9.0216363731e-01	-7.7776455147e-01
 1.3019197862e+00	 7.8561783007e-01	 4.5824064253e-02
 1.2943110595e+00	 7.9809108220e-01	-3.8608985675e-02
 1.2865740676e+00	 8.1050455366e-01	-1.2686590158e-01
 1.2787094767e+00	 8.2285629886e-01	-2.1758276922e-01
 1.2707179918e+00	 8.3514438118e-01	-3.0935351435e-01
 1.2626003568e+00	 8.4736687401e-01	-4.0073789125e-01
 1.2543573537e+00	 8.5952186162e-01	-4.9026991456e-01
 1.2459898034e+00	 8.7160744022e-01	-5.7646671837e-01
 1.2374985648e+00	 8.8362171882e-01	-6.5783782359e-01
 1.2288845345e+00	 8.9556282022e-01	-7.3289479152e-01
 1.2201486470e+00	 9.0742888197e-01	-8.0016123872e-01
 1.3094740159e+00	 7.9017628106e-01	 2.9315389574e-02
 1.3018211405e+00	 8.0272190770e-01	-5.5447821570e-02
 1.2940392556e+00	 8.1520740681e-01	-1.4448578242e-01
 1.2861290314e+00	 8.2763082149e-01	-2.3628015857e-01
 1.2780911770e+00	 8.3999020390e-01	-3.2927122874e-01
 1.2699264403e+00	 8.5228361624e-01	-4.2186621201e-01
 1.2616356082e+00	 8.6450913168e-01	-5.1244805353e-01
 1.2532195063e+00	 8.7666483536e-01	-5.9938465230e-01
 1.2446789982e+00	 8.8874882534e-01	-6.8103851179e-01
 1.2360149861e+00	 9.0075921351e-01	-7.5577679089e-01
 1.2272284097e+00	 9.1269412663e-01	-8.2198172977e-01
 1.1564307828e+00	 8.6004168007e-01	-5.7516991700e-01
 1.1480350871e+00	 8.7121710044e-01	-6.5298465258e-01
 1.1395257413e+00	 8.8231788280e-01	-7.2903200224e-01
 1.1309037418e+00	 8.9334230186e-01	-8.0196136489e-01
 1.1221701192e+00	 9.0428864976e-01	-8.7052626858e-01
 1.1133259384e+00	 9.1515523699e-01	-9.3359372229e-01
 1.1043722979e+00	 9.2594039318e-01	-9.9262829220e-01
 1.0953103293e+00	 9.3664246796e-01	-1.0532583706e+00
 1.0861411972e+00	 9.4725983182e-01	-1.1158552850e+00
 1.0768660984e+00	 9.5779087687e-01	-1.1805416791e+00
 1.0674862614e+00	 9.6823401769e-01	-1.2474583711e+00
 1.1635105455e+00	 8.6530692473e-01	-6.0275837448e-01
 1.1550634506e+00	 8.7655076192e-01	-6.8007436960e-01
 1.1465020100e+00	 8.8771950417e-01	-7.5637779625e-01
 1.1378272259e+00	 8.9881141561e-01	-8.3032095183e-01
 1.1290401354e+00	 9.0982477794e-01	-9.0066262406e-01
 1.1201418098e+00	 9.2075789130e-01	-9.6627766770e-01
 1.1111333543e+00	 9.3160907508e-01	-1.0261665631e+00
 1.1020159077e+00	 9.4237666883e-01	-1.0841222329e+00
 1.0927906414e+00	 9.5305903305e-01	-1.1447093388e+00
 1.0834587597e+00	 9.6365455001e-01	-1.2081137520e+00
 1.0740214985e+00	 9.7416162458e-01	-1.2745398928e+00
 1.1705903082e+00	 8.7057216938e-01	-6.2974339846e-01
 1.1620918142e+00	 8.8188442340e-01	-7.0612216771e-01
 1.1534782787e+00	 8.9312112554e-01	-7.8219671229e-01
 1.1447507100e+00	 9.0428052936e-01	-8.5663678563e-01
 1.1359101515e+00	 9.1536090612e-01	-9.2822039329e-01
 1.1269576812e+00	 9.2636054560e-01	-9.9584357652e-01
 1.1178944108e+00	 9.3727775698e-01	-1.0585301845e+00
 1.1087214860e+00	 9.4811086970e-01	-1.1157649295e+00
 1.0994400856e+00	 9.5885823428e-01	-1.1737623951e+00
 1.0900514209e+00	 9.6951822314e-01	-1.2353523088e+00
 1.0805567357e+00	 9.8008923147e-01	-1.3008140650e+00
 1.1776700709e+00	 8.7583741404e-01	-6.5608770459e-01
 1.1691201778e+00	 8.8721808488e-01	-7.3117576698e-01
 1.1604545473e+00	 8.9852274690e-01	-8.0661185253e-01
 1.1516741941e+00	 9.0974964312e-01	-8.8109742487e-01
 1.1427801677e+00	 9.2089703430e-01	-9.5344336634e-01
 1.1337735525e+00	 9.3196319991e-01	-1.0225799504e+00
 1.1246554672e+00	 9.4294643889e-01	-1.0875668111e+00
 1.1154270644e+00	 9.5384507057e-01	-1.1476028698e+00
 1.1060895298e+00	 9.6465743550e-01	-1.2035038727e+00
 1.0966440822e+00	 9.7538189628e-01	-1.2627363778e+00
 1.0870919728e+00	 9.8601683836e-01	-1.3267376739e+00
 1.1847498336e+00	 8.8110265869e-01	-6.8176699647e-01
 1.1761485413e+00	 8.9255174637e-01	-7.5529424801e-01
 1.1674308160e+00	 9.0392436827e-01	-8.2975630331e-01
 1.1585976782e+00	 9.1521875687e-01	-9.0390029386e-01
 1.1496501838e+00	 9.2643316248e-01	-9.7658334490e-01
 1.1405894239e+00	 9.3756585421e-01	-1.0467827191e+00
 1.1314165237e+00	 9.4861512079e-01	-1.1136059670e+00
 1.1221326427e+00	 9.5957927144e-01	-1.1763010430e+00
 1.1127389739e+00	 9.7045663673e-01	-1.2342663448e+00
 1.1032367435e+00	 9.8124556942e-01	-1.2907454774e+00
 1.0936272100e+00	 9.9194444525e-01	-1.3527687806e+00
 1.1918295963e+00	 8.8636790335e-01	-7.0676928530e-01
 1.1831769049e+00	 8.9788540785e-01	-7.7854741717e-01
 1.1744070847e+00	 9.0932598964e-01	-8.5177253982e-01
 1.1655211622e+00	 9.2068787062e-01	-9.2525112026e-01
 1.1565202000e+00	 9.3196929066e-01	-9.9789960629e-01
 1.1474052952e+00	 9.4316850852e-01	-1.0687547242e+00
 1.1381775801e+00	 9.5428380269e-01	-1.1369837939e+00
 1.1288382210e+00	 9.6531347231e-01	-1.2018950197e+00
 1.1193884181e+00	 9.7625583796e-01	-1.2629477139e+00
 1.1098294047e+00	 9.8710924255e-01	-1.3198599560e+00
 1.1001624471e+00	 9.9787205214e-01	-1.3793670497e+00
 1.1989093590e+00	 8.9163314800e-01	-7.3109420880e-01
 1.1902052685e+00	 9.0321906933e-01	-8.0101516934e-01
 1.1813833533e+00	 9.1472761101e-01	-8.7281182661e-01
 1.1724446463e+00	 9.2615698437e-01	-9.4536336722e-01
 1.1633902161e+00	 9.3750541884e-01	-1.0176583609e+00
 1.1542211666e+00	 9.4877116282e-01	-1.0888051951e+00
 1.1449386366e+00	 9.5995248459e-01	-1.1580425392e+00
 1.1355437994e+00	 9.7104767318e-01	-1.2247497954e+00
 1.1260378623e+00	 9.8205503919e-01	-1.2884574930e+00
 1.1164220660e+00	 9.9297291569e-01	-1.3488575792e+00
 1.1066976842e+00	 1.0037996590e+00	-1.4069940706e+00
 1.2059891216e+00	 8.9689839266e-01	-7.5475234934e-01
 1.1972336320e+00	 9.0855273081e-01	-8.2278684809e-01
 1.1883596220e+00	 9.2012923238e-01	-8.9303361407e-01
 1.1793681304e+00	 9.3162609812e-01	-9.6445766027e-01
 1.1702602322e+00	 9.4304154702e-01	-1.0361322034e+00
 1.1610370379e+00	 9.5437381712e-01	-1.1072492185e+00
 1.1516996930e+00	 9.6562116649e-01	-1.1771300369e+00
 1.1422493777e+00	 9.7678187404e-01	-1.2452359429e+00
 1.1326873064e+00	 9.8785424042e-01	-1.3111787262e+00
 1.1230147273e+00	 9.9883658883e-01	-1.3747311410e+00
 1.1132329214e+00	 1.0097272659e+00	-1.4358372249e+00
 1.2130688843e+00	 9.0216363731e-01	-7.7776455147e-01
 1.2042619956e+00	 9.1388639229e-01	-8.4396060355e-01
 1.1953358906e+00	 9.2553085375e-01	-9.1260493115e-01
 1.1862916145e+00	 9.3709521188e-01	-9.8276120911e-01
 1.1771302484e+00	 9.4857767520e-01	-1.0535995575e+00
 1.1678529093e+00	 9.5997647143e-01	-1.1244072002e+00
 1.1584607494e+00	 9.7128984840e-01	-1.1945991805e+00
 1.1489549560e+00	 9.8251607491e-01	-1.2637290907e+00
 1.1393367506e+00	 9.9365344164e-01	-1.3314997688e+00
 1.1296073885e+00	 1.0047002620e+00	-1.3977739162e+00
 1.1197681585e+00	 1.0156548728e+00	-1.4625845844e+00
 1.2201486470e+00	 9.0742888197e-01	-8.0016123872e-01
 1.2112903592e+00	 9.1922005377e-01	-8.6464274802e-01
 1.2023121593e+00	 9.3093247511e-01	-9.3169977439e-01
 1.1932150986e+00	 9.4256432563e-01	-1.0005072246e+00
 1.1840002645e+00	 9.5411380338e-01	-1.0703441158e+00
 1.1746687806e+00	 9.6557912573e-01	-1.1406043214e+00
 1.1652218059e+00	 9.7695853030e-01	-1.2108073900e+00
 1.1556605344e+00	 9.8825027578e-01	-1.2806093935e+00
 1.1459861948e+00	 9.9945264287e-01	-1.3498137567e+00
 1.1362000498e+00	 1.0105639351e+00	-1.4183820215e+00
 1.1263033957e+00	 1.0215824797e+00	-1.4864444933e+00
 1.2272284097e+00	 9.1269412663e-01	-8.2198172977e-01
 1.2183187227e+00	 9.2455371526e-01	-8.8494710930e-01
 1.2092884280e+00	 9.3633409648e-01	-9.5049849333e-01
 1.2001385827e+00	 9.4803343938e-01	-1.0179343310e+00
 1.1908702807e+00	 9.5964993156e-01	-1.0866542729e+00
 1.1814846520e+00	 9.7118178004e-01	-1.1561699879e+00
 1.1719828623e+00	 9.8262721220e-01	-1.2261160711e+00
 1.1623661127e+00	 9.9398447665e-01	-1.2962609965e+00
 1.1526356390e+00	 1.0052518441e+00	-1.3665180684e+00
 1.1427927111e+00	 1.0164276082e+00	-1.4369563210e+00
 1.1328386328e+00	 1.0275100866e+00	-1.5078113143e+00
 1.0674862614e+00	 9.6823401769e-01	-1.2474583711e+00
 1.0580045638e+00	 9.7858594266e-01	-1.3134955080e+00
 1.0484206960e+00	 9.8884691112e-01	-1.3756610187e+00
 1.0387359610e+00	 9.9901542729e-01	-1.4342532573e+00
 1.0289516911e+00	 1.0090900209e+00	-1.4895730171e+00
 1.0190692479e+00	 1.0190692479e+00	-1.5419280971e+00
 1.0090900209e+00	 1.0289516911e+00	-1.5916378095e+00
 9.9901542729e-01	 1.0387359610e+00	-1.6390373941e+00
 9.8884691112e-01	 1.0484206960e+00	-1.6844823065e+00
 9.7858594266e-01	 1.0580045638e+00	-1.7283523478e+00
 9.6823401769e-01	 1.0674862614e+00	-1.7710556053e+00
 1.0740214985e+00	 9.7416162458e-01	-1.2745398928e+00
 1.0644817533e+00	 9.8457692488e-01	-1.3406187158e+00
 1.0548392122e+00	 9.9490071181e-01	-1.4030059015e+00
 1.0450951864e+00	 1.0051314805e+00	-1.4619249923e+00
 1.0352510165e+00	 1.0152677516e+00	-1.5176032206e+00
 1.0253080722e+00	 1.0253080722e+00	-1.5702764070e+00
 1.0152677516e+00	 1.0352510165e+00	-1.6201937947e+00
 1.0051314805e+00	 1.0450951864e+00	-1.6676227844e+00
 9.9490071181e-01	 1.0548392122e+00	-1.7128535351e+00
 9.8457692488e-01	 1.0644817533e+00	-1.7562033981e+00
 9.7416162458e-01	 1.0740214985e+00	-1.7980211496e+00
 1.0805567357e+00	 9.8008923147e-01	-1.3008140650e+00
 1.0709589427e+00	 9.9056790709e-01	-1.3665279506e+00
 1.0612577285e+00	 1.0009545125e+00	-1.4287874349e+00
 1.0514544119e+00	 1.0112475336e+00	-1.4877244156e+00
 1.0415503419e+00	 1.0214454822e+00	-1.5434755484e+00
 1.0315468965e+00	 1.0315468965e+00	-1.5961875089e+00
 1.0214454822e+00	 1.0415503419e+00	-1.6460221859e+00
 1.0112475336e+00	 1.0514544119e+00	-1.6931617687e+00
 1.0009545125e+00	 1.0612577285e+00	-1.7378136937e+00
 9.9056790709e-01	 1.0709589427e+00	-1.7802154126e+00
 9.8008923147e-01	 1.0805567357e+00	-1.8206389506e+00
 1.0870919728e+00	 9.8601683836e-01	-1.3267376739e+00
 1.0774361321e+00	 9.9655888930e-01	-1.3916498170e+00
 1.0676762447e+00	 1.0070083132e+00	-1.4533983350e+00
 1.0578136374e+00	 1.0173635868e+00	-1.5120068942e+00
 1.0478496673e+00	 1.0276232128e+00	-1.5675048079e+00
 1.0377857207e+00	 1.0377857207e+00	-1.6199326933e+00
 1.0276232128e+00	 1.0478496673e+00	-1.6693480559e+00
 1.0173635868e+00	 1.0578136374e+00	-1.7158307617e+00
 1.0070083132e+00	 1.0676762447e+00	-1.7594883605e+00
 9.9655888930e-01	 1.0774361321e+00	-1.8004612219e+00
 9.8601683836e-01	 1.0870919728e+00	-1.8389274495e+00
 1.0936272100e+00	 9.9194444525e-01	-1.3527687806e+00
 1.0839133215e+00	 1.0025498715e+00	-1.4164131565e+00
 1.0740947609e+00	 1.0130621139e+00	-1.4772345902e+00
 1.0641728629e+00	 1.0234796400e+00	-1.5351321693e+00
 1.0541489927e+00	 1.0338009435e+00	-1.5900113408e+00
 1.0440245450e+00	 1.0440245450e+00	-1.6417899957e+00
 1.0338009435e+00	 1.0541489927e+00	-1.6904044761e+00
 1.0234796400e+00	 1.0641728629e+00	-1.7358154646e+00
 1.0130621139e+00	 1.0740947609e+00	-1.7780137162e+00
 1.0025498715e+00	 1.0839133215e+00	-1.8170255939e+00
 9.9194444525e-01	 1.0936272100e+00	-1.8529183709e+00
 1.1001624471e+00	 9.9787205214e-01	-1.3793670497e+00
 1.0903905110e+00	 1.0085408537e+00	-1.4412493587e+00
 1.0805132771e+00	 1.0191159146e+00	-1.5006957531e+00
 1.0705320884e+00	 1.0295956931e+00	-1.5574646259e+00
 1.0604483181e+00	 1.0399786741e+00	-1.6113212687e+00
 1.0502633693e+00	 1.0502633693e+00	-1.6620444164e+00
 1.0399786741e+00	 1.0604483181e+00	-1.7094327087e+00
 1.0295956931e+00	 1.0705320884e+00	-1.7533110288e+00
 1.0191159146e+00	 1.0805132771e+00	-1.7935366764e+00
 1.0085408537e+00	 1.0903905110e+00	-1.8300053346e+00
 9.9787205214e-01	 1.1001624471e+00	-1.8626567914e+00
 1.1066976842e+00	 1.0037996590e+00	-1.4069940706e+00
 1.0968677004e+00	 1.0145318359e+00	-1.4665926661e+00
 1.0869317933e+00	 1.0251697153e+00	-1.5241852267e+00
 1.0768913139e+00	 1.0357117463e+00	-1.5793735581e+00
 1.0667476435e+00	 1.0461564048e+00	-1.6317667355e+00
 1.0565021936e+00	 1.0565021936e+00	-1.6809881376e+00
 1.0461564048e+00	 1.0667476435e+00	-1.7266823967e+00
 1.0357117463e+00	 1.0768913139e+00	-1.7685222178e+00
 1.0251697153e+00	 1.0869317933e+00	-1.8062150248e+00
 1.0145318359e+00	 1.0968677004e+00	-1.8395093909e+00
 1.0037996590e+00	 1.1066976842e+00	-1.8682012111e+00
 1.1132329214e+00	 1.0097272659e+00	-1.4358372249e+00
 1.1033448898e+00	 1.0205228181e+00	-1.4928804728e+00
 1.0933503095e+00	 1.0312235159e+00	-1.5481105444e+00
 1.0832505393e+00	 1.0418277995e+00	-1.6012334299e+00
 1.0730469689e+00	 1.0523341354e+00	-1.6516861457e+00
 1.0627410179e+00	 1.0627410179e+00	-1.6989207384e+00
 1.0523341354e+00	 1.0730469689e+00	-1.7424117540e+00
 1.0418277995e+00	 1.0832505393e+00	-1.7816635702e+00
 1.0312235159e+00	 1.0933503095e+00	-1.8162175476e+00
 1.0205228181e+00	 1.1033448898e+00	-1.8456589558e+00
 1.0097272659e+00	 1.1132329214e+00	-1.8700448238e+00
 1.1197681585e+00	 1.0156548728e+00	-1.4625845844e+00
 1.1098220793e+00	 1.0265138003e+00	-1.5205536169e+00
 1.0997688257e+00	 1.0372773166e+00	-1.5728836464e+00
 1.0896097648e+00	 1.0479438526e+00	-1.6234241309e+00
 1.0793462943e+00	 1.0585118661e+00	-1.6714243997e+00
 1.0689798421e+00	 1.0689798421e+00	-1.7161494071e+00
 1.0585118661e+00	 1.0793462943e+00	-1.7568877532e+00
 1.0479438526e+00	 1.0896097648e+00	-1.7929595617e+00
 1.0372773166e+00	 1.0997688257e+00	-1.8237241688e+00
 1.0265138003e+00	 1.1098220793e+00	-1.8485875753e+00
 1.0156548728e+00	 1.1197681585e+00	-1.8740227025e+00
 1.1263033957e+00	 1.0215824797e+00	-1.4864444933e+00
 1.1162992687e+00	 1.0325047826e+00	-1.5483867426e+00
 1.1061873419e+00	 1.0433311173e+00	-1.5989211494e+00
 1.0959689903e+00	 1.0540599058e+00	-1.6463312291e+00
 1.0856456197e+00	 1.0646895967e+00	-1.6913331258e+00
 1.0752186664e+00	 1.0752186664e+00	-1.7329891509e+00
 1.0646895967e+00	 1.0856456197e+00	-1.7703863116e+00
 1.0540599058e+00	 1.0959689903e+00	-1.8026447669e+00
 1.0433311173e+00	 1.1061873419e+00	-1.8289260856e+00
 1.0325047826e+00	 1.1162992687e+00	-1.8509745469e+00
 1.0215824797e+00	 1.1263033957e+00	-1.8821214942e+00
 1.1328386328e+00	 1.0275100866e+00	-1.5078113143e+00
 1.1227764581e+00	 1.0384957648e+00	-1.5733697334e+00
 1.1126058582e+00	 1.0493849180e+00	-1.6265046764e+00
 1.1023282158e+00	 1.0601759590e+00	-1.6703462185e+00
 1.0919449451e+00	 1.0708673273e+00	-1.7117709091e+00
 1.0814574907e+00	 1.0814574907e+00	-1.7497630045e+00
 1.0708673273e+00	 1.0919449451e+00	-1.7831924778e+00
 1.0601759590e+00	 1.1023282158e+00	-1.8109640213e+00
 1.0493849180e+00	 1.1126058582e+00	-1.8322373522e+00
 1.0384957648e+00	 1.1227764581e+00	-1.8581945631e+00
 1.0275100866e+00	 1.1328386328e+00	-1.8945129131e+00
 9.6823401769e-01	 1.0674862614e+00	-1.7710556053e+00
 9.5779087687e-01	 1.0768660984e+00	-1.8110334916e+00
 9.4725983182e-01	 1.0861411972e+00	-1.8460777936e+00
 9.3664246796e-01	 1.0953103293e+00	-1.8756700973e+00
 9.2594039318e-01	 1.1043722979e+00	-1.8992995526e+00
 9.1515523699e-01	 1.1133259384e+00	-1.9168688811e+00
 9.0428864976e-01	 1.1221701192e+00	-1.9364181787e+00
 8.9334230186e-01	 1.1309037418e+00	-1.9597908445e+00
 8.8231788280e-01	 1.1395257413e+00	-1.9849513770e+00
 8.7121710044e-01	 1.1480350871e+00	-2.0097709955e+00
 8.6004168007e-01	 1.1564307828e+00	-2.0320374383e+00
 9.7416162458e-01	 1.0740214985e+00	-1.7980211496e+00
 9.6365455001e-01	 1.0834587597e+00	-1.8363720053e+00
 9.5305903305e-01	 1.0927906414e+00	-1.8687414683e+00
 9.4237666883e-01	 1.1020159077e+00	-1.8946586869e+00
 9.3160907508e-01	 1.1111333543e+00	-1.9136605791e+00
 9.2075789130e-01	 1.1201418098e+00	-1.9320443583e+00
 9.0982477794e-01	 1.1290401354e+00	-1.9550924675e+00
 8.9881141561e-01	 1.1378272259e+00	-1.9808690368e+00
 8.8771950417e-01	 1.1465020100e+00	-2.0073308254e+00
 8.7655076192e-01	 1.1550634506e+00	-2.0323371142e+00
 8.6530692473e-01	 1.1635105455e+00	-2.0536598140e+00
 9.8008923147e-01	 1.0805567357e+00	-1.8206389506e+00
 9.6951822314e-01	 1.0900514209e+00	-1.8567370708e+00
 9.5885823428e-01	 1.0994400856e+00	-1.8856800583e+00
 9.4811086970e-01	 1.1087214860e+00	-1.9070687103e+00
 9.3727775698e-01	 1.1178944108e+00	-1.9244506665e+00
 9.2636054560e-01	 1.1269576812e+00	-1.9466879447e+00
 9.1536090612e-01	 1.1359101515e+00	-1.9724828654e+00
 9.0428052936e-01	 1.1447507100e+00	-1.9999226625e+00
 8.9312112554e-01	 1.1534782787e+00	-2.0269834196e+00
 8.8188442340e-01	 1.1620918142e+00	-2.0515402317e+00
 8.7057216938e-01	 1.1705903082e+00	-2.0713775911e+00
 9.8601683836e-01	 1.0870919728e+00	-1.8389274495e+00
 9.7538189628e-01	 1.0966440822e+00	-1.8720998792e+00
 9.6465743550e-01	 1.1060895298e+00	-1.8968329592e+00
 9.5384507057e-01	 1.1154270644e+00	-1.9144633130e+00
 9.4294643889e-01	 1.1246554672e+00	-1.9356484599e+00
 9.3196319991e-01	 1.1337735525e+00	-1.9610237770e+00
 9.2089703430e-01	 1.1427801677e+00	-1.9888497460e+00
 9.0974964312e-01	 1.1516741941e+00	-2.0172625111e+00
 8.9852274690e-01	 1.1604545473e+00	-2.0442839973e+00
 8.8721808488e-01	 1.1691201778e+00	-2.0678323104e+00
 8.7583741404e-01	 1.1776700709e+00	-2.0857323671e+00
 9.9194444525e-01	 1.0936272100e+00	-1.8529183709e+00
 9.8124556942e-01	 1.1032367435e+00	-1.8824460519e+00
 9.7045663673e-01	 1.1127389739e+00	-1.9023944603e+00
 9.5957927144e-01	 1.1221326427e+00	-1.9226468594e+00
 9.4861512079e-01	 1.1314165237e+00	-1.9474456374e+00
 9.3756585421e-01	 1.1405894239e+00	-1.9752649189e+00
 9.2643316248e-01	 1.1496501838e+00	-2.0044419461e+00
 9.1521875687e-01	 1.1585976782e+00	-2.0331870551e+00
 9.0392436827e-01	 1.1674308160e+00	-2.0595939943e+00
 8.9255174637e-01	 1.1761485413e+00	-2.0816505315e+00
 8.8110265869e-01	 1.1847498336e+00	-2.0972492958e+00
 9.9787205214e-01	 1.1001624471e+00	-1.8626567914e+00
 9.8710924255e-01	 1.1098294047e+00	-1.8877756817e+00
 9.7625583796e-01	 1.1193884181e+00	-1.9078296634e+00
 9.6531347231e-01	 1.1288382210e+00	-1.9322871556e+00
 9.5428380269e-01	 1.1381775801e+00	-1.9600226478e+00
 9.4316850852e-01	 1.1474052952e+00	-1.9896130845e+00
 9.3196929066e-01	 1.1565202000e+00	-2.0194965165e+00
 9.2068787062e-01	 1.1655211622e+00	-2.0479822390e+00
 9.0932598964e-01	 1.1744070847e+00	-2.0732612806e+00
 8.9788540785e-01	 1.1831769049e+00	-2.0934171868e+00
 8.8636790335e-01	 1.1918295963e+00	-2.1064370440e+00
 1.0037996590e+00	 1.1066976842e+00	-1.8682012111e+00
 9.9297291569e-01	 1.1164220660e+00	-1.8907047406e+00
 9.8205503919e-01	 1.1260378623e+00	-1.9155492047e+00
 9.7104767318e-01	 1.1355437994e+00	-1.9435462281e+00
 9.5995248459e-01	 1.1449386366e+00	-1.9735484218e+00
 9.4877116282e-01	 1.1542211666e+00	-2.0042583678e+00
 9.3750541884e-01	 1.1633902161e+00	-2.0342384791e+00
 9.2615698437e-01	 1.1724446463e+00	-2.0619212722e+00
 9.1472761101e-01	 1.1813833533e+00	-2.0856199978e+00
 9.0321906933e-01	 1.1902052685e+00	-2.1035395711e+00
 8.9163314800e-01	 1.1989093590e+00	-2.1137877465e+00
 1.0097272659e+00	 1.1132329214e+00	-1.8700448238e+00
 9.9883658883e-01	 1.1230147273e+00	-1.8965877708e+00
 9.8785424042e-01	 1.1326873064e+00	-1.9257103896e+00
 9.7678187404e-01	 1.1422493777e+00	-1.9565740821e+00
 9.6562116649e-01	 1.1516996930e+00	-1.9881800899e+00
 9.5437381712e-01	 1.1610370379e+00	-2.0193789764e+00
 9.4304154702e-01	 1.1702602322e+00	-2.0488805860e+00
 9.3162609812e-01	 1.1793681304e+00	-2.0752644239e+00
 9.2012923238e-01	 1.1883596220e+00	-2.0969903991e+00
 9.0855273081e-01	 1.1972336320e+00	-2.1124098738e+00
 8.9689839266e-01	 1.2059891216e+00	-2.1197769579e+00
 1.0156548728e+00	 1.1197681585e+00	-1.8740227025e+00
 1.0047002620e+00	 1.1296073885e+00	-1.9057394941e+00
 9.9365344164e-01	 1.1393367506e+00	-1.9384576839e+00
 9.8251607491e-01	 1.1489549560e+00	-1.9715084170e+00
 9.7128984840e-01	 1.1584607494e+00	-2.0040627044e+00
 9.5997647143e-01	 1.1678529093e+00	-2.0351409704e+00
 9.4857767520e-01	 1.1771302484e+00	-2.0636230846e+00
 9.3709521188e-01	 1.1862916145e+00	-2.0882588216e+00
 9.2553085375e-01	 1.1953358906e+00	-2.1076786900e+00
 9.1388639229e-01	 1.2042619956e+00	-2.1204050705e+00
 9.0216363731e-01	 1.2130688843e+00	-2.1248636030e+00
 1.0215824797e+00	 1.1263033957e+00	-1.8821214942e+00
 1.0105639351e+00	 1.1362000498e+00	-1.9183117629e+00
 9.9945264287e-01	 1.1459861948e+00	-1.9539224374e+00
 9.8825027578e-01	 1.1556605344e+00	-1.9884743468e+00
 9.7695853030e-01	 1.1652218059e+00	-2.0213289666e+00
 9.6557912573e-01	 1.1746687806e+00	-2.0516980054e+00
 9.5411380338e-01	 1.1840002645e+00	-2.0786534845e+00
 9.4256432563e-01	 1.1932150986e+00	-2.1011382522e+00
 9.3093247511e-01	 1.2023121593e+00	-2.1179768704e+00
 9.1922005377e-01	 1.2112903592e+00	-2.1278868147e+00
 9.0742888197e-01	 1.2201486470e+00	-2.1294899249e+00
 1.0275100866e+00	 1.1328386328e+00	-1.8945129131e+00
 1.0164276082e+00	 1.1427927111e+00	-1.9344422163e+00
 1.0052518441e+00	 1.1526356390e+00	-1.9722226105e+00
 9.9398447665e-01	 1.1623661127e+00	-2.0075841254e+00
 9.8262721220e-01	 1.1719828623e+00	-2.0400989589e+00
 9.7118178004e-01	 1.1814846520e+00	-2.0691910798e+00
 9.5964993156e-01	 1.1908702807e+00	-2.0941463299e+00
 9.4803343938e-01	 1.2001385827e+00	-2.1141229658e+00
 9.3633409648e-01	 1.2092884280e+00	-2.1281625788e+00
 9.2455371526e-01	 1.2183187227e+00	-2.1352013291e+00
 9.1269412663e-01	 1.2272284097e+00	-2.1340814314e+00
 8.6004168007e-01	 1.1564307828e+00	-2.0320374383e+00
 8.4879528062e-01	 1.1647104700e+00	-2.0518782394e+00
 8.3747776019e-01	 1.1728746636e+00	-2.0706501420e+00
 8.2609088398e-01	 1.1809224780e+00	-2.0879080587e+00
 8.1463643115e-01	 1.1888530631e+00	-2.1031997073e+00
 8.0311619394e-01	 1.1966656050e+00	-2.1160726847e+00
 7.9153197674e-01	 1.2043593259e+00	-2.1260814417e+00
 7.7988559522e-01	 1.2119334843e+00	-2.1327941184e+00
 7.6817887538e-01	 1.2193873752e+00	-2.1357992054e+00
 7.5641365271e-01	 1.2267203306e+00	-2.1347119937e+00
 7.4459177121e-01	 1.2339317191e+00	-2.1291807821e+00
 8.6530692473e-01	 1.1635105455e+00	-2.0536598140e+00
 8.5399167391e-01	 1.1718409216e+00	-2.0718460479e+00
 8.4260486670e-01	 1.1800550971e+00	-2.0887282273e+00
 8.3114827912e-01	 1.1881521808e+00	-2.1039296633e+00
 8.1962370120e-01	 1.1961313176e+00	-2.1170693332e+00
 8.0803293617e-01	 1.2039916885e+00	-2.1277690841e+00
 7.9637779946e-01	 1.2117325110e+00	-2.1356607298e+00
 7.8466011784e-01	 1.2193530390e+00	-2.1403929992e+00
 7.7288172853e-01	 1.2268525633e+00	-2.1416382995e+00
 7.6104447821e-01	 1.2342304116e+00	-2.1390992575e+00
 7.4915022220e-01	 1.2414859488e+00	-2.1325150046e+00
 8.7057216938e-01	 1.1705903082e+00	-2.0713775911e+00
 8.5918806720e-01	 1.1789713732e+00	-2.0875240689e+00
 8.4773197322e-01	 1.1872355305e+00	-2.1023153584e+00
 8.3620567426e-01	 1.1953818836e+00	-2.1154200356e+00
 8.2461097126e-01	 1.2034095721e+00	-2.1265040462e+00
 8.1294967840e-01	 1.2113177721e+00	-2.1352380892e+00
 8.0122362217e-01	 1.2191056961e+00	-2.1413048852e+00
 7.8943464047e-01	 1.2267725937e+00	-2.1444062881e+00
 7.7758458167e-01	 1.2343177513e+00	-2.1442702023e+00
 7.6567530371e-01	 1.2417404926e+00	-2.1406572667e+00
 7.5370867318e-01	 1.2490401784e+00	-2.1333672717e+00
 8.7583741404e-01	 1.1776700709e+00	-2.0857323671e+00
 8.6438446049e-01	 1.1861018248e+00	-2.0995395248e+00
 8.5285907973e-01	 1.1944159640e+00	-2.1121045119e+00
 8.4126306939e-01	 1.2026115865e+00	-2.1231184115e+00
 8.2959824131e-01	 1.2106878266e+00	-2.1322702376e+00
 8.1786642063e-01	 1.2186438556e+00	-2.1392545467e+00
 8.0606944489e-01	 1.2264788812e+00	-2.1437789264e+00
 7.9420916310e-01	 1.2341921484e+00	-2.1455713222e+00
 7.8228743481e-01	 1.2417829393e+00	-2.1443871583e+00
 7.7030612921e-01	 1.2492505736e+00	-2.1400162181e+00
 7.5826712417e-01	 1.2565944081e+00	-2.1322892439e+00
 8.8110265869e-01	 1.1847498336e+00	-2.0972492958e+00
 8.6958085378e-01	 1.1932322764e+00	-2.1085016417e+00
 8.5798618625e-01	 1.2015963974e+00	-2.1187696014e+00
 8.4632046453e-01	 1.2098412893e+00	-2.1277443728e+00
 8.3458551136e-01	 1.2179660812e+00	-2.1351145170e+00
 8.2278316286e-01	 1.2259699391e+00	-2.1405738445e+00
 8.1091526761e-01	 1.2338520663e+00	-2.1438291758e+00
 7.9898368572e-01	 1.2416117031e+00	-2.1446079312e+00
 7.8699028795e-01	 1.2492481274e+00	-2.1426655085e+00
 7.7493695470e-01	 1.2567606546e+00	-2.1377924090e+00
 7.6282557515e-01	 1.2641486378e+00	-2.1298210748e+00
 8.8636790335e-01	 1.1918295963e+00	-2.1064370440e+00
 8.7477724707e-01	 1.2003627280e+00	-2.1150016679e+00
 8.6311329276e-01	 1.2087768309e+00	-2.1229655435e+00
 8.5137785967e-01	 1.2170709921e+00	-2.1299979462e+00
 8.3957278141e-01	 1.2252443357e+00	-2.1357638296e+00
 8.2769990509e-01	 1.2332960227e+00	-2.1399320361e+00
 8.1576109032e-01	 1.2412252514e+00	-2.1421833770e+00
 8.0375820835e-01	 1.2490312578e+00	-2.1422185364e+00
 7.9169314109e-01	 1.2567133154e+00	-2.1397657562e+00
 7.7956778020e-01	 1.2642707355e+00	-2.1345882598e+00
 7.6738402614e-01	 1.2717028675e+00	-2.1264913778e+00
 8.9163314800e-01	 1.1989093590e+00	-2.1137877465e+00
 8.7997364036e-01	 1.2074931796e+00	-2.1196128875e+00
 8.6824039928e-01	 1.2159572644e+00	-2.1253283174e+00
 8.5643525481e-01	 1.2243006949e+00	-2.1305596949e+00
 8.4456005147e-01	 1.2325225902e+00	-2.1349255683e+00
 8.3261664732e-01	 1.2406221062e+00	-2.1380459581e+00
 8.2060691304e-01	 1.2485984365e+00	-2.1395508059e+00
 8.0853273098e-01	 1.2564508126e+00	-2.1390882423e+00
 7.9639599424e-01	 1.2641785035e+00	-2.1363326289e+00
 7.8419860570e-01	 1.2717808165e+00	-2.1309923329e+00
 7.7194247712e-01	 1.2792570972e+00	-2.1228171914e+00
 8.9689839266e-01	 1.2059891216e+00	-2.1197769579e+00
 8.8517003365e-01	 1.2146236312e+00	-2.1228906307e+00
 8.7336750579e-01	 1.2231376978e+00	-2.1264750191e+00
 8.6149264994e-01	 1.2315303978e+00	-2.1300908044e+00
 8.4954732152e-01	 1.2398008447e+00	-2.1332876772e+00
 8.3753338955e-01	 1.2479481897e+00	-2.1356133404e+00
 8.2545273575e-01	 1.2559716216e+00	-2.1366223751e+00
 8.1330725360e-01	 1.2638703673e+00	-2.1358849228e+00
 8.0109884738e-01	 1.2716436915e+00	-2.1329951353e+00
 7.8882943120e-01	 1.2792908975e+00	-2.1275793495e+00
 7.7650092810e-01	 1.2868113269e+00	-2.1193039441e+00
 9.0216363731e-01	 1.2130688843e+00	-2.1248636030e+00
 8.9036642693e-01	 1.2217540829e+00	-2.1253722794e+00
 8.7849461231e-01	 1.2303181313e+00	-2.1270039103e+00
 8.6655004508e-01	 1.2387601006e+00	-2.1292331616e+00
 8.5453459157e-01	 1.2470790992e+00	-2.1315187492e+00
 8.4245013178e-01	 1.2552742732e+00	-2.1333129094e+00
 8.3029855847e-01	 1.2633448067e+00	-2.1340707313e+00
 8.1808177623e-01	 1.2712899220e+00	-2.1332593025e+00
 8.0580170052e-01	 1.2791088795e+00	-2.1303666171e+00
 7.9346025670e-01	 1.2868009785e+00	-2.1249102026e+00
 7.8105937909e-01	 1.2943655566e+00	-2.1164454188e+00
 9.0742888197e-01	 1.2201486470e+00	-2.1294899249e+00
 8.9556282022e-01	 1.2288845345e+00	-2.1275772698e+00
 8.8362171882e-01	 1.2374985648e+00	-2.1274944625e+00
 8.7160744022e-01	 1.2459898034e+00	-2.1286094286e+00
 8.5952186162e-01	 1.2543573537e+00	-2.1302681171e+00
 8.4736687401e-01	 1.2626003568e+00	-2.1318044852e+00
 8.3514438118e-01	 1.2707179918e+00	-2.1325503472e+00
 8.2285629886e-01	 1.2787094767e+00	-2.1318450315e+00
 8.1050455366e-01	 1.2865740676e+00	-2.1290447983e+00
 7.9809108220e-01	 1.2943110595e+00	-2.1235319682e+00
 7.8561783007e-01	 1.3019197862e+00	-2.1147237155e+00
 9.1269412663e-01	 1.2272284097e+00	-2.1340814314e+00
 9.0075921351e-01	 1.2360149861e+00	-2.1300070905e+00
 8.8874882534e-01	 1.2446789982e+00	-2.1285073955e+00
 8.7666483536e-01	 1.2532195063e+00	-2.1288231099e+00
 8.6450913168e-01	 1.2616356082e+00	-2.1301659380e+00
 8.5228361624e-01	 1.2699264403e+00	-2.1317290728e+00
 8.3999020390e-01	 1.2780911770e+00	-2.1326976076e+00
 8.2763082149e-01	 1.2861290314e+00	-2.1322587563e+00
 8.1520740681e-01	 1.2940392556e+00	-2.1296118289e+00
 8.0272190770e-01	 1.3018211405e+00	-2.1239779132e+00
 7.9017628106e-01	 1.3094740159e+00	-2.1146092141e+00
 7.4459177121e-01	 1.2339317191e+00	-2.1291807821e+00
 7.3271508277e-01	 1.2410209464e+00	-2.1218658174e+00
 7.2078544690e-01	 1.2479874567e+00	-2.1159082489e+00
 7.0880472913e-01	 1.2548307312e+00	-2.1107841049e+00
 6.9677479985e-01	 1.2615502884e+00	-2.1058961199e+00
 6.8469753345e-01	 1.2681456837e+00	-2.1006591235e+00
 6.7257480735e-01	 1.2746165096e+00	-2.0945127316e+00
 6.6040850119e-01	 1.2809623955e+00	-2.0869331451e+00
 6.4820049588e-01	 1.2871830074e+00	-2.0774440001e+00
 6.3595267275e-01	 1.2932780484e+00	-2.0656262232e+00
 6.2366691268e-01	 1.2992472579e+00	-2.0511268520e+00
 7.4915022220e-01	 1.2414859488e+00	-2.1325150046e+00
 7.3720082371e-01	 1.2486185769e+00	-2.1242059960e+00
 7.2519815364e-01	 1.2556277367e+00	-2.1172059169e+00
 7.1314408895e-01	 1.2625129063e+00	-2.1112139454e+00
 7.0104051148e-01	 1.2692736012e+00	-2.1055362291e+00
 6.8888930707e-01	 1.2759093741e+00	-2.0994917438e+00
 6.7669236467e-01	 1.2824198149e+00	-2.0924256420e+00
 6.6445157540e-01	 1.2888045507e+00	-2.0837216662e+00
 6.5216883169e-01	 1.2950632458e+00	-2.0728135688e+00
 6.3984602640e-01	 1.3011956011e+00	-2.0591954908e+00
 6.2748505191e-01	 1.3072013546e+00	-2.0424312571e+00
 7.5370867318e-01	 1.2490401784e+00	-2.1333672717e+00
 7.4168656465e-01	 1.2562162074e+00	-2.1244966495e+00
 7.2961086039e-01	 1.2632680168e+00	-2.1164514216e+00
 7.1748344877e-01	 1.2701950814e+00	-2.1094988846e+00
 7.0530622310e-01	 1.2769969140e+00	-2.1028795575e+00
 6.9308108069e-01	 1.2836730644e+00	-2.0958426143e+00
 6.8080992198e-01	 1.2902231202e+00	-2.0876659427e+00
 6.6849464960e-01	 1.2966467060e+00	-2.0776691404e+00
 6.5613716750e-01	 1.3029434842e+00	-2.0652254722e+00
 6.4373938004e-01	 1.3091131538e+00	-2.0497727361e+00
 6.3130319115e-01	 1.3151554513e+00	-2.0308229966e+00
 7.5826712417e-01	 1.2565944081e+00	-2.1322892439e+00
 7.4617230559e-01	 1.2638138379e+00	-2.1231064254e+00
 7.3402356713e-01	 1.2709082968e+00	-2.1141464337e+00
 7.2182280859e-01	 1.2778772566e+00	-2.1061000661e+00
 7.0957193472e-01	 1.2847202268e+00	-2.0983645898e+00
 6.9727285432e-01	 1.2914367548e+00	-2.0901447864e+00
 6.8492747930e-01	 1.2980264254e+00	-2.0806778304e+00
 6.7253772380e-01	 1.3044888613e+00	-2.0692468397e+00
 6.6010550331e-01	 1.3108237225e+00	-2.0551933378e+00
 6.4763273369e-01	 1.3170307065e+00	-2.0379285727e+00
 6.3512133038e-01	 1.3231095480e+00	-2.0169436505e+00
 7.6282557515e-01	 1.2641486378e+00	-2.1298210748e+00
 7.5065804652e-01	 1.2714114684e+00	-2.1204317734e+00
 7.3843627387e-01	 1.2785485769e+00	-2.1107836464e+00
 7.2616216841e-01	 1.2855594317e+00	-2.1014718657e+00
 7.1383764634e-01	 1.2924435396e+00	-2.0924247927e+00
 7.0146462794e-01	 1.2992004451e+00	-2.0828275910e+00
 6.8904503661e-01	 1.3058297307e+00	-2.0719026371e+00
 6.7658079801e-01	 1.3123310166e+00	-2.0589235960e+00
 6.6407383912e-01	 1.3187039609e+00	-2.0432283562e+00
 6.5152608734e-01	 1.3249482592e+00	-2.0242307693e+00
 6.3893946961e-01	 1.3310636447e+00	-2.0014311469e+00
 7.6738402614e-01	 1.2717028675e+00	-2.1264913778e+00
 7.5514378746e-01	 1.2790090990e+00	-2.1169291664e+00
 7.4284898062e-01	 1.2861888569e+00	-2.1068071639e+00
 7.3050152823e-01	 1.2932416068e+00	-2.0960610786e+00
 7.1810335797e-01	 1.3001668524e+00	-2.0854878103e+00
 7.0565640156e-01	 1.3069641355e+00	-2.0743158565e+00
 6.9316259392e-01	 1.3136330360e+00	-2.0617780829e+00
 6.8062387221e-01	 1.3201731719e+00	-2.0471650989e+00
 6.6804217492e-01	 1.3265841993e+00	-2.0298386357e+00
 6.5541944098e-01	 1.3328658119e+00	-2.0092436725e+00
 6.4275760884e-01	 1.3390177414e+00	-1.9849192631e+00
 7.7194247712e-01	 1.2792570972e+00	-2.1228171914e+00
 7.5962952840e-01	 1.2866067295e+00	-2.1130457384e+00
 7.4726168736e-01	 1.2938291369e+00	-2.1024145467e+00
 7.3484088805e-01	 1.3009237820e+00	-2.0903061091e+00
 7.2236906959e-01	 1.3078901652e+00	-2.0779746648e+00
 7.0984817518e-01	 1.3147278258e+00	-2.0650291311e+00
 6.9728015123e-01	 1.3214363412e+00	-2.0507375315e+00
 6.8466694641e-01	 1.3280153272e+00	-2.0344331973e+00
 6.7201051073e-01	 1.3344644377e+00	-2.0155285597e+00
 6.5931279463e-01	 1.3407833646e+00	-1.9935276311e+00
 6.4657574807e-01	 1.3469718381e+00	-1.9680371263e+00
 7.7650092810e-01	 1.2868113269e+00	-2.1193039441e+00
 7.6411526934e-01	 1.2942043600e+00	-2.1092191980e+00
 7.5167439410e-01	 1.3014694170e+00	-2.0979530864e+00
 7.3918024787e-01	 1.3086059571e+00	-2.0846361654e+00
 7.2663478121e-01	 1.3156134780e+00	-2.0702989614e+00
 7.1403994880e-01	 1.3224915161e+00	-2.0553809104e+00
 7.0139770855e-01	 1.3292396465e+00	-2.0392092517e+00
 6.8871002062e-01	 1.3358574825e+00	-2.0211852050e+00
 6.7597884654e-01	 1.3423446760e+00	-2.0007981477e+00
 6.6320614827e-01	 1.3487009174e+00	-1.9776384212e+00
 6.5039388730e-01	 1.3549259348e+00	-1.9514087139e+00
 7.8105937909e-01	 1.2943655566e+00	-2.1164454188e+00
 7.6860101028e-01	 1.3018019905e+00	-2.1058777449e+00
 7.5608710085e-01	 1.3091096970e+00	-2.0938025137e+00
 7.4351960770e-01	 1.3162881322e+00	-2.0793886238e+00
 7.3090049283e-01	 1.3233367908e+00	-2.0628660970e+00
 7.1823172242e-01	 1.3302552065e+00	-2.0457778685e+00
 7.0551526586e-01	 1.3370429517e+00	-2.0276156820e+00
 6.9275309482e-01	 1.3436996378e+00	-2.0078732087e+00
 6.7994718235e-01	 1.3502249144e+00	-1.9861424170e+00
 6.6709950192e-01	 1.3566184701e+00	-1.9621266731e+00
 6.5421202653e-01	 1.3628800315e+00	-1.9356523525e+00
 7.8561783007e-01	 1.3019197862e+00	-2.1147237155e+00
 7.7308675121e-01	 1.3093996210e+00	-2.1034399860e+00
 7.6049980759e-01	 1.3167499771e+00	-2.0903346492e+00
 7.4785896752e-01	 1.3239703073e+00	-2.0746586422e+00
 7.3516620445e-01	 1.3310601036e+00	-2.0560724737e+00
 7.2242349604e-01	 1.3380188968e+00	-2.0366190938e+00
 7.0963282317e-01	 1.3448462570e+00	-2.0163726990e+00
 6.9679616903e-01	 1.3515417930e+00	-1.9949433808e+00
 6.8391551816e-01	 1.3581051528e+00	-1.9720507489e+00
 6.7099285557e-01	 1.3645360228e+00	-1.9475372981e+00
 6.5803016576e-01	 1.3708341282e+00	-1.9213802169e+00
 7.9017628106e-01	 1.3094740159e+00	-2.1146092141e+00
 7.7757249215e-01	 1.3169972515e+00	-2.1023148536e+00
 7.6491251433e-01	 1.3243902571e+00	-2.0879132870e+00
 7.5219832734e-01	 1.3316524825e+00	-2.0707579727e+00
 7.3943191608e-01	 1.3387834164e+00	-2.0503047151e+00
 7.2661526967e-01	 1.3457825872e+00	-2.0282953287e+00
 7.1375038049e-01	 1.3526495623e+00	-2.0058888907e+00
 7.0083924323e-01	 1.3593839483e+00	-1.9828352941e+00
 6.8788385397e-01	 1.3659853912e+00	-1.9590062552e+00
 6.7488620921e-01	 1.3724535755e+00	-1.9344089175e+00
 6.6184830499e-01	 1.3787882249e+00	-1.9091978283e+00
 6.2366691268e-01	 1.2992472579e+00	-2.0511268520e+00
 6.1134299734e-01	 1.3050913945e+00	-2.0351814626e+00
 5.9898489008e-01	 1.3108092439e+00	-2.0190111778e+00
 5.8659446561e-01	 1.3164006534e+00	-2.0023589302e+00
 5.7417359483e-01	 1.3218655059e+00	-1.9850661583e+00
 5.6172414397e-01	 1.3272037201e+00	-1.9670760665e+00
 5.4924797379e-01	 1.3324152499e+00	-1.9484357632e+00
 5.3674693882e-01	 1.3375000841e+00	-1.9292972931e+00
 5.2422288651e-01	 1.3424582464e+00	-1.9099175827e+00
 5.1167765648e-01	 1.3472897946e+00	-1.8906573279e+00
 4.9911307980e-01	 1.3519948207e+00	-1.8719788549e+00
 6.2748505191e-01	 1.3072013546e+00	-2.0424312571e+00
 6.1508568857e-01	 1.3130812695e+00	-2.0237782136e+00
 6.0265192397e-01	 1.3188341240e+00	-2.0045898620e+00
 5.9018564433e-01	 1.3244597645e+00	-1.9846965254e+00
 5.7768873197e-01	 1.3299580733e+00	-1.9640311238e+00
 5.6516306456e-01	 1.3353289685e+00	-1.9426324464e+00
 5.5261051427e-01	 1.3405724037e+00	-1.9206472557e+00
 5.4003294695e-01	 1.3456883677e+00	-1.8983312378e+00
 5.2743222138e-01	 1.3506768843e+00	-1.8760488212e+00
 5.1481018844e-01	 1.3555380116e+00	-1.8542718909e+00
 5.0216869040e-01	 1.3602718422e+00	-1.8335774350e+00
 6.3130319115e-01	 1.3151554513e+00	-2.0308229966e+00
 6.1882837979e-01	 1.3210711445e+00	-2.0096771262e+00
 6.0631895787e-01	 1.3268590041e+00	-1.9878034237e+00
 5.9377682304e-01	 1.3325188757e+00	-1.9650928954e+00
 5.8120386911e-01	 1.3380506407e+00	-1.9415433270e+00
 5.6860198516e-01	 1.3434542169e+00	-1.9172626128e+00
 5.5597305475e-01	 1.3487295575e+00	-1.8924708667e+00
 5.4331895508e-01	 1.3538766513e+00	-1.8675013304e+00
 5.3064155625e-01	 1.3588955221e+00	-1.8428001011e+00
 5.1794272040e-01	 1.3637862286e+00	-1.8189247087e+00
 5.0522430101e-01	 1.3685488637e+00	-1.7965415790e+00
 6.3512133038e-01	 1.3231095480e+00	-2.0169436505e+00
 6.2257107102e-01	 1.3290610194e+00	-1.9935932936e+00
 6.0998599176e-01	 1.3348838842e+00	-1.9694323037e+00
 5.9736800176e-01	 1.3405779869e+00	-1.9443861450e+00
 5.8471900625e-01	 1.3461432082e+00	-1.9184913477e+00
 5.7204090576e-01	 1.3515794653e+00	-1.8918989371e+00
 5.5933559522e-01	 1.3568867113e+00	-1.8648765929e+00
 5.4660496321e-01	 1.3620649349e+00	-1.8378095537e+00
 5.3385089112e-01	 1.3671141600e+00	-1.8112002910e+00
 5.2107525236e-01	 1.3720344456e+00	-1.7856669832e+00
 5.0827991161e-01	 1.3768258853e+00	-1.7619408271e+00
 6.3893946961e-01	 1.3310636447e+00	-2.0014311469e+00
 6.2631376224e-01	 1.3370508944e+00	-1.9762372202e+00
 6.1365302566e-01	 1.3429087643e+00	-1.9502515393e+00
 6.0095918047e-01	 1.3486370980e+00	-1.9234082695e+00
 5.8823414339e-01	 1.3542357756e+00	-1.8957570439e+00
 5.7547982635e-01	 1.3597047137e+00	-1.8674665363e+00
 5.6269813570e-01	 1.3650438651e+00	-1.8388267094e+00
 5.4989097134e-01	 1.3702532185e+00	-1.8102497545e+00
 5.3706022599e-01	 1.3753327978e+00	-1.7822697475e+00
 5.2420778431e-01	 1.3802826626e+00	-1.7555410535e+00
 5.1133552222e-01	 1.3851029068e+00	-1.7308355186e+00
 6.4275760884e-01	 1.3390177414e+00	-1.9849192631e+00
 6.3005645347e-01	 1.3450407694e+00	-1.9583144033e+00
 6.1732005955e-01	 1.3509336445e+00	-1.9310304222e+00
 6.0455035919e-01	 1.3566962092e+00	-1.9029848827e+00
 5.9174928053e-01	 1.3623283430e+00	-1.8742153454e+00
 5.7891874695e-01	 1.3678299621e+00	-1.8448831281e+00
 5.6606067617e-01	 1.3732010190e+00	-1.8152756829e+00
 5.5317697947e-01	 1.3784415020e+00	-1.7858076101e+00
 5.4026956085e-01	 1.3835514357e+00	-1.7570203320e+00
 5.2734031627e-01	 1.3885308796e+00	-1.7295804607e+00
 5.1439113282e-01	 1.3933799283e+00	-1.7042769017e+00
 6.4657574807e-01	 1.3469718381e+00	-1.9680371263e+00
 6.3379914469e-01	 1.3530306443e+00	-1.9405249127e+00
 6.2098709344e-01	 1.3589585246e+00	-1.9125321510e+00
 6.0814153790e-01	 1.3647553204e+00	-1.8839349385e+00
 5.9526441767e-01	 1.3704209105e+00	-1.8547340401e+00
 5.8235766755e-01	 1.3759552106e+00	-1.8250588769e+00
 5.6942321665e-01	 1.3813581728e+00	-1.7951700738e+00
 5.5646298760e-01	 1.3866297856e+00	-1.7654605839e+00
 5.4347889572e-01	 1.3917700735e+00	-1.7364554161e+00
 5.3047284823e-01	 1.3967790965e+00	-1.7088099999e+00
 5.1744674343e-01	 1.4016569499e+00	-1.6833072298e+00
 6.5039388730e-01	 1.3549259348e+00	-1.9514087139e+00
 6.3754183592e-01	 1.3610205193e+00	-1.9235629674e+00
 6.2465412734e-01	 1.3669834047e+00	-1.8955134802e+00
 6.1173271662e-01	 1.3728144315e+00	-1.8670704469e+00
 5.9877955481e-01	 1.3785134779e+00	-1.8381735523e+00
 5.8579658814e-01	 1.3840804590e+00	-1.8088962318e+00
 5.7278575712e-01	 1.3895153266e+00	-1.7794484290e+00
 5.5974899573e-01	 1.3948180692e+00	-1.7501778691e+00
 5.4668823059e-01	 1.3999887114e+00	-1.7215698744e+00
 5.3360538019e-01	 1.4050273135e+00	-1.6942457587e+00
 5.2050235403e-01	 1.4099339714e+00	-1.6689598439e+00
 6.5421202653e-01	 1.3628800315e+00	-1.9356523525e+00
 6.4128452714e-01	 1.3690103943e+00	-1.9081165101e+00
 6.2832116123e-01	 1.3750082848e+00	-1.8807243647e+00
 6.1532389533e-01	 1.3808735427e+00	-1.8531961841e+00
 6.0229469195e-01	 1.3866060454e+00	-1.8253867145e+00
 5.8923550874e-01	 1.3922057074e+00	-1.7972897551e+00
 5.7614829760e-01	 1.3976724804e+00	-1.7690411650e+00
 5.6303500386e-01	 1.4030063528e+00	-1.7409203229e+00
 5.4989756546e-01	 1.4082073493e+00	-1.7133500658e+00
 5.3673791214e-01	 1.4132755305e+00	-1.6868951446e+00
 5.2355796463e-01	 1.4182109929e+00	-1.6622592421e+00
 6.5803016576e-01	 1.3708341282e+00	-1.9213802169e+00
 6.4502721837e-01	 1.3770002693e+00	-1.8948667794e+00
 6.3198819513e-01	 1.3830331649e+00	-1.8689076005e+00
 6.1891507405e-01	 1.3889326539e+00	-1.8431093975e+00
 6.0580982910e-01	 1.3946986128e+00	-1.8172185329e+00
 5.9267442934e-01	 1.4003309558e+00	-1.7911259446e+00
 5.7951083807e-01	 1.4058296342e+00	-1.7648704424e+00
 5.6632101199e-01	 1.4111946364e+00	-1.7386403908e+00
 5.5310690033e-01	 1.4164259871e+00	-1.7127738048e+00
 5.3987044410e-01	 1.4215237475e+00	-1.6877568992e+00
 5.2661357524e-01	 1.4264880145e+00	-1.6642211362e+00
 6.6184830499e-01	 1.3787882249e+00	-1.9091978283e+00
 6.4876990960e-01	 1.3849901442e+00	-1.8844878795e+00
 6.3565522902e-01	 1.3910580450e+00	-1.8607984616e+00
 6.2250625276e-01	 1.3969917650e+00	-1.8375995056e+00
 6.0932496624e-01	 1.4027911802e+00	-1.8145059455e+00
 5.9611334994e-01	 1.4084562042e+00	-1.7912830467e+00
 5.8287337855e-01	 1.4139867881e+00	-1.7678500313e+00
 5.6960702012e-01	 1.4193829200e+00	-1.7442820204e+00
 5.5631623520e-01	 1.4246446250e+00	-1.7208103214e+00
 5.4300297606e-01	 1.4297719645e+00	-1.6978211019e+00
 5.2966918584e-01	 1.4347650360e+00	-1.6758524965e+00
 4.9911307980e-01	 1.3519948207e+00	-1.8719788549e+00
 4.8653311820e-01	 1.3565726823e+00	-1.8531003632e+00
 4.7393744782e-01	 1.3610243479e+00	-1.8329985586e+00
 4.6132786810e-01	 1.3653500079e+00	-1.8119200682e+00
 4.4870616704e-01	 1.3695498853e+00	-1.7901911239e+00
 4.3607412057e-01	 1.3736242346e+00	-1.7682117327e+00
 4.2343349180e-01	 1.3775733421e+00	-1.7464491238e+00
 4.1078603044e-01	 1.3813975249e+00	-1.7254305366e+00
 3.9813347216e-01	 1.3850971308e+00	-1.7057354157e+00
 3.8547753797e-01	 1.3886725372e+00	-1.6879870829e+00
 3.7281993362e-01	 1.3921241513e+00	-1.6728439569e+00
 5.0216869040e-01	 1.3602718422e+00	-1.8335774350e+00
 4.8951171327e-01	 1.3648777299e+00	-1.8132026456e+00
 4.7683893117e-01	 1.3693566489e+00	-1.7920307496e+00
 4.6415215458e-01	 1.3737087910e+00	-1.7702644362e+00
 4.5145318246e-01	 1.3779343803e+00	-1.7481948335e+00
 4.3874380157e-01	 1.3820336731e+00	-1.7261954010e+00
 4.2602578585e-01	 1.3860069574e+00	-1.7047150573e+00
 4.1330089571e-01	 1.3898545522e+00	-1.6842706105e+00
 4.0057087745e-01	 1.3935768073e+00	-1.6654385606e+00
 3.8783746261e-01	 1.3971741027e+00	-1.6488463465e+00
 3.7510236738e-01	 1.4006468478e+00	-1.6351631121e+00
 5.0522430101e-01	 1.3685488637e+00	-1.7965415790e+00
 4.9249030833e-01	 1.3731827774e+00	-1.7749232194e+00
 4.7974041452e-01	 1.3776889500e+00	-1.7528861466e+00
 4.6697644107e-01	 1.3820675741e+00	-1.7305791459e+00
 4.5420019787e-01	 1.3863188754e+00	-1.7082475915e+00
 4.4141348257e-01	 1.3904431117e+00	-1.6862270826e+00
 4.2861807990e-01	 1.3944405727e+00	-1.6649362724e+00
 4.1581576098e-01	 1.3983115795e+00	-1.6448689617e+00
 4.0300828274e-01	 1.4020564839e+00	-1.6265855288e+00
 3.9019738724e-01	 1.4056756681e+00	-1.6107037709e+00
 3.7738480114e-01	 1.4091695444e+00	-1.5978892347e+00
 5.0827991161e-01	 1.3768258853e+00	-1.7619408271e+00
 4.9546890339e-01	 1.3814878250e+00	-1.7393377059e+00
 4.8264189788e-01	 1.3860212510e+00	-1.7166257831e+00
 4.6980072755e-01	 1.3904263571e+00	-1.6938903271e+00
 4.5694721328e-01	 1.3947033704e+00	-1.6713206813e+00
 4.4408316357e-01	 1.3988525502e+00	-1.6492036644e+00
 4.3121037395e-01	 1.4028741880e+00	-1.6279161226e+00
 4.1833062625e-01	 1.4067686067e+00	-1.6079167059e+00
 4.0544568802e-01	 1.4105361604e+00	-1.5897369438e+00
 3.9255731188e-01	 1.4141772336e+00	-1.5739717004e+00
 3.7966723490e-01	 1.4176922409e+00	-1.5612690876e+00
 5.1133552222e-01	 1.3851029068e+00	-1.7308355186e+00
 4.9844749846e-01	 1.3897928726e+00	-1.7075123970e+00
 4.8554338123e-01	 1.3943535520e+00	-1.6843016494e+00
 4.7262501404e-01	 1.3987851402e+00	-1.6612157588e+00
 4.5969422869e-01	 1.4030878655e+00	-1.6383781265e+00
 4.4675284457e-01	 1.4072619888e+00	-1.6160162580e+00
 4.3380266800e-01	 1.4113078033e+00	-1.5944540573e+00
 4.2084549152e-01	 1.4152256340e+00	-1.5741033046e+00
 4.0788309331e-01	 1.4190158370e+00	-1.5554543975e+00
 3.9491723651e-01	 1.4226787991e+00	-1.5390664361e+00
 3.8194966865e-01	 1.4262149375e+00	-1.5255567365e+00
 5.1439113282e-01	 1.3933799283e+00	-1.7042769017e+00
 5.0142609352e-01	 1.3980979202e+00	-1.6805044033e+00
 4.8844486458e-01	 1.4026858530e+00	-1.6569568620e+00
 4.7544930052e-01	 1.4071439233e+00	-1.6335650458e+00
 4.6244124410e-01	 1.4114723605e+00	-1.6103768628e+00
 4.4942252558e-01	 1.4156714273e+00	-1.5875503523e+00
 4.3639496205e-01	 1.4197414186e+00	-1.5653457402e+00
 4.2336035679e-01	 1.4236826613e+00	-1.5441166372e+00
 4.1032049859e-01	 1.4274955135e+00	-1.5243004620e+00
 3.9727716114e-01	 1.4311803646e+00	-1.5064081742e+00
 3.8423210241e-01	 1.4347376340e+00	-1.4910134035e+00
 5.1744674343e-01	 1.4016569499e+00	-1.6833072298e+00
 5.0440468858e-01	 1.4064029677e+00	-1.6593617858e+00
 4.9134634793e-01	 1.4110181541e+00	-1.6356258181e+00
 4.7827358701e-01	 1.4155027064e+00	-1.6119397825e+00
 4.6518825951e-01	 1.4198568556e+00	-1.5882668958e+00
 4.5209220658e-01	 1.4240808659e+00	-1.5646859520e+00
 4.3898725610e-01	 1.4281750339e+00	-1.5413831567e+00
 4.2587522206e-01	 1.4321396885e+00	-1.5186430632e+00
 4.1275790388e-01	 1.4359751901e+00	-1.4968386949e+00
 3.9963708578e-01	 1.4396819301e+00	-1.4764209416e+00
 3.8651453617e-01	 1.4432603305e+00	-1.4579073200e+00
 5.2050235403e-01	 1.4099339714e+00	-1.6689598439e+00
 5.0738328364e-01	 1.4147080153e+00	-1.6451236743e+00
 4.9424783128e-01	 1.4193504551e+00	-1.6213343360e+00
 4.8109787349e-01	 1.4238614894e+00	-1.5973337012e+00
 4.6793527492e-01	 1.4282413507e+00	-1.5729914456e+00
 4.5476188758e-01	 1.4324903045e+00	-1.5482977056e+00
 4.4157955015e-01	 1.4366086492e+00	-1.5233547115e+00
 4.2839008733e-01	 1.4405967158e+00	-1.4983674775e+00
 4.1519530916e-01	 1.4444548666e+00	-1.4736336392e+00
 4.0199701041e-01	 1.4481834955e+00	-1.4495325286e+00
 3.8879696993e-01	 1.4517830271e+00	-1.4265135808e+00
 5.2355796463e-01	 1.4182109929e+00	-1.6622592421e+00
 5.1036187871e-01	 1.4230130629e+00	-1.6388203718e+00
 4.9714931463e-01	 1.4276827561e+00	-1.6150997810e+00
 4.8392215997e-01	 1.4322202725e+00	-1.5907328083e+00
 4.7068229033e-01	 1.4366258457e+00	-1.5654870783e+00
 4.5743156858e-01	 1.4408997430e+00	-1.5392550203e+00
 4.4417184420e-01	 1.4450422646e+00	-1.5120453152e+00
 4.3090495260e-01	 1.4490537431e+00	-1.4839733563e+00
 4.1763271445e-01	 1.4529345432e+00	-1.4552508171e+00
 4.0435693504e-01	 1.4566850610e+00	-1.4261744191e+00
 3.9107940368e-01	 1.4603057236e+00	-1.3971139985e+00
 5.2661357524e-01	 1.4264880145e+00	-1.6642211362e+00
 5.1334047377e-01	 1.4313181105e+00	-1.6414734455e+00
 5.0005079798e-01	 1.4360150572e+00	-1.6179311790e+00
 4.8674644646e-01	 1.4405790556e+00	-1.5931155059e+00
 4.7342930574e-01	 1.4450103408e+00	-1.5666838259e+00
 4.6010124958e-01	 1.4493091816e+00	-1.5384221671e+00
 4.4676413825e-01	 1.4534758799e+00	-1.5082364623e+00
 4.3341981787e-01	 1.4575107703e+00	-1.4761427965e+00
 4.2007011973e-01	 1.4614142197e+00	-1.4422567188e+00
 4.0671685968e-01	 1.4651866265e+00	-1.4067817175e+00
 3.9336183744e-01	 1.4688284202e+00	-1.3699969579e+00
 5.2966918584e-01	 1.4347650360e+00	-1.6758524965e+00
 5.1631906883e-01	 1.4396231580e+00	-1.6540958057e+00
 5.0295228133e-01	 1.4443473582e+00	-1.6308293167e+00
 4.8957073294e-01	 1.4489378386e+00	-1.6054527024e+00
 4.7617632115e-01	 1.4533948358e+00	-1.5775052941e+00
 4.6277093058e-01	 1.4577186201e+00	-1.5466583744e+00
 4.4935643230e-01	 1.4619094952e+00	-1.5127062994e+00
 4.3593468314e-01	 1.4659677976e+00	-1.4755565470e+00
 4.2250752502e-01	 1.4698938963e+00	-1.4352187866e+00
 4.0907678431e-01	 1.4736881920e+00	-1.3917930736e+00
 3.9564427119e-01	 1.4773511167e+00	-1.3454572721e+00
 3.7281993362e-01	 1.3921241513e+00	-1.6728439569e+00
 3.6016234922e-01	 1.3954524094e+00	-1.6588200871e+00
 3.4750645917e-01	 1.3986577775e+00	-1.6434776098e+00
 3.3485392108e-01	 1.4017407496e+00	-1.6275152875e+00
 3.2220637509e-01	 1.4047018470e+00	-1.6115915476e+00
 3.0956544337e-01	 1.4075416178e+00	-1.5962632256e+00
 2.9693272962e-01	 1.4102606362e+00	-1.5819834694e+00
 2.8430981862e-01	 1.4128595019e+00	-1.5691006305e+00
 2.7169827581e-01	 1.4153388396e+00	-1.5578580863e+00
 2.5909964687e-01	 1.4176992982e+00	-1.5483949370e+00
 2.4651545727e-01	 1.4199415504e+00	-1.5407475209e+00
 3.7510236738e-01	 1.4006468478e+00	-1.6351631121e+00
 3.6236729222e-01	 1.4039954818e+00	-1.6231814546e+00
 3.4963392179e-01	 1.4072204734e+00	-1.6100329556e+00
 3.3690392384e-01	 1.4103223197e+00	-1.5962463425e+00
 3.2417894856e-01	 1.4133015452e+00	-1.5824611579e+00
 3.1146062803e-01	 1.4161587013e+00	-1.5692056449e+00
 2.9875057578e-01	 1.4188943658e+00	-1.5568949296e+00
 2.8605038630e-01	 1.4215091420e+00	-1.5458302243e+00
 2.7336163461e-01	 1.4240036583e+00	-1.5361989951e+00
 2.6068587584e-01	 1.4263785678e+00	-1.5280760362e+00
 2.4802464481e-01	 1.4286345473e+00	-1.5214253868e+00
 3.7738480114e-01	 1.4091695444e+00	-1.5978892347e+00
 3.6457223523e-01	 1.4125385542e+00	-1.5870682172e+00
 3.5176138441e-01	 1.4157831693e+00	-1.5751202927e+00
 3.3895392660e-01	 1.4189038898e+00	-1.5623316951e+00
 3.2615152202e-01	 1.4219012434e+00	-1.5493522320e+00
 3.1335581269e-01	 1.4247757848e+00	-1.5367110934e+00
 3.0056842194e-01	 1.4275280953e+00	-1.5248152696e+00
 2.8779095398e-01	 1.4301587820e+00	-1.5139490274e+00
 2.7502499341e-01	 1.4326684771e+00	-1.5042743856e+00
 2.6227210481e-01	 1.4350578375e+00	-1.4958325278e+00
 2.4953383236e-01	 1.4373275442e+00	-1.4885460871e+00
 3.7966723490e-01	 1.4176922409e+00	-1.5612690876e+00
 3.6677717823e-01	 1.4210816266e+00	-1.5505599278e+00
 3.5388884703e-01	 1.4243458653e+00	-1.5386697335e+00
 3.4100392936e-01	 1.4274854599e+00	-1.5255732617e+00
 3.2812409548e-01	 1.4305009416e+00	-1.5119591357e+00
 3.1525099734e-01	 1.4333928683e+00	-1.4983864150e+00
 3.0238626810e-01	 1.4361618249e+00	-1.4852832093e+00
 2.8953152166e-01	 1.4388084220e+00	-1.4729463894e+00
 2.7668835221e-01	 1.4413332958e+00	-1.4615423328e+00
 2.6385833379e-01	 1.4437371071e+00	-1.4511086384e+00
 2.5104301991e-01	 1.4460205411e+00	-1.4415567448e+00
 3.8194966865e-01	 1.4262149375e+00	-1.5255567365e+00
 3.6898212123e-01	 1.4296246990e+00	-1.5137481680e+00
 3.5601630965e-01	 1.4329085612e+00	-1.5006254358e+00
 3.4305393212e-01	 1.4360670301e+00	-1.4857886185e+00
 3.3009666894e-01	 1.4391006398e+00	-1.4699931179e+00
 3.1714618200e-01	 1.4420099519e+00	-1.4538561830e+00
 3.0420411427e-01	 1.4447955545e+00	-1.4378556808e+00
 2.9127208935e-01	 1.4474580620e+00	-1.4223300035e+00
 2.7835171101e-01	 1.4499981145e+00	-1.4074790484e+00
 2.6544456276e-01	 1.4524163768e+00	-1.3933661994e+00
 2.5255220746e-01	 1.4547135380e+00	-1.3799212443e+00
 3.8423210241e-01	 1.4347376340e+00	-1.4910134035e+00
 3.7118706424e-01	 1.4381677714e+00	-1.4767421454e+00
 3.5814377228e-01	 1.4414712571e+00	-1.4609454679e+00
 3.4510393488e-01	 1.4446486002e+00	-1.4428107891e+00
 3.3206924241e-01	 1.4477003380e+00	-1.4231820359e+00
 3.1904136666e-01	 1.4506270354e+00	-1.4027623762e+00
 3.0602196043e-01	 1.4534292840e+00	-1.3821074666e+00
 2.9301265703e-01	 1.4561077021e+00	-1.3616255195e+00
 2.8001506981e-01	 1.4586629333e+00	-1.3415784810e+00
 2.6703079174e-01	 1.4610956464e+00	-1.3220842455e+00
 2.5406139501e-01	 1.4634065349e+00	-1.3031198384e+00
 3.8651453617e-01	 1.4432603305e+00	-1.4579073200e+00
 3.7339200724e-01	 1.4467108438e+00	-1.4397211696e+00
 3.6027123490e-01	 1.4500339530e+00	-1.4196016795e+00
 3.4715393765e-01	 1.4532301703e+00	-1.3964880425e+00
 3.3404181587e-01	 1.4563000362e+00	-1.3712700922e+00
 3.2093655132e-01	 1.4592441189e+00	-1.3447640668e+00
 3.0783980660e-01	 1.4620630136e+00	-1.3176308519e+00
 2.9475322471e-01	 1.4647573421e+00	-1.2903761721e+00
 2.8167842861e-01	 1.4673277520e+00	-1.2633519313e+00
 2.6861702071e-01	 1.4697749161e+00	-1.2367586279e+00
 2.5557058256e-01	 1.4720995319e+00	-1.2106487701e+00
 3.8879696993e-01	 1.4517830271e+00	-1.4265135808e+00
 3.7559695024e-01	 1.4552539162e+00	-1.4028271627e+00
 3.6239869752e-01	 1.4585966490e+00	-1.3765795808e+00
 3.4920394041e-01	 1.4618117405e+00	-1.3466836996e+00
 3.3601438933e-01	 1.4648997344e+00	-1.3140175818e+00
 3.2283173597e-01	 1.4678612024e+00	-1.2795371211e+00
 3.0965765276e-01	 1.4706967432e+00	-1.2440352906e+00
 2.9649379240e-01	 1.4734069821e+00	-1.2081424232e+00
 2.8334178740e-01	 1.4759925707e+00	-1.1723276818e+00
 2.7020324969e-01	 1.4784541858e+00	-1.1369016420e+00
 2.5707977011e-01	 1.4807925288e+00	-1.1020199088e+00
 3.9107940368e-01	 1.4603057236e+00	-1.3971139985e+00
 3.7780189324e-01	 1.4637969887e+00	-1.3661931841e+00
 3.6452616014e-01	 1.4671593449e+00	-1.3318782267e+00
 3.5125394317e-01	 1.4703933106e+00	-1.2932759483e+00
 3.3798696279e-01	 1.4734994326e+00	-1.2512006508e+00
 3.2472692063e-01	 1.4764782859e+00	-1.2067739130e+00
 3.1147549892e-01	 1.4793304727e+00	-1.1609470838e+00
 2.9823436008e-01	 1.4820566222e+00	-1.1146384460e+00
 2.8500514620e-01	 1.4846573895e+00	-1.0722727718e+00
 2.7178947866e-01	 1.4871334554e+00	-1.0353609691e+00
 2.5858895766e-01	 1.4894855257e+00	-1.0033034233e+00
 3.9336183744e-01	 1.4688284202e+00	-1.3699969579e+00
 3.8000683624e-01	 1.4723400611e+00	-1.3299617377e+00
 3.6665362276e-01	 1.4757220408e+00	-1.2855101076e+00
 3.5330394593e-01	 1.4789748807e+00	-1.2361576675e+00
 3.3995953626e-01	 1.4820991308e+00	-1.1827693966e+00
 3.2662210529e-01	 1.4850953694e+00	-1.1316907836e+00
 3.1329334509e-01	 1.4879642023e+00	-1.0857441048e+00
 2.9997492776e-01	 1.4907062622e+00	-1.0448950033e+00
 2.8666850500e-01	 1.4933222082e+00	-1.0089328413e+00
 2.7337570764e-01	 1.4958127251e+00	-9.7749009370e-01
 2.6009814521e-01	 1.4981785226e+00	-9.5006058766e-01
 3.9564427119e-01	 1.4773511167e+00	-1.3454572721e+00
 3.8221177925e-01	 1.4808831335e+00	-1.2942845582e+00
 3.6878108538e-01	 1.4842847367e+00	-1.2407805304e+00
 3.5535394869e-01	 1.4875564508e+00	-1.1907462265e+00
 3.4193210972e-01	 1.4906988290e+00	-1.1438915338e+00
 3.2851728995e-01	 1.4937124529e+00	-1.1006855416e+00
 3.1511119125e-01	 1.4965979319e+00	-1.0613851565e+00
 3.0171549544e-01	 1.4993559022e+00	-1.0260568634e+00
 2.8833186380e-01	 1.5019870269e+00	-9.9459725122e-01
 2.7496193661e-01	 1.5044919947e+00	-9.6675232327e-01
 2.6160733276e-01	 1.5068715195e+00	-9.4213561518e-01
 2.4651545727e-01	 1.4199415504e+00	-1.5407475209e+00
 2.3394507721e-01	 1.4220666433e+00	-1.5338043786e+00
 2.2139213491e-01	 1.4240749033e+00	-1.5266474734e+00
 2.0885809711e-01	 1.4259670700e+00	-1.5194545516e+00
 1.9634440887e-01	 1.4277439043e+00	-1.5123137006e+00
 1.8385249329e-01	 1.4294061875e+00	-1.5052275435e+00
 1.7138375121e-01	 1.4309547213e+00	-1.4981178964e+00
 1.5893956096e-01	 1.4323903263e+00	-1.4908308317e+00
 1.4652127812e-01	 1.4337138423e+00	-1.4831420851e+00
 1.3413023525e-01	 1.4349261269e+00	-1.4747627524e+00
 1.2176774173e-01	 1.4360280554e+00	-1.4653452166e+00
 2.4802464481e-01	 1.4286345473e+00	-1.5214253868e+00
 2.3537730787e-01	 1.4307726502e+00	-1.5151398538e+00
 2.2274751545e-01	 1.4327932049e+00	-1.5083818453e+00
 2.1013674326e-01	 1.4346969556e+00	-1.5013615449e+00
 1.9754644521e-01	 1.4364846678e+00	-1.4941941192e+00
 1.8497805311e-01	 1.4381571277e+00	-1.4869042273e+00
 1.7243297638e-01	 1.4397151417e+00	-1.4794310073e+00
 1.5991260180e-01	 1.4411595356e+00	-1.4716334795e+00
 1.4741829322e-01	 1.4424911543e+00	-1.4632963037e+00
 1.3495139139e-01	 1.4437108606e+00	-1.4541358309e+00
 1.2251321368e-01	 1.4448195352e+00	-1.4438063923e+00
 2.4953383236e-01	 1.4373275442e+00	-1.4885460871e+00
 2.3680953854e-01	 1.4394786571e+00	-1.4813606062e+00
 2.2410289599e-01	 1.4415115065e+00	-1.4735495341e+00
 2.1141538940e-01	 1.4434268413e+00	-1.4653587636e+00
 1.9874848154e-01	 1.4452254314e+00	-1.4569336655e+00
 1.8610361293e-01	 1.4469080679e+00	-1.4483239205e+00
 1.7348220156e-01	 1.4484755621e+00	-1.4394888448e+00
 1.6088564264e-01	 1.4499287449e+00	-1.4303031421e+00
 1.4831530833e-01	 1.4512684663e+00	-1.4205630203e+00
 1.3577254752e-01	 1.4524955943e+00	-1.4099926092e+00
 1.2325868564e-01	 1.4536110149e+00	-1.3982506189e+00
 2.5104301991e-01	 1.4460205411e+00	-1.4415567448e+00
 2.3824176920e-01	 1.4481846640e+00	-1.4319269504e+00
 2.2545827653e-01	 1.4502298082e+00	-1.4216282310e+00
 2.1269403555e-01	 1.4521567269e+00	-1.4109452847e+00
 1.9995051788e-01	 1.4539661949e+00	-1.4000566284e+00
 1.8722917275e-01	 1.4556590081e+00	-1.3890397632e+00
 1.7453142673e-01	 1.4572359825e+00	-1.3778768472e+00
 1.6185868347e-01	 1.4586979543e+00	-1.3664608074e+00
 1.4921232343e-01	 1.4600457783e+00	-1.3546018250e+00
 1.3659370366e-01	 1.4612803280e+00	-1.3420341292e+00
 1.2400415759e-01	 1.4624024947e+00	-1.3284230363e+00
 2.5255220746e-01	 1.4547135380e+00	-1.3799212443e+00
 2.3967399987e-01	 1.4568906709e+00	-1.3663149569e+00
 2.2681365707e-01	 1.4589481098e+00	-1.3521103595e+00
 2.1397268170e-01	 1.4608866125e+00	-1.3376338742e+00
 2.0115255422e-01	 1.4627069585e+00	-1.3230999245e+00
 1.8835473257e-01	 1.4644099482e+00	-1.3086164433e+00
 1.7558065191e-01	 1.4659964030e+00	-1.2941909030e+00
 1.6283172431e-01	 1.4674671636e+00	-1.2797367978e+00
 1.5010933854e-01	 1.4688230902e+00	-1.2650805083e+00
 1.3741485980e-01	 1.4700650617e+00	-1.2499684821e+00
 1.2474962954e-01	 1.4711939745e+00	-1.2340746636e+00
 2.5406139501e-01	 1.4634065349e+00	-1.3031198384e+00
 2.4110623054e-01	 1.4655966777e+00	-1.2840160750e+00
 2.2816903761e-01	 1.4676664114e+00	-1.2645027146e+00
 2.1525132785e-01	 1.4696164981e+00	-1.2449506464e+00
 2.0235459056e-01	 1.4714477220e+00	-1.2256127788e+00
 1.8948029239e-01	 1.4731608884e+00	-1.2066299007e+00
 1.7662987708e-01	 1.4747568234e+00	-1.1880370797e+00
 1.6380476514e-01	 1.4762363729e+00	-1.1697705254e+00
 1.5100635364e-01	 1.4776004022e+00	-1.1516748445e+00
 1.3823601594e-01	 1.4788497954e+00	-1.1335106197e+00
 1.2549510150e-01	 1.4799854543e+00	-1.1149622418e+00
 2.5557058256e-01	 1.4720995319e+00	-1.2106487701e+00
 2.4253846121e-01	 1.4743026846e+00	-1.1845367692e+00
 2.2952441815e-01	 1.4763847130e+00	-1.1583261168e+00
 2.1652997400e-01	 1.4783463837e+00	-1.1324347360e+00
 2.0355662689e-01	 1.4801884855e+00	-1.1071564170e+00
 1.9060585221e-01	 1.4819118286e+00	-1.0827377927e+00
 1.7767910225e-01	 1.4835172438e+00	-1.0606236614e+00
 1.6477780598e-01	 1.4850055822e+00	-1.0409169476e+00
 1.5190336875e-01	 1.4863777142e+00	-1.0230068683e+00
 1.3905717208e-01	 1.4876345291e+00	-1.0062483483e+00
 1.2624057345e-01	 1.4887769341e+00	-9.8997051329e-01
 2.5707977011e-01	 1.4807925288e+00	-1.1020199088e+00
 2.4397069187e-01	 1.4830086915e+00	-1.0683502849e+00
 2.3087979869e-01	 1.4851030147e+00	-1.0384395543e+00
 2.1780862014e-01	 1.4870762694e+00	-1.0122194857e+00
 2.0475866323e-01	 1.4889292491e+00	-9.8933720224e-01
 1.9173141203e-01	 1.4906627688e+00	-9.6936755381e-01
 1.7872832743e-01	 1.4922776642e+00	-9.5182458951e-01
 1.6575084681e-01	 1.4937747915e+00	-9.3617218453e-01
 1.5280038385e-01	 1.4951550262e+00	-9.2183386086e-01
 1.3987832822e-01	 1.4964192628e+00	-9.0820184174e-01
 1.2698604541e-01	 1.4975684139e+00	-8.9464538056e-01
 2.5858895766e-01	 1.4894855257e+00	-1.0033034233e+00
 2.4540292254e-01	 1.4917146984e+00	-9.7517687617e-01
 2.3223517923e-01	 1.4938213163e+00	-9.5041418974e-01
 2.1908726629e-01	 1.4958061550e+00	-9.2876857081e-01
 2.0596069957e-01	 1.4976700126e+00	-9.0991239552e-01
 1.9285697185e-01	 1.4994137089e+00	-8.9344948025e-01
 1.7977755260e-01	 1.5010380847e+00	-8.7892644508e-01
 1.6672388765e-01	 1.5025440008e+00	-8.6584321005e-01
 1.5369739896e-01	 1.5039323382e+00	-8.5366266553e-01
 1.4069948436e-01	 1.5052039965e+00	-8.4181955911e-01
 1.2773151736e-01	 1.5063598937e+00	-8.2972864204e-01
 2.6009814521e-01	 1.4981785226e+00	-9.5006058766e-01
 2.4683515321e-01	 1.5004207053e+00	-9.2589204259e-01
 2.3359055977e-01	 1.5025396179e+00	-9.0453671599e-01
 2.2036591244e-01	 1.5045360406e+00	-8.8577320244e-01
 2.0716273591e-01	 1.5064107762e+00	-8.6930332338e-01
 1.9398253167e-01	 1.5081646491e+00	-8.5476429531e-01
 1.8082677778e-01	 1.5097985051e+00	-8.4173996595e-01
 1.6769692849e-01	 1.5113132102e+00	-8.2977116093e-01
 1.5459441406e-01	 1.5127096502e+00	-8.1836518491e-01
 1.4152064050e-01	 1.5139887301e+00	-8.0700452188e-01
 1.2847698931e-01	 1.5151513734e+00	-7.9515477987e-01
 2.6160733276e-01	 1.5068715195e+00	-9.4213561518e-01
 2.4826738388e-01	 1.5091267122e+00	-9.2016763647e-01
 2.3494594031e-01	 1.5112579195e+00	-9.0050708672e-01
 2.2164455859e-01	 1.5132659262e+00	-8.8296184627e-01
 2.0836477224e-01	 1.5151515397e+00	-8.6726734430e-01
 1.9510809149e-01	 1.5169155893e+00	-8.5309860594e-01
 1.8187600295e-01	 1.5185589255e+00	-8.4008134231e-01
 1.6866996932e-01	 1.5200824195e+00	-8.2780212855e-01
 1.5549142916e-01	 1.5214869622e+00	-8.1581771636e-01
 1.4234179663e-01	 1.5227734638e+00	-8.0366352807e-01
 1.2922246127e-01	 1.5239428532e+00	-7.9086138025e-01
 1.2176774173e-01	 1.4360280554e+00	-1.4653452166e+00
 1.0943717242e-01	 1.4370203602e+00	-1.4554374957e+00
 9.7137661338e-02	 1.4379041455e+00	-1.4460970528e+00
 8.4870418512e-02	 1.4386803344e+00	-1.4376701447e+00
 7.2636630905e-02	 1.4393498649e+00	-1.4304606288e+00
 6.0437462281e-02	 1.4399136891e+00	-1.4247353757e+00
 4.8274053106e-02	 1.4403727731e+00	-1.4207296545e+00
 3.6147520452e-02	 1.4407280959e+00	-1.4186524518e+00
 2.4058957924e-02	 1.4409806490e+00	-1.4186916894e+00
 1.2009435603e-02	 1.4411314357e+00	-1.4210193035e+00
 0.0000000000e+00	 1.4411814706e+00	-1.4257961576e+00
 1.2251321368e-01	 1.4448195352e+00	-1.4438063923e+00
 1.1010715563e-01	 1.4458179149e+00	-1.4329105358e+00
 9.7732345950e-02	 1.4467071109e+00	-1.4225733326e+00
 8.5390002073e-02	 1.4474880517e+00	-1.4131595244e+00
 7.3081318229e-02	 1.4481616810e+00	-1.4049899470e+00
 6.0807465309e-02	 1.4487289571e+00	-1.3983472445e+00
 4.8569590760e-02	 1.4491908516e+00	-1.3934815513e+00
 3.6368818493e-02	 1.4495483497e+00	-1.3906161004e+00
 2.4206248808e-02	 1.4498024489e+00	-1.3899527189e+00
 1.2082958338e-02	 1.4499541587e+00	-1.3916771777e+00
 0.0000000000e+00	 1.4500045000e+00	-1.3959643606e+00
 1.2325868564e-01	 1.4536110149e+00	-1.3982506189e+00
 1.1077713885e-01	 1.4546154697e+00	-1.3860015934e+00
 9.8327030562e-02	 1.4555100762e+00	-1.3744398399e+00
 8.5909585633e-02	 1.4562957689e+00	-1.3639422214e+00
 7.3526005553e-02	 1.4569734972e+00	-1.3548399437e+00
 6.1177468337e-02	 1.4575442250e+00	-1.3474245957e+00
 4.8865128414e-02	 1.4580089301e+00	-1.3419541519e+00
 3.6590116533e-02	 1.4583686035e+00	-1.3386588920e+00
 2.4353539692e-02	 1.4586242489e+00	-1.3377471988e+00
 1.2156481073e-02	 1.4587768818e+00	-1.3394111986e+00
 0.0000000000e+00	 1.4588275294e+00	-1.3438322092e+00
 1.2400415759e-01	 1.4624024947e+00	-1.3284230363e+00
 1.1144712206e-01	 1.4634130244e+00	-1.3144990333e+00
 9.8921715174e-02	 1.4643130416e+00	-1.3015239007e+00
 8.6429169193e-02	 1.4651034862e+00	-1.2898802234e+00
 7.3970692876e-02	 1.4657853134e+00	-1.2799029341e+00
 6.1547471364e-02	 1.4663594930e+00	-1.2718857058e+00
 4.9160666067e-02	 1.4668270086e+00	-1.2660872976e+00
 3.6811414574e-02	 1.4671888574e+00	-1.2627378096e+00
 2.4500830576e-02	 1.4674460489e+00	-1.2620448056e+00
 1.2230003808e-02	 1.4675996049e+00	-1.2641992671e+00
 0.0000000000e+00	 1.4676505588e+00	-1.2693813420e+00
 1.2474962954e-01	 1.4711939745e+00	-1.2340746636e+00
 1.1211710527e-01	 1.4722105792e+00	-1.2181959909e+00
 9.9516399786e-02	 1.4731160069e+00	-1.2036566405e+00
 8.6948752753e-02	 1.4739112034e+00	-1.1908384789e+00
 7.4415380199e-02	 1.4745971296e+00	-1.1800734851e+00
 6.1917474391e-02	 1.4751747609e+00	-1.1716505184e+00
 4.9456203720e-02	 1.4756450871e+00	-1.1658220330e+00
 3.7032712614e-02	 1.4760091112e+00	-1.1628106910e+00
 2.4648121460e-02	 1.4762678488e+00	-1.1628158346e+00
 1.2303526542e-02	 1.4764223280e+00	-1.1660197745e+00
 0.0000000000e+00	 1.4764735882e+00	-1.1725938622e+00
 1.2549510150e-01	 1.4799854543e+00	-1.1149622418e+00
 1.1278708848e-01	 1.4810081339e+00	-1.0968902443e+00
 1.0011108440e-01	 1.4819189723e+00	-1.0807371767e+00
 8.7468336312e-02	 1.4827189207e+00	-1.0671960217e+00
 7.4860067522e-02	 1.4834089457e+00	-1.0564633311e+00
 6.2287477417e-02	 1.4839900289e+00	-1.0486506460e+00
 4.9751741372e-02	 1.4844631656e+00	-1.0438695381e+00
 3.7254010654e-02	 1.4848293650e+00	-1.0422354794e+00
 2.4795412343e-02	 1.4850896488e+00	-1.0438713404e+00
 1.2377049277e-02	 1.4852450511e+00	-1.0489105514e+00
 0.0000000000e+00	 1.4852966177e+00	-1.0574999578e+00
 1.2624057345e-01	 1.4887769341e+00	-9.8997051329e-01
 1.1345707170e-01	 1.4898056887e+00	-9.7477670694e-01
 1.0070576901e-01	 1.4907219377e+00	-9.6182720569e-01
 8.7987919871e-02	 1.4915266379e+00	-9.5127161752e-01
 7.5304754845e-02	 1.4922207619e+00	-9.4325201283e-01
 6.2657480444e-02	 1.4928052968e+00	-9.3790747188e-01
 5.0047279025e-02	 1.4932812441e+00	-9.3537818944e-01
 3.7475308694e-02	 1.4936496188e+00	-9.3580917369e-01
 2.4942703227e-02	 1.4939114487e+00	-9.3935357447e-01
 1.2450572012e-02	 1.4940677742e+00	-9.4617567525e-01
 0.0000000000e+00	 1.4941196471e+00	-9.5645358197e-01
 1.2698604541e-01	 1.4975684139e+00	-8.9464538056e-01
 1.1412705491e-01	 1.4986032435e+00	-8.8184793581e-01
 1.0130045362e-01	 1.4995249030e+00	-8.7103715102e-01
 8.8507503430e-02	 1.5003343552e+00	-8.6238544241e-01
 7.5749442167e-02	 1.5010325781e+00	-8.5605899223e-01
 6.3027483470e-02	 1.5016205648e+00	-8.5222212766e-01
 5.0342816678e-02	 1.5020993226e+00	-8.5104125396e-01
 3.7696606734e-02	 1.5024698726e+00	-8.5268838022e-01
 2.5089994111e-02	 1.5027332487e+00	-8.5734427456e-01
 1.2524094746e-02	 1.5028904973e+00	-8.6520128450e-01
 0.0000000000e+00	 1.5029426765e+00	-8.7646585689e-01
 1.2773151736e-01	 1.5063598937e+00	-8.2972864204e-01
 1.1479703812e-01	 1.5074007982e+00	-8.1814555170e-01
 1.0189513823e-01	 1.5083278684e+00	-8.0835207984e-01
 8.9027086989e-02	 1.5091420724e+00	-8.0054153210e-01
 7.6194129490e-02	 1.5098443942e+00	-7.9490217359e-01
 6.3397486497e-02	 1.5104358327e+00	-7.9162143534e-01
 5.0638354330e-02	 1.5109174011e+00	-7.9088967225e-01
 3.7917904774e-02	 1.5112901264e+00	-7.9290351224e-01
 2.5237284994e-02	 1.5115550487e+00	-7.9786883527e-01
 1.2597617481e-02	 1.5117132204e+00	-8.0600341917e-01
 0.0000000000e+00	 1.5117657059e+00	-8.1753928823e-01
 1.2847698931e-01	 1.5151513734e+00	-7.9515477987e-01
 1.1546702133e-01	 1.5161983530e+00	-7.8363296087e-01
 1.0248982284e-01	 1.5171308337e+00	-7.7375901923e-01
 8.9546670548e-02	 1.5179497897e+00	-7.6574537534e-01
 7.6638816813e-02	 1.5186562104e+00	-7.5980049540e-01
 6.3767489523e-02	 1.5192511007e+00	-7.5613292112e-01
 5.0933891983e-02	 1.5197354796e+00	-7.5495484818e-01
 3.8139202814e-02	 1.5201103802e+00	-7.5648529494e-01
 2.5384575878e-02	 1.5203768486e+00	-7.6095290167e-01
 1.2671140216e-02	 1.5205359435e+00	-7.6859839854e-01
 0.0000000000e+00	 1.5205887353e+00	-7.7967677996e-01
 1.2922246127e-01	 1.5239428532e+00	-7.9086138025e-01
 1.1613700454e-01	 1.5249959077e+00	-7.7827601736e-01
 1.0308450745e-01	 1.5259337991e+00	-7.6724687162e-01
 9.0066254107e-02	 1.5267575069e+00	-7.5800384838e-01
 7.7083504135e-02	 1.5274680266e+00	-7.5077388106e-01
 6.4137492550e-02	 1.5280663686e+00	-7.4578477928e-01
 5.1229429637e-02	 1.5285535581e+00	-7.4326862319e-01
 3.8360500855e-02	 1.5289306340e+00	-7.4346474736e-01
 2.5531866762e-02	 1.5291986486e+00	-7.4662235615e-01
 1.2744662951e-02	 1.5293586666e+00	-7.5300281022e-01
 0.0000000000e+00	 1.5294117647e+00	-7.6288162322e-01
 1.5294117647e+00	 0.0000000000e+00	 3.6583404524e+00
 1.5293586666e+00	 1.2744662951e-02	 3.6496977893e+00
 1.5291986486e+00	 2.5531866762e-02	 3.6403224628e+00
 1.5289306340e+00	 3.8360500855e-02	 3.6299132465e+00
 1.5285535581e+00	 5.1229429637e-02	 3.6181870726e+00
 1.5280663686e+00	 6.4137492550e-02	 3.6048786144e+00
 1.5274680266e+00	 7.7083504135e-02	 3.5897395101e+00
 1.5267575069e+00	 9.0066254107e-02	 3.5725371872e+00
 1.5259337991e+00	 1.0308450745e-01	 3.5530532448e+00
 1.5249959077e+00	 1.1613700454e-01	 3.5310813485e+00
 1.5239428532e+00	 1.2922246127e-01	 3.5064245935e+00
 1.5382347941e+00	 0.0000000000e+00	 3.6791573854e+00
 1.5381813897e+00	 1.2818185686e-02	 3.6717330322e+00
 1.5380204486e+00	 2.5679157647e-02	 3.6636232182e+00
 1.5377508879e+00	 3.8581798896e-02	 3.6545093307e+00
 1.5373716366e+00	 5.1524967290e-02	 3.6440938525e+00
 1.5368816366e+00	 6.4507495578e-02	 3.6321001687e+00
 1.5362798428e+00	 7.7528191458e-02	 3.6182720166e+00
 1.5355652242e+00	 9.0585837666e-02	 3.6023725345e+00
 1.5347367645e+00	 1.0367919206e-01	 3.5841828667e+00
 1.5337934625e+00	 1.1680698775e-01	 3.5635002780e+00
 1.5327343330e+00	 1.2996793322e-01	 3.5401357305e+00
 1.5470578235e+00	 0.0000000000e+00	 3.6944519799e+00
 1.5470041127e+00	 1.2891708422e-02	 3.6879995033e+00
 1.5468422485e+00	 2.5826448532e-02	 3.6808813840e+00
 1.5465711417e+00	 3.8803096937e-02	 3.6727687089e+00
 1.5461897151e+00	 5.1820504944e-02	 3.6633567328e+00
 1.5456969045e+00	 6.4877498605e-02	 3.6523649128e+00
 1.5450916589e+00	 7.7972878782e-02	 3.6395365844e+00
 1.5443729414e+00	 9.1105421225e-02	 3.6246382380e+00
 1.5435397298e+00	 1.0427387667e-01	 3.6074583485e+00
 1.5425910172e+00	 1.1747697097e-01	 3.5878057107e+00
 1.5415258128e+00	 1.3071340517e-01	 3.5655072325e+00
 1.5558808529e+00	 0.0000000000e+00	 3.7041901307e+00
 1.5558268358e+00	 1.2965231157e-02	 3.6984932411e+00
 1.5556640485e+00	 2.5973739417e-02	 3.6921223864e+00
 1.5553913955e+00	 3.9024394979e-02	 3.6847452368e+00
 1.5550077936e+00	 5.2116042599e-02	 3.6760568369e+00
 1.5545121725e+00	 6.5247501633e-02	 3.6657798672e+00
 1.5539034751e+00	 7.8417566105e-02	 3.6536645515e+00
 1.5531806587e+00	 9.1625004784e-02	 3.6394881611e+00
 1.5523426952e+00	 1.0486856128e-01	 3.6230540723e+00
 1.5513885720e+00	 1.1814695418e-01	 3.6041903255e+00
 1.5503172926e+00	 1.3145887712e-01	 3.5827476367e+00
 1.5647038823e+00	 0.0000000000e+00	 3.7083370132e+00
 1.5646495589e+00	 1.3038753893e-02	 3.7032088515e+00
 1.5644858484e+00	 2.6121030302e-02	 3.6973695291e+00
 1.5642116493e+00	 3.9245693021e-02	 3.6904899843e+00
 1.5638258721e+00	 5.2411580253e-02	 3.6822718649e+00
 1.5633274404e+00	 6.5617504661e-02	 3.6724480219e+00
 1.5627152913e+00	 7.8862253428e-02	 3.6607826477e+00
 1.5619883759e+00	 9.2144588344e-02	 3.6470710132e+00
 1.5611456605e+00	 1.0546324589e-01	 3.6311387546e+00
 1.5601861267e+00	 1.1881693739e-01	 3.6128406590e+00
 1.5591087724e+00	 1.3220434908e-01	 3.5920588973e+00
 1.5735269117e+00	 0.0000000000e+00	 3.7068571034e+00
 1.5734722820e+00	 1.3112276629e-02	 3.7021395413e+00
 1.5733076484e+00	 2.6268321188e-02	 3.6966440411e+00
 1.5730319031e+00	 3.9466991063e-02	 3.6900512955e+00
 1.5726439506e+00	 5.2707117907e-02	 3.6820761686e+00
 1.5721427084e+00	 6.5987507689e-02	 3.6724684234e+00
 1.5715271074e+00	 7.9306940752e-02	 3.6610130955e+00
 1.5707960932e+00	 9.2664171903e-02	 3.6475304642e+00
 1.5699486259e+00	 1.0605793051e-01	 3.6318755730e+00
 1.5689836815e+00	 1.1948692060e-01	 3.6139372445e+00
 1.5679002521e+00	 1.3294982103e-01	 3.5936365377e+00
 1.5823499412e+00	 0.0000000000e+00	 3.6997141984e+00
 1.5822950051e+00	 1.3185799365e-02	 3.6952771510e+00
 1.5821294484e+00	 2.6415612073e-02	 3.6899651218e+00
 1.5818521569e+00	 3.9688289105e-02	 3.6834748479e+00
 1.5814620291e+00	 5.3002655562e-02	 3.6755408226e+00
 1.5809579763e+00	 6.6357510716e-02	 3.6659362604e+00
 1.5803389236e+00	 7.9751628075e-02	 3.6544737081e+00
 1.5796038104e+00	 9.3183755462e-02	 3.6410052553e+00
 1.5787515913e+00	 1.0665261512e-01	 3.6254222901e+00
 1.5777812362e+00	 1.2015690381e-01	 3.6076547479e+00
 1.5766917319e+00	 1.3369529298e-01	 3.5876697962e+00
 1.5911729706e+00	 0.0000000000e+00	 3.6868714351e+00
 1.5911177282e+00	 1.3259322100e-02	 3.6826121858e+00
 1.5909512483e+00	 2.6562902958e-02	 3.6773499851e+00
 1.5906724107e+00	 3.9909587147e-02	 3.6708037088e+00
 1.5902801076e+00	 5.3298193216e-02	 3.6627336944e+00
 1.5897732442e+00	 6.6727513744e-02	 3.6529429454e+00
 1.5891507398e+00	 8.0196315399e-02	 3.6412779847e+00
 1.5884115277e+00	 9.3703339021e-02	 3.6276293067e+00
 1.5875545566e+00	 1.0724729973e-01	 3.6119313730e+00
 1.5865787910e+00	 1.2082688702e-01	 3.5941620989e+00
 1.5854832117e+00	 1.3444076493e-01	 3.5743417699e+00
 1.5999960000e+00	 0.0000000000e+00	 3.6682913090e+00
 1.5999404513e+00	 1.3332844836e-02	 3.6641338466e+00
 1.5997730483e+00	 2.6710193843e-02	 3.6588139018e+00
 1.5994926645e+00	 4.0130885188e-02	 3.6520783904e+00
 1.5990981861e+00	 5.3593730871e-02	 3.6437195115e+00
 1.5985885122e+00	 6.7097516772e-02	 3.6335761954e+00
 1.5979625559e+00	 8.0641002722e-02	 3.6215352026e+00
 1.5972192449e+00	 9.4222922580e-02	 3.6075318215e+00
 1.5963575220e+00	 1.0784198434e-01	 3.5915501093e+00
 1.5953763457e+00	 1.2149687023e-01	 3.5736226189e+00
 1.5942746915e+00	 1.3518623688e-01	 3.5538295525e+00
 1.6088190294e+00	 0.0000000000e+00	 3.6439356919e+00
 1.6087631744e+00	 1.3406367572e-02	 3.6398300592e+00
 1.6085948482e+00	 2.6857484728e-02	 3.6343702411e+00
 1.6083129183e+00	 4.0352183230e-02	 3.6273369028e+00
 1.6079162646e+00	 5.3889268525e-02	 3.6185599267e+00
 1.6074037801e+00	 6.7467519799e-02	 3.6079201085e+00
 1.6067743721e+00	 8.1085690045e-02	 3.5953505062e+00
 1.6060269622e+00	 9.4742506139e-02	 3.5808373876e+00
 1.6051604873e+00	 1.0843666895e-01	 3.5644207203e+00
 1.6041739005e+00	 1.2216685344e-01	 3.5461941448e+00
 1.6030661713e+00	 1.3593170884e-01	 3.5263043694e+00
 1.6176420588e+00	 0.0000000000e+00	 3.6137658497e+00
 1.6175858975e+00	 1.3479890307e-02	 3.6096875024e+00
 1.6174166482e+00	 2.7004775613e-02	 3.6040305104e+00
 1.6171331722e+00	 4.0573481271e-02	 3.5966148056e+00
 1.6167343431e+00	 5.4184806178e-02	 3.5873135813e+00
 1.6162190481e+00	 6.7837522827e-02	 3.5760552395e+00
 1.6155861883e+00	 8.1530377368e-02	 3.5628249946e+00
 1.6148346794e+00	 9.5262089698e-02	 3.5476660757e+00
 1.6139634527e+00	 1.0903135356e-01	 3.5306804705e+00
 1.6129714553e+00	 1.2283683665e-01	 3.5120291499e+00
 1.6118576511e+00	 1.3667718079e-01	 3.4919317089e+00
 1.5239428532e+00	 1.2922246127e-01	 3.5064245935e+00
 1.5227734638e+00	 1.4234179663e-01	 3.4780452688e+00
 1.5214869622e+00	 1.5549142916e-01	 3.4454257384e+00
 1.5200824195e+00	 1.6866996932e-01	 3.4091417959e+00
 1.5185589255e+00	 1.8187600295e-01	 3.3697649712e+00
 1.5169155893e+00	 1.9510809149e-01	 3.3278553919e+00
 1.5151515397e+00	 2.0836477224e-01	 3.2839537841e+00
 1.5132659262e+00	 2.2164455859e-01	 3.2385725618e+00
 1.5112579195e+00	 2.3494594031e-01	 3.1921859548e+00
 1.5091267122e+00	 2.4826738388e-01	 3.1452191251e+00
 1.5068715195e+00	 2.6160733276e-01	 3.0980362237e+00
 1.5327343330e+00	 1.2996793322e-01	 3.5401357305e+00
 1.5315581975e+00	 1.4316295277e-01	 3.5130019375e+00
 1.5302642742e+00	 1.5638844427e-01	 3.4814849862e+00
 1.5288516288e+00	 1.6964301015e-01	 3.4461059770e+00
 1.5273193459e+00	 1.8292522812e-01	 3.4073866204e+00
 1.5256665295e+00	 1.9623365131e-01	 3.3658423437e+00
 1.5238923033e+00	 2.0956680858e-01	 3.3219745208e+00
 1.5219958118e+00	 2.2292320474e-01	 3.2762617738e+00
 1.5199762211e+00	 2.3630132085e-01	 3.2291502944e+00
 1.5178327191e+00	 2.4969961454e-01	 3.1810431308e+00
 1.5155645164e+00	 2.6311652031e-01	 3.1322883911e+00
 1.5415258128e+00	 1.3071340517e-01	 3.5655072325e+00
 1.5403429312e+00	 1.4398410891e-01	 3.5394386339e+00
 1.5390415861e+00	 1.5728545937e-01	 3.5088969362e+00
 1.5376208381e+00	 1.7061605099e-01	 3.4743486163e+00
 1.5360797664e+00	 1.8397445329e-01	 3.4362657014e+00
 1.5344174696e+00	 1.9735921113e-01	 3.3951191300e+00
 1.5326330668e+00	 2.1076884491e-01	 3.3513712223e+00
 1.5307256975e+00	 2.2420185088e-01	 3.3054672054e+00
 1.5286945228e+00	 2.3765670139e-01	 3.2578257375e+00
 1.5265387260e+00	 2.5113184521e-01	 3.2088283775e+00
 1.5242575133e+00	 2.6462570786e-01	 3.1588079448e+00
 1.5503172926e+00	 1.3145887712e-01	 3.5827476367e+00
 1.5491276649e+00	 1.4480526504e-01	 3.5575770817e+00
 1.5478188981e+00	 1.5818247447e-01	 3.5278936840e+00
 1.5463900474e+00	 1.7158909182e-01	 3.4941092939e+00
 1.5448401868e+00	 1.8502367847e-01	 3.4566463195e+00
 1.5431684098e+00	 1.9848477095e-01	 3.4159313531e+00
 1.5413738303e+00	 2.1197088125e-01	 3.3723878940e+00
 1.5394555831e+00	 2.2548049703e-01	 3.3264281077e+00
 1.5374128244e+00	 2.3901208193e-01	 3.2784435654e+00
 1.5352447329e+00	 2.5256407588e-01	 3.2287949055e+00
 1.5329505102e+00	 2.6613489541e-01	 3.1778003619e+00
 1.5591087724e+00	 1.3220434908e-01	 3.5920588973e+00
 1.5579123986e+00	 1.4562642118e-01	 3.5676320202e+00
 1.5565962101e+00	 1.5907948957e-01	 3.5386999774e+00
 1.5551592567e+00	 1.7256213266e-01	 3.5056199147e+00
 1.5536006072e+00	 1.8607290364e-01	 3.4687646116e+00
 1.5519193500e+00	 1.9961033077e-01	 3.4285163865e+00
 1.5501145939e+00	 2.1317291759e-01	 3.3852600823e+00
 1.5481854687e+00	 2.2675914318e-01	 3.3393750716e+00
 1.5461311260e+00	 2.4036746247e-01	 3.2912262230e+00
 1.5439507398e+00	 2.5399630654e-01	 3.2411537668e+00
 1.5416435071e+00	 2.6764408295e-01	 3.1894620024e+00
 1.5679002521e+00	 1.3294982103e-01	 3.5936365377e+00
 1.5666971323e+00	 1.4644757732e-01	 3.5698113666e+00
 1.5653735221e+00	 1.5997650467e-01	 3.5415333890e+00
 1.5639284660e+00	 1.7353517349e-01	 3.5091048903e+00
 1.5623610276e+00	 1.8712212881e-01	 3.4728489374e+00
 1.5606702902e+00	 2.0073589059e-01	 3.4331035737e+00
 1.5588553574e+00	 2.1437495392e-01	 3.3902150798e+00
 1.5569153543e+00	 2.2803778932e-01	 3.3445302378e+00
 1.5548494276e+00	 2.4172284301e-01	 3.2963875350e+00
 1.5526567467e+00	 2.5542853721e-01	 3.2461072463e+00
 1.5503365040e+00	 2.6915327050e-01	 3.1939803324e+00
 1.5766917319e+00	 1.3369529298e-01	 3.5876697962e+00
 1.5754818660e+00	 1.4726873345e-01	 3.5643163738e+00
 1.5741508341e+00	 1.6087351978e-01	 3.5366044836e+00
 1.5726976753e+00	 1.7450821432e-01	 3.5047813162e+00
 1.5711214480e+00	 1.8817135398e-01	 3.4691200643e+00
 1.5694212303e+00	 2.0186145041e-01	 3.4299144205e+00
 1.5675961210e+00	 2.1557699026e-01	 3.3874721257e+00
 1.5656452400e+00	 2.2931643547e-01	 3.3421075039e+00
 1.5635677293e+00	 2.4307822355e-01	 3.2941329170e+00
 1.5613627536e+00	 2.5686076787e-01	 3.2438490761e+00
 1.5590295009e+00	 2.7066245805e-01	 3.1915341422e+00
 1.5854832117e+00	 1.3444076493e-01	 3.5743417699e+00
 1.5842665997e+00	 1.4808988959e-01	 3.5513417836e+00
 1.5829281461e+00	 1.6177053488e-01	 3.5241169816e+00
 1.5814668847e+00	 1.7548125515e-01	 3.4928591438e+00
 1.5798818685e+00	 1.8922057915e-01	 3.4577913483e+00
 1.5781721705e+00	 2.0298701022e-01	 3.4191627841e+00
 1.5763368845e+00	 2.1677902659e-01	 3.3772426002e+00
 1.5743751256e+00	 2.3059508161e-01	 3.3323127241e+00
 1.5722860309e+00	 2.4443360408e-01	 3.2846595811e+00
 1.5700687605e+00	 2.5829299854e-01	 3.2345646458e+00
 1.5677224978e+00	 2.7217164560e-01	 3.1822937599e+00
 1.5942746915e+00	 1.3518623688e-01	 3.5538295525e+00
 1.5930513333e+00	 1.4891104572e-01	 3.5310759759e+00
 1.5917054580e+00	 1.6266754998e-01	 3.5042679177e+00
 1.5902360940e+00	 1.7645429599e-01	 3.4735413485e+00
 1.5886422889e+00	 1.9026980432e-01	 3.4390689101e+00
 1.5869231107e+00	 2.0411257004e-01	 3.4010550559e+00
 1.5850776481e+00	 2.1798106293e-01	 3.3597302148e+00
 1.5831050112e+00	 2.3187372776e-01	 3.3153439063e+00
 1.5810043325e+00	 2.4578898462e-01	 3.2681567372e+00
 1.5787747674e+00	 2.5972522920e-01	 3.2184312082e+00
 1.5764154947e+00	 2.7368083315e-01	 3.1664212596e+00
 1.6030661713e+00	 1.3593170884e-01	 3.5263043694e+00
 1.6018360670e+00	 1.4973220186e-01	 3.5037011134e+00
 1.6004827700e+00	 1.6356456508e-01	 3.4772477951e+00
 1.5990053033e+00	 1.7742733682e-01	 3.4470240925e+00
 1.5974027093e+00	 1.9131902949e-01	 3.4131518060e+00
 1.5956740509e+00	 2.0523812986e-01	 3.3757903406e+00
 1.5938184116e+00	 2.1918309926e-01	 3.3351311980e+00
 1.5918348968e+00	 2.3315237390e-01	 3.2913914026e+00
 1.5897226341e+00	 2.4714436516e-01	 3.2448057895e+00
 1.5874807743e+00	 2.6115745987e-01	 3.1956180793e+00
 1.5851084916e+00	 2.7519002070e-01	 3.1440706659e+00
 1.6118576511e+00	 1.3667718079e-01	 3.4919317089e+00
 1.6106208007e+00	 1.5055335800e-01	 3.4693932828e+00
 1.6092600820e+00	 1.6446158018e-01	 3.4432407362e+00
 1.6077745126e+00	 1.7840037765e-01	 3.4134968843e+00
 1.6061631297e+00	 1.9236825466e-01	 3.3802321955e+00
 1.6044249910e+00	 2.0636368968e-01	 3.3435606305e+00
 1.6025591752e+00	 2.2038513559e-01	 3.3036344760e+00
 1.6005647824e+00	 2.3443102005e-01	 3.2606380967e+00
 1.5984409358e+00	 2.4849974570e-01	 3.2147805283e+00
 1.5961867811e+00	 2.6258969053e-01	 3.1662868347e+00
 1.5938014885e+00	 2.7669920824e-01	 3.1153881530e+00
 1.5068715195e+00	 2.6160733276e-01	 3.0980362237e+00
 1.5044919947e+00	 2.7496193661e-01	 3.0509395737e+00
 1.5019870269e+00	 2.8833186380e-01	 3.0044195454e+00
 1.4993559022e+00	 3.0171549544e-01	 2.9590080614e+00
 1.4965979319e+00	 3.1511119125e-01	 2.9151098247e+00
 1.4937124529e+00	 3.2851728995e-01	 2.8729836991e+00
 1.4906988290e+00	 3.4193210972e-01	 2.8327227706e+00
 1.4875564508e+00	 3.5535394869e-01	 2.7942330608e+00
 1.4842847367e+00	 3.6878108538e-01	 2.7572108641e+00
 1.4808831335e+00	 3.8221177925e-01	 2.7188895694e+00
 1.4773511167e+00	 3.9564427119e-01	 2.6685336606e+00
 1.5155645164e+00	 2.6311652031e-01	 3.1322883911e+00
 1.5131712644e+00	 2.7654816559e-01	 3.0830725881e+00
 1.5106518457e+00	 2.8999522260e-01	 3.0337124087e+00
 1.5080055422e+00	 3.0345606313e-01	 2.9846477527e+00
 1.5052316614e+00	 3.1692903741e-01	 2.9361984727e+00
 1.5023295364e+00	 3.3041247460e-01	 2.8885458774e+00
 1.4992985273e+00	 3.4390468318e-01	 2.8417128792e+00
 1.4961380210e+00	 3.5740395145e-01	 2.7955427524e+00
 1.4928474327e+00	 3.7090854800e-01	 2.7496726545e+00
 1.4894262059e+00	 3.8441672225e-01	 2.7005493978e+00
 1.4858738132e+00	 3.9792670495e-01	 2.6445775501e+00
 1.5242575133e+00	 2.6462570786e-01	 3.1588079448e+00
 1.5218505340e+00	 2.7813439456e-01	 3.1078533125e+00
 1.5193166644e+00	 2.9165858140e-01	 3.0561441070e+00
 1.5166551823e+00	 3.0519663081e-01	 3.0040565767e+00
 1.5138653910e+00	 3.1874688358e-01	 2.9518540808e+00
 1.5109466200e+00	 3.3230765926e-01	 2.8996686863e+00
 1.5078982255e+00	 3.4587725664e-01	 2.8474813690e+00
 1.5047195911e+00	 3.5945395421e-01	 2.7951007842e+00
 1.5014101286e+00	 3.7303601062e-01	 2.7420367988e+00
 1.4979692783e+00	 3.8662166525e-01	 2.6839395430e+00
 1.4943965098e+00	 4.0020913871e-01	 2.6177839119e+00
 1.5329505102e+00	 2.6613489541e-01	 3.1778003619e+00
 1.5305298037e+00	 2.7972062354e-01	 3.1254654316e+00
 1.5279814831e+00	 2.9332194020e-01	 3.0718650716e+00
 1.5253048223e+00	 3.0693719849e-01	 3.0173397310e+00
 1.5224991205e+00	 3.2056472974e-01	 2.9621241212e+00
 1.5195637035e+00	 3.3420284392e-01	 2.9063288759e+00
 1.5164979237e+00	 3.4784983011e-01	 2.8499207767e+00
 1.5133011612e+00	 3.6150395697e-01	 2.7927015031e+00
 1.5099728245e+00	 3.7516347324e-01	 2.7339434509e+00
 1.5065123507e+00	 3.8882660825e-01	 2.6687640920e+00
 1.5029192063e+00	 4.0249157246e-01	 2.5946174967e+00
 1.5416435071e+00	 2.6764408295e-01	 3.1894620024e+00
 1.5392090733e+00	 2.8130685251e-01	 3.1360834907e+00
 1.5366463019e+00	 2.9498529900e-01	 3.0810167718e+00
 1.5339544623e+00	 3.0867776617e-01	 3.0245938370e+00
 1.5311328501e+00	 3.2238257590e-01	 2.9670480918e+00
 1.5281807870e+00	 3.3609802858e-01	 2.9084960510e+00
 1.5250976219e+00	 3.4982240357e-01	 2.8489175571e+00
 1.5218827314e+00	 3.6355395973e-01	 2.7881344806e+00
 1.5185355205e+00	 3.7729093586e-01	 2.7250692756e+00
 1.5150554231e+00	 3.9103155125e-01	 2.6545753851e+00
 1.5114419029e+00	 4.0477400622e-01	 2.5744922252e+00
 1.5503365040e+00	 2.6915327050e-01	 3.1939803324e+00
 1.5478883430e+00	 2.8289308149e-01	 3.1398731188e+00
 1.5453111206e+00	 2.9664865780e-01	 3.0837319309e+00
 1.5426041024e+00	 3.1041833386e-01	 3.0259071424e+00
 1.5397665797e+00	 3.2420042207e-01	 2.9666577003e+00
 1.5367978705e+00	 3.3799321323e-01	 2.9061328275e+00
 1.5336973201e+00	 3.5179497703e-01	 2.8443522054e+00
 1.5304643015e+00	 3.6560396249e-01	 2.7811845935e+00
 1.5270982164e+00	 3.7941839848e-01	 2.7150889992e+00
 1.5235984955e+00	 3.9323649426e-01	 2.6409258664e+00
 1.5199645994e+00	 4.0705643998e-01	 2.5568244900e+00
 1.5590295009e+00	 2.7066245805e-01	 3.1915341422e+00
 1.5565676126e+00	 2.8447931046e-01	 3.1369912459e+00
 1.5539759394e+00	 2.9831201659e-01	 3.0801347383e+00
 1.5512537424e+00	 3.1215890154e-01	 3.0213597215e+00
 1.5484003092e+00	 3.2601826823e-01	 2.9609770448e+00
 1.5454149540e+00	 3.3988839789e-01	 2.8991949878e+00
 1.5422970183e+00	 3.5376755049e-01	 2.8360993789e+00
 1.5390458716e+00	 3.6765396525e-01	 2.7716321046e+00
 1.5356609123e+00	 3.8154586110e-01	 2.7036754309e+00
 1.5321415679e+00	 3.9544143726e-01	 2.6273680552e+00
 1.5284872959e+00	 4.0933887373e-01	 2.5410330694e+00
 1.5677224978e+00	 2.7217164560e-01	 3.1822937599e+00
 1.5652468823e+00	 2.8606553943e-01	 3.1275863173e+00
 1.5626407581e+00	 2.9997537539e-01	 3.0703410573e+00
 1.5599033824e+00	 3.1389946922e-01	 3.0110236705e+00
 1.5570340388e+00	 3.2783611439e-01	 2.9500227909e+00
 1.5540320375e+00	 3.4178358255e-01	 2.8876316327e+00
 1.5508967165e+00	 3.5574012396e-01	 2.8240280177e+00
 1.5476274418e+00	 3.6970396801e-01	 2.7592527450e+00
 1.5442236082e+00	 3.8367332372e-01	 2.6904994863e+00
 1.5406846403e+00	 3.9764638026e-01	 2.6134545224e+00
 1.5370099925e+00	 4.1162130749e-01	 2.5265390488e+00
 1.5764154947e+00	 2.7368083315e-01	 3.1664212596e+00
 1.5739261520e+00	 2.8765176841e-01	 3.1117985016e+00
 1.5713055768e+00	 3.0163873419e-01	 3.0544586280e+00
 1.5685530225e+00	 3.1564003690e-01	 2.9949632998e+00
 1.5656677684e+00	 3.2965396056e-01	 2.9338043471e+00
 1.5626491211e+00	 3.4367876720e-01	 2.8713853333e+00
 1.5594964147e+00	 3.5771269742e-01	 2.8080014656e+00
 1.5562090119e+00	 3.7175397077e-01	 2.7437920246e+00
 1.5527863042e+00	 3.8580078635e-01	 2.6752302139e+00
 1.5492277127e+00	 3.9985132326e-01	 2.5987378705e+00
 1.5455326890e+00	 4.1390374125e-01	 2.5127657480e+00
 1.5851084916e+00	 2.7519002070e-01	 3.1440706659e+00
 1.5826054216e+00	 2.8923799738e-01	 3.0897598952e+00
 1.5799703956e+00	 3.0330209299e-01	 3.0325872668e+00
 1.5772026625e+00	 3.1738060459e-01	 2.9732353230e+00
 1.5743014979e+00	 3.3147180672e-01	 2.9123240367e+00
 1.5712662046e+00	 3.4557395186e-01	 2.8503922799e+00
 1.5680961129e+00	 3.5968527088e-01	 2.7878775900e+00
 1.5647905820e+00	 3.7380397353e-01	 2.7249325292e+00
 1.5613490001e+00	 3.8792824897e-01	 2.6575348246e+00
 1.5577707851e+00	 4.0205626627e-01	 2.5827707194e+00
 1.5540553856e+00	 4.1618617500e-01	 2.4991386563e+00
 1.5938014885e+00	 2.7669920824e-01	 3.1153881530e+00
 1.5912846913e+00	 2.9082422635e-01	 3.0615947231e+00
 1.5886352143e+00	 3.0496545179e-01	 3.0048190625e+00
 1.5858523025e+00	 3.1912117227e-01	 2.9458890418e+00
 1.5829352275e+00	 3.3328965288e-01	 2.8855772673e+00
 1.5798832881e+00	 3.4746913652e-01	 2.8245824298e+00
 1.5766958111e+00	 3.6165784435e-01	 2.7635089015e+00
 1.5733721522e+00	 3.7585397630e-01	 2.7024335566e+00
 1.5699116960e+00	 3.9005571159e-01	 2.6370787228e+00
 1.5663138575e+00	 4.0426120927e-01	 2.5651056951e+00
 1.5625780821e+00	 4.1846860876e-01	 2.4850853728e+00
 1.4773511167e+00	 3.9564427119e-01	 2.6685336606e+00
 1.4736881920e+00	 4.0907678431e-01	 2.6081945835e+00
 1.4698938963e+00	 4.2250752502e-01	 2.5442846193e+00
 1.4659677976e+00	 4.3593468314e-01	 2.4765363580e+00
 1.4619094952e+00	 4.4935643230e-01	 2.4047603645e+00
 1.4577186201e+00	 4.6277093058e-01	 2.3288585538e+00
 1.4533948358e+00	 4.7617632115e-01	 2.2488367623e+00
 1.4489378386e+00	 4.8957073294e-01	 2.1648163993e+00
 1.4443473582e+00	 5.0295228133e-01	 2.0770450640e+00
 1.4396231580e+00	 5.1631906883e-01	 1.9859060167e+00
 1.4347650360e+00	 5.2966918584e-01	 1.8919263986e+00
 1.4858738132e+00	 3.9792670495e-01	 2.6445775501e+00
 1.4821897575e+00	 4.1143670894e-01	 2.5876228672e+00
 1.4783735728e+00	 4.2494493030e-01	 2.5328454298e+00
 1.4744248249e+00	 4.3844954841e-01	 2.4727385155e+00
 1.4703431105e+00	 4.5194872635e-01	 2.4069911563e+00
 1.4661280587e+00	 4.6544061158e-01	 2.3355881214e+00
 1.4617793309e+00	 4.7892333656e-01	 2.2586221771e+00
 1.4572966217e+00	 4.9239501943e-01	 2.1763061048e+00
 1.4526796592e+00	 5.0585376468e-01	 2.0889836402e+00
 1.4479282056e+00	 5.1929766389e-01	 1.9971392192e+00
 1.4430420576e+00	 5.3272479644e-01	 1.9014064196e+00
 1.4943965098e+00	 4.0020913871e-01	 2.6177839119e+00
 1.4906913229e+00	 4.1379663358e-01	 2.5490802659e+00
 1.4868532494e+00	 4.2738233559e-01	 2.4847264915e+00
 1.4828818521e+00	 4.4096441368e-01	 2.4254164196e+00
 1.4787767258e+00	 4.5454102040e-01	 2.3689429551e+00
 1.4745374972e+00	 4.6811029258e-01	 2.3061013446e+00
 1.4701638260e+00	 4.8167035197e-01	 2.2362482882e+00
 1.4656554048e+00	 4.9521930591e-01	 2.1596308492e+00
 1.4610119603e+00	 5.0875524803e-01	 2.0766327722e+00
 1.4562332532e+00	 5.2227625896e-01	 1.9877846026e+00
 1.4513190791e+00	 5.3578040705e-01	 1.8937724487e+00
 1.5029192063e+00	 4.0249157246e-01	 2.5946174967e+00
 1.4991928884e+00	 4.1615655821e-01	 2.5166201162e+00
 1.4953329259e+00	 4.2981974087e-01	 2.4414332111e+00
 1.4913388794e+00	 4.4347927894e-01	 2.3698823429e+00
 1.4872103411e+00	 4.5713331445e-01	 2.3027285282e+00
 1.4829469358e+00	 4.7077997358e-01	 2.2406701623e+00
 1.4785483210e+00	 4.8441736738e-01	 2.1811605709e+00
 1.4740141879e+00	 4.9804359239e-01	 2.1142305945e+00
 1.4693442613e+00	 5.1165673138e-01	 2.0394449504e+00
 1.4645383008e+00	 5.2525485402e-01	 1.9573260057e+00
 1.4595961006e+00	 5.3883601765e-01	 1.8685592753e+00
 1.5114419029e+00	 4.0477400622e-01	 2.5744922252e+00
 1.5076944539e+00	 4.1851648284e-01	 2.4895168925e+00
 1.5038126025e+00	 4.3225714616e-01	 2.4059987877e+00
 1.4997959067e+00	 4.4599414421e-01	 2.3248466724e+00
 1.4956439564e+00	 4.5972560850e-01	 2.2469045021e+00
 1.4913563743e+00	 4.7344965458e-01	 2.1729530261e+00
 1.4869328161e+00	 4.8716438279e-01	 2.1037121365e+00
 1.4823729709e+00	 5.0086787888e-01	 2.0398440215e+00
 1.4776765623e+00	 5.1455821473e-01	 1.9768896910e+00
 1.4728433483e+00	 5.2823344908e-01	 1.9052633415e+00
 1.4678731222e+00	 5.4189162826e-01	 1.8253162824e+00
 1.5199645994e+00	 4.0705643998e-01	 2.5568244900e+00
 1.5161960194e+00	 4.2087640747e-01	 2.4670499463e+00
 1.5122922790e+00	 4.3469455144e-01	 2.3775781908e+00
 1.5082529339e+00	 4.4850900948e-01	 2.2893536424e+00
 1.5040775717e+00	 4.6231790255e-01	 2.2032558795e+00
 1.4997658129e+00	 4.7611933558e-01	 2.1201009726e+00
 1.4953173111e+00	 4.8991139820e-01	 2.0406435958e+00
 1.4907317540e+00	 5.0369216536e-01	 1.9655799747e+00
 1.4860088634e+00	 5.1745969808e-01	 1.8955517273e+00
 1.4811483959e+00	 5.3121204414e-01	 1.8311119619e+00
 1.4761501437e+00	 5.4494723886e-01	 1.7636068245e+00
 1.5284872959e+00	 4.0933887373e-01	 2.5410330694e+00
 1.5246975849e+00	 4.2323633211e-01	 2.4485033632e+00
 1.5207719556e+00	 4.3713195673e-01	 2.3553332105e+00
 1.5167099612e+00	 4.5102387475e-01	 2.2624561149e+00
 1.5125111870e+00	 4.6491019660e-01	 2.1707409214e+00
 1.5081752515e+00	 4.7878901658e-01	 2.0809929383e+00
 1.5037018062e+00	 4.9265841361e-01	 1.9939558687e+00
 1.4990905371e+00	 5.0651645185e-01	 1.9103146121e+00
 1.4943411644e+00	 5.2036118143e-01	 1.8306989970e+00
 1.4894534435e+00	 5.3419063921e-01	 1.7556884954e+00
 1.4844271652e+00	 5.4800284947e-01	 1.6858179686e+00
 1.5370099925e+00	 4.1162130749e-01	 2.5265390488e+00
 1.5331991503e+00	 4.2559625674e-01	 2.4331658297e+00
 1.5292516321e+00	 4.3956936201e-01	 2.3384322790e+00
 1.5251669885e+00	 4.5353874002e-01	 2.2432153645e+00
 1.5209448024e+00	 4.6750249064e-01	 2.1483277848e+00
 1.5165846900e+00	 4.8145869758e-01	 2.0545189344e+00
 1.5120863013e+00	 4.9540542902e-01	 1.9624767114e+00
 1.5074493201e+00	 5.0934073833e-01	 1.8728302322e+00
 1.5026734654e+00	 5.2326266478e-01	 1.7861535155e+00
 1.4977584911e+00	 5.3716923427e-01	 1.7029701901e+00
 1.4927041868e+00	 5.5105846007e-01	 1.6237592796e+00
 1.5455326890e+00	 4.1390374125e-01	 2.5127657480e+00
 1.5417007158e+00	 4.2795618137e-01	 2.4203305091e+00
 1.5377313087e+00	 4.4200676730e-01	 2.3260503027e+00
 1.5336240157e+00	 4.5605360529e-01	 2.2307008771e+00
 1.5293784177e+00	 4.7009478469e-01	 2.1349942972e+00
 1.5249941286e+00	 4.8412837858e-01	 2.0395798068e+00
 1.5204707963e+00	 4.9815244443e-01	 1.9450455677e+00
 1.5158081032e+00	 5.1216502481e-01	 1.8519213449e+00
 1.5110057664e+00	 5.2616414813e-01	 1.7606822012e+00
 1.5060635386e+00	 5.4014782933e-01	 1.6717532608e+00
 1.5009812083e+00	 5.5411407067e-01	 1.5855155941e+00
 1.5540553856e+00	 4.1618617500e-01	 2.4991386563e+00
 1.5502022813e+00	 4.3031610601e-01	 2.4092949256e+00
 1.5462109852e+00	 4.4444417258e-01	 2.3173685053e+00
 1.5420810430e+00	 4.5856847056e-01	 2.2239901602e+00
 1.5378120330e+00	 4.7268707874e-01	 2.1297277441e+00
 1.5334035671e+00	 4.8679805958e-01	 2.0350870111e+00
 1.5288552914e+00	 5.0089945984e-01	 1.9405133415e+00
 1.5241668863e+00	 5.1498931130e-01	 1.8463944526e+00
 1.5193380675e+00	 5.2906563148e-01	 1.7530641635e+00
 1.5143685862e+00	 5.4312642439e-01	 1.6608072732e+00
 1.5092582298e+00	 5.5716968127e-01	 1.5698656102e+00
 1.5625780821e+00	 4.1846860876e-01	 2.4850853728e+00
 1.5587038468e+00	 4.3267603064e-01	 2.3993608577e+00
 1.5546906618e+00	 4.4688157787e-01	 2.3115742814e+00
 1.5505380703e+00	 4.6108333583e-01	 2.2221685656e+00
 1.5462456483e+00	 4.7527937279e-01	 2.1315246693e+00
 1.5418130057e+00	 4.8946774058e-01	 2.0399624010e+00
 1.5372397864e+00	 5.0364647525e-01	 1.9477421834e+00
 1.5325256694e+00	 5.1781359778e-01	 1.8550678463e+00
 1.5276703685e+00	 5.3196711483e-01	 1.7620905179e+00
 1.5226736338e+00	 5.4610501945e-01	 1.6689136778e+00
 1.5175352514e+00	 5.6022529188e-01	 1.5755994319e+00
 1.4347650360e+00	 5.2966918584e-01	 1.8919263986e+00
 1.4297719645e+00	 5.4300297606e-01	 1.7967968749e+00
 1.4246446250e+00	 5.5631623520e-01	 1.7014680250e+00
 1.4193829200e+00	 5.6960702012e-01	 1.6055520006e+00
 1.4139867881e+00	 5.8287337855e-01	 1.5088396817e+00
 1.4084562042e+00	 5.9611334994e-01	 1.4113034728e+00
 1.4027911802e+00	 6.0932496624e-01	 1.3130983380e+00
 1.3969917650e+00	 6.2250625276e-01	 1.2145610135e+00
 1.3910580450e+00	 6.3565522902e-01	 1.1162073439e+00
 1.3849901442e+00	 6.4876990960e-01	 1.0187277020e+00
 1.3787882249e+00	 6.6184830499e-01	 9.2298046040e-01
 1.4430420576e+00	 5.3272479644e-01	 1.9014064196e+00
 1.4380201815e+00	 5.4613550802e-01	 1.8037947462e+00
 1.4328632628e+00	 5.5952557007e-01	 1.7055555973e+00
 1.4275712036e+00	 5.7289302825e-01	 1.6063890220e+00
 1.4221439419e+00	 5.8623591903e-01	 1.5061812895e+00
 1.4165814526e+00	 5.9955227053e-01	 1.4050076901e+00
 1.4108837477e+00	 6.1284010338e-01	 1.3031335036e+00
 1.4050508762e+00	 6.2609743148e-01	 1.2010130696e+00
 1.3990829251e+00	 6.3932226292e-01	 1.0992869072e+00
 1.3929800192e+00	 6.5251260082e-01	 9.9877683915e-01
 1.3867423216e+00	 6.6566644422e-01	 9.0047909014e-01
 1.4513190791e+00	 5.3578040705e-01	 1.8937724487e+00
 1.4462683985e+00	 5.4926803997e-01	 1.7968915818e+00
 1.4410819007e+00	 5.6273490494e-01	 1.6986863186e+00
 1.4357594872e+00	 5.7617903638e-01	 1.5989315385e+00
 1.4303010957e+00	 5.8959845950e-01	 1.4975964519e+00
 1.4247067010e+00	 6.0299119113e-01	 1.3948474317e+00
 1.4189763151e+00	 6.1635524052e-01	 1.2910489366e+00
 1.4131099874e+00	 6.2968861020e-01	 1.1867624607e+00
 1.4071078052e+00	 6.4298929682e-01	 1.0827434534e+00
 1.4009698942e+00	 6.5625529205e-01	 9.7993616354e-01
 1.3946964183e+00	 6.6948458346e-01	 8.7946637644e-01
 1.4595961006e+00	 5.3883601765e-01	 1.8685592753e+00
 1.4545166154e+00	 5.5240057193e-01	 1.7756843316e+00
 1.4493005385e+00	 5.6594423981e-01	 1.6805216478e+00
 1.4439477707e+00	 5.7946504451e-01	 1.5829079877e+00
 1.4384582495e+00	 5.9296099998e-01	 1.4828831888e+00
 1.4328319495e+00	 6.0643011173e-01	 1.3806930480e+00
 1.4270688825e+00	 6.1987037766e-01	 1.2767902234e+00
 1.4211690985e+00	 6.3327978891e-01	 1.1718330836e+00
 1.4151326853e+00	 6.4665633071e-01	 1.0666824447e+00
 1.4089597691e+00	 6.5999798328e-01	 9.6239615018e-01
 1.4026505149e+00	 6.7330272269e-01	 8.6022145876e-01
 1.4678731222e+00	 5.4189162826e-01	 1.8253162824e+00
 1.4627648324e+00	 5.5553310389e-01	 1.7397827156e+00
 1.4575191764e+00	 5.6915357468e-01	 1.6507338453e+00
 1.4521360543e+00	 5.8275105264e-01	 1.5580554917e+00
 1.4466154033e+00	 5.9632354046e-01	 1.4618459339e+00
 1.4409571979e+00	 6.0986903233e-01	 1.3624188757e+00
 1.4351614500e+00	 6.2338551481e-01	 1.2603043491e+00
 1.4292282097e+00	 6.3687096763e-01	 1.1562474824e+00
 1.4231575654e+00	 6.5032336461e-01	 1.0512050729e+00
 1.4169496441e+00	 6.6374067451e-01	 9.4633991748e-01
 1.4106046116e+00	 6.7712086192e-01	 8.4301286234e-01
 1.4761501437e+00	 5.4494723886e-01	 1.7636068245e+00
 1.4710130494e+00	 5.5866563585e-01	 1.6888086231e+00
 1.4657378143e+00	 5.7236290955e-01	 1.6090053960e+00
 1.4603243379e+00	 5.8603706077e-01	 1.5241193045e+00
 1.4547725572e+00	 5.9968608093e-01	 1.4342950093e+00
 1.4490824463e+00	 6.1330795293e-01	 1.3399027421e+00
 1.4432540174e+00	 6.2690065195e-01	 1.2415392330e+00
 1.4372873208e+00	 6.4046214635e-01	 1.1400264182e+00
 1.4311824455e+00	 6.5399039851e-01	 1.0364078663e+00
 1.4249395191e+00	 6.6748336574e-01	 9.3194287294e-01
 1.4185587083e+00	 6.8093900116e-01	 8.2809818603e-01
 1.4844271652e+00	 5.4800284947e-01	 1.6858179686e+00
 1.4792612664e+00	 5.6179816781e-01	 1.6223955270e+00
 1.4739564521e+00	 5.7557224442e-01	 1.5550284451e+00
 1.4685126215e+00	 5.8932306890e-01	 1.4808522720e+00
 1.4629297110e+00	 6.0304862141e-01	 1.4000461116e+00
 1.4572076947e+00	 6.1674687353e-01	 1.3130254785e+00
 1.4513465848e+00	 6.3041578909e-01	 1.2204432724e+00
 1.4453464320e+00	 6.4405332506e-01	 1.1231884455e+00
 1.4392073256e+00	 6.5765743241e-01	 1.0223822998e+00
 1.4329293940e+00	 6.7122605697e-01	 9.1937236110e-01
 1.4265128050e+00	 6.8475714039e-01	 8.1572379025e-01
 1.4927041868e+00	 5.5105846007e-01	 1.6237592796e+00
 1.4875094834e+00	 5.6493069976e-01	 1.5515172686e+00
 1.4821750900e+00	 5.7878157929e-01	 1.4886469263e+00
 1.4767009051e+00	 5.9260907703e-01	 1.4280143039e+00
 1.4710868648e+00	 6.0641116189e-01	 1.3589198077e+00
 1.4653329431e+00	 6.2018579413e-01	 1.2816704427e+00
 1.4594391523e+00	 6.3393092623e-01	 1.1969648934e+00
 1.4534055432e+00	 6.4764450378e-01	 1.1057494932e+00
 1.4472322057e+00	 6.6132446630e-01	 1.0092144101e+00
 1.4409192690e+00	 6.7496874819e-01	 9.0878731363e-01
 1.4344669017e+00	 6.8857527963e-01	 8.0612448506e-01
 1.5009812083e+00	 5.5411407067e-01	 1.5855155941e+00
 1.4957577004e+00	 5.6806323172e-01	 1.5050218343e+00
 1.4903937278e+00	 5.8199091416e-01	 1.4328757106e+00
 1.4848891887e+00	 5.9589508516e-01	 1.3687040407e+00
 1.4792440186e+00	 6.0977370236e-01	 1.3107410417e+00
 1.4734581915e+00	 6.2362471472e-01	 1.2457230505e+00
 1.4675317197e+00	 6.3744606338e-01	 1.1710521093e+00
 1.4614646543e+00	 6.5123568250e-01	 1.0877224525e+00
 1.4552570858e+00	 6.6499150020e-01	 9.9698441371e-01
 1.4489091440e+00	 6.7871143942e-01	 9.0033790146e-01
 1.4424209984e+00	 6.9239341886e-01	 7.9952321849e-01
 1.5092582298e+00	 5.5716968127e-01	 1.5698656102e+00
 1.5040059173e+00	 5.7119576368e-01	 1.4832664920e+00
 1.4986123657e+00	 5.8520024903e-01	 1.4037550405e+00
 1.4930774723e+00	 5.9918109329e-01	 1.3310648960e+00
 1.4874011724e+00	 6.1313624284e-01	 1.2649249614e+00
 1.4815834399e+00	 6.2706363532e-01	 1.2050727538e+00
 1.4756242871e+00	 6.4096120052e-01	 1.1426520857e+00
 1.4695237655e+00	 6.5482686121e-01	 1.0691167689e+00
 1.4632819659e+00	 6.6865853409e-01	 9.8576632953e-01
 1.4568990189e+00	 6.8245413065e-01	 8.9416518896e-01
 1.4503750951e+00	 6.9621155809e-01	 7.9613076489e-01
 1.5175352514e+00	 5.6022529188e-01	 1.5755994319e+00
 1.5122541343e+00	 5.7432829563e-01	 1.4850612599e+00
 1.5068310035e+00	 5.8840958390e-01	 1.4001186389e+00
 1.5012657558e+00	 6.0246710142e-01	 1.3206053094e+00
 1.4955583263e+00	 6.1649878331e-01	 1.2463473233e+00
 1.4897086883e+00	 6.3050255592e-01	 1.1771764489e+00
 1.4837168546e+00	 6.4447633766e-01	 1.1129449863e+00
 1.4775828767e+00	 6.5841803993e-01	 1.0499380404e+00
 1.4713068460e+00	 6.7232556799e-01	 9.7562760457e-01
 1.4648888939e+00	 6.8619682187e-01	 8.9040079000e-01
 1.4583291918e+00	 7.0002969732e-01	 7.9614541351e-01
 1.3787882249e+00	 6.6184830499e-01	 9.2298046040e-01
 1.3724535755e+00	 6.7488620921e-01	 8.2845147101e-01
 1.3659853912e+00	 6.8788385397e-01	 7.3414174531e-01
 1.3593839483e+00	 7.0083924323e-01	 6.4047725130e-01
 1.3526495623e+00	 7.1375038049e-01	 5.4804069631e-01
 1.3457825872e+00	 7.2661526967e-01	 4.5755659731e-01
 1.3387834164e+00	 7.3943191608e-01	 3.6987443928e-01
 1.3316524825e+00	 7.5219832734e-01	 2.8398042997e-01
 1.3243902571e+00	 7.6491251433e-01	 1.9795175243e-01
 1.3169972515e+00	 7.7757249215e-01	 1.1272039060e-01
 1.3094740159e+00	 7.9017628106e-01	 2.9315389574e-02
 1.3867423216e+00	 6.6566644422e-01	 9.0047909014e-01
 1.3803711282e+00	 6.7877956286e-01	 8.0429674661e-01
 1.3738656295e+00	 6.9185218978e-01	 7.0943971583e-01
 1.3672261036e+00	 7.0488231744e-01	 6.1617368298e-01
 1.3604528675e+00	 7.1786793780e-01	 5.2493251103e-01
 1.3535462775e+00	 7.3080704329e-01	 4.3630307134e-01
 1.3465067292e+00	 7.4369762770e-01	 3.5086925872e-01
 1.3393346576e+00	 7.5653768716e-01	 2.6593640773e-01
 1.3320305372e+00	 7.6932522108e-01	 1.8076658152e-01
 1.3245948820e+00	 7.8205823309e-01	 9.6205380535e-02
 1.3170282456e+00	 7.9473473205e-01	 1.3177660715e-02
 1.3946964183e+00	 6.6948458346e-01	 8.7946637644e-01
 1.3882886809e+00	 6.8267291651e-01	 7.8171905442e-01
 1.3817458679e+00	 6.9582052559e-01	 6.8621786311e-01
 1.3750682589e+00	 7.0892539164e-01	 5.9312058206e-01
 1.3682561728e+00	 7.2198549512e-01	 5.0276437882e-01
 1.3613099679e+00	 7.3499881692e-01	 4.1565030947e-01
 1.3542300420e+00	 7.4796333933e-01	 3.3156614928e-01
 1.3470168327e+00	 7.6087704699e-01	 2.4712170523e-01
 1.3396708172e+00	 7.7373792783e-01	 1.6248556812e-01
 1.3321925125e+00	 7.8654397404e-01	 7.8440046019e-02
 1.3245824753e+00	 7.9929318304e-01	-4.1482296479e-03
 1.4026505149e+00	 6.7330272269e-01	 8.6022145876e-01
 1.3962062336e+00	 6.8656627016e-01	 7.6108016416e-01
 1.3896261063e+00	 6.9978886140e-01	 6.6490421742e-01
 1.3829104142e+00	 7.1296846585e-01	 5.7179507550e-01
 1.3760594780e+00	 7.2610305243e-01	 4.8204458559e-01
 1.3690736582e+00	 7.3919059054e-01	 3.9611906560e-01
 1.3619533548e+00	 7.5222905095e-01	 3.1237288111e-01
 1.3546990078e+00	 7.6521640681e-01	 2.2795090875e-01
 1.3473110973e+00	 7.7815063457e-01	 1.4348613490e-01
 1.3397901430e+00	 7.9102971498e-01	 5.9743720038e-02
 1.3321367050e+00	 8.0385163402e-01	-2.2422789953e-02
 1.4106046116e+00	 6.7712086192e-01	 8.4301286234e-01
 1.4041237863e+00	 6.9045962381e-01	 7.4272802434e-01
 1.3975063447e+00	 7.0375719722e-01	 6.4591006765e-01
 1.3907525695e+00	 7.1701154006e-01	 5.5265493754e-01
 1.3838627833e+00	 7.3022060975e-01	 4.6325978410e-01
 1.3768373485e+00	 7.4338236417e-01	 3.7808091009e-01
 1.3696766676e+00	 7.5649476258e-01	 2.9370556673e-01
 1.3623811830e+00	 7.6955576664e-01	 2.0882347301e-01
 1.3549513773e+00	 7.8256334132e-01	 1.2413142775e-01
 1.3473877735e+00	 7.9551545592e-01	 4.0422765810e-02
 1.3396909347e+00	 8.0841008501e-01	-4.1417722473e-02
 1.4185587083e+00	 6.8093900116e-01	 8.2809818603e-01
 1.4120413390e+00	 6.9435297746e-01	 7.2699648873e-01
 1.4053865830e+00	 7.0772553303e-01	 6.2962971666e-01
 1.3985947248e+00	 7.2105461427e-01	 5.3613836355e-01
 1.3916660885e+00	 7.3433816707e-01	 4.4687477529e-01
 1.3846010389e+00	 7.4757413779e-01	 3.6152691704e-01
 1.3773999804e+00	 7.6076047421e-01	 2.7596553159e-01
 1.3700633581e+00	 7.7389512646e-01	 1.9012449281e-01
 1.3625916574e+00	 7.8697604807e-01	 1.0477108218e-01
 1.3549854040e+00	 8.0000119686e-01	 2.0771324444e-02
 1.3472451643e+00	 8.1296853600e-01	-6.0915208359e-02
 1.4265128050e+00	 6.8475714039e-01	 8.1572379025e-01
 1.4199588917e+00	 6.9824633111e-01	 7.1420504114e-01
 1.4132668214e+00	 7.1169386884e-01	 6.1644023320e-01
 1.4064368800e+00	 7.2509768847e-01	 5.2266373902e-01
 1.3994693938e+00	 7.3845572439e-01	 4.3333228380e-01
 1.3923647292e+00	 7.5176591142e-01	 3.4680340691e-01
 1.3851232932e+00	 7.6502618583e-01	 2.5954007137e-01
 1.3777455332e+00	 7.7823448629e-01	 1.7222546816e-01
 1.3702319374e+00	 7.9138875482e-01	 8.5741983767e-02
 1.3625830345e+00	 8.0448693781e-01	 1.0720576895e-03
 1.3547993940e+00	 8.1752698699e-01	-8.0707196119e-02
 1.4344669017e+00	 6.8857527963e-01	 8.0612448506e-01
 1.4278764444e+00	 7.0213968476e-01	 7.0465851834e-01
 1.4211470598e+00	 7.1566220466e-01	 6.0670120051e-01
 1.4142790353e+00	 7.2914076268e-01	 5.1262940395e-01
 1.4072726991e+00	 7.4257328170e-01	 4.2298596438e-01
 1.4001284195e+00	 7.5595768504e-01	 3.3428211595e-01
 1.3928466060e+00	 7.6929189746e-01	 2.4480320295e-01
 1.3854277083e+00	 7.8257384612e-01	 1.5548506320e-01
 1.3778722174e+00	 7.9580146157e-01	 6.7369022886e-02
 1.3701806650e+00	 8.0897267875e-01	-1.8403114019e-02
 1.3623536237e+00	 8.2208543798e-01	-1.0059469338e-01
 1.4424209984e+00	 6.9239341886e-01	 7.9952321849e-01
 1.4357939971e+00	 7.0603303841e-01	 6.9864683140e-01
 1.4290272981e+00	 7.1963054047e-01	 6.0075446160e-01
 1.4221211906e+00	 7.3318383689e-01	 5.0641341277e-01
 1.4150760043e+00	 7.4669083902e-01	 4.1572914096e-01
 1.4078921099e+00	 7.6014945867e-01	 3.2432216628e-01
 1.4005699188e+00	 7.7355760909e-01	 2.3211640910e-01
 1.3931098834e+00	 7.8691320594e-01	 1.4024985901e-01
 1.3855124975e+00	 8.0021416831e-01	 4.9965844027e-02
 1.3777782955e+00	 8.1345841969e-01	-3.7392278058e-02
 1.3699078534e+00	 8.2664388897e-01	-1.2038706182e-01
 1.4503750951e+00	 6.9621155809e-01	 7.9613076489e-01
 1.4437115498e+00	 7.0992639206e-01	 6.9644468535e-01
 1.4369075365e+00	 7.2359887628e-01	 5.9892386156e-01
 1.4299633459e+00	 7.3722691109e-01	 5.0437329003e-01
 1.4228793096e+00	 7.5080839633e-01	 4.1179608454e-01
 1.4156558002e+00	 7.6434123229e-01	 3.1727078570e-01
 1.4082932316e+00	 7.7782332071e-01	 2.2182937732e-01
 1.4007920586e+00	 7.9125256577e-01	 1.2685510073e-01
 1.3931527775e+00	 8.0462687506e-01	 3.3835589780e-02
 1.3853759260e+00	 8.1794416063e-01	-5.5642800462e-02
 1.3774620831e+00	 8.3120233995e-01	-1.3990131512e-01
 1.4583291918e+00	 7.0002969732e-01	 7.9614541351e-01
 1.4516291026e+00	 7.1381974571e-01	 6.9831129734e-01
 1.4447877749e+00	 7.2756721209e-01	 6.0151498683e-01
 1.4378055012e+00	 7.4126998530e-01	 5.0683933711e-01
 1.4306826148e+00	 7.5492595365e-01	 4.1150446756e-01
 1.4234194906e+00	 7.6853300592e-01	 3.1346402178e-01
 1.4160165444e+00	 7.8208903234e-01	 2.1428073296e-01
 1.4084742337e+00	 7.9559192559e-01	 1.1562543902e-01
 1.4007930576e+00	 8.0903958181e-01	 1.9271639782e-02
 1.3929735565e+00	 8.2242990157e-01	-7.2910600962e-02
 1.3850163128e+00	 8.3576079094e-01	-1.5896141990e-01
 1.3094740159e+00	 7.9017628106e-01	 2.9315389574e-02
 1.3018211405e+00	 8.0272190770e-01	-5.5447821570e-02
 1.2940392556e+00	 8.1520740681e-01	-1.4448578242e-01
 1.2861290314e+00	 8.2763082149e-01	-2.3628015857e-01
 1.2780911770e+00	 8.3999020390e-01	-3.2927122874e-01
 1.2699264403e+00	 8.5228361624e-01	-4.2186621201e-01
 1.2616356082e+00	 8.6450913168e-01	-5.1244805353e-01
 1.2532195063e+00	 8.7666483536e-01	-5.9938465230e-01
 1.2446789982e+00	 8.8874882534e-01	-6.8103851179e-01
 1.2360149861e+00	 9.0075921351e-01	-7.5577679089e-01
 1.2272284097e+00	 9.1269412663e-01	-8.2198172977e-01
 1.3170282456e+00	 7.9473473205e-01	 1.3177660715e-02
 1.3093312214e+00	 8.0735273320e-01	-7.1663002080e-02
 1.3015044437e+00	 8.1991025995e-01	-1.6123354111e-01
 1.2935485861e+00	 8.3240534412e-01	-2.5387333977e-01
 1.2854643621e+00	 8.4483602662e-01	-3.4788113784e-01
 1.2772525238e+00	 8.5720035847e-01	-4.4152368068e-01
 1.2689138627e+00	 8.6949640173e-01	-5.3304484224e-01
 1.2604492091e+00	 8.8172223050e-01	-6.2067520554e-01
 1.2518594317e+00	 8.9387593185e-01	-7.0264208101e-01
 1.2431454377e+00	 9.0595560681e-01	-7.7717993989e-01
 1.2343081724e+00	 9.1795937128e-01	-8.4254123654e-01
 1.3245824753e+00	 7.9929318304e-01	-4.1482296479e-03
 1.3168413024e+00	 8.1198355870e-01	-8.8808406242e-02
 1.3089696317e+00	 8.2461311310e-01	-1.7853628217e-01
 1.3009681408e+00	 8.3717986675e-01	-2.7156981866e-01
 1.2928375472e+00	 8.4968184934e-01	-3.6610651450e-01
 1.2845786073e+00	 8.6211710070e-01	-4.6031231644e-01
 1.2761921173e+00	 8.7448367179e-01	-5.5233101982e-01
 1.2676789119e+00	 8.8677962564e-01	-6.4029414300e-01
 1.2590398651e+00	 8.9900303837e-01	-7.2233125580e-01
 1.2502758893e+00	 9.1115200010e-01	-7.9658073889e-01
 1.2413879351e+00	 9.2322461594e-01	-8.6120094774e-01
 1.3321367050e+00	 8.0385163402e-01	-2.2422789953e-02
 1.3243513834e+00	 8.1661438420e-01	-1.0673104364e-01
 1.3164348197e+00	 8.2931596624e-01	-1.9631807971e-01
 1.3083876956e+00	 8.4195438938e-01	-2.8936060677e-01
 1.3002107323e+00	 8.5452767206e-01	-3.8399449225e-01
 1.2919046909e+00	 8.6703384293e-01	-4.7832387381e-01
 1.2834703718e+00	 8.7947094184e-01	-5.7043077827e-01
 1.2749086148e+00	 8.9183702078e-01	-6.5838523167e-01
 1.2662202986e+00	 9.0413014489e-01	-7.4025584070e-01
 1.2574063409e+00	 9.1634839339e-01	-8.1412082219e-01
 1.2484676978e+00	 9.2848986060e-01	-8.7807945408e-01
 1.3396909347e+00	 8.0841008501e-01	-4.1417722473e-02
 1.3318614644e+00	 8.2124520970e-01	-1.2528721500e-01
 1.3239000078e+00	 8.3401881939e-01	-2.1451063420e-01
 1.3158072503e+00	 8.4672891201e-01	-3.0724293219e-01
 1.3075839174e+00	 8.5937349478e-01	-4.0159728328e-01
 1.2992307744e+00	 8.7195058517e-01	-4.9565433659e-01
 1.2907486263e+00	 8.8445821190e-01	-5.8747199438e-01
 1.2821383176e+00	 8.9689441593e-01	-6.7509569996e-01
 1.2734007321e+00	 9.0925725141e-01	-7.5656921528e-01
 1.2645367925e+00	 9.2154478668e-01	-8.2994586524e-01
 1.2555474605e+00	 9.3375510526e-01	-8.9330022152e-01
 1.3472451643e+00	 8.1296853600e-01	-6.0915208359e-02
 1.3393715454e+00	 8.2587603520e-01	-1.4434183439e-01
 1.3313651958e+00	 8.3872167253e-01	-2.3305262613e-01
 1.3232268050e+00	 8.5150343464e-01	-3.2521961857e-01
 1.3149571025e+00	 8.6421931750e-01	-4.1897157617e-01
 1.3065568579e+00	 8.7686732740e-01	-5.1240332731e-01
 1.2980268808e+00	 8.8944548196e-01	-6.0358564360e-01
 1.2893680204e+00	 9.0195181107e-01	-6.9057564808e-01
 1.2805811655e+00	 9.1438435792e-01	-7.7142773287e-01
 1.2716672441e+00	 9.2674117998e-01	-8.4420496315e-01
 1.2626272232e+00	 9.3902034992e-01	-9.0699094044e-01
 1.3547993940e+00	 8.1752698699e-01	-8.0707196119e-02
 1.3468816263e+00	 8.3050686071e-01	-1.6376775322e-01
 1.3388303838e+00	 8.4342452568e-01	-2.5188907004e-01
 1.3306463597e+00	 8.5627795727e-01	-3.4329846323e-01
 1.3223302876e+00	 8.6906514022e-01	-4.3617793176e-01
 1.3138829414e+00	 8.8178406963e-01	-5.2867351420e-01
 1.3053051353e+00	 8.9443275201e-01	-6.1890521087e-01
 1.2965977232e+00	 9.0700920621e-01	-7.0497745536e-01
 1.2877615990e+00	 9.1951146444e-01	-7.8499011633e-01
 1.2787976957e+00	 9.3193757327e-01	-8.5705000668e-01
 1.2697069859e+00	 9.4428559458e-01	-9.1928287317e-01
 1.3623536237e+00	 8.2208543798e-01	-1.0059469338e-01
 1.3543917073e+00	 8.3513768621e-01	-1.8344508600e-01
 1.3462955719e+00	 8.4812737883e-01	-2.7097066893e-01
 1.3380659144e+00	 8.6105247990e-01	-3.6149161457e-01
 1.3297034727e+00	 8.7391096294e-01	-4.5328017748e-01
 1.3212090249e+00	 8.8670081187e-01	-5.4457001588e-01
 1.3125833898e+00	 8.9942002207e-01	-6.3356609886e-01
 1.3038274261e+00	 9.1206660135e-01	-7.1845518464e-01
 1.2949420324e+00	 9.2463857096e-01	-7.9741685108e-01
 1.2859281473e+00	 9.3713396656e-01	-8.6863505588e-01
 1.2767867486e+00	 9.4955083923e-01	-9.3031019982e-01
 1.3699078534e+00	 8.2664388897e-01	-1.2038706182e-01
 1.3619017883e+00	 8.3976851171e-01	-2.0326053779e-01
 1.3537607599e+00	 8.5283023197e-01	-2.9025316911e-01
 1.3454854691e+00	 8.6582700253e-01	-3.7981494874e-01
 1.3370766578e+00	 8.7875678566e-01	-4.7034479996e-01
 1.3285351085e+00	 8.9161755410e-01	-5.6019980367e-01
 1.3198616443e+00	 9.0440729213e-01	-6.4770503338e-01
 1.3110571289e+00	 9.1712399650e-01	-7.3116398389e-01
 1.3021224659e+00	 9.2976567748e-01	-8.0886957549e-01
 1.2930585989e+00	 9.4233035985e-01	-8.7911571144e-01
 1.2838665113e+00	 9.5481608389e-01	-9.4020936262e-01
 1.3774620831e+00	 8.3120233995e-01	-1.3990131512e-01
 1.3694118693e+00	 8.4439933721e-01	-2.2310673321e-01
 1.3612259479e+00	 8.5753308512e-01	-3.0969671529e-01
 1.3529050238e+00	 8.7060152516e-01	-3.9828744560e-01
 1.3444498429e+00	 8.8360260837e-01	-4.8744033616e-01
 1.3358611920e+00	 8.9653429633e-01	-5.7567110189e-01
 1.3271398988e+00	 9.0939456218e-01	-6.6145946639e-01
 1.3182868317e+00	 9.2218139164e-01	-7.4325948512e-01
 1.3093028993e+00	 9.3489278400e-01	-8.1951046858e-01
 1.3001890505e+00	 9.4752675315e-01	-8.8864848386e-01
 1.2909462740e+00	 9.6008132855e-01	-9.4911840866e-01
 1.3850163128e+00	 8.3576079094e-01	-1.5896141990e-01
 1.3769219503e+00	 8.4903016271e-01	-2.4288154700e-01
 1.3686911360e+00	 8.6223593826e-01	-3.2926520611e-01
 1.3603245785e+00	 8.7537604779e-01	-4.1693056403e-01
 1.3518230280e+00	 8.8844843109e-01	-5.0463676299e-01
 1.3431872755e+00	 9.0145103856e-01	-5.9109278595e-01
 1.3344181533e+00	 9.1438183224e-01	-6.7496697643e-01
 1.3255165345e+00	 9.2723878678e-01	-7.5489720065e-01
 1.3164833328e+00	 9.4001989051e-01	-8.2950163537e-01
 1.3073195021e+00	 9.5272314644e-01	-8.9739016052e-01
 1.2980260367e+00	 9.6534657321e-01	-9.5717633122e-01
 1.2272284097e+00	 9.1269412663e-01	-8.2198172977e-01
 1.2183187227e+00	 9.2455371526e-01	-8.8494710930e-01
 1.2092884280e+00	 9.3633409648e-01	-9.5049849333e-01
 1.2001385827e+00	 9.4803343938e-01	-1.0179343310e+00
 1.1908702807e+00	 9.5964993156e-01	-1.0866542729e+00
 1.1814846520e+00	 9.7118178004e-01	-1.1561699879e+00
 1.1719828623e+00	 9.8262721220e-01	-1.2261160711e+00
 1.1623661127e+00	 9.9398447665e-01	-1.2962609965e+00
 1.1526356390e+00	 1.0052518441e+00	-1.3665180684e+00
 1.1427927111e+00	 1.0164276082e+00	-1.4369563210e+00
 1.1328386328e+00	 1.0275100866e+00	-1.5078113143e+00
 1.2343081724e+00	 9.1795937128e-01	-8.4254123654e-01
 1.2253470863e+00	 9.2988737674e-01	-9.0425440146e-01
 1.2162646966e+00	 9.4173571785e-01	-9.6853783878e-01
 1.2070620668e+00	 9.5350255314e-01	-1.0347968984e+00
 1.1977402968e+00	 9.6518605974e-01	-1.1025349901e+00
 1.1883005233e+00	 9.7678443434e-01	-1.1713644973e+00
 1.1787439188e+00	 9.8829589410e-01	-1.2410177990e+00
 1.1690716911e+00	 9.9971867752e-01	-1.3113583557e+00
 1.1592850831e+00	 1.0110510453e+00	-1.3823918094e+00
 1.1493853723e+00	 1.0222912814e+00	-1.4542770480e+00
 1.1393738700e+00	 1.0334376935e+00	-1.5273371812e+00
 1.2413879351e+00	 9.2322461594e-01	-8.6120094774e-01
 1.2323754499e+00	 9.3522103822e-01	-9.2192253939e-01
 1.2232409653e+00	 9.4713733922e-01	-9.8527095552e-01
 1.2139855508e+00	 9.5897166689e-01	-1.0507134945e+00
 1.2046103130e+00	 9.7072218792e-01	-1.1178124771e+00
 1.1951163947e+00	 9.8238708865e-01	-1.1862363224e+00
 1.1855049752e+00	 9.9396457601e-01	-1.2557707518e+00
 1.1757772694e+00	 1.0054528784e+00	-1.3263300742e+00
 1.1659345273e+00	 1.0168502466e+00	-1.3979685026e+00
 1.1559780336e+00	 1.0281549545e+00	-1.4708914517e+00
 1.1459091071e+00	 1.0393653004e+00	-1.5454667614e+00
 1.2484676978e+00	 9.2848986060e-01	-8.7807945408e-01
 1.2394038134e+00	 9.4055469971e-01	-9.3804121485e-01
 1.2302172340e+00	 9.5253896060e-01	-1.0007627160e+00
 1.2209090349e+00	 9.6444078065e-01	-1.0657289469e+00
 1.2114803291e+00	 9.7625831610e-01	-1.1325169788e+00
 1.2019322660e+00	 9.8798974295e-01	-1.2008072702e+00
 1.1922660317e+00	 9.9963325791e-01	-1.2703951176e+00
 1.1824828477e+00	 1.0111870793e+00	-1.3412022070e+00
 1.1725839715e+00	 1.0226494478e+00	-1.4132882153e+00
 1.1625706949e+00	 1.0340186276e+00	-1.4868624071e+00
 1.1524443443e+00	 1.0452929072e+00	-1.5622951743e+00
 1.2555474605e+00	 9.3375510526e-01	-8.9330022152e-01
 1.2464321770e+00	 9.4588836119e-01	-9.5270599352e-01
 1.2371935026e+00	 9.5794058197e-01	-1.0150848058e+00
 1.2278325190e+00	 9.6990989440e-01	-1.0798957594e+00
 1.2183503452e+00	 9.8179444428e-01	-1.1466871889e+00
 1.2087481374e+00	 9.9359239726e-01	-1.2151082608e+00
 1.1990270881e+00	 1.0053019398e+00	-1.2849207381e+00
 1.1891884261e+00	 1.0169212801e+00	-1.3560108640e+00
 1.1792334156e+00	 1.0284486490e+00	-1.4284013141e+00
 1.1691633561e+00	 1.0398823008e+00	-1.5022631609e+00
 1.1589795814e+00	 1.0512205141e+00	-1.5779277956e+00
 1.2626272232e+00	 9.3902034992e-01	-9.0699094044e-01
 1.2534605406e+00	 9.5122202268e-01	-9.6601763167e-01
 1.2441697713e+00	 9.6334220334e-01	-1.0283150107e+00
 1.2347560031e+00	 9.7537900816e-01	-1.0932733738e+00
 1.2252203614e+00	 9.8733057246e-01	-1.1603694886e+00
 1.2155640087e+00	 9.9919505157e-01	-1.2291785485e+00
 1.2057881445e+00	 1.0109706217e+00	-1.2993863172e+00
 1.1958940044e+00	 1.0226554810e+00	-1.3708014103e+00
 1.1858828598e+00	 1.0342478502e+00	-1.4433676645e+00
 1.1757560174e+00	 1.0457459739e+00	-1.5171765361e+00
 1.1655148185e+00	 1.0571481210e+00	-1.5924794725e+00
 1.2697069859e+00	 9.4428559458e-01	-9.1928287317e-01
 1.2604889041e+00	 9.5655568416e-01	-9.7808139201e-01
 1.2511460399e+00	 9.6874382471e-01	-1.0405365035e+00
 1.2416794872e+00	 9.8084812191e-01	-1.1059274316e+00
 1.2320903775e+00	 9.9286670064e-01	-1.1736171872e+00
 1.2223798801e+00	 1.0047977059e+00	-1.2430649454e+00
 1.2125492010e+00	 1.0166393036e+00	-1.3138386320e+00
 1.2025995827e+00	 1.0283896819e+00	-1.3856276704e+00
 1.1925323040e+00	 1.0400470515e+00	-1.4582558323e+00
 1.1823486786e+00	 1.0516096471e+00	-1.5316941373e+00
 1.1720500557e+00	 1.0630757279e+00	-1.6060737406e+00
 1.2767867486e+00	 9.4955083923e-01	-9.3031019982e-01
 1.2675172677e+00	 9.6188934565e-01	-9.8900635875e-01
 1.2581223086e+00	 9.7414544608e-01	-1.0518371319e+00
 1.2486029713e+00	 9.8631723567e-01	-1.1179290360e+00
 1.2389603937e+00	 9.9840282883e-01	-1.1864897638e+00
 1.2291957514e+00	 1.0104003602e+00	-1.2568210458e+00
 1.2193102574e+00	 1.0223079855e+00	-1.3283317453e+00
 1.2093051611e+00	 1.0341238827e+00	-1.4005511333e+00
 1.1991817481e+00	 1.0458462527e+00	-1.4731422877e+00
 1.1889413399e+00	 1.0574733202e+00	-1.5459155596e+00
 1.1785852928e+00	 1.0690033348e+00	-1.6188420424e+00
 1.2838665113e+00	 9.5481608389e-01	-9.4020936262e-01
 1.2745456313e+00	 9.6722300713e-01	-9.9890475190e-01
 1.2650985773e+00	 9.7954706745e-01	-1.0623087048e+00
 1.2555264553e+00	 9.9178634942e-01	-1.1293540156e+00
 1.2458304098e+00	 1.0039389570e+00	-1.1990521096e+00
 1.2360116228e+00	 1.0160030145e+00	-1.2705064531e+00
 1.2260713138e+00	 1.0279766674e+00	-1.3429262202e+00
 1.2160107394e+00	 1.0398580836e+00	-1.4156401603e+00
 1.2058311923e+00	 1.0516454539e+00	-1.4881106116e+00
 1.1955340012e+00	 1.0633369933e+00	-1.5599475980e+00
 1.1851205300e+00	 1.0749309417e+00	-1.6309229475e+00
 1.2909462740e+00	 9.6008132855e-01	-9.4911840866e-01
 1.2815739948e+00	 9.7255666862e-01	-1.0078912409e+00
 1.2720748459e+00	 9.8494868882e-01	-1.0720462800e+00
 1.2624499394e+00	 9.9725546318e-01	-1.1402821880e+00
 1.2527004259e+00	 1.0094750852e+00	-1.2113737724e+00
 1.2428274941e+00	 1.0216056688e+00	-1.2841860079e+00
 1.2328323703e+00	 1.0336453493e+00	-1.3576883369e+00
 1.2227163177e+00	 1.0455922845e+00	-1.4309691952e+00
 1.2124806365e+00	 1.0574446552e+00	-1.5032507032e+00
 1.2021266624e+00	 1.0692006665e+00	-1.5739034599e+00
 1.1916557671e+00	 1.0808585486e+00	-1.6424613743e+00
 1.2980260367e+00	 9.6534657321e-01	-9.5717633122e-01
 1.2886023584e+00	 9.7789033010e-01	-1.0160822574e+00
 1.2790511146e+00	 9.9035031019e-01	-1.0811474511e+00
 1.2693734235e+00	 1.0027245769e+00	-1.1507966241e+00
 1.2595704421e+00	 1.0150112134e+00	-1.2235282017e+00
 1.2496433655e+00	 1.0272083231e+00	-1.2979290174e+00
 1.2395934267e+00	 1.0393140312e+00	-1.3726893110e+00
 1.2294218961e+00	 1.0513264853e+00	-1.4466179756e+00
 1.2191300806e+00	 1.0632438564e+00	-1.5186579908e+00
 1.2087193237e+00	 1.0750643396e+00	-1.5879019785e+00
 1.1981910043e+00	 1.0867861555e+00	-1.6536078133e+00
 1.1328386328e+00	 1.0275100866e+00	-1.5078113143e+00
 1.1227764581e+00	 1.0384957648e+00	-1.5733697334e+00
 1.1126058582e+00	 1.0493849180e+00	-1.6265046764e+00
 1.1023282158e+00	 1.0601759590e+00	-1.6703462185e+00
 1.0919449451e+00	 1.0708673273e+00	-1.7117709091e+00
 1.0814574907e+00	 1.0814574907e+00	-1.7497630045e+00
 1.0708673273e+00	 1.0919449451e+00	-1.7831924778e+00
 1.0601759590e+00	 1.1023282158e+00	-1.8109640213e+00
 1.0493849180e+00	 1.1126058582e+00	-1.8322373522e+00
 1.0384957648e+00	 1.1227764581e+00	-1.8581945631e+00
 1.0275100866e+00	 1.1328386328e+00	-1.8945129131e+00
 1.1393738700e+00	 1.0334376935e+00	-1.5273371812e+00
 1.1292536475e+00	 1.0444867470e+00	-1.5957825050e+00
 1.1190243744e+00	 1.0554387187e+00	-1.6521895682e+00
 1.1086874413e+00	 1.0662920121e+00	-1.6950310514e+00
 1.0982442704e+00	 1.0770450580e+00	-1.7317596127e+00
 1.0876963150e+00	 1.0876963150e+00	-1.7649307194e+00
 1.0770450580e+00	 1.0982442704e+00	-1.7932142176e+00
 1.0662920121e+00	 1.1086874413e+00	-1.8153162506e+00
 1.0554387187e+00	 1.1190243744e+00	-1.8358802587e+00
 1.0444867470e+00	 1.1292536475e+00	-1.8670658806e+00
 1.0334376935e+00	 1.1393738700e+00	-1.9076788936e+00
 1.1459091071e+00	 1.0393653004e+00	-1.5454667614e+00
 1.1357308370e+00	 1.0504777292e+00	-1.6158336058e+00
 1.1254428906e+00	 1.0614925194e+00	-1.6743360854e+00
 1.1150466667e+00	 1.0724080653e+00	-1.7188864456e+00
 1.1045435958e+00	 1.0832227886e+00	-1.7502738388e+00
 1.0939351392e+00	 1.0939351392e+00	-1.7769521412e+00
 1.0832227886e+00	 1.1045435958e+00	-1.7984083671e+00
 1.0724080653e+00	 1.1150466667e+00	-1.8146490493e+00
 1.0614925194e+00	 1.1254428906e+00	-1.8392306805e+00
 1.0504777292e+00	 1.1357308370e+00	-1.8744191430e+00
 1.0393653004e+00	 1.1459091071e+00	-1.9183154379e+00
 1.1524443443e+00	 1.0452929072e+00	-1.5622951743e+00
 1.1422080264e+00	 1.0564687114e+00	-1.6336572924e+00
 1.1318614068e+00	 1.0675463201e+00	-1.6931209767e+00
 1.1214058922e+00	 1.0785241184e+00	-1.7384473211e+00
 1.1108429212e+00	 1.0894005193e+00	-1.7676137822e+00
 1.1001739635e+00	 1.1001739635e+00	-1.7861633106e+00
 1.0894005193e+00	 1.1108429212e+00	-1.7991465203e+00
 1.0785241184e+00	 1.1214058922e+00	-1.8149013530e+00
 1.0675463201e+00	 1.1318614068e+00	-1.8426893321e+00
 1.0564687114e+00	 1.1422080264e+00	-1.8806873559e+00
 1.0452929072e+00	 1.1524443443e+00	-1.9268857799e+00
 1.1589795814e+00	 1.0512205141e+00	-1.5779277956e+00
 1.1486852158e+00	 1.0624596936e+00	-1.6493978292e+00
 1.1382799230e+00	 1.0736001208e+00	-1.7087306949e+00
 1.1277651177e+00	 1.0846401716e+00	-1.7535810988e+00
 1.1171422466e+00	 1.0955782499e+00	-1.7818202865e+00
 1.1064127878e+00	 1.1064127878e+00	-1.7929093846e+00
 1.0955782499e+00	 1.1171422466e+00	-1.7991600827e+00
 1.0846401716e+00	 1.1277651177e+00	-1.8169646824e+00
 1.0736001208e+00	 1.1382799230e+00	-1.8466338289e+00
 1.0624596936e+00	 1.1486852158e+00	-1.8862799722e+00
 1.0512205141e+00	 1.1589795814e+00	-1.9338292361e+00
 1.1655148185e+00	 1.0571481210e+00	-1.5924794725e+00
 1.1551624052e+00	 1.0684506758e+00	-1.6632087199e+00
 1.1446984392e+00	 1.0796539214e+00	-1.7213606477e+00
 1.1341243432e+00	 1.0907562248e+00	-1.7645274942e+00
 1.1234415720e+00	 1.1017559805e+00	-1.7905227348e+00
 1.1126516121e+00	 1.1126516121e+00	-1.7976130770e+00
 1.1017559805e+00	 1.1234415720e+00	-1.8027097253e+00
 1.0907562248e+00	 1.1341243432e+00	-1.8211610262e+00
 1.0796539214e+00	 1.1446984392e+00	-1.8514186297e+00
 1.0684506758e+00	 1.1551624052e+00	-1.8915828588e+00
 1.0571481210e+00	 1.1655148185e+00	-1.9395611935e+00
 1.1720500557e+00	 1.0630757279e+00	-1.6060737406e+00
 1.1616395947e+00	 1.0744416580e+00	-1.6752519400e+00
 1.1511169554e+00	 1.0857077221e+00	-1.7312144493e+00
 1.1404835687e+00	 1.0968722779e+00	-1.7715341304e+00
 1.1297408974e+00	 1.1079337112e+00	-1.7940100124e+00
 1.1188904363e+00	 1.1188904363e+00	-1.8021188365e+00
 1.1079337112e+00	 1.1297408974e+00	-1.8100688819e+00
 1.0968722779e+00	 1.1404835687e+00	-1.8277896296e+00
 1.0857077221e+00	 1.1511169554e+00	-1.8573749747e+00
 1.0744416580e+00	 1.1616395947e+00	-1.8969582577e+00
 1.0630757279e+00	 1.1720500557e+00	-1.9444730923e+00
 1.1785852928e+00	 1.0690033348e+00	-1.6188420424e+00
 1.1681167841e+00	 1.0804326402e+00	-1.6856971709e+00
 1.1575354716e+00	 1.0917615228e+00	-1.7385031717e+00
 1.1468427941e+00	 1.1029883311e+00	-1.7748558104e+00
 1.1360402228e+00	 1.1141114418e+00	-1.7933719595e+00
 1.1251292606e+00	 1.1251292606e+00	-1.8072570614e+00
 1.1141114418e+00	 1.1360402228e+00	-1.8209300553e+00
 1.1029883311e+00	 1.1468427941e+00	-1.8371269055e+00
 1.0917615228e+00	 1.1575354716e+00	-1.8648108211e+00
 1.0804326402e+00	 1.1681167841e+00	-1.9027447434e+00
 1.0690033348e+00	 1.1785852928e+00	-1.9489324045e+00
 1.1851205300e+00	 1.0749309417e+00	-1.6309229475e+00
 1.1745939735e+00	 1.0864236224e+00	-1.6947210345e+00
 1.1639539878e+00	 1.0978153235e+00	-1.7434445971e+00
 1.1532020196e+00	 1.1091043843e+00	-1.7747537888e+00
 1.1423395482e+00	 1.1202891725e+00	-1.7938443957e+00
 1.1313680849e+00	 1.1313680849e+00	-1.8131908011e+00
 1.1202891725e+00	 1.1423395482e+00	-1.8320107464e+00
 1.1091043843e+00	 1.1532020196e+00	-1.8494263433e+00
 1.0978153235e+00	 1.1639539878e+00	-1.8740107745e+00
 1.0864236224e+00	 1.1745939735e+00	-1.9092571771e+00
 1.0749309417e+00	 1.1851205300e+00	-1.9532826078e+00
 1.1916557671e+00	 1.0808585486e+00	-1.6424613743e+00
 1.1810711629e+00	 1.0924146047e+00	-1.7025063294e+00
 1.1703725041e+00	 1.1038691242e+00	-1.7462624709e+00
 1.1595612451e+00	 1.1152204374e+00	-1.7729125172e+00
 1.1486388736e+00	 1.1264669031e+00	-1.7964145891e+00
 1.1376069092e+00	 1.1376069092e+00	-1.8200600910e+00
 1.1264669031e+00	 1.1486388736e+00	-1.8428776949e+00
 1.1152204374e+00	 1.1595612451e+00	-1.8638989416e+00
 1.1038691242e+00	 1.1703725041e+00	-1.8852360174e+00
 1.0924146047e+00	 1.1810711629e+00	-1.9167866562e+00
 1.0808585486e+00	 1.1916557671e+00	-1.9578431552e+00
 1.1981910043e+00	 1.0867861555e+00	-1.6536078133e+00
 1.1875483523e+00	 1.0984055869e+00	-1.7092412677e+00
 1.1767910203e+00	 1.1099229249e+00	-1.7471857551e+00
 1.1659204706e+00	 1.1213364906e+00	-1.7740010882e+00
 1.1549381990e+00	 1.1326446337e+00	-1.8011608080e+00
 1.1438457334e+00	 1.1438457334e+00	-1.8279826695e+00
 1.1326446337e+00	 1.1549381990e+00	-1.8536886276e+00
 1.1213364906e+00	 1.1659204706e+00	-1.8775036421e+00
 1.1099229249e+00	 1.1767910203e+00	-1.8987242349e+00
 1.0984055869e+00	 1.1875483523e+00	-1.9256004606e+00
 1.0867861555e+00	 1.1981910043e+00	-1.9629094405e+00
 1.0275100866e+00	 1.1328386328e+00	-1.8945129131e+00
 1.0164276082e+00	 1.1427927111e+00	-1.9344422163e+00
 1.0052518441e+00	 1.1526356390e+00	-1.9722226105e+00
 9.9398447665e-01	 1.1623661127e+00	-2.0075841254e+00
 9.8262721220e-01	 1.1719828623e+00	-2.0400989589e+00
 9.7118178004e-01	 1.1814846520e+00	-2.0691910798e+00
 9.5964993156e-01	 1.1908702807e+00	-2.0941463299e+00
 9.4803343938e-01	 1.2001385827e+00	-2.1141229658e+00
 9.3633409648e-01	 1.2092884280e+00	-2.1281625788e+00
 9.2455371526e-01	 1.2183187227e+00	-2.1352013291e+00
 9.1269412663e-01	 1.2272284097e+00	-2.1340814314e+00
 1.0334376935e+00	 1.1393738700e+00	-1.9076788936e+00
 1.0222912814e+00	 1.1493853723e+00	-1.9505995839e+00
 1.0110510453e+00	 1.1592850831e+00	-1.9899688155e+00
 9.9971867752e-01	 1.1690716911e+00	-2.0257155058e+00
 9.8829589410e-01	 1.1787439188e+00	-2.0576121779e+00
 9.7678443434e-01	 1.1883005233e+00	-2.0852846005e+00
 9.6518605974e-01	 1.1977402968e+00	-2.1082219348e+00
 9.5350255314e-01	 1.2070620668e+00	-2.1257873268e+00
 9.4173571785e-01	 1.2162646966e+00	-2.1372288807e+00
 9.2988737674e-01	 1.2253470863e+00	-2.1416909494e+00
 9.1795937128e-01	 1.2343081724e+00	-2.1382256784e+00
 1.0393653004e+00	 1.1459091071e+00	-1.9183154379e+00
 1.0281549545e+00	 1.1559780336e+00	-1.9635039445e+00
 1.0168502466e+00	 1.1659345273e+00	-2.0040424735e+00
 1.0054528784e+00	 1.1757772694e+00	-2.0400193768e+00
 9.9396457601e-01	 1.1855049752e+00	-2.0713671514e+00
 9.8238708865e-01	 1.1951163947e+00	-2.0978721831e+00
 9.7072218792e-01	 1.2046103130e+00	-2.1191850063e+00
 9.5897166689e-01	 1.2139855508e+00	-2.1348310153e+00
 9.4713733922e-01	 1.2232409653e+00	-2.1442215615e+00
 9.3522103822e-01	 1.2323754499e+00	-2.1466653709e+00
 9.2322461594e-01	 1.2413879351e+00	-2.1413802156e+00
 1.0452929072e+00	 1.1524443443e+00	-1.9268857799e+00
 1.0340186276e+00	 1.1625706949e+00	-1.9736410886e+00
 1.0226494478e+00	 1.1725839715e+00	-2.0149396140e+00
 1.0111870793e+00	 1.1824828477e+00	-2.0509902932e+00
 9.9963325791e-01	 1.1922660317e+00	-2.0818458550e+00
 9.8798974295e-01	 1.2019322660e+00	-2.1074127347e+00
 9.7625831610e-01	 1.2114803291e+00	-2.1274615142e+00
 9.6444078065e-01	 1.2209090349e+00	-2.1416378206e+00
 9.5253896060e-01	 1.2302172340e+00	-2.1494736171e+00
 9.4055469971e-01	 1.2394038134e+00	-2.1503988171e+00
 9.2848986060e-01	 1.2484676978e+00	-2.1437531549e+00
 1.0512205141e+00	 1.1589795814e+00	-1.9338292361e+00
 1.0398823008e+00	 1.1691633561e+00	-1.9814727370e+00
 1.0284486490e+00	 1.1792334156e+00	-2.0231323593e+00
 1.0169212801e+00	 1.1891884261e+00	-2.0590993643e+00
 1.0053019398e+00	 1.1990270881e+00	-2.0895075642e+00
 9.9359239726e-01	 1.2087481374e+00	-2.1143434749e+00
 9.8179444428e-01	 1.2183503452e+00	-2.1334570036e+00
 9.6990989440e-01	 1.2278325190e+00	-2.1465726038e+00
 9.5794058197e-01	 1.2371935026e+00	-2.1533008284e+00
 9.4588836119e-01	 1.2464321770e+00	-2.1531502106e+00
 9.3375510526e-01	 1.2555474605e+00	-2.1455394040e+00
 1.0571481210e+00	 1.1655148185e+00	-1.9395611935e+00
 1.0457459739e+00	 1.1757560174e+00	-1.9874365446e+00
 1.0342478502e+00	 1.1858828598e+00	-2.0290689375e+00
 1.0226554810e+00	 1.1958940044e+00	-2.0647942681e+00
 1.0109706217e+00	 1.2057881445e+00	-2.0947888615e+00
 9.9919505157e-01	 1.2155640087e+00	-2.1190799282e+00
 9.8733057246e-01	 1.2252203614e+00	-2.1375565669e+00
 9.7537900816e-01	 1.2347560031e+00	-2.1499812431e+00
 9.6334220334e-01	 1.2441697713e+00	-2.1560016744e+00
 9.5122202268e-01	 1.2534605406e+00	-2.1551630479e+00
 9.3902034992e-01	 1.2626272232e+00	-2.1469204984e+00
 1.0630757279e+00	 1.1720500557e+00	-1.9444730923e+00
 1.0516096471e+00	 1.1823486786e+00	-1.9919461003e+00
 1.0400470515e+00	 1.1925323040e+00	-2.0331736894e+00
 1.0283896819e+00	 1.2025995827e+00	-2.0684992585e+00
 1.0166393036e+00	 1.2125492010e+00	-2.0981036375e+00
 1.0047977059e+00	 1.2223798801e+00	-2.1220159129e+00
 9.9286670064e-01	 1.2320903775e+00	-2.1401248125e+00
 9.8084812191e-01	 1.2416794872e+00	-2.1521905769e+00
 9.6874382471e-01	 1.2511460399e+00	-2.1578572445e+00
 9.5655568416e-01	 1.2604889041e+00	-2.1566652748e+00
 9.4428559458e-01	 1.2697069859e+00	-2.1480644360e+00
 1.0690033348e+00	 1.1785852928e+00	-1.9489324045e+00
 1.0574733202e+00	 1.1889413399e+00	-1.9953909210e+00
 1.0458462527e+00	 1.1991817481e+00	-2.0358470718e+00
 1.0341238827e+00	 1.2093051611e+00	-2.0706151697e+00
 1.0223079855e+00	 1.2193102574e+00	-2.0998430885e+00
 1.0104003602e+00	 1.2291957514e+00	-2.1235235247e+00
 9.9840282883e-01	 1.2389603937e+00	-2.1415058302e+00
 9.8631723567e-01	 1.2486029713e+00	-2.1535083446e+00
 9.7414544608e-01	 1.2581223086e+00	-2.1591311486e+00
 9.6188934565e-01	 1.2675172677e+00	-2.1578691627e+00
 9.4955083923e-01	 1.2767867486e+00	-2.1491255132e+00
 1.0749309417e+00	 1.1851205300e+00	-1.9532826078e+00
 1.0633369933e+00	 1.1955340012e+00	-1.9981364408e+00
 1.0516454539e+00	 1.2058311923e+00	-2.0374656542e+00
 1.0398580836e+00	 1.2160107394e+00	-2.0715194133e+00
 1.0279766674e+00	 1.2260713138e+00	-2.1003757088e+00
 1.0160030145e+00	 1.2360116228e+00	-2.1239531180e+00
 1.0039389570e+00	 1.2458304098e+00	-2.1420231540e+00
 9.9178634942e-01	 1.2555264553e+00	-2.1542231256e+00
 9.7954706745e-01	 1.2650985773e+00	-2.1600694277e+00
 9.6722300713e-01	 1.2745456313e+00	-2.1589711844e+00
 9.5481608389e-01	 1.2838665113e+00	-2.1502441631e+00
 1.0808585486e+00	 1.1916557671e+00	-1.9578431552e+00
 1.0692006665e+00	 1.2021266624e+00	-2.0005239960e+00
 1.0574446552e+00	 1.2124806365e+00	-2.0383821116e+00
 1.0455922845e+00	 1.2227163177e+00	-2.0715659732e+00
 1.0336453493e+00	 1.2328323703e+00	-2.1000472792e+00
 1.0216056688e+00	 1.2428274941e+00	-2.1236332823e+00
 1.0094750852e+00	 1.2527004259e+00	-2.1419797213e+00
 9.9725546318e-01	 1.2624499394e+00	-2.1546042759e+00
 9.8494868882e-01	 1.2720748459e+00	-2.1609004627e+00
 9.7255666862e-01	 1.2815739948e+00	-2.1601518913e+00
 9.6008132855e-01	 1.2909462740e+00	-2.1515467959e+00
 1.0867861555e+00	 1.1981910043e+00	-1.9629094405e+00
 1.0750643396e+00	 1.2087193237e+00	-2.0028708054e+00
 1.0632438564e+00	 1.2191300806e+00	-2.0389252130e+00
 1.0513264853e+00	 1.2294218961e+00	-2.0710853943e+00
 1.0393140312e+00	 1.2395934267e+00	-2.0991808512e+00
 1.0272083231e+00	 1.2496433655e+00	-2.1228708156e+00
 1.0150112134e+00	 1.2595704421e+00	-2.1416578299e+00
 1.0027245769e+00	 1.2693734235e+00	-2.1549018633e+00
 9.9035031019e-01	 1.2790511146e+00	-2.1618348828e+00
 9.7789033010e-01	 1.2886023584e+00	-2.1615757901e+00
 9.6534657321e-01	 1.2980260367e+00	-2.1531456401e+00
 9.1269412663e-01	 1.2272284097e+00	-2.1340814314e+00
 9.0075921351e-01	 1.2360149861e+00	-2.1300070905e+00
 8.8874882534e-01	 1.2446789982e+00	-2.1285073955e+00
 8.7666483536e-01	 1.2532195063e+00	-2.1288231099e+00
 8.6450913168e-01	 1.2616356082e+00	-2.1301659380e+00
 8.5228361624e-01	 1.2699264403e+00	-2.1317290728e+00
 8.3999020390e-01	 1.2780911770e+00	-2.1326976076e+00
 8.2763082149e-01	 1.2861290314e+00	-2.1322587563e+00
 8.1520740681e-01	 1.2940392556e+00	-2.1296118289e+00
 8.0272190770e-01	 1.3018211405e+00	-2.1239779132e+00
 7.9017628106e-01	 1.3094740159e+00	-2.1146092141e+00
 9.1795937128e-01	 1.2343081724e+00	-2.1382256784e+00
 9.0595560681e-01	 1.2431454377e+00	-2.1323563938e+00
 8.9387593185e-01	 1.2518594317e+00	-2.1297104628e+00
 8.8172223050e-01	 1.2604492091e+00	-2.1294042398e+00
 8.6949640173e-01	 1.2689138627e+00	-2.1305181201e+00
 8.5720035847e-01	 1.2772525238e+00	-2.1321076576e+00
 8.4483602662e-01	 1.2854643621e+00	-2.1332145447e+00
 8.3240534412e-01	 1.2935485861e+00	-2.1328773987e+00
 8.1991025995e-01	 1.3015044437e+00	-2.1301423006e+00
 8.0735273320e-01	 1.3093312214e+00	-2.1240730328e+00
 7.9473473205e-01	 1.3170282456e+00	-2.1137609664e+00
 9.2322461594e-01	 1.2413879351e+00	-2.1413802156e+00
 9.1115200010e-01	 1.2502758893e+00	-2.1341004805e+00
 8.9900303837e-01	 1.2590398651e+00	-2.1304898511e+00
 8.8677962564e-01	 1.2676789119e+00	-2.1295656237e+00
 8.7448367179e-01	 1.2761921173e+00	-2.1303036425e+00
 8.6211710070e-01	 1.2845786073e+00	-2.1316499484e+00
 8.4968184934e-01	 1.2928375472e+00	-2.1325322900e+00
 8.3717986675e-01	 1.3009681408e+00	-2.1318714373e+00
 8.2461311310e-01	 1.3089696317e+00	-2.1285922414e+00
 8.1198355870e-01	 1.3168413024e+00	-2.1216343850e+00
 7.9929318304e-01	 1.3245824753e+00	-2.1099627739e+00
 9.2848986060e-01	 1.2484676978e+00	-2.1437531549e+00
 9.1634839339e-01	 1.2574063409e+00	-2.1353900086e+00
 9.0413014489e-01	 1.2662202986e+00	-2.1309626028e+00
 8.9183702078e-01	 1.2749086148e+00	-2.1294139699e+00
 8.7947094184e-01	 1.2834703718e+00	-2.1296415864e+00
 8.6703384293e-01	 1.2919046909e+00	-2.1305095187e+00
 8.5452767206e-01	 1.3002107323e+00	-2.1308604274e+00
 8.4195438938e-01	 1.3083876956e+00	-2.1295273693e+00
 8.2931596624e-01	 1.3164348197e+00	-2.1253453371e+00
 8.1661438420e-01	 1.3243513834e+00	-2.1171624812e+00
 8.0385163402e-01	 1.3321367050e+00	-2.1038509598e+00
 9.3375510526e-01	 1.2555474605e+00	-2.1455394040e+00
 9.2154478668e-01	 1.2645367925e+00	-2.1363643479e+00
 9.0925725141e-01	 1.2734007321e+00	-2.1312358630e+00
 8.9689441593e-01	 1.2821383176e+00	-2.1290469639e+00
 8.8445821190e-01	 1.2907486263e+00	-2.1286423803e+00
 8.7195058517e-01	 1.2992307744e+00	-2.1288311649e+00
 8.5937349478e-01	 1.3075839174e+00	-2.1283991557e+00
 8.4672891201e-01	 1.3158072503e+00	-2.1261212266e+00
 8.3401881939e-01	 1.3239000078e+00	-2.1207732681e+00
 8.2124520970e-01	 1.3318614644e+00	-2.1111438383e+00
 8.0841008501e-01	 1.3396909347e+00	-2.0960454292e+00
 9.3902034992e-01	 1.2626272232e+00	-2.1469204984e+00
 9.2674117998e-01	 1.2716672441e+00	-2.1371513746e+00
 9.1438435792e-01	 1.2805811655e+00	-2.1314066512e+00
 9.0195181107e-01	 1.2893680204e+00	-2.1285530328e+00
 8.8944548196e-01	 1.2980268808e+00	-2.1274075701e+00
 8.7686732740e-01	 1.3065568579e+00	-2.1267506968e+00
 8.6421931750e-01	 1.3149571025e+00	-2.1253391125e+00
 8.5150343464e-01	 1.3232268050e+00	-2.1219184466e+00
 8.3872167253e-01	 1.3313651958e+00	-2.1152356393e+00
 8.2587603520e-01	 1.3393715454e+00	-2.1040509817e+00
 8.1296853600e-01	 1.3472451643e+00	-2.0871497548e+00
 9.4428559458e-01	 1.2697069859e+00	-2.1480644360e+00
 9.3193757327e-01	 1.2787976957e+00	-2.1378672697e+00
 9.1951146444e-01	 1.2877615990e+00	-2.1315616381e+00
 9.0700920621e-01	 1.2965977232e+00	-2.1280111144e+00
 8.9443275201e-01	 1.3053051353e+00	-2.1260295950e+00
 8.8178406963e-01	 1.3138829414e+00	-2.1243947318e+00
 8.6906514022e-01	 1.3223302876e+00	-2.1218612014e+00
 8.5627795727e-01	 1.3306463597e+00	-2.1171737448e+00
 8.4342452568e-01	 1.3388303838e+00	-2.1090799110e+00
 8.3050686071e-01	 1.3468816263e+00	-2.0963424451e+00
 8.1752698699e-01	 1.3547993940e+00	-2.0777512593e+00
 9.4955083923e-01	 1.2767867486e+00	-2.1491255132e+00
 9.3713396656e-01	 1.2859281473e+00	-2.1386163208e+00
 9.2463857096e-01	 1.2949420324e+00	-2.1317769265e+00
 9.1206660135e-01	 1.3038274261e+00	-2.1274904309e+00
 8.9942002207e-01	 1.3125833898e+00	-2.1245915668e+00
 8.8670081187e-01	 1.3212090249e+00	-2.1218804944e+00
 8.7391096294e-01	 1.3297034727e+00	-2.1181364230e+00
 8.6105247990e-01	 1.3380659144e+00	-2.1121309899e+00
 8.4812737883e-01	 1.3462955719e+00	-2.1026413293e+00
 8.3513768621e-01	 1.3543917073e+00	-2.0884627689e+00
 8.2208543798e-01	 1.3623536237e+00	-2.0684210917e+00
 9.5481608389e-01	 1.2838665113e+00	-2.1502441631e+00
 9.4233035985e-01	 1.2930585989e+00	-2.1394907269e+00
 9.2976567748e-01	 1.3021224659e+00	-2.1321178365e+00
 9.1712399650e-01	 1.3110571289e+00	-2.1270502673e+00
 9.0440729213e-01	 1.3198616443e+00	-2.1231670544e+00
 8.9161755410e-01	 1.3285351085e+00	-2.1193156189e+00
 8.7875678566e-01	 1.3370766578e+00	-2.1143257084e+00
 8.6582700253e-01	 1.3454854691e+00	-2.1070230798e+00
 8.5283023197e-01	 1.3537607599e+00	-2.0962428569e+00
 8.3976851171e-01	 1.3619017883e+00	-2.0808424965e+00
 8.2664388897e-01	 1.3699078534e+00	-2.0597143005e+00
 9.6008132855e-01	 1.2909462740e+00	-2.1515467959e+00
 9.4752675315e-01	 1.3001890505e+00	-2.1405704065e+00
 9.3489278400e-01	 1.3093028993e+00	-2.1326386939e+00
 9.2218139164e-01	 1.3182868317e+00	-2.1267397535e+00
 9.0939456218e-01	 1.3271398988e+00	-2.1218198722e+00
 8.9653429633e-01	 1.3358611920e+00	-2.1167979561e+00
 8.8360260837e-01	 1.3444498429e+00	-2.1105797557e+00
 8.7060152516e-01	 1.3529050238e+00	-2.1020718197e+00
 8.5753308512e-01	 1.3612259479e+00	-2.0901951037e+00
 8.4439933721e-01	 1.3694118693e+00	-2.0738981680e+00
 8.3120233995e-01	 1.3774620831e+00	-2.0521699010e+00
 9.6534657321e-01	 1.2980260367e+00	-2.1531456401e+00
 9.5272314644e-01	 1.3073195021e+00	-2.1419228080e+00
 9.4001989051e-01	 1.3164833328e+00	-2.1333826233e+00
 9.2723878678e-01	 1.3255165345e+00	-2.1265976511e+00
 9.1438183224e-01	 1.3344181533e+00	-2.1206038729e+00
 9.0145103856e-01	 1.3431872755e+00	-2.1144153833e+00
 8.8844843109e-01	 1.3518230280e+00	-2.1070388698e+00
 8.7537604779e-01	 1.3603245785e+00	-2.0974878023e+00
 8.6223593826e-01	 1.3686911360e+00	-2.0847962577e+00
 8.4903016271e-01	 1.3769219503e+00	-2.0680323131e+00
 8.3576079094e-01	 1.3850163128e+00	-2.0463109401e+00
 7.9017628106e-01	 1.3094740159e+00	-2.1146092141e+00
 7.7757249215e-01	 1.3169972515e+00	-2.1023148536e+00
 7.6491251433e-01	 1.3243902571e+00	-2.0879132870e+00
 7.5219832734e-01	 1.3316524825e+00	-2.0707579727e+00
 7.3943191608e-01	 1.3387834164e+00	-2.0503047151e+00
 7.2661526967e-01	 1.3457825872e+00	-2.0282953287e+00
 7.1375038049e-01	 1.3526495623e+00	-2.0058888907e+00
 7.0083924323e-01	 1.3593839483e+00	-1.9828352941e+00
 6.8788385397e-01	 1.3659853912e+00	-1.9590062552e+00
 6.7488620921e-01	 1.3724535755e+00	-1.9344089175e+00
 6.6184830499e-01	 1.3787882249e+00	-1.9091978283e+00
 7.9473473205e-01	 1.3170282456e+00	-2.1137609664e+00
 7.8205823309e-01	 1.3245948820e+00	-2.1001092144e+00
 7.6932522108e-01	 1.3320305372e+00	-2.0841977768e+00
 7.5653768716e-01	 1.3393346576e+00	-2.0654748796e+00
 7.4369762770e-01	 1.3465067292e+00	-2.0434812684e+00
 7.3080704329e-01	 1.3535462775e+00	-2.0190279201e+00
 7.1786793780e-01	 1.3604528675e+00	-1.9945644556e+00
 7.0488231744e-01	 1.3672261036e+00	-1.9700775863e+00
 6.9185218978e-01	 1.3738656295e+00	-1.9455809890e+00
 6.7877956286e-01	 1.3803711282e+00	-1.9212362887e+00
 6.6566644422e-01	 1.3867423216e+00	-1.8973652324e+00
 7.9929318304e-01	 1.3245824753e+00	-2.1099627739e+00
 7.8654397404e-01	 1.3321925125e+00	-2.0946819047e+00
 7.7373792783e-01	 1.3396708172e+00	-2.0771945987e+00
 7.6087704699e-01	 1.3470168327e+00	-2.0570085761e+00
 7.4796333933e-01	 1.3542300420e+00	-2.0337311993e+00
 7.3499881692e-01	 1.3613099679e+00	-2.0074815305e+00
 7.2198549512e-01	 1.3682561728e+00	-1.9812181338e+00
 7.0892539164e-01	 1.3750682589e+00	-1.9555643554e+00
 6.9582052559e-01	 1.3817458679e+00	-1.9306318805e+00
 6.8267291651e-01	 1.3882886809e+00	-1.9066917824e+00
 6.6948458346e-01	 1.3946964183e+00	-1.8841869824e+00
 8.0385163402e-01	 1.3321367050e+00	-2.1038509598e+00
 7.9102971498e-01	 1.3397901430e+00	-2.0867983760e+00
 7.7815063457e-01	 1.3473110973e+00	-2.0677668007e+00
 7.6521640681e-01	 1.3546990078e+00	-2.0462887675e+00
 7.5222905095e-01	 1.3619533548e+00	-2.0220019077e+00
 7.3919059054e-01	 1.3690736582e+00	-1.9946855307e+00
 7.2610305243e-01	 1.3760594780e+00	-1.9668623254e+00
 7.1296846585e-01	 1.3829104142e+00	-1.9402618984e+00
 6.9978886140e-01	 1.3896261063e+00	-1.9150506053e+00
 6.8656627016e-01	 1.3962062336e+00	-1.8915645739e+00
 6.7330272269e-01	 1.4026505149e+00	-1.8703225418e+00
 8.0841008501e-01	 1.3396909347e+00	-2.0960454292e+00
 7.9551545592e-01	 1.3473877735e+00	-2.0772053786e+00
 7.8256334132e-01	 1.3549513773e+00	-2.0567571456e+00
 7.6955576664e-01	 1.3623811830e+00	-2.0342239742e+00
 7.5649476258e-01	 1.3696766676e+00	-2.0092380170e+00
 7.4338236417e-01	 1.3768373485e+00	-1.9815474608e+00
 7.3022060975e-01	 1.3838627833e+00	-1.9524850567e+00
 7.1701154006e-01	 1.3907525695e+00	-1.9251147852e+00
 7.0375719722e-01	 1.3975063447e+00	-1.8997103358e+00
 6.9045962381e-01	 1.4041237863e+00	-1.8766291177e+00
 6.7712086192e-01	 1.4106046116e+00	-1.8564209731e+00
 8.1296853600e-01	 1.3472451643e+00	-2.0871497548e+00
 8.0000119686e-01	 1.3549854040e+00	-2.0666311272e+00
 7.8697604807e-01	 1.3625916574e+00	-2.0449883371e+00
 7.7389512646e-01	 1.3700633581e+00	-2.0217017990e+00
 7.6076047421e-01	 1.3773999804e+00	-1.9963630228e+00
 7.4757413779e-01	 1.3846010389e+00	-1.9686820377e+00
 7.3433816707e-01	 1.3916660885e+00	-1.9390496682e+00
 7.2105461427e-01	 1.3985947248e+00	-1.9110455357e+00
 7.0772553303e-01	 1.4053865830e+00	-1.8854653912e+00
 6.9435297746e-01	 1.4120413390e+00	-1.8626447529e+00
 6.8093900116e-01	 1.4185587083e+00	-1.8431204828e+00
 8.1752698699e-01	 1.3547993940e+00	-2.0777512593e+00
 8.0448693781e-01	 1.3625830345e+00	-2.0557854603e+00
 7.9138875482e-01	 1.3702319374e+00	-2.0332632372e+00
 7.7823448629e-01	 1.3777455332e+00	-2.0095891831e+00
 7.6502618583e-01	 1.3851232932e+00	-1.9842795706e+00
 7.5176591142e-01	 1.3923647292e+00	-1.9569701467e+00
 7.3845572439e-01	 1.3994693938e+00	-1.9274944916e+00
 7.2509768847e-01	 1.4064368800e+00	-1.8989542884e+00
 7.1169386884e-01	 1.4132668214e+00	-1.8731508809e+00
 6.9824633111e-01	 1.4199588917e+00	-1.8503553041e+00
 6.8475714039e-01	 1.4265128050e+00	-1.8310479634e+00
 8.2208543798e-01	 1.3623536237e+00	-2.0684210917e+00
 8.0897267875e-01	 1.3701806650e+00	-2.0453599919e+00
 7.9580146157e-01	 1.3778722174e+00	-2.0223650740e+00
 7.8257384612e-01	 1.3854277083e+00	-1.9987326522e+00
 7.6929189746e-01	 1.3928466060e+00	-1.9738697226e+00
 7.5595768504e-01	 1.4001284195e+00	-1.9473021996e+00
 7.4257328170e-01	 1.4072726991e+00	-1.9186823985e+00
 7.2914076268e-01	 1.4142790353e+00	-1.8897184607e+00
 7.1566220466e-01	 1.4211470598e+00	-1.8635823397e+00
 7.0213968476e-01	 1.4278764444e+00	-1.8404886773e+00
 6.8857527963e-01	 1.4344669017e+00	-1.8208185339e+00
 8.2664388897e-01	 1.3699078534e+00	-2.0597143005e+00
 8.1345841969e-01	 1.3777782955e+00	-2.0360282565e+00
 8.0021416831e-01	 1.3855124975e+00	-2.0130576418e+00
 7.8691320594e-01	 1.3931098834e+00	-1.9899585539e+00
 7.7355760909e-01	 1.4005699188e+00	-1.9659952135e+00
 7.6014945867e-01	 1.4078921099e+00	-1.9405487139e+00
 7.4669083902e-01	 1.4150760043e+00	-1.9131249952e+00
 7.3318383689e-01	 1.4221211906e+00	-1.8841923996e+00
 7.1963054047e-01	 1.4290272981e+00	-1.8575553572e+00
 7.0603303841e-01	 1.4357939971e+00	-1.8337564508e+00
 6.9239341886e-01	 1.4424209984e+00	-1.8130350782e+00
 8.3120233995e-01	 1.3774620831e+00	-2.0521699010e+00
 8.1794416063e-01	 1.3853759260e+00	-2.0284458479e+00
 8.0462687506e-01	 1.3931527775e+00	-2.0060854922e+00
 7.9125256577e-01	 1.4007920586e+00	-1.9840732843e+00
 7.7782332071e-01	 1.4082932316e+00	-1.9614976980e+00
 7.6434123229e-01	 1.4156558002e+00	-1.9375605627e+00
 7.5080839633e-01	 1.4228793096e+00	-1.9115856021e+00
 7.3722691109e-01	 1.4299633459e+00	-1.8832070258e+00
 7.2359887628e-01	 1.4369075365e+00	-1.8558452001e+00
 7.0992639206e-01	 1.4437115498e+00	-1.8308534627e+00
 6.9621155809e-01	 1.4503750951e+00	-1.8082877817e+00
 8.3576079094e-01	 1.3850163128e+00	-2.0463109401e+00
 8.2242990157e-01	 1.3929735565e+00	-2.0232505508e+00
 8.0903958181e-01	 1.4007930576e+00	-2.0021741179e+00
 7.9559192559e-01	 1.4084742337e+00	-1.9818635073e+00
 7.8208903234e-01	 1.4160165444e+00	-1.9611989875e+00
 7.6853300592e-01	 1.4234194906e+00	-1.9391692148e+00
 7.5492595365e-01	 1.4306826148e+00	-1.9148804071e+00
 7.4126998530e-01	 1.4378055012e+00	-1.8875646724e+00
 7.2756721209e-01	 1.4447877749e+00	-1.8592064289e+00
 7.1381974571e-01	 1.4516291026e+00	-1.8324573927e+00
 7.0002969732e-01	 1.4583291918e+00	-1.8071536664e+00
 6.6184830499e-01	 1.3787882249e+00	-1.9091978283e+00
 6.4876990960e-01	 1.3849901442e+00	-1.8844878795e+00
 6.3565522902e-01	 1.3910580450e+00	-1.8607984616e+00
 6.2250625276e-01	 1.3969917650e+00	-1.8375995056e+00
 6.0932496624e-01	 1.4027911802e+00	-1.8145059455e+00
 5.9611334994e-01	 1.4084562042e+00	-1.7912830467e+00
 5.8287337855e-01	 1.4139867881e+00	-1.7678500313e+00
 5.6960702012e-01	 1.4193829200e+00	-1.7442820204e+00
 5.5631623520e-01	 1.4246446250e+00	-1.7208103214e+00
 5.4300297606e-01	 1.4297719645e+00	-1.6978211019e+00
 5.2966918584e-01	 1.4347650360e+00	-1.6758524965e+00
 6.6566644422e-01	 1.3867423216e+00	-1.8973652324e+00
 6.5251260082e-01	 1.3929800192e+00	-1.8748137881e+00
 6.3932226292e-01	 1.3990829251e+00	-1.8536133283e+00
 6.2609743148e-01	 1.4050508762e+00	-1.8330871114e+00
 6.1284010338e-01	 1.4108837477e+00	-1.8127093236e+00
 5.9955227053e-01	 1.4165814526e+00	-1.7921108231e+00
 5.8623591903e-01	 1.4221439419e+00	-1.7710831089e+00
 5.7289302825e-01	 1.4275712036e+00	-1.7495805344e+00
 5.5952557007e-01	 1.4328632628e+00	-1.7277207962e+00
 5.4613550802e-01	 1.4380201815e+00	-1.7057837385e+00
 5.3272479644e-01	 1.4430420576e+00	-1.6842085234e+00
 6.6948458346e-01	 1.3946964183e+00	-1.8841869824e+00
 6.5625529205e-01	 1.4009698942e+00	-1.8635821321e+00
 6.4298929682e-01	 1.4071078052e+00	-1.8443409510e+00
 6.2968861020e-01	 1.4131099874e+00	-1.8256431254e+00
 6.1635524052e-01	 1.4189763151e+00	-1.8068261327e+00
 6.0299119113e-01	 1.4247067010e+00	-1.7873913946e+00
 5.8959845950e-01	 1.4303010957e+00	-1.7670085802e+00
 5.7617903638e-01	 1.4357594872e+00	-1.7455180786e+00
 5.6273490494e-01	 1.4410819007e+00	-1.7229316744e+00
 5.4926803997e-01	 1.4462683985e+00	-1.6994314648e+00
 5.3578040705e-01	 1.4513190791e+00	-1.6753670730e+00
 6.7330272269e-01	 1.4026505149e+00	-1.8703225418e+00
 6.5999798328e-01	 1.4089597691e+00	-1.8513127401e+00
 6.4665633071e-01	 1.4151326853e+00	-1.8333683653e+00
 6.3327978891e-01	 1.4211690985e+00	-1.8155284651e+00
 6.1987037766e-01	 1.4270688825e+00	-1.7969976877e+00
 6.0643011173e-01	 1.4328319495e+00	-1.7771528375e+00
 5.9296099998e-01	 1.4384582495e+00	-1.7555475037e+00
 5.7946504451e-01	 1.4439477707e+00	-1.7319147803e+00
 5.6594423981e-01	 1.4493005385e+00	-1.7061681120e+00
 5.5240057193e-01	 1.4545166154e+00	-1.6784003081e+00
 5.3883601765e-01	 1.4595961006e+00	-1.6488807773e+00
 6.7712086192e-01	 1.4106046116e+00	-1.8564209731e+00
 6.6374067451e-01	 1.4169496441e+00	-1.8385195034e+00
 6.5032336461e-01	 1.4231575654e+00	-1.8210808936e+00
 6.3687096763e-01	 1.4292282097e+00	-1.8030063195e+00
 6.2338551481e-01	 1.4351614500e+00	-1.7833713205e+00
 6.0986903233e-01	 1.4409571979e+00	-1.7614327528e+00
 5.9632354046e-01	 1.4466154033e+00	-1.7366337336e+00
 5.8275105264e-01	 1.4521360543e+00	-1.7086065972e+00
 5.6915357468e-01	 1.4575191764e+00	-1.6771738966e+00
 5.5553310389e-01	 1.4627648324e+00	-1.6423474962e+00
 5.4189162826e-01	 1.4678731222e+00	-1.6043258091e+00
 6.8093900116e-01	 1.4185587083e+00	-1.8431204828e+00
 6.6748336574e-01	 1.4249395191e+00	-1.8257098539e+00
 6.5399039851e-01	 1.4311824455e+00	-1.8078615610e+00
 6.4046214635e-01	 1.4372873208e+00	-1.7883415078e+00
 6.2690065195e-01	 1.4432540174e+00	-1.7660996872e+00
 6.1330795293e-01	 1.4490824463e+00	-1.7402775259e+00
 5.9968608093e-01	 1.4547725572e+00	-1.7102131360e+00
 5.8603706077e-01	 1.4603243379e+00	-1.6754444952e+00
 5.7236290955e-01	 1.4657378143e+00	-1.6357105908e+00
 5.5866563585e-01	 1.4710130494e+00	-1.5909505721e+00
 5.4494723886e-01	 1.4761501437e+00	-1.5413009703e+00
 6.8475714039e-01	 1.4265128050e+00	-1.8310479634e+00
 6.7122605697e-01	 1.4329293940e+00	-1.8133842422e+00
 6.5765743241e-01	 1.4392073256e+00	-1.7940905146e+00
 6.4405332506e-01	 1.4453464320e+00	-1.7717998452e+00
 6.3041578909e-01	 1.4513465848e+00	-1.7453400838e+00
 6.1674687353e-01	 1.4572076947e+00	-1.7137415968e+00
 6.0304862141e-01	 1.4629297110e+00	-1.6762428182e+00
 5.8932306890e-01	 1.4685126215e+00	-1.6322936421e+00
 5.7557224442e-01	 1.4739564521e+00	-1.5815566936e+00
 5.6179816781e-01	 1.4792612664e+00	-1.5239065258e+00
 5.4800284947e-01	 1.4844271652e+00	-1.4622554595e+00
 6.8857527963e-01	 1.4344669017e+00	-1.8208185339e+00
 6.7496874819e-01	 1.4409192690e+00	-1.8020356176e+00
 6.6132446630e-01	 1.4472322057e+00	-1.7801444476e+00
 6.4764450378e-01	 1.4534055432e+00	-1.7536475144e+00
 6.3393092623e-01	 1.4594391523e+00	-1.7212537703e+00
 6.2018579413e-01	 1.4653329431e+00	-1.6818867421e+00
 6.0641116189e-01	 1.4710868648e+00	-1.6346903726e+00
 5.9260907703e-01	 1.4767009051e+00	-1.5790326154e+00
 5.7878157929e-01	 1.4821750900e+00	-1.5146503078e+00
 5.6493069976e-01	 1.4875094834e+00	-1.4523226006e+00
 5.5105846007e-01	 1.4927041868e+00	-1.3992082162e+00
 6.9239341886e-01	 1.4424209984e+00	-1.8130350782e+00
 6.7871143942e-01	 1.4489091440e+00	-1.7921489083e+00
 6.6499150020e-01	 1.4552570858e+00	-1.7663960252e+00
 6.5123568250e-01	 1.4614646543e+00	-1.7341504433e+00
 6.3744606338e-01	 1.4675317197e+00	-1.6940053043e+00
 6.2362471472e-01	 1.4734581915e+00	-1.6447813669e+00
 6.0977370236e-01	 1.4792440186e+00	-1.5855331316e+00
 5.9589508516e-01	 1.4848891887e+00	-1.5188977854e+00
 5.8199091416e-01	 1.4903937278e+00	-1.4581990154e+00
 5.6806323172e-01	 1.4957577004e+00	-1.4051904208e+00
 5.5411407067e-01	 1.5009812083e+00	-1.3601942148e+00
 6.9621155809e-01	 1.4503750951e+00	-1.8082877817e+00
 6.8245413065e-01	 1.4568990189e+00	-1.7842005031e+00
 6.6865853409e-01	 1.4632819659e+00	-1.7532133164e+00
 6.5482686121e-01	 1.4695237655e+00	-1.7135736894e+00
 6.4096120052e-01	 1.4756242871e+00	-1.6637618818e+00
 6.2706363532e-01	 1.4815834399e+00	-1.6025022484e+00
 6.1313624284e-01	 1.4874011724e+00	-1.5383579202e+00
 5.9918109329e-01	 1.4930774723e+00	-1.4801991528e+00
 5.8520024903e-01	 1.4986123657e+00	-1.4282633391e+00
 5.7119576368e-01	 1.5040059173e+00	-1.3827608716e+00
 5.5716968127e-01	 1.5092582298e+00	-1.3438663184e+00
 7.0002969732e-01	 1.4583291918e+00	-1.8071536664e+00
 6.8619682187e-01	 1.4648888939e+00	-1.7786577336e+00
 6.7232556799e-01	 1.4713068460e+00	-1.7409592268e+00
 6.5841803993e-01	 1.4775828767e+00	-1.6921808283e+00
 6.4447633766e-01	 1.4837168546e+00	-1.6319233976e+00
 6.3050255592e-01	 1.4897086883e+00	-1.5726681350e+00
 6.1649878331e-01	 1.4955583263e+00	-1.5181195598e+00
 6.0246710142e-01	 1.5012657558e+00	-1.4683881061e+00
 5.8840958390e-01	 1.5068310035e+00	-1.4235670453e+00
 5.7432829563e-01	 1.5122541343e+00	-1.3837225654e+00
 5.6022529188e-01	 1.5175352514e+00	-1.3488849934e+00
 5.2966918584e-01	 1.4347650360e+00	-1.6758524965e+00
 5.1631906883e-01	 1.4396231580e+00	-1.6540958057e+00
 5.0295228133e-01	 1.4443473582e+00	-1.6308293167e+00
 4.8957073294e-01	 1.4489378386e+00	-1.6054527024e+00
 4.7617632115e-01	 1.4533948358e+00	-1.5775052941e+00
 4.6277093058e-01	 1.4577186201e+00	-1.5466583744e+00
 4.4935643230e-01	 1.4619094952e+00	-1.5127062994e+00
 4.3593468314e-01	 1.4659677976e+00	-1.4755565470e+00
 4.2250752502e-01	 1.4698938963e+00	-1.4352187866e+00
 4.0907678431e-01	 1.4736881920e+00	-1.3917930736e+00
 3.9564427119e-01	 1.4773511167e+00	-1.3454572721e+00
 5.3272479644e-01	 1.4430420576e+00	-1.6842085234e+00
 5.1929766389e-01	 1.4479282056e+00	-1.6620398894e+00
 5.0585376468e-01	 1.4526796592e+00	-1.6374032045e+00
 4.9239501943e-01	 1.4572966217e+00	-1.6095981711e+00
 4.7892333656e-01	 1.4617793309e+00	-1.5780681179e+00
 4.6544061158e-01	 1.4661280587e+00	-1.5423921472e+00
 4.5194872635e-01	 1.4703431105e+00	-1.5022760623e+00
 4.3844954841e-01	 1.4744248249e+00	-1.4575421726e+00
 4.2494493030e-01	 1.4783735728e+00	-1.4081180785e+00
 4.1143670894e-01	 1.4821897575e+00	-1.3542256002e+00
 3.9792670495e-01	 1.4858738132e+00	-1.3032844842e+00
 5.3578040705e-01	 1.4513190791e+00	-1.6753670730e+00
 5.2227625896e-01	 1.4562332532e+00	-1.6496308688e+00
 5.0875524803e-01	 1.4610119603e+00	-1.6202140397e+00
 4.9521930591e-01	 1.4656554048e+00	-1.5863659776e+00
 4.8167035197e-01	 1.4701638260e+00	-1.5474852508e+00
 4.6811029258e-01	 1.4745374972e+00	-1.5031115095e+00
 4.5454102040e-01	 1.4787767258e+00	-1.4529161199e+00
 4.4096441368e-01	 1.4828818521e+00	-1.3974595551e+00
 4.2738233559e-01	 1.4868532494e+00	-1.3458802486e+00
 4.1379663358e-01	 1.4906913229e+00	-1.3002662532e+00
 4.0020913871e-01	 1.4943965098e+00	-1.2597928511e+00
 5.3883601765e-01	 1.4595961006e+00	-1.6488807773e+00
 5.2525485402e-01	 1.4645383008e+00	-1.6163539388e+00
 5.1165673138e-01	 1.4693442613e+00	-1.5787052984e+00
 4.9804359239e-01	 1.4740141879e+00	-1.5351828395e+00
 4.8441736738e-01	 1.4785483210e+00	-1.4851908531e+00
 4.7077997358e-01	 1.4829469358e+00	-1.4290895289e+00
 4.5713331445e-01	 1.4872103411e+00	-1.3768063892e+00
 4.4347927894e-01	 1.4913388794e+00	-1.3307768996e+00
 4.2981974087e-01	 1.4953329259e+00	-1.2901696247e+00
 4.1615655821e-01	 1.4991928884e+00	-1.2540909178e+00
 4.0249157246e-01	 1.5029192063e+00	-1.2215848204e+00
 5.4189162826e-01	 1.4678731222e+00	-1.6043258091e+00
 5.2823344908e-01	 1.4728433483e+00	-1.5617197159e+00
 5.1455821473e-01	 1.4776765623e+00	-1.5123470808e+00
 5.0086787888e-01	 1.4823729709e+00	-1.4557857334e+00
 4.8716438279e-01	 1.4869328161e+00	-1.4015986667e+00
 4.7344965458e-01	 1.4913563743e+00	-1.3541563903e+00
 4.5972560850e-01	 1.4956439564e+00	-1.3126653944e+00
 4.4599414421e-01	 1.4997959067e+00	-1.2762714028e+00
 4.3225714616e-01	 1.5038126025e+00	-1.2440584563e+00
 4.1851648284e-01	 1.5076944539e+00	-1.2150485965e+00
 4.0477400622e-01	 1.5114419029e+00	-1.1882021020e+00
 5.4494723886e-01	 1.4761501437e+00	-1.5413009703e+00
 5.3121204414e-01	 1.4811483959e+00	-1.4852633110e+00
 5.1745969808e-01	 1.4860088634e+00	-1.4277798445e+00
 5.0369216536e-01	 1.4907317540e+00	-1.3774594508e+00
 4.8991139820e-01	 1.4953173111e+00	-1.3336229881e+00
 4.7611933558e-01	 1.4997658129e+00	-1.2954954784e+00
 4.6231790255e-01	 1.5040775717e+00	-1.2622429789e+00
 4.4850900948e-01	 1.5082529339e+00	-1.2329712135e+00
 4.3469455144e-01	 1.5122922790e+00	-1.2067248812e+00
 4.2087640747e-01	 1.5161960194e+00	-1.1824875906e+00
 4.0705643998e-01	 1.5199645994e+00	-1.1591823694e+00
 5.4800284947e-01	 1.4844271652e+00	-1.4622554595e+00
 5.3419063921e-01	 1.4894534435e+00	-1.4079582067e+00
 5.2036118143e-01	 1.4943411644e+00	-1.3604664461e+00
 5.0651645185e-01	 1.4990905371e+00	-1.3191153095e+00
 4.9265841361e-01	 1.5037018062e+00	-1.2831868513e+00
 4.7878901658e-01	 1.5081752515e+00	-1.2519072612e+00
 4.6491019660e-01	 1.5125111870e+00	-1.2244448739e+00
 4.5102387475e-01	 1.5167099612e+00	-1.1999089326e+00
 4.3713195673e-01	 1.5207719556e+00	-1.1773490578e+00
 4.2323633211e-01	 1.5246975849e+00	-1.1557553707e+00
 4.0933887373e-01	 1.5284872959e+00	-1.1340592133e+00
 5.5105846007e-01	 1.4927041868e+00	-1.3992082162e+00
 5.3716923427e-01	 1.4977584911e+00	-1.3538645877e+00
 5.2326266478e-01	 1.5026734654e+00	-1.3141443711e+00
 5.0934073833e-01	 1.5074493201e+00	-1.2794209874e+00
 4.9540542902e-01	 1.5120863013e+00	-1.2490167133e+00
 4.8145869758e-01	 1.5165846900e+00	-1.2221998930e+00
 4.6750249065e-01	 1.5209448024e+00	-1.1981829815e+00
 4.5353874002e-01	 1.5251669885e+00	-1.1761213757e+00
 4.3956936201e-01	 1.5292516321e+00	-1.1551129807e+00
 4.2559625674e-01	 1.5331991503e+00	-1.1341984592e+00
 4.1162130749e-01	 1.5370099925e+00	-1.1123621037e+00
 5.5411407067e-01	 1.5009812083e+00	-1.3601942148e+00
 5.4014782933e-01	 1.5060635386e+00	-1.3216524421e+00
 5.2616414813e-01	 1.5110057664e+00	-1.2874554414e+00
 5.1216502481e-01	 1.5158081032e+00	-1.2570532055e+00
 4.9815244443e-01	 1.5204707963e+00	-1.2298474848e+00
 4.8412837858e-01	 1.5249941286e+00	-1.2051889323e+00
 4.7009478469e-01	 1.5293784177e+00	-1.1823751157e+00
 4.5605360529e-01	 1.5336240157e+00	-1.1606493520e+00
 4.4200676730e-01	 1.5377313087e+00	-1.1392003098e+00
 4.2795618137e-01	 1.5417007158e+00	-1.1171623235e+00
 4.1390374125e-01	 1.5455326890e+00	-1.0936163588e+00
 5.5716968127e-01	 1.5092582298e+00	-1.3438663184e+00
 5.4312642439e-01	 1.5143685862e+00	-1.3099613690e+00
 5.2906563148e-01	 1.5193380675e+00	-1.2790503946e+00
 5.1498931130e-01	 1.5241668863e+00	-1.2506974655e+00
 5.0089945984e-01	 1.5288552914e+00	-1.2244222606e+00
 4.8679805958e-01	 1.5334035671e+00	-1.1996970799e+00
 4.7268707874e-01	 1.5378120330e+00	-1.1759447616e+00
 4.5856847056e-01	 1.5420810430e+00	-1.1525374581e+00
 4.4444417258e-01	 1.5462109852e+00	-1.1287962125e+00
 4.3031610601e-01	 1.5502022813e+00	-1.1039912789e+00
 4.1618617500e-01	 1.5540553856e+00	-1.0773431215e+00
 5.6022529188e-01	 1.5175352514e+00	-1.3488849934e+00
 5.4610501945e-01	 1.5226736338e+00	-1.3174393558e+00
 5.3196711483e-01	 1.5276703685e+00	-1.2875886625e+00
 5.1781359778e-01	 1.5325256694e+00	-1.2590478061e+00
 5.0364647525e-01	 1.5372397864e+00	-1.2314920681e+00
 4.8946774058e-01	 1.5418130057e+00	-1.2045539332e+00
 4.7527937279e-01	 1.5462456483e+00	-1.1778208504e+00
 4.6108333583e-01	 1.5505380703e+00	-1.1508338865e+00
 4.4688157787e-01	 1.5546906618e+00	-1.1230872188e+00
 4.3267603064e-01	 1.5587038468e+00	-1.0940284017e+00
 4.1846860876e-01	 1.5625780821e+00	-1.0630593432e+00
 3.9564427119e-01	 1.4773511167e+00	-1.3454572721e+00
 3.8221177925e-01	 1.4808831335e+00	-1.2942845582e+00
 3.6878108538e-01	 1.4842847367e+00	-1.2407805304e+00
 3.5535394869e-01	 1.4875564508e+00	-1.1907462265e+00
 3.4193210972e-01	 1.4906988290e+00	-1.1438915338e+00
 3.2851728995e-01	 1.4937124529e+00	-1.1006855416e+00
 3.1511119125e-01	 1.4965979319e+00	-1.0613851565e+00
 3.0171549544e-01	 1.4993559022e+00	-1.0260568634e+00
 2.8833186380e-01	 1.5019870269e+00	-9.9459725122e-01
 2.7496193661e-01	 1.5044919947e+00	-9.6675232327e-01
 2.6160733276e-01	 1.5068715195e+00	-9.4213561518e-01
 3.9792670495e-01	 1.4858738132e+00	-1.3032844842e+00
 3.8441672225e-01	 1.4894262059e+00	-1.2565171167e+00
 3.7090854800e-01	 1.4928474327e+00	-1.2125797535e+00
 3.5740395145e-01	 1.4961380210e+00	-1.1712926479e+00
 3.4390468318e-01	 1.4992985273e+00	-1.1318921282e+00
 3.3041247460e-01	 1.5023295364e+00	-1.0949319952e+00
 3.1692903741e-01	 1.5052316614e+00	-1.0607625145e+00
 3.0345606313e-01	 1.5080055422e+00	-1.0295500697e+00
 2.8999522260e-01	 1.5106518457e+00	-1.0012976409e+00
 2.7654816559e-01	 1.5131712644e+00	-9.7586402555e-01
 2.6311652031e-01	 1.5155645164e+00	-9.5298182723e-01
 4.0020913871e-01	 1.4943965098e+00	-1.2597928511e+00
 3.8662166525e-01	 1.4979692783e+00	-1.2218729260e+00
 3.7303601062e-01	 1.5014101286e+00	-1.1854697394e+00
 3.5945395421e-01	 1.5047195911e+00	-1.1509909695e+00
 3.4587725664e-01	 1.5078982255e+00	-1.1174499133e+00
 3.3230765926e-01	 1.5109466200e+00	-1.0854101328e+00
 3.1874688358e-01	 1.5138653910e+00	-1.0552905424e+00
 3.0519663081e-01	 1.5166551823e+00	-1.0273321114e+00
 2.9165858140e-01	 1.5193166644e+00	-1.0016183360e+00
 2.7813439456e-01	 1.5218505340e+00	-9.7809440880e-01
 2.6462570786e-01	 1.5242575133e+00	-9.5658511727e-01
 4.0249157246e-01	 1.5029192063e+00	-1.2215848204e+00
 3.8882660825e-01	 1.5065123507e+00	-1.1902440177e+00
 3.7516347324e-01	 1.5099728245e+00	-1.1593849654e+00
 3.6150395697e-01	 1.5133011612e+00	-1.1299013047e+00
 3.4784983011e-01	 1.5164979237e+00	-1.1007430602e+00
 3.3420284392e-01	 1.5195637035e+00	-1.0723941156e+00
 3.2056472974e-01	 1.5224991205e+00	-1.0453177608e+00
 3.0693719849e-01	 1.5253048223e+00	-1.0198046925e+00
 2.9332194020e-01	 1.5279814831e+00	-9.9599351802e-01
 2.7972062354e-01	 1.5305298037e+00	-9.7388991370e-01
 2.6613489541e-01	 1.5329505102e+00	-9.5338446843e-01
 4.0477400622e-01	 1.5114419029e+00	-1.1882021020e+00
 3.9103155125e-01	 1.5150554231e+00	-1.1613633051e+00
 3.7729093586e-01	 1.5185355205e+00	-1.1342277623e+00
 3.6355395973e-01	 1.5218827314e+00	-1.1080735182e+00
 3.4982240357e-01	 1.5250976219e+00	-1.0819380759e+00
 3.3609802858e-01	 1.5281807870e+00	-1.0561454334e+00
 3.2238257590e-01	 1.5311328501e+00	-1.0311794106e+00
 3.0867776617e-01	 1.5339544623e+00	-1.0073560179e+00
 2.9498529900e-01	 1.5366463019e+00	-9.8484403185e-01
 2.8130685251e-01	 1.5392090733e+00	-9.6368417778e-01
 2.6764408295e-01	 1.5416435071e+00	-9.4380695677e-01
 4.0705643998e-01	 1.5199645994e+00	-1.1591823694e+00
 3.9323649426e-01	 1.5235984955e+00	-1.1349563847e+00
 3.7941839848e-01	 1.5270982164e+00	-1.1098903697e+00
 3.6560396249e-01	 1.5304643015e+00	-1.0855472074e+00
 3.5179497703e-01	 1.5336973201e+00	-1.0611898531e+00
 3.3799321323e-01	 1.5367978705e+00	-1.0369130090e+00
 3.2420042207e-01	 1.5397665797e+00	-1.0131975984e+00
 3.1041833386e-01	 1.5426041024e+00	-9.9036096911e-01
 2.9664865780e-01	 1.5453111206e+00	-9.6857757690e-01
 2.8289308149e-01	 1.5478883430e+00	-9.4789823130e-01
 2.6915327050e-01	 1.5503365040e+00	-9.2826793999e-01
 4.0933887373e-01	 1.5284872959e+00	-1.1340592133e+00
 3.9544143726e-01	 1.5321415679e+00	-1.1107415738e+00
 3.8154586110e-01	 1.5356609123e+00	-1.0862550444e+00
 3.6765396525e-01	 1.5390458716e+00	-1.0623516828e+00
 3.5376755049e-01	 1.5422970183e+00	-1.0386417165e+00
 3.3988839789e-01	 1.5454149540e+00	-1.0149332975e+00
 3.2601826823e-01	 1.5484003092e+00	-9.9168143716e-01
 3.1215890154e-01	 1.5512537424e+00	-9.6918127159e-01
 2.9831201659e-01	 1.5539759394e+00	-9.4758889165e-01
 2.8447931046e-01	 1.5565676126e+00	-9.2694068622e-01
 2.7066245805e-01	 1.5590295009e+00	-9.0717123948e-01
 4.1162130749e-01	 1.5370099925e+00	-1.1123621037e+00
 3.9764638026e-01	 1.5406846403e+00	-1.0884299514e+00
 3.8367332372e-01	 1.5442236082e+00	-1.0631941694e+00
 3.6970396801e-01	 1.5476274418e+00	-1.0385059478e+00
 3.5574012396e-01	 1.5508967165e+00	-1.0144254664e+00
 3.4178358255e-01	 1.5540320375e+00	-9.9043038173e-01
 3.2783611439e-01	 1.5570340388e+00	-9.6692717994e-01
 3.1389946922e-01	 1.5599033824e+00	-9.4416565717e-01
 2.9997537539e-01	 1.5626407581e+00	-9.2225993131e-01
 2.8606553943e-01	 1.5652468823e+00	-9.0120791827e-01
 2.7217164560e-01	 1.5677224978e+00	-8.8090931587e-01
 4.1390374125e-01	 1.5455326890e+00	-1.0936163588e+00
 3.9985132326e-01	 1.5492277127e+00	-1.0677254045e+00
 3.8580078635e-01	 1.5527863042e+00	-1.0405703650e+00
 3.7175397077e-01	 1.5562090119e+00	-1.0140312519e+00
 3.5771269742e-01	 1.5594964147e+00	-9.8866141996e-01
 3.4367876720e-01	 1.5626491211e+00	-9.6361606296e-01
 3.2965396056e-01	 1.5656677684e+00	-9.3921834960e-01
 3.1564003690e-01	 1.5685530225e+00	-9.1565001970e-01
 3.0163873419e-01	 1.5713055768e+00	-8.9296003901e-01
 2.8765176841e-01	 1.5739261520e+00	-8.7108424262e-01
 2.7368083315e-01	 1.5764154947e+00	-8.4986343841e-01
 4.1618617500e-01	 1.5540553856e+00	-1.0773431215e+00
 4.0205626627e-01	 1.5577707851e+00	-1.0483246780e+00
 3.8792824897e-01	 1.5613490001e+00	-1.0182366015e+00
 3.7380397353e-01	 1.5647905820e+00	-9.8896369420e-01
 3.5968527088e-01	 1.5680961129e+00	-9.6145844967e-01
 3.4557395186e-01	 1.5712662046e+00	-9.3468994820e-01
 3.3147180672e-01	 1.5743014979e+00	-9.0882586269e-01
 3.1738060459e-01	 1.5772026625e+00	-8.8395756498e-01
 3.0330209299e-01	 1.5799703956e+00	-8.6004611073e-01
 2.8923799738e-01	 1.5826054216e+00	-8.3694208319e-01
 2.7519002070e-01	 1.5851084916e+00	-8.1440384844e-01
 4.1846860876e-01	 1.5625780821e+00	-1.0630593432e+00
 4.0426120927e-01	 1.5663138575e+00	-1.0299174290e+00
 3.9005571159e-01	 1.5699116960e+00	-9.9603631351e-01
 3.7585397630e-01	 1.5733721522e+00	-9.6328527185e-01
 3.6165784435e-01	 1.5766958111e+00	-9.3291401944e-01
 3.4746913652e-01	 1.5798832881e+00	-9.0383953327e-01
 3.3328965288e-01	 1.5829352275e+00	-8.7600814864e-01
 3.1912117227e-01	 1.5858523025e+00	-8.4939895518e-01
 3.0496545179e-01	 1.5886352143e+00	-8.2386275432e-01
 2.9082422635e-01	 1.5912846913e+00	-7.9914213603e-01
 2.7669920824e-01	 1.5938014885e+00	-7.7488991705e-01
 2.6160733276e-01	 1.5068715195e+00	-9.4213561518e-01
 2.4826738388e-01	 1.5091267122e+00	-9.2016763647e-01
 2.3494594031e-01	 1.5112579195e+00	-9.0050708672e-01
 2.2164455859e-01	 1.5132659262e+00	-8.8296184627e-01
 2.0836477224e-01	 1.5151515397e+00	-8.6726734430e-01
 1.9510809149e-01	 1.5169155893e+00	-8.5309860594e-01
 1.8187600295e-01	 1.5185589255e+00	-8.4008134231e-01
 1.6866996932e-01	 1.5200824195e+00	-8.2780212855e-01
 1.5549142916e-01	 1.5214869622e+00	-8.1581771636e-01
 1.4234179663e-01	 1.5227734638e+00	-8.0366352807e-01
 1.2922246127e-01	 1.5239428532e+00	-7.9086138025e-01
 2.6311652031e-01	 1.5155645164e+00	-9.5298182723e-01
 2.4969961454e-01	 1.5178327191e+00	-9.3222032584e-01
 2.3630132085e-01	 1.5199762211e+00	-9.1332163744e-01
 2.2292320474e-01	 1.5219958118e+00	-8.9612351004e-01
 2.0956680858e-01	 1.5238923033e+00	-8.8039580215e-01
 1.9623365131e-01	 1.5256665295e+00	-8.6585239444e-01
 1.8292522812e-01	 1.5273193459e+00	-8.5216211864e-01
 1.6964301015e-01	 1.5288516288e+00	-8.3895875161e-01
 1.5638844427e-01	 1.5302642742e+00	-8.2585012364e-01
 1.4316295277e-01	 1.5315581975e+00	-8.1242639052e-01
 1.2996793322e-01	 1.5327343330e+00	-7.9826751991e-01
 2.6462570786e-01	 1.5242575133e+00	-9.5658511727e-01
 2.5113184521e-01	 1.5265387260e+00	-9.3676816285e-01
 2.3765670139e-01	 1.5286945228e+00	-9.1844509216e-01
 2.2420185088e-01	 1.5307256975e+00	-9.0148085402e-01
 2.1076884491e-01	 1.5326330668e+00	-8.8567728494e-01
 1.9735921113e-01	 1.5344174696e+00	-8.7078487461e-01
 1.8397445329e-01	 1.5360797664e+00	-8.5651352262e-01
 1.7061605099e-01	 1.5376208381e+00	-8.4254233699e-01
 1.5728545937e-01	 1.5390415861e+00	-8.2852852615e-01
 1.4398410891e-01	 1.5403429312e+00	-8.1411543680e-01
 1.3071340517e-01	 1.5415258128e+00	-7.9893979057e-01
 2.6613489541e-01	 1.5329505102e+00	-9.5338446843e-01
 2.5256407588e-01	 1.5352447329e+00	-9.3423178771e-01
 2.3901208193e-01	 1.5374128244e+00	-9.1627740163e-01
 2.2548049703e-01	 1.5394555831e+00	-8.9941086263e-01
 2.1197088125e-01	 1.5413738303e+00	-8.8346360950e-01
 1.9848477095e-01	 1.5431684098e+00	-8.6822057560e-01
 1.8502367847e-01	 1.5448401868e+00	-8.5343076179e-01
 1.7158909182e-01	 1.5463900474e+00	-8.3881682728e-01
 1.5818247447e-01	 1.5478188981e+00	-8.2408375289e-01
 1.4480526504e-01	 1.5491276649e+00	-8.0892663195e-01
 1.3145887712e-01	 1.5503172926e+00	-7.9303764422e-01
 2.6764408295e-01	 1.5416435071e+00	-9.4380695677e-01
 2.5399630654e-01	 1.5439507398e+00	-9.2502099562e-01
 2.4036746247e-01	 1.5461311260e+00	-9.0720870947e-01
 2.2675914318e-01	 1.5481854687e+00	-8.9028172834e-01
 2.1317291759e-01	 1.5501145939e+00	-8.7409879465e-01
 1.9961033077e-01	 1.5519193500e+00	-8.5847720275e-01
 1.8607290364e-01	 1.5536006072e+00	-8.4320317590e-01
 1.7256213266e-01	 1.5551592567e+00	-8.2804123689e-01
 1.5907948957e-01	 1.5565962101e+00	-8.1274262960e-01
 1.4562642118e-01	 1.5579123986e+00	-7.9705284963e-01
 1.3220434908e-01	 1.5591087724e+00	-7.8071834213e-01
 2.6915327050e-01	 1.5503365040e+00	-9.2826793999e-01
 2.5542853721e-01	 1.5526567467e+00	-9.0953491200e-01
 2.4172284301e-01	 1.5548494276e+00	-8.9161951330e-01
 2.2803778932e-01	 1.5569153543e+00	-8.7445299785e-01
 2.1437495392e-01	 1.5588553574e+00	-8.5791919171e-01
 2.0073589059e-01	 1.5606702902e+00	-8.4186575180e-01
 1.8712212881e-01	 1.5623610276e+00	-8.2611433429e-01
 1.7353517349e-01	 1.5639284660e+00	-8.1046973193e-01
 1.5997650467e-01	 1.5653735221e+00	-7.9472804047e-01
 1.4644757732e-01	 1.5666971323e+00	-7.7868391523e-01
 1.3294982103e-01	 1.5679002521e+00	-7.6213697892e-01
 2.7066245805e-01	 1.5590295009e+00	-9.0717123948e-01
 2.5686076787e-01	 1.5613627536e+00	-8.8816216172e-01
 2.4307822355e-01	 1.5635677293e+00	-8.6988082025e-01
 2.2931643547e-01	 1.5656452400e+00	-8.5227571328e-01
 2.1557699026e-01	 1.5675961210e+00	-8.3525361068e-01
 2.0186145041e-01	 1.5694212303e+00	-8.1869061935e-01
 1.8817135398e-01	 1.5711214480e+00	-8.0244212997e-01
 1.7450821432e-01	 1.5726976753e+00	-7.8635170737e-01
 1.6087351978e-01	 1.5741508341e+00	-7.7025898789e-01
 1.4726873345e-01	 1.5754818660e+00	-7.5400664768e-01
 1.3369529298e-01	 1.5766917319e+00	-7.3744650589e-01
 2.7217164560e-01	 1.5677224978e+00	-8.8090931587e-01
 2.5829299854e-01	 1.5700687605e+00	-8.6128103229e-01
 2.4443360408e-01	 1.5722860309e+00	-8.4235429709e-01
 2.3059508161e-01	 1.5743751256e+00	-8.2409254848e-01
 2.1677902659e-01	 1.5763368845e+00	-8.0642344202e-01
 2.0298701022e-01	 1.5781721705e+00	-7.8924970950e-01
 1.8922057915e-01	 1.5798818685e+00	-7.7245887049e-01
 1.7548125515e-01	 1.5814668847e+00	-7.5593186158e-01
 1.6177053488e-01	 1.5829281461e+00	-7.3955065019e-01
 1.4808988959e-01	 1.5842665997e+00	-7.2320489978e-01
 1.3444076493e-01	 1.5854832117e+00	-7.0679775358e-01
 2.7368083315e-01	 1.5764154947e+00	-8.4986343841e-01
 2.5972522920e-01	 1.5787747674e+00	-8.2925963141e-01
 2.4578898462e-01	 1.5810043325e+00	-8.0939241517e-01
 2.3187372776e-01	 1.5831050112e+00	-7.9023794067e-01
 2.1798106293e-01	 1.5850776481e+00	-7.7174277430e-01
 2.0411257004e-01	 1.5869231107e+00	-7.5383453695e-01
 1.9026980432e-01	 1.5886422889e+00	-7.3643136590e-01
 1.7645429599e-01	 1.5902360940e+00	-7.1945026853e-01
 1.6266754998e-01	 1.5917054580e+00	-7.0281443745e-01
 1.4891104572e-01	 1.5930513333e+00	-6.8645959734e-01
 1.3518623688e-01	 1.5942746915e+00	-6.7033945368e-01
 2.7519002070e-01	 1.5851084916e+00	-8.1440384844e-01
 2.6115745987e-01	 1.5874807743e+00	-7.9245603899e-01
 2.4714436516e-01	 1.5897226341e+00	-7.7133859040e-01
 2.3315237390e-01	 1.5918348968e+00	-7.5103821757e-01
 2.1918309926e-01	 1.5938184116e+00	-7.3151850797e-01
 2.0523812986e-01	 1.5956740509e+00	-7.1273032658e-01
 1.9131902949e-01	 1.5974027093e+00	-6.9462101364e-01
 1.7742733682e-01	 1.5990053033e+00	-6.7714244751e-01
 1.6356456508e-01	 1.6004827700e+00	-6.6025804558e-01
 1.4973220186e-01	 1.6018360670e+00	-6.4394877698e-01
 1.3593170884e-01	 1.6030661713e+00	-6.2821826019e-01
 2.7669920824e-01	 1.5938014885e+00	-7.7488991705e-01
 2.6258969053e-01	 1.5961867811e+00	-7.5121845399e-01
 2.4849974570e-01	 1.5984409358e+00	-7.2852731834e-01
 2.3443102005e-01	 1.6005647824e+00	-7.0681172027e-01
 2.2038513559e-01	 1.6025591752e+00	-6.8605046515e-01
 2.0636368968e-01	 1.6044249910e+00	-6.6621610978e-01
 1.9236825466e-01	 1.6061631297e+00	-6.4728388072e-01
 1.7840037765e-01	 1.6077745126e+00	-6.2923943056e-01
 1.6446158018e-01	 1.6092600820e+00	-6.1208550857e-01
 1.5055335800e-01	 1.6106208007e+00	-5.9584762278e-01
 1.3667718079e-01	 1.6118576511e+00	-5.8057877000e-01
 1.2922246127e-01	 1.5239428532e+00	-7.9086138025e-01
 1.1613700454e-01	 1.5249959077e+00	-7.7827601736e-01
 1.0308450745e-01	 1.5259337991e+00	-7.6724687162e-01
 9.0066254107e-02	 1.5267575069e+00	-7.5800384838e-01
 7.7083504135e-02	 1.5274680266e+00	-7.5077388106e-01
 6.4137492550e-02	 1.5280663686e+00	-7.4578477928e-01
 5.1229429637e-02	 1.5285535581e+00	-7.4326862319e-01
 3.8360500855e-02	 1.5289306340e+00	-7.4346474736e-01
 2.5531866762e-02	 1.5291986486e+00	-7.4662235615e-01
 1.2744662951e-02	 1.5293586666e+00	-7.5300281022e-01
 0.0000000000e+00	 1.5294117647e+00	-7.6288162322e-01
 1.2996793322e-01	 1.5327343330e+00	-7.9826751991e-01
 1.1680698775e-01	 1.5337934625e+00	-7.8426665568e-01
 1.0367919206e-01	 1.5347367645e+00	-7.7175829725e-01
 9.0585837666e-02	 1.5355652242e+00	-7.6098455306e-01
 7.7528191458e-02	 1.5362798428e+00	-7.5218565488e-01
 6.4507495578e-02	 1.5368816366e+00	-7.4560361787e-01
 5.1524967290e-02	 1.5373716366e+00	-7.4148544461e-01
 3.8581798896e-02	 1.5377508879e+00	-7.4008591790e-01
 2.5679157647e-02	 1.5380204486e+00	-7.4167002613e-01
 1.2818185686e-02	 1.5381813897e+00	-7.4651506231e-01
 0.0000000000e+00	 1.5382347941e+00	-7.5491243736e-01
 1.3071340517e-01	 1.5415258128e+00	-7.9893979057e-01
 1.1747697097e-01	 1.5425910172e+00	-7.8390082196e-01
 1.0427387667e-01	 1.5435397298e+00	-7.7030069698e-01
 9.1105421225e-02	 1.5443729414e+00	-7.5838485490e-01
 7.7972878782e-02	 1.5450916589e+00	-7.4839828013e-01
 6.4877498605e-02	 1.5456969045e+00	-7.4058896663e-01
 5.1820504944e-02	 1.5461897151e+00	-7.3521092351e-01
 3.8803096937e-02	 1.5465711417e+00	-7.3252676883e-01
 2.5826448532e-02	 1.5468422485e+00	-7.3280995662e-01
 1.2891708422e-02	 1.5470041127e+00	-7.3634668030e-01
 0.0000000000e+00	 1.5470578235e+00	-7.4343749431e-01
 1.3145887712e-01	 1.5503172926e+00	-7.9303764422e-01
 1.1814695418e-01	 1.5513885720e+00	-7.7730116221e-01
 1.0486856128e-01	 1.5523426952e+00	-7.6296105114e-01
 9.1625004784e-02	 1.5531806587e+00	-7.5025744562e-01
 7.8417566105e-02	 1.5539034751e+00	-7.3943177209e-01
 6.5247501633e-02	 1.5545121725e+00	-7.3073000927e-01
 5.2116042599e-02	 1.5550077936e+00	-7.2440548709e-01
 3.9024394979e-02	 1.5553913955e+00	-7.2072127278e-01
 2.5973739417e-02	 1.5556640485e+00	-7.1995219104e-01
 1.2965231157e-02	 1.5558268358e+00	-7.2238652318e-01
 0.0000000000e+00	 1.5558808529e+00	-7.2832742849e-01
 1.3220434908e-01	 1.5591087724e+00	-7.8071834213e-01
 1.1881693739e-01	 1.5601861267e+00	-7.6458899478e-01
 1.0546324589e-01	 1.5611456605e+00	-7.4982580963e-01
 9.2144588344e-02	 1.5619883759e+00	-7.3665521695e-01
 7.8862253428e-02	 1.5627152913e+00	-7.2530700856e-01
 6.5617504661e-02	 1.5633274404e+00	-7.1601738584e-01
 5.2411580253e-02	 1.5638258721e+00	-7.0903154295e-01
 3.9245693021e-02	 1.5642116493e+00	-7.0460583629e-01
 2.6121030302e-02	 1.5644858484e+00	-7.0300958889e-01
 1.3038753893e-02	 1.5646495589e+00	-7.0452657608e-01
 0.0000000000e+00	 1.5647038823e+00	-7.0945623763e-01
 1.3294982103e-01	 1.5679002521e+00	-7.6213697892e-01
 1.1948692060e-01	 1.5689836815e+00	-7.4588431561e-01
 1.0605793051e-01	 1.5699486259e+00	-7.3098087976e-01
 9.2664171903e-02	 1.5707960932e+00	-7.1763123228e-01
 7.9306940752e-02	 1.5715271074e+00	-7.0604568697e-01
 6.5987507689e-02	 1.5721427084e+00	-6.9644313667e-01
 5.2707117907e-02	 1.5726439506e+00	-6.8905341161e-01
 3.9466991063e-02	 1.5730319031e+00	-6.8411922282e-01
 2.6268321188e-02	 1.5733076484e+00	-6.8189774108e-01
 1.3112276629e-02	 1.5734722820e+00	-6.8266185989e-01
 0.0000000000e+00	 1.5735269117e+00	-6.8670118889e-01
 1.3369529298e-01	 1.5766917319e+00	-7.3744650589e-01
 1.2015690381e-01	 1.5777812362e+00	-7.2130580354e-01
 1.0665261512e-01	 1.5787515913e+00	-7.0651161454e-01
 9.3183755462e-02	 1.5796038104e+00	-6.9323869944e-01
 7.9751628075e-02	 1.5803389236e+00	-6.8167028285e-01
 6.6357510716e-02	 1.5809579763e+00	-6.7200064821e-01
 5.3002655562e-02	 1.5814620291e+00	-6.6443726142e-01
 3.9688289105e-02	 1.5818521569e+00	-6.5920247822e-01
 2.6415612073e-02	 1.5821294484e+00	-6.5653488797e-01
 1.3185799365e-02	 1.5822950051e+00	-6.5669034388e-01
 0.0000000000e+00	 1.5823499412e+00	-6.5994272803e-01
 1.3444076493e-01	 1.5854832117e+00	-7.0679775358e-01
 1.2082688702e-01	 1.5865787910e+00	-6.9097082537e-01
 1.0724729973e-01	 1.5875545566e+00	-6.7650280148e-01
 9.3703339021e-02	 1.5884115277e+00	-6.6353094428e-01
 8.0196315399e-02	 1.5891507398e+00	-6.5220400976e-01
 6.6727513744e-02	 1.5897732442e+00	-6.4268460073e-01
 5.3298193216e-02	 1.5902801076e+00	-6.3515104548e-01
 3.9909587147e-02	 1.5906724107e+00	-6.2979885883e-01
 2.6562902958e-02	 1.5909512483e+00	-6.2684184027e-01
 1.3259322100e-02	 1.5911177282e+00	-6.2651286129e-01
 0.0000000000e+00	 1.5911729706e+00	-6.2906439169e-01
 1.3518623688e-01	 1.5942746915e+00	-6.7033945368e-01
 1.2149687023e-01	 1.5953763457e+00	-6.5499544081e-01
 1.0784198434e-01	 1.5963575220e+00	-6.4103865173e-01
 9.4222922580e-02	 1.5972192449e+00	-6.2856138532e-01
 8.0641002722e-02	 1.5979625559e+00	-6.1767078060e-01
 6.7097516772e-02	 1.5985885122e+00	-6.0849091774e-01
 5.3593730871e-02	 1.5990981861e+00	-6.0116444083e-01
 4.0130885188e-02	 1.5994926645e+00	-5.9585376187e-01
 2.6710193843e-02	 1.5997730483e+00	-5.9274190253e-01
 1.3332844836e-02	 1.5999404513e+00	-5.9203302767e-01
 0.0000000000e+00	 1.5999960000e+00	-5.9395272253e-01
 1.3593170884e-01	 1.6030661713e+00	-6.2821826019e-01
 1.2216685344e-01	 1.6041739005e+00	-6.1349440739e-01
 1.0843666895e-01	 1.6051604873e+00	-6.0020278962e-01
 9.4742506139e-02	 1.6060269622e+00	-5.8838350910e-01
 8.1085690045e-02	 1.6067743721e+00	-5.7809517022e-01
 6.7467519799e-02	 1.6074037801e+00	-5.6941671714e-01
 5.3889268525e-02	 1.6079162646e+00	-5.6244878955e-01
 4.0352183230e-02	 1.6083129183e+00	-5.5731465821e-01
 2.6857484728e-02	 1.6085948482e+00	-5.5416079906e-01
 1.3406367572e-02	 1.6087631744e+00	-5.5315716188e-01
 0.0000000000e+00	 1.6088190294e+00	-5.5449718718e-01
 1.3667718079e-01	 1.6118576511e+00	-5.8057877000e-01
 1.2283683665e-01	 1.6129714553e+00	-5.6658118513e-01
 1.0903135356e-01	 1.6139634527e+00	-5.5407824266e-01
 9.5262089698e-02	 1.6148346794e+00	-5.4305084658e-01
 8.1530377368e-02	 1.6155861883e+00	-5.3350237925e-01
 6.7837522827e-02	 1.6162190481e+00	-5.2546026396e-01
 5.4184806178e-02	 1.6167343431e+00	-5.1897704186e-01
 4.0573481271e-02	 1.6171331722e+00	-5.1413102727e-01
 2.7004775613e-02	 1.6174166482e+00	-5.1102660245e-01
 1.3479890307e-02	 1.6175858975e+00	-5.0979420975e-01
 0.0000000000e+00	 1.6176420588e+00	-5.1059009686e-01
 1.6176420588e+00	 0.0000000000e+00	 3.6137658497e+00
 1.6175858975e+00	 1.3479890307e-02	 3.6096875024e+00
 1.6174166482e+00	 2.7004775613e-02	 3.6040305104e+00
 1.6171331722e+00	 4.0573481271e-02	 3.5966148056e+00
 1.6167343431e+00	 5.4184806178e-02	 3.5873135813e+00
 1.6162190481e+00	 6.7837522827e-02	 3.5760552395e+00
 1.6155861883e+00	 8.1530377368e-02	 3.5628249946e+00
 1.6148346794e+00	 9.5262089698e-02	 3.5476660757e+00
 1.6139634527e+00	 1.0903135356e-01	 3.5306804705e+00
 1.6129714553e+00	 1.2283683665e-01	 3.5120291499e+00
 1.6118576511e+00	 1.3667718079e-01	 3.4919317089e+00
 1.6264665874e+00	 0.0000000000e+00	 3.5821451960e+00
 1.6264101197e+00	 1.3553425535e-02	 3.5780583829e+00
 1.6262399471e+00	 2.7152091524e-02	 3.5721769083e+00
 1.6259549247e+00	 4.0794816914e-02	 3.5643570191e+00
 1.6255539199e+00	 5.4480394048e-02	 3.5545122241e+00
 1.6250358139e+00	 6.8207588723e-02	 3.5426155053e+00
 1.6243995017e+00	 8.1975140250e-02	 3.5287011879e+00
 1.6236438933e+00	 9.5781761542e-02	 3.5128664098e+00
 1.6227679138e+00	 1.0962613921e-01	 3.4952721334e+00
 1.6217705049e+00	 1.2350693370e-01	 3.4761436345e+00
 1.6206506247e+00	 1.3742277941e-01	 3.4557704049e+00
 1.6352911109e+00	 0.0000000000e+00	 3.5534543435e+00
 1.6352343369e+00	 1.3626960720e-02	 3.5493144856e+00
 1.6350632411e+00	 2.7299407352e-02	 3.5432126844e+00
 1.6347766722e+00	 4.1016152430e-02	 3.5350302470e+00
 1.6343734917e+00	 5.4775981750e-02	 3.5247095496e+00
 1.6338525747e+00	 6.8577654409e-02	 3.5122565303e+00
 1.6332128102e+00	 8.2419902880e-02	 3.4977428444e+00
 1.6324531021e+00	 9.6301433091e-02	 3.4813076233e+00
 1.6315723700e+00	 1.1022092453e-01	 3.4631587737e+00
 1.6305695495e+00	 1.2417703037e-01	 3.4435737551e+00
 1.6294435933e+00	 1.3816837761e-01	 3.4228997659e+00
 1.6441156245e+00	 0.0000000000e+00	 3.5276623649e+00
 1.6440585441e+00	 1.3700495823e-02	 3.5234528697e+00
 1.6438865250e+00	 2.7446723012e-02	 3.5171608795e+00
 1.6435984097e+00	 4.1237487696e-02	 3.5086815867e+00
 1.6431930536e+00	 5.5071569116e-02	 3.4979748652e+00
 1.6426693255e+00	 6.8947719676e-02	 3.4850680640e+00
 1.6420261086e+00	 8.2864665005e-02	 3.4700584685e+00
 1.6412623009e+00	 9.6821104052e-02	 3.4531153672e+00
 1.6403768161e+00	 1.1081570918e-01	 3.4344816627e+00
 1.6393685841e+00	 1.2484712629e-01	 3.4144749583e+00
 1.6382365519e+00	 1.3891397496e-01	 3.3934880522e+00
 1.6529401231e+00	 0.0000000000e+00	 3.5047374551e+00
 1.6528827363e+00	 1.3774030800e-02	 3.5004690151e+00
 1.6527097939e+00	 2.7594038422e-02	 3.4940423129e+00
 1.6524201322e+00	 4.1458822586e-02	 3.4853553251e+00
 1.6520126004e+00	 5.5367155980e-02	 3.4743741282e+00
 1.6514860613e+00	 6.9317784313e-02	 3.4611360113e+00
 1.6508393921e+00	 8.3309426375e-02	 3.4457522629e+00
 1.6500714848e+00	 9.7340774129e-02	 3.4284105682e+00
 1.6491812473e+00	 1.1141049281e-01	 3.4093769517e+00
 1.6481676038e+00	 1.2551722106e-01	 3.3889971975e+00
 1.6470294956e+00	 1.3965957104e-01	 3.3676976743e+00
 1.6617646017e+00	 0.0000000000e+00	 3.4846469517e+00
 1.6617069085e+00	 1.3847565611e-02	 3.4803568547e+00
 1.6615330428e+00	 2.7741353497e-02	 3.4738756256e+00
 1.6612418347e+00	 4.1680156973e-02	 3.4650929938e+00
 1.6608321273e+00	 5.5662742174e-02	 3.4539700119e+00
 1.6603027772e+00	 6.9687848112e-02	 3.4405425074e+00
 1.6596526556e+00	 8.3754186736e-02	 3.4249242146e+00
 1.6588806487e+00	 9.7860443028e-02	 3.4073095237e+00
 1.6579856585e+00	 1.1200527510e-01	 3.3879757775e+00
 1.6569666035e+00	 1.2618731431e-01	 3.3672850482e+00
 1.6558224194e+00	 1.4040516544e-01	 3.3456853183e+00
 1.6705890552e+00	 0.0000000000e+00	 3.4673573543e+00
 1.6705310557e+00	 1.3921100213e-02	 3.4631088056e+00
 1.6703562668e+00	 2.7888668156e-02	 3.4566773227e+00
 1.6700635123e+00	 4.1901490734e-02	 3.4479334214e+00
 1.6696516291e+00	 5.5958327531e-02	 3.4368219684e+00
 1.6691194680e+00	 7.0057910862e-02	 3.4233659916e+00
 1.6684658941e+00	 8.4198945838e-02	 3.4076701780e+00
 1.6676897876e+00	 9.8380110455e-02	 3.3899239950e+00
 1.6667900448e+00	 1.1260005570e-01	 3.3704043647e+00
 1.6657655783e+00	 1.2685740567e-01	 3.3494778204e+00
 1.6646153182e+00	 1.4115075772e-01	 3.3276020675e+00
 1.6794134788e+00	 0.0000000000e+00	 3.4528343438e+00
 1.6793551729e+00	 1.3994634565e-02	 3.4487157994e+00
 1.6791794607e+00	 2.8035982313e-02	 3.4424618147e+00
 1.6788851598e+00	 4.2122823742e-02	 3.4339127854e+00
 1.6784711010e+00	 5.6253911883e-02	 3.4229862901e+00
 1.6779361289e+00	 7.0427972354e-02	 3.4096812784e+00
 1.6772791027e+00	 8.4643703427e-02	 3.3940819554e+00
 1.6764988966e+00	 9.8899776116e-02	 3.3763612972e+00
 1.6755944012e+00	 1.1319483428e-01	 3.3567841257e+00
 1.6745645232e+00	 1.2752749475e-01	 3.3357096678e+00
 1.6734081872e+00	 1.4189634747e-01	 3.3135935217e+00
 1.6882378674e+00	 0.0000000000e+00	 3.4410428008e+00
 1.6881792551e+00	 1.4068168626e-02	 3.4371673113e+00
 1.6880026196e+00	 2.8183295887e-02	 3.4312414567e+00
 1.6877067723e+00	 4.2344155872e-02	 3.4230646618e+00
 1.6872905379e+00	 5.6549495062e-02	 3.4125161695e+00
 1.6867527548e+00	 7.0798032378e-02	 3.3995596266e+00
 1.6860922763e+00	 8.5088459253e-02	 3.3842473758e+00
 1.6853079707e+00	 9.9419439715e-02	 3.3667243876e+00
 1.6843987226e+00	 1.1378961050e-01	 3.3472317576e+00
 1.6833634332e+00	 1.2819758117e-01	 3.3261096938e+00
 1.6822010213e+00	 1.4264193426e-01	 3.3037999130e+00
 1.6970622159e+00	 0.0000000000e+00	 3.4319468233e+00
 1.6970032973e+00	 1.4141702353e-02	 3.4284513889e+00
 1.6968257385e+00	 2.8330608793e-02	 3.4230265877e+00
 1.6965283449e+00	 4.2565487000e-02	 3.4154200735e+00
 1.6961099348e+00	 5.6845076902e-02	 3.4054617568e+00
 1.6955693408e+00	 7.1168090725e-02	 3.3930688065e+00
 1.6949054099e+00	 8.5533213062e-02	 3.3782503715e+00
 1.6941170048e+00	 9.9939100959e-02	 3.3611119507e+00
 1.6932030041e+00	 1.1438438402e-01	 3.3418593369e+00
 1.6921623033e+00	 1.2886766455e-01	 3.3208020560e+00
 1.6909938155e+00	 1.4338751767e-01	 3.2983562182e+00
 1.7058865195e+00	 0.0000000000e+00	 3.4255097441e+00
 1.7058272945e+00	 1.4215235706e-02	 3.4225546796e+00
 1.7056488125e+00	 2.8477920947e-02	 3.4178255672e+00
 1.7053498724e+00	 4.2786816999e-02	 3.4110075375e+00
 1.7049292867e+00	 5.7140657235e-02	 3.4018702165e+00
 1.7043858817e+00	 7.1538147186e-02	 3.3902731654e+00
 1.7037184986e+00	 8.5977964604e-02	 3.3761710520e+00
 1.7029259940e+00	 1.0045875955e-01	 3.3596184817e+00
 1.7020072407e+00	 1.1497915452e-01	 3.3407744116e+00
 1.7009611285e+00	 1.2953774452e-01	 3.3199060660e+00
 1.6997865649e+00	 1.4413309728e-01	 3.2973922690e+00
 1.6118576511e+00	 1.3667718079e-01	 3.4919317089e+00
 1.6106208007e+00	 1.5055335800e-01	 3.4693932828e+00
 1.6092600820e+00	 1.6446158018e-01	 3.4432407362e+00
 1.6077745126e+00	 1.7840037765e-01	 3.4134968843e+00
 1.6061631297e+00	 1.9236825466e-01	 3.3802321955e+00
 1.6044249910e+00	 2.0636368968e-01	 3.3435606305e+00
 1.6025591752e+00	 2.2038513559e-01	 3.3036344760e+00
 1.6005647824e+00	 2.3443102005e-01	 3.2606380967e+00
 1.5984409358e+00	 2.4849974570e-01	 3.2147805283e+00
 1.5961867811e+00	 2.6258969053e-01	 3.1662868347e+00
 1.5938014885e+00	 2.7669920824e-01	 3.1153881530e+00
 1.6206506247e+00	 1.3742277941e-01	 3.4557704049e+00
 1.6194070271e+00	 1.5137465366e-01	 3.4332165019e+00
 1.6180388854e+00	 1.6535874770e-01	 3.4072804581e+00
 1.6165452119e+00	 1.7937358382e-01	 3.3779323914e+00
 1.6149250387e+00	 1.9341765812e-01	 3.3451957291e+00
 1.6131774181e+00	 2.0748944074e-01	 3.3091434125e+00
 1.6113014239e+00	 2.2158737617e-01	 3.2698930820e+00
 1.6092961514e+00	 2.3570988346e-01	 3.2276011634e+00
 1.6071607188e+00	 2.4985535653e-01	 3.1824557751e+00
 1.6048942673e+00	 2.6402216456e-01	 3.1346683770e+00
 1.6024959625e+00	 2.7820865222e-01	 3.0844640796e+00
 1.6294435933e+00	 1.3816837761e-01	 3.4228997659e+00
 1.6281932485e+00	 1.5219594886e-01	 3.4002556785e+00
 1.6268176838e+00	 1.6625591471e-01	 3.3744215471e+00
 1.6253159063e+00	 1.8034678944e-01	 3.3453236027e+00
 1.6236869427e+00	 1.9446706097e-01	 3.3129472092e+00
 1.6219298403e+00	 2.0861519117e-01	 3.2773334375e+00
 1.6200436677e+00	 2.2278961607e-01	 3.2385746061e+00
 1.6180275154e+00	 2.3698874614e-01	 3.1968087057e+00
 1.6158804968e+00	 2.5121096660e-01	 3.1522126241e+00
 1.6136017486e+00	 2.6545463777e-01	 3.1049940891e+00
 1.6111904315e+00	 2.7971809535e-01	 3.0553822455e+00
 1.6382365519e+00	 1.3891397496e-01	 3.3934880522e+00
 1.6369794599e+00	 1.5301724313e-01	 3.3706898060e+00
 1.6355964723e+00	 1.6715308071e-01	 3.3448507003e+00
 1.6340865907e+00	 1.8131999395e-01	 3.3158616355e+00
 1.6324488368e+00	 1.9551646264e-01	 3.2836786357e+00
 1.6306822525e+00	 2.0974094033e-01	 3.2483197980e+00
 1.6287859015e+00	 2.2399185461e-01	 3.2098611921e+00
 1.6267588695e+00	 2.3826760737e-01	 3.1684316278e+00
 1.6246002650e+00	 2.5256657514e-01	 3.1242062022e+00
 1.6223092199e+00	 2.6688710935e-01	 3.0773985401e+00
 1.6198848907e+00	 2.8122753676e-01	 3.0282516416e+00
 1.6470294956e+00	 1.3965957104e-01	 3.3676976743e+00
 1.6457656564e+00	 1.5383853600e-01	 3.3446916993e+00
 1.6443752458e+00	 1.6805024518e-01	 3.3187481514e+00
 1.6428572603e+00	 1.8229319681e-01	 3.2897309039e+00
 1.6412107159e+00	 1.9656586252e-01	 3.2575751130e+00
 1.6394346498e+00	 2.1086668757e-01	 3.2222845461e+00
 1.6375281206e+00	 2.2519409110e-01	 3.1839278474e+00
 1.6354902088e+00	 2.3954646643e-01	 3.1426336524e+00
 1.6333200183e+00	 2.5392218136e-01	 3.0985844619e+00
 1.6310166765e+00	 2.6831957851e-01	 3.0520091841e+00
 1.6285793351e+00	 2.8273697561e-01	 3.0031742570e+00
 1.6558224194e+00	 1.4040516544e-01	 3.3456853183e+00
 1.6545518329e+00	 1.5465982701e-01	 3.3224281294e+00
 1.6531539995e+00	 1.6894740761e-01	 3.2962878143e+00
 1.6516279099e+00	 1.8326639746e-01	 3.2671092712e+00
 1.6499725752e+00	 1.9761526003e-01	 3.2348150083e+00
 1.6481870273e+00	 2.1199243226e-01	 3.1994028578e+00
 1.6462703197e+00	 2.2639632486e-01	 3.1609426126e+00
 1.6442215283e+00	 2.4082532259e-01	 3.1195714934e+00
 1.6420397519e+00	 2.5527778452e-01	 3.0754883545e+00
 1.6397241134e+00	 2.6975204441e-01	 3.0289465334e+00
 1.6372737599e+00	 2.8424641104e-01	 2.9802452514e+00
 1.6646153182e+00	 1.4115075772e-01	 3.3276020675e+00
 1.6633379846e+00	 1.5548111569e-01	 3.3040599554e+00
 1.6619327282e+00	 1.6984456751e-01	 3.2776374237e+00
 1.6603985347e+00	 1.8423959536e-01	 3.2481681973e+00
 1.6587344097e+00	 1.9866465456e-01	 3.2155701067e+00
 1.6569393800e+00	 2.1311817376e-01	 3.1798431939e+00
 1.6550124942e+00	 2.2759855522e-01	 3.1410667265e+00
 1.6529528230e+00	 2.4210417513e-01	 3.0993950240e+00
 1.6507594608e+00	 2.5663338383e-01	 3.0550520010e+00
 1.6484315255e+00	 2.7118450626e-01	 3.0083243298e+00
 1.6459681599e+00	 2.8575584219e-01	 2.9595531242e+00
 1.6734081872e+00	 1.4189634747e-01	 3.3135935217e+00
 1.6721241064e+00	 1.5630240158e-01	 3.2897422521e+00
 1.6707114272e+00	 1.7074172435e-01	 3.2629586714e+00
 1.6691691297e+00	 1.8521278995e-01	 3.2330728838e+00
 1.6674962144e+00	 1.9971404552e-01	 3.2000057628e+00
 1.6656917030e+00	 2.1424391143e-01	 3.1637674569e+00
 1.6637546389e+00	 2.2880078150e-01	 3.1244547875e+00
 1.6616840881e+00	 2.4338302331e-01	 3.0822474416e+00
 1.6594791400e+00	 2.5798897854e-01	 3.0374028585e+00
 1.6571389081e+00	 2.7261696323e-01	 2.9902497112e+00
 1.6546625304e+00	 2.8726526821e-01	 2.9411798798e+00
 1.6822010213e+00	 1.4264193426e-01	 3.3037999130e+00
 1.6809101933e+00	 1.5712368422e-01	 3.2796244353e+00
 1.6794900913e+00	 1.7163887763e-01	 3.2524073404e+00
 1.6779396898e+00	 1.8618598067e-01	 3.2219824149e+00
 1.6762579843e+00	 2.0076343232e-01	 3.1882810483e+00
 1.6744439912e+00	 2.1536964464e-01	 3.1513311447e+00
 1.6724967489e+00	 2.3000300300e-01	 3.1112549124e+00
 1.6704153185e+00	 2.4466186643e-01	 3.0682654298e+00
 1.6681987847e+00	 2.5934456787e-01	 3.0226618839e+00
 1.6658462561e+00	 2.7404941453e-01	 2.9748233759e+00
 1.6633568665e+00	 2.8877468824e-01	 2.9252011916e+00
 1.6909938155e+00	 1.4338751767e-01	 3.2983562182e+00
 1.6896962404e+00	 1.5794496313e-01	 3.2738503838e+00
 1.6882687155e+00	 1.7253602685e-01	 3.2461334342e+00
 1.6867102102e+00	 1.8715916699e-01	 3.2150498949e+00
 1.6850197145e+00	 2.0181281437e-01	 3.1805488965e+00
 1.6831962397e+00	 2.1649537274e-01	 3.1426835007e+00
 1.6812388193e+00	 2.3120521906e-01	 3.1016088903e+00
 1.6791465094e+00	 2.4594070375e-01	 3.0575793162e+00
 1.6769183898e+00	 2.6070015105e-01	 3.0109436940e+00
 1.6745535646e+00	 2.7548185933e-01	 2.9621397436e+00
 1.6720511631e+00	 2.9028410143e-01	 2.9116865611e+00
 1.6997865649e+00	 1.4413309728e-01	 3.2973922690e+00
 1.6984822427e+00	 1.5876623785e-01	 3.2725585579e+00
 1.6970472951e+00	 1.7343317150e-01	 3.2442813047e+00
 1.6954806859e+00	 1.8813234834e-01	 3.2124225834e+00
 1.6937814001e+00	 2.0286219106e-01	 3.1769562435e+00
 1.6919484436e+00	 2.1762109510e-01	 3.1379676607e+00
 1.6899808451e+00	 2.3240742898e-01	 3.0956523351e+00
 1.6878776557e+00	 2.4721953454e-01	 3.0503132273e+00
 1.6856379504e+00	 2.6205572732e-01	 3.0023567232e+00
 1.6832608288e+00	 2.7691429682e-01	 2.9522871134e+00
 1.6807454153e+00	 2.9179350692e-01	 2.9006994761e+00
 1.5938014885e+00	 2.7669920824e-01	 3.1153881530e+00
 1.5912846913e+00	 2.9082422635e-01	 3.0615947231e+00
 1.5886352143e+00	 3.0496545179e-01	 3.0048190625e+00
 1.5858523025e+00	 3.1912117227e-01	 2.9458890418e+00
 1.5829352275e+00	 3.3328965288e-01	 2.8855772673e+00
 1.5798832881e+00	 3.4746913652e-01	 2.8245824298e+00
 1.5766958111e+00	 3.6165784435e-01	 2.7635089015e+00
 1.5733721522e+00	 3.7585397630e-01	 2.7024335566e+00
 1.5699116960e+00	 3.9005571159e-01	 2.6370787228e+00
 1.5663138575e+00	 4.0426120927e-01	 2.5651056951e+00
 1.5625780821e+00	 4.1846860876e-01	 2.4850853728e+00
 1.6024959625e+00	 2.7820865222e-01	 3.0844640796e+00
 1.5999654357e+00	 2.9241072485e-01	 3.0312549503e+00
 1.5973015053e+00	 3.0662909321e-01	 2.9749522744e+00
 1.5945034123e+00	 3.2086203570e-01	 2.9165344523e+00
 1.5915704241e+00	 3.3510780793e-01	 2.8569321195e+00
 1.5885018358e+00	 3.4936464320e-01	 2.7970093796e+00
 1.5852969706e+00	 3.6363075298e-01	 2.7375432353e+00
 1.5819551804e+00	 3.7790432738e-01	 2.6784318325e+00
 1.5784758469e+00	 3.9218353570e-01	 2.6153571981e+00
 1.5748583815e+00	 4.0646652693e-01	 2.5464520523e+00
 1.5711022268e+00	 4.2075143034e-01	 2.4703670607e+00
 1.6111904315e+00	 2.7971809535e-01	 3.0553822455e+00
 1.6086461751e+00	 2.9399722245e-01	 3.0026819268e+00
 1.6059677914e+00	 3.0829273370e-01	 2.9467780291e+00
 1.6031545171e+00	 3.2260289814e-01	 2.8887858204e+00
 1.6002056158e+00	 3.3692596194e-01	 2.8297806430e+00
 1.5971203786e+00	 3.5126014880e-01	 2.7707790630e+00
 1.5938981251e+00	 3.6560366050e-01	 2.7127181684e+00
 1.5905382038e+00	 3.7995467731e-01	 2.6552016411e+00
 1.5870399929e+00	 3.9431135861e-01	 2.5940602455e+00
 1.5834029007e+00	 4.0867184334e-01	 2.5277811825e+00
 1.5796263666e+00	 4.2303425063e-01	 2.4550851310e+00
 1.6198848907e+00	 2.8122753676e-01	 3.0282516416e+00
 1.6173269048e+00	 2.9558371825e-01	 2.9759569819e+00
 1.6146340677e+00	 3.0995637230e-01	 2.9203511181e+00
 1.6118056121e+00	 3.2434375861e-01	 2.8626727082e+00
 1.6088407976e+00	 3.3874411389e-01	 2.8041286695e+00
 1.6057389116e+00	 3.5315565226e-01	 2.7458752776e+00
 1.6024992699e+00	 3.6757656578e-01	 2.6889973641e+00
 1.5991212175e+00	 3.8200502492e-01	 2.6326948914e+00
 1.5956041292e+00	 3.9643917910e-01	 2.5731267977e+00
 1.5919474102e+00	 4.1087715725e-01	 2.5090230522e+00
 1.5881504968e+00	 4.2531706833e-01	 2.4391649830e+00
 1.6285793351e+00	 2.8273697561e-01	 3.0031742570e+00
 1.6260076197e+00	 2.9717021135e-01	 2.9511545449e+00
 1.6233003293e+00	 3.1162000807e-01	 2.8957194491e+00
 1.6204566925e+00	 3.2608461613e-01	 2.8382177182e+00
 1.6174759649e+00	 3.4056226275e-01	 2.7799748961e+00
 1.6143574300e+00	 3.5505115249e-01	 2.7222744046e+00
 1.6111004001e+00	 3.6954946770e-01	 2.6663366718e+00
 1.6077042166e+00	 3.8405536903e-01	 2.6108560315e+00
 1.6041682509e+00	 3.9856699598e-01	 2.5524879502e+00
 1.6004919051e+00	 4.1308246741e-01	 2.4900993462e+00
 1.5966746125e+00	 4.2759988214e-01	 2.4225232206e+00
 1.6372737599e+00	 2.8424641104e-01	 2.9802452514e+00
 1.6346883149e+00	 2.9875670086e-01	 2.9283423148e+00
 1.6319665712e+00	 3.1328364007e-01	 2.8729242166e+00
 1.6291077532e+00	 3.2782546969e-01	 2.8154366661e+00
 1.6261111125e+00	 3.4238040749e-01	 2.7573110618e+00
 1.6229759289e+00	 3.5694664843e-01	 2.6999455897e+00
 1.6197015108e+00	 3.7152236516e-01	 2.6446703338e+00
 1.6162871963e+00	 3.8610570850e-01	 2.5896222317e+00
 1.6127323533e+00	 4.0069480803e-01	 2.5320671626e+00
 1.6090363807e+00	 4.1528777257e-01	 2.4709236921e+00
 1.6051987089e+00	 4.2988269079e-01	 2.4050679018e+00
 1.6459681599e+00	 2.8575584219e-01	 2.9595531242e+00
 1.6433689855e+00	 3.0034318587e-01	 2.9075814283e+00
 1.6406327886e+00	 3.1494726736e-01	 2.8520000691e+00
 1.6377587894e+00	 3.2956631833e-01	 2.7943387501e+00
 1.6347462357e+00	 3.4419854708e-01	 2.7361221203e+00
 1.6315944033e+00	 3.5884213900e-01	 2.6788509230e+00
 1.6283025971e+00	 3.7349525702e-01	 2.6238775187e+00
 1.6248701516e+00	 3.8815604216e-01	 2.5689235650e+00
 1.6212964313e+00	 4.0282261406e-01	 2.5117804577e+00
 1.6175808321e+00	 4.1749307148e-01	 2.4514018804e+00
 1.6137227811e+00	 4.3216549296e-01	 2.3866987845e+00
 1.6546625304e+00	 2.8726526821e-01	 2.9411798798e+00
 1.6520496266e+00	 3.0192966549e-01	 2.8889266242e+00
 1.6492989764e+00	 3.1661088899e-01	 2.8329752745e+00
 1.6464097962e+00	 3.3130716104e-01	 2.7749267178e+00
 1.6433813295e+00	 3.4601668049e-01	 2.7163864112e+00
 1.6402128484e+00	 3.6073762312e-01	 2.6589456159e+00
 1.6369036542e+00	 3.7546814218e-01	 2.6038908547e+00
 1.6334530777e+00	 3.9020636885e-01	 2.5486831844e+00
 1.6298604803e+00	 4.0495041285e-01	 2.4915366170e+00
 1.6261252544e+00	 4.1969836290e-01	 2.4314320816e+00
 1.6222468243e+00	 4.3444828738e-01	 2.3673075683e+00
 1.6633568665e+00	 2.8877468824e-01	 2.9252011916e+00
 1.6607302332e+00	 3.0351613881e-01	 2.8724264050e+00
 1.6579651300e+00	 3.1827450402e-01	 2.8158718822e+00
 1.6550607686e+00	 3.3304799685e-01	 2.7571970310e+00
 1.6520163890e+00	 3.4783480668e-01	 2.6980758288e+00
 1.6488312594e+00	 3.6263309972e-01	 2.6401781753e+00
 1.6455046771e+00	 3.7744101951e-01	 2.5846447472e+00
 1.6420359698e+00	 3.9225668741e-01	 2.5288174983e+00
 1.6384244952e+00	 4.0707820320e-01	 2.4712373738e+00
 1.6346696428e+00	 4.2190364556e-01	 2.4109050608e+00
 1.6307708338e+00	 4.3673107273e-01	 2.3467781336e+00
 1.6720511631e+00	 2.9028410143e-01	 2.9116865611e+00
 1.6694108005e+00	 3.0510260495e-01	 2.8581231966e+00
 1.6666312442e+00	 3.1993811150e-01	 2.8007058832e+00
 1.6637117019e+00	 3.3478882476e-01	 2.7411400280e+00
 1.6606514094e+00	 3.4965292463e-01	 2.6811559881e+00
 1.6574496312e+00	 3.6452856773e-01	 2.6224905761e+00
 1.6541056611e+00	 3.7941388789e-01	 2.5660672665e+00
 1.6506188229e+00	 3.9430699667e-01	 2.5092363429e+00
 1.6469884714e+00	 4.0920598390e-01	 2.4507776036e+00
 1.6432139925e+00	 4.2410891823e-01	 2.3897043883e+00
 1.6392948045e+00	 4.3901384774e-01	 2.3249867766e+00
 1.6807454153e+00	 2.9179350692e-01	 2.9006994761e+00
 1.6780913235e+00	 3.0668906299e-01	 2.8460535050e+00
 1.6752973142e+00	 3.2160171051e-01	 2.7874873674e+00
 1.6723625910e+00	 3.3652964380e-01	 2.7267400836e+00
 1.6692863858e+00	 3.5147103331e-01	 2.6655863894e+00
 1.6660679591e+00	 3.6642402607e-01	 2.6058184313e+00
 1.6627066012e+00	 3.8138674621e-01	 2.5480803032e+00
 1.6592016323e+00	 3.9635729548e-01	 2.4898431527e+00
 1.6555524039e+00	 4.1133375375e-01	 2.4300455115e+00
 1.6517582986e+00	 4.2631417965e-01	 2.3677066482e+00
 1.6478187318e+00	 4.4129661111e-01	 2.3018024415e+00
 1.5625780821e+00	 4.1846860876e-01	 2.4850853728e+00
 1.5587038468e+00	 4.3267603064e-01	 2.3993608577e+00
 1.5546906618e+00	 4.4688157787e-01	 2.3115742814e+00
 1.5505380703e+00	 4.6108333583e-01	 2.2221685656e+00
 1.5462456483e+00	 4.7527937279e-01	 2.1315246693e+00
 1.5418130057e+00	 4.8946774058e-01	 2.0399624010e+00
 1.5372397864e+00	 5.0364647525e-01	 1.9477421834e+00
 1.5325256694e+00	 5.1781359778e-01	 1.8550678463e+00
 1.5276703685e+00	 5.3196711483e-01	 1.7620905179e+00
 1.5226736338e+00	 5.4610501945e-01	 1.6689136778e+00
 1.5175352514e+00	 5.6022529188e-01	 1.5755994319e+00
 1.5711022268e+00	 4.2075143034e-01	 2.4703670607e+00
 1.5672068568e+00	 4.3503635627e-01	 2.3891799173e+00
 1.5631717792e+00	 4.4931939731e-01	 2.3060873319e+00
 1.5589965345e+00	 4.6359862841e-01	 2.2213418604e+00
 1.5546806966e+00	 4.7787210732e-01	 2.1351348939e+00
 1.5502238731e+00	 4.9213787521e-01	 2.0475974628e+00
 1.5456257061e+00	 5.0639395742e-01	 1.9588020351e+00
 1.5408858727e+00	 5.2063836415e-01	 1.8687653856e+00
 1.5360040853e+00	 5.3486909118e-01	 1.7774526105e+00
 1.5309800925e+00	 5.4908412062e-01	 1.6847823547e+00
 1.5258136793e+00	 5.6328142167e-01	 1.5906333114e+00
 1.5796263666e+00	 4.2303425063e-01	 2.4550851310e+00
 1.5757098620e+00	 4.3739668055e-01	 2.3778205950e+00
 1.5716528918e+00	 4.5175721537e-01	 2.2988064230e+00
 1.5674549940e+00	 4.6611391957e-01	 2.2181418066e+00
 1.5631157401e+00	 4.8046484037e-01	 2.1358650954e+00
 1.5586347358e+00	 4.9480800831e-01	 2.0519545271e+00
 1.5540116211e+00	 5.0914143803e-01	 1.9663299936e+00
 1.5492460713e+00	 5.2346312893e-01	 1.8788559222e+00
 1.5443377974e+00	 5.3777106590e-01	 1.7893453512e+00
 1.5392865465e+00	 5.5206322010e-01	 1.6975652685e+00
 1.5340921025e+00	 5.6633754974e-01	 1.6032432782e+00
 1.5881504968e+00	 4.2531706833e-01	 2.4391649830e+00
 1.5842128576e+00	 4.3975700216e-01	 2.3652011276e+00
 1.5801339947e+00	 4.5419503066e-01	 2.2896325034e+00
 1.5759134438e+00	 4.6862920788e-01	 2.2124415152e+00
 1.5715507741e+00	 4.8305757048e-01	 2.1335495683e+00
 1.5670455889e+00	 4.9747813840e-01	 2.0528176589e+00
 1.5623975266e+00	 5.1188891553e-01	 1.9700480405e+00
 1.5576062605e+00	 5.2628789050e-01	 1.8849870544e+00
 1.5526715001e+00	 5.4067303732e-01	 1.7973292022e+00
 1.5475929911e+00	 5.5504231621e-01	 1.7067225353e+00
 1.5423705164e+00	 5.6939367434e-01	 1.6127754278e+00
 1.5966746125e+00	 4.2759988214e-01	 2.4225232206e+00
 1.5927158387e+00	 4.4211731976e-01	 2.3512305269e+00
 1.5886150833e+00	 4.5663284181e-01	 2.2784571167e+00
 1.5843718793e+00	 4.7114449192e-01	 2.2041047760e+00
 1.5799857937e+00	 4.8565029619e-01	 2.1280136480e+00
 1.5754564278e+00	 5.0014826394e-01	 2.0499626157e+00
 1.5707834178e+00	 5.1463638836e-01	 1.9696708048e+00
 1.5659664354e+00	 5.2911264727e-01	 1.8868002978e+00
 1.5610051885e+00	 5.4357500381e-01	 1.8009601412e+00
 1.5558994216e+00	 5.5802140725e-01	 1.7117117240e+00
 1.5506489162e+00	 5.7244979375e-01	 1.6185755978e+00
 1.6051987089e+00	 4.2988269079e-01	 2.4050679018e+00
 1.6012188005e+00	 4.4447763201e-01	 2.3358088544e+00
 1.5970961526e+00	 4.5907064744e-01	 2.2651626972e+00
 1.5928302956e+00	 4.7365977025e-01	 2.1929863695e+00
 1.5884207942e+00	 4.8824301602e-01	 2.1190740314e+00
 1.5838672476e+00	 5.0281838343e-01	 2.0431571726e+00
 1.5791692900e+00	 5.1738385496e-01	 1.9649058864e+00
 1.5743265914e+00	 5.3193739763e-01	 1.8839314019e+00
 1.5693388581e+00	 5.4647696372e-01	 1.7997899636e+00
 1.5642058333e+00	 5.6100049153e-01	 1.7119881378e+00
 1.5589272972e+00	 5.7550590622e-01	 1.6199896202e+00
 1.6137227811e+00	 4.3216549296e-01	 2.3866987845e+00
 1.6097217383e+00	 4.4683793757e-01	 2.3188274914e+00
 1.6055771979e+00	 4.6150844616e-01	 2.2496228607e+00
 1.6012886880e+00	 4.7617504145e-01	 2.1789323728e+00
 1.5968557708e+00	 4.9083572850e-01	 2.1065390941e+00
 1.5922780435e+00	 5.0548849535e-01	 2.0321614449e+00
 1.5875551384e+00	 5.2013131378e-01	 1.9554541777e+00
 1.5826867237e+00	 5.3476213999e-01	 1.8760106642e+00
 1.5776725041e+00	 5.4937891540e-01	 1.7933665835e+00
 1.5725122214e+00	 5.6397956738e-01	 1.7070050953e+00
 1.5672056547e+00	 5.7856201004e-01	 1.6163635756e+00
 1.6222468243e+00	 4.3444828738e-01	 2.3673075683e+00
 1.6182246471e+00	 4.4919823510e-01	 2.3001694068e+00
 1.6140582143e+00	 4.6394623659e-01	 2.2317026915e+00
 1.6097470516e+00	 4.7869030411e-01	 2.1617804619e+00
 1.6052907188e+00	 4.9342843217e-01	 2.0902092032e+00
 1.6006888109e+00	 5.0815859820e-01	 2.0167282054e+00
 1.5959409583e+00	 5.2287876325e-01	 1.9410101811e+00
 1.5910468275e+00	 5.3758687275e-01	 1.8626632421e+00
 1.5860061218e+00	 5.5228085722e-01	 1.7812343333e+00
 1.5808185813e+00	 5.6695863310e-01	 1.6962142113e+00
 1.5754839841e+00	 5.8161810347e-01	 1.6070440494e+00
 1.6307708338e+00	 4.3673107273e-01	 2.3467781336e+00
 1.6267275222e+00	 4.5155852327e-01	 2.2797094188e+00
 1.6225391971e+00	 4.6638401734e-01	 2.2112590251e+00
 1.6182053816e+00	 4.8120555678e-01	 2.1413602107e+00
 1.6137256332e+00	 4.9602112555e-01	 2.0698770263e+00
 1.6090995449e+00	 5.1082869045e-01	 1.9966031996e+00
 1.6043267450e+00	 5.2562620183e-01	 1.9212623242e+00
 1.5994068982e+00	 5.4041159430e-01	 1.8435094626e+00
 1.5943397063e+00	 5.5518278753e-01	 1.7629342622e+00
 1.5891249082e+00	 5.6993768700e-01	 1.6790656782e+00
 1.5837622807e+00	 5.8467418477e-01	 1.5913783886e+00
 1.6392948045e+00	 4.3901384774e-01	 2.3249867766e+00
 1.6352303588e+00	 4.5391880074e-01	 2.2573144550e+00
 1.6310201415e+00	 4.6882178705e-01	 2.1881407274e+00
 1.6266636733e+00	 4.8372079805e-01	 2.1174933846e+00
 1.6221605095e+00	 4.9861380718e-01	 2.0453278373e+00
 1.6175102407e+00	 5.1349877060e-01	 1.9715254571e+00
 1.6127124936e+00	 5.2837362795e-01	 1.8958932721e+00
 1.6077669310e+00	 5.4323630305e-01	 1.8181651299e+00
 1.6026732531e+00	 5.5808470469e-01	 1.7380044336e+00
 1.5974311975e+00	 5.7291672739e-01	 1.6550085471e+00
 1.5920405398e+00	 5.8773025222e-01	 1.5687149612e+00
 1.6478187318e+00	 4.4129661111e-01	 2.3018024415e+00
 1.6437331520e+00	 4.5627906618e-01	 2.2328438074e+00
 1.6395010426e+00	 4.7125954432e-01	 2.1621889698e+00
 1.6351219218e+00	 4.8623602649e-01	 2.0899942321e+00
 1.6305953427e+00	 5.0120647558e-01	 2.0163398176e+00
 1.6259208937e+00	 5.1616883713e-01	 1.9412275995e+00
 1.6210981995e+00	 5.3112104005e-01	 1.8645802365e+00
 1.6161269212e+00	 5.4606099739e-01	 1.7862418310e+00
 1.6110067574e+00	 5.6098660704e-01	 1.7059802212e+00
 1.6057374444e+00	 5.7589575259e-01	 1.6234910087e+00
 1.6003187566e+00	 5.9078630409e-01	 1.5384034157e+00
 1.5175352514e+00	 5.6022529188e-01	 1.5755994319e+00
 1.5122541343e+00	 5.7432829563e-01	 1.4850612599e+00
 1.5068310035e+00	 5.8840958390e-01	 1.4001186389e+00
 1.5012657558e+00	 6.0246710142e-01	 1.3206053094e+00
 1.4955583263e+00	 6.1649878331e-01	 1.2463473233e+00
 1.4897086883e+00	 6.3050255592e-01	 1.1771764489e+00
 1.4837168546e+00	 6.4447633766e-01	 1.1129449863e+00
 1.4775828767e+00	 6.5841803993e-01	 1.0499380404e+00
 1.4713068460e+00	 6.7232556799e-01	 9.7562760457e-01
 1.4648888939e+00	 6.8619682187e-01	 8.9040079000e-01
 1.4583291918e+00	 7.0002969732e-01	 7.9614541351e-01
 1.5258136793e+00	 5.6328142167e-01	 1.5906333114e+00
 1.5205037528e+00	 5.7746135985e-01	 1.4977407076e+00
 1.5150510379e+00	 5.9161946408e-01	 1.4089256438e+00
 1.5094554307e+00	 6.0575366789e-01	 1.3241064538e+00
 1.5037168661e+00	 6.1986189513e-01	 1.2431908178e+00
 1.4978353174e+00	 6.3394206084e-01	 1.1660892475e+00
 1.4918107970e+00	 6.4799207207e-01	 1.0927300441e+00
 1.4856433572e+00	 6.6200982884e-01	 1.0230757256e+00
 1.4793330897e+00	 6.7599322497e-01	 9.5611026067e-01
 1.4728801265e+00	 6.8994014904e-01	 8.7942425990e-01
 1.4662846400e+00	 7.0384848532e-01	 7.9091962561e-01
 1.5340921025e+00	 5.6633754974e-01	 1.6032432782e+00
 1.5287533666e+00	 5.8059442230e-01	 1.5089079522e+00
 1.5232710675e+00	 5.9482934244e-01	 1.4173161367e+00
 1.5176451010e+00	 6.0904023250e-01	 1.3284466115e+00
 1.5118754013e+00	 6.2322500505e-01	 1.2422645763e+00
 1.5059619418e+00	 6.3738156381e-01	 1.1587352536e+00
 1.4999047349e+00	 6.5150780450e-01	 1.0778390304e+00
 1.4937038332e+00	 6.6560161572e-01	 9.9958813649e-01
 1.4873593288e+00	 6.7966087987e-01	 9.2404484264e-01
 1.4808713545e+00	 6.9368347409e-01	 8.5126234196e-01
 1.4742400837e+00	 7.0766727115e-01	 7.7139127839e-01
 1.5423705164e+00	 5.6939367434e-01	 1.6127754278e+00
 1.5370029711e+00	 5.8372748119e-01	 1.5177920565e+00
 1.5314910879e+00	 5.9803921717e-01	 1.4244104457e+00
 1.5258347620e+00	 6.1232679338e-01	 1.3326461090e+00
 1.5200339273e+00	 6.2658811115e-01	 1.2424980776e+00
 1.5140885570e+00	 6.4082106288e-01	 1.1539626564e+00
 1.5079986637e+00	 6.5502353294e-01	 1.0670487913e+00
 1.5017643000e+00	 6.6919339852e-01	 9.8179504007e-01
 1.4953855588e+00	 6.8332853062e-01	 8.9828813501e-01
 1.4888625735e+00	 6.9742679489e-01	 8.1668310662e-01
 1.4821955184e+00	 7.1148605264e-01	 7.3722492762e-01
 1.5506489162e+00	 5.7244979375e-01	 1.6185755978e+00
 1.5452525615e+00	 5.8686053476e-01	 1.5236242377e+00
 1.5397110943e+00	 6.0124908643e-01	 1.4293333489e+00
 1.5340244090e+00	 6.1561334867e-01	 1.3357318933e+00
 1.5281924394e+00	 6.2995121153e-01	 1.2428294544e+00
 1.5222151584e+00	 6.4426055611e-01	 1.1506301869e+00
 1.5160925786e+00	 6.5853925540e-01	 1.0591484467e+00
 1.5098247531e+00	 6.7278517522e-01	 9.6842609822e-01
 1.5034117752e+00	 6.8699617512e-01	 8.7855148540e-01
 1.4968537789e+00	 7.0117010933e-01	 7.8968003728e-01
 1.4901509396e+00	 7.1530482765e-01	 7.0205646612e-01
 1.5589272972e+00	 5.7550590622e-01	 1.6199896202e+00
 1.5535021333e+00	 5.8999358122e-01	 1.5256380908e+00
 1.5479310820e+00	 6.0445894843e-01	 1.4312142746e+00
 1.5422140375e+00	 6.1889989652e-01	 1.3367377115e+00
 1.5363509330e+00	 6.3331430430e-01	 1.2422056604e+00
 1.5303417413e+00	 6.4770004154e-01	 1.1476072774e+00
 1.5241864753e+00	 6.6205496989e-01	 1.0529395487e+00
 1.5178851880e+00	 6.7637694377e-01	 9.5822497592e-01
 1.5114379733e+00	 6.9066381132e-01	 8.6353100039e-01
 1.5048449662e+00	 7.0491341528e-01	 7.6899113743e-01
 1.4981063427e+00	 7.1912359400e-01	 6.7482777832e-01
 1.5672056547e+00	 5.7856201004e-01	 1.6163635756e+00
 1.5617516816e+00	 5.9312661881e-01	 1.5230698151e+00
 1.5561510465e+00	 6.0766880132e-01	 1.4291875037e+00
 1.5504036428e+00	 6.2218643505e-01	 1.3347042972e+00
 1.5445094035e+00	 6.3667738753e-01	 1.2395826440e+00
 1.5384683013e+00	 6.5113951722e-01	 1.1437742292e+00
 1.5322803489e+00	 6.6557067442e-01	 1.0472362486e+00
 1.5259456000e+00	 6.7996870215e-01	 9.4994951409e-01
 1.5194641488e+00	 6.9433143712e-01	 8.5193837549e-01
 1.5128361308e+00	 7.0865671063e-01	 7.5329243074e-01
 1.5060617233e+00	 7.2294234953e-01	 6.5418998104e-01
 1.5754839841e+00	 5.8161810347e-01	 1.6070440494e+00
 1.5700012019e+00	 5.9625964575e-01	 1.5151584439e+00
 1.5643709830e+00	 6.1087864331e-01	 1.4223923787e+00
 1.5585932203e+00	 6.2547296241e-01	 1.3286795623e+00
 1.5526678463e+00	 6.4004045933e-01	 1.2339255298e+00
 1.5465948336e+00	 6.5457898121e-01	 1.1380223886e+00
 1.5403741951e+00	 6.6908636699e-01	 1.0408654732e+00
 1.5340059846e+00	 6.8356044832e-01	 9.4237191176e-01
 1.5274902969e+00	 6.9799905045e-01	 8.4250108961e-01
 1.5208272683e+00	 7.1239999324e-01	 7.4127698210e-01
 1.5140170769e+00	 7.2676109208e-01	 6.3881231260e-01
 1.5837622807e+00	 5.8467418477e-01	 1.5913783886e+00
 1.5782506895e+00	 5.9939266026e-01	 1.5011460763e+00
 1.5725908869e+00	 6.1408847256e-01	 1.4099735159e+00
 1.5667827652e+00	 6.2875947673e-01	 1.3177187947e+00
 1.5608262567e+00	 6.4340351778e-01	 1.2242088056e+00
 1.5547213337e+00	 6.5801843155e-01	 1.1292543293e+00
 1.5484680092e+00	 6.7260204562e-01	 1.0326671086e+00
 1.5420663372e+00	 6.8715218024e-01	 9.3427891727e-01
 1.5355164132e+00	 7.0166664924e-01	 8.3396260903e-01
 1.5288183741e+00	 7.1614326101e-01	 7.3165512039e-01
 1.5219723988e+00	 7.3057981947e-01	 6.2738238064e-01
 1.5920405398e+00	 5.8773025222e-01	 1.5687149612e+00
 1.5865001397e+00	 6.0252566056e-01	 1.4802781136e+00
 1.5808107535e+00	 6.1729828726e-01	 1.3910810221e+00
 1.5749722730e+00	 6.3204597615e-01	 1.3008848609e+00
 1.5689846301e+00	 6.4676656100e-01	 1.2094165170e+00
 1.5628477969e+00	 6.6145786631e-01	 1.1163840437e+00
 1.5565617865e+00	 6.7611770832e-01	 1.0214941933e+00
 1.5501266533e+00	 6.9074389587e-01	 9.2447202810e-01
 1.5435424931e+00	 7.0533423139e-01	 8.2508260042e-01
 1.5368094436e+00	 7.1988651181e-01	 7.2315467065e-01
 1.5299276848e+00	 7.3439852956e-01	 6.1860641940e-01
 1.6003187566e+00	 5.9078630409e-01	 1.5384034157e+00
 1.5947495478e+00	 6.0565864489e-01	 1.4518034965e+00
 1.5890305782e+00	 6.2050808558e-01	 1.3648707150e+00
 1.5831617391e+00	 6.3533245882e-01	 1.2772484142e+00
 1.5771429619e+00	 6.5012958706e-01	 1.1885424674e+00
 1.5709742187e+00	 6.6489728352e-01	 1.0983371403e+00
 1.5646555226e+00	 6.7963335308e-01	 1.0062131176e+00
 1.5581869283e+00	 6.9433559319e-01	 9.1176769910e-01
 1.5515685321e+00	 7.0900179485e-01	 8.1463715266e-01
 1.5448004724e+00	 7.2362974352e-01	 7.1452119520e-01
 1.5378829301e+00	 7.3821722017e-01	 6.1120955615e-01
 1.4583291918e+00	 7.0002969732e-01	 7.9614541351e-01
 1.4516291026e+00	 7.1381974571e-01	 6.9831129734e-01
 1.4447877749e+00	 7.2756721209e-01	 6.0151498683e-01
 1.4378055012e+00	 7.4126998530e-01	 5.0683933711e-01
 1.4306826148e+00	 7.5492595365e-01	 4.1150446756e-01
 1.4234194906e+00	 7.6853300592e-01	 3.1346402178e-01
 1.4160165444e+00	 7.8208903234e-01	 2.1428073296e-01
 1.4084742337e+00	 7.9559192559e-01	 1.1562543902e-01
 1.4007930576e+00	 8.0903958181e-01	 1.9271639782e-02
 1.3929735565e+00	 8.2242990157e-01	-7.2910600962e-02
 1.3850163128e+00	 8.3576079094e-01	-1.5896141990e-01
 1.4662846400e+00	 7.0384848532e-01	 7.9091962561e-01
 1.4595480006e+00	 7.1771376089e-01	 6.9668684240e-01
 1.4526693522e+00	 7.3153622218e-01	 6.0212955239e-01
 1.4456489890e+00	 7.4531374649e-01	 5.0818992559e-01
 1.4384872460e+00	 7.5904421060e-01	 4.1082383532e-01
 1.4311845001e+00	 7.7272549179e-01	 3.1004419404e-01
 1.4237411695e+00	 7.8635546877e-01	 2.0770815627e-01
 1.4161577141e+00	 7.9993202274e-01	 1.0577951651e-01
 1.4084346358e+00	 8.1345303834e-01	 6.3228495546e-03
 1.4005724780e+00	 8.2691640471e-01	-8.8503020692e-02
 1.3925718260e+00	 8.4032001648e-01	-1.7645223534e-01
 1.4742400837e+00	 7.0766727115e-01	 7.7139127839e-01
 1.4674668941e+00	 7.2160777388e-01	 6.8354379594e-01
 1.4605509251e+00	 7.3550523002e-01	 5.9386087510e-01
 1.4534924723e+00	 7.4935750538e-01	 5.0241637326e-01
 1.4462918727e+00	 7.6316246522e-01	 4.0518892198e-01
 1.4389495052e+00	 7.7691797528e-01	 3.0362250872e-01
 1.4314657902e+00	 7.9062190279e-01	 1.9983737292e-01
 1.4238411902e+00	 8.0427211742e-01	 9.6059353945e-02
 1.4160762097e+00	 8.1786649237e-01	-5.3863347562e-03
 1.4081713952e+00	 8.3140290530e-01	-1.0208201957e-01
 1.4001273350e+00	 8.4487923943e-01	-1.9152518078e-01
 1.4821955184e+00	 7.1148605264e-01	 7.3722492762e-01
 1.4753857787e+00	 7.2550178244e-01	 6.5842859019e-01
 1.4684324891e+00	 7.3947423337e-01	 5.7623798819e-01
 1.4613359468e+00	 7.5340125969e-01	 4.8901834271e-01
 1.4540964906e+00	 7.6728071517e-01	 3.9411423453e-01
 1.4467145015e+00	 7.8111045402e-01	 2.9373520293e-01
 1.4391904022e+00	 7.9488833197e-01	 1.9023370901e-01
 1.4315246576e+00	 8.0861220719e-01	 8.6067197787e-02
 1.4237177750e+00	 8.2227994140e-01	-1.6208443211e-02
 1.4157703037e+00	 8.3588940081e-01	-1.1394613032e-01
 1.4076828354e+00	 8.4943845722e-01	-2.0441554811e-01
 1.4901509396e+00	 7.1530482765e-01	 7.0205646612e-01
 1.4833046498e+00	 7.2939578439e-01	 6.2147954127e-01
 1.4763140396e+00	 7.4344322996e-01	 5.4862686729e-01
 1.4691794079e+00	 7.5744500713e-01	 4.6750373151e-01
 1.4619010953e+00	 7.7139895812e-01	 3.7712249494e-01
 1.4544794846e+00	 7.8530292564e-01	 2.7992654562e-01
 1.4469150010e+00	 7.9915475390e-01	 1.7847016328e-01
 1.4392081119e+00	 8.1295228958e-01	 7.5412418855e-02
 1.4313593273e+00	 8.2669338292e-01	-2.6489631698e-02
 1.4233691993e+00	 8.4037588869e-01	-1.2438847627e-01
 1.4152383230e+00	 8.5399766725e-01	-2.1535441171e-01
 1.4981063427e+00	 7.1912359400e-01	 6.7482777832e-01
 1.4912235029e+00	 7.3328977751e-01	 5.8728074675e-01
 1.4841955723e+00	 7.4741221756e-01	 5.1128678521e-01
 1.4770228512e+00	 7.6148874540e-01	 4.3738887128e-01
 1.4697056822e+00	 7.7551719173e-01	 3.5374486420e-01
 1.4622444501e+00	 7.8949538775e-01	 2.6174909049e-01
 1.4546395824e+00	 8.0342116615e-01	 1.6412769277e-01
 1.4468915489e+00	 8.1729236213e-01	 6.3711835147e-02
 1.4390008622e+00	 8.3110681444e-01	-3.6569317411e-02
 1.4309680777e+00	 8.4486236640e-01	-1.3369636029e-01
 1.4227937935e+00	 8.5855686695e-01	-2.2456816578e-01
 1.5060617233e+00	 7.2294234953e-01	 6.5418998104e-01
 1.4991423336e+00	 7.3718375960e-01	 5.6125530328e-01
 1.4920770827e+00	 7.5138119391e-01	 4.7843398311e-01
 1.4848662724e+00	 7.6553247221e-01	 3.9994814376e-01
 1.4775102470e+00	 7.7963541367e-01	 3.2352117636e-01
 1.4700093936e+00	 7.9368783798e-01	 2.3876393828e-01
 1.4623641418e+00	 8.0768756632e-01	 1.4679550742e-01
 1.4545749640e+00	 8.2163242239e-01	 5.0590042700e-02
 1.4466423755e+00	 8.3552023346e-01	-4.6779807229e-02
 1.4385669346e+00	 8.4934883140e-01	-1.4215084777e-01
 1.4303492425e+00	 8.6311605373e-01	-2.3227805698e-01
 1.5140170769e+00	 7.2676109208e-01	 6.3881231260e-01
 1.5070611374e+00	 7.4107772844e-01	 5.4205368641e-01
 1.4999585662e+00	 7.5535015677e-01	 4.5324086103e-01
 1.4927096668e+00	 7.6957618527e-01	 3.6847383879e-01
 1.4853147853e+00	 7.8375362161e-01	 2.8805756156e-01
 1.4777743108e+00	 7.9788027396e-01	 2.1054100817e-01
 1.4700886750e+00	 8.1195395198e-01	 1.2607137296e-01
 1.4622583530e+00	 8.2597246788e-01	 3.5679754189e-02
 1.4542838628e+00	 8.3993363747e-01	-5.7445919254e-02
 1.4461657657e+00	 8.5383528115e-01	-1.5002634373e-01
 1.4379046659e+00	 8.6767522501e-01	-2.3869971237e-01
 1.5219723988e+00	 7.3057981947e-01	 6.2738238064e-01
 1.5149799098e+00	 7.4497168184e-01	 5.2797155111e-01
 1.5078400185e+00	 7.5931910388e-01	 4.3439599799e-01
 1.5005530302e+00	 7.7361988229e-01	 3.4477366375e-01
 1.4931192927e+00	 7.8787181322e-01	 2.5943912325e-01
 1.4855391971e+00	 8.0207269330e-01	 1.7876165755e-01
 1.4778131775e+00	 8.1622032071e-01	 1.0156192218e-01
 1.4699417115e+00	 8.3031249616e-01	 1.8622144962e-02
 1.4619253198e+00	 8.4434702397e-01	-6.8884597782e-02
 1.4537645665e+00	 8.5832171309e-01	-1.5759016449e-01
 1.4454600592e+00	 8.7223437821e-01	-2.4404266319e-01
 1.5299276848e+00	 7.3439852956e-01	 6.1860641940e-01
 1.5228986463e+00	 7.4886561759e-01	 5.1744921992e-01
 1.5157214351e+00	 7.6328803300e-01	 4.2061938075e-01
 1.5083963579e+00	 7.7766356098e-01	 3.2758732456e-01
 1.5009237646e+00	 7.9198998615e-01	 2.3868754359e-01
 1.4933040482e+00	 8.0626509364e-01	 1.5428500613e-01
 1.4855376451e+00	 8.2048667011e-01	 7.4787057344e-02
 1.4776250352e+00	 8.3465250477e-01	-9.3279377106e-04
 1.4695667422e+00	 8.4876039046e-01	-8.1404521951e-02
 1.4613633330e+00	 8.6280812470e-01	-1.6510210390e-01
 1.4530154184e+00	 8.7679351073e-01	-2.4850986420e-01
 1.5378829301e+00	 7.3821722017e-01	 6.1120955615e-01
 1.5308173424e+00	 7.5275953348e-01	 5.0922318168e-01
 1.5236028115e+00	 7.6725694188e-01	 4.1066176393e-01
 1.5162396457e+00	 7.8170721905e-01	 3.1568520099e-01
 1.5087281967e+00	 7.9610813808e-01	 2.2459863015e-01
 1.5010688597e+00	 8.1045747260e-01	 1.3773355166e-01
 1.4932620732e+00	 8.2475299774e-01	 5.5460017691e-02
 1.4853083198e+00	 8.3899249124e-01	-2.1800415192e-02
 1.4772081256e+00	 8.5317373444e-01	-9.5305708310e-02
 1.4689620607e+00	 8.6729451342e-01	-1.7281399455e-01
 1.4605707390e+00	 8.8135262000e-01	-2.5229720922e-01
 1.3850163128e+00	 8.3576079094e-01	-1.5896141990e-01
 1.3769219503e+00	 8.4903016271e-01	-2.4288154700e-01
 1.3686911360e+00	 8.6223593826e-01	-3.2926520611e-01
 1.3603245785e+00	 8.7537604779e-01	-4.1693056403e-01
 1.3518230280e+00	 8.8844843109e-01	-5.0463676299e-01
 1.3431872755e+00	 9.0145103856e-01	-5.9109278595e-01
 1.3344181533e+00	 9.1438183224e-01	-6.7496697643e-01
 1.3255165345e+00	 9.2723878678e-01	-7.5489720065e-01
 1.3164833328e+00	 9.4001989051e-01	-8.2950163537e-01
 1.3073195021e+00	 9.5272314644e-01	-8.9739016052e-01
 1.2980260367e+00	 9.6534657321e-01	-9.5717633122e-01
 1.3925718260e+00	 8.4032001648e-01	-1.7645223534e-01
 1.3844333073e+00	 8.5366177506e-01	-2.6128049018e-01
 1.3761575925e+00	 8.6693959049e-01	-3.4765870233e-01
 1.3677453940e+00	 8.8015138169e-01	-4.3460076340e-01
 1.3591974659e+00	 8.9329507719e-01	-5.2105706186e-01
 1.3505146039e+00	 9.0636861623e-01	-6.0592314101e-01
 1.3416976445e+00	 9.1936994971e-01	-6.8804903635e-01
 1.3327474658e+00	 9.3229704125e-01	-7.6624928100e-01
 1.3236649863e+00	 9.4514786821e-01	-8.3931356365e-01
 1.3144511653e+00	 9.5792042268e-01	-9.0601801861e-01
 1.3051070023e+00	 9.7061271251e-01	-9.6513712333e-01
 1.4001273350e+00	 8.4487923943e-01	-1.9152518078e-01
 1.3919446601e+00	 8.5829338479e-01	-2.7717280894e-01
 1.3836240447e+00	 8.7164324006e-01	-3.6366791370e-01
 1.3751662052e+00	 8.8492671287e-01	-4.5017262419e-01
 1.3665718997e+00	 8.9814172054e-01	-5.3578118195e-01
 1.3578419280e+00	 9.1128619110e-01	-6.1952845351e-01
 1.3489771316e+00	 9.2435806435e-01	-7.0039914808e-01
 1.3399783930e+00	 9.3735529285e-01	-7.7733773016e-01
 1.3308466358e+00	 9.5027584299e-01	-8.4925901184e-01
 1.3215828244e+00	 9.6311769597e-01	-9.1505940548e-01
 1.3121879639e+00	 9.7587884883e-01	-9.7362881228e-01
 1.4076828354e+00	 8.4943845722e-01	-2.0441554811e-01
 1.3994560044e+00	 8.6292498926e-01	-2.9072866095e-01
 1.3910904885e+00	 8.7634688430e-01	-3.7740414374e-01
 1.3825870080e+00	 8.8970203865e-01	-4.6370563770e-01
 1.3739463250e+00	 9.0298835840e-01	-5.4882459938e-01
 1.3651692439e+00	 9.1620376040e-01	-6.3188872909e-01
 1.3562566104e+00	 9.2934617334e-01	-7.1197113117e-01
 1.3472093120e+00	 9.4241353872e-01	-7.8810019645e-01
 1.3380282771e+00	 9.5540381196e-01	-8.5927019284e-01
 1.3287144755e+00	 9.6831496337e-01	-9.2445254489e-01
 1.3192689176e+00	 9.8114497918e-01	-9.8260777844e-01
 1.4152383230e+00	 8.5399766725e-01	-2.1535441171e-01
 1.4069673359e+00	 8.6755658586e-01	-3.0211525078e-01
 1.3985569196e+00	 8.8105052053e-01	-3.8897690731e-01
 1.3900077981e+00	 8.9447735630e-01	-4.7525855650e-01
 1.3813207379e+00	 9.0783498802e-01	-5.6020297257e-01
 1.3724965473e+00	 9.2112132134e-01	-6.4298493349e-01
 1.3635360769e+00	 9.3433427384e-01	-7.2272038506e-01
 1.3544402186e+00	 9.4747177599e-01	-7.9847635556e-01
 1.3452099062e+00	 9.6053177222e-01	-8.6928160750e-01
 1.3358461144e+00	 9.7351222194e-01	-9.3413800781e-01
 1.3263498591e+00	 9.8641110058e-01	-9.9203259280e-01
 1.4227937935e+00	 8.5855686695e-01	-2.2456816578e-01
 1.4144786504e+00	 8.7218817196e-01	-3.1149631467e-01
 1.4060233338e+00	 8.8575414611e-01	-3.9849336649e-01
 1.3974285715e+00	 8.9925266314e-01	-4.8488878570e-01
 1.3886951340e+00	 9.1268160665e-01	-5.6993149350e-01
 1.3798238342e+00	 9.2603887114e-01	-6.5279830857e-01
 1.3708155268e+00	 9.3932236304e-01	-7.3260317551e-01
 1.3616711089e+00	 9.5253000179e-01	-8.0840717320e-01
 1.3523915190e+00	 9.6565972085e-01	-8.7922928987e-01
 1.3429777372e+00	 9.7870946872e-01	-9.4405794692e-01
 1.3334307847e+00	 9.9167721004e-01	-1.0018632479e+00
 1.4303492425e+00	 8.6311605373e-01	-2.3227805698e-01
 1.4219899437e+00	 8.7681974494e-01	-3.1903160192e-01
 1.4134897268e+00	 8.9045775835e-01	-4.0605776437e-01
 1.4048493238e+00	 9.0402795644e-01	-4.9265177306e-01
 1.3960695093e+00	 9.1752821154e-01	-5.7802423860e-01
 1.3871511002e+00	 9.3095640699e-01	-6.6130968901e-01
 1.3780949562e+00	 9.4431043811e-01	-7.4157592238e-01
 1.3689019787e+00	 9.5758821326e-01	-8.1783416964e-01
 1.3595731115e+00	 9.7078765495e-01	-8.8905005452e-01
 1.3501093398e+00	 9.8390670078e-01	-9.5415533334e-01
 1.3405116901e+00	 9.9694330458e-01	-1.0120603909e+00
 1.4379046659e+00	 8.6767522501e-01	-2.3869971237e-01
 1.4295012113e+00	 8.8145130217e-01	-3.2487635293e-01
 1.4209560945e+00	 8.9516135461e-01	-4.1177085658e-01
 1.4122700509e+00	 9.0880323350e-01	-4.9860039805e-01
 1.4034438594e+00	 9.2237479996e-01	-5.8449351966e-01
 1.3944783414e+00	 9.3587392613e-01	-6.6849881972e-01
 1.3853743607e+00	 9.4929849621e-01	-7.4959448863e-01
 1.3761328239e+00	 9.6264640754e-01	-8.2669868588e-01
 1.3667546796e+00	 9.7591557161e-01	-8.9868074595e-01
 1.3572409181e+00	 9.8910391517e-01	-9.6437319547e-01
 1.3475925715e+00	 1.0022093812e+00	-1.0225845584e+00
 1.4454600592e+00	 8.7223437821e-01	-2.4404266319e-01
 1.4370124492e+00	 8.8608284102e-01	-3.2918077409e-01
 1.4284224325e+00	 8.9986493220e-01	-4.1572934088e-01
 1.4196907486e+00	 9.1357849162e-01	-5.0278435988e-01
 1.4108181803e+00	 9.2722136915e-01	-5.8934923446e-01
 1.4018055534e+00	 9.4079142576e-01	-6.7434367378e-01
 1.3926537364e+00	 9.5428653453e-01	-7.5661347055e-01
 1.3833636405e+00	 9.6770458174e-01	-8.3494115164e-01
 1.3739362191e+00	 9.8104346793e-01	-9.0805748995e-01
 1.3643724681e+00	 9.9430110894e-01	-9.7465386002e-01
 1.3546734248e+00	 1.0074754370e+00	-1.0333954142e+00
 1.4530154184e+00	 8.7679351073e-01	-2.4850986420e-01
 1.4445236530e+00	 8.9071435888e-01	-3.3208950971e-01
 1.4358887366e+00	 9.0456848847e-01	-4.1802528480e-01
 1.4271114126e+00	 9.1835372809e-01	-5.0524956453e-01
 1.4181924678e+00	 9.3206791637e-01	-5.9259821741e-01
 1.4091327323e+00	 9.4570890310e-01	-6.7881977108e-01
 1.3999330791e+00	 9.5927455024e-01	-7.6258548931e-01
 1.3905944242e+00	 9.7276273302e-01	-8.4250035490e-01
 1.3811177262e+00	 9.8617134101e-01	-9.1711494691e-01
 1.3715039858e+00	 9.9949827915e-01	-9.8493819499e-01
 1.3617542460e+00	 1.0127414688e+00	-1.0444509876e+00
 1.4605707390e+00	 8.8135262000e-01	-2.5229720922e-01
 1.4520348186e+00	 8.9534585312e-01	-3.3374111091e-01
 1.4433550027e+00	 9.0927202075e-01	-4.1874555134e-01
 1.4345320388e+00	 9.2312894020e-01	-5.0603751092e-01
 1.4255667177e+00	 9.3691443887e-01	-5.9424359005e-01
 1.4164598738e+00	 9.5062635536e-01	-6.8189949749e-01
 1.4072123847e+00	 9.6426254050e-01	-7.6746048357e-01
 1.3978251711e+00	 9.7782085850e-01	-8.4931271315e-01
 1.3882991966e+00	 9.9129918793e-01	-9.2578556701e-01
 1.3786354671e+00	 1.0046954228e+00	-9.9516485463e-01
 1.3688350311e+00	 1.0180074738e+00	-1.0557069148e+00
 1.2980260367e+00	 9.6534657321e-01	-9.5717633122e-01
 1.2886023584e+00	 9.7789033010e-01	-1.0160822574e+00
 1.2790511146e+00	 9.9035031019e-01	-1.0811474511e+00
 1.2693734235e+00	 1.0027245769e+00	-1.1507966241e+00
 1.2595704421e+00	 1.0150112134e+00	-1.2235282017e+00
 1.2496433655e+00	 1.0272083231e+00	-1.2979290174e+00
 1.2395934267e+00	 1.0393140312e+00	-1.3726893110e+00
 1.2294218961e+00	 1.0513264853e+00	-1.4466179756e+00
 1.2191300806e+00	 1.0632438564e+00	-1.5186579908e+00
 1.2087193237e+00	 1.0750643396e+00	-1.5879019785e+00
 1.1981910043e+00	 1.0867861555e+00	-1.6536078133e+00
 1.3051070023e+00	 9.7061271251e-01	-9.6513712333e-01
 1.2956319162e+00	 9.8322489786e-01	-1.0241577558e+00
 1.2860285686e+00	 9.9575284938e-01	-1.0900927095e+00
 1.2762980840e+00	 1.0081946200e+00	-1.1610839861e+00
 1.2664416255e+00	 1.0205482822e+00	-1.2353449143e+00
 1.2564603950e+00	 1.0328119294e+00	-1.3111755357e+00
 1.2463556320e+00	 1.0449836763e+00	-1.3869783209e+00
 1.2361286138e+00	 1.0570616605e+00	-1.4612741573e+00
 1.2257806546e+00	 1.0690440430e+00	-1.5327185452e+00
 1.2153131052e+00	 1.0809290091e+00	-1.6001179374e+00
 1.2047273518e+00	 1.0927147695e+00	-1.6624461497e+00
 1.3121879639e+00	 9.7587884883e-01	-9.7362881228e-01
 1.3026614700e+00	 9.8855946259e-01	-1.0327035694e+00
 1.2930060187e+00	 1.0011553855e+00	-1.0992989645e+00
 1.2832227406e+00	 1.0136646599e+00	-1.1712960249e+00
 1.2733128051e+00	 1.0260853479e+00	-1.2466447571e+00
 1.2632774206e+00	 1.0384155325e+00	-1.3233801996e+00
 1.2531178334e+00	 1.0506533182e+00	-1.3996388330e+00
 1.2428353277e+00	 1.0627968325e+00	-1.4736752851e+00
 1.2324312249e+00	 1.0748442263e+00	-1.5438792690e+00
 1.2219068829e+00	 1.0867936752e+00	-1.6087926828e+00
 1.2112636957e+00	 1.0986433803e+00	-1.6671268013e+00
 1.3192689176e+00	 9.8114497918e-01	-9.8260777844e-01
 1.3096910158e+00	 9.9389402128e-01	-1.0417017528e+00
 1.2999834609e+00	 1.0065579155e+00	-1.1087760993e+00
 1.2901473893e+00	 1.0191346937e+00	-1.1814722031e+00
 1.2801839769e+00	 1.0316224074e+00	-1.2574981127e+00
 1.2700944385e+00	 1.0440191292e+00	-1.3346452357e+00
 1.2598800271e+00	 1.0563229537e+00	-1.4108054191e+00
 1.2495420340e+00	 1.0685319979e+00	-1.4839883498e+00
 1.2390817876e+00	 1.0806444031e+00	-1.5523392114e+00
 1.2285006531e+00	 1.0926583347e+00	-1.6141565249e+00
 1.2178000322e+00	 1.1045719843e+00	-1.6679100989e+00
 1.3263498591e+00	 9.8641110058e-01	-9.9203259280e-01
 1.3167205497e+00	 9.9922857089e-01	-1.0511362777e+00
 1.3069608912e+00	 1.0119604363e+00	-1.1185356389e+00
 1.2970720262e+00	 1.0246047181e+00	-1.1916533567e+00
 1.2870551370e+00	 1.0371594574e+00	-1.2679764839e+00
 1.2769114448e+00	 1.0496227165e+00	-1.3450737612e+00
 1.2666422094e+00	 1.0619925795e+00	-1.4206133440e+00
 1.2562487290e+00	 1.0742671536e+00	-1.4923808769e+00
 1.2457323390e+00	 1.0864445699e+00	-1.5582978473e+00
 1.2350944122e+00	 1.0985229842e+00	-1.6164401456e+00
 1.2243363575e+00	 1.1105005782e+00	-1.6650567556e+00
 1.3334307847e+00	 9.9167721004e-01	-1.0018632479e+00
 1.3237500677e+00	 1.0045631084e+00	-1.0609922651e+00
 1.3139383057e+00	 1.0173629449e+00	-1.1285899851e+00
 1.3039966475e+00	 1.0300747301e+00	-1.2018809338e+00
 1.2939262815e+00	 1.0426964949e+00	-1.2781517370e+00
 1.2837284356e+00	 1.0552262910e+00	-1.3547690322e+00
 1.2734043763e+00	 1.0676621925e+00	-1.4291978198e+00
 1.2629554087e+00	 1.0800022963e+00	-1.4990201886e+00
 1.2523828753e+00	 1.0922447237e+00	-1.5619543454e+00
 1.2416881563e+00	 1.1043876205e+00	-1.6158738749e+00
 1.2308726681e+00	 1.1164291587e+00	-1.6607763297e+00
 1.3405116901e+00	 9.9694330458e-01	-1.0120603909e+00
 1.3307795657e+00	 1.0098976308e+00	-1.0712552191e+00
 1.3209157004e+00	 1.0227654382e+00	-1.1389516523e+00
 1.3109212491e+00	 1.0355447267e+00	-1.2121962334e+00
 1.3007974066e+00	 1.0482335167e+00	-1.2880953451e+00
 1.2905454071e+00	 1.0608298497e+00	-1.3638336935e+00
 1.2801665241e+00	 1.0733317894e+00	-1.4366932621e+00
 1.2696620694e+00	 1.0857374228e+00	-1.5040726660e+00
 1.2590333928e+00	 1.0980448610e+00	-1.5635068380e+00
 1.2482818817e+00	 1.1102522401e+00	-1.6126869666e+00
 1.2374089601e+00	 1.1223577224e+00	-1.6579890538e+00
 1.3475925715e+00	 1.0022093812e+00	-1.0225845584e+00
 1.3378090399e+00	 1.0152321351e+00	-1.0819102625e+00
 1.3278930714e+00	 1.0281679131e+00	-1.1496325045e+00
 1.3178458272e+00	 1.0410147046e+00	-1.2226396465e+00
 1.3076685083e+00	 1.0537705196e+00	-1.2978776336e+00
 1.2973623555e+00	 1.0664333893e+00	-1.3723690287e+00
 1.2869286489e+00	 1.0790013670e+00	-1.4432325455e+00
 1.2763687073e+00	 1.0914725297e+00	-1.5077030116e+00
 1.2656838877e+00	 1.1038449785e+00	-1.5631516893e+00
 1.2548755847e+00	 1.1161168398e+00	-1.6086848758e+00
 1.2439452299e+00	 1.1282862659e+00	-1.6566363015e+00
 1.3546734248e+00	 1.0074754370e+00	-1.0333954142e+00
 1.3448384861e+00	 1.0205666182e+00	-1.0929413738e+00
 1.3348704148e+00	 1.0335703665e+00	-1.1606429952e+00
 1.3247703778e+00	 1.0464846609e+00	-1.2332498980e+00
 1.3145395827e+00	 1.0593075006e+00	-1.3075670264e+00
 1.3041792768e+00	 1.0720369066e+00	-1.3804742110e+00
 1.2936907468e+00	 1.0846709222e+00	-1.4489462604e+00
 1.2830753186e+00	 1.0972076139e+00	-1.5100735114e+00
 1.2723343562e+00	 1.1096450731e+00	-1.5610827649e+00
 1.2614692615e+00	 1.1219814162e+00	-1.6065912901e+00
 1.2504814738e+00	 1.1342147859e+00	-1.6566184864e+00
 1.3617542460e+00	 1.0127414688e+00	-1.0444509876e+00
 1.3518679005e+00	 1.0259010771e+00	-1.1043306269e+00
 1.3418477265e+00	 1.0389727955e+00	-1.1719914075e+00
 1.3316948970e+00	 1.0519545923e+00	-1.2440632903e+00
 1.3214106260e+00	 1.0648444565e+00	-1.3172292927e+00
 1.3109961672e+00	 1.0776403986e+00	-1.3882455553e+00
 1.3004528141e+00	 1.0903404516e+00	-1.4539619701e+00
 1.2897818995e+00	 1.1029426721e+00	-1.5113432981e+00
 1.2789847945e+00	 1.1154451414e+00	-1.5585563147e+00
 1.2680629085e+00	 1.1278459660e+00	-1.6063191772e+00
 1.2570176880e+00	 1.1401432791e+00	-1.6578215433e+00
 1.3688350311e+00	 1.0180074738e+00	-1.0557069148e+00
 1.3588972790e+00	 1.0312355088e+00	-1.1160574317e+00
 1.3488250026e+00	 1.0443751969e+00	-1.1836830965e+00
 1.3386193810e+00	 1.0574244959e+00	-1.2551129479e+00
 1.3282816342e+00	 1.0703813842e+00	-1.3269267956e+00
 1.3178130228e+00	 1.0832438620e+00	-1.3957757705e+00
 1.3072148469e+00	 1.0960099521e+00	-1.4584034684e+00
 1.2964884462e+00	 1.1086777011e+00	-1.5116676142e+00
 1.2856351989e+00	 1.1212451801e+00	-1.5581973589e+00
 1.2746565218e+00	 1.1337104859e+00	-1.6077211574e+00
 1.2635538689e+00	 1.1460717420e+00	-1.6601176719e+00
 1.1981910043e+00	 1.0867861555e+00	-1.6536078133e+00
 1.1875483523e+00	 1.0984055869e+00	-1.7092412677e+00
 1.1767910203e+00	 1.1099229249e+00	-1.7471857551e+00
 1.1659204706e+00	 1.1213364906e+00	-1.7740010882e+00
 1.1549381990e+00	 1.1326446337e+00	-1.8011608080e+00
 1.1438457334e+00	 1.1438457334e+00	-1.8279826695e+00
 1.1326446337e+00	 1.1549381990e+00	-1.8536886276e+00
 1.1213364906e+00	 1.1659204706e+00	-1.8775036421e+00
 1.1099229249e+00	 1.1767910203e+00	-1.8987242349e+00
 1.0984055869e+00	 1.1875483523e+00	-1.9256004606e+00
 1.0867861555e+00	 1.1981910043e+00	-1.9629094405e+00
 1.2047273518e+00	 1.0927147695e+00	-1.6624461497e+00
 1.1940266423e+00	 1.1043975870e+00	-1.7130576410e+00
 1.1832106271e+00	 1.1159777542e+00	-1.7463969208e+00
 1.1722807766e+00	 1.1274535830e+00	-1.7766667133e+00
 1.1612385947e+00	 1.1388234141e+00	-1.8067154024e+00
 1.1500856178e+00	 1.1500856178e+00	-1.8359568766e+00
 1.1388234141e+00	 1.1612385947e+00	-1.8638228710e+00
 1.1274535830e+00	 1.1722807766e+00	-1.8897482271e+00
 1.1159777542e+00	 1.1832106271e+00	-1.9131559678e+00
 1.1043975870e+00	 1.1940266423e+00	-1.9360380100e+00
 1.0927147695e+00	 1.2047273518e+00	-1.9689875192e+00
 1.2112636957e+00	 1.0986433803e+00	-1.6671268013e+00
 1.2005049287e+00	 1.1103895838e+00	-1.7121488524e+00
 1.1896302303e+00	 1.1220325801e+00	-1.7459191860e+00
 1.1786410790e+00	 1.1335706719e+00	-1.7792331145e+00
 1.1675389869e+00	 1.1450021909e+00	-1.8117086145e+00
 1.1563254986e+00	 1.1563254986e+00	-1.8429589440e+00
 1.1450021909e+00	 1.1675389869e+00	-1.8726161088e+00
 1.1335706719e+00	 1.1786410790e+00	-1.9003152059e+00
 1.1220325801e+00	 1.1896302303e+00	-1.9256785692e+00
 1.1103895838e+00	 1.2005049287e+00	-1.9483293981e+00
 1.0986433803e+00	 1.2112636957e+00	-1.9764545003e+00
 1.2178000322e+00	 1.1045719843e+00	-1.6679100989e+00
 1.2069832077e+00	 1.1163815738e+00	-1.7088714284e+00
 1.1960498262e+00	 1.1280873991e+00	-1.7458859584e+00
 1.1850013742e+00	 1.1396877539e+00	-1.7817355761e+00
 1.1738393719e+00	 1.1511809607e+00	-1.8161879141e+00
 1.1625653723e+00	 1.1625653723e+00	-1.8490463985e+00
 1.1511809607e+00	 1.1738393719e+00	-1.8801340020e+00
 1.1396877539e+00	 1.1850013742e+00	-1.9092766603e+00
 1.1280873991e+00	 1.1960498262e+00	-1.9362864788e+00
 1.1163815738e+00	 1.2069832077e+00	-1.9609448603e+00
 1.1045719843e+00	 1.2178000322e+00	-1.9853813417e+00
 1.2243363575e+00	 1.1105005782e+00	-1.6650567556e+00
 1.2134614756e+00	 1.1223735536e+00	-1.7065609399e+00
 1.2024694112e+00	 1.1341422079e+00	-1.7462991804e+00
 1.1913616586e+00	 1.1458048255e+00	-1.7841902892e+00
 1.1801397462e+00	 1.1573597201e+00	-1.8201814417e+00
 1.1688052355e+00	 1.1688052355e+00	-1.8542572289e+00
 1.1573597201e+00	 1.1801397462e+00	-1.8864224901e+00
 1.1458048255e+00	 1.1913616586e+00	-1.9166847920e+00
 1.1341422079e+00	 1.2024694112e+00	-1.9450366849e+00
 1.1223735536e+00	 1.2134614756e+00	-1.9714378723e+00
 1.1105005782e+00	 1.2243363575e+00	-1.9958179444e+00
 1.2308726681e+00	 1.1164291587e+00	-1.6607763297e+00
 1.2199397289e+00	 1.1283655198e+00	-1.7052236018e+00
 1.2088889816e+00	 1.1401970029e+00	-1.7471427056e+00
 1.1977219286e+00	 1.1519218832e+00	-1.7865950851e+00
 1.1864401063e+00	 1.1635384654e+00	-1.8236987329e+00
 1.1750450845e+00	 1.1750450845e+00	-1.8586105990e+00
 1.1635384654e+00	 1.1864401063e+00	-1.8915084924e+00
 1.1519218832e+00	 1.1977219286e+00	-1.9225726104e+00
 1.1401970029e+00	 1.2088889816e+00	-1.9519668328e+00
 1.1283655198e+00	 1.2199397289e+00	-1.9798199218e+00
 1.1164291587e+00	 1.2308726681e+00	-2.0062067694e+00
 1.2374089601e+00	 1.1223577224e+00	-1.6579890538e+00
 1.2264179639e+00	 1.1343574691e+00	-1.7048097803e+00
 1.2153085339e+00	 1.1462517807e+00	-1.7483830383e+00
 1.2040821805e+00	 1.1580389236e+00	-1.7889301671e+00
 1.1927404485e+00	 1.1697171932e+00	-1.8267314416e+00
 1.1812849158e+00	 1.1812849158e+00	-1.8621075611e+00
 1.1697171932e+00	 1.1927404485e+00	-1.8954006087e+00
 1.1580389236e+00	 1.2040821805e+00	-1.9269546187e+00
 1.1462517807e+00	 1.2153085339e+00	-1.9570958960e+00
 1.1343574691e+00	 1.2264179639e+00	-1.9861132332e+00
 1.1223577224e+00	 1.2374089601e+00	-2.0142381725e+00
 1.2439452299e+00	 1.1282862659e+00	-1.6566363015e+00
 1.2328961768e+00	 1.1403493979e+00	-1.7052535391e+00
 1.2217280643e+00	 1.1523065380e+00	-1.7499700711e+00
 1.2104424109e+00	 1.1641559431e+00	-1.7911588424e+00
 1.1990407692e+00	 1.1758959000e+00	-1.8292540632e+00
 1.1875247259e+00	 1.1875247259e+00	-1.8647317681e+00
 1.1758959000e+00	 1.1990407692e+00	-1.8980898194e+00
 1.1641559431e+00	 1.2104424109e+00	-1.9298275007e+00
 1.1523065380e+00	 1.2217280643e+00	-1.9604248472e+00
 1.1403493979e+00	 1.2328961768e+00	-1.9903218668e+00
 1.1282862659e+00	 1.2439452299e+00	-2.0198978030e+00
 1.2504814738e+00	 1.1342147859e+00	-1.6566184864e+00
 1.2393743640e+00	 1.1463413030e+00	-1.7064733813e+00
 1.2281475693e+00	 1.1583612713e+00	-1.7518378231e+00
 1.2168026160e+00	 1.1702729385e+00	-1.7932282525e+00
 1.2053410650e+00	 1.1820745823e+00	-1.8312246566e+00
 1.1937645112e+00	 1.1937645112e+00	-1.8664501851e+00
 1.1820745823e+00	 1.2053410650e+00	-1.8995501850e+00
 1.1702729385e+00	 1.2168026160e+00	-1.9311708057e+00
 1.1583612713e+00	 1.2281475693e+00	-1.9619373278e+00
 1.1463413030e+00	 1.2393743640e+00	-1.9924323722e+00
 1.1342147859e+00	 1.2504814738e+00	-2.0231741495e+00
 1.2570176880e+00	 1.1401432791e+00	-1.6578215433e+00
 1.2458525218e+00	 1.1523331810e+00	-1.7083729919e+00
 1.2345670451e+00	 1.1644159771e+00	-1.7539051763e+00
 1.2231627922e+00	 1.1763899060e+00	-1.7950701031e+00
 1.2116413322e+00	 1.1882532366e+00	-1.8325855651e+00
 1.2000042683e+00	 1.2000042683e+00	-1.8672137999e+00
 1.1882532366e+00	 1.2116413322e+00	-1.8997395438e+00
 1.1763899060e+00	 1.2231627922e+00	-1.9309476336e+00
 1.1644159771e+00	 1.2345670451e+00	-1.9616003181e+00
 1.1523331810e+00	 1.2458525218e+00	-1.9924144411e+00
 1.1401432791e+00	 1.2570176880e+00	-2.0240386616e+00
 1.2635538689e+00	 1.1460717420e+00	-1.6601176719e+00
 1.2523306466e+00	 1.1583250283e+00	-1.7108419789e+00
 1.2409864882e+00	 1.1704706520e+00	-1.7560766121e+00
 1.2295229360e+00	 1.1825068424e+00	-1.7966013941e+00
 1.2179415673e+00	 1.1944318594e+00	-1.8332641371e+00
 1.2062439935e+00	 1.2062439935e+00	-1.8669583331e+00
 1.1944318594e+00	 1.2179415673e+00	-1.8986002106e+00
 1.1825068424e+00	 1.2295229360e+00	-1.9291053188e+00
 1.1704706520e+00	 1.2409864882e+00	-1.9593648059e+00
 1.1583250283e+00	 1.2523306466e+00	-1.9902215602e+00
 1.1460717420e+00	 1.2635538689e+00	-2.0224463847e+00
 1.0867861555e+00	 1.1981910043e+00	-1.9629094405e+00
 1.0750643396e+00	 1.2087193237e+00	-2.0028708054e+00
 1.0632438564e+00	 1.2191300806e+00	-2.0389252130e+00
 1.0513264853e+00	 1.2294218961e+00	-2.0710853943e+00
 1.0393140312e+00	 1.2395934267e+00	-2.0991808512e+00
 1.0272083231e+00	 1.2496433655e+00	-2.1228708156e+00
 1.0150112134e+00	 1.2595704421e+00	-2.1416578299e+00
 1.0027245769e+00	 1.2693734235e+00	-2.1549018633e+00
 9.9035031019e-01	 1.2790511146e+00	-2.1618348828e+00
 9.7789033010e-01	 1.2886023584e+00	-2.1615757901e+00
 9.6534657321e-01	 1.2980260367e+00	-2.1531456401e+00
 1.0927147695e+00	 1.2047273518e+00	-1.9689875192e+00
 1.0809290091e+00	 1.2153131052e+00	-2.0057367638e+00
 1.0690440430e+00	 1.2257806546e+00	-2.0396042028e+00
 1.0570616605e+00	 1.2361286138e+00	-2.0704510867e+00
 1.0449836763e+00	 1.2463556320e+00	-2.0979486616e+00
 1.0328119294e+00	 1.2564603950e+00	-2.1215917961e+00
 1.0205482822e+00	 1.2664416255e+00	-2.1407132468e+00
 1.0081946200e+00	 1.2762980840e+00	-2.1544984757e+00
 9.9575284938e-01	 1.2860285686e+00	-2.1620009311e+00
 9.8322489786e-01	 1.2956319162e+00	-2.1621577047e+00
 9.7061271251e-01	 1.3051070023e+00	-2.1538054743e+00
 1.0986433803e+00	 1.2112636957e+00	-1.9764545003e+00
 1.0867936752e+00	 1.2219068829e+00	-2.0095390446e+00
 1.0748442263e+00	 1.2324312249e+00	-2.0407826229e+00
 1.0627968325e+00	 1.2428353277e+00	-2.0698981997e+00
 1.0506533182e+00	 1.2531178334e+00	-2.0964021730e+00
 1.0384155325e+00	 1.2632774206e+00	-2.1196286774e+00
 1.0260853479e+00	 1.2733128051e+00	-2.1387445425e+00
 1.0136646599e+00	 1.2832227406e+00	-2.1527648171e+00
 1.0011553855e+00	 1.2930060187e+00	-2.1605687697e+00
 9.8855946259e-01	 1.3026614700e+00	-2.1609162703e+00
 9.7587884883e-01	 1.3121879639e+00	-2.1524644652e+00
 1.1045719843e+00	 1.2178000322e+00	-1.9853813417e+00
 1.0926583347e+00	 1.2285006531e+00	-2.0143485560e+00
 1.0806444031e+00	 1.2390817876e+00	-2.0425378903e+00
 1.0685319979e+00	 1.2495420340e+00	-2.0695170724e+00
 1.0563229537e+00	 1.2598800271e+00	-2.0946509086e+00
 1.0440191292e+00	 1.2700944385e+00	-2.1171162705e+00
 1.0316224074e+00	 1.2801839769e+00	-2.1359177548e+00
 1.0191346937e+00	 1.2901473893e+00	-2.1499039227e+00
 1.0065579155e+00	 1.2999834609e+00	-2.1577840257e+00
 9.9389402128e-01	 1.3096910158e+00	-2.1581451219e+00
 9.8114497918e-01	 1.3192689176e+00	-2.1494694874e+00
 1.1105005782e+00	 1.2243363575e+00	-1.9958179444e+00
 1.0985229842e+00	 1.2350944122e+00	-2.0202156112e+00
 1.0864445699e+00	 1.2457323390e+00	-2.0449271898e+00
 1.0742671536e+00	 1.2562487290e+00	-2.0693780763e+00
 1.0619925795e+00	 1.2666422094e+00	-2.0927845903e+00
 1.0496227165e+00	 1.2769114448e+00	-2.1141696545e+00
 1.0371594574e+00	 1.2870551370e+00	-2.1323791633e+00
 1.0246047181e+00	 1.2970720262e+00	-2.1460989465e+00
 1.0119604363e+00	 1.3069608912e+00	-2.1538722282e+00
 9.9922857089e-01	 1.3167205497e+00	-2.1541174850e+00
 9.8641110058e-01	 1.3263498591e+00	-2.1451466023e+00
 1.1164291587e+00	 1.2308726681e+00	-2.0062067694e+00
 1.1043876205e+00	 1.2416881563e+00	-2.0271697905e+00
 1.0922447237e+00	 1.2523828753e+00	-2.0479873400e+00
 1.0800022963e+00	 1.2629554087e+00	-2.0695314883e+00
 1.0676621925e+00	 1.2734043763e+00	-2.0908730227e+00
 1.0552262910e+00	 1.2837284356e+00	-2.1108840738e+00
 1.0426964949e+00	 1.2939262815e+00	-2.1282552023e+00
 1.0300747301e+00	 1.3039966475e+00	-2.1415130940e+00
 1.0173629449e+00	 1.3139383057e+00	-2.1490387626e+00
 1.0045631084e+00	 1.3237500677e+00	-2.1490861556e+00
 9.9167721004e-01	 1.3334307847e+00	-2.1398010649e+00
 1.1223577224e+00	 1.2374089601e+00	-2.0142381725e+00
 1.1102522401e+00	 1.2482818817e+00	-2.0352198029e+00
 1.0980448610e+00	 1.2590333928e+00	-2.0517346592e+00
 1.0857374228e+00	 1.2696620694e+00	-2.0700073635e+00
 1.0733317894e+00	 1.2801665241e+00	-2.0889659757e+00
 1.0608298497e+00	 1.2905454071e+00	-2.1073348345e+00
 1.0482335167e+00	 1.3007974066e+00	-2.1236523727e+00
 1.0355447267e+00	 1.3109212491e+00	-2.1362895533e+00
 1.0227654382e+00	 1.3209157004e+00	-2.1434688226e+00
 1.0098976308e+00	 1.3307795657e+00	-2.1432834757e+00
 9.9694330458e-01	 1.3405116901e+00	-2.1337173270e+00
 1.1282862659e+00	 1.2439452299e+00	-2.0198978030e+00
 1.1161168398e+00	 1.2548755847e+00	-2.0429945603e+00
 1.1038449785e+00	 1.2656838877e+00	-2.0561648309e+00
 1.0914725297e+00	 1.2763687073e+00	-2.0708154084e+00
 1.0790013670e+00	 1.2869286489e+00	-2.0870930673e+00
 1.0664333893e+00	 1.2973623555e+00	-2.1035771994e+00
 1.0537705196e+00	 1.3076685083e+00	-2.1186571537e+00
 1.0410147046e+00	 1.3178458272e+00	-2.1305514237e+00
 1.0281679131e+00	 1.3278930714e+00	-2.1373273611e+00
 1.0152321351e+00	 1.3378090399e+00	-2.1369213080e+00
 1.0022093812e+00	 1.3475925715e+00	-2.1271590373e+00
 1.1342147859e+00	 1.2504814738e+00	-2.0231741495e+00
 1.1219814162e+00	 1.2614692615e+00	-2.0481526331e+00
 1.1096450731e+00	 1.2723343562e+00	-2.0612527694e+00
 1.0972076139e+00	 1.2830753186e+00	-2.0719448531e+00
 1.0846709222e+00	 1.2936907468e+00	-2.0852636463e+00
 1.0720369066e+00	 1.3041792768e+00	-2.0996462831e+00
 1.0593075006e+00	 1.3145395827e+00	-2.1133359122e+00
 1.0464846609e+00	 1.3247703778e+00	-2.1244016447e+00
 1.0335703665e+00	 1.3348704148e+00	-2.1307590385e+00
 1.0205666182e+00	 1.3448384861e+00	-2.1301910070e+00
 1.0074754370e+00	 1.3546734248e+00	-2.1203690383e+00
 1.1401432791e+00	 1.2570176880e+00	-2.0240386616e+00
 1.1278459660e+00	 1.2680629085e+00	-2.0506300297e+00
 1.1154451414e+00	 1.2789847945e+00	-2.0659722216e+00
 1.1029426721e+00	 1.2897818995e+00	-2.0733643238e+00
 1.0903404516e+00	 1.3004528141e+00	-2.0834666738e+00
 1.0776403986e+00	 1.3109961672e+00	-2.0955569465e+00
 1.0648444565e+00	 1.3214106260e+00	-2.1077348125e+00
 1.0519545923e+00	 1.3316948970e+00	-2.1179229219e+00
 1.0389727955e+00	 1.3418477265e+00	-2.1238881691e+00
 1.0259010771e+00	 1.3518679005e+00	-2.1232633879e+00
 1.0127414688e+00	 1.3617542460e+00	-2.1135693598e+00
 1.1460717420e+00	 1.2635538689e+00	-2.0224463847e+00
 1.1337104859e+00	 1.2746565218e+00	-2.0503855939e+00
 1.1212451801e+00	 1.2856351989e+00	-2.0678638865e+00
 1.1086777011e+00	 1.2964884462e+00	-2.0750217148e+00
 1.0960099521e+00	 1.3072148469e+00	-2.0816706055e+00
 1.0832438620e+00	 1.3178130228e+00	-2.0913036905e+00
 1.0703813842e+00	 1.3282816342e+00	-2.1018797247e+00
 1.0574244959e+00	 1.3386193810e+00	-2.1111776530e+00
 1.0443751969e+00	 1.3488250026e+00	-2.1168186663e+00
 1.0312355088e+00	 1.3588972790e+00	-2.1162886939e+00
 1.0180074738e+00	 1.3688350311e+00	-2.1069612101e+00
 9.6534657321e-01	 1.2980260367e+00	-2.1531456401e+00
 9.5272314644e-01	 1.3073195021e+00	-2.1419228080e+00
 9.4001989051e-01	 1.3164833328e+00	-2.1333826233e+00
 9.2723878678e-01	 1.3255165345e+00	-2.1265976511e+00
 9.1438183224e-01	 1.3344181533e+00	-2.1206038729e+00
 9.0145103856e-01	 1.3431872755e+00	-2.1144153833e+00
 8.8844843109e-01	 1.3518230280e+00	-2.1070388698e+00
 8.7537604779e-01	 1.3603245785e+00	-2.0974878023e+00
 8.6223593826e-01	 1.3686911360e+00	-2.0847962577e+00
 8.4903016271e-01	 1.3769219503e+00	-2.0680323131e+00
 8.3576079094e-01	 1.3850163128e+00	-2.0463109401e+00
 9.7061271251e-01	 1.3051070023e+00	-2.1538054743e+00
 9.5792042268e-01	 1.3144511653e+00	-2.1422506708e+00
 9.4514786821e-01	 1.3236649863e+00	-2.1330747340e+00
 9.3229704125e-01	 1.3327474658e+00	-2.1254352898e+00
 9.1936994971e-01	 1.3416976445e+00	-2.1184586371e+00
 9.0636861623e-01	 1.3505146039e+00	-2.1112547225e+00
 8.9329507719e-01	 1.3591974659e+00	-2.1029318828e+00
 8.8015138169e-01	 1.3677453940e+00	-2.0926112775e+00
 8.6693959049e-01	 1.3761575925e+00	-2.0794409368e+00
 8.5366177506e-01	 1.3844333073e+00	-2.0626093562e+00
 8.4032001648e-01	 1.3925718260e+00	-2.0413585687e+00
 9.7587884883e-01	 1.3121879639e+00	-2.1524644652e+00
 9.6311769597e-01	 1.3215828244e+00	-2.1404903304e+00
 9.5027584299e-01	 1.3308466358e+00	-2.1307080978e+00
 9.3735529285e-01	 1.3399783930e+00	-2.1223409266e+00
 9.2435806435e-01	 1.3489771316e+00	-2.1145846935e+00
 9.1128619110e-01	 1.3578419280e+00	-2.1066232925e+00
 8.9814172054e-01	 1.3665718997e+00	-2.0976436871e+00
 8.8492671287e-01	 1.3751662052e+00	-2.0868506342e+00
 8.7164324006e-01	 1.3836240447e+00	-2.0734810054e+00
 8.5829338479e-01	 1.3919446601e+00	-2.0568176326e+00
 8.4487923943e-01	 1.4001273350e+00	-2.0362026092e+00
 9.8114497918e-01	 1.3192689176e+00	-2.1494694874e+00
 9.6831496337e-01	 1.3287144755e+00	-2.1370351229e+00
 9.5540381196e-01	 1.3380282771e+00	-2.1267040050e+00
 9.4241353872e-01	 1.3472093120e+00	-2.1177455141e+00
 9.2934617334e-01	 1.3562566104e+00	-2.1094045949e+00
 9.1620376040e-01	 1.3651692439e+00	-2.1009174268e+00
 9.0298835840e-01	 1.3739463250e+00	-2.0915268338e+00
 8.8970203865e-01	 1.3825870080e+00	-2.0804973486e+00
 8.7634688430e-01	 1.3910904885e+00	-2.0671298561e+00
 8.6292498926e-01	 1.3994560044e+00	-2.0507757401e+00
 8.4943845722e-01	 1.4076828354e+00	-2.0308504635e+00
 9.8641110058e-01	 1.3263498591e+00	-2.1451466023e+00
 9.7351222194e-01	 1.3358461144e+00	-2.1322573280e+00
 9.6053177222e-01	 1.3452099062e+00	-2.1214628545e+00
 9.4747177599e-01	 1.3544402186e+00	-2.1120596797e+00
 9.3433427384e-01	 1.3635360769e+00	-2.1033215271e+00
 9.2112132134e-01	 1.3724965473e+00	-2.0945154350e+00
 9.0783498802e-01	 1.3813207379e+00	-2.0849175700e+00
 8.9447735630e-01	 1.3900077981e+00	-2.0738286806e+00
 8.8105052053e-01	 1.3985569196e+00	-2.0605891120e+00
 8.6755658586e-01	 1.4069673359e+00	-2.0445933036e+00
 8.5399766725e-01	 1.4152383230e+00	-2.0253036993e+00
 9.9167721004e-01	 1.3334307847e+00	-2.1398010649e+00
 9.7870946872e-01	 1.3429777372e+00	-2.1265081992e+00
 9.6565972085e-01	 1.3523915190e+00	-2.1153641967e+00
 9.5253000179e-01	 1.3616711089e+00	-2.1056737694e+00
 9.3932236304e-01	 1.3708155268e+00	-2.0967193452e+00
 9.2603887114e-01	 1.3798238342e+00	-2.0877776210e+00
 9.1268160665e-01	 1.3886951340e+00	-2.0781358283e+00
 8.9925266314e-01	 1.3974285715e+00	-2.0671076249e+00
 8.8575414611e-01	 1.4060233338e+00	-2.0540485296e+00
 8.7218817196e-01	 1.4144786504e+00	-2.0383708211e+00
 8.5855686695e-01	 1.4227937935e+00	-2.0195578281e+00
 9.9694330458e-01	 1.3405116901e+00	-2.1337173270e+00
 9.8390670078e-01	 1.3501093398e+00	-2.1201179897e+00
 9.7078765495e-01	 1.3595731115e+00	-2.1087667717e+00
 9.5758821326e-01	 1.3689019787e+00	-2.0989578896e+00
 9.4431043811e-01	 1.3780949562e+00	-2.0899626067e+00
 9.3095640699e-01	 1.3871511002e+00	-2.0810462977e+00
 9.1752821154e-01	 1.3960695093e+00	-2.0714852141e+00
 9.0402795644e-01	 1.4048493238e+00	-2.0605828612e+00
 8.9045775835e-01	 1.4134897268e+00	-2.0476859031e+00
 8.7681974494e-01	 1.4219899437e+00	-2.0321995123e+00
 8.6311605373e-01	 1.4303492425e+00	-2.0136020900e+00
 1.0022093812e+00	 1.3475925715e+00	-2.1271590373e+00
 9.8910391517e-01	 1.3572409181e+00	-2.1133959747e+00
 9.7591557161e-01	 1.3667546796e+00	-2.1020085440e+00
 9.6264640754e-01	 1.3761328239e+00	-2.0922619427e+00
 9.4929849621e-01	 1.3853743607e+00	-2.0833966002e+00
 9.3587392613e-01	 1.3944783414e+00	-2.0746457997e+00
 9.2237479996e-01	 1.4034438594e+00	-2.0652529915e+00
 9.0880323350e-01	 1.4122700509e+00	-2.0544887045e+00
 8.9516135461e-01	 1.4209560945e+00	-2.0416669693e+00
 8.8145130217e-01	 1.4295012113e+00	-2.0261611694e+00
 8.6767522501e-01	 1.4379046659e+00	-2.0074192417e+00
 1.0074754370e+00	 1.3546734248e+00	-2.1203690383e+00
 9.9430110894e-01	 1.3643724681e+00	-2.1066304698e+00
 9.8104346793e-01	 1.3739362191e+00	-2.0954067326e+00
 9.6770458174e-01	 1.3833636405e+00	-2.0859156607e+00
 9.5428653453e-01	 1.3926537364e+00	-2.0773473714e+00
 9.4079142576e-01	 1.4018055534e+00	-2.0688824920e+00
 9.2722136915e-01	 1.4108181803e+00	-2.0597100671e+00
 9.1357849162e-01	 1.4196907486e+00	-2.0490450540e+00
 8.9986493220e-01	 1.4284224325e+00	-2.0361453136e+00
 8.8608284102e-01	 1.4370124492e+00	-2.0203280119e+00
 8.7223437821e-01	 1.4454600592e+00	-2.0009853513e+00
 1.0127414688e+00	 1.3617542460e+00	-2.1135693598e+00
 9.9949827915e-01	 1.3715039858e+00	-2.1000888463e+00
 9.8617134101e-01	 1.3811177262e+00	-2.0892578379e+00
 9.7276273302e-01	 1.3905944242e+00	-2.0802286336e+00
 9.5927455024e-01	 1.3999330791e+00	-2.0721217456e+00
 9.4570890310e-01	 1.4091327323e+00	-2.0640447768e+00
 9.3206791637e-01	 1.4181924678e+00	-2.0551109717e+00
 9.1835372809e-01	 1.4271114126e+00	-2.0444573423e+00
 9.0456848847e-01	 1.4358887366e+00	-2.0312622772e+00
 8.9071435888e-01	 1.4445236530e+00	-2.0147625429e+00
 8.7679351073e-01	 1.4530154184e+00	-1.9942695961e+00
 1.0180074738e+00	 1.3688350311e+00	-2.1069612101e+00
 1.0046954228e+00	 1.3786354671e+00	-2.0940175423e+00
 9.9129918793e-01	 1.3882991966e+00	-2.0838376647e+00
 9.7782085850e-01	 1.3978251711e+00	-2.0754903358e+00
 9.6426254050e-01	 1.4072123847e+00	-2.0680073467e+00
 9.5062635536e-01	 1.4164598738e+00	-2.0604030982e+00
 9.3691443887e-01	 1.4255667177e+00	-2.0516938412e+00
 9.2312894020e-01	 1.4345320388e+00	-2.0409164836e+00
 9.0927202075e-01	 1.4433550027e+00	-2.0271468650e+00
 8.9534585312e-01	 1.4520348186e+00	-2.0095174091e+00
 8.8135262000e-01	 1.4605707390e+00	-1.9872340662e+00
 8.3576079094e-01	 1.3850163128e+00	-2.0463109401e+00
 8.2242990157e-01	 1.3929735565e+00	-2.0232505508e+00
 8.0903958181e-01	 1.4007930576e+00	-2.0021741179e+00
 7.9559192559e-01	 1.4084742337e+00	-1.9818635073e+00
 7.8208903234e-01	 1.4160165444e+00	-1.9611989875e+00
 7.6853300592e-01	 1.4234194906e+00	-1.9391692148e+00
 7.5492595365e-01	 1.4306826148e+00	-1.9148804071e+00
 7.4126998530e-01	 1.4378055012e+00	-1.8875646724e+00
 7.2756721209e-01	 1.4447877749e+00	-1.8592064289e+00
 7.1381974571e-01	 1.4516291026e+00	-1.8324573927e+00
 7.0002969732e-01	 1.4583291918e+00	-1.8071536664e+00
 8.4032001648e-01	 1.3925718260e+00	-2.0413585687e+00
 8.2691640471e-01	 1.4005724780e+00	-2.0193706437e+00
 8.1345303834e-01	 1.4084346358e+00	-1.9998029980e+00
 7.9993202274e-01	 1.4161577141e+00	-1.9812211385e+00
 7.8635546877e-01	 1.4237411695e+00	-1.9622832943e+00
 7.7272549179e-01	 1.4311845001e+00	-1.9417510861e+00
 7.5904421060e-01	 1.4384872460e+00	-1.9184993630e+00
 7.4531374649e-01	 1.4456489890e+00	-1.8915251737e+00
 7.3153622218e-01	 1.4526693522e+00	-1.8612473603e+00
 7.1771376089e-01	 1.4595480006e+00	-1.8312063248e+00
 7.0384848532e-01	 1.4662846400e+00	-1.8013192917e+00
 8.4487923943e-01	 1.4001273350e+00	-2.0362026092e+00
 8.3140290530e-01	 1.4081713952e+00	-2.0152524184e+00
 8.1786649237e-01	 1.4160762097e+00	-1.9968494275e+00
 8.0427211742e-01	 1.4238411902e+00	-1.9793457919e+00
 7.9062190279e-01	 1.4314657902e+00	-1.9611820962e+00
 7.7691797528e-01	 1.4389495052e+00	-1.9408986957e+00
 7.6316246522e-01	 1.4462918727e+00	-1.9171462032e+00
 7.4935750538e-01	 1.4534924723e+00	-1.8886950884e+00
 7.3550523002e-01	 1.4605509251e+00	-1.8548638326e+00
 7.2160777388e-01	 1.4674668941e+00	-1.8191089163e+00
 7.0766727115e-01	 1.4742400837e+00	-1.7819517139e+00
 8.4943845722e-01	 1.4076828354e+00	-2.0308504635e+00
 8.3588940081e-01	 1.4157703037e+00	-2.0107935866e+00
 8.2227994140e-01	 1.4237177750e+00	-1.9931205006e+00
 8.0861220719e-01	 1.4315246576e+00	-1.9759728244e+00
 7.9488833197e-01	 1.4391904022e+00	-1.9575776893e+00
 7.8111045402e-01	 1.4467145015e+00	-1.9362597416e+00
 7.6728071517e-01	 1.4540964906e+00	-1.9104522686e+00
 7.5340125969e-01	 1.4613359468e+00	-1.8787074089e+00
 7.3947423337e-01	 1.4684324891e+00	-1.8397291421e+00
 7.2550178244e-01	 1.4753857787e+00	-1.7958884337e+00
 7.1148605264e-01	 1.4821955184e+00	-1.7489349138e+00
 8.5399766725e-01	 1.4152383230e+00	-2.0253036993e+00
 8.4037588869e-01	 1.4233691993e+00	-2.0058891195e+00
 8.2669338292e-01	 1.4313593273e+00	-1.9884232444e+00
 8.1295228958e-01	 1.4392081119e+00	-1.9708397795e+00
 7.9915475390e-01	 1.4469150010e+00	-1.9511563925e+00
 7.8530292564e-01	 1.4544794846e+00	-1.9274873677e+00
 7.7139895812e-01	 1.4619010953e+00	-1.8980553567e+00
 7.5744500713e-01	 1.4691794079e+00	-1.8612021876e+00
 7.4344322996e-01	 1.4763140396e+00	-1.8153986962e+00
 7.2939578439e-01	 1.4833046498e+00	-1.7618412811e+00
 7.1530482765e-01	 1.4901509396e+00	-1.7157011586e+00
 8.5855686695e-01	 1.4227937935e+00	-2.0195578281e+00
 8.4486236640e-01	 1.4309680777e+00	-2.0004309610e+00
 8.3110681444e-01	 1.4390008622e+00	-1.9825642762e+00
 8.1729236213e-01	 1.4468915489e+00	-1.9636860001e+00
 8.0342116615e-01	 1.4546395824e+00	-1.9416081281e+00
 7.8949538775e-01	 1.4622444501e+00	-1.9142397202e+00
 7.7551719173e-01	 1.4697056822e+00	-1.8795992666e+00
 7.6148874540e-01	 1.4770228512e+00	-1.8358260796e+00
 7.4741221756e-01	 1.4841955723e+00	-1.7823505990e+00
 7.3328977751e-01	 1.4912235029e+00	-1.7310939841e+00
 7.1912359400e-01	 1.4981063427e+00	-1.6908718487e+00
 8.6311605373e-01	 1.4303492425e+00	-2.0136020900e+00
 8.4934883140e-01	 1.4385669346e+00	-1.9943077476e+00
 8.3552023346e-01	 1.4466423755e+00	-1.9753494710e+00
 8.2163242239e-01	 1.4545749640e+00	-1.9542522540e+00
 8.0768756632e-01	 1.4623641418e+00	-1.9286260136e+00
 7.9368783798e-01	 1.4700093936e+00	-1.8961795186e+00
 7.7963541367e-01	 1.4775102470e+00	-1.8547333575e+00
 7.6553247221e-01	 1.4848662724e+00	-1.8038654024e+00
 7.5138119391e-01	 1.4920770827e+00	-1.7541141149e+00
 7.3718375960e-01	 1.4991423336e+00	-1.7086977473e+00
 7.2294234953e-01	 1.5060617233e+00	-1.6729843686e+00
 8.6767522501e-01	 1.4379046659e+00	-2.0074192417e+00
 8.5383528115e-01	 1.4461657657e+00	-1.9874045359e+00
 8.3993363747e-01	 1.4542838628e+00	-1.9665836375e+00
 8.2597246788e-01	 1.4622583530e+00	-1.9422803683e+00
 8.1195395198e-01	 1.4700886750e+00	-1.9119059661e+00
 7.9788027396e-01	 1.4777743108e+00	-1.8729736384e+00
 7.8375362161e-01	 1.4853147853e+00	-1.8249912317e+00
 7.6957618527e-01	 1.4927096668e+00	-1.7776805736e+00
 7.5535015677e-01	 1.4999585662e+00	-1.7334591171e+00
 7.4107772844e-01	 1.5070611374e+00	-1.6931347534e+00
 7.2676109208e-01	 1.5140170769e+00	-1.6605874588e+00
 8.7223437821e-01	 1.4454600592e+00	-2.0009853513e+00
 8.5832171309e-01	 1.4537645665e+00	-1.9796025374e+00
 8.4434702397e-01	 1.4619253198e+00	-1.9560702030e+00
 8.3031249616e-01	 1.4699417115e+00	-1.9275128742e+00
 8.1622032071e-01	 1.4778131775e+00	-1.8911463168e+00
 8.0207269330e-01	 1.4855391971e+00	-1.8461605240e+00
 7.8787181322e-01	 1.4931192927e+00	-1.8013083788e+00
 7.7361988229e-01	 1.5005530302e+00	-1.7586464780e+00
 7.5931910388e-01	 1.5078400185e+00	-1.7188576424e+00
 7.4497168184e-01	 1.5149799098e+00	-1.6826264049e+00
 7.3057981947e-01	 1.5219723988e+00	-1.6522415472e+00
 8.7679351073e-01	 1.4530154184e+00	-1.9942695961e+00
 8.6280812470e-01	 1.4613633330e+00	-1.9707788588e+00
 8.4876039046e-01	 1.4695667422e+00	-1.9436109064e+00
 8.3465250477e-01	 1.4776250352e+00	-1.9096926626e+00
 8.2048667011e-01	 1.4855376451e+00	-1.8676812866e+00
 8.0626509364e-01	 1.4933040482e+00	-1.8252471509e+00
 7.9198998615e-01	 1.5009237646e+00	-1.7842486792e+00
 7.7766356098e-01	 1.5083963579e+00	-1.7452439113e+00
 7.6328803300e-01	 1.5157214351e+00	-1.7088039739e+00
 7.4886561759e-01	 1.5228986463e+00	-1.6755013306e+00
 7.3439852956e-01	 1.5299276848e+00	-1.6465190907e+00
 8.8135262000e-01	 1.4605707390e+00	-1.9872340662e+00
 8.6729451342e-01	 1.4689620607e+00	-1.9608062504e+00
 8.5317373444e-01	 1.4772081256e+00	-1.9290054993e+00
 8.3899249124e-01	 1.4853083198e+00	-1.8898150180e+00
 8.2475299774e-01	 1.4932620732e+00	-1.8496804270e+00
 8.1045747260e-01	 1.5010688597e+00	-1.8103718315e+00
 7.9610813808e-01	 1.5087281967e+00	-1.7723184803e+00
 7.8170721905e-01	 1.5162396457e+00	-1.7359761149e+00
 7.6725694188e-01	 1.5236028115e+00	-1.7018143508e+00
 7.5275953348e-01	 1.5308173424e+00	-1.6703047171e+00
 7.3821722017e-01	 1.5378829301e+00	-1.6420049281e+00
 7.0002969732e-01	 1.4583291918e+00	-1.8071536664e+00
 6.8619682187e-01	 1.4648888939e+00	-1.7786577336e+00
 6.7232556799e-01	 1.4713068460e+00	-1.7409592268e+00
 6.5841803993e-01	 1.4775828767e+00	-1.6921808283e+00
 6.4447633766e-01	 1.4837168546e+00	-1.6319233976e+00
 6.3050255592e-01	 1.4897086883e+00	-1.5726681350e+00
 6.1649878331e-01	 1.4955583263e+00	-1.5181195598e+00
 6.0246710142e-01	 1.5012657558e+00	-1.4683881061e+00
 5.8840958390e-01	 1.5068310035e+00	-1.4235670453e+00
 5.7432829563e-01	 1.5122541343e+00	-1.3837225654e+00
 5.6022529188e-01	 1.5175352514e+00	-1.3488849934e+00
 7.0384848532e-01	 1.4662846400e+00	-1.8013192917e+00
 6.8994014904e-01	 1.4728801265e+00	-1.7663103241e+00
 6.7599322497e-01	 1.4793330897e+00	-1.7196093913e+00
 6.6200982884e-01	 1.4856433572e+00	-1.6632418809e+00
 6.4799207207e-01	 1.4918107970e+00	-1.6094990702e+00
 6.3394206084e-01	 1.4978353174e+00	-1.5593847608e+00
 6.1986189513e-01	 1.5037168661e+00	-1.5128885468e+00
 6.0575366789e-01	 1.5094554307e+00	-1.4699939481e+00
 5.9161946408e-01	 1.5150510379e+00	-1.4306672681e+00
 5.7746135985e-01	 1.5205037528e+00	-1.3948476427e+00
 5.6328142167e-01	 1.5258136793e+00	-1.3624382800e+00
 7.0766727115e-01	 1.4742400837e+00	-1.7819517139e+00
 6.9368347409e-01	 1.4808713545e+00	-1.7375522425e+00
 6.7966087987e-01	 1.4873593288e+00	-1.6863401550e+00
 6.6560161572e-01	 1.4937038332e+00	-1.6380107219e+00
 6.5150780450e-01	 1.4999047349e+00	-1.5925090591e+00
 6.3738156381e-01	 1.5059619418e+00	-1.5497228541e+00
 6.2322500505e-01	 1.5118754013e+00	-1.5095461353e+00
 6.0904023250e-01	 1.5176451010e+00	-1.4718667669e+00
 5.9482934244e-01	 1.5232710675e+00	-1.4365551771e+00
 5.8059442230e-01	 1.5287533666e+00	-1.4034543303e+00
 5.6633754974e-01	 1.5340921025e+00	-1.3723709433e+00
 7.1148605264e-01	 1.4821955184e+00	-1.7489349138e+00
 6.9742679489e-01	 1.4888625735e+00	-1.7031886725e+00
 6.8332853062e-01	 1.4953855588e+00	-1.6599072277e+00
 6.6919339852e-01	 1.5017643000e+00	-1.6188576182e+00
 6.5502353294e-01	 1.5079986637e+00	-1.5798424849e+00
 6.4082106288e-01	 1.5140885570e+00	-1.5426848300e+00
 6.2658811115e-01	 1.5200339273e+00	-1.5072140098e+00
 6.1232679338e-01	 1.5258347620e+00	-1.4732529971e+00
 5.9803921717e-01	 1.5314910879e+00	-1.4406069315e+00
 5.8372748119e-01	 1.5370029711e+00	-1.4090529705e+00
 5.6939367434e-01	 1.5423705164e+00	-1.3783314403e+00
 7.1530482765e-01	 1.4901509396e+00	-1.7157011586e+00
 7.0117010933e-01	 1.4968537789e+00	-1.6769744736e+00
 6.8699617512e-01	 1.5034117752e+00	-1.6400197492e+00
 6.7278517522e-01	 1.5098247531e+00	-1.6045689239e+00
 6.5853925540e-01	 1.5160925786e+00	-1.5703902038e+00
 6.4426055611e-01	 1.5222151584e+00	-1.5372724203e+00
 6.2995121153e-01	 1.5281924394e+00	-1.5050106812e+00
 6.1561334867e-01	 1.5340244090e+00	-1.4733933496e+00
 6.0124908643e-01	 1.5397110943e+00	-1.4421903699e+00
 5.8686053476e-01	 1.5452525615e+00	-1.4111429534e+00
 5.7244979375e-01	 1.5506489162e+00	-1.3799546212e+00
 7.1912359400e-01	 1.4981063427e+00	-1.6908718487e+00
 7.0491341528e-01	 1.5048449662e+00	-1.6575941567e+00
 6.9066381132e-01	 1.5114379733e+00	-1.6253730159e+00
 6.7637694377e-01	 1.5178851880e+00	-1.5939353803e+00
 6.6205496989e-01	 1.5241864753e+00	-1.5630451407e+00
 6.4770004154e-01	 1.5303417413e+00	-1.5324870264e+00
 6.3331430430e-01	 1.5363509330e+00	-1.5020518622e+00
 6.1889989652e-01	 1.5422140375e+00	-1.4715232136e+00
 6.0445894843e-01	 1.5479310820e+00	-1.4406654420e+00
 5.8999358122e-01	 1.5535021333e+00	-1.4092131806e+00
 5.7550590622e-01	 1.5589272972e+00	-1.3768622283e+00
 7.2294234953e-01	 1.5060617233e+00	-1.6729843686e+00
 7.0865671063e-01	 1.5128361308e+00	-1.6436637863e+00
 6.9433143712e-01	 1.5194641488e+00	-1.6146692518e+00
 6.7996870215e-01	 1.5259456000e+00	-1.5857524415e+00
 6.6557067442e-01	 1.5322803489e+00	-1.5567026293e+00
 6.5113951722e-01	 1.5384683013e+00	-1.5273300774e+00
 6.3667738753e-01	 1.5445094035e+00	-1.4974508471e+00
 6.2218643505e-01	 1.5504036428e+00	-1.4668730610e+00
 6.0766880132e-01	 1.5561510465e+00	-1.4353846407e+00
 5.9312661881e-01	 1.5617516816e+00	-1.4027425284e+00
 5.7856201004e-01	 1.5672056547e+00	-1.3686633923e+00
 7.2676109208e-01	 1.5140170769e+00	-1.6605874588e+00
 7.1239999324e-01	 1.5208272683e+00	-1.6338087865e+00
 6.9799905045e-01	 1.5274902969e+00	-1.6066179335e+00
 6.8356044832e-01	 1.5340059846e+00	-1.5788206091e+00
 6.6908636699e-01	 1.5403741951e+00	-1.5502607592e+00
 6.5457898121e-01	 1.5465948336e+00	-1.5208033933e+00
 6.4004045933e-01	 1.5526678463e+00	-1.4903188950e+00
 6.2547296241e-01	 1.5585932203e+00	-1.4586688530e+00
 6.1087864331e-01	 1.5643709830e+00	-1.4256934345e+00
 5.9625964575e-01	 1.5700012019e+00	-1.3912003092e+00
 5.8161810347e-01	 1.5754839841e+00	-1.3549551244e+00
 7.3057981947e-01	 1.5219723988e+00	-1.6522415472e+00
 7.1614326101e-01	 1.5288183741e+00	-1.6266642722e+00
 7.0166664924e-01	 1.5355164132e+00	-1.5999361251e+00
 6.8715218024e-01	 1.5420663372e+00	-1.5719457738e+00
 6.7260204562e-01	 1.5484680092e+00	-1.5426207298e+00
 6.5801843155e-01	 1.5547213337e+00	-1.5119095540e+00
 6.4340351778e-01	 1.5608262567e+00	-1.4797656171e+00
 6.2875947673e-01	 1.5667827652e+00	-1.4461324489e+00
 6.1408847256e-01	 1.5725908869e+00	-1.4109307012e+00
 5.9939266026e-01	 1.5782506895e+00	-1.3740467315e+00
 5.8467418477e-01	 1.5837622807e+00	-1.3353228073e+00
 7.3439852956e-01	 1.5299276848e+00	-1.6465190907e+00
 7.1988651181e-01	 1.5368094436e+00	-1.6208753897e+00
 7.0533423139e-01	 1.5435424931e+00	-1.5933488208e+00
 6.9074389587e-01	 1.5501266533e+00	-1.5639395657e+00
 6.7611770832e-01	 1.5565617865e+00	-1.5326872097e+00
 6.6145786631e-01	 1.5628477969e+00	-1.4996522730e+00
 6.4676656100e-01	 1.5689846301e+00	-1.4648993675e+00
 6.3204597615e-01	 1.5749722730e+00	-1.4284820168e+00
 6.1729828726e-01	 1.5808107535e+00	-1.3904291613e+00
 6.0252566056e-01	 1.5865001397e+00	-1.3507333598e+00
 5.8773025222e-01	 1.5920405398e+00	-1.3093406814e+00
 7.3821722017e-01	 1.5378829301e+00	-1.6420049281e+00
 7.2362974352e-01	 1.5448004724e+00	-1.6150976659e+00
 7.0900179485e-01	 1.5515685321e+00	-1.5855892967e+00
 6.9433559319e-01	 1.5581869283e+00	-1.5536197107e+00
 6.7963335308e-01	 1.5646555226e+00	-1.5193687032e+00
 6.6489728352e-01	 1.5709742187e+00	-1.4830367756e+00
 6.5012958706e-01	 1.5771429619e+00	-1.4448276372e+00
 6.3533245882e-01	 1.5831617391e+00	-1.4049324462e+00
 6.2050808558e-01	 1.5890305782e+00	-1.3635158124e+00
 6.0565864489e-01	 1.5947495478e+00	-1.3207035720e+00
 5.9078630409e-01	 1.6003187566e+00	-1.2765723294e+00
 5.6022529188e-01	 1.5175352514e+00	-1.3488849934e+00
 5.4610501945e-01	 1.5226736338e+00	-1.3174393558e+00
 5.3196711483e-01	 1.5276703685e+00	-1.2875886625e+00
 5.1781359778e-01	 1.5325256694e+00	-1.2590478061e+00
 5.0364647525e-01	 1.5372397864e+00	-1.2314920681e+00
 4.8946774058e-01	 1.5418130057e+00	-1.2045539332e+00
 4.7527937279e-01	 1.5462456483e+00	-1.1778208504e+00
 4.6108333583e-01	 1.5505380703e+00	-1.1508338865e+00
 4.4688157787e-01	 1.5546906618e+00	-1.1230872188e+00
 4.3267603064e-01	 1.5587038468e+00	-1.0940284017e+00
 4.1846860876e-01	 1.5625780821e+00	-1.0630593432e+00
 5.6328142167e-01	 1.5258136793e+00	-1.3624382800e+00
 5.4908412062e-01	 1.5309800925e+00	-1.3319024962e+00
 5.3486909118e-01	 1.5360040853e+00	-1.3017091215e+00
 5.2063836415e-01	 1.5408858727e+00	-1.2717298945e+00
 5.0639395742e-01	 1.5456257061e+00	-1.2418014125e+00
 4.9213787521e-01	 1.5502238731e+00	-1.2117217456e+00
 4.7787210732e-01	 1.5546806966e+00	-1.1812480392e+00
 4.6359862841e-01	 1.5589965345e+00	-1.1500950494e+00
 4.4931939731e-01	 1.5631717792e+00	-1.1179345529e+00
 4.3503635627e-01	 1.5672068568e+00	-1.0843955662e+00
 4.2075143034e-01	 1.5711022268e+00	-1.0490653057e+00
 5.6633754974e-01	 1.5340921025e+00	-1.3723709433e+00
 5.5206322010e-01	 1.5392865465e+00	-1.3419175773e+00
 5.3777106590e-01	 1.5443377974e+00	-1.3108640058e+00
 5.2346312893e-01	 1.5492460713e+00	-1.2792147974e+00
 5.0914143803e-01	 1.5540116211e+00	-1.2469423115e+00
 4.9480800831e-01	 1.5586347358e+00	-1.2139831726e+00
 4.8046484037e-01	 1.5631157401e+00	-1.1802357754e+00
 4.6611391957e-01	 1.5674549940e+00	-1.1455587659e+00
 4.5175721537e-01	 1.5716528918e+00	-1.1097704345e+00
 4.3739668055e-01	 1.5757098620e+00	-1.0726489553e+00
 4.2303425063e-01	 1.5796263666e+00	-1.0339333997e+00
 5.6939367434e-01	 1.5423705164e+00	-1.3783314403e+00
 5.5504231621e-01	 1.5475929911e+00	-1.3472609832e+00
 5.4067303732e-01	 1.5526715001e+00	-1.3149339560e+00
 5.2628789050e-01	 1.5576062605e+00	-1.2814640914e+00
 5.1188891553e-01	 1.5623975266e+00	-1.2469343112e+00
 4.9747813840e-01	 1.5670455889e+00	-1.2113931197e+00
 4.8305757048e-01	 1.5715507741e+00	-1.1748520733e+00
 4.6862920788e-01	 1.5759134438e+00	-1.1372842701e+00
 4.5419503066e-01	 1.5801339947e+00	-1.0986237923e+00
 4.3975700216e-01	 1.5842128576e+00	-1.0587660341e+00
 4.2531706833e-01	 1.5881504968e+00	-1.0175688373e+00
 5.7244979375e-01	 1.5506489162e+00	-1.3799546212e+00
 5.5802140725e-01	 1.5558994216e+00	-1.3476931154e+00
 5.4357500381e-01	 1.5610051885e+00	-1.3137818207e+00
 5.2911264727e-01	 1.5659664354e+00	-1.2784203096e+00
 5.1463638836e-01	 1.5707834178e+00	-1.2417772117e+00
 5.0014826394e-01	 1.5754564278e+00	-1.2039865837e+00
 4.8565029619e-01	 1.5799857937e+00	-1.1651454053e+00
 4.7114449192e-01	 1.5843718793e+00	-1.1253121399e+00
 4.5663284181e-01	 1.5886150833e+00	-1.0845062938e+00
 4.4211731976e-01	 1.5927158387e+00	-1.0427088979e+00
 4.2759988214e-01	 1.5966746125e+00	-9.9986383741e-01
 5.7550590622e-01	 1.5589272972e+00	-1.3768622283e+00
 5.6100049153e-01	 1.5642058333e+00	-1.3429589218e+00
 5.4647696372e-01	 1.5693388581e+00	-1.3072532018e+00
 5.3193739763e-01	 1.5743265914e+00	-1.2700074909e+00
 5.1738385496e-01	 1.5791692900e+00	-1.2314516080e+00
 5.0281838343e-01	 1.5838672476e+00	-1.1917791729e+00
 4.8824301602e-01	 1.5884207942e+00	-1.1511451891e+00
 4.7365977025e-01	 1.5928302956e+00	-1.1096647407e+00
 4.5907064744e-01	 1.5970961526e+00	-1.0674127319e+00
 4.4447763201e-01	 1.6012188005e+00	-1.0244245924e+00
 4.2988269079e-01	 1.6051987089e+00	-9.8069786815e-01
 5.7856201004e-01	 1.5672056547e+00	-1.3686633923e+00
 5.6397956738e-01	 1.5725122214e+00	-1.3327884200e+00
 5.4937891540e-01	 1.5776725041e+00	-1.2951769936e+00
 5.3476213999e-01	 1.5826867237e+00	-1.2561317226e+00
 5.2013131378e-01	 1.5875551384e+00	-1.2159194237e+00
 5.0548849535e-01	 1.5922780435e+00	-1.1747676193e+00
 4.9083572850e-01	 1.5968557708e+00	-1.1328622685e+00
 4.7617504145e-01	 1.6012886880e+00	-1.0903466620e+00
 4.6150844616e-01	 1.6055771979e+00	-1.0473214083e+00
 4.4683793757e-01	 1.6097217383e+00	-1.0038454306e+00
 4.3216549296e-01	 1.6137227811e+00	-9.5993788840e-01
 5.8161810347e-01	 1.5754839841e+00	-1.3549551244e+00
 5.6695863310e-01	 1.5808185813e+00	-1.3168972168e+00
 5.5228085722e-01	 1.5860061218e+00	-1.2773659170e+00
 5.3758687275e-01	 1.5910468275e+00	-1.2366816761e+00
 5.2287876325e-01	 1.5959409583e+00	-1.1951244371e+00
 5.0815859820e-01	 1.6006888109e+00	-1.1529302854e+00
 4.9342843217e-01	 1.6052907188e+00	-1.1102893875e+00
 4.7869030411e-01	 1.6097470516e+00	-1.0673451486e+00
 4.6394623659e-01	 1.6140582143e+00	-1.0241945105e+00
 4.4919823510e-01	 1.6182246471e+00	-9.8088930730e-01
 4.3444828738e-01	 1.6222468243e+00	-9.3743858753e-01
 5.8467418477e-01	 1.5837622807e+00	-1.3353228073e+00
 5.6993768700e-01	 1.5891249082e+00	-1.2949870232e+00
 5.5518278753e-01	 1.5943397063e+00	-1.2536170466e+00
 5.4041159430e-01	 1.5994068982e+00	-1.2115291361e+00
 5.2562620183e-01	 1.6043267450e+00	-1.1689928013e+00
 5.1082869045e-01	 1.6090995449e+00	-1.1262276623e+00
 4.9602112555e-01	 1.6137256332e+00	-1.0834016574e+00
 4.8120555678e-01	 1.6182053816e+00	-1.0406305262e+00
 4.6638401734e-01	 1.6225391971e+00	-9.9797848516e-01
 4.5155852327e-01	 1.6267275222e+00	-9.5546000901e-01
 4.3673107273e-01	 1.6307708338e+00	-9.1304262382e-01
 5.8773025222e-01	 1.5920405398e+00	-1.3093406814e+00
 5.7291672739e-01	 1.5974311975e+00	-1.2667461642e+00
 5.5808470469e-01	 1.6026732531e+00	-1.2237123331e+00
 5.4323630305e-01	 1.6077669310e+00	-1.1805295241e+00
 5.2837362795e-01	 1.6127124936e+00	-1.1374335572e+00
 5.1349877060e-01	 1.6175102407e+00	-1.0946028625e+00
 4.9861380718e-01	 1.6221605095e+00	-1.0521570181e+00
 4.8372079805e-01	 1.6266636733e+00	-1.0101566211e+00
 4.6882178705e-01	 1.6310201415e+00	-9.6860440642e-01
 4.5391880074e-01	 1.6352303588e+00	-9.2744752186e-01
 4.3901384774e-01	 1.6392948045e+00	-8.8658086148e-01
 5.9078630409e-01	 1.6003187566e+00	-1.2765723294e+00
 5.7589575259e-01	 1.6057374444e+00	-1.2318500853e+00
 5.6098660704e-01	 1.6110067574e+00	-1.1874191205e+00
 5.4606099739e-01	 1.6161269212e+00	-1.1435224152e+00
 5.3112104005e-01	 1.6210981995e+00	-1.1003391396e+00
 5.1616883713e-01	 1.6259208937e+00	-1.0579821055e+00
 5.0120647558e-01	 1.6305953427e+00	-1.0164966933e+00
 4.8623602649e-01	 1.6351219218e+00	-9.7586117471e-01
 4.7125954432e-01	 1.6395010426e+00	-9.3598834029e-01
 4.5627906618e-01	 1.6437331520e+00	-8.9672833604e-01
 4.4129661111e-01	 1.6478187318e+00	-8.5787260631e-01
 4.1846860876e-01	 1.5625780821e+00	-1.0630593432e+00
 4.0426120927e-01	 1.5663138575e+00	-1.0299174290e+00
 3.9005571159e-01	 1.5699116960e+00	-9.9603631351e-01
 3.7585397630e-01	 1.5733721522e+00	-9.6328527185e-01
 3.6165784435e-01	 1.5766958111e+00	-9.3291401944e-01
 3.4746913652e-01	 1.5798832881e+00	-9.0383953327e-01
 3.3328965288e-01	 1.5829352275e+00	-8.7600814864e-01
 3.1912117227e-01	 1.5858523025e+00	-8.4939895518e-01
 3.0496545179e-01	 1.5886352143e+00	-8.2386275432e-01
 2.9082422635e-01	 1.5912846913e+00	-7.9914213603e-01
 2.7669920824e-01	 1.5938014885e+00	-7.7488991705e-01
 4.2075143034e-01	 1.5711022268e+00	-1.0490653057e+00
 4.0646652693e-01	 1.5748583815e+00	-1.0118578283e+00
 3.9218353570e-01	 1.5784758469e+00	-9.7424170602e-01
 3.7790432738e-01	 1.5819551804e+00	-9.3805889714e-01
 3.6363075298e-01	 1.5852969706e+00	-9.0476796383e-01
 3.4936464320e-01	 1.5885018358e+00	-8.7336274236e-01
 3.3510780793e-01	 1.5915704241e+00	-8.4352451806e-01
 3.2086203570e-01	 1.5945034123e+00	-8.1511086532e-01
 3.0662909321e-01	 1.5973015053e+00	-7.8785359697e-01
 2.9241072485e-01	 1.5999654357e+00	-7.6137907026e-01
 2.7820865222e-01	 1.6024959625e+00	-7.3522680311e-01
 4.2303425063e-01	 1.5796263666e+00	-1.0339333997e+00
 4.0867184334e-01	 1.5834029007e+00	-9.9361009307e-01
 3.9431135861e-01	 1.5870399929e+00	-9.5309805824e-01
 3.7995467731e-01	 1.5905382038e+00	-9.1420838950e-01
 3.6560366050e-01	 1.5938981251e+00	-8.7853465820e-01
 3.5126014880e-01	 1.5971203786e+00	-8.4526887104e-01
 3.3692596194e-01	 1.6002056158e+00	-8.1380624105e-01
 3.2260289814e-01	 1.6031545171e+00	-7.8388597469e-01
 3.0829273370e-01	 1.6059677914e+00	-7.5512545793e-01
 2.9399722245e-01	 1.6086461751e+00	-7.2704075230e-01
 2.7971809535e-01	 1.6111904315e+00	-6.9906534778e-01
 4.2531706833e-01	 1.5881504968e+00	-1.0175688373e+00
 4.1087715725e-01	 1.5919474102e+00	-9.7500645765e-01
 3.9643917910e-01	 1.5956041292e+00	-9.3238357683e-01
 3.8200502492e-01	 1.5991212175e+00	-8.9147665075e-01
 3.6757656578e-01	 1.6024992699e+00	-8.5394671268e-01
 3.5315565226e-01	 1.6057389116e+00	-8.1928511109e-01
 3.3874411389e-01	 1.6088407976e+00	-7.8659170876e-01
 3.2434375861e-01	 1.6118056121e+00	-7.5549037267e-01
 3.0995637230e-01	 1.6146340677e+00	-7.2548850361e-01
 2.9558371825e-01	 1.6173269048e+00	-6.9599768295e-01
 2.8122753676e-01	 1.6198848907e+00	-6.6635252062e-01
 4.2759988214e-01	 1.5966746125e+00	-9.9986383741e-01
 4.1308246741e-01	 1.6004919051e+00	-9.5586859210e-01
 3.9856699598e-01	 1.6041682509e+00	-9.1186796144e-01
 3.8405536903e-01	 1.6077042166e+00	-8.6959976064e-01
 3.6954946770e-01	 1.6111004001e+00	-8.3073228008e-01
 3.5505115249e-01	 1.6143574300e+00	-7.9513567036e-01
 3.4056226275e-01	 1.6174759649e+00	-7.6161734459e-01
 3.2608461613e-01	 1.6204566925e+00	-7.2968874408e-01
 3.1162000807e-01	 1.6233003293e+00	-6.9875161075e-01
 2.9717021135e-01	 1.6260076197e+00	-6.6811874488e-01
 2.8273697561e-01	 1.6285793351e+00	-6.3703290665e-01
 4.2988269079e-01	 1.6051987089e+00	-9.8069786815e-01
 4.1528777257e-01	 1.6090363807e+00	-9.3600776796e-01
 4.0069480803e-01	 1.6127323533e+00	-8.9131250492e-01
 3.8610570850e-01	 1.6162871963e+00	-8.4830702351e-01
 3.7152236516e-01	 1.6197015108e+00	-8.0862187237e-01
 3.5694664843e-01	 1.6229759289e+00	-7.7254159799e-01
 3.4238040749e-01	 1.6261111125e+00	-7.3861742720e-01
 3.2782546969e-01	 1.6291077532e+00	-7.0624420022e-01
 3.1328364007e-01	 1.6319665712e+00	-6.7472221554e-01
 2.9875670086e-01	 1.6346883149e+00	-6.4327108005e-01
 2.8424641104e-01	 1.6372737599e+00	-6.1104862207e-01
 4.3216549296e-01	 1.6137227811e+00	-9.5993788840e-01
 4.1749307148e-01	 1.6175808321e+00	-9.1522502429e-01
 4.0282261406e-01	 1.6212964313e+00	-8.7047019552e-01
 3.8815604216e-01	 1.6248701516e+00	-8.2732101802e-01
 3.7349525702e-01	 1.6283025971e+00	-7.8736255419e-01
 3.5884213900e-01	 1.6315944033e+00	-7.5122061429e-01
 3.4419854708e-01	 1.6347462357e+00	-7.1732391839e-01
 3.2956631833e-01	 1.6377587894e+00	-6.8491811458e-01
 3.1494726736e-01	 1.6406327886e+00	-6.5320616714e-01
 3.0034318587e-01	 1.6433689855e+00	-6.2131997058e-01
 2.8575584219e-01	 1.6459681599e+00	-5.8833923219e-01
 4.3444828738e-01	 1.6222468243e+00	-9.3743858753e-01
 4.1969836290e-01	 1.6261252544e+00	-8.9331133408e-01
 4.0495041285e-01	 1.6298604803e+00	-8.4908582107e-01
 3.9020636885e-01	 1.6334530777e+00	-8.0635765012e-01
 3.7546814218e-01	 1.6369036542e+00	-7.6666271557e-01
 3.6073762312e-01	 1.6402128484e+00	-7.3088694505e-01
 3.4601668049e-01	 1.6433813295e+00	-6.9746629563e-01
 3.3130716104e-01	 1.6464097962e+00	-6.6546996320e-01
 3.1661088899e-01	 1.6492989764e+00	-6.3400758517e-01
 3.0192966549e-01	 1.6520496266e+00	-6.0212872300e-01
 2.8726526821e-01	 1.6546625304e+00	-5.6884167179e-01
 4.3673107273e-01	 1.6307708338e+00	-9.1304262382e-01
 4.2190364556e-01	 1.6346696428e+00	-8.7004777098e-01
 4.0707820320e-01	 1.6384244952e+00	-8.2689607488e-01
 3.9225668741e-01	 1.6420359698e+00	-7.8512620892e-01
 3.7744101951e-01	 1.6455046771e+00	-7.4622097179e-01
 3.6263309972e-01	 1.6488312594e+00	-7.1125116028e-01
 3.4783480668e-01	 1.6520163890e+00	-6.7877138914e-01
 3.3304799685e-01	 1.6550607686e+00	-6.4765716931e-01
 3.1827450402e-01	 1.6579651300e+00	-6.1692872124e-01
 3.0351613881e-01	 1.6607302332e+00	-5.8555855568e-01
 2.8877468824e-01	 1.6633568665e+00	-5.5249016750e-01
 4.3901384774e-01	 1.6392948045e+00	-8.8658086148e-01
 4.2410891823e-01	 1.6432139925e+00	-8.4520567649e-01
 4.0920598390e-01	 1.6469884714e+00	-8.0362966351e-01
 3.9430699667e-01	 1.6506188229e+00	-7.6332942545e-01
 3.7941388789e-01	 1.6541056611e+00	-7.2573049180e-01
 3.6452856773e-01	 1.6574496312e+00	-6.9202001696e-01
 3.4965292463e-01	 1.6606514094e+00	-6.6096322327e-01
 3.3478882476e-01	 1.6637117019e+00	-6.3123495226e-01
 3.1993811150e-01	 1.6666312442e+00	-6.0176982429e-01
 3.0510260495e-01	 1.6694108005e+00	-5.7146848940e-01
 2.9028410143e-01	 1.6720511631e+00	-5.3921616238e-01
 4.4129661111e-01	 1.6478187318e+00	-8.5787260631e-01
 4.2631417965e-01	 1.6517582986e+00	-8.1854682738e-01
 4.1133375375e-01	 1.6555524039e+00	-7.7900741619e-01
 3.9635729548e-01	 1.6592016323e+00	-7.4066353420e-01
 3.8138674621e-01	 1.6627066012e+00	-7.0487902197e-01
 3.6642402607e-01	 1.6660679591e+00	-6.7289630596e-01
 3.5147103331e-01	 1.6692863858e+00	-6.4376286215e-01
 3.3652964380e-01	 1.6723625910e+00	-6.1595618055e-01
 3.2160171051e-01	 1.6752973142e+00	-5.8832900957e-01
 3.0668906299e-01	 1.6780913235e+00	-5.5971524087e-01
 2.9179350692e-01	 1.6807454153e+00	-5.2894824248e-01
 2.7669920824e-01	 1.5938014885e+00	-7.7488991705e-01
 2.6258969053e-01	 1.5961867811e+00	-7.5121845399e-01
 2.4849974570e-01	 1.5984409358e+00	-7.2852731834e-01
 2.3443102005e-01	 1.6005647824e+00	-7.0681172027e-01
 2.2038513559e-01	 1.6025591752e+00	-6.8605046515e-01
 2.0636368968e-01	 1.6044249910e+00	-6.6621610978e-01
 1.9236825466e-01	 1.6061631297e+00	-6.4728388072e-01
 1.7840037765e-01	 1.6077745126e+00	-6.2923943056e-01
 1.6446158018e-01	 1.6092600820e+00	-6.1208550857e-01
 1.5055335800e-01	 1.6106208007e+00	-5.9584762278e-01
 1.3667718079e-01	 1.6118576511e+00	-5.8057877000e-01
 2.7820865222e-01	 1.6024959625e+00	-7.3522680311e-01
 2.6402216456e-01	 1.6048942673e+00	-7.0963881101e-01
 2.4985535653e-01	 1.6071607188e+00	-6.8521924804e-01
 2.3570988346e-01	 1.6092961514e+00	-6.6196886222e-01
 2.2158737617e-01	 1.6113014239e+00	-6.3987873952e-01
 2.0748944074e-01	 1.6131774181e+00	-6.1894020368e-01
 1.9341765812e-01	 1.6149250387e+00	-5.9915344712e-01
 1.7937358382e-01	 1.6165452119e+00	-5.8053497219e-01
 1.6535874770e-01	 1.6180388854e+00	-5.6312392285e-01
 1.5137465366e-01	 1.6194070271e+00	-5.4698738720e-01
 1.3742277941e-01	 1.6206506247e+00	-5.3222475092e-01
 2.7971809535e-01	 1.6111904315e+00	-6.9906534778e-01
 2.6545463777e-01	 1.6136017486e+00	-6.7161518836e-01
 2.5121096660e-01	 1.6158804968e+00	-6.4553535407e-01
 2.3698874614e-01	 1.6180275154e+00	-6.2082834268e-01
 2.2278961607e-01	 1.6200436677e+00	-5.9749350828e-01
 2.0861519117e-01	 1.6219298403e+00	-5.7553670425e-01
 1.9446706097e-01	 1.6236869427e+00	-5.5497862586e-01
 1.8034678944e-01	 1.6253159063e+00	-5.3586193533e-01
 1.6625591471e-01	 1.6268176838e+00	-5.1825725323e-01
 1.5219594886e-01	 1.6281932485e+00	-5.0226810007e-01
 1.3816837761e-01	 1.6294435933e+00	-4.8803487164e-01
 2.8122753676e-01	 1.6198848907e+00	-6.6635252062e-01
 2.6688710935e-01	 1.6223092199e+00	-6.3717313246e-01
 2.5256657514e-01	 1.6246002650e+00	-6.0956800424e-01
 2.3826760737e-01	 1.6267588695e+00	-5.8353776724e-01
 2.2399185461e-01	 1.6287859015e+00	-5.5908621494e-01
 2.0974094033e-01	 1.6306822525e+00	-5.3622968782e-01
 1.9551646264e-01	 1.6324488368e+00	-5.1500512603e-01
 1.8131999395e-01	 1.6340865907e+00	-4.9547687647e-01
 1.6715308071e-01	 1.6355964723e+00	-4.7774234183e-01
 1.5301724313e-01	 1.6369794599e+00	-4.6193655908e-01
 1.3891397496e-01	 1.6382365519e+00	-4.4823579455e-01
 2.8273697561e-01	 1.6285793351e+00	-6.3703290665e-01
 2.6831957851e-01	 1.6310166765e+00	-6.0633490359e-01
 2.5392218136e-01	 1.6333200183e+00	-5.7740554249e-01
 2.3954646643e-01	 1.6354902088e+00	-5.5024014379e-01
 2.2519409110e-01	 1.6375281206e+00	-5.2484329512e-01
 2.1086668757e-01	 1.6394346498e+00	-5.0123797609e-01
 1.9656586252e-01	 1.6412107159e+00	-4.7947331868e-01
 1.8229319681e-01	 1.6428572603e+00	-4.5963109369e-01
 1.6805024518e-01	 1.6443752458e+00	-4.4183101472e-01
 1.5383853600e-01	 1.6457656564e+00	-4.2623495062e-01
 1.3965957104e-01	 1.6470294956e+00	-4.1305013747e-01
 2.8424641104e-01	 1.6372737599e+00	-6.1104862207e-01
 2.6975204441e-01	 1.6397241134e+00	-5.7911943181e-01
 2.5527778452e-01	 1.6420397519e+00	-5.4913227936e-01
 2.4082532259e-01	 1.6442215283e+00	-5.2107390165e-01
 2.2639632486e-01	 1.6462703197e+00	-4.9494621874e-01
 2.1199243226e-01	 1.6481870273e+00	-4.7077519587e-01
 1.9761526003e-01	 1.6499725752e+00	-4.4861830852e-01
 1.8326639746e-01	 1.6516279099e+00	-4.2857070495e-01
 1.6894740761e-01	 1.6531539995e+00	-4.1077016148e-01
 1.5465982701e-01	 1.6545518329e+00	-3.9540092548e-01
 1.4040516544e-01	 1.6558224194e+00	-3.8269654043e-01
 2.8575584219e-01	 1.6459681599e+00	-5.8833923219e-01
 2.7118450626e-01	 1.6484315255e+00	-5.5554227411e-01
 2.5663338383e-01	 1.6507594608e+00	-5.2482848253e-01
 2.4210417513e-01	 1.6529528230e+00	-4.9617291000e-01
 2.2759855522e-01	 1.6550124942e+00	-4.6957153079e-01
 2.1311817376e-01	 1.6569393800e+00	-4.4504983677e-01
 1.9866465456e-01	 1.6587344097e+00	-4.2267000330e-01
 1.8423959536e-01	 1.6603985347e+00	-4.0253672384e-01
 1.6984456751e-01	 1.6619327282e+00	-3.8480181233e-01
 1.5548111569e-01	 1.6633379846e+00	-3.6966767219e-01
 1.4115075772e-01	 1.6646153182e+00	-3.5738973028e-01
 2.8726526821e-01	 1.6546625304e+00	-5.6884167179e-01
 2.7261696323e-01	 1.6571389081e+00	-5.3561557259e-01
 2.5798897854e-01	 1.6594791400e+00	-5.0457036745e-01
 2.4338302331e-01	 1.6616840881e+00	-4.7566649555e-01
 2.2880078150e-01	 1.6637546389e+00	-4.4889089074e-01
 2.1424391143e-01	 1.6656917030e+00	-4.2426530706e-01
 1.9971404552e-01	 1.6674962144e+00	-4.0185318095e-01
 1.8521278995e-01	 1.6691691297e+00	-3.8176513307e-01
 1.7074172435e-01	 1.6707114272e+00	-3.6416321277e-01
 1.5630240158e-01	 1.6721241064e+00	-3.4926398807e-01
 1.4189634747e-01	 1.6734081872e+00	-3.3734058332e-01
 2.8877468824e-01	 1.6633568665e+00	-5.5249016750e-01
 2.7404941453e-01	 1.6658462561e+00	-5.1934801373e-01
 2.5934456787e-01	 1.6681987847e+00	-4.8843008813e-01
 2.4466186643e-01	 1.6704153185e+00	-4.5967945957e-01
 2.3000300300e-01	 1.6724967489e+00	-4.3307111064e-01
 2.1536964464e-01	 1.6744439912e+00	-4.0861998780e-01
 2.0076343232e-01	 1.6762579843e+00	-3.8638755469e-01
 1.8618598067e-01	 1.6779396898e+00	-3.6648695554e-01
 1.7163887763e-01	 1.6794900913e+00	-3.4908689596e-01
 1.5712368422e-01	 1.6809101933e+00	-3.3441434810e-01
 1.4264193426e-01	 1.6822010213e+00	-3.2275618607e-01
 2.9028410143e-01	 1.6720511631e+00	-5.3921616238e-01
 2.7548185933e-01	 1.6745535646e+00	-5.0674478872e-01
 2.6070015105e-01	 1.6769183898e+00	-4.7647572801e-01
 2.4594070375e-01	 1.6791465094e+00	-4.4833209425e-01
 2.3120521906e-01	 1.6812388193e+00	-4.2227419193e-01
 2.1649537274e-01	 1.6831962397e+00	-3.9830728516e-01
 2.0181281437e-01	 1.6850197145e+00	-3.7648783604e-01
 1.8715916699e-01	 1.6867102102e+00	-3.5692832327e-01
 1.7253602685e-01	 1.6882687155e+00	-3.3980075285e-01
 1.5794496313e-01	 1.6896962404e+00	-3.2533897164e-01
 1.4338751767e-01	 1.6909938155e+00	-3.1383989410e-01
 2.9179350692e-01	 1.6807454153e+00	-5.2894824248e-01
 2.7691429682e-01	 1.6832608288e+00	-4.9780755469e-01
 2.6205572732e-01	 1.6856379504e+00	-4.6877129093e-01
 2.4721953454e-01	 1.6878776557e+00	-4.4174019842e-01
 2.3240742898e-01	 1.6899808451e+00	-4.1665736105e-01
 2.1762109510e-01	 1.6919484436e+00	-3.9351568111e-01
 2.0286219106e-01	 1.6937814001e+00	-3.7236379583e-01
 1.8813234834e-01	 1.6954806859e+00	-3.5331054421e-01
 1.7343317150e-01	 1.6970472951e+00	-3.3652810015e-01
 1.5876623785e-01	 1.6984822427e+00	-3.2225388721e-01
 1.4413309728e-01	 1.6997865649e+00	-3.1079138910e-01
 1.3667718079e-01	 1.6118576511e+00	-5.8057877000e-01
 1.2283683665e-01	 1.6129714553e+00	-5.6658118513e-01
 1.0903135356e-01	 1.6139634527e+00	-5.5407824266e-01
 9.5262089698e-02	 1.6148346794e+00	-5.4305084658e-01
 8.1530377368e-02	 1.6155861883e+00	-5.3350237925e-01
 6.7837522827e-02	 1.6162190481e+00	-5.2546026396e-01
 5.4184806178e-02	 1.6167343431e+00	-5.1897704186e-01
 4.0573481271e-02	 1.6171331722e+00	-5.1413102727e-01
 2.7004775613e-02	 1.6174166482e+00	-5.1102660245e-01
 1.3479890307e-02	 1.6175858975e+00	-5.0979420975e-01
 0.0000000000e+00	 1.6176420588e+00	-5.1059009686e-01
 1.3742277941e-01	 1.6206506247e+00	-5.3222475092e-01
 1.2350693370e-01	 1.6217705049e+00	-5.1900125350e-01
 1.0962613921e-01	 1.6227679138e+00	-5.0732918516e-01
 9.5781761542e-02	 1.6236438933e+00	-4.9713101844e-01
 8.1975140250e-02	 1.6243995017e+00	-4.8835588554e-01
 6.8207588723e-02	 1.6250358139e+00	-4.8098084704e-01
 5.4480394048e-02	 1.6255539199e+00	-4.7501167150e-01
 4.0794816914e-02	 1.6259549247e+00	-4.7048319237e-01
 2.7152091524e-02	 1.6262399471e+00	-4.6745930554e-01
 1.3553425535e-02	 1.6264101197e+00	-4.6603266768e-01
 0.0000000000e+00	 1.6264665874e+00	-4.6632415289e-01
 1.3816837761e-01	 1.6294435933e+00	-4.8803487164e-01
 1.2417703037e-01	 1.6305695495e+00	-4.7557815986e-01
 1.1022092453e-01	 1.6315723700e+00	-4.6470076334e-01
 9.6301433091e-02	 1.6324531021e+00	-4.5527512054e-01
 8.2419902880e-02	 1.6332128102e+00	-4.4720460743e-01
 6.8577654409e-02	 1.6338525747e+00	-4.4042448664e-01
 5.4775981750e-02	 1.6343734917e+00	-4.3490236467e-01
 4.1016152430e-02	 1.6347766722e+00	-4.3063822590e-01
 2.7299407352e-02	 1.6350632411e+00	-4.2766410923e-01
 1.3626960720e-02	 1.6352343369e+00	-4.2604348951e-01
 0.0000000000e+00	 1.6352911109e+00	-4.2587042353e-01
 1.3891397496e-01	 1.6382365519e+00	-4.4823579455e-01
 1.2484712629e-01	 1.6393685841e+00	-4.3651360569e-01
 1.1081570918e-01	 1.6403768161e+00	-4.2636998280e-01
 9.6821104052e-02	 1.6412623009e+00	-4.1763572425e-01
 8.2864665005e-02	 1.6420261086e+00	-4.1017694192e-01
 6.8947719676e-02	 1.6426693255e+00	-4.0389566480e-01
 5.5071569116e-02	 1.6431930536e+00	-3.9872994813e-01
 4.1237487696e-02	 1.6435984097e+00	-3.9465355980e-01
 2.7446723012e-02	 1.6438865250e+00	-3.9167531178e-01
 1.3700495823e-02	 1.6440585441e+00	-3.8983810140e-01
 0.0000000000e+00	 1.6441156245e+00	-3.8921772406e-01
 1.3965957104e-01	 1.6470294956e+00	-4.1305013747e-01
 1.2551722106e-01	 1.6481676038e+00	-4.0200586905e-01
 1.1141049281e-01	 1.6491812473e+00	-3.9251099739e-01
 9.7340774129e-02	 1.6500714848e+00	-3.8436307636e-01
 8.3309426375e-02	 1.6508393921e+00	-3.7739944923e-01
 6.9317784313e-02	 1.6514860613e+00	-3.7149748003e-01
 5.5367155980e-02	 1.6520126004e+00	-3.6657428890e-01
 4.1458822586e-02	 1.6524201322e+00	-3.6258606536e-01
 2.7594038422e-02	 1.6527097939e+00	-3.5952703015e-01
 1.3774030800e-02	 1.6528827363e+00	-3.5742811256e-01
 0.0000000000e+00	 1.6529401231e+00	-3.5635540696e-01
 1.4040516544e-01	 1.6558224194e+00	-3.8269654043e-01
 1.2618731431e-01	 1.6569666035e+00	-3.7224986013e-01
 1.1200527510e-01	 1.6579856585e+00	-3.6329515433e-01
 9.7860443028e-02	 1.6588806487e+00	-3.5560513455e-01
 8.3754186736e-02	 1.6596526556e+00	-3.4899687905e-01
 6.9687848112e-02	 1.6603027772e+00	-3.4333166510e-01
 5.5662742174e-02	 1.6608321273e+00	-3.3851430396e-01
 4.1680156973e-02	 1.6612418347e+00	-3.3449205545e-01
 2.7741353498e-02	 1.6615330428e+00	-3.3125319520e-01
 1.3847565611e-02	 1.6617069085e+00	-3.2882530385e-01
 0.0000000000e+00	 1.6617646017e+00	-3.2727334423e-01
 1.4115075772e-01	 1.6646153182e+00	-3.5738973028e-01
 1.2685740567e-01	 1.6657655783e+00	-3.4743717520e-01
 1.1260005570e-01	 1.6667900448e+00	-3.3889103806e-01
 9.8380110455e-02	 1.6676897876e+00	-3.3150760167e-01
 8.4198945838e-02	 1.6684658941e+00	-3.2509219607e-01
 7.0057910862e-02	 1.6691194680e+00	-3.1949860420e-01
 5.5958327531e-02	 1.6696516291e+00	-3.1462796972e-01
 4.1901490734e-02	 1.6700635123e+00	-3.1042728673e-01
 2.7888668156e-02	 1.6703562668e+00	-3.0688754702e-01
 1.3921100213e-02	 1.6705310557e+00	-3.0404161670e-01
 0.0000000000e+00	 1.6705890552e+00	-3.0196191027e-01
 1.4189634747e-01	 1.6734081872e+00	-3.3734058332e-01
 1.2752749475e-01	 1.6745645232e+00	-3.2775614875e-01
 1.1319483428e-01	 1.6755944012e+00	-3.1946451262e-01
 9.8899776116e-02	 1.6764988966e+00	-3.1221395906e-01
 8.4643703427e-02	 1.6772791027e+00	-3.0580660468e-01
 7.0427972354e-02	 1.6779361289e+00	-3.0009734966e-01
 5.6253911883e-02	 1.6784711010e+00	-2.9499233119e-01
 4.2122823742e-02	 1.6788851598e+00	-2.9044696173e-01
 2.8035982313e-02	 1.6791794607e+00	-2.8646363048e-01
 1.3994634565e-02	 1.6793551729e+00	-2.8308914240e-01
 0.0000000000e+00	 1.6794134788e+00	-2.8041196530e-01
 1.4264193426e-01	 1.6822010213e+00	-3.2275618607e-01
 1.2819758117e-01	 1.6833634332e+00	-3.1339190418e-01
 1.1378961050e-01	 1.6843987226e+00	-3.0517876286e-01
 9.9419439715e-02	 1.6853079707e+00	-2.9786549883e-01
 8.5088459253e-02	 1.6860922763e+00	-2.9125957289e-01
 7.0798032378e-02	 1.6867527548e+00	-2.8522563807e-01
 5.6549495062e-02	 1.6872905379e+00	-2.7968351085e-01
 4.2344155872e-02	 1.6877067723e+00	-2.7460573094e-01
 2.8183295887e-02	 1.6880026196e+00	-2.7001479080e-01
 1.4068168626e-02	 1.6881792551e+00	-2.6598011172e-01
 0.0000000000e+00	 1.6882378674e+00	-2.6261483935e-01
 1.4338751767e-01	 1.6909938155e+00	-3.1383989410e-01
 1.2886766455e-01	 1.6921623033e+00	-3.0452640282e-01
 1.1438438402e-01	 1.6932030041e+00	-2.9619433427e-01
 9.9939100959e-02	 1.6941170048e+00	-2.8860135513e-01
 8.5533213062e-02	 1.6949054099e+00	-2.8156885566e-01
 7.1168090725e-02	 1.6955693408e+00	-2.7497990605e-01
 5.6845076902e-02	 1.6961099348e+00	-2.6877671726e-01
 4.2565487000e-02	 1.6965283449e+00	-2.6295769475e-01
 2.8330608793e-02	 1.6968257385e+00	-2.5757416939e-01
 1.4141702353e-02	 1.6970032973e+00	-2.5272688482e-01
 0.0000000000e+00	 1.6970622159e+00	-2.4856231666e-01
 1.4413309728e-01	 1.6997865649e+00	-3.1079138910e-01
 1.2953774452e-01	 1.7009611285e+00	-3.0133849155e-01
 1.1497915452e-01	 1.7020072407e+00	-2.9266917176e-01
 1.0045875955e-01	 1.7029259940e+00	-2.8455853454e-01
 8.5977964604e-02	 1.7037184986e+00	-2.7685051734e-01
 7.1538147186e-02	 1.7043858817e+00	-2.6945530542e-01
 5.7140657235e-02	 1.7049292867e+00	-2.6234625345e-01
 4.2786816999e-02	 1.7053498724e+00	-2.5555640543e-01
 2.8477920947e-02	 1.7056488125e+00	-2.4917469972e-01
 1.4215235706e-02	 1.7058272945e+00	-2.4334194154e-01
 0.0000000000e+00	 1.7058865195e+00	-2.3824662058e-01
 1.7058865195e+00	 0.0000000000e+00	 3.4255097441e+00
 1.7058272945e+00	 1.4215235706e-02	 3.4225546796e+00
 1.7056488125e+00	 2.8477920947e-02	 3.4178255672e+00
 1.7053498724e+00	 4.2786816999e-02	 3.4110075375e+00
 1.7049292867e+00	 5.7140657235e-02	 3.4018702165e+00
 1.7043858817e+00	 7.1538147186e-02	 3.3902731654e+00
 1.7037184986e+00	 8.5977964604e-02	 3.3761710520e+00
 1.7029259940e+00	 1.0045875955e-01	 3.3596184817e+00
 1.7020072407e+00	 1.1497915452e-01	 3.3407744116e+00
 1.7009611285e+00	 1.2953774452e-01	 3.3199060660e+00
 1.6997865649e+00	 1.4413309728e-01	 3.2973922690e+00
 1.7147092756e+00	 0.0000000000e+00	 3.4186792107e+00
 1.7146497443e+00	 1.4288756164e-02	 3.4162324152e+00
 1.7144703392e+00	 2.8625207270e-02	 3.4121673379e+00
 1.7141698530e+00	 4.3008108185e-02	 3.4061091739e+00
 1.7137470921e+00	 5.7436185734e-02	 3.3977698141e+00
 1.7132008766e+00	 7.1908138752e-02	 3.3869537292e+00
 1.7125300418e+00	 8.6422638153e-02	 3.3735636006e+00
 1.7117334384e+00	 1.0097832702e-01	 3.3576056205e+00
 1.7108099334e+00	 1.1557382071e-01	 3.3391943861e+00
 1.7097584107e+00	 1.3020770698e-01	 3.3185573020e+00
 1.7085777723e+00	 1.4487854614e-01	 3.2960384043e+00
 1.7235319917e+00	 0.0000000000e+00	 3.4084285412e+00
 1.7234721541e+00	 1.4362276288e-02	 3.4062687004e+00
 1.7232918259e+00	 2.8772492924e-02	 3.4026127595e+00
 1.7229897936e+00	 4.3229398368e-02	 3.3970416060e+00
 1.7225648574e+00	 5.7731712894e-02	 3.3892251406e+00
 1.7220158315e+00	 7.2278128642e-02	 3.3789286032e+00
 1.7213415451e+00	 8.6867309687e-02	 3.3660186569e+00
 1.7205408429e+00	 1.0149789213e-01	 3.3504691550e+00
 1.7196125861e+00	 1.1616848420e-01	 3.3323665097e+00
 1.7185556531e+00	 1.3087766640e-01	 3.3119145783e+00
 1.7173689399e+00	 1.4562399163e-01	 3.2894389744e+00
 1.7323546778e+00	 0.0000000000e+00	 3.3947607870e+00
 1.7322945339e+00	 1.4435796163e-02	 3.3926933967e+00
 1.7321132826e+00	 2.8919778079e-02	 3.3892166678e+00
 1.7318097042e+00	 4.3450687800e-02	 3.3838824352e+00
 1.7313825928e+00	 5.8027239050e-02	 3.3763339780e+00
 1.7308307565e+00	 7.2648117275e-02	 3.3663127819e+00
 1.7301530184e+00	 8.7311979709e-02	 3.3536650733e+00
 1.7293482174e+00	 1.0201745547e-01	 3.3383480488e+00
 1.7284152090e+00	 1.1676314568e-01	 3.3204357164e+00
 1.7273528655e+00	 1.3154762354e-01	 3.3001242601e+00
 1.7261600776e+00	 1.4636943457e-01	 3.2777368365e+00
 1.7411773439e+00	 0.0000000000e+00	 3.3776779142e+00
 1.7411168937e+00	 1.4509315872e-02	 3.3755346025e+00
 1.7409347193e+00	 2.9067062899e-02	 3.3720315188e+00
 1.7406295949e+00	 4.3671976730e-02	 3.3667063334e+00
 1.7402003082e+00	 5.8322764537e-02	 3.3591906986e+00
 1.7396456614e+00	 7.3018105069e-02	 3.3492174439e+00
 1.7389644717e+00	 8.7756648724e-02	 3.3366275572e+00
 1.7381555720e+00	 1.0253701764e-01	 3.3213768738e+00
 1.7372178118e+00	 1.1735780580e-01	 3.3035423858e+00
 1.7361500580e+00	 1.3221757917e-01	 3.2833280843e+00
 1.7349511954e+00	 1.4711487583e-01	 3.2610702371e+00
 1.7500000000e+00	 0.0000000000e+00	 3.3571808393e+00
 1.7499392435e+00	 1.4582835497e-02	 3.3548186993e+00
 1.7497561460e+00	 2.9214347553e-02	 3.3511074467e+00
 1.7494494755e+00	 4.3893265410e-02	 3.3455851111e+00
 1.7490180136e+00	 5.8618289688e-02	 3.3378863429e+00
 1.7484605564e+00	 7.3388092444e-02	 3.3277500385e+00
 1.7477759150e+00	 8.8201317235e-02	 3.3150267661e+00
 1.7469629166e+00	 1.0305657922e-01	 3.2996859102e+00
 1.7460204047e+00	 1.1795246526e-01	 3.2818224484e+00
 1.7449472406e+00	 1.3288753404e-01	 3.2616632678e+00
 1.7437423032e+00	 1.4786031625e-01	 3.2395729220e+00
 1.7588226561e+00	 0.0000000000e+00	 3.3332694629e+00
 1.7587615933e+00	 1.4656355122e-02	 3.3305703970e+00
 1.7585775727e+00	 2.9361632207e-02	 3.3264923197e+00
 1.7582693561e+00	 4.4114554089e-02	 3.3205877832e+00
 1.7578357190e+00	 5.8913814840e-02	 3.3125086949e+00
 1.7572754514e+00	 7.3758079819e-02	 3.3020143700e+00
 1.7565873584e+00	 8.8645985747e-02	 3.2889793985e+00
 1.7557702612e+00	 1.0357614080e-01	 3.2734012447e+00
 1.7548229977e+00	 1.1854712471e-01	 3.2554074883e+00
 1.7537444231e+00	 1.3355748891e-01	 3.2352626133e+00
 1.7525334110e+00	 1.4860575666e-01	 3.2133742437e+00
 1.7676453222e+00	 0.0000000000e+00	 3.3059427026e+00
 1.7675839531e+00	 1.4729874830e-02	 3.3028127777e+00
 1.7673990094e+00	 2.9508917028e-02	 3.2982317942e+00
 1.7670892468e+00	 4.4335843020e-02	 3.2917806334e+00
 1.7666534344e+00	 5.9209340326e-02	 3.2831423559e+00
 1.7660903563e+00	 7.4128067613e-02	 3.2721106788e+00
 1.7653988117e+00	 8.9090654762e-02	 3.2585982832e+00
 1.7645776158e+00	 1.0409570297e-01	 3.2426448656e+00
 1.7636256005e+00	 1.1914178483e-01	 3.2244248431e+00
 1.7625416156e+00	 1.3422744453e-01	 3.2042546131e+00
 1.7613245288e+00	 1.4935119792e-01	 3.1825992669e+00
 1.7764680083e+00	 0.0000000000e+00	 3.2751985250e+00
 1.7764063329e+00	 1.4803394705e-02	 3.2715673382e+00
 1.7762204661e+00	 2.9656202182e-02	 3.2663693676e+00
 1.7759091574e+00	 4.4557132451e-02	 3.2592272766e+00
 1.7754711698e+00	 5.9504866482e-02	 3.2498688152e+00
 1.7749052813e+00	 7.4498056245e-02	 3.2381357212e+00
 1.7742102850e+00	 8.9535324784e-02	 3.2239924654e+00
 1.7733849903e+00	 1.0461526631e-01	 3.2075347550e+00
 1.7724282234e+00	 1.1973644631e-01	 3.1889977011e+00
 1.7713388280e+00	 1.3489740168e-01	 3.1687635492e+00
 1.7701156665e+00	 1.5009664087e-01	 3.1473688700e+00
 1.7852907244e+00	 0.0000000000e+00	 3.2410339765e+00
 1.7852287427e+00	 1.4876914830e-02	 3.2368540309e+00
 1.7850419528e+00	 2.9803487837e-02	 3.2309464292e+00
 1.7847290980e+00	 4.4778422635e-02	 3.2229887187e+00
 1.7842889352e+00	 5.9800393642e-02	 3.2127665195e+00
 1.7837202362e+00	 7.4868046135e-02	 3.2001828462e+00
 1.7830217883e+00	 8.9979996318e-02	 3.1852672912e+00
 1.7821923948e+00	 1.0513483142e-01	 3.1681849792e+00
 1.7812308761e+00	 1.2033110980e-01	 3.1492451960e+00
 1.7801360704e+00	 1.3556736110e-01	 3.1289095915e+00
 1.7789068341e+00	 1.5084208636e-01	 3.1077998457e+00
 1.7941134805e+00	 0.0000000000e+00	 3.2034452137e+00
 1.7940511925e+00	 1.4950435288e-02	 3.1986913042e+00
 1.7938634795e+00	 2.9950774159e-02	 3.1920023095e+00
 1.7935490786e+00	 4.4999713821e-02	 3.1831234160e+00
 1.7931067405e+00	 6.0095922142e-02	 3.1719109401e+00
 1.7925352311e+00	 7.5238037701e-02	 3.1583420706e+00
 1.7918333315e+00	 9.0424669867e-02	 3.1425244893e+00
 1.7909998392e+00	 1.0565439889e-01	 3.1247057759e+00
 1.7900335688e+00	 1.2092577599e-01	 3.1052824996e+00
 1.7889333526e+00	 1.3623732356e-01	 3.0848088933e+00
 1.7876980416e+00	 1.5158753522e-01	 3.0640049980e+00
 1.6997865649e+00	 1.4413309728e-01	 3.2973922690e+00
 1.6984822427e+00	 1.5876623785e-01	 3.2725585579e+00
 1.6970472951e+00	 1.7343317150e-01	 3.2442813047e+00
 1.6954806859e+00	 1.8813234834e-01	 3.2124225834e+00
 1.6937814001e+00	 2.0286219106e-01	 3.1769562435e+00
 1.6919484436e+00	 2.1762109510e-01	 3.1379676607e+00
 1.6899808451e+00	 2.3240742898e-01	 3.0956523351e+00
 1.6878776557e+00	 2.4721953454e-01	 3.0503132273e+00
 1.6856379504e+00	 2.6205572732e-01	 3.0023567232e+00
 1.6832608288e+00	 2.7691429682e-01	 2.9522871134e+00
 1.6807454153e+00	 2.9179350692e-01	 2.9006994761e+00
 1.7085777723e+00	 1.4487854614e-01	 3.2960384043e+00
 1.7072667043e+00	 1.5958736855e-01	 3.2709605364e+00
 1.7058243352e+00	 1.7433015881e-01	 3.2422236773e+00
 1.7042496236e+00	 1.8910535904e-01	 3.2097037158e+00
 1.7025415491e+00	 2.0391138373e-01	 3.1733955452e+00
 1.7006991127e+00	 2.1874662005e-01	 3.1334132586e+00
 1.6987213379e+00	 2.3360942808e-01	 3.0899891755e+00
 1.6966072709e+00	 2.4849814108e-01	 3.0434715890e+00
 1.6943559820e+00	 2.6341106587e-01	 2.9943211188e+00
 1.6919665660e+00	 2.7834648312e-01	 2.9431055523e+00
 1.6894381429e+00	 2.9330264772e-01	 2.8904930594e+00
 1.7173689399e+00	 1.4562399163e-01	 3.2894389744e+00
 1.7160511260e+00	 1.6040849553e-01	 3.2642713609e+00
 1.7146013355e+00	 1.7522714206e-01	 3.2353265161e+00
 1.7130185215e+00	 1.9007836532e-01	 3.2024800914e+00
 1.7113016584e+00	 2.0496057165e-01	 3.1657339240e+00
 1.7094497422e+00	 2.1987213991e-01	 3.1252167070e+00
 1.7074617910e+00	 2.3481142173e-01	 3.0811834784e+00
 1.7053368465e+00	 2.4977674182e-01	 3.0340138124e+00
 1.7030739740e+00	 2.6476639828e-01	 2.9842085934e+00
 1.7006722637e+00	 2.7977866292e-01	 2.9323852548e+00
 1.6981308311e+00	 2.9481178167e-01	 2.8792713589e+00
 1.7261600776e+00	 1.4636943457e-01	 3.2777368365e+00
 1.7248355179e+00	 1.6122961972e-01	 3.2526267184e+00
 1.7233783059e+00	 1.7612412227e-01	 3.2237162709e+00
 1.7217873896e+00	 1.9105136829e-01	 3.1908669309e+00
 1.7200617380e+00	 2.0600975600e-01	 3.1540734559e+00
 1.7182003418e+00	 2.2099765593e-01	 3.1134651023e+00
 1.7162022144e+00	 2.3601341129e-01	 3.0693056089e+00
 1.7140663924e+00	 2.5105533822e-01	 3.0219918661e+00
 1.7117919364e+00	 2.6612172608e-01	 2.9720511465e+00
 1.7093779318e+00	 2.8121083786e-01	 2.9201367740e+00
 1.7068234898e+00	 2.9632091050e-01	 2.8670221059e+00
 1.7349511954e+00	 1.4711487583e-01	 3.2610702371e+00
 1.7336198899e+00	 1.6205074205e-01	 3.2361577638e+00
 1.7321552565e+00	 1.7702110044e-01	 3.2075149630e+00
 1.7305562378e+00	 1.9202436906e-01	 3.1749751481e+00
 1.7288217977e+00	 2.0705893797e-01	 3.1385120443e+00
 1.7269509217e+00	 2.2212316940e-01	 3.0982415077e+00
 1.7249426181e+00	 2.3721539814e-01	 3.0544220374e+00
 1.7227959186e+00	 2.5233393171e-01	 3.0074539561e+00
 1.7205098790e+00	 2.6747705081e-01	 2.9578771324e+00
 1.7180835802e+00	 2.8264300955e-01	 2.9063671158e+00
 1.7155161287e+00	 2.9783003590e-01	 2.8537295552e+00
 1.7437423032e+00	 1.4786031625e-01	 3.2395729220e+00
 1.7424042519e+00	 1.6287186345e-01	 3.2149912312e+00
 1.7409321971e+00	 1.7791807759e-01	 3.1868402967e+00
 1.7393250761e+00	 1.9299736873e-01	 3.1549114615e+00
 1.7375818474e+00	 2.0810811875e-01	 3.1191435305e+00
 1.7357014916e+00	 2.2324868160e-01	 3.0796250637e+00
 1.7336830118e+00	 2.3841738361e-01	 3.0365954503e+00
 1.7315254348e+00	 2.5361252376e-01	 2.9904446361e+00
 1.7292278118e+00	 2.6883237400e-01	 2.9417113718e+00
 1.7267892188e+00	 2.8407517962e-01	 2.8910798505e+00
 1.7242087578e+00	 2.9933915960e-01	 2.8393745984e+00
 1.7525334110e+00	 1.4860575666e-01	 3.2133742437e+00
 1.7511886139e+00	 1.6369298484e-01	 3.1892495413e+00
 1.7497091377e+00	 1.7881505474e-01	 3.1618057669e+00
 1.7480939144e+00	 1.9397036840e-01	 3.1307785023e+00
 1.7463418972e+00	 2.0915729953e-01	 3.0960578029e+00
 1.7444520615e+00	 2.2437419380e-01	 3.0576910974e+00
 1.7424234055e+00	 2.3961936909e-01	 3.0158848597e+00
 1.7402549511e+00	 2.5489111581e-01	 2.9710049172e+00
 1.7379457445e+00	 2.7018769720e-01	 2.9235752615e+00
 1.7354948573e+00	 2.8550734969e-01	 2.8742752236e+00
 1.7329013869e+00	 3.0084828329e-01	 2.8239348747e+00
 1.7613245288e+00	 1.4935119792e-01	 3.1825992669e+00
 1.7599729859e+00	 1.6451410717e-01	 3.1590509079e+00
 1.7584860883e+00	 1.7971203291e-01	 3.1325207658e+00
 1.7568627626e+00	 1.9494336917e-01	 3.1026749214e+00
 1.7551019569e+00	 2.1020648150e-01	 3.0693409029e+00
 1.7532026413e+00	 2.2549970728e-01	 3.0325112286e+00
 1.7511638091e+00	 2.4082135594e-01	 2.9923457095e+00
 1.7489844772e+00	 2.5616970931e-01	 2.9491723750e+00
 1.7466636871e+00	 2.7154302193e-01	 2.9034868818e+00
 1.7442005057e+00	 2.8693952138e-01	 2.8559502643e+00
 1.7415940259e+00	 3.0235740870e-01	 2.8073848812e+00
 1.7701156665e+00	 1.5009664087e-01	 3.1473688700e+00
 1.7687573777e+00	 1.6533523136e-01	 3.1245094400e+00
 1.7672630587e+00	 1.8060901311e-01	 3.0990906864e+00
 1.7656316307e+00	 1.9591637214e-01	 3.0706954927e+00
 1.7638620365e+00	 2.1125566585e-01	 3.0390751300e+00
 1.7619532410e+00	 2.2662522330e-01	 3.0041534753e+00
 1.7599042326e+00	 2.4202334550e-01	 2.9660299813e+00
 1.7577140231e+00	 2.5744830570e-01	 2.9249812555e+00
 1.7553816495e+00	 2.7289834973e-01	 2.8814611038e+00
 1.7529061738e+00	 2.8837169632e-01	 2.8360988930e+00
 1.7502866845e+00	 3.0386653752e-01	 2.7896960818e+00
 1.7789068341e+00	 1.5084208636e-01	 3.1077998457e+00
 1.7775417995e+00	 1.6615635834e-01	 3.0857352430e+00
 1.7760400590e+00	 1.8150599636e-01	 3.0616170234e+00
 1.7744005286e+00	 1.9688937842e-01	 3.0349312158e+00
 1.7726221458e+00	 2.1230485376e-01	 3.0053391439e+00
 1.7707038704e+00	 2.2775074315e-01	 2.9726823561e+00
 1.7686446857e+00	 2.4322533915e-01	 2.9369862975e+00
 1.7664435988e+00	 2.5872690644e-01	 2.8984625791e+00
 1.7640996415e+00	 2.7425368214e-01	 2.8575096935e+00
 1.7616118716e+00	 2.8980387613e-01	 2.8147120274e+00
 1.7589793727e+00	 3.0537567148e-01	 2.7708370143e+00
 1.7876980416e+00	 1.5158753522e-01	 3.0640049980e+00
 1.7863262610e+00	 1.6697748904e-01	 3.0428345174e+00
 1.7848170991e+00	 1.8240298368e-01	 3.0201974731e+00
 1.7831694663e+00	 1.9786238912e-01	 2.9954694152e+00
 1.7813822948e+00	 2.1335404644e-01	 2.9682080649e+00
 1.7794545395e+00	 2.2887626810e-01	 2.9381589915e+00
 1.7773851785e+00	 2.4442733825e-01	 2.9052600232e+00
 1.7751732139e+00	 2.6000551298e-01	 2.8696442434e+00
 1.7728176731e+00	 2.7560902069e-01	 2.8316414164e+00
 1.7703176088e+00	 2.9123606242e-01	 2.7917776876e+00
 1.7676721003e+00	 3.0688481227e-01	 2.7507733972e+00
 1.6807454153e+00	 2.9179350692e-01	 2.9006994761e+00
 1.6780913235e+00	 3.0668906299e-01	 2.8460535050e+00
 1.6752973142e+00	 3.2160171051e-01	 2.7874873674e+00
 1.6723625910e+00	 3.3652964380e-01	 2.7267400836e+00
 1.6692863858e+00	 3.5147103331e-01	 2.6655863894e+00
 1.6660679591e+00	 3.6642402607e-01	 2.6058184313e+00
 1.6627066012e+00	 3.8138674621e-01	 2.5480803032e+00
 1.6592016323e+00	 3.9635729548e-01	 2.4898431527e+00
 1.6555524039e+00	 4.1133375375e-01	 2.4300455115e+00
 1.6517582986e+00	 4.2631417965e-01	 2.3677066482e+00
 1.6478187318e+00	 4.4129661111e-01	 2.3018024415e+00
 1.6894381429e+00	 2.9330264772e-01	 2.8904930594e+00
 1.6867703243e+00	 3.0827524282e-01	 2.8348703118e+00
 1.6839618645e+00	 3.2326501778e-01	 2.7752609347e+00
 1.6810119631e+00	 3.3827015757e-01	 2.7134307757e+00
 1.6779198479e+00	 3.5328882316e-01	 2.6511924859e+00
 1.6746847757e+00	 3.6831915202e-01	 2.5903874321e+00
 1.6713060330e+00	 3.8335925857e-01	 2.5313331363e+00
 1.6677829366e+00	 3.9840723473e-01	 2.4717235683e+00
 1.6641148345e+00	 4.1346115047e-01	 2.4105892085e+00
 1.6603011064e+00	 4.2851905435e-01	 2.3469538481e+00
 1.6563411643e+00	 4.4357897416e-01	 2.2797976476e+00
 1.6981308311e+00	 2.9481178167e-01	 2.8792713589e+00
 1.6954492858e+00	 3.0986141547e-01	 2.8231782113e+00
 1.6926263755e+00	 3.2492831751e-01	 2.7630207749e+00
 1.6896612960e+00	 3.4001066344e-01	 2.7005904217e+00
 1.6865532709e+00	 3.5510660477e-01	 2.6377366777e+00
 1.6833015532e+00	 3.7021426938e-01	 2.5763493714e+00
 1.6799054258e+00	 3.8533176199e-01	 2.5163875030e+00
 1.6763642020e+00	 4.0045716469e-01	 2.4558584579e+00
 1.6726772264e+00	 4.1558853754e-01	 2.3938314430e+00
 1.6688438754e+00	 4.3072391905e-01	 2.3293385670e+00
 1.6648635582e+00	 4.4586132687e-01	 2.2613678280e+00
 1.7068234898e+00	 2.9632091050e-01	 2.8670221059e+00
 1.7041282177e+00	 3.1144758272e-01	 2.8109397298e+00
 1.7012908571e+00	 3.2659161159e-01	 2.7507006942e+00
 1.6983105994e+00	 3.4175116339e-01	 2.6881205272e+00
 1.6951866645e+00	 3.5692438020e-01	 2.6250845315e+00
 1.6919183014e+00	 3.7210938029e-01	 2.5635117861e+00
 1.6885047894e+00	 3.8730425869e-01	 2.5030364645e+00
 1.6849454382e+00	 4.0250708769e-01	 2.4419974835e+00
 1.6812395891e+00	 4.1771591738e-01	 2.3794766611e+00
 1.6773866154e+00	 4.3292877626e-01	 2.3145184239e+00
 1.6733859231e+00	 4.4814367181e-01	 2.2461223620e+00
 1.7155161287e+00	 2.9783003590e-01	 2.8537295552e+00
 1.7128071300e+00	 3.1303374638e-01	 2.7981139776e+00
 1.7099553191e+00	 3.2825490189e-01	 2.7382311508e+00
 1.7069598833e+00	 3.4349165940e-01	 2.6759193229e+00
 1.7038200385e+00	 3.5874215151e-01	 2.6130984140e+00
 1.7005350301e+00	 3.7400448691e-01	 2.5516761411e+00
 1.6971041335e+00	 3.8927675093e-01	 2.4910704684e+00
 1.6935266550e+00	 4.0455700604e-01	 2.4298880124e+00
 1.6898019324e+00	 4.1984329240e-01	 2.3672273977e+00
 1.6859293360e+00	 4.3513362847e-01	 2.3021495761e+00
 1.6819082687e+00	 4.5042601159e-01	 2.2336696854e+00
 1.7242087578e+00	 2.9933915960e-01	 2.8393745984e+00
 1.7214860324e+00	 3.1461990824e-01	 2.7846567627e+00
 1.7186197712e+00	 3.2991819031e-01	 2.7255393685e+00
 1.7156091573e+00	 3.4523215344e-01	 2.6638818769e+00
 1.7124534028e+00	 3.6055992076e-01	 2.6016376024e+00
 1.7091517490e+00	 3.7589959138e-01	 2.5406709768e+00
 1.7057034678e+00	 3.9124924093e-01	 2.4802774329e+00
 1.7021078620e+00	 4.0660692206e-01	 2.4192752028e+00
 1.6983642661e+00	 4.2197066501e-01	 2.3567843626e+00
 1.6944720469e+00	 4.3733847818e-01	 2.2918868070e+00
 1.6904306047e+00	 4.5270834877e-01	 2.2236173798e+00
 1.7329013869e+00	 3.0084828329e-01	 2.8239348747e+00
 1.7301649348e+00	 3.1620607010e-01	 2.7705207025e+00
 1.7272842233e+00	 3.3158147874e-01	 2.7125494488e+00
 1.7242584314e+00	 3.4697264748e-01	 2.6519002071e+00
 1.7210867670e+00	 3.6237769001e-01	 2.5905583959e+00
 1.7177684679e+00	 3.7779469586e-01	 2.5303223625e+00
 1.7143028022e+00	 3.9322173094e-01	 2.4704428304e+00
 1.7106890691e+00	 4.0865683809e-01	 2.4099020883e+00
 1.7069265997e+00	 4.2409803761e-01	 2.3478465272e+00
 1.7030147579e+00	 4.3954332789e-01	 2.2833836144e+00
 1.6989529406e+00	 4.5499068596e-01	 2.2155722626e+00
 1.7415940259e+00	 3.0235740870e-01	 2.8073848812e+00
 1.7388438471e+00	 3.1779223376e-01	 2.7556553353e+00
 1.7359486853e+00	 3.3324476904e-01	 2.6991824828e+00
 1.7329077153e+00	 3.4871314349e-01	 2.6398633918e+00
 1.7297201411e+00	 3.6419546132e-01	 2.5797142253e+00
 1.7263851966e+00	 3.7968980247e-01	 2.5204537449e+00
 1.7229021463e+00	 3.9519422317e-01	 2.4613497719e+00
 1.7192702858e+00	 4.1070675643e-01	 2.4015096641e+00
 1.7154889430e+00	 4.2622541263e-01	 2.3401112120e+00
 1.7115574785e+00	 4.4174818010e-01	 2.2762922993e+00
 1.7074752862e+00	 4.5727302573e-01	 2.2091404783e+00
 1.7502866845e+00	 3.0386653752e-01	 2.7896960818e+00
 1.7475227790e+00	 3.1937840101e-01	 2.7400072301e+00
 1.7446131668e+00	 3.3490806312e-01	 2.6853566612e+00
 1.7415570187e+00	 3.5045364345e-01	 2.6276576803e+00
 1.7383535347e+00	 3.6601323675e-01	 2.5689557622e+00
 1.7350019448e+00	 3.8158491339e-01	 2.5108860297e+00
 1.7315015099e+00	 3.9716671988e-01	 2.4527790900e+00
 1.7278515220e+00	 4.1275667943e-01	 2.3938369719e+00
 1.7240513058e+00	 4.2835279247e-01	 2.3332741732e+00
 1.7201002185e+00	 4.4395303731e-01	 2.2702640557e+00
 1.7159976511e+00	 4.5955537068e-01	 2.2039275906e+00
 1.7589793727e+00	 3.0537567148e-01	 2.7708370143e+00
 1.7562017405e+00	 3.2096457366e-01	 2.7235200953e+00
 1.7532776779e+00	 3.3657136285e-01	 2.6709873840e+00
 1.7502063516e+00	 3.5219414932e-01	 2.6151666023e+00
 1.7469869577e+00	 3.6783101836e-01	 2.5581310284e+00
 1.7436187224e+00	 3.8348003074e-01	 2.5014376636e+00
 1.7401009027e+00	 3.9913922329e-01	 2.4445094229e+00
 1.7364327874e+00	 4.1480660939e-01	 2.3866211854e+00
 1.7326136976e+00	 4.3048017954e-01	 2.3270296912e+00
 1.7286429875e+00	 4.4615790201e-01	 2.2649490605e+00
 1.7245200450e+00	 4.6183772338e-01	 2.1995386748e+00
 1.7676721003e+00	 3.0688481227e-01	 2.7507733972e+00
 1.7648807413e+00	 3.2255075349e-01	 2.7061348866e+00
 1.7619422282e+00	 3.3823467012e-01	 2.6559873689e+00
 1.7588557237e+00	 3.5393466308e-01	 2.6022710764e+00
 1.7556204198e+00	 3.6964880820e-01	 2.5470855037e+00
 1.7522355389e+00	 3.8537515669e-01	 2.4919247153e+00
 1.7487003345e+00	 4.0111173565e-01	 2.4363172969e+00
 1.7450140917e+00	 4.1685654864e-01	 2.3795976962e+00
 1.7411761283e+00	 4.3260757626e-01	 2.3210706585e+00
 1.7371857953e+00	 4.4836277670e-01	 2.2599965650e+00
 1.7330424775e+00	 4.6412008643e-01	 2.1955784123e+00
 1.6478187318e+00	 4.4129661111e-01	 2.3018024415e+00
 1.6437331520e+00	 4.5627906618e-01	 2.2328438074e+00
 1.6395010426e+00	 4.7125954432e-01	 2.1621889698e+00
 1.6351219218e+00	 4.8623602649e-01	 2.0899942321e+00
 1.6305953427e+00	 5.0120647558e-01	 2.0163398176e+00
 1.6259208937e+00	 5.1616883713e-01	 1.9412275995e+00
 1.6210981995e+00	 5.3112104005e-01	 1.8645802365e+00
 1.6161269212e+00	 5.4606099739e-01	 1.7862418310e+00
 1.6110067574e+00	 5.6098660704e-01	 1.7059802212e+00
 1.6057374444e+00	 5.7589575259e-01	 1.6234910087e+00
 1.6003187566e+00	 5.9078630409e-01	 1.5384034157e+00
 1.6563411643e+00	 4.4357897416e-01	 2.2797976476e+00
 1.6522344541e+00	 4.5863891770e-01	 2.2094330821e+00
 1.6479804565e+00	 4.7369687410e-01	 2.1371134582e+00
 1.6435786871e+00	 4.8875081386e-01	 2.0631364961e+00
 1.6390286967e+00	 5.0379868933e-01	 1.9877197938e+00
 1.6343300717e+00	 5.1883843543e-01	 1.9109979090e+00
 1.6294824348e+00	 5.3386797037e-01	 1.8330208992e+00
 1.6244854453e+00	 5.4888519638e-01	 1.7537544420e+00
 1.6193388003e+00	 5.6388800051e-01	 1.6730816512e+00
 1.6140422347e+00	 5.7887425538e-01	 1.5908066967e+00
 1.6085955217e+00	 5.9384182003e-01	 1.5066603265e+00
 1.6648635582e+00	 4.4586132687e-01	 2.2613678280e+00
 1.6607357177e+00	 4.6099875853e-01	 2.1900149466e+00
 1.6564598319e+00	 4.7613419283e-01	 2.1164027173e+00
 1.6520354140e+00	 4.9126558982e-01	 2.0409626007e+00
 1.6474620126e+00	 5.0639089132e-01	 1.9640417321e+00
 1.6427392117e+00	 5.2150802163e-01	 1.8858993498e+00
 1.6378666321e+00	 5.3661488823e-01	 1.8067047336e+00
 1.6328439316e+00	 5.5170938257e-01	 1.7265367844e+00
 1.6276708055e+00	 5.6678938082e-01	 1.6453853644e+00
 1.6223469873e+00	 5.8185274467e-01	 1.5631545109e+00
 1.6168722493e+00	 5.9689732213e-01	 1.4796676262e+00
 1.6733859231e+00	 4.4814367181e-01	 2.2461223620e+00
 1.6692369523e+00	 4.6335859134e-01	 2.1741513914e+00
 1.6649391785e+00	 4.7857150328e-01	 2.0995745687e+00
 1.6604921122e+00	 4.9378035724e-01	 2.0229497596e+00
 1.6558952997e+00	 5.0898308450e-01	 1.9447461312e+00
 1.6511483230e+00	 5.2417759875e-01	 1.8653399166e+00
 1.6462508009e+00	 5.3936179675e-01	 1.7850117476e+00
 1.6412023894e+00	 5.5453355916e-01	 1.7039456899e+00
 1.6360027823e+00	 5.6969075127e-01	 1.6222301054e+00
 1.6306517117e+00	 5.8483122383e-01	 1.5398604614e+00
 1.6251489488e+00	 5.9995281383e-01	 1.4567441925e+00
 1.6819082687e+00	 4.5042601159e-01	 2.2336696854e+00
 1.6777381677e+00	 4.6571841880e-01	 2.1614040105e+00
 1.6734185059e+00	 4.8100880820e-01	 2.0861469694e+00
 1.6689487913e+00	 4.9629511895e-01	 2.0085758388e+00
 1.6643285677e+00	 5.1157527181e-01	 1.9292746396e+00
 1.6595574153e+00	 5.2684716982e-01	 1.8487292308e+00
 1.6546349507e+00	 5.4210869904e-01	 1.7673240298e+00
 1.6495608283e+00	 5.5735772935e-01	 1.6853404978e+00
 1.6443347402e+00	 5.7259211515e-01	 1.6029575237e+00
 1.6389564173e+00	 5.8780969624e-01	 1.5202538281e+00
 1.6334256295e+00	 6.0300829862e-01	 1.4372125010e+00
 1.6904306047e+00	 4.5270834877e-01	 2.2236173798e+00
 1.6862393735e+00	 4.6807824359e-01	 2.1513340930e+00
 1.6818978236e+00	 4.8344611036e-01	 2.0756381097e+00
 1.6774054607e+00	 4.9880987782e-01	 1.9973194610e+00
 1.6727618262e+00	 5.1416745618e-01	 1.9170701707e+00
 1.6679664980e+00	 5.2951673787e-01	 1.8354786691e+00
 1.6630190910e+00	 5.4485559823e-01	 1.7530258931e+00
 1.6579192577e+00	 5.6018189633e-01	 1.6700832178e+00
 1.6526666887e+00	 5.7549347574e-01	 1.5869123586e+00
 1.6472611135e+00	 5.9078816528e-01	 1.5036673703e+00
 1.6417023008e+00	 6.0606377994e-01	 1.4203988626e+00
 1.6989529406e+00	 4.5499068596e-01	 2.2155722626e+00
 1.6947405793e+00	 4.7043806837e-01	 2.1435027163e+00
 1.6903771414e+00	 4.8588341251e-01	 2.0675665109e+00
 1.6858621302e+00	 5.0132463668e-01	 1.9886601119e+00
 1.6811950847e+00	 5.1675964055e-01	 1.9075770196e+00
 1.6763755808e+00	 5.3218630591e-01	 1.8250014928e+00
 1.6714032313e+00	 5.4760249741e-01	 1.7415040204e+00
 1.6662776871e+00	 5.6300606332e-01	 1.6575386942e+00
 1.6609986372e+00	 5.7839483632e-01	 1.5734426251e+00
 1.6555658097e+00	 5.9376663432e-01	 1.4894375372e+00
 1.6499789722e+00	 6.0911926126e-01	 1.4056336625e+00
 1.7074752862e+00	 4.5727302573e-01	 2.2091404783e+00
 1.7032417947e+00	 4.7279789583e-01	 2.1374708409e+00
 1.6988564688e+00	 4.8832071743e-01	 2.0614511262e+00
 1.6943188092e+00	 5.0383939840e-01	 1.9820782490e+00
 1.6896283527e+00	 5.1935182786e-01	 1.9002409823e+00
 1.6847846730e+00	 5.3485587698e-01	 1.8167129803e+00
 1.6797873811e+00	 5.5034939971e-01	 1.7321476129e+00
 1.6746361260e+00	 5.6583023351e-01	 1.6470747730e+00
 1.6693305951e+00	 5.8129620020e-01	 1.5618998026e+00
 1.6638705153e+00	 5.9674510673e-01	 1.4769046810e+00
 1.6582556529e+00	 6.1217474604e-01	 1.3922516004e+00
 1.7159976511e+00	 4.5955537068e-01	 2.2039275906e+00
 1.7117430294e+00	 4.7515772864e-01	 2.1327994054e+00
 1.7073358154e+00	 4.9075802788e-01	 2.0568114416e+00
 1.7027755074e+00	 5.0635416581e-01	 1.9770554107e+00
 1.6980616399e+00	 5.2194402104e-01	 1.8945094757e+00
 1.6931937844e+00	 5.3752545410e-01	 1.8100305608e+00
 1.6881715499e+00	 5.5309630823e-01	 1.7243485399e+00
 1.6829945838e+00	 5.6865441010e-01	 1.6380624701e+00
 1.6776625720e+00	 5.8419757065e-01	 1.5516390246e+00
 1.6721752397e+00	 5.9972358590e-01	 1.4654132720e+00
 1.6665323523e+00	 6.1523023775e-01	 1.3795919336e+00
 1.7245200450e+00	 4.6183772338e-01	 2.1995386748e+00
 1.7202442929e+00	 4.7751756946e-01	 2.1290494243e+00
 1.7158151908e+00	 4.9319534661e-01	 2.0531675796e+00
 1.7112322343e+00	 5.0886894177e-01	 1.9730743285e+00
 1.7064949557e+00	 5.2453622303e-01	 1.8898316606e+00
 1.7016029243e+00	 5.4019504030e-01	 1.8043739506e+00
 1.6965557473e+00	 5.5584322609e-01	 1.7175014906e+00
 1.6913530700e+00	 5.7147859629e-01	 1.6298761425e+00
 1.6859945771e+00	 5.8709895097e-01	 1.5420192718e+00
 1.6804799924e+00	 6.0270207519e-01	 1.4543121150e+00
 1.6748090800e+00	 6.1828573985e-01	 1.3669987199e+00
 1.7330424775e+00	 4.6412008643e-01	 2.1955784123e+00
 1.7287455951e+00	 4.7987742099e-01	 2.1257820851e+00
 1.7242946047e+00	 4.9563267639e-01	 2.0500404030e+00
 1.7196889996e+00	 5.1138372914e-01	 1.9696190399e+00
 1.7149283098e+00	 5.2712843678e-01	 1.8856585657e+00
 1.7100121024e+00	 5.4286463860e-01	 1.7991652903e+00
 1.7049399826e+00	 5.5859015640e-01	 1.7110041281e+00
 1.6997115942e+00	 5.7430279528e-01	 1.6218936606e+00
 1.6943266200e+00	 5.9000034444e-01	 1.5324035650e+00
 1.6887847827e+00	 6.0568057798e-01	 1.4429545674e+00
 1.6830858451e+00	 6.2134125579e-01	 1.3538210641e+00
 1.6003187566e+00	 5.9078630409e-01	 1.5384034157e+00
 1.5947495478e+00	 6.0565864489e-01	 1.4518034965e+00
 1.5890305782e+00	 6.2050808558e-01	 1.3648707150e+00
 1.5831617391e+00	 6.3533245882e-01	 1.2772484142e+00
 1.5771429619e+00	 6.5012958706e-01	 1.1885424674e+00
 1.5709742187e+00	 6.6489728352e-01	 1.0983371403e+00
 1.5646555226e+00	 6.7963335308e-01	 1.0062131176e+00
 1.5581869283e+00	 6.9433559319e-01	 9.1176769910e-01
 1.5515685321e+00	 7.0900179485e-01	 8.1463715266e-01
 1.5448004724e+00	 7.2362974352e-01	 7.1452119520e-01
 1.5378829301e+00	 7.3821722017e-01	 6.1120955615e-01
 1.6085955217e+00	 5.9384182003e-01	 1.5066603265e+00
 1.6029975093e+00	 6.0879107980e-01	 1.4217059830e+00
 1.5972489615e+00	 6.2371732103e-01	 1.3369589376e+00
 1.5913497690e+00	 6.3861836515e-01	 1.2519441486e+00
 1.5852998630e+00	 6.5349202336e-01	 1.1661456753e+00
 1.5790992154e+00	 6.6833609758e-01	 1.0790229520e+00
 1.5727478394e+00	 6.8314838133e-01	 9.9002931828e-01
 1.5662457898e+00	 6.9792666066e-01	 8.9863281058e-01
 1.5595931636e+00	 7.1266871514e-01	 8.0433920241e-01
 1.5527900999e+00	 7.2737231881e-01	 7.0671726531e-01
 1.5458367804e+00	 7.4203524112e-01	 6.0538963837e-01
 1.6168722493e+00	 5.9689732213e-01	 1.4796676262e+00
 1.6112454334e+00	 6.1192350052e-01	 1.3959980066e+00
 1.6054673075e+00	 6.2692654193e-01	 1.3130484052e+00
 1.5995377618e+00	 6.4190425659e-01	 1.2302447507e+00
 1.5934567272e+00	 6.5685444443e-01	 1.1469682361e+00
 1.5872241753e+00	 6.7177489606e-01	 1.0625719819e+00
 1.5808401194e+00	 6.8666339364e-01	 9.7640004905e-01
 1.5743046148e+00	 7.0151771185e-01	 8.8780880788e-01
 1.5676177588e+00	 7.1633561882e-01	 7.9619065080e-01
 1.5607796911e+00	 7.3111487713e-01	 7.0100002078e-01
 1.5537905946e+00	 7.4585324477e-01	 6.0124111086e-01
 1.6251489488e+00	 5.9995281383e-01	 1.4567441925e+00
 1.6194933294e+00	 6.1505591059e-01	 1.3739937144e+00
 1.6136856256e+00	 6.3013575192e-01	 1.2924474198e+00
 1.6077257268e+00	 6.4519013686e-01	 1.2114513117e+00
 1.6016135636e+00	 6.6021685407e-01	 1.1303023997e+00
 1.5953491075e+00	 6.7521368285e-01	 1.0482657284e+00
 1.5889323720e+00	 6.9017839401e-01	 9.6459385292e-01
 1.5823634124e+00	 7.0510875083e-01	 8.7854876735e-01
 1.5756423266e+00	 7.2000251003e-01	 7.8942627520e-01
 1.5687692552e+00	 7.3485742272e-01	 6.9658277380e-01
 1.5617443818e+00	 7.4967123543e-01	 5.9785392992e-01
 1.6334256295e+00	 6.0300829862e-01	 1.4372125010e+00
 1.6277412067e+00	 6.1818831355e-01	 1.3550112087e+00
 1.6219039250e+00	 6.3334495464e-01	 1.2744686960e+00
 1.6159136732e+00	 6.4847600968e-01	 1.1948698985e+00
 1.6097703815e+00	 6.6357925609e-01	 1.1154460639e+00
 1.6034740214e+00	 6.7865246184e-01	 1.0353921235e+00
 1.5970246062e+00	 6.9369338641e-01	 9.5388660941e-01
 1.5904221917e+00	 7.0869978167e-01	 8.7011412515e-01
 1.5836668763e+00	 7.2366939293e-01	 7.8329035978e-01
 1.5767588012e+00	 7.3859995984e-01	 6.9268961676e-01
 1.5696981510e+00	 7.5348921745e-01	 5.9446868297e-01
 1.6417023008e+00	 6.0606377994e-01	 1.4203988626e+00
 1.6359890748e+00	 6.2132071297e-01	 1.3383728139e+00
 1.6301222151e+00	 6.3655415373e-01	 1.2584296578e+00
 1.6241016104e+00	 6.5176187878e-01	 1.1798118789e+00
 1.6179271902e+00	 6.6694165429e-01	 1.1017031281e+00
 1.6115989260e+00	 6.8209123694e-01	 1.0232459140e+00
 1.6051168312e+00	 6.9720837482e-01	 9.4356194215e-01
 1.5984809619e+00	 7.1229080845e-01	 8.6177511045e-01
 1.5916914169e+00	 7.2733627167e-01	 7.7703715297e-01
 1.5847483381e+00	 7.4234249271e-01	 6.8850378188e-01
 1.5776519112e+00	 7.5730719513e-01	 5.9034592045e-01
 1.6499789722e+00	 6.0911926126e-01	 1.4056336625e+00
 1.6442369428e+00	 6.2445311239e-01	 1.3234053446e+00
 1.6383405052e+00	 6.3976335281e-01	 1.2436527357e+00
 1.6322895475e+00	 6.5504774788e-01	 1.1655942478e+00
 1.6260839989e+00	 6.7030405250e-01	 1.0883838473e+00
 1.6197238306e+00	 6.8553001204e-01	 1.0111290432e+00
 1.6132090563e+00	 7.0072336324e-01	 9.3291162746e-01
 1.6065397321e+00	 7.1588183522e-01	 8.5281117959e-01
 1.5997159574e+00	 7.3100315041e-01	 7.6993132598e-01
 1.5927378750e+00	 7.4608502559e-01	 6.8287908466e-01
 1.5856056713e+00	 7.6112517282e-01	 5.8476576559e-01
 1.6582556529e+00	 6.1217474604e-01	 1.3922516004e+00
 1.6524848201e+00	 6.2758551536e-01	 1.3094403760e+00
 1.6465588047e+00	 6.4297255553e-01	 1.2294656656e+00
 1.6404774939e+00	 6.5833362070e-01	 1.1515399546e+00
 1.6342408168e+00	 6.7366645452e-01	 1.0748051883e+00
 1.6278487445e+00	 6.8896879103e-01	 9.9835103398e-01
 1.6213012905e+00	 7.0423835564e-01	 9.2123600383e-01
 1.6145985114e+00	 7.1947286606e-01	 8.4251145112e-01
 1.6077405071e+00	 7.3467003331e-01	 7.6124843237e-01
 1.6007274210e+00	 7.4982756270e-01	 6.7503028503e-01
 1.5935594405e+00	 7.6494315484e-01	 5.7702752568e-01
 1.6665323523e+00	 6.1523023775e-01	 1.3795919336e+00
 1.6607327161e+00	 6.3071792543e-01	 1.2958145148e+00
 1.6547771228e+00	 6.4618176552e-01	 1.2152017893e+00
 1.6486654589e+00	 6.6161950097e-01	 1.1369782321e+00
 1.6423976532e+00	 6.7702886416e-01	 1.0602911856e+00
 1.6359736767e+00	 6.9240757782e-01	 9.8422937263e-01
 1.6293935430e+00	 7.0775335601e-01	 9.0784438231e-01
 1.6226573090e+00	 7.2306390505e-01	 8.3017514188e-01
 1.6157650750e+00	 7.3833692452e-01	 7.5027536867e-01
 1.6087169851e+00	 7.5357010830e-01	 6.6427922443e-01
 1.6015132277e+00	 7.6876114550e-01	 5.6644930496e-01
 1.6748090800e+00	 6.1828573985e-01	 1.3669987199e+00
 1.6689806402e+00	 6.3385034615e-01	 1.2818696717e+00
 1.6629954688e+00	 6.4939098642e-01	 1.2002003549e+00
 1.6568534517e+00	 6.6490539241e-01	 1.1212449255e+00
 1.6505545174e+00	 6.8039128522e-01	 1.0441732990e+00
 1.6440986366e+00	 6.9584637630e-01	 9.6808989348e-01
 1.6374858231e+00	 7.1126836832e-01	 8.9205545784e-01
 1.6307161340e+00	 7.2665495624e-01	 8.1511200398e-01
 1.6237896701e+00	 7.4200382820e-01	 7.3628097965e-01
 1.6167065763e+00	 7.5731266662e-01	 6.4996587793e-01
 1.6094670419e+00	 7.7257914915e-01	 5.5236761903e-01
 1.6830858451e+00	 6.2134125579e-01	 1.3538210641e+00
 1.6772286017e+00	 6.3698278107e-01	 1.2669533359e+00
 1.6712138520e+00	 6.5260022188e-01	 1.1838068203e+00
 1.6650414817e+00	 6.6819129874e-01	 1.1036828233e+00
 1.6587114185e+00	 6.8375372154e-01	 1.0257907722e+00
 1.6522236333e+00	 6.9928519036e-01	 9.4926716459e-01
 1.6455781398e+00	 7.1478339657e-01	 8.7319772137e-01
 1.6387749955e+00	 7.3024602370e-01	 7.9664276273e-01
 1.6318143016e+00	 7.4567074850e-01	 7.1824320689e-01
 1.6246962038e+00	 7.6105524190e-01	 6.3144798381e-01
 1.6174208922e+00	 7.7639717010e-01	 5.3413701067e-01
 1.5378829301e+00	 7.3821722017e-01	 6.1120955615e-01
 1.5308173424e+00	 7.5275953348e-01	 5.0922318168e-01
 1.5236028115e+00	 7.6725694188e-01	 4.1066176393e-01
 1.5162396457e+00	 7.8170721905e-01	 3.1568520099e-01
 1.5087281967e+00	 7.9610813808e-01	 2.2459863015e-01
 1.5010688597e+00	 8.1045747260e-01	 1.3773355166e-01
 1.4932620732e+00	 8.2475299774e-01	 5.5460017691e-02
 1.4853083198e+00	 8.3899249124e-01	-2.1800415192e-02
 1.4772081256e+00	 8.5317373444e-01	-9.5305708310e-02
 1.4689620607e+00	 8.6729451342e-01	-1.7281399455e-01
 1.4605707390e+00	 8.8135262000e-01	-2.5229720922e-01
 1.5458367804e+00	 7.4203524112e-01	 6.0538963837e-01
 1.5387346498e+00	 7.5665276651e-01	 5.0287155440e-01
 1.5314828057e+00	 7.7122515476e-01	 4.0347816756e-01
 1.5240815581e+00	 7.8575016800e-01	 3.0745494324e-01
 1.5165312603e+00	 8.0022556784e-01	 2.1505792088e-01
 1.5088323095e+00	 8.1464911637e-01	 1.2656539949e-01
 1.5009851467e+00	 8.2901857722e-01	 4.2290445004e-02
 1.4929902569e+00	 8.4333171663e-01	-3.7405806367e-02
 1.4848481689e+00	 8.5758630449e-01	-1.1210008030e-01
 1.4765594558e+00	 8.7178011540e-01	-1.8334330135e-01
 1.4681247347e+00	 8.8591092977e-01	-2.5795432359e-01
 1.5537905946e+00	 7.4585324477e-01	 6.0124111086e-01
 1.5466519214e+00	 7.6054598190e-01	 4.9826206221e-01
 1.5393627643e+00	 7.7519334965e-01	 3.9829920716e-01
 1.5319234349e+00	 7.8979309863e-01	 3.0154298662e-01
 1.5243342884e+00	 8.0434297893e-01	 2.0818991333e-01
 1.5165957242e+00	 8.1884074113e-01	 1.1845455826e-01
 1.5087081853e+00	 8.3328413736e-01	 3.2582392418e-02
 1.5006721592e+00	 8.4767092236e-01	-4.9136541750e-02
 1.4924881777e+00	 8.6199885453e-01	-1.2635316126e-01
 1.4841568165e+00	 8.7626569704e-01	-1.9864411347e-01
 1.4756786961e+00	 8.9046921888e-01	-2.6799507367e-01
 1.5617443818e+00	 7.4967123543e-01	 5.9785392992e-01
 1.5545691660e+00	 7.6443918406e-01	 4.9460792179e-01
 1.5472426960e+00	 7.7916153105e-01	 3.9433214194e-01
 1.5397652850e+00	 7.9383601552e-01	 2.9715182921e-01
 1.5321372901e+00	 8.0846037603e-01	 2.0319367547e-01
 1.5243591124e+00	 8.2303235165e-01	 1.1259812794e-01
 1.5164311976e+00	 8.3754968300e-01	 2.5532581305e-02
 1.5083540355e+00	 8.5201011333e-01	-5.7794565998e-02
 1.5001281604e+00	 8.6641138957e-01	-1.3711902348e-01
 1.4917541514e+00	 8.8075126344e-01	-2.1210492637e-01
 1.4832326318e+00	 8.9502749249e-01	-2.8232840402e-01
 1.5696981510e+00	 7.5348921745e-01	 5.9446868297e-01
 1.5624863927e+00	 7.6833237739e-01	 4.9114309804e-01
 1.5551226099e+00	 7.8312970346e-01	 3.9080536173e-01
 1.5476071174e+00	 7.9787892324e-01	 2.9350546935e-01
 1.5399402740e+00	 8.1257776380e-01	 1.9929013056e-01
 1.5321224831e+00	 8.2722395267e-01	 1.0821540210e-01
 1.5241541924e+00	 8.4181521898e-01	 2.0360246071e-02
 1.5160358943e+00	 8.5634929447e-01	-6.4159012246e-02
 1.5077681259e+00	 8.7082391461e-01	-1.4517335920e-01
 1.4993514691e+00	 8.8523681966e-01	-2.2244493875e-01
 1.4907865505e+00	 8.9958575577e-01	-2.9565011472e-01
 1.5776519112e+00	 7.5730719513e-01	 5.9034592045e-01
 1.5704036104e+00	 7.7222556631e-01	 4.8712189668e-01
 1.5630025149e+00	 7.8709787137e-01	 3.8696796483e-01
 1.5554489409e+00	 8.0192182639e-01	 2.8984896969e-01
 1.5477432491e+00	 8.1669514690e-01	 1.9572160811e-01
 1.5398858449e+00	 8.3141554894e-01	 1.0454740681e-01
 1.5318771784e+00	 8.4608075012e-01	 1.6306662158e-02
 1.5237177443e+00	 8.6068847069e-01	-6.8986683870e-02
 1.5154080827e+00	 8.7523643465e-01	-1.5126926411e-01
 1.5069487781e+00	 8.8972237081e-01	-2.3041164188e-01
 1.4983404605e+00	 9.0414401388e-01	-3.0620084754e-01
 1.5856056713e+00	 7.6112517282e-01	 5.8476576559e-01
 1.5783208281e+00	 7.7611875523e-01	 4.8181855875e-01
 1.5708824199e+00	 7.9106603928e-01	 3.8208933803e-01
 1.5632907644e+00	 8.0596472953e-01	 2.8544802338e-01
 1.5555462242e+00	 8.2081253000e-01	 1.9175139735e-01
 1.5476492068e+00	 8.3560714521e-01	 1.0085644227e-01
 1.5396001644e+00	 8.5034628126e-01	 1.2634676875e-02
 1.5313995944e+00	 8.6502764692e-01	-7.3012533306e-02
 1.5230480395e+00	 8.7964895470e-01	-1.5613772463e-01
 1.5145460872e+00	 8.9420792196e-01	-2.3673018225e-01
 1.5058943706e+00	 9.0870227200e-01	-3.1469793170e-01
 1.5935594405e+00	 7.6494315484e-01	 5.7702752568e-01
 1.5862380548e+00	 7.8001194856e-01	 4.7452685688e-01
 1.5787623338e+00	 7.9503421169e-01	 3.7545873861e-01
 1.5711325967e+00	 8.1000763725e-01	 2.7958852265e-01
 1.5633492082e+00	 8.2492991776e-01	 1.8666330311e-01
 1.5554125775e+00	 8.3979874622e-01	 9.6425627018e-02
 1.5473231592e+00	 8.5461181723e-01	 8.6282429645e-03
 1.5390814532e+00	 8.6936682806e-01	-7.6950138025e-02
 1.5306880049e+00	 8.8406147974e-01	-1.6048810217e-01
 1.5221434049e+00	 8.9869347818e-01	-2.4210385294e-01
 1.5134482892e+00	 9.1326053528e-01	-3.2183663826e-01
 1.6015132277e+00	 7.6876114550e-01	 5.6644930496e-01
 1.5941552995e+00	 7.8390515072e-01	 4.6455969342e-01
 1.5866422655e+00	 7.9900239309e-01	 3.6638487838e-01
 1.5789744469e+00	 8.1405055414e-01	 2.7157612951e-01
 1.5711522098e+00	 8.2904731486e-01	 1.7976120406e-01
 1.5631759657e+00	 8.4399035674e-01	 9.0558444654e-02
 1.5550461715e+00	 8.5887736287e-01	 3.5919547923e-03
 1.5467633295e+00	 8.7370601903e-01	-8.1492173765e-02
 1.5383279877e+00	 8.8847401478e-01	-1.6500861471e-01
 1.5297407397e+00	 9.0317904458e-01	-2.4721458216e-01
 1.5210022250e+00	 9.1781880889e-01	-3.2829067439e-01
 1.6094670419e+00	 7.7257914915e-01	 5.5236761903e-01
 1.6020725710e+00	 7.8779836611e-01	 4.5124870029e-01
 1.5945222240e+00	 8.0297058798e-01	 3.5419550958e-01
 1.5868163237e+00	 8.1809348477e-01	 2.6073584852e-01
 1.5789552380e+00	 8.3316472596e-01	 1.7036861323e-01
 1.5709393804e+00	 8.4818198151e-01	 8.2578292942e-02
 1.5627692100e+00	 8.6314292302e-01	-3.1494129165e-03
 1.5544452318e+00	 8.7804522476e-01	-8.7310885111e-02
 1.5459679964e+00	 8.9288656483e-01	-1.7036681548e-01
 1.5373381004e+00	 9.0766462623e-01	-2.5272341892e-01
 1.5285561864e+00	 9.2237709800e-01	-3.3471267467e-01
 1.6174208922e+00	 7.7639717010e-01	 5.3413701067e-01
 1.6099898785e+00	 7.9169159915e-01	 4.3394384041e-01
 1.6024022183e+00	 8.0693880086e-01	 3.3823701267e-01
 1.5946582360e+00	 8.2213643373e-01	 2.4641160163e-01
 1.5867583015e+00	 8.3728215572e-01	 1.5782824066e-01
 1.5787028302e+00	 8.5237362528e-01	 7.1828035271e-02
 1.5704922835e+00	 8.6740850250e-01	-1.2251363893e-02
 1.5621271689e+00	 8.8238445016e-01	-9.5058553535e-02
 1.5536080398e+00	 8.9729913487e-01	-1.7721006912e-01
 1.5449354956e+00	 9.1215022821e-01	-2.5927101610e-01
 1.5361101821e+00	 9.2693540778e-01	-3.4173468982e-01
 1.4605707390e+00	 8.8135262000e-01	-2.5229720922e-01
 1.4520348186e+00	 8.9534585312e-01	-3.3374111091e-01
 1.4433550027e+00	 9.0927202075e-01	-4.1874555134e-01
 1.4345320388e+00	 9.2312894020e-01	-5.0603751092e-01
 1.4255667177e+00	 9.3691443887e-01	-5.9424359005e-01
 1.4164598738e+00	 9.5062635536e-01	-6.8189949749e-01
 1.4072123847e+00	 9.6426254050e-01	-7.6746048357e-01
 1.3978251711e+00	 9.7782085850e-01	-8.4931271315e-01
 1.3882991966e+00	 9.9129918793e-01	-9.2578556701e-01
 1.3786354671e+00	 1.0046954228e+00	-9.9516485463e-01
 1.3688350311e+00	 1.0180074738e+00	-1.0557069148e+00
 1.4681247347e+00	 8.8591092977e-01	-2.5795432359e-01
 1.4595446669e+00	 8.9997653516e-01	-3.3650018108e-01
 1.4508199595e+00	 9.1397472821e-01	-4.1997526466e-01
 1.4419513637e+00	 9.2790331492e-01	-5.0688160576e-01
 1.4329396744e+00	 9.4176011147e-01	-5.9561687608e-01
 1.4237857304e+00	 9.5554294527e-01	-6.8448422293e-01
 1.4144904137e+00	 9.6924965605e-01	-7.7170308388e-01
 1.4050546500e+00	 9.8287809696e-01	-8.5542097595e-01
 1.3954794076e+00	 9.9642613561e-01	-9.3372624855e-01
 1.3857656978e+00	 1.0098916552e+00	-1.0046617829e+00
 1.3759145745e+00	 1.0232725554e+00	-1.0662396144e+00
 1.4756786961e+00	 8.9046921888e-01	-2.6799507367e-01
 1.4670544812e+00	 9.0460719621e-01	-3.4273573469e-01
 1.4582848825e+00	 9.1867741434e-01	-4.2384050806e-01
 1.4493706549e+00	 9.3267766800e-01	-5.0958862056e-01
 1.4403125977e+00	 9.4660576211e-01	-5.9815070774e-01
 1.4311115537e+00	 9.6045951290e-01	-6.8759898909e-01
 1.4217684098e+00	 9.7423674900e-01	-7.7591845818e-01
 1.4122840961e+00	 9.8793531250e-01	-8.6101908323e-01
 1.4026595860e+00	 1.0015530601e+00	-9.4074900782e-01
 1.3928958962e+00	 1.0150878639e+00	-1.0129087345e+00
 1.3829940857e+00	 1.0285376131e+00	-1.0752662678e+00
 1.4832326318e+00	 8.9502749249e-01	-2.8232840402e-01
 1.4745642700e+00	 9.0923784152e-01	-3.5258131451e-01
 1.4657497800e+00	 9.2338008449e-01	-4.3047891013e-01
 1.4567899209e+00	 9.3745200484e-01	-5.1429978917e-01
 1.4476854959e+00	 9.5145139626e-01	-6.0198943702e-01
 1.4384373522e+00	 9.6537606381e-01	-6.9139076808e-01
 1.4290463811e+00	 9.7922382499e-01	-7.8025568512e-01
 1.4195135176e+00	 9.9299251085e-01	-8.6625768622e-01
 1.4098397401e+00	 1.0066799671e+00	-9.4700550945e-01
 1.4000260704e+00	 1.0202840550e+00	-1.0200577980e+00
 1.3900735730e+00	 1.0338026528e+00	-1.0829387623e+00
 1.4907865505e+00	 8.9958575577e-01	-2.9565011472e-01
 1.4820740417e+00	 9.1386847633e-01	-3.6614031233e-01
 1.4732146607e+00	 9.2808274398e-01	-4.4001907079e-01
 1.4642091701e+00	 9.4222633087e-01	-5.2114702376e-01
 1.4550583774e+00	 9.5629701944e-01	-6.0726785813e-01
 1.4457631341e+00	 9.7029260358e-01	-6.9599679725e-01
 1.4363243359e+00	 9.8421088968e-01	-7.8485399288e-01
 1.4267429227e+00	 9.9804969774e-01	-8.7127753338e-01
 1.4170198779e+00	 1.0118068625e+00	-9.5263752818e-01
 1.4071562284e+00	 1.0254802343e+00	-1.0262512518e+00
 1.3971530441e+00	 1.0390676807e+00	-1.0893993236e+00
 1.4983404605e+00	 9.0414401388e-01	-3.0620084754e-01
 1.4895838049e+00	 9.1849910590e-01	-3.7962532265e-01
 1.4806795329e+00	 9.3278539815e-01	-4.5258001432e-01
 1.4716284109e+00	 9.4700065148e-01	-5.3025235654e-01
 1.4624312505e+00	 9.6114263713e-01	-6.1411063763e-01
 1.4530889076e+00	 9.7520913778e-01	-7.0154399757e-01
 1.4436022825e+00	 9.8919794872e-01	-7.8984216572e-01
 1.4339723197e+00	 1.0031068789e+00	-8.7620886480e-01
 1.4242000076e+00	 1.0169337520e+00	-9.5777633105e-01
 1.4142863783e+00	 1.0306764078e+00	-1.0316209342e+00
 1.4042325073e+00	 1.0443327026e+00	-1.0947798734e+00
 1.5058943706e+00	 9.0870227200e-01	-3.1469793170e-01
 1.4970935682e+00	 9.2312973546e-01	-3.9067146795e-01
 1.4881444050e+00	 9.3748805231e-01	-4.6600534502e-01
 1.4790476517e+00	 9.5177497210e-01	-5.4172737864e-01
 1.4698041237e+00	 9.6598825482e-01	-6.2263174189e-01
 1.4604146812e+00	 9.8012567198e-01	-7.0814838950e-01
 1.4508802291e+00	 9.9418500776e-01	-7.9533794800e-01
 1.4412017166e+00	 1.0081640601e+00	-8.8117080430e-01
 1.4313801372e+00	 1.0220606416e+00	-9.6254205734e-01
 1.4214165282e+00	 1.0358725812e+00	-1.0362876109e+00
 1.4113119704e+00	 1.0495977244e+00	-1.0992013839e+00
 1.5134482892e+00	 9.1326053528e-01	-3.2183663826e-01
 1.5046033399e+00	 9.2776037028e-01	-3.9996440745e-01
 1.4956092857e+00	 9.4219071180e-01	-4.7733752009e-01
 1.4864669009e+00	 9.5654929812e-01	-5.5462740553e-01
 1.4771770052e+00	 9.7083387800e-01	-6.3293386191e-01
 1.4677404630e+00	 9.8504221176e-01	-7.1591450626e-01
 1.4581581839e+00	 9.9917207245e-01	-8.0144744572e-01
 1.4484311217e+00	 1.0132212469e+00	-8.8627074911e-01
 1.4385602750e+00	 1.0271875370e+00	-9.6704309624e-01
 1.4285466862e+00	 1.0410687605e+00	-1.0403603404e+00
 1.4183914416e+00	 1.0548627523e+00	-1.1027732315e+00
 1.5210022250e+00	 9.1781880889e-01	-3.2829067439e-01
 1.5121131287e+00	 9.3239101559e-01	-4.0816805275e-01
 1.5030741833e+00	 9.4689338195e-01	-4.8719504165e-01
 1.4938861669e+00	 9.6132363497e-01	-5.6595221066e-01
 1.4845499034e+00	 9.7567951216e-01	-6.4479223725e-01
 1.4750662615e+00	 9.8995876267e-01	-7.2493480458e-01
 1.4654361552e+00	 1.0041591484e+00	-8.0826452572e-01
 1.4556605433e+00	 1.0182784453e+00	-8.9160375729e-01
 1.4457404291e+00	 1.0323144440e+00	-9.7137546238e-01
 1.4356768604e+00	 1.0462649516e+00	-1.0439358378e+00
 1.4254709288e+00	 1.0601277921e+00	-1.1055925479e+00
 1.5285561864e+00	 9.2237709800e-01	-3.3471267467e-01
 1.5196229430e+00	 9.3702167664e-01	-4.1592506375e-01
 1.5105391062e+00	 9.5159606809e-01	-4.9620944410e-01
 1.5013054582e+00	 9.6609798805e-01	-5.7606027942e-01
 1.4919228267e+00	 9.8052516279e-01	-6.5574284286e-01
 1.4823920849e+00	 9.9487533030e-01	-7.3526810576e-01
 1.4727141512e+00	 1.0091462414e+00	-8.1587021245e-01
 1.4628899893e+00	 1.0233356608e+00	-8.9725193287e-01
 1.4529206076e+00	 1.0374413685e+00	-9.7562216922e-01
 1.4428070588e+00	 1.0514611604e+00	-1.0470978361e+00
 1.4325504401e+00	 1.0653928498e+00	-1.1077435700e+00
 1.5361101821e+00	 9.2693540778e-01	-3.4173468982e-01
 1.5271327913e+00	 9.4165235869e-01	-4.2385734184e-01
 1.5180040630e+00	 9.5629877555e-01	-5.0499133418e-01
 1.5087247831e+00	 9.7087236277e-01	-5.8554977838e-01
 1.4992957834e+00	 9.8537083540e-01	-6.6571530871e-01
 1.4897179414e+00	 9.9979192022e-01	-7.4541449642e-01
 1.4799921803e+00	 1.0141333570e+00	-8.2433208244e-01
 1.4701194682e+00	 1.0283928993e+00	-9.0328380878e-01
 1.4601008186e+00	 1.0425683162e+00	-9.7985260037e-01
 1.4499372895e+00	 1.0566573927e+00	-1.0499164457e+00
 1.4396299835e+00	 1.0706579313e+00	-1.1092969870e+00
 1.3688350311e+00	 1.0180074738e+00	-1.0557069148e+00
 1.3588972790e+00	 1.0312355088e+00	-1.1160574317e+00
 1.3488250026e+00	 1.0443751969e+00	-1.1836830965e+00
 1.3386193810e+00	 1.0574244959e+00	-1.2551129479e+00
 1.3282816342e+00	 1.0703813842e+00	-1.3269267956e+00
 1.3178130228e+00	 1.0832438620e+00	-1.3957757705e+00
 1.3072148469e+00	 1.0960099521e+00	-1.4584034684e+00
 1.2964884462e+00	 1.1086777011e+00	-1.5116676142e+00
 1.2856351989e+00	 1.1212451801e+00	-1.5581973589e+00
 1.2746565218e+00	 1.1337104859e+00	-1.6077211574e+00
 1.2635538689e+00	 1.1460717420e+00	-1.6601176719e+00
 1.3759145745e+00	 1.0232725554e+00	-1.0662396144e+00
 1.3659254249e+00	 1.0365690051e+00	-1.1270360290e+00
 1.3558010551e+00	 1.0497766510e+00	-1.1945520483e+00
 1.3455426506e+00	 1.0628934402e+00	-1.2652256253e+00
 1.3351514376e+00	 1.0759173409e+00	-1.3355431364e+00
 1.3246286830e+00	 1.0888463427e+00	-1.4020604051e+00
 1.3139756939e+00	 1.1016784584e+00	-1.4614243513e+00
 1.3031938168e+00	 1.1144117243e+00	-1.5109431677e+00
 1.2922844371e+00	 1.1270442017e+00	-1.5593379846e+00
 1.2812489788e+00	 1.1395739774e+00	-1.6102355687e+00
 1.2700889036e+00	 1.1519991652e+00	-1.6631851811e+00
 1.3829940857e+00	 1.0285376131e+00	-1.0752662678e+00
 1.3729535388e+00	 1.0419024772e+00	-1.1363060193e+00
 1.3627770760e+00	 1.0551780805e+00	-1.2035416727e+00
 1.3524658888e+00	 1.0683623597e+00	-1.2733211792e+00
 1.3420212097e+00	 1.0814532724e+00	-1.3420384574e+00
 1.3314443123e+00	 1.0944487981e+00	-1.4061548916e+00
 1.3207365103e+00	 1.1073469390e+00	-1.4622214920e+00
 1.3098991570e+00	 1.1201457216e+00	-1.5108489440e+00
 1.2989336452e+00	 1.1328431970e+00	-1.5611927731e+00
 1.2878414060e+00	 1.1454374423e+00	-1.6132945283e+00
 1.2766239087e+00	 1.1579265616e+00	-1.6666837220e+00
 1.3900735730e+00	 1.0338026528e+00	-1.0829387623e+00
 1.3799816289e+00	 1.0472359311e+00	-1.1440196290e+00
 1.3697530733e+00	 1.0605794917e+00	-1.2108062222e+00
 1.3593891035e+00	 1.0738312607e+00	-1.2795575005e+00
 1.3488909586e+00	 1.0869891852e+00	-1.3465758180e+00
 1.3382599185e+00	 1.1000512344e+00	-1.4082288999e+00
 1.3274973037e+00	 1.1130154003e+00	-1.4611314886e+00
 1.3166044744e+00	 1.1258796993e+00	-1.5115146583e+00
 1.3055828306e+00	 1.1386421726e+00	-1.5635856055e+00
 1.2944338107e+00	 1.1513008873e+00	-1.6167223079e+00
 1.2831588916e+00	 1.1638539379e+00	-1.6704379349e+00
 1.3971530441e+00	 1.0390676807e+00	-1.0893993236e+00
 1.3870097031e+00	 1.0525693730e+00	-1.1503196177e+00
 1.3767290547e+00	 1.0659808906e+00	-1.2164906998e+00
 1.3663123025e+00	 1.0793001492e+00	-1.2840834720e+00
 1.3557606918e+00	 1.0925250854e+00	-1.3493095370e+00
 1.3450755092e+00	 1.1056536580e+00	-1.4084436540e+00
 1.3342580817e+00	 1.1186838488e+00	-1.4602432661e+00
 1.3233097767e+00	 1.1316136641e+00	-1.5127531472e+00
 1.3122320010e+00	 1.1444411350e+00	-1.5663298143e+00
 1.3010262005e+00	 1.1571643190e+00	-1.6203326922e+00
 1.2896938596e+00	 1.1697813007e+00	-1.6742619909e+00
 1.4042325073e+00	 1.0443327026e+00	-1.0947798734e+00
 1.3940377693e+00	 1.0579028088e+00	-1.1553386226e+00
 1.3837050282e+00	 1.0713822835e+00	-1.2207301918e+00
 1.3732354936e+00	 1.0847690316e+00	-1.2870382911e+00
 1.3626304173e+00	 1.0980609794e+00	-1.3503845065e+00
 1.3518910922e+00	 1.1112560752e+00	-1.4069520767e+00
 1.3410188521e+00	 1.1243522909e+00	-1.4600010221e+00
 1.3300150713e+00	 1.1373476223e+00	-1.5143673548e+00
 1.3188811638e+00	 1.1502400909e+00	-1.5692289384e+00
 1.3076185829e+00	 1.1630277441e+00	-1.6239297236e+00
 1.2962288203e+00	 1.1757086568e+00	-1.6779603243e+00
 1.4113119704e+00	 1.0495977244e+00	-1.0992013839e+00
 1.4010658355e+00	 1.0632362446e+00	-1.1591985018e+00
 1.3906810017e+00	 1.0767836763e+00	-1.2236492000e+00
 1.3801586848e+00	 1.0902379140e+00	-1.2885507920e+00
 1.3695001428e+00	 1.1035968733e+00	-1.3499355040e+00
 1.3587066751e+00	 1.1168584925e+00	-1.4050589382e+00
 1.3477796225e+00	 1.1300207330e+00	-1.4601977750e+00
 1.3367203659e+00	 1.1430815806e+00	-1.5161510970e+00
 1.3255303266e+00	 1.1560390467e+00	-1.5720774773e+00
 1.3142109652e+00	 1.1688911691e+00	-1.6273084454e+00
 1.3027637809e+00	 1.1816360129e+00	-1.6813283652e+00
 1.4183914416e+00	 1.0548627523e+00	-1.1027732315e+00
 1.4080939096e+00	 1.0685696865e+00	-1.1620096753e+00
 1.3976569831e+00	 1.0821850752e+00	-1.2253609725e+00
 1.3870818838e+00	 1.0957068025e+00	-1.2887387662e+00
 1.3763698760e+00	 1.1091327735e+00	-1.3480865043e+00
 1.3655222658e+00	 1.1224609161e+00	-1.4037043280e+00
 1.3545404005e+00	 1.1356891814e+00	-1.4606180484e+00
 1.3434256681e+00	 1.1488155453e+00	-1.5178898253e+00
 1.3321794970e+00	 1.1618380092e+00	-1.5746616446e+00
 1.3208033550e+00	 1.1747546008e+00	-1.6302556450e+00
 1.3092987489e+00	 1.1875633757e+00	-1.6841532712e+00
 1.4254709288e+00	 1.0601277921e+00	-1.1055925479e+00
 1.4151219997e+00	 1.0739031404e+00	-1.1638704650e+00
 1.4046329803e+00	 1.0875864864e+00	-1.2259668318e+00
 1.3940050985e+00	 1.1011757035e+00	-1.2877082815e+00
 1.3832396249e+00	 1.1146686863e+00	-1.3453161809e+00
 1.3723378720e+00	 1.1280633524e+00	-1.4026638116e+00
 1.3613011939e+00	 1.1413576428e+00	-1.4610386436e+00
 1.3501309856e+00	 1.1545495231e+00	-1.5193613892e+00
 1.3388286824e+00	 1.1676369847e+00	-1.5767601214e+00
 1.3273957597e+00	 1.1806180458e+00	-1.6325505966e+00
 1.3158337318e+00	 1.1934907519e+00	-1.6862146593e+00
 1.4325504401e+00	 1.0653928498e+00	-1.1077435700e+00
 1.4221501137e+00	 1.0792366125e+00	-1.1648664325e+00
 1.4116090012e+00	 1.0929879160e+00	-1.2255555032e+00
 1.4009283367e+00	 1.1066446230e+00	-1.2855529997e+00
 1.3901093970e+00	 1.1202046179e+00	-1.3428652108e+00
 1.3791535013e+00	 1.1336658078e+00	-1.4017058371e+00
 1.3680620102e+00	 1.1470261234e+00	-1.4612294108e+00
 1.3568363258e+00	 1.1602835203e+00	-1.5203367989e+00
 1.3454778905e+00	 1.1734359800e+00	-1.5781448080e+00
 1.3339881869e+00	 1.1864815107e+00	-1.6339658030e+00
 1.3223687369e+00	 1.1994181483e+00	-1.6872853371e+00
 1.4396299835e+00	 1.0706579313e+00	-1.1092969870e+00
 1.4291782595e+00	 1.0845701087e+00	-1.1650697154e+00
 1.4185850537e+00	 1.0983893700e+00	-1.2242024399e+00
 1.4078516063e+00	 1.1121135673e+00	-1.2823766289e+00
 1.3969792004e+00	 1.1257405746e+00	-1.3406132067e+00
 1.3859691615e+00	 1.1392682885e+00	-1.4005925146e+00
 1.3748228572e+00	 1.1526946297e+00	-1.4609540195e+00
 1.3635416964e+00	 1.1660175436e+00	-1.5205809867e+00
 1.3521271287e+00	 1.1792350016e+00	-1.5785815769e+00
 1.3405806439e+00	 1.1923450022e+00	-1.6342677378e+00
 1.3289037716e+00	 1.2053455716e+00	-1.6871320337e+00
 1.2635538689e+00	 1.1460717420e+00	-1.6601176719e+00
 1.2523306466e+00	 1.1583250283e+00	-1.7108419789e+00
 1.2409864882e+00	 1.1704706520e+00	-1.7560766121e+00
 1.2295229360e+00	 1.1825068424e+00	-1.7966013941e+00
 1.2179415673e+00	 1.1944318594e+00	-1.8332641371e+00
 1.2062439935e+00	 1.2062439935e+00	-1.8669583331e+00
 1.1944318594e+00	 1.2179415673e+00	-1.8986002106e+00
 1.1825068424e+00	 1.2295229360e+00	-1.9291053188e+00
 1.1704706520e+00	 1.2409864882e+00	-1.9593648059e+00
 1.1583250283e+00	 1.2523306466e+00	-1.9902215602e+00
 1.1460717420e+00	 1.2635538689e+00	-2.0224463847e+00
 1.2700889036e+00	 1.1519991652e+00	-1.6631851811e+00
 1.2588076354e+00	 1.1643158249e+00	-1.7137992491e+00
 1.2474048056e+00	 1.1765242651e+00	-1.7585060137e+00
 1.2358819645e+00	 1.1886227061e+00	-1.7982001027e+00
 1.2242406976e+00	 1.2006093986e+00	-1.8338464462e+00
 1.2124826245e+00	 1.2124826245e+00	-1.8664569900e+00
 1.2006093986e+00	 1.2242406976e+00	-1.8970667481e+00
 1.1886227061e+00	 1.2358819645e+00	-1.9267093606e+00
 1.1765242651e+00	 1.2474048056e+00	-1.9563923297e+00
 1.1643158249e+00	 1.2588076354e+00	-1.9870721086e+00
 1.1519991652e+00	 1.2700889036e+00	-2.0196292196e+00
 1.2766239087e+00	 1.1579265616e+00	-1.6666837220e+00
 1.2652845948e+00	 1.1703065944e+00	-1.7171341022e+00
 1.2538230939e+00	 1.1825778509e+00	-1.7613089447e+00
 1.2422409642e+00	 1.1947385421e+00	-1.8001995613e+00
 1.2305397993e+00	 1.2067869099e+00	-1.8348701282e+00
 1.2187212272e+00	 1.2187212272e+00	-1.8664334240e+00
 1.2067869099e+00	 1.2305397993e+00	-1.8960258753e+00
 1.1947385421e+00	 1.2422409642e+00	-1.9247820868e+00
 1.1825778509e+00	 1.2538230939e+00	-1.9538090312e+00
 1.1703065944e+00	 1.2652845948e+00	-1.9841600812e+00
 1.1579265616e+00	 1.2766239087e+00	-2.0168090669e+00
 1.2831588916e+00	 1.1638539379e+00	-1.6704379349e+00
 1.2717615322e+00	 1.1762973435e+00	-1.7206719279e+00
 1.2602413604e+00	 1.1886314160e+00	-1.7643125603e+00
 1.2485999422e+00	 1.2008543573e+00	-1.8024300399e+00
 1.2368388796e+00	 1.2129644002e+00	-1.8361702572e+00
 1.2249598088e+00	 1.2249598088e+00	-1.8667295448e+00
 1.2129644002e+00	 1.2368388796e+00	-1.8953287158e+00
 1.2008543573e+00	 1.2485999422e+00	-1.9231865618e+00
 1.1886314160e+00	 1.2602413604e+00	-1.9514929923e+00
 1.1762973435e+00	 1.2717615322e+00	-1.9813820047e+00
 1.1638539379e+00	 1.2831588916e+00	-2.0139046750e+00
 1.2896938596e+00	 1.1697813007e+00	-1.6742619909e+00
 1.2782384550e+00	 1.1822880790e+00	-1.7242276136e+00
 1.2666596123e+00	 1.1946849674e+00	-1.7673334193e+00
 1.2549589059e+00	 1.2069701586e+00	-1.8047110550e+00
 1.2431379456e+00	 1.2191418765e+00	-1.8375709286e+00
 1.2311983762e+00	 1.2311983762e+00	-1.8671759879e+00
 1.2191418765e+00	 1.2431379456e+00	-1.8948147496e+00
 1.2069701586e+00	 1.2549589059e+00	-1.9217737595e+00
 1.1946849674e+00	 1.2666596123e+00	-1.9493096776e+00
 1.1822880790e+00	 1.2782384550e+00	-1.9786211791e+00
 1.1697813007e+00	 1.2896938596e+00	-2.0108208711e+00
 1.2962288203e+00	 1.1757086568e+00	-1.6779603243e+00
 1.2847153703e+00	 1.1882788078e+00	-1.7276062650e+00
 1.2730778569e+00	 1.2007385120e+00	-1.7701781939e+00
 1.2613178623e+00	 1.2130859530e+00	-1.8068520674e+00
 1.2494370044e+00	 1.2253193457e+00	-1.8388859456e+00
 1.2374369365e+00	 1.2374369365e+00	-1.8675927902e+00
 1.2253193457e+00	 1.2494370044e+00	-1.8943124777e+00
 1.2130859530e+00	 1.2613178623e+00	-1.9203832191e+00
 1.2007385120e+00	 1.2730778569e+00	-1.9471125821e+00
 1.1882788078e+00	 1.2847153703e+00	-1.9757483183e+00
 1.1757086568e+00	 1.2962288203e+00	-2.0074491961e+00
 1.3027637809e+00	 1.1816360129e+00	-1.6813283652e+00
 1.2911922857e+00	 1.1942695365e+00	-1.7306039274e+00
 1.2794961016e+00	 1.2067920565e+00	-1.7726443791e+00
 1.2676768187e+00	 1.2192017474e+00	-1.8086531797e+00
 1.2557360633e+00	 1.2314968150e+00	-1.8399195063e+00
 1.2436754968e+00	 1.2436754968e+00	-1.8677900657e+00
 1.2314968150e+00	 1.2557360633e+00	-1.8936400885e+00
 1.2192017474e+00	 1.2676768187e+00	-1.9188437011e+00
 1.2067920565e+00	 1.2794961016e+00	-1.9447438789e+00
 1.1942695365e+00	 1.2911922857e+00	-1.9726221902e+00
 1.1816360129e+00	 1.3027637809e+00	-2.0036685384e+00
 1.3092987489e+00	 1.1875633757e+00	-1.6841532712e+00
 1.2976692084e+00	 1.2002602720e+00	-1.7330083056e+00
 1.2859143535e+00	 1.2128456079e+00	-1.7745210009e+00
 1.2740357824e+00	 1.2253175488e+00	-1.8099058341e+00
 1.2620351293e+00	 1.2376742913e+00	-1.8404668892e+00
 1.2499140642e+00	 1.2499140642e+00	-1.8675686809e+00
 1.2376742913e+00	 1.2620351293e+00	-1.8926061224e+00
 1.2253175488e+00	 1.2740357824e+00	-1.9169738432e+00
 1.2128456079e+00	 1.2859143535e+00	-1.9420350658e+00
 1.2002602720e+00	 1.2976692084e+00	-1.9690902563e+00
 1.1875633757e+00	 1.3092987489e+00	-1.9993457662e+00
 1.3158337318e+00	 1.1934907519e+00	-1.6862146593e+00
 1.3041461458e+00	 1.2062510211e+00	-1.7345994846e+00
 1.2923326200e+00	 1.2188991731e+00	-1.7755893260e+00
 1.2803947604e+00	 1.2314333640e+00	-1.8103935094e+00
 1.2683342096e+00	 1.2438517815e+00	-1.8403151399e+00
 1.2561526457e+00	 1.2561526457e+00	-1.8667209303e+00
 1.2438517815e+00	 1.2683342096e+00	-1.8910101370e+00
 1.2314333640e+00	 1.2803947604e+00	-1.9145828157e+00
 1.2188991731e+00	 1.2923326200e+00	-1.9388076121e+00
 1.2062510211e+00	 1.3041461458e+00	-1.9649893099e+00
 1.1934907519e+00	 1.3158337318e+00	-1.9943363608e+00
 1.3223687369e+00	 1.1994181483e+00	-1.6872853371e+00
 1.3106231052e+00	 1.2122417906e+00	-1.7351506497e+00
 1.2987509083e+00	 1.2249527588e+00	-1.7756235698e+00
 1.2867537601e+00	 1.2375492000e+00	-1.8098924188e+00
 1.2746333113e+00	 1.2500292928e+00	-1.8392437571e+00
 1.2623912484e+00	 1.2623912484e+00	-1.8650312116e+00
 1.2500292928e+00	 1.2746333113e+00	-1.8886433723e+00
 1.2375492000e+00	 1.2867537601e+00	-1.9114709769e+00
 1.2249527588e+00	 1.2987509083e+00	-1.9348736055e+00
 1.2122417906e+00	 1.3106231052e+00	-1.9601461153e+00
 1.1994181483e+00	 1.3223687369e+00	-1.9884850471e+00
 1.3289037716e+00	 1.2053455716e+00	-1.6871320337e+00
 1.3171000940e+00	 1.2182325872e+00	-1.7344288059e+00
 1.3051692256e+00	 1.2310063719e+00	-1.7743916051e+00
 1.2931127885e+00	 1.2436650637e+00	-1.8081722067e+00
 1.2809324416e+00	 1.2562068321e+00	-1.8370253786e+00
 1.2686298794e+00	 1.2686298794e+00	-1.8622767010e+00
 1.2562068321e+00	 1.2809324416e+00	-1.8852894153e+00
 1.2436650637e+00	 1.2931127885e+00	-1.9074305277e+00
 1.2310063719e+00	 1.3051692256e+00	-1.9300363974e+00
 1.2182325872e+00	 1.3171000940e+00	-1.9543780456e+00
 1.2053455716e+00	 1.3289037716e+00	-1.9816264255e+00
 1.1460717420e+00	 1.2635538689e+00	-2.0224463847e+00
 1.1337104859e+00	 1.2746565218e+00	-2.0503855939e+00
 1.1212451801e+00	 1.2856351989e+00	-2.0678638865e+00
 1.1086777011e+00	 1.2964884462e+00	-2.0750217148e+00
 1.0960099521e+00	 1.3072148469e+00	-2.0816706055e+00
 1.0832438620e+00	 1.3178130228e+00	-2.0913036905e+00
 1.0703813842e+00	 1.3282816342e+00	-2.1018797247e+00
 1.0574244959e+00	 1.3386193810e+00	-2.1111776530e+00
 1.0443751969e+00	 1.3488250026e+00	-2.1168186663e+00
 1.0312355088e+00	 1.3588972790e+00	-2.1162886939e+00
 1.0180074738e+00	 1.3688350311e+00	-2.1069612101e+00
 1.1519991652e+00	 1.2700889036e+00	-2.0196292196e+00
 1.1395739774e+00	 1.2812489788e+00	-2.0486211273e+00
 1.1270442017e+00	 1.2922844371e+00	-2.0679520747e+00
 1.1144117243e+00	 1.3031938168e+00	-2.0773748094e+00
 1.1016784584e+00	 1.3139756939e+00	-2.0807651923e+00
 1.0888463427e+00	 1.3246286830e+00	-2.0876492482e+00
 1.0759173409e+00	 1.3351514376e+00	-2.0963983500e+00
 1.0628934402e+00	 1.3455426506e+00	-2.1046563085e+00
 1.0497766510e+00	 1.3558010551e+00	-2.1099069571e+00
 1.0365690051e+00	 1.3659254249e+00	-2.1094974441e+00
 1.0232725554e+00	 1.3759145745e+00	-2.1006618426e+00
 1.1579265616e+00	 1.2766239087e+00	-2.0168090669e+00
 1.1454374423e+00	 1.2878414060e+00	-2.0465412953e+00
 1.1328431970e+00	 1.2989336452e+00	-2.0673815938e+00
 1.1201457216e+00	 1.3098991570e+00	-2.0790097677e+00
 1.1073469390e+00	 1.3207365103e+00	-2.0816345139e+00
 1.0944487981e+00	 1.3314443123e+00	-2.0853346619e+00
 1.0814532724e+00	 1.3420212097e+00	-2.0918735487e+00
 1.0683623597e+00	 1.3524658888e+00	-2.0987740639e+00
 1.0551780805e+00	 1.3627770760e+00	-2.1033962441e+00
 1.0419024772e+00	 1.3729535388e+00	-2.1029613647e+00
 1.0285376131e+00	 1.3829940857e+00	-2.0945763520e+00
 1.1638539379e+00	 1.2831588916e+00	-2.0139046750e+00
 1.1513008873e+00	 1.2944338107e+00	-2.0440866112e+00
 1.1386421726e+00	 1.3055828306e+00	-2.0661096537e+00
 1.1258796993e+00	 1.3166044744e+00	-2.0796002000e+00
 1.1130154003e+00	 1.3274973037e+00	-2.0840349184e+00
 1.1000512344e+00	 1.3382599185e+00	-2.0842933858e+00
 1.0869891852e+00	 1.3488909586e+00	-2.0882369206e+00
 1.0738312607e+00	 1.3593891035e+00	-2.0934545408e+00
 1.0605794917e+00	 1.3697530733e+00	-2.0971956991e+00
 1.0472359311e+00	 1.3799816289e+00	-2.0965683627e+00
 1.0338026528e+00	 1.3900735730e+00	-2.0885642263e+00
 1.1697813007e+00	 1.2896938596e+00	-2.0108208711e+00
 1.1571643190e+00	 1.3010262005e+00	-2.0411829777e+00
 1.1444411350e+00	 1.3122320010e+00	-2.0640782672e+00
 1.1316136641e+00	 1.3233097767e+00	-2.0790990716e+00
 1.1186838488e+00	 1.3342580817e+00	-2.0856833043e+00
 1.1056536580e+00	 1.3450755092e+00	-2.0844382656e+00
 1.0925250854e+00	 1.3557606918e+00	-2.0854002640e+00
 1.0793001492e+00	 1.3663123025e+00	-2.0886025206e+00
 1.0659808906e+00	 1.3767290547e+00	-2.0911967725e+00
 1.0525693730e+00	 1.3870097031e+00	-2.0901899028e+00
 1.0390676807e+00	 1.3971530441e+00	-2.0824699559e+00
 1.1757086568e+00	 1.2962288203e+00	-2.0074491961e+00
 1.1630277441e+00	 1.3076185829e+00	-2.0377423149e+00
 1.1502400909e+00	 1.3188811638e+00	-2.0612148682e+00
 1.1373476223e+00	 1.3300150713e+00	-2.0774442799e+00
 1.1243522909e+00	 1.3410188521e+00	-2.0858483058e+00
 1.1112560752e+00	 1.3518910922e+00	-2.0856604063e+00
 1.0980609794e+00	 1.3626304173e+00	-2.0832554608e+00
 1.0847690316e+00	 1.3732354936e+00	-2.0841038223e+00
 1.0713822835e+00	 1.3837050282e+00	-2.0852730597e+00
 1.0579028088e+00	 1.3940377693e+00	-2.0836808601e+00
 1.0443327026e+00	 1.4042325073e+00	-2.0761228667e+00
 1.1816360129e+00	 1.3027637809e+00	-2.0036685384e+00
 1.1688911691e+00	 1.3142109652e+00	-2.0336631869e+00
 1.1560390467e+00	 1.3255303266e+00	-2.0574329275e+00
 1.1430815806e+00	 1.3367203659e+00	-2.0745592576e+00
 1.1300207330e+00	 1.3477796225e+00	-2.0844582001e+00
 1.1168584925e+00	 1.3587066751e+00	-2.0863546748e+00
 1.1035968733e+00	 1.3695001428e+00	-2.0816743602e+00
 1.0902379140e+00	 1.3801586848e+00	-2.0798251794e+00
 1.0767836763e+00	 1.3906810017e+00	-2.0792801681e+00
 1.0632362446e+00	 1.4010658355e+00	-2.0768793725e+00
 1.0495977244e+00	 1.4113119704e+00	-2.0693369552e+00
 1.1875633757e+00	 1.3092987489e+00	-1.9993457662e+00
 1.1747546008e+00	 1.3208033550e+00	-2.0288314274e+00
 1.1618380092e+00	 1.3321794970e+00	-2.0526325685e+00
 1.1488155453e+00	 1.3434256681e+00	-2.0703535746e+00
 1.1356891814e+00	 1.3545404005e+00	-2.0814269958e+00
 1.1224609161e+00	 1.3655222658e+00	-2.0850868625e+00
 1.1091327735e+00	 1.3763698760e+00	-2.0805086621e+00
 1.0957068025e+00	 1.3870818838e+00	-2.0756141169e+00
 1.0821850752e+00	 1.3976569831e+00	-2.0730555845e+00
 1.0685696865e+00	 1.4080939096e+00	-2.0696066943e+00
 1.0548627523e+00	 1.4183914416e+00	-2.0619107247e+00
 1.1934907519e+00	 1.3158337318e+00	-1.9943363608e+00
 1.1806180458e+00	 1.3273957597e+00	-2.0231207644e+00
 1.1676369847e+00	 1.3388286824e+00	-2.0467011813e+00
 1.1545495231e+00	 1.3501309856e+00	-2.0647235383e+00
 1.1413576428e+00	 1.3613011939e+00	-2.0766550171e+00
 1.1280633524e+00	 1.3723378720e+00	-2.0817562560e+00
 1.1146686863e+00	 1.3832396249e+00	-2.0790548168e+00
 1.1011757035e+00	 1.3940050985e+00	-2.0712988276e+00
 1.0875864864e+00	 1.4046329803e+00	-2.0664185411e+00
 1.0739031404e+00	 1.4151219997e+00	-2.0616670505e+00
 1.0601277921e+00	 1.4254709288e+00	-2.0536270232e+00
 1.1994181483e+00	 1.3223687369e+00	-1.9884850471e+00
 1.1864815107e+00	 1.3339881869e+00	-2.0163934443e+00
 1.1734359800e+00	 1.3454778905e+00	-2.0395140361e+00
 1.1602835203e+00	 1.3568363258e+00	-2.0575527936e+00
 1.1470261234e+00	 1.3680620102e+00	-2.0700294861e+00
 1.1336658078e+00	 1.3791535013e+00	-2.0762487119e+00
 1.1202046179e+00	 1.3901093970e+00	-2.0752722310e+00
 1.1066446230e+00	 1.4009283367e+00	-2.0666880481e+00
 1.0929879160e+00	 1.4116090012e+00	-2.0591698832e+00
 1.0792366125e+00	 1.4221501137e+00	-2.0528474911e+00
 1.0653928498e+00	 1.4325504401e+00	-2.0442528822e+00
 1.2053455716e+00	 1.3289037716e+00	-1.9816264255e+00
 1.1923450022e+00	 1.3405806439e+00	-2.0085008551e+00
 1.1792350016e+00	 1.3521271287e+00	-2.0309348958e+00
 1.1660175436e+00	 1.3635416964e+00	-2.0487129217e+00
 1.1526946297e+00	 1.3748228572e+00	-2.0614251054e+00
 1.1392682885e+00	 1.3859691615e+00	-2.0684372198e+00
 1.1257405746e+00	 1.3969792004e+00	-2.0688617800e+00
 1.1121135673e+00	 1.4078516063e+00	-2.0615307456e+00
 1.0983893700e+00	 1.4185850537e+00	-2.0510919363e+00
 1.0845701087e+00	 1.4291782595e+00	-2.0429177468e+00
 1.0706579313e+00	 1.4396299835e+00	-2.0335393565e+00
 1.0180074738e+00	 1.3688350311e+00	-2.1069612101e+00
 1.0046954228e+00	 1.3786354671e+00	-2.0940175423e+00
 9.9129918793e-01	 1.3882991966e+00	-2.0838376647e+00
 9.7782085850e-01	 1.3978251711e+00	-2.0754903358e+00
 9.6426254050e-01	 1.4072123847e+00	-2.0680073467e+00
 9.5062635536e-01	 1.4164598738e+00	-2.0604030982e+00
 9.3691443887e-01	 1.4255667177e+00	-2.0516938412e+00
 9.2312894020e-01	 1.4345320388e+00	-2.0409164836e+00
 9.0927202075e-01	 1.4433550027e+00	-2.0271468650e+00
 8.9534585312e-01	 1.4520348186e+00	-2.0095174091e+00
 8.8135262000e-01	 1.4605707390e+00	-1.9872340662e+00
 1.0232725554e+00	 1.3759145745e+00	-2.1006618426e+00
 1.0098916552e+00	 1.3857656978e+00	-2.0884291539e+00
 9.9642613561e-01	 1.3954794076e+00	-2.0790543055e+00
 9.8287809696e-01	 1.4050546500e+00	-2.0715027737e+00
 9.6924965605e-01	 1.4144904137e+00	-2.0646976697e+00
 9.5554294527e-01	 1.4237857304e+00	-2.0575400569e+00
 9.4176011147e-01	 1.4329396744e+00	-2.0489289248e+00
 9.2790331492e-01	 1.4419513637e+00	-2.0377807175e+00
 9.1397472821e-01	 1.4508199595e+00	-2.0230483165e+00
 8.9997653516e-01	 1.4595446669e+00	-2.0037393836e+00
 8.8591092977e-01	 1.4681247347e+00	-1.9789339745e+00
 1.0285376131e+00	 1.3829940857e+00	-2.0945763520e+00
 1.0150878639e+00	 1.3928958962e+00	-2.0830749381e+00
 1.0015530601e+00	 1.4026595860e+00	-2.0745215761e+00
 9.8793531250e-01	 1.4122840961e+00	-2.0677569577e+00
 9.7423674900e-01	 1.4217684098e+00	-2.0615746712e+00
 9.6045951290e-01	 1.4311115537e+00	-2.0547422978e+00
 9.4660576211e-01	 1.4403125977e+00	-2.0460221555e+00
 9.3267766800e-01	 1.4493706549e+00	-2.0341915852e+00
 9.1867741434e-01	 1.4582848825e+00	-2.0180626746e+00
 9.0460719621e-01	 1.4670544812e+00	-1.9965013243e+00
 8.9046921888e-01	 1.4756786961e+00	-1.9684455625e+00
 1.0338026528e+00	 1.3900735730e+00	-2.0885642263e+00
 1.0202840550e+00	 1.4000260704e+00	-2.0777865170e+00
 1.0066799671e+00	 1.4098397401e+00	-2.0700518162e+00
 9.9299251085e-01	 1.4195135176e+00	-2.0640546937e+00
 9.7922382499e-01	 1.4290463811e+00	-2.0584385305e+00
 9.6537606381e-01	 1.4384373522e+00	-2.0518174330e+00
 9.5145139626e-01	 1.4476854959e+00	-2.0427977844e+00
 9.3745200484e-01	 1.4567899209e+00	-2.0299993235e+00
 9.2338008449e-01	 1.4657497800e+00	-2.0120756441e+00
 9.0923784152e-01	 1.4745642700e+00	-1.9877340162e+00
 8.9502749249e-01	 1.4832326318e+00	-1.9558970528e+00
 1.0390676807e+00	 1.3971530441e+00	-2.0824699559e+00
 1.0254802343e+00	 1.4071562284e+00	-2.0723819639e+00
 1.0118068625e+00	 1.4170198779e+00	-2.0654451046e+00
 9.9804969774e-01	 1.4267429227e+00	-2.0601866471e+00
 9.8421088968e-01	 1.4363243359e+00	-2.0550792331e+00
 9.7029260358e-01	 1.4457631341e+00	-2.0485636480e+00
 9.5629701944e-01	 1.4550583774e+00	-2.0390712171e+00
 9.4222633087e-01	 1.4642091701e+00	-2.0250457134e+00
 9.2808274398e-01	 1.4732146607e+00	-2.0049646667e+00
 9.1386847633e-01	 1.4820740417e+00	-1.9773719481e+00
 8.9958575577e-01	 1.4907865505e+00	-1.9446379101e+00
 1.0443327026e+00	 1.4042325073e+00	-2.0761228667e+00
 1.0306764078e+00	 1.4142863783e+00	-2.0666656176e+00
 1.0169337520e+00	 1.4242000076e+00	-2.0604890594e+00
 1.0031068789e+00	 1.4339723197e+00	-2.0559321333e+00
 9.8919794872e-01	 1.4436022825e+00	-2.0512763557e+00
 9.7520913778e-01	 1.4530889076e+00	-2.0447694850e+00
 9.6114263713e-01	 1.4624312505e+00	-2.0346488008e+00
 9.4700065148e-01	 1.4716284109e+00	-2.0191638758e+00
 9.3278539815e-01	 1.4806795329e+00	-1.9965987296e+00
 9.1849910590e-01	 1.4895838049e+00	-1.9673906171e+00
 9.0414401388e-01	 1.4983404605e+00	-1.9353423296e+00
 1.0495977244e+00	 1.4113119704e+00	-2.0693369552e+00
 1.0358725812e+00	 1.4214165282e+00	-2.0604279005e+00
 1.0220606416e+00	 1.4313801372e+00	-2.0549586417e+00
 1.0081640601e+00	 1.4412017166e+00	-2.0510589113e+00
 9.9418500776e-01	 1.4508802291e+00	-2.0467988543e+00
 9.8012567198e-01	 1.4604146812e+00	-2.0402136308e+00
 9.6598825482e-01	 1.4698041237e+00	-2.0293276154e+00
 9.5177497210e-01	 1.4790476517e+00	-2.0121780701e+00
 9.3748805231e-01	 1.4881444050e+00	-1.9877502889e+00
 9.2312973546e-01	 1.4970935682e+00	-1.9585673871e+00
 9.0870227200e-01	 1.5058943706e+00	-1.9270234733e+00
 1.0548627523e+00	 1.4183914416e+00	-2.0619107247e+00
 1.0410687605e+00	 1.4285466862e+00	-2.0534451370e+00
 1.0271875370e+00	 1.4385602750e+00	-2.0486159615e+00
 1.0132212469e+00	 1.4484311217e+00	-2.0453229809e+00
 9.9917207245e-01	 1.4581581839e+00	-2.0414048566e+00
 9.8504221176e-01	 1.4677404630e+00	-2.0346647077e+00
 9.7083387800e-01	 1.4771770052e+00	-2.0228952680e+00
 9.5654929812e-01	 1.4864669009e+00	-2.0041450474e+00
 9.4219071180e-01	 1.4956092857e+00	-1.9791171048e+00
 9.2776037028e-01	 1.5046033399e+00	-1.9498964801e+00
 9.1326053528e-01	 1.5134482892e+00	-1.9187103241e+00
 1.0601277921e+00	 1.4254709288e+00	-2.0536270232e+00
 1.0462649516e+00	 1.4356768604e+00	-2.0454793753e+00
 1.0323144440e+00	 1.4457404291e+00	-2.0412100865e+00
 1.0182784453e+00	 1.4556605433e+00	-2.0384683820e+00
 1.0041591484e+00	 1.4654361552e+00	-2.0348414566e+00
 9.8995876267e-01	 1.4750662615e+00	-2.0278810680e+00
 9.7567951216e-01	 1.4845499034e+00	-2.0151250954e+00
 9.6132363497e-01	 1.4938861669e+00	-1.9952599594e+00
 9.4689338195e-01	 1.5030741833e+00	-1.9697007070e+00
 9.3239101559e-01	 1.5121131287e+00	-1.9403890246e+00
 9.1781880889e-01	 1.5210022250e+00	-1.9094477060e+00
 1.0653928498e+00	 1.4325504401e+00	-2.0442528822e+00
 1.0514611604e+00	 1.4428070588e+00	-2.0362782100e+00
 1.0374413685e+00	 1.4529206076e+00	-2.0324768526e+00
 1.0233356608e+00	 1.4628899893e+00	-2.0302269982e+00
 1.0091462414e+00	 1.4727141512e+00	-2.0268445133e+00
 9.9487533030e-01	 1.4823920849e+00	-2.0196023401e+00
 9.8052516279e-01	 1.4919228267e+00	-2.0054882952e+00
 9.6609798805e-01	 1.5013054582e+00	-1.9845846942e+00
 9.5159606809e-01	 1.5105391062e+00	-1.9585052728e+00
 9.3702167664e-01	 1.5196229430e+00	-1.9290730694e+00
 9.2237709800e-01	 1.5285561864e+00	-1.8982963070e+00
 1.0706579313e+00	 1.4396299835e+00	-2.0335393565e+00
 1.0566573927e+00	 1.4499372895e+00	-2.0255746075e+00
 1.0425683162e+00	 1.4601008186e+00	-2.0221386780e+00
 1.0283928993e+00	 1.4701194682e+00	-2.0203183616e+00
 1.0141333570e+00	 1.4799921803e+00	-2.0171384522e+00
 9.9979192022e-01	 1.4897179414e+00	-2.0087577052e+00
 9.8537083540e-01	 1.4992957834e+00	-1.9930212814e+00
 9.7087236277e-01	 1.5087247831e+00	-1.9711265965e+00
 9.5629877555e-01	 1.5180040630e+00	-1.9445527920e+00
 9.4165235869e-01	 1.5271327913e+00	-1.9149936006e+00
 9.2693540778e-01	 1.5361101821e+00	-1.8843327050e+00
 8.8135262000e-01	 1.4605707390e+00	-1.9872340662e+00
 8.6729451342e-01	 1.4689620607e+00	-1.9608062504e+00
 8.5317373444e-01	 1.4772081256e+00	-1.9290054993e+00
 8.3899249124e-01	 1.4853083198e+00	-1.8898150180e+00
 8.2475299774e-01	 1.4932620732e+00	-1.8496804270e+00
 8.1045747260e-01	 1.5010688597e+00	-1.8103718315e+00
 7.9610813808e-01	 1.5087281967e+00	-1.7723184803e+00
 7.8170721905e-01	 1.5162396457e+00	-1.7359761149e+00
 7.6725694188e-01	 1.5236028115e+00	-1.7018143508e+00
 7.5275953348e-01	 1.5308173424e+00	-1.6703047171e+00
 7.3821722017e-01	 1.5378829301e+00	-1.6420049281e+00
 8.8591092977e-01	 1.4681247347e+00	-1.9789339745e+00
 8.7178011540e-01	 1.4765594558e+00	-1.9486762407e+00
 8.5758630449e-01	 1.4848481689e+00	-1.9120460288e+00
 8.4333171663e-01	 1.4929902569e+00	-1.8740743251e+00
 8.2901857722e-01	 1.5009851467e+00	-1.8365173390e+00
 8.1464911637e-01	 1.5088323095e+00	-1.7996731908e+00
 8.0022556784e-01	 1.5165312603e+00	-1.7638812536e+00
 7.8575016800e-01	 1.5240815581e+00	-1.7295086408e+00
 7.7122515476e-01	 1.5314828057e+00	-1.6969373244e+00
 7.5665276651e-01	 1.5387346498e+00	-1.6665519372e+00
 7.4203524112e-01	 1.5458367804e+00	-1.6387283030e+00
 8.9046921888e-01	 1.4756786961e+00	-1.9684455625e+00
 8.7626569704e-01	 1.4841568165e+00	-1.9339199778e+00
 8.6199885453e-01	 1.4924881777e+00	-1.8978421041e+00
 8.4767092236e-01	 1.5006721592e+00	-1.8619862784e+00
 8.3328413736e-01	 1.5087081853e+00	-1.8265216404e+00
 8.1884074113e-01	 1.5165957242e+00	-1.7916740178e+00
 8.0434297893e-01	 1.5243342884e+00	-1.7577115041e+00
 7.8979309863e-01	 1.5319234349e+00	-1.7249306311e+00
 7.7519334965e-01	 1.5393627643e+00	-1.6936431968e+00
 7.6054598190e-01	 1.5466519214e+00	-1.6641638032e+00
 7.4585324477e-01	 1.5537905946e+00	-1.6367981497e+00
 8.9502749249e-01	 1.4832326318e+00	-1.9558970528e+00
 8.8075126344e-01	 1.4917541514e+00	-1.9212564507e+00
 8.6641138957e-01	 1.5001281604e+00	-1.8868202778e+00
 8.5201011333e-01	 1.5083540355e+00	-1.8526305226e+00
 8.3754968300e-01	 1.5164311976e+00	-1.8188020696e+00
 8.2303235165e-01	 1.5243591124e+00	-1.7855073559e+00
 8.0846037603e-01	 1.5321372901e+00	-1.7529615781e+00
 7.9383601552e-01	 1.5397652850e+00	-1.7214085208e+00
 7.7916153105e-01	 1.5472426960e+00	-1.6911070664e+00
 7.6443918406e-01	 1.5545691660e+00	-1.6623184430e+00
 7.4967123543e-01	 1.5617443818e+00	-1.6352942571e+00
 8.9958575577e-01	 1.4907865505e+00	-1.9446379101e+00
 8.8523681966e-01	 1.4993514691e+00	-1.9112216492e+00
 8.7082391461e-01	 1.5077681259e+00	-1.8780400590e+00
 8.5634929447e-01	 1.5160358943e+00	-1.8450992482e+00
 8.4181521898e-01	 1.5241541924e+00	-1.8124790258e+00
 8.2722395267e-01	 1.5321224831e+00	-1.7803171304e+00
 8.1257776380e-01	 1.5399402740e+00	-1.7487940371e+00
 7.9787892324e-01	 1.5476071174e+00	-1.7181184115e+00
 7.8312970346e-01	 1.5551226099e+00	-1.6885132747e+00
 7.6833237739e-01	 1.5624863927e+00	-1.6602029340e+00
 7.5348921745e-01	 1.5696981510e+00	-1.6334007316e+00
 9.0414401388e-01	 1.4983404605e+00	-1.9353423296e+00
 8.8972237081e-01	 1.5069487781e+00	-1.9028527733e+00
 8.7523643465e-01	 1.5154080827e+00	-1.8705745233e+00
 8.6068847069e-01	 1.5237177443e+00	-1.8384972359e+00
 8.4608075012e-01	 1.5318771784e+00	-1.8066846187e+00
 8.3141554894e-01	 1.5398858449e+00	-1.7752582020e+00
 8.1669514690e-01	 1.5477432491e+00	-1.7443817130e+00
 8.0192182639e-01	 1.5554489409e+00	-1.7142461270e+00
 7.8709787137e-01	 1.5630025149e+00	-1.6850554576e+00
 7.7222556631e-01	 1.5704036104e+00	-1.6570133472e+00
 7.5730719513e-01	 1.5776519112e+00	-1.6303105058e+00
 9.0870227200e-01	 1.5058943706e+00	-1.9270234733e+00
 8.9420792196e-01	 1.5145460872e+00	-1.8952016847e+00
 8.7964895470e-01	 1.5230480395e+00	-1.8635103502e+00
 8.6502764692e-01	 1.5313995944e+00	-1.8319419005e+00
 8.5034628126e-01	 1.5396001644e+00	-1.8005627194e+00
 8.3560714521e-01	 1.5476492068e+00	-1.7694964218e+00
 8.2081253000e-01	 1.5555462242e+00	-1.7389077653e+00
 8.0596472953e-01	 1.5632907644e+00	-1.7089872679e+00
 7.9106603928e-01	 1.5708824199e+00	-1.6799365973e+00
 7.7611875523e-01	 1.5783208281e+00	-1.6519547934e+00
 7.6112517282e-01	 1.5856056713e+00	-1.6252253739e+00
 9.1326053528e-01	 1.5134482892e+00	-1.9187103241e+00
 8.9869347818e-01	 1.5221434049e+00	-1.8873349360e+00
 8.8406147974e-01	 1.5306880049e+00	-1.8559478606e+00
 8.6936682806e-01	 1.5390814532e+00	-1.8245633382e+00
 8.5461181723e-01	 1.5473231592e+00	-1.7932690130e+00
 8.3979874622e-01	 1.5554125775e+00	-1.7622086873e+00
 8.2492991776e-01	 1.5633492082e+00	-1.7315657372e+00
 8.1000763725e-01	 1.5711325967e+00	-1.7015472681e+00
 7.9503421169e-01	 1.5787623338e+00	-1.6723690742e+00
 7.8001194856e-01	 1.5862380548e+00	-1.6442414682e+00
 7.6494315484e-01	 1.5935594405e+00	-1.6173560291e+00
 9.1781880889e-01	 1.5210022250e+00	-1.9094477060e+00
 9.0317904458e-01	 1.5297407397e+00	-1.8783338015e+00
 8.8847401478e-01	 1.5383279877e+00	-1.8470010584e+00
 8.7370601903e-01	 1.5467633295e+00	-1.8155043737e+00
 8.5887736287e-01	 1.5550461715e+00	-1.7839710514e+00
 8.4399035674e-01	 1.5631759657e+00	-1.7525829984e+00
 8.2904731486e-01	 1.5711522098e+00	-1.7215596136e+00
 8.1405055414e-01	 1.5789744469e+00	-1.6911414501e+00
 7.9900239309e-01	 1.5866422655e+00	-1.6615747191e+00
 7.8390515072e-01	 1.5941552995e+00	-1.6330966981e+00
 7.6876114550e-01	 1.6015132277e+00	-1.6059220995e+00
 9.2237709800e-01	 1.5285561864e+00	-1.8982963070e+00
 9.0766462623e-01	 1.5373381004e+00	-1.8672943110e+00
 8.9288656483e-01	 1.5459679964e+00	-1.8357976717e+00
 8.7804522476e-01	 1.5544452318e+00	-1.8039206096e+00
 8.6314292302e-01	 1.5627692100e+00	-1.7718483076e+00
 8.4818198151e-01	 1.5709393804e+00	-1.7398185150e+00
 8.3316472596e-01	 1.5789552380e+00	-1.7081038786e+00
 8.1809348477e-01	 1.5868163237e+00	-1.6769950822e+00
 8.0297058798e-01	 1.5945222240e+00	-1.6467848655e+00
 7.8779836611e-01	 1.6020725710e+00	-1.6177529870e+00
 7.7257914915e-01	 1.6094670419e+00	-1.5901521863e+00
 9.2693540778e-01	 1.5361101821e+00	-1.8843327050e+00
 9.1215022821e-01	 1.5449354956e+00	-1.8533272852e+00
 8.9729913487e-01	 1.5536080398e+00	-1.8214791975e+00
 8.8238445016e-01	 1.5621271689e+00	-1.7889804772e+00
 8.6740850250e-01	 1.5704922835e+00	-1.7560922309e+00
 8.5237362528e-01	 1.5787028302e+00	-1.7231256143e+00
 8.3728215572e-01	 1.5867583015e+00	-1.6904235741e+00
 8.2213643373e-01	 1.5946582360e+00	-1.6583434345e+00
 8.0693880086e-01	 1.6024022183e+00	-1.6272404031e+00
 7.9169159915e-01	 1.6099898785e+00	-1.5974520620e+00
 7.7639717010e-01	 1.6174208922e+00	-1.5692839008e+00
 7.3821722017e-01	 1.5378829301e+00	-1.6420049281e+00
 7.2362974352e-01	 1.5448004724e+00	-1.6150976659e+00
 7.0900179485e-01	 1.5515685321e+00	-1.5855892967e+00
 6.9433559319e-01	 1.5581869283e+00	-1.5536197107e+00
 6.7963335308e-01	 1.5646555226e+00	-1.5193687032e+00
 6.6489728352e-01	 1.5709742187e+00	-1.4830367756e+00
 6.5012958706e-01	 1.5771429619e+00	-1.4448276372e+00
 6.3533245882e-01	 1.5831617391e+00	-1.4049324462e+00
 6.2050808558e-01	 1.5890305782e+00	-1.3635158124e+00
 6.0565864489e-01	 1.5947495478e+00	-1.3207035720e+00
 5.9078630409e-01	 1.6003187566e+00	-1.2765723294e+00
 7.4203524112e-01	 1.5458367804e+00	-1.6387283030e+00
 7.2737231881e-01	 1.5527900999e+00	-1.6100345268e+00
 7.1266871514e-01	 1.5595931636e+00	-1.5780674260e+00
 6.9792666066e-01	 1.5662457898e+00	-1.5431390872e+00
 6.8314838133e-01	 1.5727478394e+00	-1.5055750172e+00
 6.6833609758e-01	 1.5790992154e+00	-1.4657209687e+00
 6.5349202336e-01	 1.5852998630e+00	-1.4239247670e+00
 6.3861836515e-01	 1.5913497690e+00	-1.3805199534e+00
 6.2371732103e-01	 1.5972489615e+00	-1.3358112699e+00
 6.0879107980e-01	 1.6029975093e+00	-1.2900619953e+00
 5.9384182003e-01	 1.6085955217e+00	-1.2434831261e+00
 7.4585324477e-01	 1.5537905946e+00	-1.6367981497e+00
 7.3111487713e-01	 1.5607796911e+00	-1.6067147867e+00
 7.1633561882e-01	 1.5676177588e+00	-1.5724695368e+00
 7.0151771185e-01	 1.5743046148e+00	-1.5348723800e+00
 6.8666339364e-01	 1.5808401194e+00	-1.4943779054e+00
 6.7177489606e-01	 1.5872241753e+00	-1.4514601403e+00
 6.5685444443e-01	 1.5934567272e+00	-1.4065937113e+00
 6.4190425659e-01	 1.5995377618e+00	-1.3602369022e+00
 6.2692654193e-01	 1.6054673075e+00	-1.3128166361e+00
 6.1192350052e-01	 1.6112454334e+00	-1.2647153886e+00
 5.9689732213e-01	 1.6168722493e+00	-1.2162600280e+00
 7.4967123543e-01	 1.5617443818e+00	-1.6352942571e+00
 7.3485742272e-01	 1.5687692552e+00	-1.6042949834e+00
 7.2000251003e-01	 1.5756423266e+00	-1.5679557306e+00
 7.0510875083e-01	 1.5823634124e+00	-1.5279816727e+00
 6.9017839401e-01	 1.5889323720e+00	-1.4849401631e+00
 6.7521368285e-01	 1.5953491075e+00	-1.4394168266e+00
 6.6021685407e-01	 1.6016135636e+00	-1.3919960627e+00
 6.4519013686e-01	 1.6077257268e+00	-1.3432435311e+00
 6.3013575192e-01	 1.6136856256e+00	-1.2936906442e+00
 6.1505591059e-01	 1.6194933294e+00	-1.2438210751e+00
 5.9995281383e-01	 1.6251489488e+00	-1.1940592755e+00
 7.5348921745e-01	 1.5696981510e+00	-1.6334007316e+00
 7.3859995984e-01	 1.5767588012e+00	-1.6019344893e+00
 7.2366939293e-01	 1.5836668763e+00	-1.5636882346e+00
 7.0869978167e-01	 1.5904221917e+00	-1.5216305558e+00
 6.9369338641e-01	 1.5970246062e+00	-1.4764255625e+00
 6.7865246184e-01	 1.6034740214e+00	-1.4287540965e+00
 6.6357925609e-01	 1.6097703815e+00	-1.3792935863e+00
 6.4847600968e-01	 1.6159136732e+00	-1.3286999713e+00
 6.3334495464e-01	 1.6219039250e+00	-1.2775917185e+00
 6.1818831355e-01	 1.6277412067e+00	-1.2265359418e+00
 6.0300829862e-01	 1.6334256295e+00	-1.1760366166e+00
 7.5730719513e-01	 1.5776519112e+00	-1.6303105058e+00
 7.4234249271e-01	 1.5847483381e+00	-1.5987579477e+00
 7.2733627167e-01	 1.5916914169e+00	-1.5588319808e+00
 7.1229080845e-01	 1.5984809619e+00	-1.5149846678e+00
 6.9720837482e-01	 1.6051168312e+00	-1.4679993550e+00
 6.8209123694e-01	 1.6115989260e+00	-1.4186360153e+00
 6.6694165429e-01	 1.6179271902e+00	-1.3676486442e+00
 6.5176187878e-01	 1.6241016104e+00	-1.3157666322e+00
 6.3655415373e-01	 1.6301222151e+00	-1.2636783202e+00
 6.2132071297e-01	 1.6359890748e+00	-1.2120167462e+00
 6.0606377994e-01	 1.6417023008e+00	-1.1613475745e+00
 7.6112517282e-01	 1.5856056713e+00	-1.6252253739e+00
 7.4608502559e-01	 1.5927378750e+00	-1.5936441059e+00
 7.3100315041e-01	 1.5997159574e+00	-1.5525551857e+00
 7.1588183522e-01	 1.6065397321e+00	-1.5072122377e+00
 7.0072336324e-01	 1.6132090563e+00	-1.4588287751e+00
 6.8553001204e-01	 1.6197238306e+00	-1.4082281097e+00
 6.7030405250e-01	 1.6260839989e+00	-1.3562246209e+00
 6.5504774788e-01	 1.6322895475e+00	-1.3036045875e+00
 6.3976335281e-01	 1.6383405052e+00	-1.2511092951e+00
 6.2445311239e-01	 1.6442369428e+00	-1.1994204249e+00
 6.0911926126e-01	 1.6499789722e+00	-1.1491477176e+00
 7.6494315484e-01	 1.5935594405e+00	-1.6173560291e+00
 7.4982756270e-01	 1.6007274210e+00	-1.5857313892e+00
 7.3467003331e-01	 1.6077405071e+00	-1.5440299310e+00
 7.1947286606e-01	 1.6145985114e+00	-1.4974846273e+00
 7.0423835564e-01	 1.6213012905e+00	-1.4480835452e+00
 6.8896879103e-01	 1.6278487445e+00	-1.3966978340e+00
 6.7366645452e-01	 1.6342408168e+00	-1.3441863514e+00
 6.5833362070e-01	 1.6404774939e+00	-1.2913759650e+00
 6.4297255553e-01	 1.6465588047e+00	-1.2390442237e+00
 6.2758551536e-01	 1.6524848201e+00	-1.1879044058e+00
 6.1217474604e-01	 1.6582556529e+00	-1.1385929339e+00
 7.6876114550e-01	 1.6015132277e+00	-1.6059220995e+00
 7.5357010830e-01	 1.6087169851e+00	-1.5742319560e+00
 7.3833692452e-01	 1.6157650750e+00	-1.5324327445e+00
 7.2306390505e-01	 1.6226573090e+00	-1.4849768755e+00
 7.0775335601e-01	 1.6293935430e+00	-1.4349363817e+00
 6.9240757782e-01	 1.6359736767e+00	-1.3832150383e+00
 6.7702886416e-01	 1.6423976532e+00	-1.3307005510e+00
 6.6161950097e-01	 1.6486654589e+00	-1.2782443373e+00
 6.4618176552e-01	 1.6547771228e+00	-1.2266437747e+00
 6.3071792543e-01	 1.6607327161e+00	-1.1766269226e+00
 6.1523023775e-01	 1.6665323523e+00	-1.1288397075e+00
 7.7257914915e-01	 1.6094670419e+00	-1.5901521863e+00
 7.5731266662e-01	 1.6167065763e+00	-1.5583668275e+00
 7.4200382820e-01	 1.6237896701e+00	-1.5169232344e+00
 7.2665495624e-01	 1.6307161340e+00	-1.4688682429e+00
 7.1126836832e-01	 1.6374858231e+00	-1.4185635025e+00
 6.9584637630e-01	 1.6440986366e+00	-1.3669524379e+00
 6.8039128522e-01	 1.6505545174e+00	-1.3149362463e+00
 6.6490539241e-01	 1.6568534517e+00	-1.2633751153e+00
 6.4939098642e-01	 1.6629954688e+00	-1.2130700599e+00
 6.3385034615e-01	 1.6689806402e+00	-1.1647473331e+00
 6.1828573985e-01	 1.6748090800e+00	-1.1190453997e+00
 7.7639717010e-01	 1.6174208922e+00	-1.5692839008e+00
 7.6105524190e-01	 1.6246962038e+00	-1.5373659144e+00
 7.4567074850e-01	 1.6318143016e+00	-1.4964433237e+00
 7.3024602370e-01	 1.6387749955e+00	-1.4483427576e+00
 7.1478339657e-01	 1.6455781398e+00	-1.3981451349e+00
 6.9928519036e-01	 1.6522236333e+00	-1.3470860837e+00
 6.8375372154e-01	 1.6587114185e+00	-1.2960652084e+00
 6.6819129874e-01	 1.6650414817e+00	-1.2459359436e+00
 6.5260022188e-01	 1.6712138520e+00	-1.1974869919e+00
 6.3698278107e-01	 1.6772286017e+00	-1.1514264389e+00
 6.2134125579e-01	 1.6830858451e+00	-1.1083685317e+00
 5.9078630409e-01	 1.6003187566e+00	-1.2765723294e+00
 5.7589575259e-01	 1.6057374444e+00	-1.2318500853e+00
 5.6098660704e-01	 1.6110067574e+00	-1.1874191205e+00
 5.4606099739e-01	 1.6161269212e+00	-1.1435224152e+00
 5.3112104005e-01	 1.6210981995e+00	-1.1003391396e+00
 5.1616883713e-01	 1.6259208937e+00	-1.0579821055e+00
 5.0120647558e-01	 1.6305953427e+00	-1.0164966933e+00
 4.8623602649e-01	 1.6351219218e+00	-9.7586117471e-01
 4.7125954432e-01	 1.6395010426e+00	-9.3598834029e-01
 4.5627906618e-01	 1.6437331520e+00	-8.9672833604e-01
 4.4129661111e-01	 1.6478187318e+00	-8.5787260631e-01
 5.9384182003e-01	 1.6085955217e+00	-1.2434831261e+00
 5.7887425538e-01	 1.6140422347e+00	-1.1969756869e+00
 5.6388800051e-01	 1.6193388003e+00	-1.1514729393e+00
 5.4888519638e-01	 1.6244854453e+00	-1.1071602830e+00
 5.3386797037e-01	 1.6294824348e+00	-1.0641494825e+00
 5.1883843543e-01	 1.6343300717e+00	-1.0224764692e+00
 5.0379868933e-01	 1.6390286967e+00	-9.8210068627e-01
 4.8875081386e-01	 1.6435786871e+00	-9.4290589253e-01
 4.7369687410e-01	 1.6479804565e+00	-9.0470233021e-01
 4.5863891770e-01	 1.6522344541e+00	-8.6723015665e-01
 4.4357897416e-01	 1.6563411643e+00	-8.3016403194e-01
 5.9689732213e-01	 1.6168722493e+00	-1.2162600280e+00
 5.8185274467e-01	 1.6223469873e+00	-1.1684512761e+00
 5.6678938082e-01	 1.6276708055e+00	-1.1222129425e+00
 5.5170938257e-01	 1.6328439316e+00	-1.0776735273e+00
 5.3661488823e-01	 1.6378666321e+00	-1.0348785183e+00
 5.2150802163e-01	 1.6427392117e+00	-9.9378853670e-01
 5.0639089132e-01	 1.6474620126e+00	-9.5427909620e-01
 4.9126558982e-01	 1.6520354140e+00	-9.1614188493e-01
 4.7613419283e-01	 1.6564598319e+00	-8.7908747238e-01
 4.6099875853e-01	 1.6607357177e+00	-8.4274933571e-01
 4.4586132687e-01	 1.6648635582e+00	-8.0668909311e-01
 5.9995281383e-01	 1.6251489488e+00	-1.1940592755e+00
 5.8483122383e-01	 1.6306517117e+00	-1.1454390033e+00
 5.6969075127e-01	 1.6360027823e+00	-1.0988206229e+00
 5.5453355916e-01	 1.6412023894e+00	-1.0542762852e+00
 5.3936179675e-01	 1.6462508009e+00	-1.0117861781e+00
 5.2417759875e-01	 1.6511483230e+00	-9.7123701130e-01
 5.0898308450e-01	 1.6558952997e+00	-9.3242218560e-01
 4.9378035724e-01	 1.6604921122e+00	-8.9504355072e-01
 4.7857150328e-01	 1.6649391785e+00	-8.5871465052e-01
 4.6335859134e-01	 1.6692369523e+00	-8.2296534437e-01
 4.4814367181e-01	 1.6733859231e+00	-7.8724768795e-01
 6.0300829862e-01	 1.6334256295e+00	-1.1760366166e+00
 5.8780969624e-01	 1.6389564173e+00	-1.1271004064e+00
 5.7259211515e-01	 1.6443347402e+00	-1.0804765468e+00
 5.5735772935e-01	 1.6495608283e+00	-1.0361812607e+00
 5.4210869904e-01	 1.6546349507e+00	-9.9413026313e-01
 5.2684716982e-01	 1.6595574153e+00	-9.5413758147e-01
 5.1157527181e-01	 1.6643285677e+00	-9.1591613054e-01
 4.9629511895e-01	 1.6689487913e+00	-8.7907994554e-01
 4.8100880820e-01	 1.6734185059e+00	-8.4314796490e-01
 4.6571841880e-01	 1.6777381677e+00	-8.0754924802e-01
 4.5042601159e-01	 1.6819082687e+00	-7.7162950570e-01
 6.0606377994e-01	 1.6417023008e+00	-1.1613475745e+00
 5.9078816528e-01	 1.6472611135e+00	-1.1125966432e+00
 5.7549347574e-01	 1.6526666887e+00	-1.0663605581e+00
 5.6018189633e-01	 1.6579192577e+00	-1.0225999077e+00
 5.4485559823e-01	 1.6630190910e+00	-9.8116661413e-01
 5.2951673787e-01	 1.6679664980e+00	-9.4180308301e-01
 5.1416745618e-01	 1.6727618262e+00	-9.0414318272e-01
 4.9880987782e-01	 1.6774054607e+00	-8.6771495085e-01
 4.8344611036e-01	 1.6818978236e+00	-8.3194491519e-01
 4.6807824359e-01	 1.6862393735e+00	-7.9616390965e-01
 4.5270834877e-01	 1.6904306047e+00	-7.5961425739e-01
 6.0911926126e-01	 1.6499789722e+00	-1.1491477176e+00
 5.9376663432e-01	 1.6555658097e+00	-1.1010887269e+00
 5.7839483632e-01	 1.6609986372e+00	-1.0556519855e+00
 5.6300606332e-01	 1.6662776871e+00	-1.0127426169e+00
 5.4760249741e-01	 1.6714032313e+00	-9.7214928369e-01
 5.3218630591e-01	 1.6763755808e+00	-9.3354366431e-01
 5.1675964055e-01	 1.6811950847e+00	-8.9648183419e-01
 5.0132463668e-01	 1.6858621302e+00	-8.6040744480e-01
 4.8588341251e-01	 1.6903771414e+00	-8.2465658412e-01
 4.7043806837e-01	 1.6947405793e+00	-7.8846419302e-01
 4.5499068596e-01	 1.6989529406e+00	-7.5097190492e-01
 6.1217474604e-01	 1.6582556529e+00	-1.1385929339e+00
 5.9674510673e-01	 1.6638705153e+00	-1.0917377655e+00
 5.8129620020e-01	 1.6693305951e+00	-1.0475298551e+00
 5.6583023351e-01	 1.6746361260e+00	-1.0058189064e+00
 5.5034939971e-01	 1.6797873811e+00	-9.6633071254e-01
 5.3485587698e-01	 1.6847846730e+00	-9.2866695484e-01
 5.1935182786e-01	 1.6896283527e+00	-8.9230698461e-01
 5.0383939840e-01	 1.6943188092e+00	-8.5661147494e-01
 4.8832071743e-01	 1.6988564688e+00	-8.2082782209e-01
 4.7279789583e-01	 1.7032417947e+00	-7.8409716552e-01
 4.5727302573e-01	 1.7074752862e+00	-7.4546288871e-01
 6.1523023775e-01	 1.6665323523e+00	-1.1288397075e+00
 5.9972358590e-01	 1.6721752397e+00	-1.0837052049e+00
 5.8419757065e-01	 1.6776625720e+00	-1.0411731047e+00
 5.6865441010e-01	 1.6829945838e+00	-1.0010376159e+00
 5.5309630823e-01	 1.6881715499e+00	-9.6296190919e-01
 5.3752545410e-01	 1.6931937844e+00	-9.2647823657e-01
 5.2194402104e-01	 1.6980616399e+00	-8.9099011109e-01
 5.0635416581e-01	 1.7027755074e+00	-8.5577643267e-01
 4.9075802788e-01	 1.7073358154e+00	-8.1999743257e-01
 4.7515772864e-01	 1.7117430294e+00	-7.8270230090e-01
 4.5955537068e-01	 1.7159976511e+00	-7.4283835381e-01
 6.1828573985e-01	 1.6748090800e+00	-1.1190453997e+00
 6.0270207519e-01	 1.6804799924e+00	-1.0761530752e+00
 5.8709895097e-01	 1.6859945771e+00	-1.0357608035e+00
 5.7147859629e-01	 1.6913530700e+00	-9.9760710405e-01
 5.5584322609e-01	 1.6965557473e+00	-9.6129263288e-01
 5.4019504030e-01	 1.7016029243e+00	-9.2628061845e-01
 5.2453622303e-01	 1.7064949557e+00	-8.9189944029e-01
 5.0886894177e-01	 1.7112322343e+00	-8.5734722932e-01
 4.9319534661e-01	 1.7158151908e+00	-8.2169835836e-01
 4.7751756946e-01	 1.7202442929e+00	-7.8391168173e-01
 4.6183772338e-01	 1.7245200450e+00	-7.4284037465e-01
 6.2134125579e-01	 1.6830858451e+00	-1.1083685317e+00
 6.0568057798e-01	 1.6887847827e+00	-1.0682442404e+00
 5.9000034444e-01	 1.6943266200e+00	-1.0304723739e+00
 5.7430279528e-01	 1.6997115942e+00	-9.9473545039e-01
 5.5859015640e-01	 1.7049399826e+00	-9.6057157970e-01
 5.4286463860e-01	 1.7100121024e+00	-9.2737521365e-01
 5.2712843678e-01	 1.7149283098e+00	-8.9440012296e-01
 5.1138372914e-01	 1.7196889996e+00	-8.6076447395e-01
 4.9563267639e-01	 1.7242946047e+00	-8.2545786866e-01
 4.7987742099e-01	 1.7287455951e+00	-7.8735020163e-01
 4.6412008643e-01	 1.7330424775e+00	-7.4520217846e-01
 4.4129661111e-01	 1.6478187318e+00	-8.5787260631e-01
 4.2631417965e-01	 1.6517582986e+00	-8.1854682738e-01
 4.1133375375e-01	 1.6555524039e+00	-7.7900741619e-01
 3.9635729548e-01	 1.6592016323e+00	-7.4066353420e-01
 3.8138674621e-01	 1.6627066012e+00	-7.0487902197e-01
 3.6642402607e-01	 1.6660679591e+00	-6.7289630596e-01
 3.5147103331e-01	 1.6692863858e+00	-6.4376286215e-01
 3.3652964380e-01	 1.6723625910e+00	-6.1595618055e-01
 3.2160171051e-01	 1.6752973142e+00	-5.8832900957e-01
 3.0668906299e-01	 1.6780913235e+00	-5.5971524087e-01
 2.9179350692e-01	 1.6807454153e+00	-5.2894824248e-01
 4.4357897416e-01	 1.6563411643e+00	-8.3016403194e-01
 4.2851905435e-01	 1.6603011064e+00	-7.9262677072e-01
 4.1346115047e-01	 1.6641148345e+00	-7.5490659853e-01
 3.9840723473e-01	 1.6677829366e+00	-7.1834706250e-01
 3.8335925857e-01	 1.6713060330e+00	-6.8425194009e-01
 3.6831915202e-01	 1.6746847757e+00	-6.5387097481e-01
 3.5328882316e-01	 1.6779198479e+00	-6.2658871672e-01
 3.3827015757e-01	 1.6810119631e+00	-6.0070180964e-01
 3.2326501778e-01	 1.6839618645e+00	-5.7498668458e-01
 3.0827524282e-01	 1.6867703243e+00	-5.4821635044e-01
 2.9330264772e-01	 1.6894381429e+00	-5.1917850080e-01
 4.4586132687e-01	 1.6648635582e+00	-8.0668909311e-01
 4.3072391905e-01	 1.6688438754e+00	-7.7010650511e-01
 4.1558853754e-01	 1.6726772264e+00	-7.3340534193e-01
 4.0045716469e-01	 1.6763642020e+00	-6.9787247684e-01
 3.8533176199e-01	 1.6799054258e+00	-6.6475922780e-01
 3.7021426938e-01	 1.6833015532e+00	-6.3528819773e-01
 3.5510660477e-01	 1.6865532709e+00	-6.0921889918e-01
 3.4001066344e-01	 1.6896612960e+00	-5.8469647230e-01
 3.2492831751e-01	 1.6926263755e+00	-5.6042840149e-01
 3.0986141547e-01	 1.6954492858e+00	-5.3513347098e-01
 2.9481178167e-01	 1.6981308311e+00	-5.0755964016e-01
 4.4814367181e-01	 1.6733859231e+00	-7.8724768795e-01
 4.3292877626e-01	 1.6773866154e+00	-7.5090392418e-01
 4.1771591738e-01	 1.6812395891e+00	-7.1452280146e-01
 4.0250708769e-01	 1.6849454382e+00	-6.7934314015e-01
 3.8730425869e-01	 1.6885047894e+00	-6.4657108774e-01
 3.7210938029e-01	 1.6919183014e+00	-6.1738771117e-01
 3.5692438020e-01	 1.6951866645e+00	-5.9190990672e-01
 3.4175116339e-01	 1.6983105994e+00	-5.6820464883e-01
 3.2659161159e-01	 1.7012908571e+00	-5.4490627536e-01
 3.1144758272e-01	 1.7041282177e+00	-5.2068596928e-01
 2.9632091050e-01	 1.7068234898e+00	-4.9425788347e-01
 4.5042601159e-01	 1.6819082687e+00	-7.7162950570e-01
 4.3513362847e-01	 1.6859293360e+00	-7.3492501357e-01
 4.1984329240e-01	 1.6898019324e+00	-6.9826491403e-01
 4.0455700604e-01	 1.6935266550e+00	-6.6284827730e-01
 3.8927675093e-01	 1.6971041335e+00	-6.2984305550e-01
 3.7400448691e-01	 1.7005350301e+00	-6.0039430958e-01
 3.5874215151e-01	 1.7038200385e+00	-5.7490439032e-01
 3.4349165940e-01	 1.7069598833e+00	-5.5147813534e-01
 3.2825490189e-01	 1.7099553191e+00	-5.2866119949e-01
 3.1303374638e-01	 1.7128071300e+00	-5.0508375681e-01
 2.9783003590e-01	 1.7155161287e+00	-4.7943207218e-01
 4.5270834877e-01	 1.6904306047e+00	-7.5961425739e-01
 4.3733847818e-01	 1.6944720469e+00	-7.2206410833e-01
 4.2197066501e-01	 1.6983642661e+00	-6.8462467491e-01
 4.0660692206e-01	 1.7021078620e+00	-6.4846326281e-01
 3.9124924093e-01	 1.7057034678e+00	-6.1471629065e-01
 3.7589959138e-01	 1.7091517490e+00	-5.8449818659e-01
 3.6055992076e-01	 1.7124534028e+00	-5.5843129591e-01
 3.4523215344e-01	 1.7156091573e+00	-5.3475617916e-01
 3.2991819031e-01	 1.7186197712e+00	-5.1192296569e-01
 3.1461990824e-01	 1.7214860324e+00	-4.8852738528e-01
 2.9933915960e-01	 1.7242087578e+00	-4.6323372771e-01
 4.5499068596e-01	 1.6989529406e+00	-7.5097190492e-01
 4.3954332789e-01	 1.7030147579e+00	-7.1220414761e-01
 4.2409803761e-01	 1.7069265997e+00	-6.7358241038e-01
 4.0865683809e-01	 1.7106890691e+00	-6.3624990390e-01
 3.9322173094e-01	 1.7143028022e+00	-6.0131786251e-01
 3.7779469586e-01	 1.7177684679e+00	-5.6987514628e-01
 3.6237769001e-01	 1.7210867670e+00	-5.4270600018e-01
 3.4697264748e-01	 1.7242584314e+00	-5.1826560927e-01
 3.3158147874e-01	 1.7272842233e+00	-4.9491038009e-01
 3.1620607010e-01	 1.7301649348e+00	-4.7120813876e-01
 3.0084828329e-01	 1.7329013869e+00	-4.4580711056e-01
 4.5727302573e-01	 1.7074752862e+00	-7.4546288871e-01
 4.4174818010e-01	 1.7115574785e+00	-7.0521692645e-01
 4.2622541263e-01	 1.7154889430e+00	-6.6510604659e-01
 4.1070675643e-01	 1.7192702858e+00	-6.2625671908e-01
 3.9519422317e-01	 1.7229021463e+00	-5.8976103108e-01
 3.7968980247e-01	 1.7263851966e+00	-5.5668703080e-01
 3.6419546132e-01	 1.7297201411e+00	-5.2793044134e-01
 3.4871314349e-01	 1.7329077153e+00	-5.0222096198e-01
 3.3324476904e-01	 1.7359486853e+00	-4.7783137485e-01
 3.1779223376e-01	 1.7388438471e+00	-4.5330812239e-01
 3.0235740870e-01	 1.7415940259e+00	-4.2728927718e-01
 4.5955537068e-01	 1.7159976511e+00	-7.4283835381e-01
 4.4395303731e-01	 1.7201002185e+00	-7.0096334508e-01
 4.2835279247e-01	 1.7240513058e+00	-6.5915137489e-01
 4.1275667943e-01	 1.7278515220e+00	-6.1851921247e-01
 3.9716671988e-01	 1.7315015099e+00	-5.8014552316e-01
 3.8158491339e-01	 1.7350019448e+00	-5.4508199113e-01
 3.6601323675e-01	 1.7383535347e+00	-5.1429324497e-01
 3.5045364345e-01	 1.7415570187e+00	-4.8682460197e-01
 3.3490806312e-01	 1.7446131668e+00	-4.6088311576e-01
 3.1937840101e-01	 1.7475227790e+00	-4.3500034792e-01
 3.0386653752e-01	 1.7502866845e+00	-4.0781013461e-01
 4.6183772338e-01	 1.7245200450e+00	-7.4284037465e-01
 4.4615790201e-01	 1.7286429875e+00	-6.9929365553e-01
 4.3048017954e-01	 1.7326136976e+00	-6.5566231363e-01
 4.1480660939e-01	 1.7364327874e+00	-6.1306014391e-01
 3.9913922329e-01	 1.7401009027e+00	-5.7255780387e-01
 3.8348003074e-01	 1.7436187224e+00	-5.3519475296e-01
 3.6783101836e-01	 1.7469869577e+00	-5.0196984504e-01
 3.5219414932e-01	 1.7502063516e+00	-4.7226683890e-01
 3.3657136285e-01	 1.7532776779e+00	-4.4425210595e-01
 3.2096457366e-01	 1.7562017405e+00	-4.1644881603e-01
 3.0537567148e-01	 1.7589793727e+00	-3.8749249312e-01
 4.6412008643e-01	 1.7330424775e+00	-7.4520217846e-01
 4.4836277670e-01	 1.7371857953e+00	-7.0004770586e-01
 4.3260757626e-01	 1.7411761283e+00	-6.5457116665e-01
 4.1685654864e-01	 1.7450140917e+00	-6.0988979510e-01
 4.0111173565e-01	 1.7487003345e+00	-5.6707134375e-01
 3.8537515669e-01	 1.7522355389e+00	-5.2714687798e-01
 3.6964880820e-01	 1.7556204198e+00	-4.9112260043e-01
 3.5393466308e-01	 1.7588557237e+00	-4.5872603970e-01
 3.3823467012e-01	 1.7619422282e+00	-4.2811428580e-01
 3.2255075349e-01	 1.7648807413e+00	-3.9780859569e-01
 3.0688481227e-01	 1.7676721003e+00	-3.6645211672e-01
 2.9179350692e-01	 1.6807454153e+00	-5.2894824248e-01
 2.7691429682e-01	 1.6832608288e+00	-4.9780755469e-01
 2.6205572732e-01	 1.6856379504e+00	-4.6877129093e-01
 2.4721953454e-01	 1.6878776557e+00	-4.4174019842e-01
 2.3240742898e-01	 1.6899808451e+00	-4.1665736105e-01
 2.1762109510e-01	 1.6919484436e+00	-3.9351568111e-01
 2.0286219106e-01	 1.6937814001e+00	-3.7236379583e-01
 1.8813234834e-01	 1.6954806859e+00	-3.5331054421e-01
 1.7343317150e-01	 1.6970472951e+00	-3.3652810015e-01
 1.5876623785e-01	 1.6984822427e+00	-3.2225388721e-01
 1.4413309728e-01	 1.6997865649e+00	-3.1079138910e-01
 2.9330264772e-01	 1.6894381429e+00	-5.1917850080e-01
 2.7834648312e-01	 1.6919665660e+00	-4.8963239950e-01
 2.6341106587e-01	 1.6943559820e+00	-4.6204072196e-01
 2.4849814108e-01	 1.6966072709e+00	-4.3628224255e-01
 2.3360942808e-01	 1.6987213379e+00	-4.1228366219e-01
 2.1874662005e-01	 1.7006991127e+00	-3.9002677841e-01
 2.0391138373e-01	 1.7025415491e+00	-3.6955405502e-01
 1.8910535904e-01	 1.7042496236e+00	-3.5097271166e-01
 1.7433015881e-01	 1.7058243352e+00	-3.3445745352e-01
 1.5958736855e-01	 1.7072667043e+00	-3.2025196094e-01
 1.4487854614e-01	 1.7085777723e+00	-3.0866925751e-01
 2.9481178167e-01	 1.6981308311e+00	-5.0755964016e-01
 2.7977866292e-01	 1.7006722637e+00	-4.7938796695e-01
 2.6476639828e-01	 1.7030739740e+00	-4.5300575724e-01
 2.4977674182e-01	 1.7053368465e+00	-4.2827288408e-01
 2.3481142173e-01	 1.7074617910e+00	-4.0510374947e-01
 2.1987213991e-01	 1.7094497422e+00	-3.8347410065e-01
 2.0496057165e-01	 1.7113016584e+00	-3.6342620999e-01
 1.9007836532e-01	 1.7130185215e+00	-3.4507254332e-01
 1.7522714206e-01	 1.7146013355e+00	-3.2859804180e-01
 1.6040849553e-01	 1.7160511260e+00	-3.1426114146e-01
 1.4562399163e-01	 1.7173689399e+00	-3.0239365347e-01
 2.9632091050e-01	 1.7068234898e+00	-4.9425788347e-01
 2.8121083786e-01	 1.7093779318e+00	-4.6718171014e-01
 2.6612172608e-01	 1.7117919364e+00	-4.4172423933e-01
 2.5105533822e-01	 1.7140663924e+00	-4.1772950994e-01
 2.3601341129e-01	 1.7162022144e+00	-3.9510370592e-01
 2.2099765593e-01	 1.7182003418e+00	-3.7382157623e-01
 2.0600975600e-01	 1.7200617380e+00	-3.5393118142e-01
 1.9105136829e-01	 1.7217873896e+00	-3.3555709647e-01
 1.7612412227e-01	 1.7233783059e+00	-3.1890219978e-01
 1.6122961972e-01	 1.7248355179e+00	-3.0424817733e-01
 1.4636943457e-01	 1.7261600776e+00	-2.9195486937e-01
 2.9783003590e-01	 1.7155161287e+00	-4.7943207218e-01
 2.8264300955e-01	 1.7180835802e+00	-4.5311578632e-01
 2.6747705081e-01	 1.7205098790e+00	-4.2825051625e-01
 2.5233393171e-01	 1.7227959186e+00	-4.0466753386e-01
 2.3721539814e-01	 1.7249426181e+00	-3.8226888713e-01
 2.2212316940e-01	 1.7269509217e+00	-3.6103338089e-01
 2.0705893797e-01	 1.7288217977e+00	-3.4102084600e-01
 1.9202436906e-01	 1.7305562378e+00	-3.2237483195e-01
 1.7702110044e-01	 1.7321552565e+00	-3.0532385751e-01
 1.6205074205e-01	 1.7336198899e+00	-2.9018135359e-01
 1.4711487583e-01	 1.7349511954e+00	-2.7734443016e-01
 2.9933915960e-01	 1.7242087578e+00	-4.6323372771e-01
 2.8407517962e-01	 1.7267892188e+00	-4.3728708222e-01
 2.6883237400e-01	 1.7292278118e+00	-4.1263543640e-01
 2.5361252376e-01	 1.7315254348e+00	-3.8910036632e-01
 2.3841738361e-01	 1.7336830118e+00	-3.6658387177e-01
 2.2324868160e-01	 1.7357014916e+00	-3.4507387432e-01
 2.0810811875e-01	 1.7375818474e+00	-3.2464796464e-01
 1.9299736873e-01	 1.7393250761e+00	-3.0547553944e-01
 1.7791807759e-01	 1.7409321971e+00	-2.8781846802e-01
 1.6287186345e-01	 1.7424042519e+00	-2.7203042721e-01
 1.4786031625e-01	 1.7437423032e+00	-2.5855504202e-01
 3.0084828329e-01	 1.7329013869e+00	-4.4580711056e-01
 2.8550734969e-01	 1.7354948573e+00	-4.1978723829e-01
 2.7018769720e-01	 1.7379457445e+00	-3.9492634327e-01
 2.5489111581e-01	 1.7402549511e+00	-3.7103938515e-01
 2.3961936909e-01	 1.7424234055e+00	-3.4803241342e-01
 2.2437419380e-01	 1.7444520615e+00	-3.2590753860e-01
 2.0915729953e-01	 1.7463418972e+00	-3.0476611275e-01
 1.9397036840e-01	 1.7480939144e+00	-2.8481026496e-01
 1.7881505474e-01	 1.7497091377e+00	-2.6634293718e-01
 1.6369298484e-01	 1.7511886139e+00	-2.4976656457e-01
 1.4860575666e-01	 1.7525334110e+00	-2.3558054248e-01
 3.0235740870e-01	 1.7415940259e+00	-4.2728927718e-01
 2.8693952138e-01	 1.7442005057e+00	-4.0070267178e-01
 2.7154302193e-01	 1.7466636871e+00	-3.7516706998e-01
 2.5616970931e-01	 1.7489844772e+00	-3.5049390683e-01
 2.4082135594e-01	 1.7511638091e+00	-3.2659739378e-01
 2.2549970728e-01	 1.7532026413e+00	-3.0349891845e-01
 2.1020648150e-01	 1.7551019569e+00	-2.8132961272e-01
 1.9494336917e-01	 1.7568627626e+00	-2.6033124046e-01
 1.7971203291e-01	 1.7584860883e+00	-2.4085555569e-01
 1.6451410717e-01	 1.7599729859e+00	-2.2336228077e-01
 1.4935119792e-01	 1.7613245288e+00	-2.0841585217e-01
 3.0386653752e-01	 1.7502866845e+00	-4.0781013461e-01
 2.8837169632e-01	 1.7529061738e+00	-3.8011459882e-01
 2.7289834973e-01	 1.7553816495e+00	-3.5339793382e-01
 2.5744830570e-01	 1.7577140231e+00	-3.2747115845e-01
 2.4202334550e-01	 1.7599042326e+00	-3.0226077711e-01
 2.2662522330e-01	 1.7619532410e+00	-2.7781256310e-01
 2.1125566585e-01	 1.7638620365e+00	-2.5429346820e-01
 1.9591637214e-01	 1.7656316307e+00	-2.3199181564e-01
 1.8060901311e-01	 1.7672630587e+00	-2.1131593313e-01
 1.6533523136e-01	 1.7687573777e+00	-1.9279138092e-01
 1.5009664087e-01	 1.7701156665e+00	-1.7705692804e-01
 3.0537567148e-01	 1.7589793727e+00	-3.8749249312e-01
 2.8980387613e-01	 1.7616118716e+00	-3.5809905543e-01
 2.7425368214e-01	 1.7640996415e+00	-3.2965573060e-01
 2.5872690644e-01	 1.7664435988e+00	-3.0197625023e-01
 2.4322533915e-01	 1.7686446857e+00	-2.7500356581e-01
 2.2775074315e-01	 1.7707038704e+00	-2.4881296986e-01
 2.1230485376e-01	 1.7726221458e+00	-2.2361330039e-01
 1.9688937842e-01	 1.7744005286e+00	-1.9974639167e-01
 1.8150599636e-01	 1.7760400590e+00	-1.7768493396e-01
 1.6615635834e-01	 1.7775417995e+00	-1.5802890302e-01
 1.5084208636e-01	 1.7789068341e+00	-1.4150071797e-01
 3.0688481227e-01	 1.7676721003e+00	-3.6645211672e-01
 2.9123606242e-01	 1.7703176088e+00	-3.3472691751e-01
 2.7560902069e-01	 1.7728176731e+00	-3.0397372881e-01
 2.6000551298e-01	 1.7751732139e+00	-2.7401214873e-01
 2.4442733825e-01	 1.7773851785e+00	-2.4480575726e-01
 2.2887626810e-01	 1.7794545395e+00	-2.1646452922e-01
 2.1335404644e-01	 1.7813822948e+00	-1.8924528613e-01
 1.9786238912e-01	 1.7831694663e+00	-1.6355035689e-01
 1.8240298368e-01	 1.7848170991e+00	-1.3992461546e-01
 1.6697748904e-01	 1.7863262610e+00	-1.1905106275e-01
 1.5158753522e-01	 1.7876980416e+00	-1.0174511679e-01
 1.4413309728e-01	 1.6997865649e+00	-3.1079138910e-01
 1.2953774452e-01	 1.7009611285e+00	-3.0133849155e-01
 1.1497915452e-01	 1.7020072407e+00	-2.9266917176e-01
 1.0045875955e-01	 1.7029259940e+00	-2.8455853454e-01
 8.5977964604e-02	 1.7037184986e+00	-2.7685051734e-01
 7.1538147186e-02	 1.7043858817e+00	-2.6945530542e-01
 5.7140657235e-02	 1.7049292867e+00	-2.6234625345e-01
 4.2786816999e-02	 1.7053498724e+00	-2.5555640543e-01
 2.8477920947e-02	 1.7056488125e+00	-2.4917469972e-01
 1.4215235706e-02	 1.7058272945e+00	-2.4334194154e-01
 0.0000000000e+00	 1.7058865195e+00	-2.3824662058e-01
 1.4487854614e-01	 1.7085777723e+00	-3.0866925751e-01
 1.3020770698e-01	 1.7097584107e+00	-2.9891986393e-01
 1.1557382071e-01	 1.7108099334e+00	-2.8978948819e-01
 1.0097832702e-01	 1.7117334384e+00	-2.8106794204e-01
 8.6422638153e-02	 1.7125300418e+00	-2.7261905996e-01
 7.1908138752e-02	 1.7132008766e+00	-2.6437755792e-01
 5.7436185734e-02	 1.7137470921e+00	-2.5634540097e-01
 4.3008108185e-02	 1.7141698530e+00	-2.4858777481e-01
 2.8625207270e-02	 1.7144703392e+00	-2.4122875106e-01
 1.4288756164e-02	 1.7146497443e+00	-2.3444673145e-01
 0.0000000000e+00	 1.7147092756e+00	-2.2846975096e-01
 1.4562399163e-01	 1.7173689399e+00	-3.0239365347e-01
 1.3087766640e-01	 1.7185556531e+00	-2.9225404419e-01
 1.1616848420e-01	 1.7196125861e+00	-2.8265932327e-01
 1.0149789213e-01	 1.7205408429e+00	-2.7340029646e-01
 8.6867309687e-02	 1.7213415451e+00	-2.6434703624e-01
 7.2278128642e-02	 1.7220158315e+00	-2.5544518281e-01
 5.7731712894e-02	 1.7225648574e+00	-2.4671175642e-01
 4.3229398368e-02	 1.7229897936e+00	-2.3823057920e-01
 2.8772492924e-02	 1.7232918259e+00	-2.3014739961e-01
 1.4362276288e-02	 1.7234721541e+00	-2.2266480726e-01
 0.0000000000e+00	 1.7235319917e+00	-2.1603702096e-01
 1.4636943457e-01	 1.7261600776e+00	-2.9195486937e-01
 1.3154762354e-01	 1.7273528655e+00	-2.8135612467e-01
 1.1676314568e-01	 1.7284152090e+00	-2.7131223743e-01
 1.0201745547e-01	 1.7293482174e+00	-2.6160170219e-01
 8.7311979709e-02	 1.7301530184e+00	-2.5208757926e-01
 7.2648117275e-02	 1.7308307565e+00	-2.4271323579e-01
 5.8027239050e-02	 1.7313825928e+00	-2.3349760066e-01
 4.3450687800e-02	 1.7318097042e+00	-2.2453003469e-01
 2.8919778079e-02	 1.7321132826e+00	-2.1596491238e-01
 1.4435796163e-02	 1.7322945339e+00	-2.0801600569e-01
 0.0000000000e+00	 1.7323546778e+00	-2.0095075565e-01
 1.4711487583e-01	 1.7349511954e+00	-2.7734443016e-01
 1.3221757917e-01	 1.7361500580e+00	-2.6624204644e-01
 1.1735780580e-01	 1.7372178118e+00	-2.5578233543e-01
 1.0253701764e-01	 1.7381555720e+00	-2.4571858053e-01
 8.7756648724e-02	 1.7389644717e+00	-2.3589398599e-01
 7.3018105069e-02	 1.7396456614e+00	-2.2623685516e-01
 5.8322764537e-02	 1.7402003082e+00	-2.1675528513e-01
 4.3671976730e-02	 1.7406295949e+00	-2.0753148262e-01
 2.9067062899e-02	 1.7409347193e+00	-1.9871580035e-01
 1.4509315872e-02	 1.7411168937e+00	-1.9052058756e-01
 0.0000000000e+00	 1.7411773439e+00	-1.8321394307e-01
 1.4786031625e-01	 1.7437423032e+00	-2.5855504202e-01
 1.3288753404e-01	 1.7449472406e+00	-2.4692856228e-01
 1.1795246526e-01	 1.7460204047e+00	-2.3610424109e-01
 1.0305657922e-01	 1.7469629166e+00	-2.2579765361e-01
 8.8201317235e-02	 1.7477759150e+00	-2.1581970799e-01
 7.3388092444e-02	 1.7484605564e+00	-2.0607125725e-01
 5.8618289688e-02	 1.7490180136e+00	-1.9653723001e-01
 4.3893265410e-02	 1.7494494755e+00	-1.8728038853e-01
 2.9214347553e-02	 1.7497561460e+00	-1.7843481652e-01
 1.4582835497e-02	 1.7499392435e+00	-1.7019923343e-01
 0.0000000000e+00	 1.7500000000e+00	-1.6283022614e-01
 1.4860575666e-01	 1.7525334110e+00	-2.3558054248e-01
 1.3355748891e-01	 1.7537444231e+00	-2.2343320080e-01
 1.1854712471e-01	 1.7548229977e+00	-2.1231307275e-01
 1.0357614080e-01	 1.7557702612e+00	-2.0188592871e-01
 8.8645985747e-02	 1.7565873584e+00	-1.9191834244e-01
 7.3758079819e-02	 1.7572754514e+00	-1.8227173201e-01
 5.8913814840e-02	 1.7578357190e+00	-1.7289592231e-01
 4.4114554089e-02	 1.7582693561e+00	-1.6382234106e-01
 2.9361632207e-02	 1.7585775727e+00	-1.5515695404e-01
 1.4656355122e-02	 1.7587615933e+00	-1.4707303940e-01
 0.0000000000e+00	 1.7588226561e+00	-1.3980389480e-01
 1.4935119792e-01	 1.7613245288e+00	-2.0841585217e-01
 1.3422744453e-01	 1.7625416156e+00	-1.9577423171e-01
 1.1914178483e-01	 1.7636256005e+00	-1.8444441951e-01
 1.0409570297e-01	 1.7645776158e+00	-1.7403068324e-01
 8.9090654762e-02	 1.7653988117e+00	-1.6424362353e-01
 7.4128067613e-02	 1.7660903563e+00	-1.5489363875e-01
 5.9209340326e-02	 1.7666534344e+00	-1.4588391420e-01
 4.4335843020e-02	 1.7670892468e+00	-1.3720305104e-01
 2.9508917028e-02	 1.7673990094e+00	-1.2891744435e-01
 1.4729874830e-02	 1.7675839531e+00	-1.2116351305e-01
 0.0000000000e+00	 1.7676453222e+00	-1.1413987839e-01
 1.5009664087e-01	 1.7701156665e+00	-1.7705692804e-01
 1.3489740168e-01	 1.7713388280e+00	-1.6397063212e-01
 1.1973644631e-01	 1.7724282234e+00	-1.5253431828e-01
 1.0461526631e-01	 1.7733849903e+00	-1.4227945012e-01
 8.9535324784e-02	 1.7742102850e+00	-1.3284941407e-01
 7.4498056245e-02	 1.7749052813e+00	-1.2399240204e-01
 5.9504866482e-02	 1.7754711698e+00	-1.1555382123e-01
 4.4557132451e-02	 1.7759091574e+00	-1.0746835045e-01
 2.9656202182e-02	 1.7762204661e+00	-9.9751755454e-02
 1.4803394705e-02	 1.7764063329e+00	-9.2492569450e-02
 0.0000000000e+00	 1.7764680083e+00	-8.5843738251e-02
 1.5084208636e-01	 1.7789068341e+00	-1.4150071797e-01
 1.3556736110e-01	 1.7801360704e+00	-1.2804205393e-01
 1.2033110980e-01	 1.7812308761e+00	-1.1661923149e-01
 1.0513483142e-01	 1.7821923948e+00	-1.0668000364e-01
 8.9979996318e-02	 1.7830217883e+00	-9.7789697479e-02
 7.4868046135e-02	 1.7837202362e+00	-8.9623507775e-02
 5.9800393642e-02	 1.7842889352e+00	-8.1958320833e-02
 4.4778422635e-02	 1.7847290980e+00	-7.4664191605e-02
 2.9803487837e-02	 1.7850419528e+00	-6.7695590240e-02
 1.4876914830e-02	 1.7852287427e+00	-6.1082527371e-02
 0.0000000000e+00	 1.7852907244e+00	-5.4921660570e-02
 1.5158753522e-01	 1.7876980416e+00	-1.0174511679e-01
 1.3623732356e-01	 1.7889333526e+00	-8.8008792257e-02
 1.2092577599e-01	 1.7900335688e+00	-7.6736025558e-02
 1.0565439889e-01	 1.7909998392e+00	-6.7280345823e-02
 9.0424669867e-02	 1.7918333315e+00	-5.9118569930e-02
 7.5238037701e-02	 1.7925352311e+00	-5.1842499383e-02
 6.0095922142e-02	 1.7931067405e+00	-4.5150150720e-02
 4.4999713821e-02	 1.7935490786e+00	-3.8836646234e-02
 2.9950774159e-02	 1.7938634795e+00	-3.2784884824e-02
 1.4950435288e-02	 1.7940511925e+00	-2.6956105564e-02
 0.0000000000e+00	 1.7941134805e+00	-2.1380449449e-02
 1.7941134805e+00	 0.0000000000e+00	 3.2034452137e+00
 1.7940511925e+00	 1.4950435288e-02	 3.1986913042e+00
 1.7938634795e+00	 2.9950774159e-02	 3.1920023095e+00
 1.7935490786e+00	 4.4999713821e-02	 3.1831234160e+00
 1.7931067405e+00	 6.0095922142e-02	 3.1719109401e+00
 1.7925352311e+00	 7.5238037701e-02	 3.1583420706e+00
 1.7918333315e+00	 9.0424669867e-02	 3.1425244893e+00
 1.7909998392e+00	 1.0565439889e-01	 3.1247057759e+00
 1.7900335688e+00	 1.2092577599e-01	 3.1052824996e+00
 1.7889333526e+00	 1.3623732356e-01	 3.0848088933e+00
 1.7876980416e+00	 1.5158753522e-01	 3.0640049980e+00
 1.8029377841e+00	 0.0000000000e+00	 3.1685906009e+00
 1.8028751897e+00	 1.5023968640e-02	 3.1635392765e+00
 1.8026865534e+00	 3.0098086314e-02	 3.1563159367e+00
 1.8023706061e+00	 4.5221043820e-02	 3.1467279295e+00
 1.8019260924e+00	 6.0391502475e-02	 3.1346966919e+00
 1.8013517720e+00	 7.5608094162e-02	 3.1202679315e+00
 1.8006464202e+00	 9.0869421409e-02	 3.1036217034e+00
 1.7998088284e+00	 1.0617405748e-01	 3.0850822849e+00
 1.7988378054e+00	 1.2152054649e-01	 3.0651277520e+00
 1.7977321778e+00	 1.3690740352e-01	 3.0443991462e+00
 1.7964907909e+00	 1.5233311483e-01	 3.0237091205e+00
 1.8117621326e+00	 0.0000000000e+00	 3.1426211964e+00
 1.8116992318e+00	 1.5097502368e-02	 3.1378467479e+00
 1.8115096724e+00	 3.0245399219e-02	 3.1306525501e+00
 1.8111921787e+00	 4.5442374947e-02	 3.1208847345e+00
 1.8107454893e+00	 6.0687084314e-02	 3.1085062156e+00
 1.8101683580e+00	 7.5978152509e-02	 3.0936073483e+00
 1.8094595538e+00	 9.1314175218e-02	 3.0764164975e+00
 1.8086178625e+00	 1.0669371872e-01	 3.0573104250e+00
 1.8076420869e+00	 1.2211532001e-01	 3.0368243898e+00
 1.8065310479e+00	 1.3757748691e-01	 3.0156618527e+00
 1.8052835851e+00	 1.5307869824e-01	 2.9947036677e+00
 1.8205865212e+00	 0.0000000000e+00	 3.1255009762e+00
 1.8205233140e+00	 1.5171036428e-02	 3.1215928375e+00
 1.8203328313e+00	 3.0392712793e-02	 3.1150074025e+00
 1.8200137912e+00	 4.5663707077e-02	 3.1056063945e+00
 1.8195649262e+00	 6.0982667494e-02	 3.0933707466e+00
 1.8189849839e+00	 7.6348212533e-02	 3.0784117713e+00
 1.8182727274e+00	 9.1758931044e-02	 3.0609822615e+00
 1.8174269365e+00	 1.0721338232e-01	 3.0414874290e+00
 1.8164464083e+00	 1.2271009623e-01	 3.0204955709e+00
 1.8153299579e+00	 1.3824757333e-01	 2.9987483551e+00
 1.8140764192e+00	 1.5382428503e-01	 2.9771706026e+00
 1.8294109448e+00	 0.0000000000e+00	 3.1171932274e+00
 1.8293474312e+00	 1.5244570780e-02	 3.1147554730e+00
 1.8291560252e+00	 3.0540026950e-02	 3.1093740695e+00
 1.8288354387e+00	 4.5885040085e-02	 3.1009033187e+00
 1.8283843981e+00	 6.1278251845e-02	 3.0893188904e+00
 1.8278016448e+00	 7.6718274025e-02	 3.0747295392e+00
 1.8270859360e+00	 9.2203688633e-02	 3.0573887774e+00
 1.8262360455e+00	 1.0773304798e-01	 3.0377064033e+00
 1.8252507647e+00	 1.2330487481e-01	 3.0162597773e+00
 1.8241289028e+00	 1.3891766241e-01	 2.9938047315e+00
 1.8228692882e+00	 1.5456987478e-01	 2.9712859882e+00
 1.8382353983e+00	 0.0000000000e+00	 3.1176605629e+00
 1.8381715784e+00	 1.5318105382e-02	 3.1173114111e+00
 1.8379792491e+00	 3.0687341608e-02	 3.1137444765e+00
 1.8376571162e+00	 4.6106373845e-02	 3.1067837974e+00
 1.8372039000e+00	 6.1573837201e-02	 3.0963766667e+00
 1.8366183356e+00	 7.7088336774e-02	 3.0826059336e+00
 1.8358991745e+00	 9.2648447734e-02	 3.0657022851e+00
 1.8350451845e+00	 1.0825271541e-01	 3.0460564064e+00
 1.8340551510e+00	 1.2389965541e-01	 3.0242309085e+00
 1.8329278776e+00	 1.3958775376e-01	 3.0009719052e+00
 1.8316621870e+00	 1.5531546706e-01	 2.9772201143e+00
 1.8470598769e+00	 0.0000000000e+00	 3.1268649347e+00
 1.8469957507e+00	 1.5391640192e-02	 3.1292362577e+00
 1.8468024981e+00	 3.0834656683e-02	 3.1281089258e+00
 1.8464788188e+00	 4.6327708232e-02	 3.1232540363e+00
 1.8460234268e+00	 6.1869423394e-02	 3.1145675534e+00
 1.8454350515e+00	 7.7458400572e-02	 3.1020832318e+00
 1.8447124380e+00	 9.3093208094e-02	 3.0859855466e+00
 1.8438543484e+00	 1.0877238431e-01	 3.0666225259e+00
 1.8428595622e+00	 1.2449443770e-01	 3.0445183720e+00
 1.8417268773e+00	 1.4025784702e-01	 3.0203857510e+00
 1.8404551108e+00	 1.5606106146e-01	 2.9951376221e+00
 1.8558843755e+00	 0.0000000000e+00	 3.1421704381e+00
 1.8558199429e+00	 1.5465175169e-02	 3.1477345658e+00
 1.8556257670e+00	 3.0981972092e-02	 3.1497267644e+00
 1.8553005413e+00	 4.6549043120e-02	 3.1478588613e+00
 1.8548429736e+00	 6.2165010257e-02	 3.1419337130e+00
 1.8542517873e+00	 7.7828465208e-02	 3.1318504320e+00
 1.8535257214e+00	 9.3537969462e-02	 3.1176101998e+00
 1.8526635322e+00	 1.0929205438e-01	 3.0993227159e+00
 1.8516639934e+00	 1.2508922133e-01	 3.0772271725e+00
 1.8505258970e+00	 1.4092794179e-01	 3.0521771996e+00
 1.8492480545e+00	 1.5680665754e-01	 3.0251976251e+00
 1.8647088891e+00	 0.0000000000e+00	 3.1446441417e+00
 1.8646441501e+00	 1.5538710271e-02	 3.1519798193e+00
 1.8644490509e+00	 3.1129287751e-02	 3.1559924211e+00
 1.8641222788e+00	 4.6770378385e-02	 3.1564127474e+00
 1.8636625355e+00	 6.2460597622e-02	 3.1530588979e+00
 1.8630685381e+00	 7.8198530473e-02	 3.1458412852e+00
 1.8623390199e+00	 9.3982731586e-02	 3.1347682371e+00
 1.8614727311e+00	 1.0981172534e-01	 3.1199522406e+00
 1.8604684395e+00	 1.2568400597e-01	 3.1016168818e+00
 1.8593249316e+00	 1.4159803770e-01	 3.0801045366e+00
 1.8580410131e+00	 1.5755225489e-01	 3.0558848704e+00
 1.8735334126e+00	 0.0000000000e+00	 3.1305178653e+00
 1.8734683673e+00	 1.5612245456e-02	 3.1377084756e+00
 1.8732723448e+00	 3.1276603577e-02	 3.1418820691e+00
 1.8729440263e+00	 4.6991713900e-02	 3.1427721995e+00
 1.8724821073e+00	 6.2756185322e-02	 3.1401957400e+00
 1.8718852989e+00	 7.8568596157e-02	 3.1340576916e+00
 1.8711523283e+00	 9.4427494214e-02	 3.1243565849e+00
 1.8702819399e+00	 1.1033139689e-01	 3.1111905291e+00
 1.8692728957e+00	 1.2627879129e-01	 3.0947639653e+00
 1.8681239762e+00	 1.4226813437e-01	 3.0753951793e+00
 1.8668339817e+00	 1.5829785309e-01	 3.0535246348e+00
 1.8823579412e+00	 0.0000000000e+00	 3.0998066972e+00
 1.8822925895e+00	 1.5685780682e-02	 3.1049357151e+00
 1.8820956438e+00	 3.1423919486e-02	 3.1074122595e+00
 1.8817657788e+00	 4.7213049540e-02	 3.1069567166e+00
 1.8813016841e+00	 6.3051773189e-02	 3.1033685647e+00
 1.8807020647e+00	 7.8938662051e-02	 3.0965309861e+00
 1.8799656418e+00	 9.4872257094e-02	 3.0864160774e+00
 1.8790911537e+00	 1.1085106873e-01	 3.0730907141e+00
 1.8780773568e+00	 1.2687357695e-01	 3.0567231265e+00
 1.8769230258e+00	 1.4293823142e-01	 3.0375902457e+00
 1.8756269553e+00	 1.5904345171e-01	 3.0160858818e+00
 1.7876980416e+00	 1.5158753522e-01	 3.0640049980e+00
 1.7863262610e+00	 1.6697748904e-01	 3.0428345174e+00
 1.7848170991e+00	 1.8240298368e-01	 3.0201974731e+00
 1.7831694663e+00	 1.9786238912e-01	 2.9954694152e+00
 1.7813822948e+00	 2.1335404644e-01	 2.9682080649e+00
 1.7794545395e+00	 2.2887626810e-01	 2.9381589915e+00
 1.7773851785e+00	 2.4442733825e-01	 2.9052600232e+00
 1.7751732139e+00	 2.6000551298e-01	 2.8696442434e+00
 1.7728176731e+00	 2.7560902069e-01	 2.8316414164e+00
 1.7703176088e+00	 2.9123606242e-01	 2.7917776876e+00
 1.7676721003e+00	 3.0688481227e-01	 2.7507733972e+00
 1.7964907909e+00	 1.5233311483e-01	 3.0237091205e+00
 1.7951122633e+00	 1.6779876376e-01	 3.0031748933e+00
 1.7935956786e+00	 1.8330012833e-01	 2.9817135676e+00
 1.7919399420e+00	 1.9883557047e-01	 2.9585982723e+00
 1.7901439804e+00	 2.1440342313e-01	 2.9332913081e+00
 1.7882067434e+00	 2.3000199047e-01	 2.9054505821e+00
 1.7861272043e+00	 2.4562954817e-01	 2.8749347697e+00
 1.7839043603e+00	 2.6128434378e-01	 2.8418070488e+00
 1.7815372337e+00	 2.7696459696e-01	 2.8063372471e+00
 1.7790248729e+00	 2.9266849992e-01	 2.7690022415e+00
 1.7763663526e+00	 3.0839421776e-01	 2.7304844437e+00
 1.8052835851e+00	 1.5307869824e-01	 2.9947036677e+00
 1.8038983104e+00	 1.6862004267e-01	 2.9742146604e+00
 1.8023743029e+00	 1.8419727754e-01	 2.9531589592e+00
 1.8007104624e+00	 1.9980875679e-01	 2.9307366125e+00
 1.7989057106e+00	 2.1545280517e-01	 2.9063441144e+00
 1.7969589920e+00	 2.3112771857e-01	 2.8795815846e+00
 1.7948692747e+00	 2.4683176423e-01	 2.8502586676e+00
 1.7926355511e+00	 2.6256318109e-01	 2.8183989911e+00
 1.7902568388e+00	 2.7832018014e-01	 2.7842430204e+00
 1.7877321814e+00	 2.9410094472e-01	 2.7482491407e+00
 1.7850606492e+00	 3.0990363095e-01	 2.7110927985e+00
 1.8140764192e+00	 1.5382428503e-01	 2.9771706026e+00
 1.8126843974e+00	 1.6944132531e-01	 2.9561652429e+00
 1.8111529670e+00	 1.8509443083e-01	 2.9347692342e+00
 1.8094810226e+00	 2.0078194751e-01	 2.9121382591e+00
 1.8076674805e+00	 2.1650219197e-01	 2.8876319911e+00
 1.8057112802e+00	 2.3225345178e-01	 2.8608220078e+00
 1.8036113847e+00	 2.4803398573e-01	 2.8314984148e+00
 1.8013667815e+00	 2.6384202421e-01	 2.7996750162e+00
 1.7989764835e+00	 2.7967576947e-01	 2.7655928608e+00
 1.7964395295e+00	 2.9553339601e-01	 2.7297219945e+00
 1.7937549852e+00	 3.1141305098e-01	 2.6927612400e+00
 1.8228692882e+00	 1.5456987478e-01	 2.9712859882e+00
 1.8214705192e+00	 1.7026261120e-01	 2.9492315458e+00
 1.8199316659e+00	 1.8599158767e-01	 2.9267729320e+00
 1.8182516175e+00	 2.0175514210e-01	 2.9030495593e+00
 1.8164292852e+00	 2.1755158294e-01	 2.8774126450e+00
 1.8144636031e+00	 2.3337918945e-01	 2.8494338473e+00
 1.8123535294e+00	 2.4923621200e-01	 2.8189126028e+00
 1.8100980466e+00	 2.6512087240e-01	 2.7858819953e+00
 1.8076961627e+00	 2.8103136417e-01	 2.7506129831e+00
 1.8051469120e+00	 2.9696585299e-01	 2.7136168056e+00
 1.8024493558e+00	 3.1292247700e-01	 2.6756453891e+00
 1.8316621870e+00	 1.5531546706e-01	 2.9772201143e+00
 1.8302566708e+00	 1.7108389988e-01	 2.9536121001e+00
 1.8287103947e+00	 1.8688874757e-01	 2.9293917066e+00
 1.8270222423e+00	 2.0272834000e-01	 2.9037095594e+00
 1.8251911197e+00	 2.1860097747e-01	 2.8759361700e+00
 1.8232159558e+00	 2.3450493095e-01	 2.8456712839e+00
 1.8210957038e+00	 2.5043844236e-01	 2.8127519213e+00
 1.8188293413e+00	 2.6639972493e-01	 2.7772589341e+00
 1.8164158716e+00	 2.8238696349e-01	 2.7395219010e+00
 1.8138543242e+00	 2.9839831483e-01	 2.7001221769e+00
 1.8111437558e+00	 3.1443190815e-01	 2.6598939102e+00
 1.8404551108e+00	 1.5606106146e-01	 2.9951376221e+00
 1.8390428474e+00	 1.7190519089e-01	 2.9694992045e+00
 1.8374891483e+00	 1.8778591000e-01	 2.9428404842e+00
 1.8357928920e+00	 2.0370154065e-01	 2.9143501773e+00
 1.8339529790e+00	 2.1965037497e-01	 2.8834452310e+00
 1.8319683333e+00	 2.3563067564e-01	 2.8497808757e+00
 1.8298379030e+00	 2.5164067613e-01	 2.8132593579e+00
 1.8275606608e+00	 2.6767858109e-01	 2.7740371762e+00
 1.8251356052e+00	 2.8374256664e-01	 2.7325306327e+00
 1.8225617610e+00	 2.9983078073e-01	 2.6894195140e+00
 1.8198381805e+00	 3.1594134357e-01	 2.6456487070e+00
 1.8492480545e+00	 1.5680665754e-01	 3.0251976251e+00
 1.8478290439e+00	 1.7272648376e-01	 2.9970790635e+00
 1.8462679219e+00	 1.8868307447e-01	 2.9673276170e+00
 1.8445635615e+00	 2.0467474351e-01	 2.9351963694e+00
 1.8427148581e+00	 2.2069977486e-01	 2.9001752435e+00
 1.8407207307e+00	 2.3675642288e-01	 2.8620017477e+00
 1.8385801220e+00	 2.5284291262e-01	 2.8206703944e+00
 1.8362920001e+00	 2.6895744015e-01	 2.7764406034e+00
 1.8338553585e+00	 2.8509817287e-01	 2.7298429016e+00
 1.8312692176e+00	 3.0126324989e-01	 2.6816832236e+00
 1.8285326250e+00	 3.1745078242e-01	 2.6330451159e+00
 1.8580410131e+00	 1.5755225489e-01	 3.0558848704e+00
 1.8566152553e+00	 1.7354777803e-01	 3.0293831958e+00
 1.8550467103e+00	 1.8958024046e-01	 2.9997523611e+00
 1.8533342459e+00	 2.0564794802e-01	 2.9657510608e+00
 1.8514767522e+00	 2.2174917652e-01	 2.9263545485e+00
 1.8494731429e+00	 2.3788217203e-01	 2.8825657765e+00
 1.8473223559e+00	 2.5404515116e-01	 2.8352131978e+00
 1.8450233542e+00	 2.7023630138e-01	 2.7846858311e+00
 1.8425751267e+00	 2.8645378140e-01	 2.7316553330e+00
 1.8399766890e+00	 3.0269572147e-01	 2.6770809093e+00
 1.8372270842e+00	 3.1896022383e-01	 2.6222120959e+00
 1.8668339817e+00	 1.5829785309e-01	 3.0535246348e+00
 1.8654014767e+00	 1.7436907323e-01	 3.0296450718e+00
 1.8638255088e+00	 1.9047740747e-01	 3.0030979369e+00
 1.8621049403e+00	 2.0662115364e-01	 2.9727876979e+00
 1.8602386562e+00	 2.2279857938e-01	 2.9377712581e+00
 1.8582255650e+00	 2.3900792246e-01	 2.8972735441e+00
 1.8560645997e+00	 2.5524739105e-01	 2.8507043482e+00
 1.8537547182e+00	 2.7151516407e-01	 2.7976764880e+00
 1.8512949048e+00	 2.8780939147e-01	 2.7381576481e+00
 1.8486841702e+00	 3.0412819468e-01	 2.6757735621e+00
 1.8459215532e+00	 3.2046966696e-01	 2.6132724142e+00
 1.8756269553e+00	 1.5904345171e-01	 3.0160858818e+00
 1.8741877030e+00	 1.7519036889e-01	 2.9927425388e+00
 1.8726043121e+00	 1.9137457499e-01	 2.9670947498e+00
 1.8708756396e+00	 2.0759435981e-01	 2.9382223453e+00
 1.8690005651e+00	 2.2384798283e-01	 2.9053518077e+00
 1.8669779921e+00	 2.4013367353e-01	 2.8678715031e+00
 1.8648068484e+00	 2.5644963163e-01	 2.8253481865e+00
 1.8624860872e+00	 2.7279402747e-01	 2.7775448440e+00
 1.8600146878e+00	 2.8916500231e-01	 2.7244399324e+00
 1.8573916564e+00	 3.0556066871e-01	 2.6662480773e+00
 1.8546160272e+00	 3.2197911094e-01	 2.6034422871e+00
 1.7676721003e+00	 3.0688481227e-01	 2.7507733972e+00
 1.7648807413e+00	 3.2255075349e-01	 2.7061348866e+00
 1.7619422282e+00	 3.3823467012e-01	 2.6559873689e+00
 1.7588557237e+00	 3.5393466308e-01	 2.6022710764e+00
 1.7556204198e+00	 3.6964880820e-01	 2.5470855037e+00
 1.7522355389e+00	 3.8537515669e-01	 2.4919247153e+00
 1.7487003345e+00	 4.0111173565e-01	 2.4363172969e+00
 1.7450140917e+00	 4.1685654864e-01	 2.3795976962e+00
 1.7411761283e+00	 4.3260757626e-01	 2.3210706585e+00
 1.7371857953e+00	 4.4836277670e-01	 2.2599965650e+00
 1.7330424775e+00	 4.6412008643e-01	 2.1955784123e+00
 1.7763663526e+00	 3.0839421776e-01	 2.7304844437e+00
 1.7735612643e+00	 3.2413721153e-01	 2.6881698253e+00
 1.7706082982e+00	 3.3989826912e-01	 2.6400853474e+00
 1.7675066128e+00	 3.5567548212e-01	 2.5881843259e+00
 1.7642553962e+00	 3.7146691688e-01	 2.5345922724e+00
 1.7608538668e+00	 3.8727061503e-01	 2.4807708099e+00
 1.7573012746e+00	 4.0308459397e-01	 2.4263507316e+00
 1.7535969011e+00	 4.1890684744e-01	 2.3707246016e+00
 1.7497400608e+00	 4.3473534610e-01	 2.3132534102e+00
 1.7457301014e+00	 4.5056803812e-01	 2.2532516902e+00
 1.7415664048e+00	 4.6640284979e-01	 2.1899735541e+00
 1.7850606492e+00	 3.0990363095e-01	 2.7110927985e+00
 1.7822418316e+00	 3.2572367766e-01	 2.6700691532e+00
 1.7792744124e+00	 3.4156187660e-01	 2.6231172671e+00
 1.7761575461e+00	 3.5741631003e-01	 2.5722065312e+00
 1.7728904166e+00	 3.7328503483e-01	 2.5194895264e+00
 1.7694722387e+00	 3.8916608304e-01	 2.4664414721e+00
 1.7659022585e+00	 4.0505746235e-01	 2.4127748870e+00
 1.7621797543e+00	 4.2095715670e-01	 2.3579507371e+00
 1.7583040369e+00	 4.3686312680e-01	 2.3013969075e+00
 1.7542744511e+00	 4.5277331079e-01	 2.2424922979e+00
 1.7500903756e+00	 4.6868562480e-01	 2.1805518701e+00
 1.7937549852e+00	 3.1141305098e-01	 2.6927612400e+00
 1.7909224383e+00	 3.2731015098e-01	 2.6519466772e+00
 1.7879405660e+00	 3.4322549163e-01	 2.6051422756e+00
 1.7848085185e+00	 3.5915714584e-01	 2.5543363196e+00
 1.7815254761e+00	 3.7510316102e-01	 2.5017165964e+00
 1.7780906496e+00	 3.9106155964e-01	 2.4488059371e+00
 1.7745032815e+00	 4.0703033968e-01	 2.3953839738e+00
 1.7707626464e+00	 4.2300747525e-01	 2.3409912791e+00
 1.7668680519e+00	 4.3899091715e-01	 2.2851334452e+00
 1.7628188395e+00	 4.5497859345e-01	 2.2272641094e+00
 1.7586143850e+00	 4.7096841015e-01	 2.1667689640e+00
 1.8024493558e+00	 3.1292247700e-01	 2.6756453891e+00
 1.7996030793e+00	 3.2889663060e-01	 2.6339095953e+00
 1.7966067538e+00	 3.4488911326e-01	 2.5862135064e+00
 1.7934595253e+00	 3.6089798855e-01	 2.5345669433e+00
 1.7901605699e+00	 3.7692129443e-01	 2.4812087121e+00
 1.7867090948e+00	 3.9295704375e-01	 2.4277294673e+00
 1.7831043386e+00	 4.0900322483e-01	 2.3739692202e+00
 1.7793455725e+00	 4.2505780194e-01	 2.3195595278e+00
 1.7754321008e+00	 4.4111871593e-01	 2.2640946679e+00
 1.7713632618e+00	 4.5718388486e-01	 2.2071135447e+00
 1.7671384283e+00	 4.7325120456e-01	 2.1480826138e+00
 1.8111437558e+00	 3.1443190815e-01	 2.6598939102e+00
 1.8082837500e+00	 3.3048311561e-01	 2.6160586877e+00
 1.8052729712e+00	 3.4655274055e-01	 2.5663782591e+00
 1.8021105615e+00	 3.6263883718e-01	 2.5128864481e+00
 1.7987956931e+00	 3.7873943401e-01	 2.4578963760e+00
 1.7953275692e+00	 3.9485253432e-01	 2.4030734649e+00
 1.7917054249e+00	 4.1097611669e-01	 2.3483189720e+00
 1.7879285278e+00	 4.2710813559e-01	 2.2933669926e+00
 1.7839961789e+00	 4.4324652196e-01	 2.2379116392e+00
 1.7799077132e+00	 4.5938918377e-01	 2.1815877760e+00
 1.7756625005e+00	 4.7553400674e-01	 2.1239528089e+00
 1.8198381805e+00	 3.1594134357e-01	 2.6456487070e+00
 1.8169644452e+00	 3.3206960512e-01	 2.5984885047e+00
 1.8139392131e+00	 3.4821637254e-01	 2.5456781774e+00
 1.8107616222e+00	 3.6437969074e-01	 2.4892778391e+00
 1.8074308407e+00	 3.8055757875e-01	 2.4317054870e+00
 1.8039460681e+00	 3.9674803025e-01	 2.3746955842e+00
 1.8003065356e+00	 4.1294901414e-01	 2.3182187911e+00
 1.7965115075e+00	 4.2915847506e-01	 2.2621234775e+00
 1.7925602812e+00	 4.4537433401e-01	 2.2062149137e+00
 1.7884521888e+00	 4.6159448893e-01	 2.1502347837e+00
 1.7841865969e+00	 4.7781681538e-01	 2.0938417895e+00
 1.8285326250e+00	 3.1745078242e-01	 2.6330451159e+00
 1.8256451600e+00	 3.3365609822e-01	 2.5812875515e+00
 1.8226054747e+00	 3.4988000831e-01	 2.5241494242e+00
 1.8194127026e+00	 3.6612054825e-01	 2.4637192449e+00
 1.8160660079e+00	 3.8237572761e-01	 2.4025574622e+00
 1.8125645864e+00	 3.9864353048e-01	 2.3424498418e+00
 1.8089076658e+00	 4.1492191607e-01	 2.2834515551e+00
 1.8050945065e+00	 4.3120881918e-01	 2.2255371672e+00
 1.8011244030e+00	 4.4750215088e-01	 2.1686346085e+00
 1.7969966837e+00	 4.6379979908e-01	 2.1126034137e+00
 1.7927107126e+00	 4.8009962919e-01	 2.0572140888e+00
 1.8372270842e+00	 3.1896022383e-01	 2.6222120959e+00
 1.8343258897e+00	 3.3524259402e-01	 2.5645384702e+00
 1.8312717510e+00	 3.5154364691e-01	 2.5018228538e+00
 1.8280637976e+00	 3.6786140872e-01	 2.4361840793e+00
 1.8247011898e+00	 3.8419387956e-01	 2.3703693576e+00
 1.8211831195e+00	 4.0053903394e-01	 2.3061867269e+00
 1.8175088106e+00	 4.1689482134e-01	 2.2437975549e+00
 1.8136775202e+00	 4.3325916678e-01	 2.1833147130e+00
 1.8096885393e+00	 4.4962997137e-01	 2.1248004767e+00
 1.8055411932e+00	 4.6600511299e-01	 2.0682434369e+00
 1.8012348428e+00	 4.8238244689e-01	 2.0135365772e+00
 1.8459215532e+00	 3.2046966696e-01	 2.6132724142e+00
 1.8430066292e+00	 3.3682909162e-01	 2.5483182182e+00
 1.8399380371e+00	 3.5320728740e-01	 2.4787241823e+00
 1.8367149024e+00	 3.6960227117e-01	 2.4066412011e+00
 1.8333363815e+00	 3.8601203357e-01	 2.3350539866e+00
 1.8298016623e+00	 4.0243453954e-01	 2.2657533097e+00
 1.8261099651e+00	 4.1886772886e-01	 2.1990345929e+00
 1.8222605436e+00	 4.3530951671e-01	 2.1351613193e+00
 1.8182526853e+00	 4.5175779428e-01	 2.0743419813e+00
 1.8140857124e+00	 4.6821042940e-01	 2.0167056099e+00
 1.8097589826e+00	 4.8466526717e-01	 1.9622785099e+00
 1.8546160272e+00	 3.2197911094e-01	 2.6034422871e+00
 1.8516873736e+00	 3.3841559011e-01	 2.5326982445e+00
 1.8486043281e+00	 3.5487092882e-01	 2.4548741550e+00
 1.8453660122e+00	 3.7134313460e-01	 2.3750585923e+00
 1.8419715781e+00	 3.8783018861e-01	 2.2965200374e+00
 1.8384202100e+00	 4.0433004622e-01	 2.2209933492e+00
 1.8347111246e+00	 4.2084063749e-01	 2.1489380807e+00
 1.8308435719e+00	 4.3735986779e-01	 2.0807808303e+00
 1.8268168362e+00	 4.5388561839e-01	 2.0168883701e+00
 1.8226302364e+00	 4.7041574706e-01	 1.9575417380e+00
 1.8182831273e+00	 4.8694808875e-01	 1.9029115756e+00
 1.7330424775e+00	 4.6412008643e-01	 2.1955784123e+00
 1.7287455951e+00	 4.7987742099e-01	 2.1257820851e+00
 1.7242946047e+00	 4.9563267639e-01	 2.0500404030e+00
 1.7196889996e+00	 5.1138372914e-01	 1.9696190399e+00
 1.7149283098e+00	 5.2712843678e-01	 1.8856585657e+00
 1.7100121024e+00	 5.4286463860e-01	 1.7991652903e+00
 1.7049399826e+00	 5.5859015640e-01	 1.7110041281e+00
 1.6997115942e+00	 5.7430279528e-01	 1.6218936606e+00
 1.6943266200e+00	 5.9000034444e-01	 1.5324035650e+00
 1.6887847827e+00	 6.0568057798e-01	 1.4429545674e+00
 1.6830858451e+00	 6.2134125579e-01	 1.3538210641e+00
 1.7415664048e+00	 4.6640284979e-01	 2.1899735541e+00
 1.7372483882e+00	 4.8223768642e-01	 2.1211005641e+00
 1.7327755058e+00	 4.9807043366e-01	 2.0457952929e+00
 1.7281472482e+00	 5.1389895758e-01	 1.9653887444e+00
 1.7233631430e+00	 5.2972110518e-01	 1.8810807536e+00
 1.7184227553e+00	 5.4553470513e-01	 1.7939300982e+00
 1.7133256884e+00	 5.6133756851e-01	 1.7048467054e+00
 1.7080715843e+00	 5.7712748962e-01	 1.6145861366e+00
 1.7026601243e+00	 5.9290224679e-01	 1.5237465257e+00
 1.6970910296e+00	 6.0865960318e-01	 1.4327681356e+00
 1.6913640619e+00	 6.2439730766e-01	 1.3419356834e+00
 1.7500903756e+00	 4.6868562480e-01	 2.1805518701e+00
 1.7457512248e+00	 4.8459796389e-01	 2.1129787454e+00
 1.7412564501e+00	 5.0050820336e-01	 2.0386428996e+00
 1.7366055398e+00	 5.1641419885e-01	 1.9589076040e+00
 1.7317980192e+00	 5.3231378681e-01	 1.8749988351e+00
 1.7268334512e+00	 5.4820478528e-01	 1.7879946814e+00
 1.7217114371e+00	 5.6408499463e-01	 1.6988169218e+00
 1.7164316171e+00	 5.7995219837e-01	 1.6082249656e+00
 1.7109936711e+00	 5.9580416395e-01	 1.5168123368e+00
 1.7053973189e+00	 6.1163864358e-01	 1.4250058733e+00
 1.6996423210e+00	 6.2745337511e-01	 1.3330677972e+00
 1.7586143850e+00	 4.7096841015e-01	 2.1667689640e+00
 1.7542540999e+00	 4.8695825206e-01	 2.1007851818e+00
 1.7497374329e+00	 5.0294598412e-01	 2.0278748195e+00
 1.7450638699e+00	 5.1892945152e-01	 1.9494011077e+00
 1.7402329337e+00	 5.3490648019e-01	 1.8665837800e+00
 1.7352441852e+00	 5.5087487753e-01	 1.7804878011e+00
 1.7300972237e+00	 5.6683243321e-01	 1.6920143454e+00
 1.7247916878e+00	 5.8277691993e-01	 1.6018942246e+00
 1.7193272557e+00	 5.9870609426e-01	 1.5106839527e+00
 1.7137036458e+00	 6.1461769748e-01	 1.4187646260e+00
 1.7079206175e+00	 6.3050945642e-01	 1.3263437804e+00
 1.7671384283e+00	 4.7325120456e-01	 2.1480826138e+00
 1.7627570088e+00	 4.8931854959e-01	 2.0838920822e+00
 1.7582184494e+00	 5.0538377454e-01	 2.0127876625e+00
 1.7535222335e+00	 5.2144471417e-01	 1.9361009815e+00
 1.7486678816e+00	 5.3749918386e-01	 1.8550138746e+00
 1.7436549525e+00	 5.5354498038e-01	 1.7705464608e+00
 1.7384830437e+00	 5.6957988268e-01	 1.6835475490e+00
 1.7331517917e+00	 5.8560165268e-01	 1.5946875834e+00
 1.7276608733e+00	 6.0160803608e-01	 1.5044543239e+00
 1.7220100057e+00	 6.1759676320e-01	 1.4131514434e+00
 1.7161989469e+00	 6.3356554985e-01	 1.3209002134e+00
 1.7756625005e+00	 4.7553400674e-01	 2.1239528089e+00
 1.7712599465e+00	 4.9167885515e-01	 2.0616753336e+00
 1.7666994947e+00	 5.0782157326e-01	 1.9926830640e+00
 1.7619806258e+00	 5.2395998537e-01	 1.9182451953e+00
 1.7571028582e+00	 5.4009189634e-01	 1.8394747301e+00
 1.7520657485e+00	 5.5621509230e-01	 1.7573159225e+00
 1.7468688921e+00	 5.7232734150e-01	 1.6725341394e+00
 1.7415119240e+00	 5.8842639505e-01	 1.5857083542e+00
 1.7359945193e+00	 6.0450998777e-01	 1.4972264736e+00
 1.7303163938e+00	 6.2057583905e-01	 1.4072836901e+00
 1.7244773045e+00	 6.3662165367e-01	 1.3158840341e+00
 1.7841865969e+00	 4.7781681538e-01	 2.0938417895e+00
 1.7797629084e+00	 4.9403916739e-01	 2.0335145261e+00
 1.7751805640e+00	 5.1025937888e-01	 1.9668677005e+00
 1.7704390421e+00	 5.2647526371e-01	 1.8950779755e+00
 1.7655378587e+00	 5.4268461617e-01	 1.8191592966e+00
 1.7604765683e+00	 5.5888521179e-01	 1.7399497276e+00
 1.7552547643e+00	 5.7507480810e-01	 1.6581007930e+00
 1.7498720800e+00	 5.9125114541e-01	 1.5740695468e+00
 1.7443281889e+00	 6.0741194768e-01	 1.4881135797e+00
 1.7386228055e+00	 6.2355492334e-01	 1.4002891606e+00
 1.7327556855e+00	 6.3967776615e-01	 1.3104526945e+00
 1.7927107126e+00	 4.8009962919e-01	 2.0572140888e+00
 1.7882658895e+00	 4.9639948499e-01	 1.9987929812e+00
 1.7836616526e+00	 5.1269719003e-01	 1.9346533095e+00
 1.7788974776e+00	 5.2899054774e-01	 1.8658498211e+00
 1.7739728784e+00	 5.4527734187e-01	 1.7932678816e+00
 1.7688874071e+00	 5.6155533733e-01	 1.7176097240e+00
 1.7636406555e+00	 5.7782228093e-01	 1.6393832953e+00
 1.7582322549e+00	 5.9407590218e-01	 1.5588939288e+00
 1.7526618774e+00	 6.1031391417e-01	 1.4762390619e+00
 1.7469292360e+00	 6.2653401438e-01	 1.3913062004e+00
 1.7410340853e+00	 6.4273388556e-01	 1.3037743211e+00
 1.8012348428e+00	 4.8238244689e-01	 2.0135365772e+00
 1.7967688850e+00	 4.9875980660e-01	 1.9568977841e+00
 1.7921427555e+00	 5.1513500533e-01	 1.8953567139e+00
 1.7873559275e+00	 5.3150583605e-01	 1.8298175249e+00
 1.7824079123e+00	 5.4787007199e-01	 1.7610081738e+00
 1.7772982603e+00	 5.6422546742e-01	 1.6894660975e+00
 1.7720265610e+00	 5.8056975843e-01	 1.6155265874e+00
 1.7665924441e+00	 5.9690066376e-01	 1.5393140919e+00
 1.7609955800e+00	 6.1321588560e-01	 1.4607366734e+00
 1.7552356806e+00	 6.2951311049e-01	 1.3794838303e+00
 1.7493124992e+00	 6.4579001016e-01	 1.2950278796e+00
 1.8097589826e+00	 4.8466526717e-01	 1.9622785099e+00
 1.8052718903e+00	 5.0112013088e-01	 1.9072198185e+00
 1.8006238681e+00	 5.1757282338e-01	 1.8482998492e+00
 1.7958143869e+00	 5.3402112720e-01	 1.7862441991e+00
 1.7908429559e+00	 5.5046280504e-01	 1.7215952711e+00
 1.7857091230e+00	 5.6689560052e-01	 1.6546974082e+00
 1.7804124759e+00	 5.8331723904e-01	 1.5856848161e+00
 1.7749526427e+00	 5.9972542853e-01	 1.5144725216e+00
 1.7693292921e+00	 6.1611786031e-01	 1.4407505980e+00
 1.7635421346e+00	 6.3249220997e-01	 1.3639818761e+00
 1.7575909224e+00	 6.4884613823e-01	 1.2834033432e+00
 1.8182831273e+00	 4.8694808875e-01	 1.9029115756e+00
 1.8137749003e+00	 5.0348045650e-01	 1.8491538044e+00
 1.8091049855e+00	 5.2001064282e-01	 1.7928097950e+00
 1.8042728512e+00	 5.3653641979e-01	 1.7343993042e+00
 1.7992780042e+00	 5.5305553956e-01	 1.6742517136e+00
 1.7941199904e+00	 5.6956573515e-01	 1.6124906320e+00
 1.7887983956e+00	 5.8606472121e-01	 1.5490213893e+00
 1.7833128461e+00	 6.0255019490e-01	 1.4835216733e+00
 1.7776630090e+00	 6.1901983667e-01	 1.4154355512e+00
 1.7718485933e+00	 6.3547131114e-01	 1.3439711017e+00
 1.7658693503e+00	 6.5190226803e-01	 1.2681018649e+00
 1.6830858451e+00	 6.2134125579e-01	 1.3538210641e+00
 1.6772286017e+00	 6.3698278107e-01	 1.2669533359e+00
 1.6712138520e+00	 6.5260022188e-01	 1.1838068203e+00
 1.6650414817e+00	 6.6819129874e-01	 1.1036828233e+00
 1.6587114185e+00	 6.8375372154e-01	 1.0257907722e+00
 1.6522236333e+00	 6.9928519036e-01	 9.4926716459e-01
 1.6455781398e+00	 7.1478339657e-01	 8.7319772137e-01
 1.6387749955e+00	 7.3024602370e-01	 7.9664276273e-01
 1.6318143016e+00	 7.4567074850e-01	 7.1824320689e-01
 1.6246962038e+00	 7.6105524190e-01	 6.3144798381e-01
 1.6174208922e+00	 7.7639717010e-01	 5.3413701067e-01
 1.6913640619e+00	 6.2439730766e-01	 1.3419356834e+00
 1.6854780098e+00	 6.4011576540e-01	 1.2533527800e+00
 1.6794336767e+00	 6.5581002021e-01	 1.1686729775e+00
 1.6732309477e+00	 6.7147778141e-01	 1.0872608080e+00
 1.6668697503e+00	 6.8711674760e-01	 1.0083805620e+00
 1.6603500551e+00	 7.0272460758e-01	 9.3121542029e-01
 1.6536718759e+00	 7.1829904134e-01	 8.5488991261e-01
 1.6468352705e+00	 7.3383772102e-01	 7.7849572222e-01
 1.6398403406e+00	 7.4933831195e-01	 6.9989028222e-01
 1.6326872326e+00	 7.6479847361e-01	 6.1256014587e-01
 1.6253761376e+00	 7.8021586071e-01	 5.1553189258e-01
 1.6996423210e+00	 6.2745337511e-01	 1.3330677972e+00
 1.6937274600e+00	 6.4324876571e-01	 1.2432287178e+00
 1.6876535434e+00	 6.5901983491e-01	 1.1573458132e+00
 1.6814204555e+00	 6.7476428084e-01	 1.0748615302e+00
 1.6750281237e+00	 6.9047979081e-01	 9.9510879726e-01
 1.6684765183e+00	 7.0616404233e-01	 9.1733031657e-01
 1.6617656533e+00	 7.2181470403e-01	 8.4070130836e-01
 1.6548955866e+00	 7.3742943666e-01	 7.6435572910e-01
 1.6478664205e+00	 7.5300589411e-01	 6.8501689037e-01
 1.6406783021e+00	 7.6854172442e-01	 5.9709948247e-01
 1.6333314235e+00	 7.8403457080e-01	 5.0028517425e-01
 1.7079206175e+00	 6.3050945642e-01	 1.3263437804e+00
 1.7019769476e+00	 6.4638178022e-01	 1.2357427115e+00
 1.6958734473e+00	 6.6222966416e-01	 1.1490172255e+00
 1.6896100005e+00	 6.7805079516e-01	 1.0657021923e+00
 1.6831865341e+00	 6.9384284927e-01	 9.8521275915e-01
 1.6766030184e+00	 7.0960349268e-01	 9.0686378017e-01
 1.6698594673e+00	 7.2533038267e-01	 8.2989282670e-01
 1.6629559392e+00	 7.4102116858e-01	 7.5348525899e-01
 1.6558925368e+00	 7.5667349290e-01	 6.7294149845e-01
 1.6486694079e+00	 7.7228499219e-01	 5.8438353685e-01
 1.6412867455e+00	 7.8785329820e-01	 4.8770579314e-01
 1.7161989469e+00	 6.3356554985e-01	 1.3209002134e+00
 1.7102264679e+00	 6.4951480716e-01	 1.2300665174e+00
 1.7040933838e+00	 6.6543950615e-01	 1.1428894840e+00
 1.6977995779e+00	 6.8133732252e-01	 1.0590107375e+00
 1.6913449769e+00	 6.9720592107e-01	 9.7794103368e-01
 1.6847295507e+00	 7.1304295667e-01	 8.9907980332e-01
 1.6779533135e+00	 7.2884607524e-01	 8.2173840990e-01
 1.6710163238e+00	 7.4461291475e-01	 7.4493822227e-01
 1.6639186849e+00	 7.6034110623e-01	 6.6300014676e-01
 1.6566605454e+00	 7.7602827481e-01	 5.7374760739e-01
 1.6492420990e+00	 7.9167204075e-01	 4.7712078420e-01
 1.7244773045e+00	 6.3662165367e-01	 1.3158840341e+00
 1.7184760163e+00	 6.5264784475e-01	 1.2253822813e+00
 1.7123133482e+00	 6.6864935905e-01	 1.1381754673e+00
 1.7059891832e+00	 6.8462386106e-01	 1.0540261274e+00
 1.6995034474e+00	 7.0056900431e-01	 9.7255382655e-01
 1.6928561106e+00	 7.1648243236e-01	 8.9325479309e-01
 1.6860471872e+00	 7.3236177978e-01	 8.1552540575e-01
 1.6790767358e+00	 7.4820467313e-01	 7.3788533261e-01
 1.6719448604e+00	 7.6400873204e-01	 6.5454606327e-01
 1.6646517100e+00	 7.7977157016e-01	 5.6454434952e-01
 1.6571974796e+00	 7.9549079628e-01	 4.6787486577e-01
 1.7327556855e+00	 6.3967776615e-01	 1.3104526945e+00
 1.7267255880e+00	 6.5578089122e-01	 1.2208827390e+00
 1.7205333360e+00	 6.7185922104e-01	 1.1340989046e+00
 1.7141788117e+00	 6.8791040891e-01	 1.0499986225e+00
 1.7076619410e+00	 7.0393209707e-01	 9.6832328011e-01
 1.7009826936e+00	 7.1992191779e-01	 8.8867792280e-01
 1.6941410838e+00	 7.3587749427e-01	 8.1055495068e-01
 1.6871371707e+00	 7.5179644169e-01	 7.3168995549e-01
 1.6799710586e+00	 7.6767636823e-01	 6.4694927985e-01
 1.6726428973e+00	 7.8351487611e-01	 5.5614337944e-01
 1.6651528827e+00	 7.9930956263e-01	 4.5933002740e-01
 1.7410340853e+00	 6.4273388556e-01	 1.3037743211e+00
 1.7349751784e+00	 6.5891394479e-01	 1.2157714191e+00
 1.7287533424e+00	 6.7506909032e-01	 1.1298946194e+00
 1.7223684588e+00	 6.9119696421e-01	 1.0461900644e+00
 1.7158204531e+00	 7.0729519746e-01	 9.6453379262e-01
 1.7091092950e+00	 7.2336141102e-01	 8.8465148518e-01
 1.7022349988e+00	 7.3939321673e-01	 8.0614235464e-01
 1.6951976238e+00	 7.5538821839e-01	 7.2573187971e-01
 1.6879972749e+00	 7.7134401274e-01	 6.3959624993e-01
 1.6806341027e+00	 7.8725819055e-01	 5.4793087938e-01
 1.6731083039e+00	 8.0312833764e-01	 4.5086511962e-01
 1.7493124992e+00	 6.4579001016e-01	 1.2950278796e+00
 1.7432247829e+00	 6.6204700368e-01	 1.2092628503e+00
 1.7369733627e+00	 6.7827896504e-01	 1.1248087771e+00
 1.7305581198e+00	 6.9448352509e-01	 1.0418741617e+00
 1.7239789791e+00	 7.1065830357e-01	 9.6048233942e-01
 1.7172359102e+00	 7.2680091010e-01	 8.8049124744e-01
 1.7103289275e+00	 7.4290894517e-01	 8.0155590210e-01
 1.7032580906e+00	 7.5898000120e-01	 7.1940694583e-01
 1.6960235049e+00	 7.7501166349e-01	 6.3188946774e-01
 1.6886253217e+00	 7.9100151136e-01	 5.3930920459e-01
 1.6810637386e+00	 8.0694711914e-01	 4.4187544546e-01
 1.7575909224e+00	 6.4884613823e-01	 1.2834033432e+00
 1.7514743967e+00	 6.6518006613e-01	 1.2005827712e+00
 1.7451933924e+00	 6.8148884341e-01	 1.1180991343e+00
 1.7387477900e+00	 6.9777008970e-01	 1.0363367771e+00
 1.7321375143e+00	 7.1402141348e-01	 9.5547879620e-01
 1.7253625346e+00	 7.3024041307e-01	 8.7552680798e-01
 1.7184228654e+00	 7.4642467760e-01	 7.9593351856e-01
 1.7113185666e+00	 7.6257178807e-01	 7.1212667596e-01
 1.7040497440e+00	 7.7867931839e-01	 6.2324708897e-01
 1.6966165497e+00	 7.9474483640e-01	 5.2969649187e-01
 1.6890191823e+00	 8.1076590497e-01	 4.3177235383e-01
 1.7658693503e+00	 6.5190226803e-01	 1.2681018649e+00
 1.7597240152e+00	 6.6831313035e-01	 1.1889683434e+00
 1.7534134267e+00	 6.8469872359e-01	 1.1090352915e+00
 1.7469374649e+00	 7.0105665617e-01	 1.0288762174e+00
 1.7402960542e+00	 7.1738452531e-01	 9.4884626416e-01
 1.7334891636e+00	 7.3367991799e-01	 8.6910195482e-01
 1.7265168079e+00	 7.4994041202e-01	 7.8866583935e-01
 1.7193790471e+00	 7.6616357699e-01	 7.0331790508e-01
 1.7120759877e+00	 7.8234697537e-01	 6.1310255288e-01
 1.7046077823e+00	 7.9848816357e-01	 5.1852626956e-01
 1.6969746305e+00	 8.1458469296e-01	 4.1998283452e-01
 1.6174208922e+00	 7.7639717010e-01	 5.3413701067e-01
 1.6099898785e+00	 7.9169159915e-01	 4.3394384041e-01
 1.6024022183e+00	 8.0693880086e-01	 3.3823701267e-01
 1.5946582360e+00	 8.2213643373e-01	 2.4641160163e-01
 1.5867583015e+00	 8.3728215572e-01	 1.5782824066e-01
 1.5787028302e+00	 8.5237362528e-01	 7.1828035271e-02
 1.5704922835e+00	 8.6740850250e-01	-1.2251363893e-02
 1.5621271689e+00	 8.8238445016e-01	-9.5058553535e-02
 1.5536080398e+00	 8.9729913487e-01	-1.7721006912e-01
 1.5449354956e+00	 9.1215022821e-01	-2.5927101610e-01
 1.5361101821e+00	 9.2693540778e-01	-3.4173468982e-01
 1.6253761376e+00	 7.8021586071e-01	 5.1553189258e-01
 1.6179085745e+00	 7.9558551504e-01	 4.1629793518e-01
 1.6102835947e+00	 8.1090770974e-01	 3.2198812885e-01
 1.6025015238e+00	 8.2618009180e-01	 2.3186330306e-01
 1.5945627336e+00	 8.4140030765e-01	 1.4514442908e-01
 1.5864676417e+00	 8.5656600424e-01	 6.1027952244e-02
 1.5782167117e+00	 8.7167483014e-01	-2.1297673181e-02
 1.5698104534e+00	 8.8672443663e-01	-1.0263427221e-01
 1.5612494232e+00	 9.0171247886e-01	-1.8375509382e-01
 1.5525342233e+00	 9.1663661694e-01	-2.6538485359e-01
 1.5436655027e+00	 9.3149451705e-01	-3.4817872346e-01
 1.6333314235e+00	 7.8403457080e-01	 5.0028517425e-01
 1.6258273110e+00	 7.9947945079e-01	 4.0191865112e-01
 1.6181650112e+00	 8.1487663886e-01	 3.0888259439e-01
 1.6103448516e+00	 8.3022377049e-01	 2.2030971394e-01
 1.6023672056e+00	 8.4551848059e-01	 1.3528782028e-01
 1.5942324928e+00	 8.6075840458e-01	 5.2875573060e-02
 1.5859411792e+00	 8.7594117953e-01	-2.7880525243e-02
 1.5774937771e+00	 8.9106444524e-01	-1.0792791582e-01
 1.5688908455e+00	 9.0612584536e-01	-1.8818858396e-01
 1.5601329897e+00	 9.2112302855e-01	-2.6953851503e-01
 1.5512208618e+00	 9.3605364958e-01	-3.5278605612e-01
 1.6412867455e+00	 7.8785329820e-01	 4.8770579314e-01
 1.6337460834e+00	 8.0337340419e-01	 3.9010588169e-01
 1.6260464635e+00	 8.1884558597e-01	 2.9821809684e-01
 1.6181882149e+00	 8.3426746751e-01	 2.1105306188e-01
 1.6101717129e+00	 8.4963667220e-01	 1.2757182677e-01
 1.6019973791e+00	 8.6495082393e-01	 4.6702029523e-02
 1.5936656817e+00	 8.8020754827e-01	-3.2644654169e-02
 1.5851771357e+00	 8.9540447352e-01	-1.1155379858e-01
 1.5765323025e+00	 9.1053923186e-01	-1.9108828648e-01
 1.5677317906e+00	 9.2560946050e-01	-2.7226718061e-01
 1.5587762552e+00	 9.4061280278e-01	-3.5604345871e-01
 1.6492420990e+00	 7.9167204075e-01	 4.7712078420e-01
 1.6416648872e+00	 8.0726737304e-01	 3.8017798228e-01
 1.6339279471e+00	 8.2281454883e-01	 2.8931103308e-01
 1.6260316094e+00	 8.3831118058e-01	 2.0341441724e-01
 1.6179762512e+00	 8.5375488014e-01	 1.2132872621e-01
 1.6097622962e+00	 8.6914325991e-01	 4.1857233122e-02
 1.6013902149e+00	 8.8447393394e-01	-3.6216204781e-02
 1.5928605247e+00	 8.9974451902e-01	-1.1410793769e-01
 1.5841737898e+00	 9.1495263588e-01	-1.9301404234e-01
 1.5753306217e+00	 9.3009591025e-01	-2.7408861103e-01
 1.5663316785e+00	 9.4517197406e-01	-3.5842086187e-01
 1.6571974796e+00	 7.9549079628e-01	 4.6787486577e-01
 1.6495837179e+00	 8.1116135513e-01	 3.7147133994e-01
 1.6418094574e+00	 8.2678352519e-01	 2.8149606632e-01
 1.6338750305e+00	 8.4235490739e-01	 1.9673324068e-01
 1.6257808160e+00	 8.5787310209e-01	 1.1590920277e-01
 1.6175272397e+00	 8.7333571015e-01	 3.7709413302e-02
 1.6091147744e+00	 8.8874033411e-01	-3.9203194200e-02
 1.6005439398e+00	 9.0408457928e-01	-1.1616851159e-01
 1.5918153031e+00	 9.1936605489e-01	-1.9450823828e-01
 1.5829294785e+00	 9.3458237525e-01	-2.7550359003e-01
 1.5738871276e+00	 9.4973116085e-01	-3.6037178593e-01
 1.6651528827e+00	 7.9930956263e-01	 4.5933002740e-01
 1.6575025710e+00	 8.1505534825e-01	 3.6333994541e-01
 1.6496909901e+00	 8.3075251279e-01	 2.7412568547e-01
 1.6417184739e+00	 8.4639864566e-01	 1.9036693304e-01
 1.6335854030e+00	 8.6199133570e-01	 1.1068189079e-01
 1.6252922052e+00	 8.7752817226e-01	 3.3644657989e-02
 1.6168393557e+00	 8.9300674637e-01	-4.2195971349e-02
 1.6082273767e+00	 9.0842465183e-01	-1.1829631639e-01
 1.5994568381e+00	 9.2377948642e-01	-1.9609625729e-01
 1.5905283569e+00	 9.3906885296e-01	-2.7699636570e-01
 1.5814425980e+00	 9.5429036055e-01	-3.6233377032e-01
 1.6731083039e+00	 8.0312833764e-01	 4.5086511962e-01
 1.6654214421e+00	 8.1894935020e-01	 3.5515496717e-01
 1.6575725407e+00	 8.3472150939e-01	 2.6656976672e-01
 1.6495619350e+00	 8.5044239310e-01	 1.8369038759e-01
 1.6413900076e+00	 8.6610957865e-01	 1.0503292063e-01
 1.6330571883e+00	 8.8172064388e-01	 2.9066456288e-02
 1.6245639546e+00	 8.9727316830e-01	-4.5767674460e-02
 1.6159108311e+00	 9.1276473423e-01	-1.2103522070e-01
 1.6070983903e+00	 9.2819292795e-01	-1.9828692761e-01
 1.5981272526e+00	 9.4355534085e-01	-2.7903509091e-01
 1.5889980856e+00	 9.5884957059e-01	-3.6472880259e-01
 1.6810637386e+00	 8.0694711914e-01	 4.4187544546e-01
 1.6733403267e+00	 8.2284335877e-01	 3.4630432762e-01
 1.6654541046e+00	 8.3869051273e-01	 2.5821513733e-01
 1.6574054094e+00	 8.5448614741e-01	 1.7609554446e-01
 1.6491946255e+00	 8.7022782860e-01	 9.8365466902e-02
 1.6408221847e+00	 8.8591312262e-01	 2.3395243294e-02
 1.6322885665e+00	 9.0153959748e-01	-5.0474686653e-02
 1.6235942984e+00	 9.1710482400e-01	-1.2491261860e-01
 1.6147399556e+00	 9.3260637698e-01	-2.0157297041e-01
 1.6057261611e+00	 9.4804183636e-01	-2.8207226280e-01
 1.5965535860e+00	 9.6340878838e-01	-3.6796374679e-01
 1.6890191823e+00	 8.1076590497e-01	 4.3177235383e-01
 1.6812592202e+00	 8.2673737175e-01	 3.3619228117e-01
 1.6733356775e+00	 8.4265952057e-01	 2.4846514149e-01
 1.6652488928e+00	 8.5852990631e-01	 1.6699094729e-01
 1.6569992522e+00	 8.7434608322e-01	 9.0099298698e-02
 1.6485871898e+00	 8.9010560612e-01	 1.6067946946e-02
 1.6400131873e+00	 9.0580603150e-01	-5.6857089645e-02
 1.6312777745e+00	 9.2144491869e-01	-1.3043988109e-01
 1.6223815295e+00	 9.3701983101e-01	-2.0643144615e-01
 1.6133250783e+00	 9.5252833696e-01	-2.8654516125e-01
 1.6041090950e+00	 9.6796801134e-01	-3.7243077150e-01
 1.6969746305e+00	 8.1458469296e-01	 4.1998283452e-01
 1.6891781183e+00	 8.3063138694e-01	 3.2423899427e-01
 1.6812172549e+00	 8.4662853067e-01	 2.3673920829e-01
 1.6730923806e+00	 8.6257366750e-01	 1.5580130190e-01
 1.6648038834e+00	 8.7846434017e-01	 7.9670331964e-02
 1.6563521993e+00	 8.9429809199e-01	 6.5375368488e-03
 1.6477378124e+00	 9.1007246793e-01	-6.5439115651e-02
 1.6389612550e+00	 9.2578501584e-01	-1.3811280599e-01
 1.6300231078e+00	 9.4143328755e-01	-2.1332419965e-01
 1.6209239997e+00	 9.5701484010e-01	-2.9287628659e-01
 1.6116646083e+00	 9.7252723688e-01	-3.7850777739e-01
 1.5361101821e+00	 9.2693540778e-01	-3.4173468982e-01
 1.5271327913e+00	 9.4165235869e-01	-4.2385734184e-01
 1.5180040630e+00	 9.5629877555e-01	-5.0499133418e-01
 1.5087247831e+00	 9.7087236277e-01	-5.8554977838e-01
 1.4992957834e+00	 9.8537083540e-01	-6.6571530871e-01
 1.4897179414e+00	 9.9979192022e-01	-7.4541449642e-01
 1.4799921803e+00	 1.0141333570e+00	-8.2433208244e-01
 1.4701194682e+00	 1.0283928993e+00	-9.0328380878e-01
 1.4601008186e+00	 1.0425683162e+00	-9.7985260037e-01
 1.4499372895e+00	 1.0566573927e+00	-1.0499164457e+00
 1.4396299835e+00	 1.0706579313e+00	-1.1092969870e+00
 1.5436655027e+00	 9.3149451705e-01	-3.4817872346e-01
 1.5346439568e+00	 9.4628385293e-01	-4.3105858291e-01
 1.5254703291e+00	 9.6100230784e-01	-5.1288323598e-01
 1.5161454092e+00	 9.7564757489e-01	-5.9398975028e-01
 1.5066700332e+00	 9.9021735790e-01	-6.7448375492e-01
 1.4970450829e+00	 1.0047093725e+00	-7.5421336675e-01
 1.4872714859e+00	 1.0191213472e+00	-8.3274262141e-01
 1.4773502151e+00	 1.0334510248e+00	-9.0951177470e-01
 1.4672822890e+00	 1.0476961631e+00	-9.8403220837e-01
 1.4570687708e+00	 1.0618545364e+00	-1.0524989643e+00
 1.4467107686e+00	 1.0759239363e+00	-1.1104933932e+00
 1.5512208618e+00	 9.3605364958e-01	-3.5278605612e-01
 1.5421551607e+00	 9.5091537079e-01	-4.3651616950e-01
 1.5329366332e+00	 9.6570586411e-01	-5.1910113143e-01
 1.5235660733e+00	 9.8042281137e-01	-6.0080784022e-01
 1.5140443207e+00	 9.9506390513e-01	-6.8167143030e-01
 1.5043722618e+00	 1.0096268498e+00	-7.6146869762e-01
 1.4945508286e+00	 1.0241093629e+00	-8.3969099895e-01
 1.4845809988e+00	 1.0385091761e+00	-9.1551673399e-01
 1.4744637960e+00	 1.0528240362e+00	-9.8799827769e-01
 1.4642002885e+00	 1.0670517066e+00	-1.0548419234e+00
 1.4537915898e+00	 1.0811899682e+00	-1.1114851278e+00
 1.5587762552e+00	 9.4061280278e-01	-3.5604345871e-01
 1.5496663985e+00	 9.5554690965e-01	-4.4066898334e-01
 1.5404029713e+00	 9.7040944171e-01	-5.2404277220e-01
 1.5309867709e+00	 9.8519806950e-01	-6.0636740753e-01
 1.5214186416e+00	 9.9991047433e-01	-6.8761401718e-01
 1.5116994739e+00	 1.0145443495e+00	-7.6749518661e-01
 1.5018302042e+00	 1.0290974013e+00	-8.4543731167e-01
 1.4918118154e+00	 1.0435673503e+00	-9.2055250319e-01
 1.4816453355e+00	 1.0579519325e+00	-9.9161016218e-01
 1.4713318385e+00	 1.0722489004e+00	-1.0568303779e+00
 1.4608724430e+00	 1.0864560239e+00	-1.1121904722e+00
 1.5663316785e+00	 9.4517197406e-01	-3.5842086187e-01
 1.5571776662e+00	 9.6017846689e-01	-4.4393961488e-01
 1.5478693389e+00	 9.7511303797e-01	-5.2809001752e-01
 1.5384074980e+00	 9.8997334657e-01	-6.1101616855e-01
 1.5287929918e+00	 1.0047570627e+00	-6.9263165625e-01
 1.5190267150e+00	 1.0194618686e+00	-7.7259194408e-01
 1.5091096088e+00	 1.0340854594e+00	-8.5026616230e-01
 1.4990426606e+00	 1.0486255446e+00	-9.2470841852e-01
 1.4888269036e+00	 1.0630798492e+00	-9.9462874793e-01
 1.4784634168e+00	 1.0774461148e+00	-1.0583359262e+00
 1.4679533244e+00	 1.0917221006e+00	-1.1125136431e+00
 1.5738871276e+00	 9.4973116085e-01	-3.6037178593e-01
 1.5646889594e+00	 9.6481003987e-01	-4.4673478077e-01
 1.5553357319e+00	 9.7981665023e-01	-5.3160924185e-01
 1.5458282504e+00	 9.9474863987e-01	-6.1508659740e-01
 1.5361673670e+00	 1.0096036677e+00	-6.9702934300e-01
 1.5263539811e+00	 1.0243794045e+00	-7.7704288805e-01
 1.5163890381e+00	 1.0390735344e+00	-8.5444677143e-01
 1.5062735304e+00	 1.0536837560e+00	-9.2824536123e-01
 1.4960084961e+00	 1.0682077833e+00	-9.9709816165e-01
 1.4855950194e+00	 1.0826433468e+00	-1.0592898578e+00
 1.4750342299e+00	 1.0969881951e+00	-1.1123440825e+00
 1.5814425980e+00	 9.5429036055e-01	-3.6233377032e-01
 1.5722002739e+00	 9.6944162597e-01	-4.4944574122e-01
 1.5628021461e+00	 9.8452027581e-01	-5.3495174298e-01
 1.5532490237e+00	 9.9952394671e-01	-6.1889632739e-01
 1.5435417632e+00	 1.0144502863e+00	-7.0109732514e-01
 1.5336812679e+00	 1.0292969543e+00	-7.8111714018e-01
 1.5236684881e+00	 1.0440616236e+00	-8.5823337447e-01
 1.5135044207e+00	 1.0587419819e+00	-9.3140890016e-01
 1.5031901089e+00	 1.0733357319e+00	-9.9926150441e-01
 1.4927266421e+00	 1.0878405936e+00	-1.0600332403e+00
 1.4821151554e+00	 1.1022543046e+00	-1.1115596243e+00
 1.5889980856e+00	 9.5884957059e-01	-3.6472880259e-01
 1.5797116054e+00	 9.7407322258e-01	-4.5244871745e-01
 1.5702685772e+00	 9.8922391205e-01	-5.3845415047e-01
 1.5606698139e+00	 1.0042992644e+00	-6.2274855308e-01
 1.5509161760e+00	 1.0192969159e+00	-7.0511150085e-01
 1.5410085713e+00	 1.0342145152e+00	-7.8506942266e-01
 1.5309479545e+00	 1.0490497242e+00	-8.6186561975e-01
 1.5207353274e+00	 1.0638002191e+00	-9.3442969331e-01
 1.5103717380e+00	 1.0784636922e+00	-1.0013465084e+00
 1.4998582811e+00	 1.0930378522e+00	-1.0608248303e+00
 1.4891960970e+00	 1.1075204260e+00	-1.1106657763e+00
 1.5965535860e+00	 9.6340878838e-01	-3.6796374679e-01
 1.5872229497e+00	 9.7870482706e-01	-4.5610530899e-01
 1.5777350210e+00	 9.9392755629e-01	-5.4243883447e-01
 1.5680906167e+00	 1.0090745901e+00	-6.2693243306e-01
 1.5582906014e+00	 1.0241435538e+00	-7.0933381784e-01
 1.5483358872e+00	 1.0391320845e+00	-7.8914045614e-01
 1.5382274334e+00	 1.0540378332e+00	-8.6556896765e-01
 1.5279662463e+00	 1.0688584650e+00	-9.3752389053e-01
 1.5175533793e+00	 1.0835916612e+00	-1.0035659456e+00
 1.5069899321e+00	 1.0982351196e+00	-1.0618799367e+00
 1.4962770506e+00	 1.1127865563e+00	-1.1102564863e+00
 1.6041090950e+00	 9.6796801134e-01	-3.7243077150e-01
 1.5947343026e+00	 9.8333643678e-01	-4.6076291111e-01
 1.5852014733e+00	 9.9863120585e-01	-5.4721431485e-01
 1.5755114279e+00	 1.0138499213e+00	-6.3172349323e-01
 1.5656650352e+00	 1.0289901971e+00	-7.1401267336e-01
 1.5556632114e+00	 1.0440496594e+00	-7.9355735858e-01
 1.5455069204e+00	 1.0590259478e+00	-8.6955509063e-01
 1.5351971735e+00	 1.0739167166e+00	-9.4089353708e-01
 1.5247350288e+00	 1.0887196359e+00	-1.0061180366e+00
 1.5141215913e+00	 1.1034323929e+00	-1.0633987429e+00
 1.5033580123e+00	 1.1180526927e+00	-1.1106812484e+00
 1.6116646083e+00	 9.7252723688e-01	-3.7850777739e-01
 1.6022456596e+00	 9.8796804913e-01	-4.6675513205e-01
 1.5926679297e+00	 1.0033348581e+00	-5.5307567063e-01
 1.5829322433e+00	 1.0186252552e+00	-6.3738403076e-01
 1.5730394731e+00	 1.0338368432e+00	-7.1938331480e-01
 1.5629905397e+00	 1.0489672371e+00	-7.9853404499e-01
 1.5527864116e+00	 1.0640140653e+00	-8.7402227431e-01
 1.5424281048e+00	 1.0789749711e+00	-9.4472697813e-01
 1.5319166823e+00	 1.0938476136e+00	-1.0091868613e+00
 1.5212532544e+00	 1.1086296691e+00	-1.0655667245e+00
 1.5104389779e+00	 1.1233188320e+00	-1.1120252390e+00
 1.4396299835e+00	 1.0706579313e+00	-1.1092969870e+00
 1.4291782595e+00	 1.0845701087e+00	-1.1650697154e+00
 1.4185850537e+00	 1.0983893700e+00	-1.2242024399e+00
 1.4078516063e+00	 1.1121135673e+00	-1.2823766289e+00
 1.3969792004e+00	 1.1257405746e+00	-1.3406132067e+00
 1.3859691615e+00	 1.1392682885e+00	-1.4005925146e+00
 1.3748228572e+00	 1.1526946297e+00	-1.4609540195e+00
 1.3635416964e+00	 1.1660175436e+00	-1.5205809867e+00
 1.3521271287e+00	 1.1792350016e+00	-1.5785815769e+00
 1.3405806439e+00	 1.1923450022e+00	-1.6342677378e+00
 1.3289037716e+00	 1.2053455716e+00	-1.6871320337e+00
 1.4467107686e+00	 1.0759239363e+00	-1.1104933932e+00
 1.4362076381e+00	 1.0899045405e+00	-1.1648481302e+00
 1.4255623298e+00	 1.1037917714e+00	-1.2223968982e+00
 1.4147760902e+00	 1.1175834709e+00	-1.2795974804e+00
 1.4038502086e+00	 1.1312775022e+00	-1.3389545010e+00
 1.3927860171e+00	 1.1448717519e+00	-1.3998128774e+00
 1.3815848900e+00	 1.1583641302e+00	-1.4607858590e+00
 1.3702482431e+00	 1.1717525725e+00	-1.5207403621e+00
 1.3587775331e+00	 1.1850350403e+00	-1.5787773961e+00
 1.3471742572e+00	 1.1982095221e+00	-1.6342102049e+00
 1.3354399525e+00	 1.2112740345e+00	-1.6865402702e+00
 1.4537915898e+00	 1.0811899682e+00	-1.1114851278e+00
 1.4432370525e+00	 1.0952389994e+00	-1.1645050548e+00
 1.4325396415e+00	 1.1091942004e+00	-1.2205850067e+00
 1.4217006094e+00	 1.1230534023e+00	-1.2779783039e+00
 1.4107212519e+00	 1.1368144581e+00	-1.3382834900e+00
 1.3996029075e+00	 1.1504752439e+00	-1.3998688103e+00
 1.3883469573e+00	 1.1640336596e+00	-1.4613214630e+00
 1.3769548240e+00	 1.1774876307e+00	-1.5214923061e+00
 1.3654279714e+00	 1.1908351086e+00	-1.5794755948e+00
 1.3537679042e+00	 1.2040740719e+00	-1.6345863490e+00
 1.3419761667e+00	 1.2172025276e+00	-1.6863355066e+00
 1.4608724430e+00	 1.0864560239e+00	-1.1121904722e+00
 1.4502664987e+00	 1.1005734825e+00	-1.1639948434e+00
 1.4395169849e+00	 1.1145966539e+00	-1.2189441212e+00
 1.4286251600e+00	 1.1285233586e+00	-1.2772450971e+00
 1.4175923263e+00	 1.1423514391e+00	-1.3383518443e+00
 1.4064198288e+00	 1.1560787612e+00	-1.4005334891e+00
 1.3951090553e+00	 1.1697032148e+00	-1.4623513333e+00
 1.3836614353e+00	 1.1832227149e+00	-1.5226404715e+00
 1.3720784399e+00	 1.1966352032e+00	-1.5804888170e+00
 1.3603615810e+00	 1.2099386484e+00	-1.6352136747e+00
 1.3485124106e+00	 1.2231310476e+00	-1.6863360184e+00
 1.4679533244e+00	 1.0917221006e+00	-1.1125136431e+00
 1.4572959729e+00	 1.1059079868e+00	-1.1632571912e+00
 1.4464943559e+00	 1.1199991288e+00	-1.2179823897e+00
 1.4355497381e+00	 1.1339933365e+00	-1.2771205205e+00
 1.4244634280e+00	 1.1478884421e+00	-1.3389076927e+00
 1.4132367772e+00	 1.1616823008e+00	-1.4015763553e+00
 1.4018711800e+00	 1.1753727924e+00	-1.4636620592e+00
 1.3903680732e+00	 1.1889578219e+00	-1.5239844339e+00
 1.3787289348e+00	 1.2024353208e+00	-1.5816254813e+00
 1.3669552840e+00	 1.2158032480e+00	-1.6359053303e+00
 1.3550486804e+00	 1.2290595912e+00	-1.6863556141e+00
 1.4750342299e+00	 1.0969881951e+00	-1.1123440825e+00
 1.4643254709e+00	 1.1112425092e+00	-1.1622166271e+00
 1.4534717506e+00	 1.1254016221e+00	-1.2174529998e+00
 1.4424743398e+00	 1.1394633331e+00	-1.2773246853e+00
 1.4313345531e+00	 1.1534254639e+00	-1.3396964144e+00
 1.4200537487e+00	 1.1672858595e+00	-1.4027639099e+00
 1.4086333278e+00	 1.1810423893e+00	-1.4650371092e+00
 1.3970747339e+00	 1.1946929483e+00	-1.5253204806e+00
 1.3853794522e+00	 1.2082354581e+00	-1.5826905640e+00
 1.3735490094e+00	 1.2216678676e+00	-1.6364708837e+00
 1.3615849724e+00	 1.2349881549e+00	-1.6862043999e+00
 1.4821151554e+00	 1.1022543046e+00	-1.1115596243e+00
 1.4713549888e+00	 1.1165770467e+00	-1.1610529058e+00
 1.4604491651e+00	 1.1308041306e+00	-1.2170451142e+00
 1.4493989610e+00	 1.1449333451e+00	-1.2775759415e+00
 1.4382056976e+00	 1.1589625014e+00	-1.3404614300e+00
 1.4268707396e+00	 1.1728894340e+00	-1.4038605060e+00
 1.4153954947e+00	 1.1867120023e+00	-1.4662576232e+00
 1.4037814136e+00	 1.2004280910e+00	-1.5264423993e+00
 1.3920299886e+00	 1.2140356118e+00	-1.5834863823e+00
 1.3801427535e+00	 1.2275325039e+00	-1.6367170971e+00
 1.3681212829e+00	 1.2409167354e+00	-1.6856895454e+00
 1.4891960970e+00	 1.1075204260e+00	-1.1106657763e+00
 1.4783845227e+00	 1.1219115964e+00	-1.1597443254e+00
 1.4674265954e+00	 1.1362066515e+00	-1.2164471200e+00
 1.4563235979e+00	 1.1504033696e+00	-1.2775916655e+00
 1.4450768577e+00	 1.1644995514e+00	-1.3409449925e+00
 1.4336877458e+00	 1.1784930213e+00	-1.4046291402e+00
 1.4221576770e+00	 1.1923816281e+00	-1.4671032020e+00
 1.4104881085e+00	 1.2061632467e+00	-1.5271422643e+00
 1.3986805400e+00	 1.2198357787e+00	-1.5838133751e+00
 1.3867365125e+00	 1.2333971534e+00	-1.6364487007e+00
 1.3746576083e+00	 1.2468453293e+00	-1.6846160470e+00
 1.4962770506e+00	 1.1127865563e+00	-1.1102564863e+00
 1.4854140686e+00	 1.1272461550e+00	-1.1581924026e+00
 1.4744040376e+00	 1.1416091815e+00	-1.2153474106e+00
 1.4632482467e+00	 1.1558734033e+00	-1.2770890465e+00
 1.4519480295e+00	 1.1700366109e+00	-1.3408889770e+00
 1.4405047637e+00	 1.1840966180e+00	-1.4048322434e+00
 1.4289198707e+00	 1.1980512636e+00	-1.4673526978e+00
 1.4171948148e+00	 1.2118984122e+00	-1.5272112235e+00
 1.4053311027e+00	 1.2256359554e+00	-1.5834708842e+00
 1.3933302828e+00	 1.2392618129e+00	-1.6354691656e+00
 1.3811939448e+00	 1.2527739333e+00	-1.6827874909e+00
 1.5033580123e+00	 1.1180526927e+00	-1.1106812484e+00
 1.4924436224e+00	 1.1325807198e+00	-1.1573766178e+00
 1.4813814877e+00	 1.1470117176e+00	-1.2134351664e+00
 1.4701729032e+00	 1.1613434433e+00	-1.2757858730e+00
 1.4588192090e+00	 1.1755736766e+00	-1.3400356700e+00
 1.4473217893e+00	 1.1897002211e+00	-1.4042324709e+00
 1.4356820722e+00	 1.2037209055e+00	-1.4667850021e+00
 1.4239015287e+00	 1.2176335841e+00	-1.5264402828e+00
 1.4119816729e+00	 1.2314361387e+00	-1.5822579333e+00
 1.3999240605e+00	 1.2451264790e+00	-1.6335814755e+00
 1.3877302886e+00	 1.2587025440e+00	-1.6800068149e+00
 1.5104389779e+00	 1.1233188320e+00	-1.1120252390e+00
 1.4994731802e+00	 1.1379152875e+00	-1.1574575437e+00
 1.4883589417e+00	 1.1524142568e+00	-1.2114129248e+00
 1.4770975637e+00	 1.1668134863e+00	-1.2734013190e+00
 1.4656903925e+00	 1.1811107454e+00	-1.3381285577e+00
 1.4541388188e+00	 1.1953038274e+00	-1.4025934916e+00
 1.4424442774e+00	 1.2093905506e+00	-1.4651798336e+00
 1.4306082465e+00	 1.2233687593e+00	-1.5246210907e+00
 1.4186322469e+00	 1.2372363253e+00	-1.5799740069e+00
 1.4065178420e+00	 1.2509911485e+00	-1.6305888975e+00
 1.3942666362e+00	 1.2646311581e+00	-1.6760770699e+00
 1.3289037716e+00	 1.2053455716e+00	-1.6871320337e+00
 1.3171000940e+00	 1.2182325872e+00	-1.7344288059e+00
 1.3051692256e+00	 1.2310063719e+00	-1.7743916051e+00
 1.2931127885e+00	 1.2436650637e+00	-1.8081722067e+00
 1.2809324416e+00	 1.2562068321e+00	-1.8370253786e+00
 1.2686298794e+00	 1.2686298794e+00	-1.8622767010e+00
 1.2562068321e+00	 1.2809324416e+00	-1.8852894153e+00
 1.2436650637e+00	 1.2931127885e+00	-1.9074305277e+00
 1.2310063719e+00	 1.3051692256e+00	-1.9300363974e+00
 1.2182325872e+00	 1.3171000940e+00	-1.9543780456e+00
 1.2053455716e+00	 1.3289037716e+00	-1.9816264255e+00
 1.3354399525e+00	 1.2112740345e+00	-1.6865402702e+00
 1.3235782188e+00	 1.2242244346e+00	-1.7332360762e+00
 1.3115886688e+00	 1.2370610469e+00	-1.7727014333e+00
 1.2994729324e+00	 1.2497820000e+00	-1.8060410257e+00
 1.2872326766e+00	 1.2623854548e+00	-1.8344674640e+00
 1.2748696047e+00	 1.2748696047e+00	-1.8592680822e+00
 1.2623854548e+00	 1.2872326766e+00	-1.8817707229e+00
 1.2497820000e+00	 1.2994729324e+00	-1.9033087426e+00
 1.2370610469e+00	 1.3115886688e+00	-1.9251854753e+00
 1.2242244346e+00	 1.3235782188e+00	-1.9486383966e+00
 1.2112740345e+00	 1.3354399525e+00	-1.9748032379e+00
 1.3419761667e+00	 1.2172025276e+00	-1.6863355066e+00
 1.3300563767e+00	 1.2302163125e+00	-1.7324129085e+00
 1.3180081446e+00	 1.2431157527e+00	-1.7713956536e+00
 1.3058331086e+00	 1.2558989676e+00	-1.8043357056e+00
 1.2935329439e+00	 1.2685641091e+00	-1.8323979547e+00
 1.2811093617e+00	 1.2811093617e+00	-1.8568259699e+00
 1.2685641091e+00	 1.2935329439e+00	-1.8789066973e+00
 1.2558989676e+00	 1.3058331086e+00	-1.8999343431e+00
 1.2431157527e+00	 1.3180081446e+00	-1.9211736864e+00
 1.2302163125e+00	 1.3300563767e+00	-1.9438230738e+00
 1.2172025276e+00	 1.3419761667e+00	-1.9689773503e+00
 1.3485124106e+00	 1.2231310476e+00	-1.6863360184e+00
 1.3365345639e+00	 1.2362082176e+00	-1.7317749782e+00
 1.3244276496e+00	 1.2491704859e+00	-1.7702847607e+00
 1.3121933137e+00	 1.2620159630e+00	-1.8028591458e+00
 1.2998332396e+00	 1.2747427914e+00	-1.8306099153e+00
 1.2873491471e+00	 1.2873491471e+00	-1.8547315378e+00
 1.2747427914e+00	 1.2998332396e+00	-1.8764647557e+00
 1.2620159630e+00	 1.3121933137e+00	-1.8970593208e+00
 1.2491704859e+00	 1.3244276496e+00	-1.9177361308e+00
 1.2362082176e+00	 1.3365345639e+00	-1.9396490266e+00
 1.2231310476e+00	 1.3485124106e+00	-1.9638465138e+00
 1.3550486804e+00	 1.2290595912e+00	-1.6863556141e+00
 1.3430127768e+00	 1.2422001465e+00	-1.7311333910e+00
 1.3308471800e+00	 1.2552252432e+00	-1.7691745734e+00
 1.3185535440e+00	 1.2681329825e+00	-1.8014094606e+00
 1.3061335604e+00	 1.2809214982e+00	-1.8288915135e+00
 1.2935889571e+00	 1.2935889571e+00	-1.8527609487e+00
 1.2809214982e+00	 1.3061335604e+00	-1.8742071892e+00
 1.2681329825e+00	 1.3185535440e+00	-1.8944304259e+00
 1.2552252432e+00	 1.3308471800e+00	-1.9146025516e+00
 1.2422001465e+00	 1.3430127768e+00	-1.9358277339e+00
 1.2290595912e+00	 1.3550486804e+00	-1.9591028974e+00
 1.3615849724e+00	 1.2349881549e+00	-1.6862043999e+00
 1.3494910117e+00	 1.2481920957e+00	-1.7302954359e+00
 1.3372667322e+00	 1.2612800210e+00	-1.7678669742e+00
 1.3249137960e+00	 1.2742500229e+00	-1.7997807036e+00
 1.3124339026e+00	 1.2871002260e+00	-1.8270267282e+00
 1.2998287885e+00	 1.2998287885e+00	-1.8506860451e+00
 1.2871002260e+00	 1.3124339026e+00	-1.8718918338e+00
 1.2742500229e+00	 1.3249137960e+00	-1.8917898172e+00
 1.2612800210e+00	 1.3372667322e+00	-1.9114979644e+00
 1.2481920957e+00	 1.3494910117e+00	-1.9320658101e+00
 1.2349881549e+00	 1.3615849724e+00	-1.9544336705e+00
 1.3681212829e+00	 1.2409167354e+00	-1.6856895454e+00
 1.3559692650e+00	 1.2541840620e+00	-1.7290653386e+00
 1.3436863027e+00	 1.2673348161e+00	-1.7661606491e+00
 1.3312740660e+00	 1.2803670806e+00	-1.7977635929e+00
 1.3187342626e+00	 1.2932789713e+00	-1.8247960576e+00
 1.3060686374e+00	 1.3060686374e+00	-1.8482750390e+00
 1.2932789713e+00	 1.3187342626e+00	-1.8692727423e+00
 1.2803670806e+00	 1.3312740660e+00	-1.8888757141e+00
 1.2673348161e+00	 1.3436863027e+00	-1.9081432863e+00
 1.2541840620e+00	 1.3559692650e+00	-1.9280656123e+00
 1.2409167354e+00	 1.3681212829e+00	-1.9495215864e+00
 1.3746576083e+00	 1.2468453293e+00	-1.6846160470e+00
 1.3624475330e+00	 1.2601760418e+00	-1.7272450130e+00
 1.3501058877e+00	 1.2733896248e+00	-1.7638518259e+00
 1.3376343504e+00	 1.2864841522e+00	-1.7951462343e+00
 1.3250346370e+00	 1.2994577307e+00	-1.8219772270e+00
 1.3123085006e+00	 1.3123085006e+00	-1.8452932030e+00
 1.2994577307e+00	 1.3250346370e+00	-1.8661008552e+00
 1.2864841522e+00	 1.3376343504e+00	-1.8854230471e+00
 1.2733896248e+00	 1.3501058877e+00	-1.9042559665e+00
 1.2601760418e+00	 1.3624475330e+00	-1.9235258485e+00
 1.2468453293e+00	 1.3746576083e+00	-1.9440455671e+00
 1.3811939448e+00	 1.2527739333e+00	-1.6827874909e+00
 1.3689258119e+00	 1.2661680317e+00	-1.7246348133e+00
 1.3565254836e+00	 1.2794444438e+00	-1.7607350127e+00
 1.3439946455e+00	 1.2926012342e+00	-1.7917148450e+00
 1.3313350220e+00	 1.3056365005e+00	-1.8183458964e+00
 1.3185483743e+00	 1.3185483743e+00	-1.8415035593e+00
 1.3056365005e+00	 1.3313350220e+00	-1.8621246724e+00
 1.2926012342e+00	 1.3439946455e+00	-1.8811641103e+00
 1.2794444438e+00	 1.3565254836e+00	-1.8995506172e+00
 1.2661680317e+00	 1.3689258119e+00	-1.9181421861e+00
 1.2527739333e+00	 1.3811939448e+00	-1.9376812895e+00
 1.3877302886e+00	 1.2587025440e+00	-1.6800068149e+00
 1.3754040983e+00	 1.2721600285e+00	-1.7210342832e+00
 1.3629450867e+00	 1.2854992697e+00	-1.7566037351e+00
 1.3503549480e+00	 1.2987183231e+00	-1.7872544769e+00
 1.3376354142e+00	 1.3118152773e+00	-1.8136763671e+00
 1.3247882551e+00	 1.3247882551e+00	-1.8366675704e+00
 1.3118152773e+00	 1.3376354142e+00	-1.8570909246e+00
 1.2987183231e+00	 1.3503549480e+00	-1.8758292124e+00
 1.2854992697e+00	 1.3629450867e+00	-1.8937396446e+00
 1.2721600285e+00	 1.3754040983e+00	-1.9116078618e+00
 1.2587025440e+00	 1.3877302886e+00	-1.9301017723e+00
 1.3942666362e+00	 1.2646311581e+00	-1.6760770699e+00
 1.3818823883e+00	 1.2781520287e+00	-1.7162429068e+00
 1.3693646936e+00	 1.2915540990e+00	-1.7512512728e+00
 1.3567152540e+00	 1.3048354155e+00	-1.7815497382e+00
 1.3439358099e+00	 1.3179940577e+00	-1.8077422885e+00
 1.3310281395e+00	 1.3310281395e+00	-1.8305458286e+00
 1.3179940577e+00	 1.3439358099e+00	-1.8507452449e+00
 1.3048354155e+00	 1.3567152540e+00	-1.8691473300e+00
 1.2915540990e+00	 1.3693646936e+00	-1.8865338812e+00
 1.2781520287e+00	 1.3818823883e+00	-1.9036142921e+00
 1.2646311581e+00	 1.3942666362e+00	-1.9209779638e+00
 1.2053455716e+00	 1.3289037716e+00	-1.9816264255e+00
 1.1923450022e+00	 1.3405806439e+00	-2.0085008551e+00
 1.1792350016e+00	 1.3521271287e+00	-2.0309348958e+00
 1.1660175436e+00	 1.3635416964e+00	-2.0487129217e+00
 1.1526946297e+00	 1.3748228572e+00	-2.0614251054e+00
 1.1392682885e+00	 1.3859691615e+00	-2.0684372198e+00
 1.1257405746e+00	 1.3969792004e+00	-2.0688617800e+00
 1.1121135673e+00	 1.4078516063e+00	-2.0615307456e+00
 1.0983893700e+00	 1.4185850537e+00	-2.0510919363e+00
 1.0845701087e+00	 1.4291782595e+00	-2.0429177468e+00
 1.0706579313e+00	 1.4396299835e+00	-2.0335393565e+00
 1.2112740345e+00	 1.3354399525e+00	-1.9748032379e+00
 1.1982095221e+00	 1.3471742572e+00	-2.0006005263e+00
 1.1850350403e+00	 1.3587775331e+00	-2.0222543648e+00
 1.1717525725e+00	 1.3702482431e+00	-2.0396400582e+00
 1.1583641302e+00	 1.3815848900e+00	-2.0524306191e+00
 1.1448717519e+00	 1.3927860171e+00	-2.0600652892e+00
 1.1312775022e+00	 1.4038502086e+00	-2.0617194369e+00
 1.1175834709e+00	 1.4147760902e+00	-2.0562760629e+00
 1.1037917714e+00	 1.4255623298e+00	-2.0443015682e+00
 1.0899045405e+00	 1.4362076381e+00	-2.0341281295e+00
 1.0759239363e+00	 1.4467107686e+00	-2.0238542421e+00
 1.2172025276e+00	 1.3419761667e+00	-1.9689773503e+00
 1.2040740719e+00	 1.3537679042e+00	-1.9937479383e+00
 1.1908351086e+00	 1.3654279714e+00	-2.0146472931e+00
 1.1774876307e+00	 1.3769548240e+00	-2.0316484277e+00
 1.1640336596e+00	 1.3883469573e+00	-2.0445143316e+00
 1.1504752439e+00	 1.3996029075e+00	-2.0527651630e+00
 1.1368144581e+00	 1.4107212519e+00	-2.0556468565e+00
 1.1230534023e+00	 1.4217006094e+00	-2.0521013844e+00
 1.1091942004e+00	 1.4325396415e+00	-2.0408740285e+00
 1.0952389994e+00	 1.4432370525e+00	-2.0287309130e+00
 1.0811899682e+00	 1.4537915898e+00	-2.0176187921e+00
 1.2231310476e+00	 1.3485124106e+00	-1.9638465138e+00
 1.2099386484e+00	 1.3603615810e+00	-1.9876246272e+00
 1.1966352032e+00	 1.3720784399e+00	-2.0077859051e+00
 1.1832227149e+00	 1.3836614353e+00	-2.0244078783e+00
 1.1697032148e+00	 1.3951090553e+00	-2.0373506761e+00
 1.1560787612e+00	 1.4064198288e+00	-2.0462228420e+00
 1.1423514391e+00	 1.4175923263e+00	-2.0503486026e+00
 1.1285233586e+00	 1.4286251600e+00	-2.0487368377e+00
 1.1145966539e+00	 1.4395169849e+00	-2.0400519858e+00
 1.1005734825e+00	 1.4502664987e+00	-2.0264664650e+00
 1.0864560239e+00	 1.4608724430e+00	-2.0146323607e+00
 1.2290595912e+00	 1.3550486804e+00	-1.9591028974e+00
 1.2158032480e+00	 1.3669552840e+00	-1.9819063656e+00
 1.2024353208e+00	 1.3787289348e+00	-2.0013363396e+00
 1.1889578219e+00	 1.3903680732e+00	-2.0175817144e+00
 1.1753727924e+00	 1.4018711800e+00	-2.0306069538e+00
 1.1616823008e+00	 1.4132367772e+00	-2.0401164801e+00
 1.1478884421e+00	 1.4244634280e+00	-2.0455205569e+00
 1.1339933365e+00	 1.4355497381e+00	-2.0459029176e+00
 1.1199991288e+00	 1.4464943559e+00	-2.0399903870e+00
 1.1059079868e+00	 1.4572959729e+00	-2.0270565987e+00
 1.0917221006e+00	 1.4679533244e+00	-2.0146756050e+00
 1.2349881549e+00	 1.3615849724e+00	-1.9544336705e+00
 1.2216678676e+00	 1.3735490094e+00	-1.9762637215e+00
 1.2082354581e+00	 1.3853794522e+00	-1.9949591882e+00
 1.1946929483e+00	 1.3970747339e+00	-2.0108272178e+00
 1.1810423893e+00	 1.4086333278e+00	-2.0239438394e+00
 1.1672858595e+00	 1.4200537487e+00	-2.0341168785e+00
 1.1534254639e+00	 1.4313345531e+00	-2.0408504031e+00
 1.1394633331e+00	 1.4424743398e+00	-2.0433109633e+00
 1.1254016221e+00	 1.4534717506e+00	-2.0402958777e+00
 1.1112425092e+00	 1.4643254709e+00	-2.0302038089e+00
 1.0969881951e+00	 1.4750342299e+00	-2.0175103810e+00
 1.2409167354e+00	 1.3681212829e+00	-1.9495215864e+00
 1.2275325039e+00	 1.3801427535e+00	-1.9703626196e+00
 1.2140356118e+00	 1.3920299886e+00	-1.9883100367e+00
 1.2004280910e+00	 1.4037814136e+00	-2.0037961712e+00
 1.1867120023e+00	 1.4153954947e+00	-2.0170158896e+00
 1.1728894340e+00	 1.4268707396e+00	-2.0278879803e+00
 1.1589625014e+00	 1.4382056976e+00	-2.0360181121e+00
 1.1449333451e+00	 1.4493989610e+00	-2.0406636351e+00
 1.1308041306e+00	 1.4604491651e+00	-2.0407004828e+00
 1.1165770467e+00	 1.4713549888e+00	-2.0345924289e+00
 1.1022543046e+00	 1.4821151554e+00	-2.0228600869e+00
 1.2468453293e+00	 1.3746576083e+00	-1.9440455671e+00
 1.2333971534e+00	 1.3867365125e+00	-1.9638649036e+00
 1.2198357787e+00	 1.3986805400e+00	-1.9810400070e+00
 1.2061632467e+00	 1.4104881085e+00	-1.9961353827e+00
 1.1923816281e+00	 1.4221576770e+00	-2.0094720526e+00
 1.1784930213e+00	 1.4336877458e+00	-2.0210873677e+00
 1.1644995514e+00	 1.4450768577e+00	-2.0306964283e+00
 1.1504033696e+00	 1.4563235979e+00	-2.0376553937e+00
 1.1362066515e+00	 1.4674265954e+00	-2.0409269510e+00
 1.1219115964e+00	 1.4783845227e+00	-2.0390482031e+00
 1.1075204260e+00	 1.4891960970e+00	-2.0274917432e+00
 1.2527739333e+00	 1.3811939448e+00	-1.9376812895e+00
 1.2392618129e+00	 1.3933302828e+00	-1.9564288998e+00
 1.2256359554e+00	 1.4053311027e+00	-1.9727963013e+00
 1.2118984122e+00	 1.4171948148e+00	-1.9874872121e+00
 1.1980512636e+00	 1.4289198707e+00	-2.0009561790e+00
 1.1840966180e+00	 1.4405047637e+00	-2.0133667607e+00
 1.1700366109e+00	 1.4519480295e+00	-2.0245513577e+00
 1.1558734033e+00	 1.4632482467e+00	-2.0339729796e+00
 1.1416091815e+00	 1.4744040376e+00	-2.0406892290e+00
 1.1272461550e+00	 1.4854140686e+00	-2.0424706470e+00
 1.1127865563e+00	 1.4962770506e+00	-2.0286654766e+00
 1.2587025440e+00	 1.3877302886e+00	-1.9301017723e+00
 1.2451264790e+00	 1.3999240605e+00	-1.9477099825e+00
 1.2314361387e+00	 1.4119816729e+00	-1.9632227473e+00
 1.2176335841e+00	 1.4239015287e+00	-1.9774900993e+00
 1.2037209055e+00	 1.4356820722e+00	-1.9911075352e+00
 1.1897002211e+00	 1.4473217893e+00	-2.0043725168e+00
 1.1755736766e+00	 1.4588192090e+00	-2.0172426576e+00
 1.1613434433e+00	 1.4701729032e+00	-2.0292958948e+00
 1.1470117176e+00	 1.4813814877e+00	-2.0396929362e+00
 1.1325807198e+00	 1.4924436224e+00	-2.0404321588e+00
 1.1180526927e+00	 1.5033580123e+00	-2.0245519368e+00
 1.2646311581e+00	 1.3942666362e+00	-1.9209779638e+00
 1.2509911485e+00	 1.4065178420e+00	-1.9373611397e+00
 1.2372363253e+00	 1.4186322469e+00	-1.9519603449e+00
 1.2233687593e+00	 1.4306082465e+00	-1.9657790933e+00
 1.2093905506e+00	 1.4424442774e+00	-1.9795613174e+00
 1.1953038274e+00	 1.4541388188e+00	-1.9937461326e+00
 1.1811107454e+00	 1.4656903925e+00	-2.0084243270e+00
 1.1668134863e+00	 1.4770975637e+00	-2.0232968845e+00
 1.1524142568e+00	 1.4883589417e+00	-2.0348470956e+00
 1.1379152875e+00	 1.4994731802e+00	-2.0318937069e+00
 1.1233188320e+00	 1.5104389779e+00	-2.0142404280e+00
 1.0706579313e+00	 1.4396299835e+00	-2.0335393565e+00
 1.0566573927e+00	 1.4499372895e+00	-2.0255746075e+00
 1.0425683162e+00	 1.4601008186e+00	-2.0221386780e+00
 1.0283928993e+00	 1.4701194682e+00	-2.0203183616e+00
 1.0141333570e+00	 1.4799921803e+00	-2.0171384522e+00
 9.9979192022e-01	 1.4897179414e+00	-2.0087577052e+00
 9.8537083540e-01	 1.4992957834e+00	-1.9930212814e+00
 9.7087236277e-01	 1.5087247831e+00	-1.9711265965e+00
 9.5629877555e-01	 1.5180040630e+00	-1.9445527920e+00
 9.4165235869e-01	 1.5271327913e+00	-1.9149936006e+00
 9.2693540778e-01	 1.5361101821e+00	-1.8843327050e+00
 1.0759239363e+00	 1.4467107686e+00	-2.0238542421e+00
 1.0618545364e+00	 1.4570687708e+00	-2.0158413222e+00
 1.0476961631e+00	 1.4672822890e+00	-2.0127700574e+00
 1.0334510248e+00	 1.4773502151e+00	-2.0114213271e+00
 1.0191213472e+00	 1.4872714859e+00	-2.0078103537e+00
 1.0047093725e+00	 1.4970450829e+00	-1.9972351962e+00
 9.9021735790e-01	 1.5066700332e+00	-1.9800513939e+00
 9.7564757489e-01	 1.5161454092e+00	-1.9573496283e+00
 9.6100230784e-01	 1.5254703291e+00	-1.9304657430e+00
 9.4628385293e-01	 1.5346439568e+00	-1.9009554741e+00
 9.3149451705e-01	 1.5436655027e+00	-1.8705692817e+00
 1.0811899682e+00	 1.4537915898e+00	-2.0176187921e+00
 1.0670517066e+00	 1.4642002885e+00	-2.0096543172e+00
 1.0528240362e+00	 1.4744637960e+00	-2.0070870108e+00
 1.0385091761e+00	 1.4845809988e+00	-2.0061050790e+00
 1.0241093629e+00	 1.4945508286e+00	-2.0000131082e+00
 1.0096268498e+00	 1.5043722618e+00	-1.9874636588e+00
 9.9506390513e-01	 1.5140443207e+00	-1.9691167487e+00
 9.8042281137e-01	 1.5235660733e+00	-1.9459085225e+00
 9.6570586411e-01	 1.5329366332e+00	-1.9190254690e+00
 9.5091537079e-01	 1.5421551607e+00	-1.8898786101e+00
 9.3605364958e-01	 1.5512208618e+00	-1.8600778040e+00
 1.0864560239e+00	 1.4608724430e+00	-2.0146323607e+00
 1.0722489004e+00	 1.4713318385e+00	-2.0068703640e+00
 1.0579519325e+00	 1.4816453355e+00	-2.0049934522e+00
 1.0435673503e+00	 1.4918118154e+00	-2.0018543653e+00
 1.0290974013e+00	 1.5018302042e+00	-1.9930579120e+00
 1.0145443495e+00	 1.5116994739e+00	-1.9787918896e+00
 9.9991047433e-01	 1.5214186416e+00	-1.9595514773e+00
 9.8519806950e-01	 1.5309867709e+00	-1.9361130655e+00
 9.7040944171e-01	 1.5404029713e+00	-1.9095079188e+00
 9.5554690965e-01	 1.5496663985e+00	-1.8809958207e+00
 9.4061280278e-01	 1.5587762552e+00	-1.8520388445e+00
 1.0917221006e+00	 1.4679533244e+00	-2.0146756050e+00
 1.0774461148e+00	 1.4784634168e+00	-2.0073274431e+00
 1.0630798492e+00	 1.4888269036e+00	-2.0043338406e+00
 1.0486255446e+00	 1.4990426606e+00	-1.9975674877e+00
 1.0340854594e+00	 1.5091096088e+00	-1.9863125190e+00
 1.0194618686e+00	 1.5190267150e+00	-1.9705824877e+00
 1.0047570627e+00	 1.5287929918e+00	-1.9507033394e+00
 9.8997334657e-01	 1.5384074980e+00	-1.9272866748e+00
 9.7511303797e-01	 1.5478693389e+00	-1.9012028523e+00
 9.6017846689e-01	 1.5571776662e+00	-1.8735540840e+00
 9.4517197406e-01	 1.5663316785e+00	-1.8456476724e+00
 1.0969881951e+00	 1.4750342299e+00	-2.0175103810e+00
 1.0826433468e+00	 1.4855950194e+00	-2.0100990457e+00
 1.0682077833e+00	 1.4960084961e+00	-2.0027663681e+00
 1.0536837560e+00	 1.5062735304e+00	-1.9926223855e+00
 1.0390735344e+00	 1.5163890381e+00	-1.9791590390e+00
 1.0243794045e+00	 1.5263539811e+00	-1.9622120460e+00
 1.0096036677e+00	 1.5361673670e+00	-1.9419338997e+00
 9.9474863987e-01	 1.5458282504e+00	-1.9187665569e+00
 9.7981665023e-01	 1.5553357319e+00	-1.8934139748e+00
 9.6481003987e-01	 1.5646889594e+00	-1.8668146525e+00
 9.4973116085e-01	 1.5738871276e+00	-1.8401143307e+00
 1.1022543046e+00	 1.4821151554e+00	-2.0228600869e+00
 1.0878405936e+00	 1.4927266421e+00	-2.0114637832e+00
 1.0733357319e+00	 1.5031901089e+00	-1.9996707554e+00
 1.0587419819e+00	 1.5135044207e+00	-1.9864120959e+00
 1.0440616236e+00	 1.5236684881e+00	-1.9709941377e+00
 1.0292969543e+00	 1.5336812679e+00	-1.9530713408e+00
 1.0144502863e+00	 1.5435417632e+00	-1.9326187028e+00
 9.9952394671e-01	 1.5532490237e+00	-1.9099038644e+00
 9.8452027581e-01	 1.5628021461e+00	-1.8854590720e+00
 9.6944162597e-01	 1.5722002739e+00	-1.8600531614e+00
 9.5429036055e-01	 1.5814425980e+00	-1.8346637143e+00
 1.1075204260e+00	 1.4891960970e+00	-2.0274917432e+00
 1.0930378522e+00	 1.4998582811e+00	-2.0104044969e+00
 1.0784636922e+00	 1.5103717380e+00	-1.9944427379e+00
 1.0638002191e+00	 1.5207353274e+00	-1.9783449579e+00
 1.0490497242e+00	 1.5309479545e+00	-1.9612292352e+00
 1.0342145152e+00	 1.5410085713e+00	-1.9425655204e+00
 1.0192969159e+00	 1.5509161760e+00	-1.9221474487e+00
 1.0042992644e+00	 1.5606698139e+00	-1.9000638526e+00
 9.8922391205e-01	 1.5702685772e+00	-1.8766701451e+00
 9.7407322258e-01	 1.5797116054e+00	-1.8525597370e+00
 9.5884957059e-01	 1.5889980856e+00	-1.8285356485e+00
 1.1127865563e+00	 1.4962770506e+00	-2.0286654766e+00
 1.0982351196e+00	 1.5069899321e+00	-2.0063117284e+00
 1.0835916612e+00	 1.5175533793e+00	-1.9864942715e+00
 1.0688584650e+00	 1.5279662463e+00	-1.9678448161e+00
 1.0540378332e+00	 1.5382274334e+00	-1.9492907035e+00
 1.0391320845e+00	 1.5483358872e+00	-1.9301142932e+00
 1.0241435538e+00	 1.5582906014e+00	-1.9099241660e+00
 1.0090745901e+00	 1.5680906167e+00	-1.8886260359e+00
 9.9392755629e-01	 1.5777350210e+00	-1.8663935444e+00
 9.7870482706e-01	 1.5872229497e+00	-1.8436391063e+00
 9.6340878838e-01	 1.5965535860e+00	-1.8209849700e+00
 1.1180526927e+00	 1.5033580123e+00	-2.0245519368e+00
 1.1034323929e+00	 1.5141215913e+00	-1.9985933172e+00
 1.0887196359e+00	 1.5247350288e+00	-1.9752537359e+00
 1.0739167166e+00	 1.5351971735e+00	-1.9543512228e+00
 1.0590259478e+00	 1.5455069204e+00	-1.9346200631e+00
 1.0440496594e+00	 1.5556632114e+00	-1.9151521137e+00
 1.0289901971e+00	 1.5656650352e+00	-1.8953673851e+00
 1.0138499213e+00	 1.5755114279e+00	-1.8749843429e+00
 9.9863120585e-01	 1.5852014733e+00	-1.8539901044e+00
 9.8333643678e-01	 1.5947343026e+00	-1.8326107062e+00
 9.6796801134e-01	 1.6041090950e+00	-1.8112816071e+00
 1.1233188320e+00	 1.5104389779e+00	-2.0142404280e+00
 1.1086296691e+00	 1.5212532544e+00	-1.9866746022e+00
 1.0938476136e+00	 1.5319166823e+00	-1.9601661393e+00
 1.0789749711e+00	 1.5424281048e+00	-1.9373196396e+00
 1.0640140653e+00	 1.5527864116e+00	-1.9166741784e+00
 1.0489672371e+00	 1.5629905397e+00	-1.8971283684e+00
 1.0338368432e+00	 1.5730394731e+00	-1.8779103103e+00
 1.0186252552e+00	 1.5829322433e+00	-1.8585472715e+00
 1.0033348581e+00	 1.5926679297e+00	-1.8388352778e+00
 9.8796804913e-01	 1.6022456596e+00	-1.8188087936e+00
 9.7252723688e-01	 1.6116646083e+00	-1.7987106623e+00
 9.2693540778e-01	 1.5361101821e+00	-1.8843327050e+00
 9.1215022821e-01	 1.5449354956e+00	-1.8533272852e+00
 8.9729913487e-01	 1.5536080398e+00	-1.8214791975e+00
 8.8238445016e-01	 1.5621271689e+00	-1.7889804772e+00
 8.6740850250e-01	 1.5704922835e+00	-1.7560922309e+00
 8.5237362528e-01	 1.5787028302e+00	-1.7231256143e+00
 8.3728215572e-01	 1.5867583015e+00	-1.6904235741e+00
 8.2213643373e-01	 1.5946582360e+00	-1.6583434345e+00
 8.0693880086e-01	 1.6024022183e+00	-1.6272404031e+00
 7.9169159915e-01	 1.6099898785e+00	-1.5974520620e+00
 7.7639717010e-01	 1.6174208922e+00	-1.5692839008e+00
 9.3149451705e-01	 1.5436655027e+00	-1.8705692817e+00
 9.1663661694e-01	 1.5525342233e+00	-1.8396732487e+00
 9.0171247886e-01	 1.5612494232e+00	-1.8075226874e+00
 8.8672443663e-01	 1.5698104534e+00	-1.7743956541e+00
 8.7167483014e-01	 1.5782167117e+00	-1.7406375895e+00
 8.5656600424e-01	 1.5864676417e+00	-1.7066416433e+00
 8.4140030765e-01	 1.5945627336e+00	-1.6728297996e+00
 8.2618009180e-01	 1.6025015238e+00	-1.6396348849e+00
 8.1090770974e-01	 1.6102835947e+00	-1.6074835363e+00
 7.9558551504e-01	 1.6179085745e+00	-1.5767801967e+00
 7.8021586071e-01	 1.6253761376e+00	-1.5478921956e+00
 9.3605364958e-01	 1.5512208618e+00	-1.8600778040e+00
 9.2112302855e-01	 1.5601329897e+00	-1.8295757662e+00
 9.0612584536e-01	 1.5688908455e+00	-1.7973625212e+00
 8.9106444524e-01	 1.5774937771e+00	-1.7638002084e+00
 8.7594117953e-01	 1.5859411792e+00	-1.7293175123e+00
 8.6075840458e-01	 1.5942324928e+00	-1.6943893130e+00
 8.4551848059e-01	 1.6023672056e+00	-1.6595171732e+00
 8.3022377049e-01	 1.6103448516e+00	-1.6252107467e+00
 8.1487663886e-01	 1.6181650112e+00	-1.5919701869e+00
 7.9947945079e-01	 1.6258273110e+00	-1.5602696248e+00
 7.8403457080e-01	 1.6333314235e+00	-1.5305417766e+00
 9.4061280278e-01	 1.5587762552e+00	-1.8520388445e+00
 9.2560946050e-01	 1.5677317906e+00	-1.8221646881e+00
 9.1053923186e-01	 1.5765323025e+00	-1.7900898949e+00
 8.9540447352e-01	 1.5851771357e+00	-1.7562588357e+00
 8.8020754827e-01	 1.5936656817e+00	-1.7211824227e+00
 8.6495082393e-01	 1.6019973791e+00	-1.6854170641e+00
 8.4963667220e-01	 1.6101717129e+00	-1.6495444914e+00
 8.3426746751e-01	 1.6181882149e+00	-1.6141525462e+00
 8.1884558597e-01	 1.6260464635e+00	-1.5798170080e+00
 8.0337340419e-01	 1.6337460834e+00	-1.5470845332e+00
 7.8785329820e-01	 1.6412867455e+00	-1.5164567677e+00
 9.4517197406e-01	 1.5663316785e+00	-1.8456476724e+00
 9.3009591025e-01	 1.5753306217e+00	-1.8165850651e+00
 9.1495263588e-01	 1.5841737898e+00	-1.7848114800e+00
 8.9974451902e-01	 1.5928605247e+00	-1.7508517551e+00
 8.8447393394e-01	 1.6013902149e+00	-1.7152980892e+00
 8.6914325991e-01	 1.6097622962e+00	-1.6787882791e+00
 8.5375488014e-01	 1.6179762512e+00	-1.6419848651e+00
 8.3831118058e-01	 1.6260316094e+00	-1.6055552745e+00
 8.2281454883e-01	 1.6339279471e+00	-1.5701530465e+00
 8.0726737304e-01	 1.6416648872e+00	-1.5364002109e+00
 7.9167204075e-01	 1.6492420990e+00	-1.5048708846e+00
 9.4973116085e-01	 1.5738871276e+00	-1.8401143307e+00
 9.3458237525e-01	 1.5829294785e+00	-1.8119971946e+00
 9.1936605489e-01	 1.5918153031e+00	-1.7806494455e+00
 9.0408457928e-01	 1.6005439398e+00	-1.7466747127e+00
 8.8874033411e-01	 1.6091147744e+00	-1.7107456164e+00
 8.7333571015e-01	 1.6175272397e+00	-1.6735812660e+00
 8.5787310209e-01	 1.6257808160e+00	-1.6359257019e+00
 8.4235490739e-01	 1.6338750305e+00	-1.5985273731e+00
 8.2678352519e-01	 1.6418094574e+00	-1.5621197380e+00
 8.1116135513e-01	 1.6495837179e+00	-1.5274030605e+00
 7.9549079628e-01	 1.6571974796e+00	-1.4950274687e+00
 9.5429036055e-01	 1.5814425980e+00	-1.8346637143e+00
 9.3906885296e-01	 1.5905283569e+00	-1.8075766693e+00
 9.2377948642e-01	 1.5994568381e+00	-1.7767414828e+00
 9.0842465183e-01	 1.6082273767e+00	-1.7428389877e+00
 8.9300674637e-01	 1.6168393557e+00	-1.7066214378e+00
 8.7752817226e-01	 1.6252922052e+00	-1.6688892441e+00
 8.6199133570e-01	 1.6335854030e+00	-1.6304686902e+00
 8.4639864566e-01	 1.6417184739e+00	-1.5921907231e+00
 8.3075251279e-01	 1.6496909901e+00	-1.5548709060e+00
 8.1505534825e-01	 1.6575025710e+00	-1.5192906118e+00
 7.9930956263e-01	 1.6651528827e+00	-1.4861795210e+00
 9.5884957059e-01	 1.5889980856e+00	-1.8285356485e+00
 9.4355534085e-01	 1.5981272526e+00	-1.8025144277e+00
 9.2819292795e-01	 1.6070983903e+00	-1.7722408321e+00
 9.1276473423e-01	 1.6159108311e+00	-1.7384714011e+00
 8.9727316830e-01	 1.6245639546e+00	-1.7020373122e+00
 8.8172064388e-01	 1.6330571883e+00	-1.6638203328e+00
 8.6610957865e-01	 1.6413900076e+00	-1.6247297867e+00
 8.5044239310e-01	 1.6495619350e+00	-1.5856806353e+00
 8.3472150939e-01	 1.6575725407e+00	-1.5475727614e+00
 8.1894935020e-01	 1.6654214421e+00	-1.5112715363e+00
 8.0312833764e-01	 1.6731083039e+00	-1.4775897369e+00
 9.6340878838e-01	 1.5965535860e+00	-1.8209849700e+00
 9.4804183636e-01	 1.6057261611e+00	-1.7960168057e+00
 9.3260637698e-01	 1.6147399556e+00	-1.7663163112e+00
 9.1710482400e-01	 1.6235942984e+00	-1.7327143266e+00
 9.0153959748e-01	 1.6322885665e+00	-1.6961203222e+00
 8.8591312262e-01	 1.6408221847e+00	-1.6574975433e+00
 8.7022782860e-01	 1.6491946255e+00	-1.6178392056e+00
 8.5448614741e-01	 1.6574054094e+00	-1.5781458439e+00
 8.3869051273e-01	 1.6654541046e+00	-1.5394039043e+00
 8.2284335877e-01	 1.6733403267e+00	-1.5025656631e+00
 8.0694711914e-01	 1.6810637386e+00	-1.4685305414e+00
 9.6796801134e-01	 1.6041090950e+00	-1.8112816071e+00
 9.5252833696e-01	 1.6133250783e+00	-1.7873055897e+00
 9.3701983101e-01	 1.6223815295e+00	-1.7581523468e+00
 9.2144491869e-01	 1.6312777745e+00	-1.7247257046e+00
 9.0580603150e-01	 1.6400131873e+00	-1.6880128753e+00
 8.9010560612e-01	 1.6485871898e+00	-1.6490587724e+00
 8.7434608322e-01	 1.6569992522e+00	-1.6089414109e+00
 8.5852990631e-01	 1.6652488928e+00	-1.5687485014e+00
 8.4265952057e-01	 1.6733356775e+00	-1.5295553278e+00
 8.2673737175e-01	 1.6812592202e+00	-1.4924039963e+00
 8.1076590497e-01	 1.6890191823e+00	-1.4582841248e+00
 9.7252723688e-01	 1.6116646083e+00	-1.7987106623e+00
 9.5701484010e-01	 1.6209239997e+00	-1.7756180724e+00
 9.4143328755e-01	 1.6300231078e+00	-1.7469490069e+00
 9.2578501584e-01	 1.6389612550e+00	-1.7136790570e+00
 9.1007246793e-01	 1.6477378124e+00	-1.6768727075e+00
 8.9429809199e-01	 1.6563521993e+00	-1.6376567991e+00
 8.7846434017e-01	 1.6648038834e+00	-1.5971951108e+00
 8.6257366750e-01	 1.6730923806e+00	-1.5566641760e+00
 8.4662853067e-01	 1.6812172549e+00	-1.5172304232e+00
 8.3063138694e-01	 1.6891781183e+00	-1.4800287328e+00
 8.1458469296e-01	 1.6969746305e+00	-1.4461424792e+00
 7.7639717010e-01	 1.6174208922e+00	-1.5692839008e+00
 7.6105524190e-01	 1.6246962038e+00	-1.5373659144e+00
 7.4567074850e-01	 1.6318143016e+00	-1.4964433237e+00
 7.3024602370e-01	 1.6387749955e+00	-1.4483427576e+00
 7.1478339657e-01	 1.6455781398e+00	-1.3981451349e+00
 6.9928519036e-01	 1.6522236333e+00	-1.3470860837e+00
 6.8375372154e-01	 1.6587114185e+00	-1.2960652084e+00
 6.6819129874e-01	 1.6650414817e+00	-1.2459359436e+00
 6.5260022188e-01	 1.6712138520e+00	-1.1974869919e+00
 6.3698278107e-01	 1.6772286017e+00	-1.1514264389e+00
 6.2134125579e-01	 1.6830858451e+00	-1.1083685317e+00
 7.8021586071e-01	 1.6253761376e+00	-1.5478921956e+00
 7.6479847361e-01	 1.6326872326e+00	-1.5157327378e+00
 7.4933831195e-01	 1.6398403406e+00	-1.4752899711e+00
 7.3383772102e-01	 1.6468352705e+00	-1.4275568870e+00
 7.1829904134e-01	 1.6536718759e+00	-1.3776032972e+00
 7.0272460758e-01	 1.6603500551e+00	-1.3272513908e+00
 6.8711674760e-01	 1.6668697503e+00	-1.2773853482e+00
 6.7147778141e-01	 1.6732309477e+00	-1.2288371120e+00
 6.5581002021e-01	 1.6794336767e+00	-1.1823674431e+00
 6.4011576540e-01	 1.6854780098e+00	-1.1386497596e+00
 6.2439730766e-01	 1.6913640619e+00	-1.0982567457e+00
 7.8403457080e-01	 1.6333314235e+00	-1.5305417766e+00
 7.6854172442e-01	 1.6406783021e+00	-1.4980059474e+00
 7.5300589411e-01	 1.6478664205e+00	-1.4579078693e+00
 7.3742943666e-01	 1.6548955866e+00	-1.4107649012e+00
 7.2181470403e-01	 1.6617656533e+00	-1.3609774447e+00
 7.0616404233e-01	 1.6684765183e+00	-1.3112124535e+00
 6.9047979081e-01	 1.6750281237e+00	-1.2623261129e+00
 6.7476428084e-01	 1.6814204555e+00	-1.2151149323e+00
 6.5901983491e-01	 1.6876535434e+00	-1.1702964417e+00
 6.4324876571e-01	 1.6937274600e+00	-1.1284927829e+00
 6.2745337511e-01	 1.6996423210e+00	-1.0902171779e+00
 7.8785329820e-01	 1.6412867455e+00	-1.5164567677e+00
 7.7228499219e-01	 1.6486694079e+00	-1.4834687373e+00
 7.5667349290e-01	 1.6558925368e+00	-1.4436252648e+00
 7.4102116858e-01	 1.6629559392e+00	-1.3972913079e+00
 7.2533038267e-01	 1.6698594673e+00	-1.3476173229e+00
 7.0960349268e-01	 1.6766030184e+00	-1.2983306989e+00
 6.9384284927e-01	 1.6831865341e+00	-1.2502484734e+00
 6.7805079516e-01	 1.6896100005e+00	-1.2041180482e+00
 6.6222966416e-01	 1.6958734473e+00	-1.1605986938e+00
 6.4638178022e-01	 1.7019769476e+00	-1.1202449177e+00
 6.3050945642e-01	 1.7079206175e+00	-1.0834928249e+00
 7.9167204075e-01	 1.6492420990e+00	-1.5048708846e+00
 7.7602827481e-01	 1.6566605454e+00	-1.4714124227e+00
 7.6034110623e-01	 1.6639186849e+00	-1.4317773477e+00
 7.4461291475e-01	 1.6710163238e+00	-1.3862993031e+00
 7.2884607524e-01	 1.6779533135e+00	-1.3368753371e+00
 7.1304295667e-01	 1.6847295507e+00	-1.2879690287e+00
 6.9720592107e-01	 1.6913449769e+00	-1.2405140084e+00
 6.8133732252e-01	 1.6977995779e+00	-1.1951951618e+00
 6.6543950615e-01	 1.7040933838e+00	-1.1525987280e+00
 6.4951480716e-01	 1.7102264679e+00	-1.1131954721e+00
 6.3356554985e-01	 1.7161989469e+00	-1.0773269669e+00
 7.9549079628e-01	 1.6571974796e+00	-1.4950274687e+00
 7.7977157016e-01	 1.6646517100e+00	-1.4611364943e+00
 7.6400873204e-01	 1.6719448604e+00	-1.4217063209e+00
 7.4820467313e-01	 1.6790767358e+00	-1.3770306441e+00
 7.3236177978e-01	 1.6860471872e+00	-1.3281071514e+00
 7.1648243236e-01	 1.6928561106e+00	-1.2794923898e+00
 7.0056900431e-01	 1.6995034474e+00	-1.2324854414e+00
 6.8462386106e-01	 1.7059891832e+00	-1.1876955304e+00
 6.6864935905e-01	 1.7123133482e+00	-1.1456213480e+00
 6.5264784475e-01	 1.7184760163e+00	-1.1066340549e+00
 6.3662165367e-01	 1.7244773045e+00	-1.0709635147e+00
 7.9930956263e-01	 1.6651528827e+00	-1.4861795210e+00
 7.8351487611e-01	 1.6726428973e+00	-1.4519486730e+00
 7.6767636823e-01	 1.6799710586e+00	-1.4127614688e+00
 7.5179644169e-01	 1.6871371707e+00	-1.3688632141e+00
 7.3587749427e-01	 1.6941410838e+00	-1.3206722865e+00
 7.1992191779e-01	 1.7009826936e+00	-1.2722683443e+00
 7.0393209707e-01	 1.7076619410e+00	-1.2255271769e+00
 6.8791040891e-01	 1.7141788117e+00	-1.1809694637e+00
 6.7185922104e-01	 1.7205333360e+00	-1.1389920850e+00
 6.5578089122e-01	 1.7267255880e+00	-1.0998509792e+00
 6.3967776615e-01	 1.7327556855e+00	-1.0636473576e+00
 8.0312833764e-01	 1.6731083039e+00	-1.4775897369e+00
 7.8725819055e-01	 1.6806341027e+00	-1.4431649644e+00
 7.7134401274e-01	 1.6879972749e+00	-1.4042992255e+00
 7.5538821839e-01	 1.6951976238e+00	-1.3611811829e+00
 7.3939321673e-01	 1.7022349988e+00	-1.3139347165e+00
 7.2336141102e-01	 1.7091092950e+00	-1.2656676378e+00
 7.0729519746e-01	 1.7158204531e+00	-1.2190058350e+00
 6.9119696421e-01	 1.7223684588e+00	-1.1743688198e+00
 6.7506909032e-01	 1.7287533424e+00	-1.1320376498e+00
 6.5891394479e-01	 1.7349751784e+00	-1.0921376648e+00
 6.4273388556e-01	 1.7410340853e+00	-1.0546247130e+00
 8.0694711914e-01	 1.6810637386e+00	-1.4685305414e+00
 7.9100151136e-01	 1.6886253217e+00	-1.4341097128e+00
 7.7501166349e-01	 1.6960235049e+00	-1.3956832417e+00
 7.5898000120e-01	 1.7032580906e+00	-1.3533750810e+00
 7.4290894517e-01	 1.7103289275e+00	-1.3072170247e+00
 7.2680091010e-01	 1.7172359102e+00	-1.2590647670e+00
 7.1065830357e-01	 1.7239789791e+00	-1.2122907857e+00
 6.9448352509e-01	 1.7305581198e+00	-1.1672475010e+00
 6.7827896504e-01	 1.7369733627e+00	-1.1240863851e+00
 6.6204700368e-01	 1.7432247829e+00	-1.0827870429e+00
 6.4579001016e-01	 1.7493124992e+00	-1.0431434769e+00
 8.1076590497e-01	 1.6890191823e+00	-1.4582841248e+00
 7.9474483640e-01	 1.6966165497e+00	-1.4241156556e+00
 7.7867931839e-01	 1.7040497440e+00	-1.3862844519e+00
 7.6257178807e-01	 1.7113185666e+00	-1.3448418734e+00
 7.4642467760e-01	 1.7184228654e+00	-1.2997360094e+00
 7.3024041307e-01	 1.7253625346e+00	-1.2518385455e+00
 7.1402141348e-01	 1.7321375143e+00	-1.2047546819e+00
 6.9777008970e-01	 1.7387477900e+00	-1.1589619484e+00
 6.8148884341e-01	 1.7451933924e+00	-1.1144687176e+00
 6.6518006613e-01	 1.7514743967e+00	-1.0710939597e+00
 6.4884613823e-01	 1.7575909224e+00	-1.0284535765e+00
 8.1458469296e-01	 1.6969746305e+00	-1.4461424792e+00
 7.9848816357e-01	 1.7046077823e+00	-1.4125239770e+00
 7.8234697537e-01	 1.7120759877e+00	-1.3754811396e+00
 7.6616357699e-01	 1.7193790471e+00	-1.3349850318e+00
 7.4994041202e-01	 1.7265168079e+00	-1.2908912063e+00
 7.3367991799e-01	 1.7334891636e+00	-1.2433726691e+00
 7.1738452531e-01	 1.7402960542e+00	-1.1957739912e+00
 7.0105665617e-01	 1.7469374649e+00	-1.1488716363e+00
 6.8469872359e-01	 1.7534134267e+00	-1.1025176093e+00
 6.6831313035e-01	 1.7597240152e+00	-1.0563555818e+00
 6.5190226803e-01	 1.7658693503e+00	-1.0098073233e+00
 6.2134125579e-01	 1.6830858451e+00	-1.1083685317e+00
 6.0568057798e-01	 1.6887847827e+00	-1.0682442404e+00
 5.9000034444e-01	 1.6943266200e+00	-1.0304723739e+00
 5.7430279528e-01	 1.6997115942e+00	-9.9473545039e-01
 5.5859015640e-01	 1.7049399826e+00	-9.6057157970e-01
 5.4286463860e-01	 1.7100121024e+00	-9.2737521365e-01
 5.2712843678e-01	 1.7149283098e+00	-8.9440012296e-01
 5.1138372914e-01	 1.7196889996e+00	-8.6076447395e-01
 4.9563267639e-01	 1.7242946047e+00	-8.2545786866e-01
 4.7987742099e-01	 1.7287455951e+00	-7.8735020163e-01
 4.6412008643e-01	 1.7330424775e+00	-7.4520217846e-01
 6.2439730766e-01	 1.6913640619e+00	-1.0982567457e+00
 6.0865960318e-01	 1.6970910296e+00	-1.0608471562e+00
 5.9290224679e-01	 1.7026601243e+00	-1.0255783973e+00
 5.7712748962e-01	 1.7080715843e+00	-9.9209603287e-01
 5.6133756851e-01	 1.7133256884e+00	-9.5989478269e-01
 5.4553470513e-01	 1.7184227553e+00	-9.2831956292e-01
 5.2972110518e-01	 1.7233631430e+00	-8.9656883755e-01
 5.1389895758e-01	 1.7281472482e+00	-8.6370015132e-01
 4.9807043366e-01	 1.7327755058e+00	-8.2863770157e-01
 4.8223768642e-01	 1.7372483882e+00	-7.9018179684e-01
 4.6640284979e-01	 1.7415664048e+00	-7.4702004143e-01
 6.2745337511e-01	 1.6996423210e+00	-1.0902171779e+00
 6.1163864358e-01	 1.7053973189e+00	-1.0548555901e+00
 5.9580416395e-01	 1.7109936711e+00	-1.0213411653e+00
 5.7995219837e-01	 1.7164316171e+00	-9.8932054791e-01
 5.6408499463e-01	 1.7217114371e+00	-9.5828304752e-01
 5.4820478528e-01	 1.7268334512e+00	-9.2756191925e-01
 5.3231378681e-01	 1.7317980192e+00	-8.9633804463e-01
 5.1641419885e-01	 1.7366055398e+00	-8.6364587810e-01
 5.0050820336e-01	 1.7412564501e+00	-8.2838151141e-01
 4.8459796389e-01	 1.7457512248e+00	-7.8931269821e-01
 4.6868562480e-01	 1.7500903756e+00	-7.4509067177e-01
 6.3050945642e-01	 1.7079206175e+00	-1.0834928249e+00
 6.1461769748e-01	 1.7137036458e+00	-1.0494672670e+00
 5.9870609426e-01	 1.7193272557e+00	-1.0169259033e+00
 5.8277691993e-01	 1.7247916878e+00	-9.8555380487e-01
 5.6683243321e-01	 1.7300972237e+00	-9.5487214414e-01
 5.5087487753e-01	 1.7352441852e+00	-9.2423966610e-01
 5.3490648019e-01	 1.7402329337e+00	-8.9285665391e-01
 5.1892945152e-01	 1.7450638699e+00	-8.5977124735e-01
 5.0294598412e-01	 1.7497374329e+00	-8.2388796185e-01
 4.8695825206e-01	 1.7542540999e+00	-7.8397824398e-01
 4.7096841015e-01	 1.7586143850e+00	-7.3869289060e-01
 6.3356554985e-01	 1.7161989469e+00	-1.0773269669e+00
 6.1759676320e-01	 1.7220100057e+00	-1.0438806539e+00
 6.0160803608e-01	 1.7276608733e+00	-1.0114988856e+00
 5.8560165268e-01	 1.7331517917e+00	-9.7994183131e-01
 5.6957988268e-01	 1.7384830437e+00	-9.4879910518e-01
 5.5354498038e-01	 1.7436549525e+00	-9.1749138199e-01
 5.3749918386e-01	 1.7486678816e+00	-8.8527460281e-01
 5.2144471417e-01	 1.7535222335e+00	-8.5124662521e-01
 5.0538377454e-01	 1.7582184494e+00	-8.1435615944e-01
 4.8931854959e-01	 1.7627570088e+00	-7.7341382119e-01
 4.7325120456e-01	 1.7671384283e+00	-7.2710512148e-01
 6.3662165367e-01	 1.7244773045e+00	-1.0709635147e+00
 6.2057583905e-01	 1.7303163938e+00	-1.0372952509e+00
 6.0450998777e-01	 1.7359945193e+00	-1.0042276780e+00
 5.8842639505e-01	 1.7415119240e+00	-9.7163207181e-01
 5.7232734150e-01	 1.7468688921e+00	-9.3920238658e-01
 5.5621509230e-01	 1.7520657485e+00	-9.0645696791e-01
 5.4009189634e-01	 1.7571028582e+00	-8.7274295562e-01
 5.2395998537e-01	 1.7619806258e+00	-8.3724322597e-01
 5.0782157326e-01	 1.7666994947e+00	-7.9898570891e-01
 4.9167885515e-01	 1.7712599465e+00	-7.5685490520e-01
 4.7553400674e-01	 1.7756625005e+00	-7.0960541749e-01
 6.3967776615e-01	 1.7327556855e+00	-1.0636473576e+00
 6.2355492334e-01	 1.7386228055e+00	-1.0289118856e+00
 6.0741194768e-01	 1.7443281889e+00	-9.9428138286e-01
 5.9125114541e-01	 1.7498720800e+00	-9.5977359046e-01
 5.7507480810e-01	 1.7552547643e+00	-9.2522203231e-01
 5.5888521179e-01	 1.7604765683e+00	-8.9027777931e-01
 5.4268461617e-01	 1.7655378587e+00	-8.5441400724e-01
 5.2647526371e-01	 1.7704390421e+00	-8.1693319210e-01
 5.1025937888e-01	 1.7751805640e+00	-7.7697677346e-01
 4.9403916739e-01	 1.7797629084e+00	-7.3353710396e-01
 4.7781681538e-01	 1.7841865969e+00	-6.8547149319e-01
 6.4273388556e-01	 1.7410340853e+00	-1.0546247130e+00
 6.2653401438e-01	 1.7469292360e+00	-1.0179330089e+00
 6.1031391417e-01	 1.7526618774e+00	-9.8083088778e-01
 5.9407590218e-01	 1.7582322549e+00	-9.4351727700e-01
 5.7782228093e-01	 1.7636406555e+00	-9.0599984321e-01
 5.6155533733e-01	 1.7688874071e+00	-8.6809676247e-01
 5.4527734187e-01	 1.7739728784e+00	-8.2944139159e-01
 5.2899054774e-01	 1.7788974776e+00	-7.8948967902e-01
 5.1269719003e-01	 1.7836616526e+00	-7.4753013985e-01
 4.9639948499e-01	 1.7882658895e+00	-7.0269620714e-01
 4.8009962919e-01	 1.7927107126e+00	-6.5398076106e-01
 6.4579001016e-01	 1.7493124992e+00	-1.0431434769e+00
 6.2951311049e-01	 1.7552356806e+00	-1.0035629936e+00
 6.1321588560e-01	 1.7609955800e+00	-9.6304911688e-01
 5.9690066376e-01	 1.7665924441e+00	-9.2201605631e-01
 5.8056975843e-01	 1.7720265610e+00	-8.8067954973e-01
 5.6422546742e-01	 1.7772982603e+00	-8.3905859507e-01
 5.4787007199e-01	 1.7824079123e+00	-7.9698019459e-01
 5.3150583605e-01	 1.7873559275e+00	-7.5408694443e-01
 5.1513500533e-01	 1.7921427555e+00	-7.0984728808e-01
 4.9875980660e-01	 1.7967688850e+00	-6.6356823976e-01
 4.8238244689e-01	 1.8012348428e+00	-6.1441037247e-01
 6.4884613823e-01	 1.7575909224e+00	-1.0284535765e+00
 6.3249220997e-01	 1.7635421346e+00	-9.8500843474e-01
 6.1611786031e-01	 1.7693292921e+00	-9.4011128494e-01
 5.9972542853e-01	 1.7749526427e+00	-8.9442510138e-01
 5.8331723904e-01	 1.7804124759e+00	-8.4840698843e-01
 5.6689560052e-01	 1.7857091230e+00	-8.0230983087e-01
 5.5046280504e-01	 1.7908429559e+00	-7.5618707124e-01
 5.3402112720e-01	 1.7958143869e+00	-7.0990044206e-01
 5.1757282338e-01	 1.8006238681e+00	-6.6313046553e-01
 5.0112013088e-01	 1.8052718903e+00	-6.1538952025e-01
 4.8466526717e-01	 1.8097589826e+00	-5.6603726293e-01
 6.5190226803e-01	 1.7658693503e+00	-1.0098073233e+00
 6.3547131114e-01	 1.7718485933e+00	-9.6147845198e-01
 6.1901983667e-01	 1.7776630090e+00	-9.1119515425e-01
 6.0255019490e-01	 1.7833128461e+00	-8.5990204935e-01
 5.8606472121e-01	 1.7887983956e+00	-8.0833028206e-01
 5.6956573515e-01	 1.7941199904e+00	-7.5699904836e-01
 5.5305553956e-01	 1.7992780042e+00	-7.0622036707e-01
 5.3653641979e-01	 1.8042728512e+00	-6.5610691977e-01
 5.2001064282e-01	 1.8091049855e+00	-6.0658276545e-01
 5.0348045650e-01	 1.8137749003e+00	-5.5739672282e-01
 4.8694808875e-01	 1.8182831273e+00	-5.0813820154e-01
 4.6412008643e-01	 1.7330424775e+00	-7.4520217846e-01
 4.4836277670e-01	 1.7371857953e+00	-7.0004770586e-01
 4.3260757626e-01	 1.7411761283e+00	-6.5457116665e-01
 4.1685654864e-01	 1.7450140917e+00	-6.0988979510e-01
 4.0111173565e-01	 1.7487003345e+00	-5.6707134375e-01
 3.8537515669e-01	 1.7522355389e+00	-5.2714687798e-01
 3.6964880820e-01	 1.7556204198e+00	-4.9112260043e-01
 3.5393466308e-01	 1.7588557237e+00	-4.5872603970e-01
 3.3823467012e-01	 1.7619422282e+00	-4.2811428580e-01
 3.2255075349e-01	 1.7648807413e+00	-3.9780859569e-01
 3.0688481227e-01	 1.7676721003e+00	-3.6645211672e-01
 4.6640284979e-01	 1.7415664048e+00	-7.4702004143e-01
 4.5056803812e-01	 1.7457301014e+00	-7.0038655941e-01
 4.3473534610e-01	 1.7497400608e+00	-6.5321743976e-01
 4.1890684744e-01	 1.7535969011e+00	-6.0662621004e-01
 4.0308459397e-01	 1.7573012746e+00	-5.6167009684e-01
 3.8727061503e-01	 1.7608538668e+00	-5.1936371486e-01
 3.7146691688e-01	 1.7642553962e+00	-4.8069348314e-01
 3.5567548212e-01	 1.7675066128e+00	-4.4570101736e-01
 3.3989826912e-01	 1.7706082982e+00	-4.1257058725e-01
 3.2413721153e-01	 1.7735612643e+00	-3.7981684463e-01
 3.0839421776e-01	 1.7763663526e+00	-3.4608907515e-01
 4.6868562480e-01	 1.7500903756e+00	-7.4509067177e-01
 4.5277331079e-01	 1.7542744511e+00	-6.9713575025e-01
 4.3686312680e-01	 1.7583040369e+00	-6.4858355419e-01
 4.2095715670e-01	 1.7621797543e+00	-6.0052340351e-01
 4.0505746235e-01	 1.7659022585e+00	-5.5398184938e-01
 3.8916608304e-01	 1.7694722387e+00	-5.0993729754e-01
 3.7328503483e-01	 1.7728904166e+00	-4.6933539260e-01
 3.5741631003e-01	 1.7761575461e+00	-4.3244880471e-01
 3.4156187660e-01	 1.7792744124e+00	-3.9754928300e-01
 3.2572367766e-01	 1.7822418316e+00	-3.6312257796e-01
 3.0990363095e-01	 1.7850606492e+00	-3.2781533538e-01
 4.7096841015e-01	 1.7586143850e+00	-7.3869289060e-01
 4.5497859345e-01	 1.7628188395e+00	-6.8962446363e-01
 4.3899091715e-01	 1.7668680519e+00	-6.4005655390e-01
 4.2300747525e-01	 1.7707626464e+00	-5.9103376682e-01
 4.0703033968e-01	 1.7745032815e+00	-5.4353180636e-01
 3.9106155964e-01	 1.7780906496e+00	-4.9847307320e-01
 3.7510316102e-01	 1.7815254761e+00	-4.5674305788e-01
 3.5915714584e-01	 1.7848085185e+00	-4.1876539586e-01
 3.4322549163e-01	 1.7879405660e+00	-3.8294673886e-01
 3.2731015098e-01	 1.7909224383e+00	-3.4772723591e-01
 3.1141305098e-01	 1.7937549852e+00	-3.1174232490e-01
 4.7325120456e-01	 1.7671384283e+00	-7.2710512148e-01
 4.5718388486e-01	 1.7713632618e+00	-6.7718098260e-01
 4.4111871593e-01	 1.7754321008e+00	-6.2702200098e-01
 4.2505780194e-01	 1.7793455725e+00	-5.7760754934e-01
 4.0900322483e-01	 1.7831043386e+00	-5.2984228491e-01
 3.9295704375e-01	 1.7867090948e+00	-4.8457276385e-01
 3.7692129443e-01	 1.7901605699e+00	-4.4260488485e-01
 3.6089798855e-01	 1.7934595253e+00	-4.0444114291e-01
 3.4488911326e-01	 1.7966067538e+00	-3.6865310391e-01
 3.2889663060e-01	 1.7996030793e+00	-3.3362525680e-01
 3.1292247700e-01	 1.8024493558e+00	-2.9797347345e-01
 4.7553400674e-01	 1.7756625005e+00	-7.0960541749e-01
 4.5938918377e-01	 1.7799077132e+00	-6.5913270645e-01
 4.4324652196e-01	 1.7839961789e+00	-6.0886398951e-01
 4.2710813559e-01	 1.7879285278e+00	-5.5969287181e-01
 4.1097611669e-01	 1.7917054249e+00	-5.1243273121e-01
 3.9485253432e-01	 1.7953275692e+00	-4.6783439113e-01
 3.7873943401e-01	 1.7987956931e+00	-4.2660465698e-01
 3.6263883718e-01	 1.8021105615e+00	-3.8926069243e-01
 3.4655274055e-01	 1.8052729712e+00	-3.5455228209e-01
 3.3048311561e-01	 1.8082837500e+00	-3.2080408704e-01
 3.1443190815e-01	 1.8111437558e+00	-2.8660426480e-01
 4.7781681538e-01	 1.7841865969e+00	-6.8547149319e-01
 4.6159448893e-01	 1.7884521888e+00	-6.3480617382e-01
 4.4537433401e-01	 1.7925602812e+00	-5.8496516361e-01
 4.2915847506e-01	 1.7965115075e+00	-5.3673574349e-01
 4.1294901414e-01	 1.8003065356e+00	-4.9081974087e-01
 3.9674803025e-01	 1.8039460681e+00	-4.4785230400e-01
 3.8055757875e-01	 1.8074308407e+00	-4.0842157443e-01
 3.6437969074e-01	 1.8107616222e+00	-3.7300292322e-01
 3.4821637254e-01	 1.8139392131e+00	-3.4052190412e-01
 3.3206960512e-01	 1.8169644452e+00	-3.0924419052e-01
 3.1594134357e-01	 1.8198381805e+00	-2.7772228676e-01
 4.8009962919e-01	 1.7927107126e+00	-6.5398076106e-01
 4.6379979908e-01	 1.7969966837e+00	-6.0352709004e-01
 4.4750215088e-01	 1.8011244030e+00	-5.5470673971e-01
 4.3120881918e-01	 1.8050945065e+00	-5.0818008310e-01
 4.1492191607e-01	 1.8089076658e+00	-4.6451708250e-01
 3.9864353048e-01	 1.8125645864e+00	-4.2421720897e-01
 3.8237572761e-01	 1.8160660079e+00	-3.8773029514e-01
 3.6612054825e-01	 1.8194127026e+00	-3.5544088524e-01
 3.4988000831e-01	 1.8226054747e+00	-3.2643329986e-01
 3.3365609822e-01	 1.8256451600e+00	-2.9891905729e-01
 3.1745078242e-01	 1.8285326250e+00	-2.7140727953e-01
 4.8238244689e-01	 1.8012348428e+00	-6.1441037247e-01
 4.6600511299e-01	 1.8055411932e+00	-5.6462035889e-01
 4.4962997137e-01	 1.8096885393e+00	-5.1746853266e-01
 4.3325916678e-01	 1.8136775202e+00	-4.7346774331e-01
 4.1689482134e-01	 1.8175088106e+00	-4.3303572440e-01
 4.0053903394e-01	 1.8211831195e+00	-3.9651620305e-01
 3.8419387956e-01	 1.8247011898e+00	-3.6420097793e-01
 3.6786140872e-01	 1.8280637976e+00	-3.3634173980e-01
 3.5154364691e-01	 1.8312717510e+00	-3.1215147092e-01
 3.3524259402e-01	 1.8343258897e+00	-2.8979521174e-01
 3.1896022383e-01	 1.8372270842e+00	-2.6773118231e-01
 4.8466526717e-01	 1.8097589826e+00	-5.6603726293e-01
 4.6821042940e-01	 1.8140857124e+00	-5.1741011834e-01
 4.5175779428e-01	 1.8182526853e+00	-4.7262898584e-01
 4.3530951671e-01	 1.8222605436e+00	-4.3203853873e-01
 4.1886772886e-01	 1.8261099651e+00	-3.9588386437e-01
 4.0243453954e-01	 1.8298016623e+00	-3.6433280910e-01
 3.8601203357e-01	 1.8333363815e+00	-3.3749932741e-01
 3.6960227117e-01	 1.8367149024e+00	-3.1546670087e-01
 3.5320728740e-01	 1.8399380371e+00	-2.9753506371e-01
 3.3682909162e-01	 1.8430066292e+00	-2.8183222015e-01
 3.2046966696e-01	 1.8459215532e+00	-2.6675817848e-01
 4.8694808875e-01	 1.8182831273e+00	-5.0813820154e-01
 4.7041574706e-01	 1.8226302364e+00	-4.6121978038e-01
 4.5388561839e-01	 1.8268168362e+00	-4.1956520484e-01
 4.3735986779e-01	 1.8308435719e+00	-3.8333027729e-01
 4.2084063749e-01	 1.8347111246e+00	-3.5256696237e-01
 4.0433004622e-01	 1.8384202100e+00	-3.2724701364e-01
 3.8783018861e-01	 1.8419715781e+00	-3.0728664070e-01
 3.7134313460e-01	 1.8453660122e+00	-2.9257196487e-01
 3.5487092882e-01	 1.8486043281e+00	-2.8243634268e-01
 3.3841559011e-01	 1.8516873736e+00	-2.7498269769e-01
 3.2197911094e-01	 1.8546160272e+00	-2.6564440364e-01
 3.0688481227e-01	 1.7676721003e+00	-3.6645211672e-01
 2.9123606242e-01	 1.7703176088e+00	-3.3472691751e-01
 2.7560902069e-01	 1.7728176731e+00	-3.0397372881e-01
 2.6000551298e-01	 1.7751732139e+00	-2.7401214873e-01
 2.4442733825e-01	 1.7773851785e+00	-2.4480575726e-01
 2.2887626810e-01	 1.7794545395e+00	-2.1646452922e-01
 2.1335404644e-01	 1.7813822948e+00	-1.8924528613e-01
 1.9786238912e-01	 1.7831694663e+00	-1.6355035689e-01
 1.8240298368e-01	 1.7848170991e+00	-1.3992461546e-01
 1.6697748904e-01	 1.7863262610e+00	-1.1905106275e-01
 1.5158753522e-01	 1.7876980416e+00	-1.0174511679e-01
 3.0839421776e-01	 1.7763663526e+00	-3.4608907515e-01
 2.9266849992e-01	 1.7790248729e+00	-3.1208851014e-01
 2.7696459696e-01	 1.7815372337e+00	-2.7915552573e-01
 2.6128434378e-01	 1.7839043603e+00	-2.4710430890e-01
 2.4562954817e-01	 1.7861272043e+00	-2.1590816965e-01
 2.3000199047e-01	 1.7882067434e+00	-1.8570123265e-01
 2.1440342313e-01	 1.7901439804e+00	-1.5677812290e-01
 1.9883557047e-01	 1.7919399420e+00	-1.2959182143e-01
 1.8330012833e-01	 1.7935956786e+00	-1.0474986562e-01
 1.6779876376e-01	 1.7951122633e+00	-8.3009067354e-02
 1.5233311483e-01	 1.7964907909e+00	-6.5268919035e-02
 3.0990363095e-01	 1.7850606492e+00	-3.2781533538e-01
 2.9410094472e-01	 1.7877321814e+00	-2.9238493130e-01
 2.7832018014e-01	 1.7902568388e+00	-2.5819663882e-01
 2.6256318109e-01	 1.7926355511e+00	-2.2503388365e-01
 2.4683176423e-01	 1.7948692747e+00	-1.9285408826e-01
 2.3112771857e-01	 1.7969589920e+00	-1.6178966271e-01
 2.1545280517e-01	 1.7989057106e+00	-1.3214694351e-01
 1.9980875679e-01	 1.8007104624e+00	-1.0440326281e-01
 1.8419727754e-01	 1.8023743029e+00	-7.9202329020e-02
 1.6862004267e-01	 1.8038983104e+00	-5.7348098202e-02
 1.5307869824e-01	 1.8052835851e+00	-3.9797312199e-02
 3.1141305098e-01	 1.7937549852e+00	-3.1174232490e-01
 2.9553339601e-01	 1.7964395295e+00	-2.7583032272e-01
 2.7967576947e-01	 1.7989764835e+00	-2.4139465351e-01
 2.6384202421e-01	 1.8013667815e+00	-2.0816319635e-01
 2.4803398573e-01	 1.8036113847e+00	-1.7605244763e-01
 2.3225345178e-01	 1.8057112802e+00	-1.4516783038e-01
 2.1650219197e-01	 1.8076674805e+00	-1.1580190450e-01
 2.0078194751e-01	 1.8094810226e+00	-8.8430666761e-02
 1.8509443083e-01	 1.8111529670e+00	-6.3708128299e-02
 1.6944132531e-01	 1.8126843974e+00	-4.2459354885e-02
 1.5382428503e-01	 1.8140764192e+00	-2.5672152455e-02
 3.1292247700e-01	 1.8024493558e+00	-2.9797347345e-01
 2.9696585299e-01	 1.8051469120e+00	-2.6262986124e-01
 2.8103136417e-01	 1.8076961627e+00	-2.2903748757e-01
 2.6512087240e-01	 1.8100980466e+00	-1.9684445811e-01
 2.4923621200e-01	 1.8123535294e+00	-1.6590187741e-01
 2.3337918945e-01	 1.8144636031e+00	-1.3626349480e-01
 2.1755158294e-01	 1.8164292852e+00	-1.0818320305e-01
 2.0175514210e-01	 1.8182516175e+00	-8.2110585367e-02
 1.8599158767e-01	 1.8199316659e+00	-5.8684704943e-02
 1.7026261120e-01	 1.8214705192e+00	-3.8726328898e-02
 1.5456987478e-01	 1.8228692882e+00	-2.3228775105e-02
 3.1443190815e-01	 1.8111437558e+00	-2.8660426480e-01
 2.9839831483e-01	 1.8138543242e+00	-2.5297985008e-01
 2.8238696349e-01	 1.8164158716e+00	-2.2140351402e-01
 2.6639972493e-01	 1.8188293413e+00	-1.9141991467e-01
 2.5043844236e-01	 1.8210957038e+00	-1.6279086580e-01
 2.3450493095e-01	 1.8232159558e+00	-1.3549433613e-01
 2.1860097747e-01	 1.8251911197e+00	-1.0972125236e-01
 2.0272834000e-01	 1.8270222423e+00	-8.5870308124e-02
 1.8688874757e-01	 1.8287103947e+00	-6.4540979727e-02
 1.7108389988e-01	 1.8302566708e+00	-4.6524947205e-02
 1.5531546706e-01	 1.8316621870e+00	-3.2796115328e-02
 3.1594134357e-01	 1.8198381805e+00	-2.7772228676e-01
 2.9983078073e-01	 1.8225617610e+00	-2.4706780728e-01
 2.8374256664e-01	 1.8251356052e+00	-2.1876168031e-01
 2.6767858109e-01	 1.8275606608e+00	-1.9222198898e-01
 2.5164067613e-01	 1.8298379030e+00	-1.6709791826e-01
 2.3563067564e-01	 1.8319683333e+00	-1.4326812340e-01
 2.1965037497e-01	 1.8339529790e+00	-1.2083685190e-01
 2.0370154065e-01	 1.8357928920e+00	-1.0012802818e-01
 1.8778591000e-01	 1.8374891483e+00	-8.1677508577e-02
 1.7190519089e-01	 1.8390428474e+00	-6.6223711741e-02
 1.5606106146e-01	 1.8404551108e+00	-5.4696825517e-02
 3.1745078242e-01	 1.8285326250e+00	-2.7140727953e-01
 3.0126324989e-01	 1.8312692176e+00	-2.4507255141e-01
 2.8509817287e-01	 1.8338553585e+00	-2.2137162404e-01
 2.6895744015e-01	 1.8362920001e+00	-1.9957341956e-01
 2.5284291262e-01	 1.8385801220e+00	-1.7919171164e-01
 2.3675642288e-01	 1.8407207307e+00	-1.5998287759e-01
 2.2069977486e-01	 1.8427148581e+00	-1.4194135284e-01
 2.0467474351e-01	 1.8445635615e+00	-1.2529300381e-01
 1.8868307447e-01	 1.8462679219e+00	-1.1048663404e-01
 1.7272648376e-01	 1.8478290439e+00	-9.8183834968e-02
 1.5680665754e-01	 1.8492480545e+00	-8.9247389317e-02
 3.1896022383e-01	 1.8372270842e+00	-2.6773118231e-01
 3.0269572147e-01	 1.8399766890e+00	-2.4716428467e-01
 2.8645378140e-01	 1.8425751267e+00	-2.2948378516e-01
 2.7023630138e-01	 1.8450233542e+00	-2.1378739489e-01
 2.5404515116e-01	 1.8473223559e+00	-1.9943124383e-01
 2.3788217203e-01	 1.8494731429e+00	-1.8602703005e-01
 2.2174917652e-01	 1.8514767522e+00	-1.7343681884e-01
 2.0564794802e-01	 1.8533342459e+00	-1.6105747490e-01
 1.8958024046e-01	 1.8550467103e+00	-1.4808403227e-01
 1.7354777803e-01	 1.8566152553e+00	-1.3568652429e-01
 1.5755225489e-01	 1.8580410131e+00	-1.2521324738e-01
 3.2046966696e-01	 1.8459215532e+00	-2.6675817848e-01
 3.0412819468e-01	 1.8486841702e+00	-2.5350467342e-01
 2.8780939147e-01	 1.8512949048e+00	-2.4333951496e-01
 2.7151516407e-01	 1.8537547182e+00	-2.3386814665e-01
 2.5524739105e-01	 1.8560645997e+00	-2.2180003454e-01
 2.3900792246e-01	 1.8582255650e+00	-2.0745667072e-01
 2.2279857938e-01	 1.8602386562e+00	-1.9147570686e-01
 2.0662115364e-01	 1.8621049403e+00	-1.7466005049e-01
 1.9047740747e-01	 1.8638255088e+00	-1.5796003356e-01
 1.7436907323e-01	 1.8654014767e+00	-1.4245677266e-01
 1.5829785309e-01	 1.8668339817e+00	-1.2934666593e-01
 3.2197911094e-01	 1.8546160272e+00	-2.6564440364e-01
 3.0556066871e-01	 1.8573916564e+00	-2.5259583926e-01
 2.8916500231e-01	 1.8600146878e+00	-2.3814584586e-01
 2.7279402747e-01	 1.8624860872e+00	-2.2218343536e-01
 2.5644963163e-01	 1.8648068484e+00	-2.0481650523e-01
 2.4013367353e-01	 1.8669779921e+00	-1.8635036804e-01
 2.2384798283e-01	 1.8690005651e+00	-1.6726765828e-01
 2.0759435981e-01	 1.8708756396e+00	-1.4820956396e-01
 1.9137457499e-01	 1.8726043121e+00	-1.2995832830e-01
 1.7519036889e-01	 1.8741877030e+00	-1.1342096468e-01
 1.5904345171e-01	 1.8756269553e+00	-9.9614126779e-02
 1.5158753522e-01	 1.7876980416e+00	-1.0174511679e-01
 1.3623732356e-01	 1.7889333526e+00	-8.8008792257e-02
 1.2092577599e-01	 1.7900335688e+00	-7.6736025558e-02
 1.0565439889e-01	 1.7909998392e+00	-6.7280345823e-02
 9.0424669867e-02	 1.7918333315e+00	-5.9118569930e-02
 7.5238037701e-02	 1.7925352311e+00	-5.1842499383e-02
 6.0095922142e-02	 1.7931067405e+00	-4.5150150720e-02
 4.4999713821e-02	 1.7935490786e+00	-3.8836646234e-02
 2.9950774159e-02	 1.7938634795e+00	-3.2784884824e-02
 1.4950435288e-02	 1.7940511925e+00	-2.6956105564e-02
 0.0000000000e+00	 1.7941134805e+00	-2.1380449449e-02
 1.5233311483e-01	 1.7964907909e+00	-6.5268919035e-02
 1.3690740352e-01	 1.7977321778e+00	-5.1551587021e-02
 1.2152054649e-01	 1.7988378054e+00	-4.0648646036e-02
 1.0617405748e-01	 1.7998088284e+00	-3.1825935410e-02
 9.0869421409e-02	 1.8006464202e+00	-2.4478414962e-02
 7.5608094162e-02	 1.8013517720e+00	-1.8121234670e-02
 6.0391502475e-02	 1.8019260924e+00	-1.2380341847e-02
 4.5221043820e-02	 1.8023706061e+00	-6.9827565489e-03
 3.0098086314e-02	 1.8026865534e+00	-1.7466386869e-03
 1.5023968640e-02	 1.8028751897e+00	 3.4287371383e-03
 0.0000000000e+00	 1.8029377841e+00	 8.5729905640e-03
 1.5307869824e-01	 1.8052835851e+00	-3.9797312199e-02
 1.3757748691e-01	 1.8065310479e+00	-2.6545803868e-02
 1.2211532001e-01	 1.8076420869e+00	-1.6269845254e-02
 1.0669371872e-01	 1.8086178625e+00	-8.1708509243e-03
 9.1314175218e-02	 1.8094595538e+00	-1.5853628495e-03
 7.5978152509e-02	 1.8101683580e+00	 4.0245600253e-03
 6.0687084314e-02	 1.8107454893e+00	 9.0814094573e-03
 4.5442374947e-02	 1.8111921787e+00	 1.3902618066e-02
 3.0245399219e-02	 1.8115096724e+00	 1.8711144697e-02
 1.5097502368e-02	 1.8116992318e+00	 2.3646135506e-02
 0.0000000000e+00	 1.8117621326e+00	 2.8773549058e-02
 1.5382428503e-01	 1.8140764192e+00	-2.5672152455e-02
 1.3824757333e-01	 1.8153299579e+00	-1.3278652857e-02
 1.2271009623e-01	 1.8164464083e+00	-3.8354680691e-03
 1.0721338232e-01	 1.8174269365e+00	 3.4972736433e-03
 9.1758931044e-02	 1.8182727274e+00	 9.4181338904e-03
 7.6348212533e-02	 1.8189849839e+00	 1.4494708056e-02
 6.0982667494e-02	 1.8195649262e+00	 1.9174419924e-02
 4.5663707077e-02	 1.8200137912e+00	 2.3795628094e-02
 3.0392712793e-02	 1.8203328313e+00	 2.8598913011e-02
 1.5171036428e-02	 1.8205233140e+00	 3.3738421540e-02
 0.0000000000e+00	 1.8205865212e+00	 3.9293154128e-02
 1.5456987478e-01	 1.8228692882e+00	-2.3228775105e-02
 1.3891766241e-01	 1.8241289028e+00	-1.2032054724e-02
 1.2330487481e-01	 1.8252507647e+00	-3.5771865634e-03
 1.0773304798e-01	 1.8262360455e+00	 2.9939667811e-03
 9.2203688633e-02	 1.8270859360e+00	 8.3918724380e-03
 7.6718274025e-02	 1.8278016448e+00	 1.3190458504e-02
 6.1278251845e-02	 1.8283843981e+00	 1.7838688193e-02
 4.5885040085e-02	 1.8288354387e+00	 2.2672433651e-02
 3.0540026950e-02	 1.8291560252e+00	 2.7926514288e-02
 1.5244570780e-02	 1.8293474312e+00	 3.3746772834e-02
 0.0000000000e+00	 1.8294109448e+00	 4.0202070865e-02
 1.5531546706e-01	 1.8316621870e+00	-3.2796115328e-02
 1.3958775376e-01	 1.8329278776e+00	-2.3082737030e-02
 1.2389965541e-01	 1.8340551510e+00	-1.5722573722e-02
 1.0825271541e-01	 1.8350451845e+00	-9.8621337831e-03
 9.2648447734e-02	 1.8358991745e+00	-4.8021350400e-03
 7.7088336774e-02	 1.8366183356e+00	 1.4468195639e-05
 6.1573837201e-02	 1.8372039000e+00	 5.0148918606e-03
 4.6106373845e-02	 1.8376571162e+00	 1.0509214985e-02
 3.0687341608e-02	 1.8379792491e+00	 1.6703219397e-02
 1.5318105382e-02	 1.8381715784e+00	 2.3711245702e-02
 0.0000000000e+00	 1.8382353983e+00	 3.1568943861e-02
 1.5606106146e-01	 1.8404551108e+00	-5.4696825517e-02
 1.4025784702e-01	 1.8417268773e+00	-4.6702327593e-02
 1.2449443770e-01	 1.8428595622e+00	-4.0495175048e-02
 1.0877238431e-01	 1.8438543484e+00	-3.5249332833e-02
 9.3093208094e-02	 1.8447124380e+00	-3.0299695138e-02
 7.7458400572e-02	 1.8454350515e+00	-2.5129215794e-02
 6.1869423394e-02	 1.8460234268e+00	-1.9355615397e-02
 4.6327708232e-02	 1.8464788188e+00	-1.2717817324e-02
 3.0834656683e-02	 1.8468024981e+00	-5.0622561063e-03
 1.5391640193e-02	 1.8469957507e+00	 3.6708073457e-03
 0.0000000000e+00	 1.8470598769e+00	 1.3460838496e-02
 1.5680665754e-01	 1.8492480545e+00	-8.9247389317e-02
 1.4092794179e-01	 1.8505258970e+00	-8.3157445314e-02
 1.2508922133e-01	 1.8516639934e+00	-7.8114578170e-02
 1.0929205438e-01	 1.8526635322e+00	-7.3181259373e-02
 9.3537969462e-02	 1.8535257214e+00	-6.7552068725e-02
 7.7828465208e-02	 1.8542517873e+00	-6.0991657610e-02
 6.2165010257e-02	 1.8548429736e+00	-5.3354700896e-02
 4.6549043120e-02	 1.8553005413e+00	-4.4564298625e-02
 3.0981972092e-02	 1.8556257670e+00	-3.4604671460e-02
 1.5465175169e-02	 1.8558199429e+00	-2.3514414259e-02
 0.0000000000e+00	 1.8558843755e+00	-1.1380261280e-02
 1.5755225489e-01	 1.8580410131e+00	-1.2521324738e-01
 1.4159803770e-01	 1.8593249316e+00	-1.1651034571e-01
 1.2568400597e-01	 1.8604684395e+00	-1.0815389469e-01
 1.0981172534e-01	 1.8614727311e+00	-9.9747799923e-02
 9.3982731586e-02	 1.8623390199e+00	-9.0987841385e-02
 7.8198530473e-02	 1.8630685381e+00	-8.1652537337e-02
 6.2460597622e-02	 1.8636625355e+00	-7.1594723643e-02
 4.6770378385e-02	 1.8641222788e+00	-6.0733795581e-02
 3.1129287751e-02	 1.8644490509e+00	-4.9048560598e-02
 1.5538710271e-02	 1.8646441501e+00	-3.6570652174e-02
 0.0000000000e+00	 1.8647088891e+00	-2.3378456669e-02
 1.5829785309e-01	 1.8668339817e+00	-1.2934666593e-01
 1.4226813437e-01	 1.8681239762e+00	-1.1831872655e-01
 1.2627879129e-01	 1.8692728957e+00	-1.0790962987e-01
 1.1033139689e-01	 1.8702819399e+00	-9.7743762916e-02
 9.4427494214e-02	 1.8711523283e+00	-8.7535034837e-02
 7.8568596157e-02	 1.8718852989e+00	-7.7077867167e-02
 6.2756185322e-02	 1.8724821073e+00	-6.6238908423e-02
 4.6991713900e-02	 1.8729440263e+00	-5.4949417997e-02
 3.1276603577e-02	 1.8732723448e+00	-4.3198266043e-02
 1.5612245456e-02	 1.8734683673e+00	-3.1025497800e-02
 0.0000000000e+00	 1.8735334126e+00	-1.8516412554e-02
 1.5904345171e-01	 1.8756269553e+00	-9.9614126779e-02
 1.4293823142e-01	 1.8769230258e+00	-8.8084957430e-02
 1.2687357695e-01	 1.8780773568e+00	-7.7375806408e-02
 1.1085106873e-01	 1.8790911537e+00	-6.7147069037e-02
 9.4872257094e-02	 1.8799656418e+00	-5.7146259608e-02
 7.8938662051e-02	 1.8807020647e+00	-4.7199117264e-02
 6.3051773189e-02	 1.8813016841e+00	-3.7201445321e-02
 4.7213049540e-02	 1.8817657788e+00	-2.7111627139e-02
 3.1423919486e-02	 1.8820956438e+00	-1.6943763388e-02
 1.5685780682e-02	 1.8822925895e+00	-6.7613774004e-03
 0.0000000000e+00	 1.8823579412e+00	 3.3283629028e-03
 1.8823579412e+00	 0.0000000000e+00	 3.0998066972e+00
 1.8822925895e+00	 1.5685780682e-02	 3.1049357151e+00
 1.8820956438e+00	 3.1423919486e-02	 3.1074122595e+00
 1.8817657788e+00	 4.7213049540e-02	 3.1069567166e+00
 1.8813016841e+00	 6.3051773189e-02	 3.1033685647e+00
 1.8807020647e+00	 7.8938662051e-02	 3.0965309861e+00
 1.8799656418e+00	 9.4872257094e-02	 3.0864160774e+00
 1.8790911537e+00	 1.1085106873e-01	 3.0730907141e+00
 1.8780773568e+00	 1.2687357695e-01	 3.0567231265e+00
 1.8769230258e+00	 1.4293823142e-01	 3.0375902457e+00
 1.8756269553e+00	 1.5904345171e-01	 3.0160858818e+00
 1.8911809706e+00	 0.0000000000e+00	 3.0622250549e+00
 1.8911153126e+00	 1.5759303416e-02	 3.0646120359e+00
 1.8909174437e+00	 3.1571210368e-02	 3.0647043870e+00
 1.8905860326e+00	 4.7434347578e-02	 3.0622051250e+00
 1.8901197626e+00	 6.3347310839e-02	 3.0568920214e+00
 1.8895173326e+00	 7.9308665075e-02	 3.0486220145e+00
 1.8887774579e+00	 9.5316944414e-02	 3.0373362261e+00
 1.8878988710e+00	 1.1137065229e-01	 3.0230656373e+00
 1.8868803221e+00	 1.2746826155e-01	 3.0059374848e+00
 1.8857205806e+00	 1.4360821463e-01	 2.9861824375e+00
 1.8844184351e+00	 1.5978892366e-01	 2.9641426151e+00
 1.9000040000e+00	 0.0000000000e+00	 3.0274554919e+00
 1.8999380357e+00	 1.5832826150e-02	 3.0276370244e+00
 1.8997392437e+00	 3.1718501251e-02	 3.0258096462e+00
 1.8994062864e+00	 4.7655645616e-02	 3.0216662829e+00
 1.8989378411e+00	 6.3642848489e-02	 3.0149703001e+00
 1.8983326006e+00	 7.9678668098e-02	 3.0055597025e+00
 1.8975892741e+00	 9.5761631733e-02	 2.9933519403e+00
 1.8967065882e+00	 1.1189023584e-01	 2.9783493823e+00
 1.8956832875e+00	 1.2806294616e-01	 2.9606455152e+00
 1.8945181354e+00	 1.4427819784e-01	 2.9404319333e+00
 1.8932099149e+00	 1.6053439561e-01	 2.9180061824e+00
 1.9088270294e+00	 0.0000000000e+00	 2.9954848100e+00
 1.9087607588e+00	 1.5906348884e-02	 2.9939709089e+00
 1.9085610437e+00	 3.1865792133e-02	 2.9906623861e+00
 1.9082265403e+00	 4.7876943654e-02	 2.9852493017e+00
 1.9077559196e+00	 6.3938386140e-02	 2.9774878653e+00
 1.9071478685e+00	 8.0048671122e-02	 2.9672044064e+00
 1.9064010903e+00	 9.6206319053e-02	 2.9542999559e+00
 1.9055143055e+00	 1.1240981940e-01	 2.9387554991e+00
 1.9044862529e+00	 1.2865763077e-01	 2.9206379633e+00
 1.9033156901e+00	 1.4494818105e-01	 2.9001070034e+00
 1.9020013947e+00	 1.6127986756e-01	 2.8774226527e+00
 1.9176500588e+00	 0.0000000000e+00	 2.9662998610e+00
 1.9175834819e+00	 1.5979871618e-02	 2.9635744631e+00
 1.9173828436e+00	 3.2013083015e-02	 2.9591979847e+00
 1.9170467941e+00	 4.8098241692e-02	 2.9528647978e+00
 1.9165739981e+00	 6.4233923790e-02	 2.9443311566e+00
 1.9159631365e+00	 8.0418674146e-02	 2.9334189249e+00
 1.9152129065e+00	 9.6651006372e-02	 2.9200199168e+00
 1.9143220227e+00	 1.1292940296e-01	 2.9041009143e+00
 1.9132892182e+00	 1.2925231538e-01	 2.8857094255e+00
 1.9121132449e+00	 1.4561816426e-01	 2.8649802501e+00
 1.9107928745e+00	 1.6202533951e-01	 2.8421429194e+00
 1.9264730883e+00	 0.0000000000e+00	 2.9398875456e+00
 1.9264062049e+00	 1.6053394352e-02	 2.9364089974e+00
 1.9262046436e+00	 3.2160373898e-02	 2.9313528342e+00
 1.9258670479e+00	 4.8319539731e-02	 2.9244248701e+00
 1.9253920766e+00	 6.4529461441e-02	 2.9153885586e+00
 1.9247784044e+00	 8.0788677170e-02	 2.9040684605e+00
 1.9240247226e+00	 9.7095693692e-02	 2.8903543291e+00
 1.9231297400e+00	 1.1344898651e-01	 2.8742058762e+00
 1.9220921836e+00	 1.2984699999e-01	 2.8556582842e+00
 1.9209107996e+00	 1.4628814746e-01	 2.8348285335e+00
 1.9195843543e+00	 1.6277081146e-01	 2.8119226154e+00
 1.9352961177e+00	 0.0000000000e+00	 2.9162348121e+00
 1.9352289280e+00	 1.6126917087e-02	 2.9124363515e+00
 1.9350264435e+00	 3.2307664781e-02	 2.9070643260e+00
 1.9346873017e+00	 4.8540837769e-02	 2.8998430785e+00
 1.9342101551e+00	 6.4824999092e-02	 2.8905503715e+00
 1.9335936724e+00	 8.1158680194e-02	 2.8790205822e+00
 1.9328365388e+00	 9.7540381012e-02	 2.8651485154e+00
 1.9319374572e+00	 1.1396857007e-01	 2.8488939012e+00
 1.9308951489e+00	 1.3044168459e-01	 2.8302866450e+00
 1.9297083544e+00	 1.4695813067e-01	 2.8094328996e+00
 1.9283758340e+00	 1.6351628341e-01	 2.7865220318e+00
 1.9441191471e+00	 0.0000000000e+00	 2.8953286556e+00
 1.9440516511e+00	 1.6200439821e-02	 2.8916188866e+00
 1.9438482435e+00	 3.2454955664e-02	 2.8862708366e+00
 1.9435075555e+00	 4.8762135809e-02	 2.8790344217e+00
 1.9430282336e+00	 6.5120536743e-02	 2.8697087824e+00
 1.9424089403e+00	 8.1528683219e-02	 2.8581451897e+00
 1.9416483550e+00	 9.7985068333e-02	 2.8442505705e+00
 1.9407451745e+00	 1.1448815362e-01	 2.8279917208e+00
 1.9396981143e+00	 1.3103636920e-01	 2.8094002759e+00
 1.9385059091e+00	 1.4762811388e-01	 2.7885785095e+00
 1.9371673138e+00	 1.6426175536e-01	 2.7657060375e+00
 1.9529421765e+00	 0.0000000000e+00	 2.8771561167e+00
 1.9528743742e+00	 1.6273962556e-02	 2.8739194781e+00
 1.9526700435e+00	 3.2602246547e-02	 2.8689117134e+00
 1.9523278093e+00	 4.8983433848e-02	 2.8619153170e+00
 1.9518463121e+00	 6.5416074395e-02	 2.8527578371e+00
 1.9512242083e+00	 8.1898686244e-02	 2.8413144773e+00
 1.9504601711e+00	 9.8429755654e-02	 2.8275113184e+00
 1.9495528917e+00	 1.1500773718e-01	 2.8113292307e+00
 1.9485010797e+00	 1.3163105381e-01	 2.7928085470e+00
 1.9473034639e+00	 1.4829809709e-01	 2.7720545714e+00
 1.9459587936e+00	 1.6500722731e-01	 2.7492440014e+00
 1.9617652059e+00	 0.0000000000e+00	 2.8617042805e+00
 1.9616970973e+00	 1.6347485291e-02	 2.8593015080e+00
 1.9614918434e+00	 3.2749537431e-02	 2.8549272609e+00
 1.9611480631e+00	 4.9204731888e-02	 2.8484035797e+00
 1.9606643906e+00	 6.5711612047e-02	 2.8395934133e+00
 1.9600394762e+00	 8.2268689270e-02	 2.8284029001e+00
 1.9592719873e+00	 9.8874442976e-02	 2.8147842704e+00
 1.9583606090e+00	 1.1552732074e-01	 2.7987394407e+00
 1.9573040450e+00	 1.3222573842e-01	 2.7803243723e+00
 1.9561010187e+00	 1.4896808030e-01	 2.7596542725e+00
 1.9547502734e+00	 1.6575269926e-01	 2.7369097156e+00
 1.9705882353e+00	 0.0000000000e+00	 2.8489602757e+00
 1.9705198204e+00	 1.6421008026e-02	 2.8477288585e+00
 1.9703136434e+00	 3.2896828315e-02	 2.8442587278e+00
 1.9699683169e+00	 4.9426029929e-02	 2.8384184036e+00
 1.9694824691e+00	 6.6007149700e-02	 2.8301131937e+00
 1.9688547442e+00	 8.2638692297e-02	 2.8192871398e+00
 1.9680838035e+00	 9.9319130298e-02	 2.8059255834e+00
 1.9671683262e+00	 1.1604690430e-01	 2.7900584253e+00
 1.9661070104e+00	 1.3282042303e-01	 2.7717641527e+00
 1.9648985734e+00	 1.4963806351e-01	 2.7511747140e+00
 1.9635417532e+00	 1.6649817121e-01	 2.7284813209e+00
 1.8756269553e+00	 1.5904345171e-01	 3.0160858818e+00
 1.8741877030e+00	 1.7519036889e-01	 2.9927425388e+00
 1.8726043121e+00	 1.9137457499e-01	 2.9670947498e+00
 1.8708756396e+00	 2.0759435981e-01	 2.9382223453e+00
 1.8690005651e+00	 2.2384798283e-01	 2.9053518077e+00
 1.8669779921e+00	 2.4013367353e-01	 2.8678715031e+00
 1.8648068484e+00	 2.5644963163e-01	 2.8253481865e+00
 1.8624860872e+00	 2.7279402747e-01	 2.7775448440e+00
 1.8600146878e+00	 2.8916500231e-01	 2.7244399324e+00
 1.8573916564e+00	 3.0556066871e-01	 2.6662480773e+00
 1.8546160272e+00	 3.2197911094e-01	 2.6034422871e+00
 1.8844184351e+00	 1.5978892366e-01	 2.9641426151e+00
 1.8829724367e+00	 1.7601152503e-01	 2.9403666386e+00
 1.8813816241e+00	 1.9227159009e-01	 2.9145638092e+00
 1.8796448489e+00	 2.0856740064e-01	 2.8859916873e+00
 1.8777609856e+00	 2.2489720800e-01	 2.8540486636e+00
 1.8757289323e+00	 2.4125923334e-01	 2.8182888239e+00
 1.8735476120e+00	 2.5765166797e-01	 2.7784381045e+00
 1.8712159728e+00	 2.7407267362e-01	 2.7344118050e+00
 1.8687329894e+00	 2.9052038284e-01	 2.6863335229e+00
 1.8660976633e+00	 3.0699289937e-01	 2.6345555714e+00
 1.8633090241e+00	 3.2348829849e-01	 2.5796809437e+00
 1.8932099149e+00	 1.6053439561e-01	 2.9180061824e+00
 1.8917571704e+00	 1.7683268116e-01	 2.8939176962e+00
 1.8901589361e+00	 1.9316860519e-01	 2.8680143254e+00
 1.8884140582e+00	 2.0954044147e-01	 2.8397070876e+00
 1.8865214060e+00	 2.2594643317e-01	 2.8085419940e+00
 1.8844798725e+00	 2.4238479316e-01	 2.7742145672e+00
 1.8822883755e+00	 2.5885370430e-01	 2.7365856712e+00
 1.8799458584e+00	 2.7535131976e-01	 2.6956987182e+00
 1.8774512910e+00	 2.9187576338e-01	 2.6517983217e+00
 1.8748036702e+00	 3.0842513004e-01	 2.6053504599e+00
 1.8720020210e+00	 3.2499748604e-01	 2.5570642152e+00
 1.9020013947e+00	 1.6127986756e-01	 2.8774226527e+00
 1.9005419041e+00	 1.7765383730e-01	 2.8531233454e+00
 1.8989362481e+00	 1.9406562030e-01	 2.8271630617e+00
 1.8971832676e+00	 2.1051348230e-01	 2.7990824002e+00
 1.8952818264e+00	 2.2699565834e-01	 2.7685510969e+00
 1.8932308127e+00	 2.4351035298e-01	 2.7353822207e+00
 1.8910291390e+00	 2.6005574064e-01	 2.6995476983e+00
 1.8886757441e+00	 2.7662996591e-01	 2.6611952387e+00
 1.8861695926e+00	 2.9323114392e-01	 2.6206667283e+00
 1.8835096771e+00	 3.0985736070e-01	 2.5785181646e+00
 1.8806950179e+00	 3.2650667358e-01	 2.5355411961e+00
 1.9107928745e+00	 1.6202533951e-01	 2.8421429194e+00
 1.9093266378e+00	 1.7847499343e-01	 2.8177164841e+00
 1.9077135601e+00	 1.9496263540e-01	 2.7917323669e+00
 1.9059524769e+00	 2.1148652314e-01	 2.7638372596e+00
 1.9040422468e+00	 2.2804488351e-01	 2.7338011169e+00
 1.9019817528e+00	 2.4463591280e-01	 2.7015310489e+00
 1.8997699026e+00	 2.6125777697e-01	 2.6670865635e+00
 1.8974056297e+00	 2.7790861205e-01	 2.6306962306e+00
 1.8948878943e+00	 2.9458652446e-01	 2.5927758430e+00
 1.8922156840e+00	 3.1128959137e-01	 2.5539481440e+00
 1.8893880148e+00	 3.2801586113e-01	 2.5150641918e+00
 1.9195843543e+00	 1.6277081146e-01	 2.8119226154e+00
 1.9181113715e+00	 1.7929614957e-01	 2.7874351817e+00
 1.9164908721e+00	 1.9585965050e-01	 2.7614500751e+00
 1.9147216862e+00	 2.1245956397e-01	 2.7336969784e+00
 1.9128026673e+00	 2.2909410868e-01	 2.7040229413e+00
 1.9107326930e+00	 2.4576147262e-01	 2.6724059910e+00
 1.9085106661e+00	 2.6245981331e-01	 2.6389701135e+00
 1.9061355153e+00	 2.7918725820e-01	 2.6040016792e+00
 1.9036061959e+00	 2.9594190500e-01	 2.5679673920e+00
 1.9009216909e+00	 3.1272182203e-01	 2.5315338341e+00
 1.8980810117e+00	 3.2952504868e-01	 2.4955886800e+00
 1.9283758340e+00	 1.6351628341e-01	 2.7865220318e+00
 1.9268961052e+00	 1.8011730570e-01	 2.7620225880e+00
 1.9252681841e+00	 1.9675666560e-01	 2.7360494091e+00
 1.9234908955e+00	 2.1343260480e-01	 2.7083924458e+00
 1.9215630877e+00	 2.3014333386e-01	 2.6789530976e+00
 1.9194836332e+00	 2.4688703243e-01	 2.6477575610e+00
 1.9172514297e+00	 2.6366184964e-01	 2.6149715700e+00
 1.9148654009e+00	 2.8046590435e-01	 2.5809166052e+00
 1.9123244975e+00	 2.9729728554e-01	 2.5460876531e+00
 1.9096276978e+00	 3.1415405270e-01	 2.5111725901e+00
 1.9067740086e+00	 3.3103423623e-01	 2.4770732703e+00
 1.9371673138e+00	 1.6426175536e-01	 2.7657060375e+00
 1.9356808389e+00	 1.8093846184e-01	 2.7412268447e+00
 1.9340454961e+00	 1.9765368070e-01	 2.7152688849e+00
 1.9322601048e+00	 2.1440564563e-01	 2.6876600293e+00
 1.9303235081e+00	 2.3119255903e-01	 2.6583336546e+00
 1.9282345734e+00	 2.4801259225e-01	 2.6273417500e+00
 1.9259921932e+00	 2.6486388598e-01	 2.5948694365e+00
 1.9235952865e+00	 2.8174455049e-01	 2.5612509800e+00
 1.9210427991e+00	 2.9865266608e-01	 2.5269873822e+00
 1.9183337047e+00	 3.1558628337e-01	 2.4927656273e+00
 1.9154670055e+00	 3.3254342378e-01	 2.4594796651e+00
 1.9459587936e+00	 1.6500722731e-01	 2.7492440014e+00
 1.9444655726e+00	 1.8175961797e-01	 2.7248009984e+00
 1.9428228080e+00	 1.9855069580e-01	 2.6988522193e+00
 1.9410293141e+00	 2.1537868647e-01	 2.6712414777e+00
 1.9390839285e+00	 2.3224178420e-01	 2.6419121243e+00
 1.9369855135e+00	 2.4913815207e-01	 2.6109199307e+00
 1.9347329568e+00	 2.6606592231e-01	 2.5784474074e+00
 1.9323251722e+00	 2.8302319664e-01	 2.5448196419e+00
 1.9297611007e+00	 3.0000804662e-01	 2.5105217415e+00
 1.9270397115e+00	 3.1701851403e-01	 2.4762179641e+00
 1.9241600024e+00	 3.3405261133e-01	 2.4427726197e+00
 1.9547502734e+00	 1.6575269926e-01	 2.7369097156e+00
 1.9532503062e+00	 1.8258077411e-01	 2.7125029161e+00
 1.9516001200e+00	 1.9944771090e-01	 2.6865482387e+00
 1.9497985234e+00	 2.1635172730e-01	 2.6588838272e+00
 1.9478443490e+00	 2.3329100937e-01	 2.6294413667e+00
 1.9457364537e+00	 2.5026371189e-01	 2.5982587631e+00
 1.9434737203e+00	 2.6726795865e-01	 2.5654942788e+00
 1.9410550578e+00	 2.8430184279e-01	 2.5314422152e+00
 1.9384794024e+00	 3.0136342716e-01	 2.4965502283e+00
 1.9357457184e+00	 3.1845074470e-01	 2.4614383647e+00
 1.9328529993e+00	 3.3556179888e-01	 2.4269199028e+00
 1.9635417532e+00	 1.6649817121e-01	 2.7284813209e+00
 1.9620350399e+00	 1.8340193024e-01	 2.7040952020e+00
 1.9603774320e+00	 2.0034472601e-01	 2.6781107904e+00
 1.9585677328e+00	 2.1732476813e-01	 2.6503393084e+00
 1.9566047694e+00	 2.3434023454e-01	 2.6206794961e+00
 1.9544873939e+00	 2.5138927171e-01	 2.5891301028e+00
 1.9522144839e+00	 2.6846999499e-01	 2.5558038604e+00
 1.9497849434e+00	 2.8558048894e-01	 2.5209430290e+00
 1.9471977040e+00	 3.0271880770e-01	 2.4849366049e+00
 1.9444517253e+00	 3.1988297537e-01	 2.4483392824e+00
 1.9415459962e+00	 3.3707098643e-01	 2.4118922565e+00
 1.8546160272e+00	 3.2197911094e-01	 2.6034422871e+00
 1.8516873736e+00	 3.3841559011e-01	 2.5326982445e+00
 1.8486043281e+00	 3.5487092882e-01	 2.4548741550e+00
 1.8453660122e+00	 3.7134313460e-01	 2.3750585923e+00
 1.8419715781e+00	 3.8783018861e-01	 2.2965200374e+00
 1.8384202100e+00	 4.0433004622e-01	 2.2209933492e+00
 1.8347111246e+00	 4.2084063749e-01	 2.1489380807e+00
 1.8308435719e+00	 4.3735986779e-01	 2.0807808303e+00
 1.8268168362e+00	 4.5388561839e-01	 2.0168883701e+00
 1.8226302364e+00	 4.7041574706e-01	 1.9575417380e+00
 1.8182831273e+00	 4.8694808875e-01	 1.9029115756e+00
 1.8633090241e+00	 3.2348829849e-01	 2.5796809437e+00
 1.8603666432e+00	 3.4000181909e-01	 2.5185019809e+00
 1.8572691468e+00	 3.5653428762e-01	 2.4476594538e+00
 1.8540156522e+00	 3.7308370228e-01	 2.3680426315e+00
 1.8506053077e+00	 3.8964803478e-01	 2.2825157972e+00
 1.8470372935e+00	 4.0622523088e-01	 2.1988186794e+00
 1.8433108228e+00	 4.2281321096e-01	 2.1193892709e+00
 1.8394251420e+00	 4.3940987056e-01	 2.0448372075e+00
 1.8353795321e+00	 4.5601308101e-01	 1.9757071884e+00
 1.8311733088e+00	 4.7262069006e-01	 1.9124515675e+00
 1.8268058238e+00	 4.8923052251e-01	 1.8554042342e+00
 1.8720020210e+00	 3.2499748604e-01	 2.5570642152e+00
 1.8690459129e+00	 3.4158804806e-01	 2.5038677254e+00
 1.8659339656e+00	 3.5819764642e-01	 2.4424096685e+00
 1.8626652922e+00	 3.7482426996e-01	 2.3735358049e+00
 1.8592390372e+00	 3.9146588094e-01	 2.2995547613e+00
 1.8556543770e+00	 4.0812041554e-01	 2.2207043065e+00
 1.8519105210e+00	 4.2478578442e-01	 2.1364780812e+00
 1.8480067122e+00	 4.4145987332e-01	 2.0522714502e+00
 1.8439422280e+00	 4.5814054363e-01	 1.9744129523e+00
 1.8397163812e+00	 4.7482563307e-01	 1.9035534961e+00
 1.8353285204e+00	 4.9151295627e-01	 1.8402169545e+00
 1.8806950179e+00	 3.2650667358e-01	 2.5355411961e+00
 1.8777251825e+00	 3.4317427704e-01	 2.4887991649e+00
 1.8745987843e+00	 3.5986100522e-01	 2.4349727112e+00
 1.8713149323e+00	 3.7656483765e-01	 2.3749126273e+00
 1.8678727668e+00	 3.9328372711e-01	 2.3109957745e+00
 1.8642714605e+00	 4.1001560020e-01	 2.2432930480e+00
 1.8605102192e+00	 4.2675835788e-01	 2.1713230344e+00
 1.8565882823e+00	 4.4350987608e-01	 2.0946812726e+00
 1.8525049239e+00	 4.6026800626e-01	 2.0130322926e+00
 1.8482594536e+00	 4.7703057607e-01	 1.9310523220e+00
 1.8438512169e+00	 4.9379539003e-01	 1.8575852312e+00
 1.8893880148e+00	 3.2801586113e-01	 2.5150641918e+00
 1.8864044522e+00	 3.4476050601e-01	 2.4733176348e+00
 1.8832636031e+00	 3.6152436402e-01	 2.4254404785e+00
 1.8799645723e+00	 3.7830540533e-01	 2.3723403649e+00
 1.8765064963e+00	 3.9510157327e-01	 2.3164319712e+00
 1.8728885440e+00	 4.1191078486e-01	 2.2576541711e+00
 1.8691099174e+00	 4.2873093135e-01	 2.1955647258e+00
 1.8651698524e+00	 4.4555987884e-01	 2.1297948033e+00
 1.8610676199e+00	 4.6239546888e-01	 2.0600411601e+00
 1.8568025260e+00	 4.7923551908e-01	 1.9860575460e+00
 1.8523739134e+00	 4.9607782379e-01	 1.9076452569e+00
 1.8980810117e+00	 3.2952504868e-01	 2.4955886800e+00
 1.8950837218e+00	 3.4634673499e-01	 2.4574467592e+00
 1.8919284218e+00	 3.6318772282e-01	 2.4139062831e+00
 1.8886142123e+00	 3.8004597302e-01	 2.3659863210e+00
 1.8851402259e+00	 3.9691941944e-01	 2.3161019093e+00
 1.8815056276e+00	 4.1380596952e-01	 2.2640978277e+00
 1.8777096156e+00	 4.3070350481e-01	 2.2095849334e+00
 1.8737514226e+00	 4.4760988161e-01	 2.1522440909e+00
 1.8696303158e+00	 4.6452293151e-01	 2.0918184939e+00
 1.8653455984e+00	 4.8144046208e-01	 2.0281051922e+00
 1.8608966100e+00	 4.9836025755e-01	 1.9609457475e+00
 1.9067740086e+00	 3.3103423623e-01	 2.4770732703e+00
 1.9037629915e+00	 3.4793296396e-01	 2.4412124334e+00
 1.9005932405e+00	 3.6485108162e-01	 2.4004648568e+00
 1.8972638524e+00	 3.8178654070e-01	 2.3560178712e+00
 1.8937739555e+00	 3.9873726560e-01	 2.3102433026e+00
 1.8901227111e+00	 4.1570115418e-01	 2.2629324022e+00
 1.8863093138e+00	 4.3267607828e-01	 2.2137627395e+00
 1.8823329927e+00	 4.4965988437e-01	 2.1624786396e+00
 1.8781930117e+00	 4.6665039413e-01	 2.1088836433e+00
 1.8738886708e+00	 4.8364540509e-01	 2.0528321532e+00
 1.8694193065e+00	 5.0064269131e-01	 1.9942201873e+00
 1.9154670055e+00	 3.3254342378e-01	 2.4594796651e+00
 1.9124422611e+00	 3.4951919294e-01	 2.4246428038e+00
 1.9092580593e+00	 3.6651444042e-01	 2.3852123517e+00
 1.9059134924e+00	 3.8352710838e-01	 2.3426024950e+00
 1.9024076850e+00	 4.0055511177e-01	 2.2990930721e+00
 1.8987397946e+00	 4.1759633884e-01	 2.2544645812e+00
 1.8949090120e+00	 4.3464865175e-01	 2.2084746169e+00
 1.8909145628e+00	 4.5170988714e-01	 2.1609444290e+00
 1.8867557076e+00	 4.6877785675e-01	 2.1117515172e+00
 1.8824317432e+00	 4.8585034809e-01	 2.0608213953e+00
 1.8779420031e+00	 5.0292512507e-01	 2.0081184372e+00
 1.9241600024e+00	 3.3405261133e-01	 2.4427726197e+00
 1.9211215308e+00	 3.5110542191e-01	 2.4077682489e+00
 1.9179228780e+00	 3.6817779922e-01	 2.3682463406e+00
 1.9145631324e+00	 3.8526767607e-01	 2.3259078068e+00
 1.9110414146e+00	 4.0237295794e-01	 2.2828873939e+00
 1.9073568781e+00	 4.1949152350e-01	 2.2389994181e+00
 1.9035087102e+00	 4.3662122521e-01	 2.1940945113e+00
 1.8994961330e+00	 4.5375988990e-01	 2.1480840124e+00
 1.8953184036e+00	 4.7090531938e-01	 2.1009326973e+00
 1.8909748156e+00	 4.8805529110e-01	 2.0526506565e+00
 1.8864646996e+00	 5.0520755883e-01	 2.0032842321e+00
 1.9328529993e+00	 3.3556179888e-01	 2.4269199028e+00
 1.9298008004e+00	 3.5269165089e-01	 2.3906213583e+00
 1.9265876967e+00	 3.6984115802e-01	 2.3496658154e+00
 1.9232127724e+00	 3.8700824375e-01	 2.3061015837e+00
 1.9196751442e+00	 4.0419080410e-01	 2.2618617455e+00
 1.9159739616e+00	 4.2138670816e-01	 2.2168403964e+00
 1.9121084084e+00	 4.3859379868e-01	 2.1709939193e+00
 1.9080777031e+00	 4.5580989266e-01	 2.1243366107e+00
 1.9038810995e+00	 4.7303278200e-01	 2.0769335459e+00
 1.8995178880e+00	 4.9026023410e-01	 2.0288925683e+00
 1.8949873961e+00	 5.0748999259e-01	 1.9803553150e+00
 1.9415459962e+00	 3.3707098643e-01	 2.4118922565e+00
 1.9384800701e+00	 3.5427787987e-01	 2.3732369117e+00
 1.9352525155e+00	 3.7150451682e-01	 2.3295789510e+00
 1.9318624125e+00	 3.8874881144e-01	 2.2833517925e+00
 1.9283088737e+00	 4.0600865027e-01	 2.2362509485e+00
 1.9245910451e+00	 4.2328189282e-01	 2.1882894889e+00
 1.9207081067e+00	 4.4056637214e-01	 2.1395419636e+00
 1.9166592732e+00	 4.5785989543e-01	 2.0901382016e+00
 1.9124437954e+00	 4.7516024463e-01	 2.0402563090e+00
 1.9080609604e+00	 4.9246517711e-01	 1.9901147714e+00
 1.9035100927e+00	 5.0977242635e-01	 1.9399635640e+00
 1.8182831273e+00	 4.8694808875e-01	 1.9029115756e+00
 1.8137749003e+00	 5.0348045650e-01	 1.8491538044e+00
 1.8091049855e+00	 5.2001064282e-01	 1.7928097950e+00
 1.8042728512e+00	 5.3653641979e-01	 1.7343993042e+00
 1.7992780042e+00	 5.5305553956e-01	 1.6742517136e+00
 1.7941199904e+00	 5.6956573515e-01	 1.6124906320e+00
 1.7887983956e+00	 5.8606472121e-01	 1.5490213893e+00
 1.7833128461e+00	 6.0255019490e-01	 1.4835216733e+00
 1.7776630090e+00	 6.1901983667e-01	 1.4154355512e+00
 1.7718485933e+00	 6.3547131114e-01	 1.3439711017e+00
 1.7658693503e+00	 6.5190226803e-01	 1.2681018649e+00
 1.8268058238e+00	 4.8923052251e-01	 1.8554042342e+00
 1.8222764658e+00	 5.0584038114e-01	 1.8007917767e+00
 1.8175846620e+00	 5.2244804811e-01	 1.7450031681e+00
 1.8127298785e+00	 5.3905128506e-01	 1.6883744081e+00
 1.8077116195e+00	 5.5564783361e-01	 1.6310432445e+00
 1.8025294290e+00	 5.7223541615e-01	 1.5729331886e+00
 1.7971828907e+00	 5.8881173662e-01	 1.5137405240e+00
 1.7916716291e+00	 6.0537448139e-01	 1.4529245725e+00
 1.7859953100e+00	 6.2192132001e-01	 1.3897014632e+00
 1.7801536409e+00	 6.3844990620e-01	 1.3230416405e+00
 1.7741463719e+00	 6.5495787863e-01	 1.2516713245e+00
 1.8353285204e+00	 4.9151295627e-01	 1.8402169545e+00
 1.8307780312e+00	 5.0820030577e-01	 1.7807841036e+00
 1.8260643386e+00	 5.2488545340e-01	 1.7216048736e+00
 1.8211869057e+00	 5.4156615033e-01	 1.6629019429e+00
 1.8161452348e+00	 5.5824012766e-01	 1.6046906622e+00
 1.8109388675e+00	 5.7490509715e-01	 1.5467623523e+00
 1.8055673857e+00	 5.9155875203e-01	 1.4886707004e+00
 1.8000304122e+00	 6.0819876787e-01	 1.4297215284e+00
 1.7943276110e+00	 6.2482280336e-01	 1.3689661866e+00
 1.7884586885e+00	 6.4142850126e-01	 1.3051988183e+00
 1.7824233934e+00	 6.5801348923e-01	 1.2369577146e+00
 1.8438512169e+00	 4.9379539003e-01	 1.8575852312e+00
 1.8392795967e+00	 5.1056023041e-01	 1.7893889435e+00
 1.8345440151e+00	 5.2732285868e-01	 1.7228800140e+00
 1.8296439330e+00	 5.4408101560e-01	 1.6582375352e+00
 1.8245788501e+00	 5.6083242171e-01	 1.5954229872e+00
 1.8193483061e+00	 5.7757477815e-01	 1.5341626863e+00
 1.8139518808e+00	 5.9430576744e-01	 1.4739334412e+00
 1.8083891953e+00	 6.1102305435e-01	 1.4139516970e+00
 1.8026599120e+00	 6.2772428671e-01	 1.3531664320e+00
 1.7967637360e+00	 6.4440709632e-01	 1.2902560579e+00
 1.7907004149e+00	 6.6106909983e-01	 1.2236295542e+00
 1.8523739134e+00	 4.9607782379e-01	 1.9076452569e+00
 1.8477811622e+00	 5.1292015504e-01	 1.8268530317e+00
 1.8430236917e+00	 5.2976026397e-01	 1.7490822437e+00
 1.8381009602e+00	 5.4659588087e-01	 1.6746257354e+00
 1.8330124654e+00	 5.6342471576e-01	 1.6034589495e+00
 1.8277577446e+00	 5.8024445915e-01	 1.5353096804e+00
 1.8223363759e+00	 5.9705278285e-01	 1.4696428613e+00
 1.8167479783e+00	 6.1384734083e-01	 1.4056489585e+00
 1.8109922131e+00	 6.3062577006e-01	 1.3422362476e+00
 1.8050687836e+00	 6.4738569138e-01	 1.2780272313e+00
 1.7989774365e+00	 6.6412471043e-01	 1.2113594359e+00
 1.8608966100e+00	 4.9836025755e-01	 1.9609457475e+00
 1.8562827277e+00	 5.1528007968e-01	 1.8864187507e+00
 1.8515033682e+00	 5.3219766926e-01	 1.8004542037e+00
 1.8465579875e+00	 5.4911074614e-01	 1.7123004706e+00
 1.8414460807e+00	 5.6601700981e-01	 1.6290074532e+00
 1.8361671832e+00	 5.8291414015e-01	 1.5503702203e+00
 1.8307208709e+00	 5.9979979826e-01	 1.4759061346e+00
 1.8251067614e+00	 6.1667162732e-01	 1.4048423719e+00
 1.8193245141e+00	 6.3352725341e-01	 1.3361074543e+00
 1.8133738312e+00	 6.5036428644e-01	 1.2683270651e+00
 1.8072544580e+00	 6.6718032103e-01	 1.1998243932e+00
 1.8694193065e+00	 5.0064269131e-01	 1.9942201873e+00
 1.8647842931e+00	 5.1764000431e-01	 1.9293095189e+00
 1.8599830448e+00	 5.3463507454e-01	 1.8540934496e+00
 1.8550150148e+00	 5.5162561141e-01	 1.7681109841e+00
 1.8498796960e+00	 5.6860930386e-01	 1.6722680332e+00
 1.8445766217e+00	 5.8558382115e-01	 1.5795030488e+00
 1.8391053660e+00	 6.0254681367e-01	 1.4928239522e+00
 1.8334655445e+00	 6.1949591380e-01	 1.4115566238e+00
 1.8276568151e+00	 6.3642873675e-01	 1.3347100752e+00
 1.8216788787e+00	 6.5334288150e-01	 1.2609715433e+00
 1.8155314795e+00	 6.7023593163e-01	 1.1887062667e+00
 1.8779420031e+00	 5.0292512507e-01	 2.0081184372e+00
 1.8732858586e+00	 5.1999992895e-01	 1.9501239488e+00
 1.8684627213e+00	 5.3707247983e-01	 1.8830107123e+00
 1.8634720420e+00	 5.5414047668e-01	 1.8063229767e+00
 1.8583133113e+00	 5.7120159791e-01	 1.7196206951e+00
 1.8529860603e+00	 5.8825350215e-01	 1.6224655698e+00
 1.8474898610e+00	 6.0529382908e-01	 1.5204909764e+00
 1.8418243275e+00	 6.2232020028e-01	 1.4258124710e+00
 1.8359891162e+00	 6.3933022010e-01	 1.3379727609e+00
 1.8299839263e+00	 6.5632147656e-01	 1.2557783067e+00
 1.8238085011e+00	 6.7329154224e-01	 1.1776920688e+00
 1.8864646996e+00	 5.0520755883e-01	 2.0032842321e+00
 1.8817874241e+00	 5.2235985359e-01	 1.9495637456e+00
 1.8769423979e+00	 5.3950988512e-01	 1.8878987664e+00
 1.8719290693e+00	 5.5665534195e-01	 1.8178938856e+00
 1.8667469266e+00	 5.7379389196e-01	 1.7391675655e+00
 1.8613954988e+00	 5.9092318315e-01	 1.6513381383e+00
 1.8558743561e+00	 6.0804084449e-01	 1.5540084080e+00
 1.8501831106e+00	 6.2514448676e-01	 1.4476271789e+00
 1.8443214172e+00	 6.4223170345e-01	 1.3458232105e+00
 1.8382889739e+00	 6.5930007162e-01	 1.2525670482e+00
 1.8320855226e+00	 6.7634715284e-01	 1.1664743458e+00
 1.8949873961e+00	 5.0748999259e-01	 1.9803553150e+00
 1.8902889896e+00	 5.2471977822e-01	 1.9283238601e+00
 1.8854220744e+00	 5.4194729040e-01	 1.8694947309e+00
 1.8803860966e+00	 5.5917020722e-01	 1.8035870990e+00
 1.8751805420e+00	 5.7638618601e-01	 1.7303316510e+00
 1.8698049374e+00	 5.9359286415e-01	 1.6494564654e+00
 1.8642588511e+00	 6.1078785990e-01	 1.5606714464e+00
 1.8585418937e+00	 6.2796877325e-01	 1.4636512569e+00
 1.8526537182e+00	 6.4513318680e-01	 1.3580167058e+00
 1.8465940215e+00	 6.6227866668e-01	 1.2511599059e+00
 1.8403625441e+00	 6.7940276344e-01	 1.1547515390e+00
 1.9035100927e+00	 5.0977242635e-01	 1.9399635640e+00
 1.8987905551e+00	 5.2707970286e-01	 1.8870926239e+00
 1.8939017510e+00	 5.4438469569e-01	 1.8285285958e+00
 1.8888431238e+00	 5.6168507249e-01	 1.7641586240e+00
 1.8836141573e+00	 5.7897848006e-01	 1.6938784994e+00
 1.8782143759e+00	 5.9626254515e-01	 1.6175783402e+00
 1.8726433462e+00	 6.1353487531e-01	 1.5351267806e+00
 1.8669006767e+00	 6.3079305973e-01	 1.4463536080e+00
 1.8609860192e+00	 6.4803467015e-01	 1.3510307993e+00
 1.8548990690e+00	 6.6525726174e-01	 1.2488519159e+00
 1.8486395656e+00	 6.8245837404e-01	 1.1422283437e+00
 1.7658693503e+00	 6.5190226803e-01	 1.2681018649e+00
 1.7597240152e+00	 6.6831313035e-01	 1.1889683434e+00
 1.7534134267e+00	 6.8469872359e-01	 1.1090352915e+00
 1.7469374649e+00	 7.0105665617e-01	 1.0288762174e+00
 1.7402960542e+00	 7.1738452531e-01	 9.4884626416e-01
 1.7334891636e+00	 7.3367991799e-01	 8.6910195482e-01
 1.7265168079e+00	 7.4994041202e-01	 7.8866583935e-01
 1.7193790471e+00	 7.6616357699e-01	 7.0331790508e-01
 1.7120759877e+00	 7.8234697537e-01	 6.1310255288e-01
 1.7046077823e+00	 7.9848816357e-01	 5.1852626956e-01
 1.6969746305e+00	 8.1458469296e-01	 4.1998283452e-01
 1.7741463719e+00	 6.5495787863e-01	 1.2516713245e+00
 1.7679722322e+00	 6.7144566231e-01	 1.1762276426e+00
 1.7616320646e+00	 6.8790805846e-01	 1.0989551195e+00
 1.7551257485e+00	 7.0434266430e-01	 1.0205865399e+00
 1.7484532080e+00	 7.2074706578e-01	 9.4161875411e-01
 1.7416144121e+00	 7.3711883859e-01	 8.6233244398e-01
 1.7346093753e+00	 7.5345554916e-01	 7.8110409909e-01
 1.7274381583e+00	 7.6975475570e-01	 6.9457397212e-01
 1.7201008678e+00	 7.8601400927e-01	 6.0330999234e-01
 1.7125976573e+00	 8.0223085480e-01	 5.0789359121e-01
 1.7049287272e+00	 8.1840283220e-01	 4.0878542192e-01
 1.7824233934e+00	 6.5801348923e-01	 1.2369577146e+00
 1.7762204492e+00	 6.7457819426e-01	 1.1643449439e+00
 1.7698507024e+00	 6.9111739332e-01	 1.0892667438e+00
 1.7633140321e+00	 7.0762867243e-01	 1.0125429543e+00
 1.7566103618e+00	 7.2410960625e-01	 9.3474002937e-01
 1.7497396605e+00	 7.4055775918e-01	 8.5619093393e-01
 1.7427019428e+00	 7.5697068630e-01	 7.7442135486e-01
 1.7354972695e+00	 7.7334593442e-01	 6.8729492450e-01
 1.7281257479e+00	 7.8968104316e-01	 5.9553623884e-01
 1.7205875322e+00	 8.0597354602e-01	 4.9973409703e-01
 1.7128828239e+00	 8.2222097143e-01	 4.0034980235e-01
 1.7907004149e+00	 6.6106909983e-01	 1.2236295542e+00
 1.7844686661e+00	 6.7771072622e-01	 1.1528428800e+00
 1.7780693403e+00	 6.9432672819e-01	 1.0793678380e+00
 1.7715023157e+00	 7.1091468055e-01	 1.0040401380e+00
 1.7647675156e+00	 7.2747214673e-01	 9.2742474116e-01
 1.7578649089e+00	 7.4399667978e-01	 8.4973145099e-01
 1.7507945102e+00	 7.6048582344e-01	 7.6779454476e-01
 1.7435563806e+00	 7.7693711313e-01	 6.8064882279e-01
 1.7361506280e+00	 7.9334807706e-01	 5.8896540580e-01
 1.7285774072e+00	 8.0971623725e-01	 4.9327389581e-01
 1.7208369206e+00	 8.2603911066e-01	 3.9397101835e-01
 1.7989774365e+00	 6.6412471043e-01	 1.2113594359e+00
 1.7927168831e+00	 6.8084325817e-01	 1.1412519147e+00
 1.7862879781e+00	 6.9753606306e-01	 1.0686673952e+00
 1.7796905993e+00	 7.1420068868e-01	 9.9438728600e-01
 1.7729246694e+00	 7.3083468720e-01	 9.1890494568e-01
 1.7659901573e+00	 7.4743560037e-01	 8.4204027138e-01
 1.7588870776e+00	 7.6400096058e-01	 7.6041990617e-01
 1.7516154918e+00	 7.8052829185e-01	 6.7382322614e-01
 1.7441755081e+00	 7.9701511095e-01	 5.8280085781e-01
 1.7365672822e+00	 8.1345892847e-01	 4.8775763701e-01
 1.7287910173e+00	 8.2985724989e-01	 3.8896146302e-01
 1.8072544580e+00	 6.6718032103e-01	 1.1998243932e+00
 1.8009651001e+00	 6.8397579012e-01	 1.1291106725e+00
 1.7945066160e+00	 7.0074539792e-01	 1.0565860272e+00
 1.7878788828e+00	 7.1748669681e-01	 9.8290838928e-01
 1.7810818232e+00	 7.3419722767e-01	 9.0843037129e-01
 1.7741154057e+00	 7.5087452097e-01	 8.3236377066e-01
 1.7669796451e+00	 7.6751609772e-01	 7.5151249926e-01
 1.7596746030e+00	 7.8411947056e-01	 6.6602470016e-01
 1.7522003882e+00	 8.0068214485e-01	 5.7626471360e-01
 1.7445571572e+00	 8.1720161970e-01	 4.8244801967e-01
 1.7367451140e+00	 8.3367538912e-01	 3.8465040648e-01
 1.8155314795e+00	 6.7023593163e-01	 1.1887062667e+00
 1.8092133171e+00	 6.8710832208e-01	 1.1159662676e+00
 1.8027252539e+00	 7.0395473279e-01	 1.0425562651e+00
 1.7960671664e+00	 7.2077270493e-01	 9.6894251564e-01
 1.7892389771e+00	 7.3755976815e-01	 8.9526868904e-01
 1.7822406541e+00	 7.5431344156e-01	 8.1996632939e-01
 1.7750722125e+00	 7.7103123486e-01	 7.4030573504e-01
 1.7677337141e+00	 7.8771064928e-01	 6.5647832959e-01
 1.7602252683e+00	 8.0434917874e-01	 5.6859735360e-01
 1.7525470321e+00	 8.2094431093e-01	 4.7662530574e-01
 1.7446992107e+00	 8.3749352836e-01	 3.8038352595e-01
 1.8238085011e+00	 6.7329154224e-01	 1.1776920688e+00
 1.8174615341e+00	 6.9024085403e-01	 1.1013746331e+00
 1.8109438917e+00	 7.0716406766e-01	 1.0260228616e+00
 1.8042554500e+00	 7.2405871306e-01	 9.5184409325e-01
 1.7973961309e+00	 7.4092230862e-01	 8.7870544214e-01
 1.7903659025e+00	 7.5775236216e-01	 8.0412965816e-01
 1.7831647799e+00	 7.7454637200e-01	 7.2605090791e-01
 1.7757928253e+00	 7.9130182799e-01	 6.4442723568e-01
 1.7682501484e+00	 8.0801621264e-01	 5.5905693211e-01
 1.7605369071e+00	 8.2468700215e-01	 4.6958683743e-01
 1.7526533074e+00	 8.4131166759e-01	 3.7552243924e-01
 1.8320855226e+00	 6.7634715284e-01	 1.1664743458e+00
 1.8257097511e+00	 6.9337338599e-01	 1.0849008493e+00
 1.8191625296e+00	 7.1037340252e-01	 1.0064430936e+00
 1.8124437336e+00	 7.2734472119e-01	 9.3098319623e-01
 1.8055532847e+00	 7.4428484909e-01	 8.5795866629e-01
 1.7984911509e+00	 7.6119128276e-01	 7.8415235893e-01
 1.7912573474e+00	 7.7806150914e-01	 7.0801673254e-01
 1.7838519365e+00	 7.9489300671e-01	 6.2913209792e-01
 1.7762750285e+00	 8.1168324653e-01	 5.4691889382e-01
 1.7685267821e+00	 8.2842969338e-01	 4.6064655867e-01
 1.7606074041e+00	 8.4512980682e-01	 3.6944424167e-01
 1.8403625441e+00	 6.7940276344e-01	 1.1547515390e+00
 1.8339579680e+00	 6.9650591794e-01	 1.0661194728e+00
 1.8273811674e+00	 7.1358273739e-01	 9.8328706637e-01
 1.8206320172e+00	 7.3063072931e-01	 9.0574583258e-01
 1.8137104385e+00	 7.4764738957e-01	 8.3231293406e-01
 1.8066163993e+00	 7.6463020335e-01	 7.5934948996e-01
 1.7993499148e+00	 7.8157664628e-01	 6.8548888481e-01
 1.7919110476e+00	 7.9848418542e-01	 6.0987068022e-01
 1.7842999086e+00	 8.1535028043e-01	 5.3147549460e-01
 1.7765166570e+00	 8.3217238461e-01	 4.4913454042e-01
 1.7685615008e+00	 8.4894794605e-01	 3.6154104620e-01
 1.8486395656e+00	 6.8245837404e-01	 1.1422283437e+00
 1.8422061850e+00	 6.9963844990e-01	 1.0446148649e+00
 1.8355998053e+00	 7.1679207226e-01	 9.5603801897e-01
 1.8288203008e+00	 7.3391673744e-01	 8.7553423416e-01
 1.8218675923e+00	 7.5100993004e-01	 8.0114839492e-01
 1.8147416478e+00	 7.6806912395e-01	 7.2905213456e-01
 1.8074424822e+00	 7.8509178342e-01	 6.5776954697e-01
 1.7999701588e+00	 8.0207536413e-01	 5.8593736129e-01
 1.7923247887e+00	 8.1901731432e-01	 5.1203532641e-01
 1.7845065320e+00	 8.3591507583e-01	 4.3439650979e-01
 1.7765155975e+00	 8.5276608528e-01	 3.5121952676e-01
 1.6969746305e+00	 8.1458469296e-01	 4.1998283452e-01
 1.6891781183e+00	 8.3063138694e-01	 3.2423899427e-01
 1.6812172549e+00	 8.4662853067e-01	 2.3673920829e-01
 1.6730923806e+00	 8.6257366750e-01	 1.5580130190e-01
 1.6648038834e+00	 8.7846434017e-01	 7.9670331964e-02
 1.6563521993e+00	 8.9429809199e-01	 6.5375368488e-03
 1.6477378124e+00	 9.1007246793e-01	-6.5439115651e-02
 1.6389612550e+00	 9.2578501584e-01	-1.3811280599e-01
 1.6300231078e+00	 9.4143328755e-01	-2.1332419965e-01
 1.6209239997e+00	 9.5701484010e-01	-2.9287628659e-01
 1.6116646083e+00	 9.7252723688e-01	-3.7850777739e-01
 1.7049287272e+00	 8.1840283220e-01	 4.0878542192e-01
 1.6970956710e+00	 8.3452474059e-01	 3.1282312688e-01
 1.6890974932e+00	 8.5059686648e-01	 2.2544124943e-01
 1.6809345359e+00	 8.6661674170e-01	 1.4489526670e-01
 1.6726071886e+00	 8.8258189749e-01	 6.9365316907e-02
 1.6641158896e+00	 8.9848986561e-01	-3.0244932879e-03
 1.6554611252e+00	 9.1433817956e-01	-7.4185137110e-02
 1.6466434301e+00	 9.3012437566e-01	-1.4604009486e-01
 1.6376633878e+00	 9.4584599429e-01	-2.2050119317e-01
 1.6285216302e+00	 9.6150058104e-01	-2.9944289993e-01
 1.6192188380e+00	 9.7708568786e-01	-3.8467512938e-01
 1.7128828239e+00	 8.2222097143e-01	 4.0034980235e-01
 1.7050132237e+00	 8.3841809423e-01	 3.0427171457e-01
 1.6969777316e+00	 8.5456520229e-01	 2.1697072709e-01
 1.6887766911e+00	 8.7065981591e-01	 1.3667388421e-01
 1.6804104939e+00	 8.8669945480e-01	 6.1529593468e-02
 1.6718795800e+00	 9.0268163924e-01	-1.0372763266e-02
 1.6631844380e+00	 9.1860389118e-01	-8.0981526707e-02
 1.6543256052e+00	 9.3446373548e-01	-1.5225978757e-01
 1.6453036679e+00	 9.5025870104e-01	-2.2616077736e-01
 1.6361192607e+00	 9.6598632197e-01	-3.0460166613e-01
 1.6267730677e+00	 9.8164413885e-01	-3.8943582181e-01
 1.7208369206e+00	 8.2603911066e-01	 3.9397101835e-01
 1.7129307764e+00	 8.4231144788e-01	 2.9795810881e-01
 1.7048579700e+00	 8.5853353810e-01	 2.1077017978e-01
 1.6966188464e+00	 8.7470289011e-01	 1.3063929794e-01
 1.6882137992e+00	 8.9081701212e-01	 5.5714868407e-02
 1.6796432703e+00	 9.0687341286e-01	-1.5916503952e-02
 1.6709077508e+00	 9.2286960280e-01	-8.6209412069e-02
 1.6620077804e+00	 9.3880309530e-01	-1.5713632479e-01
 1.6529439479e+00	 9.5467140778e-01	-2.3066257798e-01
 1.6437168913e+00	 9.7047206291e-01	-3.0871972210e-01
 1.6343272974e+00	 9.8620258983e-01	-3.9317728079e-01
 1.7287910173e+00	 8.2985724989e-01	 3.8896146302e-01
 1.7208483291e+00	 8.4620480153e-01	 2.9327166705e-01
 1.7127382084e+00	 8.6250187391e-01	 2.0629699499e-01
 1.7044610017e+00	 8.7874596432e-01	 1.2630754105e-01
 1.6960171044e+00	 8.9493456943e-01	 5.1485986284e-02
 1.6874069607e+00	 9.1106518648e-01	-2.0052343142e-02
 1.6786310636e+00	 9.2713531443e-01	-9.0237625880e-02
 1.6696899555e+00	 9.4314245513e-01	-1.6102192448e-01
 1.6605842280e+00	 9.5908411453e-01	-2.3435382539e-01
 1.6513145218e+00	 9.7495780385e-01	-3.1215138290e-01
 1.6418815270e+00	 9.9076104082e-01	-3.9627342183e-01
 1.7367451140e+00	 8.3367538912e-01	 3.8465040648e-01
 1.7287658818e+00	 8.5009815518e-01	 2.8961730072e-01
 1.7206184467e+00	 8.6647020972e-01	 2.0302297511e-01
 1.7123031570e+00	 8.8278903852e-01	 1.2320811618e-01
 1.7038204097e+00	 8.9905212675e-01	 4.8420519050e-02
 1.6951706510e+00	 9.1525696011e-01	-2.3164710438e-02
 1.6863543764e+00	 9.3140102605e-01	-9.3423109682e-02
 1.6773721306e+00	 9.4748181495e-01	-1.6425698932e-01
 1.6682245080e+00	 9.6349682127e-01	-2.3756977034e-01
 1.6589121523e+00	 9.7944354479e-01	-3.1523857091e-01
 1.6494357567e+00	 9.9531949180e-01	-3.9908509746e-01
 1.7446992107e+00	 8.3749352836e-01	 3.8038352595e-01
 1.7366834345e+00	 8.5399150883e-01	 2.8641502609e-01
 1.7284986851e+00	 8.7043854553e-01	 2.0043390530e-01
 1.7201453123e+00	 8.8683211273e-01	 1.2088357665e-01
 1.7116237150e+00	 9.0316968406e-01	 4.6108356672e-02
 1.7029343414e+00	 9.1944873373e-01	-2.5626241428e-02
 1.6940776892e+00	 9.3566673768e-01	-9.6111317188e-02
 1.6850543058e+00	 9.5182117477e-01	-1.6717051358e-01
 1.6758647881e+00	 9.6790952801e-01	-2.4063409923e-01
 1.6665097828e+00	 9.8392928573e-01	-3.1831124424e-01
 1.6569899864e+00	 9.9987794279e-01	-4.0196054384e-01
 1.7526533074e+00	 8.4131166759e-01	 3.7552243924e-01
 1.7446009872e+00	 8.5788486247e-01	 2.8309951770e-01
 1.7363789235e+00	 8.7440688134e-01	 1.9802912350e-01
 1.7279874676e+00	 8.9087518693e-01	 1.1888910922e-01
 1.7194270202e+00	 9.0728724138e-01	 4.4151298768e-02
 1.7106980317e+00	 9.2364050735e-01	-2.7798181174e-02
 1.7018010020e+00	 9.3993244930e-01	-9.8636617106e-02
 1.6927364809e+00	 9.5616053459e-01	-1.7008048969e-01
 1.6835050681e+00	 9.7232223476e-01	-2.4385934884e-01
 1.6741074133e+00	 9.8841502667e-01	-3.2168782443e-01
 1.6645442161e+00	 1.0044363938e+00	-4.0523582630e-01
 1.7606074041e+00	 8.4512980682e-01	 3.6944424167e-01
 1.7525185399e+00	 8.6177821612e-01	 2.7911966454e-01
 1.7442591619e+00	 8.7837521715e-01	 1.9532109232e-01
 1.7358296229e+00	 8.9491826114e-01	 1.1679211826e-01
 1.7272303255e+00	 9.1140479869e-01	 4.2162647218e-02
 1.7184617220e+00	 9.2783228098e-01	-3.0030787048e-02
 1.7095243148e+00	 9.4419816092e-01	-1.0132269549e-01
 1.7004186560e+00	 9.6049989442e-01	-1.7329431435e-01
 1.6911453482e+00	 9.7673494150e-01	-2.4754732068e-01
 1.6817050438e+00	 9.9290076761e-01	-3.2567562349e-01
 1.6720984458e+00	 1.0089948448e+00	-4.0923528376e-01
 1.7685615008e+00	 8.4894794605e-01	 3.6154104620e-01
 1.7604360926e+00	 8.6567156977e-01	 2.7393812862e-01
 1.7521394003e+00	 8.8234355296e-01	 1.9183497286e-01
 1.7436717782e+00	 8.9896133535e-01	 1.1417181119e-01
 1.7350336307e+00	 9.1552235600e-01	 3.9766799717e-02
 1.7262254124e+00	 9.3202405460e-01	-3.2663730920e-02
 1.7172476276e+00	 9.4846387255e-01	-1.0448295765e-01
 1.7081008311e+00	 9.6483925424e-01	-1.7710919427e-01
 1.6987856282e+00	 9.8114764825e-01	-2.5198949477e-01
 1.6893026743e+00	 9.9738650855e-01	-3.3057127028e-01
 1.6796526755e+00	 1.0135532957e+00	-4.1427197232e-01
 1.7765155975e+00	 8.5276608528e-01	 3.5121952676e-01
 1.7683536454e+00	 8.6956492342e-01	 2.6703090610e-01
 1.7600196386e+00	 8.8631188877e-01	 1.8710820034e-01
 1.7515139334e+00	 9.0300440955e-01	 1.1061878535e-01
 1.7428369360e+00	 9.1963991332e-01	 3.6598844254e-02
 1.7339891027e+00	 9.3621582822e-01	-3.6026500734e-02
 1.7249709404e+00	 9.5272958417e-01	-1.0842092959e-01
 1.7157830063e+00	 9.6917861406e-01	-1.8181255151e-01
 1.7064259082e+00	 9.8556035499e-01	-2.5746744308e-01
 1.6969003048e+00	 1.0018722495e+00	-3.3666113621e-01
 1.6872069052e+00	 1.0181117467e+00	-4.2064810772e-01
 1.6116646083e+00	 9.7252723688e-01	-3.7850777739e-01
 1.6022456596e+00	 9.8796804913e-01	-4.6675513205e-01
 1.5926679297e+00	 1.0033348581e+00	-5.5307567063e-01
 1.5829322433e+00	 1.0186252552e+00	-6.3738403076e-01
 1.5730394731e+00	 1.0338368432e+00	-7.1938331480e-01
 1.5629905397e+00	 1.0489672371e+00	-7.9853404499e-01
 1.5527864116e+00	 1.0640140653e+00	-8.7402227431e-01
 1.5424281048e+00	 1.0789749711e+00	-9.4472697813e-01
 1.5319166823e+00	 1.0938476136e+00	-1.0091868613e+00
 1.5212532544e+00	 1.1086296691e+00	-1.0655667245e+00
 1.5104389779e+00	 1.1233188320e+00	-1.1120252390e+00
 1.6192188380e+00	 9.7708568786e-01	-3.8467512938e-01
 1.6097557406e+00	 9.9259887463e-01	-4.7263753588e-01
 1.6001331178e+00	 1.0080377112e+00	-5.5863504891e-01
 1.5903517980e+00	 1.0233997779e+00	-6.4257354699e-01
 1.5804126582e+00	 1.0386826659e+00	-7.2415223033e-01
 1.5703166233e+00	 1.0538839793e+00	-8.0283194200e-01
 1.5600646662e+00	 1.0690013353e+00	-8.7780259684e-01
 1.5496578076e+00	 1.0840323662e+00	-9.4794984508e-01
 1.5390971158e+00	 1.0989747202e+00	-1.0118211079e+00
 1.5283837060e+00	 1.1138260624e+00	-1.0675957141e+00
 1.5175187406e+00	 1.1285840766e+00	-1.1135252126e+00
 1.6267730677e+00	 9.8164413885e-01	-3.8943582181e-01
 1.6172658216e+00	 9.9722970013e-01	-4.7703307084e-01
 1.6075983058e+00	 1.0127405644e+00	-5.6260730173e-01
 1.5977713528e+00	 1.0281743005e+00	-6.4607995771e-01
 1.5877858433e+00	 1.0435284887e+00	-7.2717025162e-01
 1.5776427068e+00	 1.0588007215e+00	-8.0536280771e-01
 1.5673429207e+00	 1.0739886054e+00	-8.7987436213e-01
 1.5568875104e+00	 1.0890897614e+00	-9.4961965139e-01
 1.5462775492e+00	 1.1041018267e+00	-1.0131766286e+00
 1.5355141577e+00	 1.1190224557e+00	-1.0687315639e+00
 1.5245985033e+00	 1.1338493213e+00	-1.1144606137e+00
 1.6343272974e+00	 9.8620258983e-01	-3.9317728079e-01
 1.6247759026e+00	 1.0018605256e+00	-4.8035189585e-01
 1.6150634939e+00	 1.0174434175e+00	-5.6541694677e-01
 1.6051909075e+00	 1.0329488231e+00	-6.4833349852e-01
 1.5951590284e+00	 1.0483743114e+00	-7.2886443537e-01
 1.5849687903e+00	 1.0637174638e+00	-8.0654137791e-01
 1.5746211752e+00	 1.0789758754e+00	-8.8063060880e-01
 1.5641172133e+00	 1.0941471565e+00	-9.5009813924e-01
 1.5534579827e+00	 1.1092289332e+00	-1.0135740581e+00
 1.5426446093e+00	 1.1242188490e+00	-1.0691105667e+00
 1.5316782660e+00	 1.1391145659e+00	-1.1149022208e+00
 1.6418815270e+00	 9.9076104082e-01	-3.9627342183e-01
 1.6322859836e+00	 1.0064913511e+00	-4.8298989818e-01
 1.6225286819e+00	 1.0221462707e+00	-5.6747359597e-01
 1.6126104622e+00	 1.0377233457e+00	-6.4974899745e-01
 1.6025322135e+00	 1.0532201341e+00	-7.2964606637e-01
 1.5922948738e+00	 1.0686342060e+00	-8.0676639481e-01
 1.5818994297e+00	 1.0839631455e+00	-8.8044830833e-01
 1.5713469161e+00	 1.0992045516e+00	-9.4973106330e-01
 1.5606384162e+00	 1.1143560397e+00	-1.0132902528e+00
 1.5497750609e+00	 1.1294152423e+00	-1.0688590768e+00
 1.5387580287e+00	 1.1443798106e+00	-1.1149215343e+00
 1.6494357567e+00	 9.9531949180e-01	-3.9908509746e-01
 1.6397960645e+00	 1.0111221766e+00	-4.8532916046e-01
 1.6299938699e+00	 1.0268491238e+00	-5.6917243805e-01
 1.6200300169e+00	 1.0424978684e+00	-6.5072636909e-01
 1.6099053986e+00	 1.0580659568e+00	-7.2991115911e-01
 1.5996209574e+00	 1.0735509482e+00	-8.0642111212e-01
 1.5891776842e+00	 1.0889504155e+00	-8.7968886905e-01
 1.5785766189e+00	 1.1042619468e+00	-9.4884868939e-01
 1.5678188496e+00	 1.1194831462e+00	-1.0124623889e+00
 1.5569055125e+00	 1.1346116356e+00	-1.0681033038e+00
 1.5458377914e+00	 1.1496450553e+00	-1.1145907466e+00
 1.6569899864e+00	 9.9987794279e-01	-4.0196054384e-01
 1.6473061455e+00	 1.0157530021e+00	-4.8773842612e-01
 1.6374590580e+00	 1.0315519769e+00	-5.7089471929e-01
 1.6274495716e+00	 1.0472723910e+00	-6.5165110671e-01
 1.6172785837e+00	 1.0629117795e+00	-7.3004095739e-01
 1.6069470409e+00	 1.0784676904e+00	-8.0587379785e-01
 1.5964559387e+00	 1.0939376856e+00	-8.7869863819e-01
 1.5858063218e+00	 1.1093193419e+00	-9.4776629126e-01
 1.5749992831e+00	 1.1246102527e+00	-1.0112533411e+00
 1.5640359641e+00	 1.1398080289e+00	-1.0669692987e+00
 1.5529175541e+00	 1.1549102999e+00	-1.1139827116e+00
 1.6645442161e+00	 1.0044363938e+00	-4.0523582630e-01
 1.6548162265e+00	 1.0203838276e+00	-4.9057356347e-01
 1.6449242460e+00	 1.0362548301e+00	-5.7300822242e-01
 1.6348691263e+00	 1.0520469136e+00	-6.5289477239e-01
 1.6246517688e+00	 1.0677576022e+00	-7.3040243172e-01
 1.6142731244e+00	 1.0833844327e+00	-8.0547823517e-01
 1.6037341932e+00	 1.0989249556e+00	-8.7780940188e-01
 1.5930360246e+00	 1.1143767371e+00	-9.4673167468e-01
 1.5821797165e+00	 1.1297373592e+00	-1.0098318503e+00
 1.5711664157e+00	 1.1450044221e+00	-1.0655829389e+00
 1.5599973168e+00	 1.1601755446e+00	-1.1131709148e+00
 1.6720984458e+00	 1.0089948448e+00	-4.0923528376e-01
 1.6623263075e+00	 1.0250146531e+00	-4.9417802836e-01
 1.6523894341e+00	 1.0409576832e+00	-5.7586774395e-01
 1.6422886811e+00	 1.0568214363e+00	-6.5481548527e-01
 1.6320249539e+00	 1.0726034250e+00	-7.3134877480e-01
 1.6215992079e+00	 1.0883011749e+00	-8.0557422112e-01
 1.6110124477e+00	 1.1039122257e+00	-8.7733888323e-01
 1.6002657274e+00	 1.1194341322e+00	-9.4581083190e-01
 1.5893601500e+00	 1.1348644658e+00	-1.0083658600e+00
 1.5782968673e+00	 1.1502008154e+00	-1.0640699123e+00
 1.5670770795e+00	 1.1654407892e+00	-1.1122294413e+00
 1.6796526755e+00	 1.0135532957e+00	-4.1427197232e-01
 1.6698363885e+00	 1.0296454786e+00	-4.9888332543e-01
 1.6598546221e+00	 1.0456605364e+00	-5.7981556977e-01
 1.6497082358e+00	 1.0615959589e+00	-6.5775840796e-01
 1.6393981391e+00	 1.0774492477e+00	-7.3321989505e-01
 1.6289252915e+00	 1.0932179171e+00	-8.0648806349e-01
 1.6182907023e+00	 1.1088994957e+00	-8.7759123854e-01
 1.6074954302e+00	 1.1244915273e+00	-9.4518962682e-01
 1.5965405835e+00	 1.1399915723e+00	-1.0070225114e+00
 1.5854273189e+00	 1.1553972087e+00	-1.0625557005e+00
 1.5741568421e+00	 1.1707060339e+00	-1.1112329448e+00
 1.6872069052e+00	 1.0181117467e+00	-4.2064810772e-01
 1.6773464695e+00	 1.0342763041e+00	-5.0500946811e-01
 1.6673198101e+00	 1.0503633895e+00	-5.8518194921e-01
 1.6571277905e+00	 1.0663704815e+00	-6.6205623121e-01
 1.6467713242e+00	 1.0822950704e+00	-7.3634290824e-01
 1.6362513750e+00	 1.0981346594e+00	-8.0853307572e-01
 1.6255689568e+00	 1.1138867658e+00	-8.7880815920e-01
 1.6147251331e+00	 1.1295489225e+00	-9.4506669271e-01
 1.6037210169e+00	 1.1451186788e+00	-1.0059681348e+00
 1.5925577705e+00	 1.1605936020e+00	-1.0611655604e+00
 1.5812366048e+00	 1.1759712785e+00	-1.1102566150e+00
 1.5104389779e+00	 1.1233188320e+00	-1.1120252390e+00
 1.4994731802e+00	 1.1379152875e+00	-1.1574575437e+00
 1.4883589417e+00	 1.1524142568e+00	-1.2114129248e+00
 1.4770975637e+00	 1.1668134863e+00	-1.2734013190e+00
 1.4656903925e+00	 1.1811107454e+00	-1.3381285577e+00
 1.4541388188e+00	 1.1953038274e+00	-1.4025934916e+00
 1.4424442774e+00	 1.2093905506e+00	-1.4651798336e+00
 1.4306082465e+00	 1.2233687593e+00	-1.5246210907e+00
 1.4186322469e+00	 1.2372363253e+00	-1.5799740069e+00
 1.4065178420e+00	 1.2509911485e+00	-1.6305888975e+00
 1.3942666362e+00	 1.2646311581e+00	-1.6760770699e+00
 1.5175187406e+00	 1.1285840766e+00	-1.1135252126e+00
 1.5065015437e+00	 1.1432489490e+00	-1.1579172195e+00
 1.4953352104e+00	 1.1578158782e+00	-1.2099952002e+00
 1.4840210478e+00	 1.1722826001e+00	-1.2698282660e+00
 1.4725604086e+00	 1.1866468736e+00	-1.3352135012e+00
 1.4609546902e+00	 1.2009064817e+00	-1.4002671711e+00
 1.4492053338e+00	 1.2150592325e+00	-1.4631752240e+00
 1.4373138248e+00	 1.2291029602e+00	-1.5226470935e+00
 1.4252816911e+00	 1.2430355266e+00	-1.5777267141e+00
 1.4131105032e+00	 1.2568548217e+00	-1.6277618799e+00
 1.4008018734e+00	 1.2705587650e+00	-1.6723705902e+00
 1.5245985033e+00	 1.1338493213e+00	-1.1144606137e+00
 1.5135299073e+00	 1.1485826105e+00	-1.1582321934e+00
 1.5023114790e+00	 1.1632174995e+00	-1.2088904182e+00
 1.4909445319e+00	 1.1777517138e+00	-1.2665785301e+00
 1.4794304248e+00	 1.1921830018e+00	-1.3312245197e+00
 1.4677705615e+00	 1.2065091360e+00	-1.3974703757e+00
 1.4559663903e+00	 1.2207279144e+00	-1.4612575491e+00
 1.4440194031e+00	 1.2348371611e+00	-1.5212501198e+00
 1.4319311353e+00	 1.2488347278e+00	-1.5764589734e+00
 1.4197031645e+00	 1.2627184948e+00	-1.6262101879e+00
 1.4073371105e+00	 1.2764863719e+00	-1.6701103071e+00
 1.5316782660e+00	 1.1391145659e+00	-1.1149022208e+00
 1.5205582709e+00	 1.1539162720e+00	-1.1584151298e+00
 1.5092877477e+00	 1.1686191209e+00	-1.2080589987e+00
 1.4978680160e+00	 1.1832208276e+00	-1.2640301876e+00
 1.4863004409e+00	 1.1977191300e+00	-1.3264264525e+00
 1.4745864329e+00	 1.2121117903e+00	-1.3937721408e+00
 1.4627274467e+00	 1.2263965963e+00	-1.4589869491e+00
 1.4507249815e+00	 1.2405713619e+00	-1.5199873223e+00
 1.4385805794e+00	 1.2546339290e+00	-1.5757311739e+00
 1.4262958258e+00	 1.2685821679e+00	-1.6255039958e+00
 1.4138723476e+00	 1.2824139788e+00	-1.6688830585e+00
 1.5387580287e+00	 1.1443798106e+00	-1.1149215343e+00
 1.5275866344e+00	 1.1592499335e+00	-1.1584803208e+00
 1.5162640164e+00	 1.1740207423e+00	-1.2074637949e+00
 1.5047915001e+00	 1.1886899413e+00	-1.2621007124e+00
 1.4931704571e+00	 1.2032552581e+00	-1.3225181366e+00
 1.4814023042e+00	 1.2177144446e+00	-1.3887493806e+00
 1.4694885032e+00	 1.2320652782e+00	-1.4559317012e+00
 1.4574305598e+00	 1.2463055628e+00	-1.5184240574e+00
 1.4452300236e+00	 1.2604331303e+00	-1.5751117809e+00
 1.4328884870e+00	 1.2744458411e+00	-1.6252212274e+00
 1.4204075848e+00	 1.2883415856e+00	-1.6682829041e+00
 1.5458377914e+00	 1.1496450553e+00	-1.1145907466e+00
 1.5346149980e+00	 1.1645835949e+00	-1.1584436386e+00
 1.5232402850e+00	 1.1794223636e+00	-1.2070700310e+00
 1.5117149841e+00	 1.1941590551e+00	-1.2607106364e+00
 1.5000404732e+00	 1.2087913863e+00	-1.3195017221e+00
 1.4882181756e+00	 1.2233170989e+00	-1.3834835840e+00
 1.4762495596e+00	 1.2377339601e+00	-1.4516689053e+00
 1.4641361381e+00	 1.2520397637e+00	-1.5161345615e+00
 1.4518794678e+00	 1.2662323315e+00	-1.5741780041e+00
 1.4394811483e+00	 1.2803095142e+00	-1.6249482200e+00
 1.4269428219e+00	 1.2942691925e+00	-1.6679117870e+00
 1.5529175541e+00	 1.1549102999e+00	-1.1139827116e+00
 1.5416433616e+00	 1.1699172564e+00	-1.1583224887e+00
 1.5302165537e+00	 1.1848239850e+00	-1.2068452405e+00
 1.5186384682e+00	 1.1996281688e+00	-1.2597834759e+00
 1.5069104894e+00	 1.2143275145e+00	-1.3172628348e+00
 1.4950340469e+00	 1.2289197532e+00	-1.3793109021e+00
 1.4830106161e+00	 1.2434026420e+00	-1.4458667854e+00
 1.4708417165e+00	 1.2577739645e+00	-1.5127026283e+00
 1.4585289119e+00	 1.2720315327e+00	-1.5725164679e+00
 1.4460738096e+00	 1.2861731873e+00	-1.6242803894e+00
 1.4334780591e+00	 1.3001967994e+00	-1.6673801971e+00
 1.5599973168e+00	 1.1601755446e+00	-1.1131709148e+00
 1.5486717251e+00	 1.1752509179e+00	-1.1581357624e+00
 1.5371928223e+00	 1.1902256064e+00	-1.2067592045e+00
 1.5255619523e+00	 1.2050972826e+00	-1.2592456582e+00
 1.5137805055e+00	 1.2198636427e+00	-1.3156905711e+00
 1.5018499183e+00	 1.2345224075e+00	-1.3760896131e+00
 1.4897716725e+00	 1.2490713239e+00	-1.4403486587e+00
 1.4775472948e+00	 1.2635081654e+00	-1.5077222887e+00
 1.4651783561e+00	 1.2778307339e+00	-1.5697238838e+00
 1.4526664708e+00	 1.2920368605e+00	-1.6228228980e+00
 1.4400132962e+00	 1.3061244063e+00	-1.6663078363e+00
 1.5670770795e+00	 1.1654407892e+00	-1.1122294413e+00
 1.5557000887e+00	 1.1805845794e+00	-1.1579037894e+00
 1.5441690910e+00	 1.1956272277e+00	-1.2067838910e+00
 1.5324854364e+00	 1.2105663963e+00	-1.2590264505e+00
 1.5206505216e+00	 1.2253997709e+00	-1.3146774180e+00
 1.5086657896e+00	 1.2401250618e+00	-1.3736815991e+00
 1.4965327289e+00	 1.2547400058e+00	-1.4358930804e+00
 1.4842528732e+00	 1.2692423663e+00	-1.5010863861e+00
 1.4718278003e+00	 1.2836299352e+00	-1.5654077246e+00
 1.4592591321e+00	 1.2979005336e+00	-1.6201913236e+00
 1.4465485334e+00	 1.3120520132e+00	-1.6643242849e+00
 1.5741568421e+00	 1.1707060339e+00	-1.1112329448e+00
 1.5627284523e+00	 1.1859182409e+00	-1.1576482910e+00
 1.5511453597e+00	 1.2010288491e+00	-1.2068933947e+00
 1.5394089205e+00	 1.2160355101e+00	-1.2590578881e+00
 1.5275205378e+00	 1.2309358990e+00	-1.3141191738e+00
 1.5154816610e+00	 1.2457277162e+00	-1.3719524926e+00
 1.5032937854e+00	 1.2604086877e+00	-1.4323418298e+00
 1.4909584515e+00	 1.2749765672e+00	-1.4949915779e+00
 1.4784772445e+00	 1.2894291364e+00	-1.5591869005e+00
 1.4658517934e+00	 1.3037642067e+00	-1.6160123307e+00
 1.4530837705e+00	 1.3179796201e+00	-1.6610696706e+00
 1.5812366048e+00	 1.1759712785e+00	-1.1102566150e+00
 1.5697568158e+00	 1.1912519024e+00	-1.1573923328e+00
 1.5581216283e+00	 1.2064304705e+00	-1.2070638772e+00
 1.5463324046e+00	 1.2215046238e+00	-1.2592747045e+00
 1.5343905539e+00	 1.2364720272e+00	-1.3139148701e+00
 1.5222975323e+00	 1.2513303705e+00	-1.3707715921e+00
 1.5100548418e+00	 1.2660773696e+00	-1.4295406793e+00
 1.4976640298e+00	 1.2807107680e+00	-1.4898387375e+00
 1.4851266886e+00	 1.2952283376e+00	-1.5512160621e+00
 1.4724444546e+00	 1.3096278799e+00	-1.6099243431e+00
 1.4596190077e+00	 1.3239072270e+00	-1.6561953381e+00
 1.3942666362e+00	 1.2646311581e+00	-1.6760770699e+00
 1.3818823883e+00	 1.2781520287e+00	-1.7162429068e+00
 1.3693646936e+00	 1.2915540990e+00	-1.7512512728e+00
 1.3567152540e+00	 1.3048354155e+00	-1.7815497382e+00
 1.3439358099e+00	 1.3179940577e+00	-1.8077422885e+00
 1.3310281395e+00	 1.3310281395e+00	-1.8305458286e+00
 1.3179940577e+00	 1.3439358099e+00	-1.8507452449e+00
 1.3048354155e+00	 1.3567152540e+00	-1.8691473300e+00
 1.2915540990e+00	 1.3693646936e+00	-1.8865338812e+00
 1.2781520287e+00	 1.3818823883e+00	-1.9036142921e+00
 1.2646311581e+00	 1.3942666362e+00	-1.9209779638e+00
 1.4008018734e+00	 1.2705587650e+00	-1.6723705902e+00
 1.3883595777e+00	 1.2841430109e+00	-1.7116687354e+00
 1.3757832098e+00	 1.2976078997e+00	-1.7460663492e+00
 1.3630744795e+00	 1.3109514686e+00	-1.7759303257e+00
 1.3502351353e+00	 1.3241717883e+00	-1.8017901702e+00
 1.3372669638e+00	 1.3372669638e+00	-1.8242932028e+00
 1.3241717883e+00	 1.3502351353e+00	-1.8441582646e+00
 1.3109514686e+00	 1.3630744795e+00	-1.8621282404e+00
 1.2976078997e+00	 1.3757832098e+00	-1.8789217177e+00
 1.2841430109e+00	 1.3883595777e+00	-1.8951841128e+00
 1.2705587650e+00	 1.4008018734e+00	-1.9114385976e+00
 1.4073371105e+00	 1.2764863719e+00	-1.6701103071e+00
 1.3948367671e+00	 1.2901339931e+00	-1.7085870596e+00
 1.3822017260e+00	 1.3036617004e+00	-1.7423247009e+00
 1.3694337049e+00	 1.3170675218e+00	-1.7716355505e+00
 1.3565344607e+00	 1.3303495190e+00	-1.7970012607e+00
 1.3435057880e+00	 1.3435057880e+00	-1.8190266461e+00
 1.3303495190e+00	 1.3565344607e+00	-1.8383919596e+00
 1.3170675218e+00	 1.3694337049e+00	-1.8558039360e+00
 1.3036617004e+00	 1.3822017260e+00	-1.8719459353e+00
 1.2901339931e+00	 1.3948367671e+00	-1.8874275222e+00
 1.2764863719e+00	 1.4073371105e+00	-1.9027338295e+00
 1.4138723476e+00	 1.2824139788e+00	-1.6688830585e+00
 1.4013139566e+00	 1.2961249753e+00	-1.7066059160e+00
 1.3886202422e+00	 1.3097155011e+00	-1.7396573805e+00
 1.3757929304e+00	 1.3231835750e+00	-1.7683210683e+00
 1.3628337861e+00	 1.3365272496e+00	-1.7930571816e+00
 1.3497446123e+00	 1.3497446123e+00	-1.8144548918e+00
 1.3365272496e+00	 1.3628337861e+00	-1.8331831090e+00
 1.3231835750e+00	 1.3757929304e+00	-1.8499399708e+00
 1.3097155011e+00	 1.3886202422e+00	-1.8654013892e+00
 1.2961249753e+00	 1.4013139566e+00	-1.8801690062e+00
 1.2824139788e+00	 1.4138723476e+00	-1.8947179115e+00
 1.4204075848e+00	 1.2883415856e+00	-1.6682829041e+00
 1.4077911460e+00	 1.3021159575e+00	-1.7053398804e+00
 1.3950387584e+00	 1.3157693018e+00	-1.7377011963e+00
 1.3821521559e+00	 1.3292996281e+00	-1.7656474136e+00
 1.3691331115e+00	 1.3427049802e+00	-1.7896434729e+00
 1.3559834366e+00	 1.3559834366e+00	-1.8102895555e+00
 1.3427049802e+00	 1.3691331115e+00	-1.8282702724e+00
 1.3292996281e+00	 1.3821521559e+00	-1.8443025191e+00
 1.3157693018e+00	 1.3950387584e+00	-1.8590823479e+00
 1.3021159575e+00	 1.4077911460e+00	-1.8732312180e+00
 1.2883415856e+00	 1.4204075848e+00	-1.8872419875e+00
 1.4269428219e+00	 1.2942691925e+00	-1.6679117870e+00
 1.4142683354e+00	 1.3081069397e+00	-1.7044107290e+00
 1.4014572746e+00	 1.3218231025e+00	-1.7360993732e+00
 1.3885113814e+00	 1.3354156813e+00	-1.7632806620e+00
 1.3754324369e+00	 1.3488827109e+00	-1.7864502556e+00
 1.3622222609e+00	 1.3622222609e+00	-1.8062457995e+00
 1.3488827109e+00	 1.3754324369e+00	-1.8233944549e+00
 1.3354156813e+00	 1.3885113814e+00	-1.8386590426e+00
 1.3218231025e+00	 1.4014572746e+00	-1.8527831605e+00
 1.3081069397e+00	 1.4142683354e+00	-1.8664356462e+00
 1.2942691925e+00	 1.4269428219e+00	-1.8801547621e+00
 1.4334780591e+00	 1.3001967994e+00	-1.6673801971e+00
 1.4207455248e+00	 1.3140979220e+00	-1.7034481009e+00
 1.4078757908e+00	 1.3278769032e+00	-1.7345022156e+00
 1.3948706069e+00	 1.3415317345e+00	-1.7608930931e+00
 1.3817317623e+00	 1.3550604415e+00	-1.7831728961e+00
 1.3684610851e+00	 1.3684610851e+00	-1.8020429970e+00
 1.3550604415e+00	 1.3817317623e+00	-1.8182997724e+00
 1.3415317345e+00	 1.3948706069e+00	-1.8327789566e+00
 1.3278769032e+00	 1.4078757908e+00	-1.8462989238e+00
 1.3140979220e+00	 1.4207455248e+00	-1.8596032822e+00
 1.3001967994e+00	 1.4334780591e+00	-1.8733031676e+00
 1.4400132962e+00	 1.3061244063e+00	-1.6663078363e+00
 1.4272227143e+00	 1.3200889042e+00	-1.7020901630e+00
 1.4142943071e+00	 1.3339307039e+00	-1.7325677717e+00
 1.4012298324e+00	 1.3476477876e+00	-1.7581638544e+00
 1.3880310877e+00	 1.3612381722e+00	-1.7795126700e+00
 1.3746999094e+00	 1.3746999094e+00	-1.7974053973e+00
 1.3612381722e+00	 1.3880310877e+00	-1.8127341172e+00
 1.3476477876e+00	 1.4012298324e+00	-1.8264342953e+00
 1.3339307039e+00	 1.4142943071e+00	-1.8394261483e+00
 1.3200889042e+00	 1.4272227143e+00	-1.8525552858e+00
 1.3061244063e+00	 1.4400132962e+00	-1.8665330299e+00
 1.4465485334e+00	 1.3120520132e+00	-1.6643242849e+00
 1.4336999037e+00	 1.3260798864e+00	-1.6999842755e+00
 1.4207128233e+00	 1.3399845045e+00	-1.7299624984e+00
 1.4075890578e+00	 1.3537638408e+00	-1.7547796272e+00
 1.3943304130e+00	 1.3674159028e+00	-1.7751774278e+00
 1.3809387337e+00	 1.3809387337e+00	-1.7920627910e+00
 1.3674159028e+00	 1.3943304130e+00	-1.8064498233e+00
 1.3537638408e+00	 1.4075890578e+00	-1.8194003782e+00
 1.3399845045e+00	 1.4207128233e+00	-1.8319634239e+00
 1.3260798864e+00	 1.4336999037e+00	-1.8451136514e+00
 1.3120520132e+00	 1.4465485334e+00	-1.8596897332e+00
 1.4530837705e+00	 1.3179796201e+00	-1.6610696706e+00
 1.4401770931e+00	 1.3320708686e+00	-1.6967876591e+00
 1.4271313395e+00	 1.3460383052e+00	-1.7263619283e+00
 1.4139482833e+00	 1.3598798940e+00	-1.7504352917e+00
 1.4006297384e+00	 1.3735936335e+00	-1.7698822603e+00
 1.3871775580e+00	 1.3871775580e+00	-1.7857511761e+00
 1.3735936335e+00	 1.4006297384e+00	-1.7992043326e+00
 1.3598798940e+00	 1.4139482833e+00	-1.8114564749e+00
 1.3460383052e+00	 1.4271313395e+00	-1.8237120852e+00
 1.3320708686e+00	 1.4401770931e+00	-1.8371018716e+00
 1.3179796201e+00	 1.4530837705e+00	-1.8526188832e+00
 1.4596190077e+00	 1.3239072270e+00	-1.6561953381e+00
 1.4466542826e+00	 1.3380618508e+00	-1.6921680640e+00
 1.4335498557e+00	 1.3520921059e+00	-1.7214513368e+00
 1.4203075088e+00	 1.3659959471e+00	-1.7448345949e+00
 1.4069290638e+00	 1.3797713641e+00	-1.7633501656e+00
 1.3934163822e+00	 1.3934163822e+00	-1.7782134233e+00
 1.3797713641e+00	 1.4069290638e+00	-1.7907608601e+00
 1.3659959471e+00	 1.4203075088e+00	-1.8023864709e+00
 1.3520921059e+00	 1.4335498557e+00	-1.8144768753e+00
 1.3380618508e+00	 1.4466542826e+00	-1.8283456011e+00
 1.3239072270e+00	 1.4596190077e+00	-1.8451669691e+00
 1.2646311581e+00	 1.3942666362e+00	-1.9209779638e+00
 1.2509911485e+00	 1.4065178420e+00	-1.9373611397e+00
 1.2372363253e+00	 1.4186322469e+00	-1.9519603449e+00
 1.2233687593e+00	 1.4306082465e+00	-1.9657790933e+00
 1.2093905506e+00	 1.4424442774e+00	-1.9795613174e+00
 1.1953038274e+00	 1.4541388188e+00	-1.9937461326e+00
 1.1811107454e+00	 1.4656903925e+00	-2.0084243270e+00
 1.1668134863e+00	 1.4770975637e+00	-2.0232968845e+00
 1.1524142568e+00	 1.4883589417e+00	-2.0348470956e+00
 1.1379152875e+00	 1.4994731802e+00	-2.0318937069e+00
 1.1233188320e+00	 1.5104389779e+00	-2.0142404280e+00
 1.2705587650e+00	 1.4008018734e+00	-1.9114385976e+00
 1.2568548217e+00	 1.4131105032e+00	-1.9267016568e+00
 1.2430355266e+00	 1.4252816911e+00	-1.9405942093e+00
 1.2291029602e+00	 1.4373138248e+00	-1.9542635548e+00
 1.2150592325e+00	 1.4492053338e+00	-1.9685920079e+00
 1.2009064817e+00	 1.4609546902e+00	-1.9841498999e+00
 1.1866468736e+00	 1.4725604086e+00	-2.0011503433e+00
 1.1722826001e+00	 1.4840210478e+00	-2.0190118531e+00
 1.1578158782e+00	 1.4953352104e+00	-2.0268432099e+00
 1.1432489490e+00	 1.5065015437e+00	-2.0207011433e+00
 1.1285840766e+00	 1.5175187406e+00	-2.0017632301e+00
 1.2764863719e+00	 1.4073371105e+00	-1.9027338295e+00
 1.2627184948e+00	 1.4197031645e+00	-1.9172004324e+00
 1.2488347278e+00	 1.4319311353e+00	-1.9308756807e+00
 1.2348371611e+00	 1.4440194031e+00	-1.9450244829e+00
 1.2207279144e+00	 1.4559663903e+00	-1.9606403321e+00
 1.2065091360e+00	 1.4677705615e+00	-1.9783965419e+00
 1.1921830018e+00	 1.4794304248e+00	-1.9985992861e+00
 1.1777517138e+00	 1.4909445319e+00	-2.0156132509e+00
 1.1632174995e+00	 1.5023114790e+00	-2.0193368987e+00
 1.1485826105e+00	 1.5135299073e+00	-2.0107203284e+00
 1.1338493213e+00	 1.5245985033e+00	-1.9911086925e+00
 1.2824139788e+00	 1.4138723476e+00	-1.8947179115e+00
 1.2685821679e+00	 1.4262958258e+00	-1.9087355560e+00
 1.2546339290e+00	 1.4385805794e+00	-1.9226951803e+00
 1.2405713619e+00	 1.4507249815e+00	-1.9379536829e+00
 1.2263965963e+00	 1.4627274467e+00	-1.9555890972e+00
 1.2121117903e+00	 1.4745864329e+00	-1.9763500580e+00
 1.1977191300e+00	 1.4863004409e+00	-1.9991427305e+00
 1.1832208276e+00	 1.4978680160e+00	-2.0116173908e+00
 1.1686191209e+00	 1.5092877477e+00	-2.0119556803e+00
 1.1539162720e+00	 1.5205582709e+00	-2.0015071961e+00
 1.1391145659e+00	 1.5316782660e+00	-1.9817524724e+00
 1.2883415856e+00	 1.4204075848e+00	-1.8872419875e+00
 1.2744458411e+00	 1.4328884870e+00	-1.9011808223e+00
 1.2604331303e+00	 1.4452300236e+00	-1.9159378450e+00
 1.2463055628e+00	 1.4574305598e+00	-1.9329368791e+00
 1.2320652782e+00	 1.4694885032e+00	-1.9533144223e+00
 1.2177144446e+00	 1.4814023042e+00	-1.9778673367e+00
 1.2032552581e+00	 1.4931704571e+00	-1.9983496809e+00
 1.1886899413e+00	 1.5047915001e+00	-2.0067370201e+00
 1.1740207423e+00	 1.5162640164e+00	-2.0043507471e+00
 1.1592499335e+00	 1.5275866344e+00	-1.9926424147e+00
 1.1443798106e+00	 1.5387580287e+00	-1.9731961787e+00
 1.2942691925e+00	 1.4269428219e+00	-1.8801547621e+00
 1.2803095142e+00	 1.4394811483e+00	-1.8944063974e+00
 1.2662323315e+00	 1.4518794678e+00	-1.9104841852e+00
 1.2520397637e+00	 1.4641361381e+00	-1.9298543601e+00
 1.2377339601e+00	 1.4762495596e+00	-1.9536863650e+00
 1.2233170989e+00	 1.4882181756e+00	-1.9799036428e+00
 1.2087913863e+00	 1.5000404732e+00	-1.9957402329e+00
 1.1941590551e+00	 1.5117149841e+00	-2.0007071287e+00
 1.1794223636e+00	 1.5232402850e+00	-1.9961964162e+00
 1.1645835949e+00	 1.5346149980e+00	-1.9837308232e+00
 1.1496450553e+00	 1.5458377914e+00	-1.9649667922e+00
 1.3001967994e+00	 1.4334780591e+00	-1.8733031676e+00
 1.2861731873e+00	 1.4460738096e+00	-1.8882794825e+00
 1.2720315327e+00	 1.4585289119e+00	-1.9062107411e+00
 1.2577739645e+00	 1.4708417165e+00	-1.9285816217e+00
 1.2434026420e+00	 1.4830106161e+00	-1.9564214953e+00
 1.2289197532e+00	 1.4950340469e+00	-1.9792692691e+00
 1.2143275145e+00	 1.5069104894e+00	-1.9911218236e+00
 1.1996281688e+00	 1.5186384682e+00	-1.9932844082e+00
 1.1848239850e+00	 1.5302165537e+00	-1.9871895789e+00
 1.1699172564e+00	 1.5416433616e+00	-1.9744008684e+00
 1.1549102999e+00	 1.5529175541e+00	-1.9566160872e+00
 1.3061244063e+00	 1.4400132962e+00	-1.8665330299e+00
 1.2920368605e+00	 1.4526664708e+00	-1.8826649770e+00
 1.2778307339e+00	 1.4651783561e+00	-1.9029907372e+00
 1.2635081654e+00	 1.4775472948e+00	-1.9289900077e+00
 1.2490713239e+00	 1.4897716725e+00	-1.9574600104e+00
 1.2345224075e+00	 1.5018499183e+00	-1.9758324239e+00
 1.2198636427e+00	 1.5137805055e+00	-1.9843223547e+00
 1.2050972826e+00	 1.5255619523e+00	-1.9842467106e+00
 1.1902256064e+00	 1.5371928223e+00	-1.9770491504e+00
 1.1752509179e+00	 1.5486717251e+00	-1.9643040426e+00
 1.1601755446e+00	 1.5599973168e+00	-1.9477200532e+00
 1.3120520132e+00	 1.4465485334e+00	-1.8596897332e+00
 1.2979005336e+00	 1.4592591321e+00	-1.8774261395e+00
 1.2836299352e+00	 1.4718278003e+00	-1.9006947347e+00
 1.2692423663e+00	 1.4842528732e+00	-1.9304673686e+00
 1.2547400058e+00	 1.4965327289e+00	-1.9549668526e+00
 1.2401250618e+00	 1.5086657896e+00	-1.9694811839e+00
 1.2253997709e+00	 1.5206505216e+00	-1.9751896551e+00
 1.2105663963e+00	 1.5324854364e+00	-1.9733925061e+00
 1.1956272277e+00	 1.5441690910e+00	-1.9655155186e+00
 1.1805845794e+00	 1.5557000887e+00	-1.9531143208e+00
 1.1654407892e+00	 1.5670770795e+00	-1.9378783189e+00
 1.3179796201e+00	 1.4530837705e+00	-1.8526188832e+00
 1.3037642067e+00	 1.4658517934e+00	-1.8724252473e+00
 1.2894291364e+00	 1.4784772445e+00	-1.8991912824e+00
 1.2749765672e+00	 1.4909584515e+00	-1.9287246805e+00
 1.2604086877e+00	 1.5032937854e+00	-1.9488793882e+00
 1.2457277162e+00	 1.5154816610e+00	-1.9601224992e+00
 1.2309358990e+00	 1.5275205378e+00	-1.9635909432e+00
 1.2160355101e+00	 1.5394089205e+00	-1.9605403400e+00
 1.2010288491e+00	 1.5511453597e+00	-1.9523499938e+00
 1.1859182409e+00	 1.5627284523e+00	-1.9405275992e+00
 1.1707060339e+00	 1.5741568421e+00	-1.9267135758e+00
 1.3239072270e+00	 1.4596190077e+00	-1.8451669691e+00
 1.3096278799e+00	 1.4724444546e+00	-1.8675242543e+00
 1.2952283376e+00	 1.4851266886e+00	-1.8975408564e+00
 1.2807107680e+00	 1.4976640298e+00	-1.9227585786e+00
 1.2660773696e+00	 1.5100548418e+00	-1.9391529799e+00
 1.2513303705e+00	 1.5222975323e+00	-1.9476816558e+00
 1.2364720272e+00	 1.5343905539e+00	-1.9494122875e+00
 1.2215046238e+00	 1.5463324046e+00	-1.9455282891e+00
 1.2064304705e+00	 1.5581216283e+00	-1.9373342566e+00
 1.1912519024e+00	 1.5697568158e+00	-1.9262611335e+00
 1.1759712785e+00	 1.5812366048e+00	-1.9138710042e+00
 1.1233188320e+00	 1.5104389779e+00	-2.0142404280e+00
 1.1086296691e+00	 1.5212532544e+00	-1.9866746022e+00
 1.0938476136e+00	 1.5319166823e+00	-1.9601661393e+00
 1.0789749711e+00	 1.5424281048e+00	-1.9373196396e+00
 1.0640140653e+00	 1.5527864116e+00	-1.9166741784e+00
 1.0489672371e+00	 1.5629905397e+00	-1.8971283684e+00
 1.0338368432e+00	 1.5730394731e+00	-1.8779103103e+00
 1.0186252552e+00	 1.5829322433e+00	-1.8585472715e+00
 1.0033348581e+00	 1.5926679297e+00	-1.8388352778e+00
 9.8796804913e-01	 1.6022456596e+00	-1.8188087936e+00
 9.7252723688e-01	 1.6116646083e+00	-1.7987106623e+00
 1.1285840766e+00	 1.5175187406e+00	-2.0017632301e+00
 1.1138260624e+00	 1.5283837060e+00	-1.9743776866e+00
 1.0989747202e+00	 1.5390971158e+00	-1.9452724489e+00
 1.0840323662e+00	 1.5496578076e+00	-1.9207193945e+00
 1.0690013353e+00	 1.5600646662e+00	-1.8992831479e+00
 1.0538839793e+00	 1.5703166233e+00	-1.8796815899e+00
 1.0386826659e+00	 1.5804126582e+00	-1.8609637436e+00
 1.0233997779e+00	 1.5903517980e+00	-1.8424787930e+00
 1.0080377112e+00	 1.6001331178e+00	-1.8238450282e+00
 9.9259887463e-01	 1.6097557406e+00	-1.8049189014e+00
 9.7708568786e-01	 1.6192188380e+00	-1.7857643663e+00
 1.1338493213e+00	 1.5245985033e+00	-1.9911086925e+00
 1.1190224557e+00	 1.5355141577e+00	-1.9645209451e+00
 1.1041018267e+00	 1.5462775492e+00	-1.9344599175e+00
 1.0890897614e+00	 1.5568875104e+00	-1.9083395467e+00
 1.0739886054e+00	 1.5673429207e+00	-1.8860870040e+00
 1.0588007215e+00	 1.5776427068e+00	-1.8662668416e+00
 1.0435284887e+00	 1.5877858433e+00	-1.8477776389e+00
 1.0281743005e+00	 1.5977713528e+00	-1.8298202909e+00
 1.0127405644e+00	 1.6075983058e+00	-1.8118662399e+00
 9.9722970013e-01	 1.6172658216e+00	-1.7936258354e+00
 9.8164413885e-01	 1.6267730677e+00	-1.7750170046e+00
 1.1391145659e+00	 1.5316782660e+00	-1.9817524724e+00
 1.1242188490e+00	 1.5426446093e+00	-1.9563274154e+00
 1.1092289332e+00	 1.5534579827e+00	-1.9269807493e+00
 1.0941471565e+00	 1.5641172133e+00	-1.8994032756e+00
 1.0789758754e+00	 1.5746211752e+00	-1.8762953528e+00
 1.0637174638e+00	 1.5849687903e+00	-1.8560953432e+00
 1.0483743114e+00	 1.5951590284e+00	-1.8375797394e+00
 1.0329488231e+00	 1.6051909075e+00	-1.8198306544e+00
 1.0174434175e+00	 1.6150634939e+00	-1.8022032699e+00
 1.0018605256e+00	 1.6247759026e+00	-1.7842934326e+00
 9.8620258983e-01	 1.6343272974e+00	-1.7659055831e+00
 1.1443798106e+00	 1.5387580287e+00	-1.9731961787e+00
 1.1294152423e+00	 1.5497750609e+00	-1.9492236538e+00
 1.1143560397e+00	 1.5606384162e+00	-1.9218401460e+00
 1.0992045516e+00	 1.5713469161e+00	-1.8931556719e+00
 1.0839631455e+00	 1.5818994297e+00	-1.8691393683e+00
 1.0686342060e+00	 1.5922948738e+00	-1.8483992431e+00
 1.0532201341e+00	 1.6025322135e+00	-1.8296177908e+00
 1.0377233457e+00	 1.6126104622e+00	-1.8117875705e+00
 1.0221462707e+00	 1.6225286819e+00	-1.7941778008e+00
 1.0064913511e+00	 1.6322859836e+00	-1.7763011222e+00
 9.9076104082e-01	 1.6418815270e+00	-1.7578807158e+00
 1.1496450553e+00	 1.5458377914e+00	-1.9649667922e+00
 1.1346116356e+00	 1.5569055125e+00	-1.9426627130e+00
 1.1194831462e+00	 1.5678188496e+00	-1.9173994323e+00
 1.1042619468e+00	 1.5785766189e+00	-1.8888638128e+00
 1.0889504155e+00	 1.5891776842e+00	-1.8638718551e+00
 1.0735509482e+00	 1.5996209574e+00	-1.8424316756e+00
 1.0580659568e+00	 1.6099053986e+00	-1.8231596004e+00
 1.0424978684e+00	 1.6200300169e+00	-1.8049875918e+00
 1.0268491238e+00	 1.6299938699e+00	-1.7871289210e+00
 1.0111221766e+00	 1.6397960645e+00	-1.7690440264e+00
 9.9531949180e-01	 1.6494357567e+00	-1.7504067520e+00
 1.1549102999e+00	 1.5529175541e+00	-1.9566160872e+00
 1.1398080289e+00	 1.5640359641e+00	-1.9361235495e+00
 1.1246102527e+00	 1.5749992831e+00	-1.9129883163e+00
 1.1093193419e+00	 1.5858063218e+00	-1.8858168390e+00
 1.0939376856e+00	 1.5964559387e+00	-1.8597673142e+00
 1.0784676904e+00	 1.6069470409e+00	-1.8374668220e+00
 1.0629117795e+00	 1.6172785837e+00	-1.8174930987e+00
 1.0472723910e+00	 1.6274495716e+00	-1.7987462053e+00
 1.0315519769e+00	 1.6374590580e+00	-1.7804132080e+00
 1.0157530021e+00	 1.6473061455e+00	-1.7619330627e+00
 9.9987794279e-01	 1.6569899864e+00	-1.7429619036e+00
 1.1601755446e+00	 1.5599973168e+00	-1.9477200532e+00
 1.1450044221e+00	 1.5711664157e+00	-1.9291104337e+00
 1.1297373592e+00	 1.5821797165e+00	-1.9080544765e+00
 1.1143767371e+00	 1.5930360246e+00	-1.8830812972e+00
 1.0989249556e+00	 1.6037341932e+00	-1.8561220107e+00
 1.0833844327e+00	 1.6142731244e+00	-1.8327999729e+00
 1.0677576022e+00	 1.6246517688e+00	-1.8119264031e+00
 1.0520469136e+00	 1.6348691263e+00	-1.7923979028e+00
 1.0362548301e+00	 1.6449242460e+00	-1.7734048111e+00
 1.0203838276e+00	 1.6548162265e+00	-1.7543950460e+00
 1.0044363938e+00	 1.6645442161e+00	-1.7350383712e+00
 1.1654407892e+00	 1.5670770795e+00	-1.9378783189e+00
 1.1502008154e+00	 1.5782968673e+00	-1.9211523601e+00
 1.1348644658e+00	 1.5893601500e+00	-1.9020711245e+00
 1.1194341322e+00	 1.6002657274e+00	-1.8791836039e+00
 1.1039122257e+00	 1.6110124477e+00	-1.8522540450e+00
 1.0883011749e+00	 1.6215992079e+00	-1.8277475939e+00
 1.0726034250e+00	 1.6320249539e+00	-1.8057878842e+00
 1.0568214363e+00	 1.6422886811e+00	-1.7852962540e+00
 1.0409576832e+00	 1.6523894341e+00	-1.7654955376e+00
 1.0250146531e+00	 1.6623263075e+00	-1.7458727915e+00
 1.0089948448e+00	 1.6720984458e+00	-1.7261424708e+00
 1.1707060339e+00	 1.5741568421e+00	-1.9267135758e+00
 1.1553972087e+00	 1.5854273189e+00	-1.9118024602e+00
 1.1399915723e+00	 1.5965405835e+00	-1.8945364121e+00
 1.1244915273e+00	 1.6074954302e+00	-1.8735061710e+00
 1.1088994957e+00	 1.6182907023e+00	-1.8475034251e+00
 1.0932179171e+00	 1.6289252915e+00	-1.8216473931e+00
 1.0774492477e+00	 1.6393981391e+00	-1.7984262335e+00
 1.0615959589e+00	 1.6497082358e+00	-1.7768139808e+00
 1.0456605364e+00	 1.6598546221e+00	-1.7560949380e+00
 1.0296454786e+00	 1.6698363885e+00	-1.7358252183e+00
 1.0135532957e+00	 1.6796526755e+00	-1.7157947599e+00
 1.1759712785e+00	 1.5812366048e+00	-1.9138710042e+00
 1.1605936020e+00	 1.5925577705e+00	-1.9006374169e+00
 1.1451186788e+00	 1.6037210169e+00	-1.8849728406e+00
 1.1295489225e+00	 1.6147251331e+00	-1.8655313136e+00
 1.1138867658e+00	 1.6255689568e+00	-1.8410739641e+00
 1.0981346594e+00	 1.6362513750e+00	-1.8138583912e+00
 1.0822950704e+00	 1.6467713242e+00	-1.7892105344e+00
 1.0663704815e+00	 1.6571277905e+00	-1.7663430333e+00
 1.0503633895e+00	 1.6673198101e+00	-1.7446303938e+00
 1.0342763041e+00	 1.6773464695e+00	-1.7237274534e+00
 1.0181117467e+00	 1.6872069052e+00	-1.7035301632e+00
 9.7252723688e-01	 1.6116646083e+00	-1.7987106623e+00
 9.5701484010e-01	 1.6209239997e+00	-1.7756180724e+00
 9.4143328755e-01	 1.6300231078e+00	-1.7469490069e+00
 9.2578501584e-01	 1.6389612550e+00	-1.7136790570e+00
 9.1007246793e-01	 1.6477378124e+00	-1.6768727075e+00
 8.9429809199e-01	 1.6563521993e+00	-1.6376567991e+00
 8.7846434017e-01	 1.6648038834e+00	-1.5971951108e+00
 8.6257366750e-01	 1.6730923806e+00	-1.5566641760e+00
 8.4662853067e-01	 1.6812172549e+00	-1.5172304232e+00
 8.3063138694e-01	 1.6891781183e+00	-1.4800287328e+00
 8.1458469296e-01	 1.6969746305e+00	-1.4461424792e+00
 9.7708568786e-01	 1.6192188380e+00	-1.7857643663e+00
 9.6150058104e-01	 1.6285216302e+00	-1.7633102246e+00
 9.4584599429e-01	 1.6376633878e+00	-1.7349845621e+00
 9.3012437566e-01	 1.6466434301e+00	-1.7018250188e+00
 9.1433817956e-01	 1.6554611252e+00	-1.6649630389e+00
 8.9848986561e-01	 1.6641158896e+00	-1.6255964820e+00
 8.8258189749e-01	 1.6726071886e+00	-1.5849633954e+00
 8.6661674170e-01	 1.6809345359e+00	-1.5443170571e+00
 8.5059686648e-01	 1.6890974932e+00	-1.5049023902e+00
 8.3452474059e-01	 1.6970956710e+00	-1.4679338365e+00
 8.1840283220e-01	 1.7049287272e+00	-1.4345747648e+00
 9.8164413885e-01	 1.6267730677e+00	-1.7750170046e+00
 9.6598632197e-01	 1.6361192607e+00	-1.7528979963e+00
 9.5025870104e-01	 1.6453036679e+00	-1.7247514671e+00
 9.3446373548e-01	 1.6543256052e+00	-1.6916591296e+00
 9.1860389118e-01	 1.6631844380e+00	-1.6547994817e+00
 9.0268163924e-01	 1.6718795800e+00	-1.6154195976e+00
 8.8669945480e-01	 1.6804104939e+00	-1.5748081219e+00
 8.7065981591e-01	 1.6887766911e+00	-1.5342695781e+00
 8.5456520229e-01	 1.6969777316e+00	-1.4951000950e+00
 8.3841809423e-01	 1.7050132237e+00	-1.4585646409e+00
 8.2222097143e-01	 1.7128828239e+00	-1.4258758436e+00
 9.8620258983e-01	 1.6343272974e+00	-1.7659055831e+00
 9.7047206291e-01	 1.6437168913e+00	-1.7438858668e+00
 9.5467140778e-01	 1.6529439479e+00	-1.7157970790e+00
 9.3880309530e-01	 1.6620077804e+00	-1.6827474340e+00
 9.2286960280e-01	 1.6709077508e+00	-1.6459429949e+00
 9.0687341286e-01	 1.6796432703e+00	-1.6066586749e+00
 8.9081701212e-01	 1.6882137992e+00	-1.5662104851e+00
 8.7470289011e-01	 1.6966188464e+00	-1.5259291451e+00
 8.5853353810e-01	 1.7048579700e+00	-1.4871351601e+00
 8.4231144788e-01	 1.7129307764e+00	-1.4511154585e+00
 8.2603911066e-01	 1.7208369206e+00	-1.4191016684e+00
 9.9076104082e-01	 1.6418815270e+00	-1.7578807158e+00
 9.7495780385e-01	 1.6513145218e+00	-1.7357900485e+00
 9.5908411453e-01	 1.6605842280e+00	-1.7076790731e+00
 9.4314245513e-01	 1.6696899555e+00	-1.6746653351e+00
 9.2713531443e-01	 1.6786310636e+00	-1.6379633868e+00
 9.1106518648e-01	 1.6874069607e+00	-1.5988550278e+00
 8.9493456943e-01	 1.6960171044e+00	-1.5586608395e+00
 8.7874596432e-01	 1.7044610017e+00	-1.5187131316e+00
 8.6250187391e-01	 1.7127382084e+00	-1.4803304102e+00
 8.4620480153e-01	 1.7208483291e+00	-1.4447934585e+00
 8.2985724989e-01	 1.7287910173e+00	-1.4133231157e+00
 9.9531949180e-01	 1.6494357567e+00	-1.7504067520e+00
 9.7944354479e-01	 1.6589121523e+00	-1.7281386381e+00
 9.6349682127e-01	 1.6682245080e+00	-1.6999656078e+00
 9.4748181495e-01	 1.6773721306e+00	-1.6669977628e+00
 9.3140102605e-01	 1.6863543764e+00	-1.6304394761e+00
 9.1525696011e-01	 1.6951706510e+00	-1.5915589002e+00
 8.9905212675e-01	 1.7038204097e+00	-1.5516588182e+00
 8.8278903852e-01	 1.7123031570e+00	-1.5120489628e+00
 8.6647020972e-01	 1.7206184467e+00	-1.4740199112e+00
 8.5009815518e-01	 1.7287658818e+00	-1.4388186518e+00
 8.3367538912e-01	 1.7367451140e+00	-1.4076259079e+00
 9.9987794279e-01	 1.6569899864e+00	-1.7429619036e+00
 9.8392928573e-01	 1.6665097828e+00	-1.7204717666e+00
 9.6790952801e-01	 1.6758647881e+00	-1.6922354871e+00
 9.5182117477e-01	 1.6850543058e+00	-1.6593393394e+00
 9.3566673768e-01	 1.6940776892e+00	-1.6229592521e+00
 9.1944873373e-01	 1.7029343414e+00	-1.5843296093e+00
 9.0316968406e-01	 1.7116237150e+00	-1.5447134513e+00
 8.8683211273e-01	 1.7201453123e+00	-1.5053741983e+00
 8.7043854553e-01	 1.7284986851e+00	-1.4675490098e+00
 8.5399150883e-01	 1.7366834345e+00	-1.4324238782e+00
 8.3749352836e-01	 1.7446992107e+00	-1.4011105400e+00
 1.0044363938e+00	 1.6645442161e+00	-1.7350383712e+00
 9.8841502667e-01	 1.6741074133e+00	-1.7123417480e+00
 9.7232223476e-01	 1.6835050681e+00	-1.6840783219e+00
 9.5616053459e-01	 1.6927364809e+00	-1.6512945442e+00
 9.3993244930e-01	 1.7018010020e+00	-1.6151200314e+00
 9.2364050735e-01	 1.7106980317e+00	-1.5767356875e+00
 9.0728724138e-01	 1.7194270202e+00	-1.5373432824e+00
 8.9087518693e-01	 1.7279874676e+00	-1.4981366151e+00
 8.7440688134e-01	 1.7363789235e+00	-1.4602743741e+00
 8.5788486247e-01	 1.7446009872e+00	-1.4248547959e+00
 8.4131166759e-01	 1.7526533074e+00	-1.3928922086e+00
 1.0089948448e+00	 1.6720984458e+00	-1.7261424708e+00
 9.9290076761e-01	 1.6817050438e+00	-1.7033132270e+00
 9.7673494150e-01	 1.6911453482e+00	-1.6750946896e+00
 9.6049989442e-01	 1.7004186560e+00	-1.6424778750e+00
 9.4419816092e-01	 1.7095243148e+00	-1.6065286141e+00
 9.2783228098e-01	 1.7184617220e+00	-1.5683550220e+00
 9.1140479869e-01	 1.7272303255e+00	-1.5290764842e+00
 8.9491826114e-01	 1.7358296229e+00	-1.4897942908e+00
 8.7837521715e-01	 1.7442591619e+00	-1.4515640341e+00
 8.6177821612e-01	 1.7525185399e+00	-1.4153698721e+00
 8.4512980682e-01	 1.7606074041e+00	-1.3821007450e+00
 1.0135532957e+00	 1.6796526755e+00	-1.7157947599e+00
 9.9738650855e-01	 1.6893026743e+00	-1.6929633253e+00
 9.8114764825e-01	 1.6987856282e+00	-1.6648962923e+00
 9.6483925424e-01	 1.7081008311e+00	-1.6325140091e+00
 9.4846387255e-01	 1.7172476276e+00	-1.5968014374e+00
 9.3202405460e-01	 1.7262254124e+00	-1.5587749939e+00
 9.1552235600e-01	 1.7350336307e+00	-1.5194509732e+00
 8.9896133535e-01	 1.7436717782e+00	-1.4798156850e+00
 8.8234355296e-01	 1.7521394003e+00	-1.4407974238e+00
 8.6567156977e-01	 1.7604360926e+00	-1.4032403761e+00
 8.4894794605e-01	 1.7685615008e+00	-1.3678805514e+00
 1.0181117467e+00	 1.6872069052e+00	-1.7035301632e+00
 1.0018722495e+00	 1.6969003048e+00	-1.6808817880e+00
 9.8556035499e-01	 1.7064259082e+00	-1.6531061130e+00
 9.6917861406e-01	 1.7157830063e+00	-1.6210379614e+00
 9.5272958417e-01	 1.7249709404e+00	-1.5855647276e+00
 9.3621582822e-01	 1.7339891027e+00	-1.5475926149e+00
 9.1963991332e-01	 1.7428369360e+00	-1.5080145236e+00
 9.0300440955e-01	 1.7515139334e+00	-1.4676797218e+00
 8.8631188877e-01	 1.7600196386e+00	-1.4273654232e+00
 8.6956492342e-01	 1.7683536454e+00	-1.3877503737e+00
 8.5276608528e-01	 1.7765155975e+00	-1.3493905400e+00
 8.1458469296e-01	 1.6969746305e+00	-1.4461424792e+00
 7.9848816357e-01	 1.7046077823e+00	-1.4125239770e+00
 7.8234697537e-01	 1.7120759877e+00	-1.3754811396e+00
 7.6616357699e-01	 1.7193790471e+00	-1.3349850318e+00
 7.4994041202e-01	 1.7265168079e+00	-1.2908912063e+00
 7.3367991799e-01	 1.7334891636e+00	-1.2433726691e+00
 7.1738452531e-01	 1.7402960542e+00	-1.1957739912e+00
 7.0105665617e-01	 1.7469374649e+00	-1.1488716363e+00
 6.8469872359e-01	 1.7534134267e+00	-1.1025176093e+00
 6.6831313035e-01	 1.7597240152e+00	-1.0563555818e+00
 6.5190226803e-01	 1.7658693503e+00	-1.0098073233e+00
 8.1840283220e-01	 1.7049287272e+00	-1.4345747648e+00
 8.0223085480e-01	 1.7125976573e+00	-1.4017187264e+00
 7.8601400927e-01	 1.7201008678e+00	-1.3655293121e+00
 7.6975475570e-01	 1.7274381583e+00	-1.3259208988e+00
 7.5345554916e-01	 1.7346093753e+00	-1.2826807121e+00
 7.3711883859e-01	 1.7416144121e+00	-1.2355677985e+00
 7.2074706578e-01	 1.7484532080e+00	-1.1872810874e+00
 7.0434266430e-01	 1.7551257485e+00	-1.1390723928e+00
 6.8790805846e-01	 1.7616320646e+00	-1.0906634161e+00
 6.7144566231e-01	 1.7679722322e+00	-1.0415485661e+00
 6.5495787863e-01	 1.7741463719e+00	-9.9098144075e-01
 8.2222097143e-01	 1.7128828239e+00	-1.4258758436e+00
 8.0597354602e-01	 1.7205875322e+00	-1.3937909431e+00
 7.8968104316e-01	 1.7281257479e+00	-1.3583078908e+00
 7.7334593442e-01	 1.7354972695e+00	-1.3193385939e+00
 7.5697068630e-01	 1.7427019428e+00	-1.2766584785e+00
 7.4055775918e-01	 1.7497396605e+00	-1.2298961511e+00
 7.2410960625e-01	 1.7566103618e+00	-1.1808256920e+00
 7.0762867243e-01	 1.7633140321e+00	-1.1313540266e+00
 6.9111739332e-01	 1.7698507024e+00	-1.0811371326e+00
 6.7457819426e-01	 1.7762204492e+00	-1.0295860488e+00
 6.5801348923e-01	 1.7824233934e+00	-9.7585328972e-01
 8.2603911066e-01	 1.7208369206e+00	-1.4191016684e+00
 8.0971623725e-01	 1.7285774072e+00	-1.3876678075e+00
 7.9334807706e-01	 1.7361506280e+00	-1.3526547093e+00
 7.7693711313e-01	 1.7435563806e+00	-1.3140252165e+00
 7.6048582344e-01	 1.7507945102e+00	-1.2715986424e+00
 7.4399667978e-01	 1.7578649089e+00	-1.2250399774e+00
 7.2747214673e-01	 1.7647675156e+00	-1.1752307424e+00
 7.1091468055e-01	 1.7715023157e+00	-1.1246351936e+00
 6.9432672819e-01	 1.7780693403e+00	-1.0729888670e+00
 6.7771072622e-01	 1.7844686661e+00	-1.0196844035e+00
 6.6106909983e-01	 1.7907004149e+00	-9.6383936622e-01
 8.2985724989e-01	 1.7287910173e+00	-1.4133231157e+00
 8.1345892847e-01	 1.7365672822e+00	-1.3822933406e+00
 7.9701511095e-01	 1.7441755081e+00	-1.3474256614e+00
 7.8052829185e-01	 1.7516154918e+00	-1.3087864642e+00
 7.6400096058e-01	 1.7588870776e+00	-1.2662938107e+00
 7.4743560037e-01	 1.7659901573e+00	-1.2197062568e+00
 7.3083468720e-01	 1.7729246694e+00	-1.1693356858e+00
 7.1420068868e-01	 1.7796905993e+00	-1.1178480164e+00
 6.9753606306e-01	 1.7862879781e+00	-1.0652786005e+00
 6.8084325817e-01	 1.7927168831e+00	-1.0110657532e+00
 6.6412471043e-01	 1.7989774365e+00	-9.5435728057e-01
 8.3367538912e-01	 1.7367451140e+00	-1.4076259079e+00
 8.1720161970e-01	 1.7445571572e+00	-1.3766282682e+00
 8.0068214485e-01	 1.7522003882e+00	-1.3414945229e+00
 7.8411947056e-01	 1.7596746030e+00	-1.3024464284e+00
 7.6751609772e-01	 1.7669796451e+00	-1.2595548462e+00
 7.5087452097e-01	 1.7741154057e+00	-1.2127280641e+00
 7.3419722767e-01	 1.7810818232e+00	-1.1619967629e+00
 7.1748669681e-01	 1.7878788828e+00	-1.1099383800e+00
 7.0074539792e-01	 1.7945066160e+00	-1.0570765107e+00
 6.8397579012e-01	 1.8009651001e+00	-1.0029583342e+00
 6.6718032103e-01	 1.8072544580e+00	-9.4682617719e-01
 8.3749352836e-01	 1.7446992107e+00	-1.4011105400e+00
 8.2094431093e-01	 1.7525470321e+00	-1.3696498898e+00
 8.0434917874e-01	 1.7602252683e+00	-1.3337527797e+00
 7.8771064928e-01	 1.7677337141e+00	-1.2938473966e+00
 7.7103123486e-01	 1.7750722125e+00	-1.2502106605e+00
 7.5431344156e-01	 1.7822406541e+00	-1.2029559358e+00
 7.3755976815e-01	 1.7892389771e+00	-1.1520872967e+00
 7.2077270493e-01	 1.7960671664e+00	-1.0998662321e+00
 7.0395473279e-01	 1.8027252539e+00	-1.0474632972e+00
 6.8710832208e-01	 1.8092133171e+00	-9.9459686239e-01
 6.7023593163e-01	 1.8155314795e+00	-9.4066715356e-01
 8.4131166759e-01	 1.7526533074e+00	-1.3928922086e+00
 8.2468700215e-01	 1.7605369071e+00	-1.3603519520e+00
 8.0801621264e-01	 1.7682501484e+00	-1.3231094607e+00
 7.9130182799e-01	 1.7757928253e+00	-1.2818496617e+00
 7.7454637200e-01	 1.7831647799e+00	-1.2371080125e+00
 7.5775236216e-01	 1.7903659025e+00	-1.1892574951e+00
 7.4092230862e-01	 1.7973961309e+00	-1.1384977068e+00
 7.2405871306e-01	 1.8042554500e+00	-1.0866058890e+00
 7.0716406766e-01	 1.8109438917e+00	-1.0355305112e+00
 6.9024085403e-01	 1.8174615341e+00	-9.8522289987e-01
 6.7329154224e-01	 1.8238085011e+00	-9.3530367865e-01
 8.4512980682e-01	 1.7606074041e+00	-1.3821007450e+00
 8.2842969338e-01	 1.7685267821e+00	-1.3477445271e+00
 8.1168324653e-01	 1.7762750285e+00	-1.3084909778e+00
 7.9489300671e-01	 1.7838519365e+00	-1.2653313366e+00
 7.7806150914e-01	 1.7912573474e+00	-1.2191113144e+00
 7.6119128276e-01	 1.7984911509e+00	-1.1705172613e+00
 7.4428484909e-01	 1.8055532847e+00	-1.1200644898e+00
 7.2734472119e-01	 1.8124437336e+00	-1.0691463445e+00
 7.1037340252e-01	 1.8191625296e+00	-1.0203808880e+00
 6.9337338599e-01	 1.8257097511e+00	-9.7408522395e-01
 6.7634715284e-01	 1.8320855226e+00	-9.3016201049e-01
 8.4894794605e-01	 1.7685615008e+00	-1.3678805514e+00
 8.3217238461e-01	 1.7765166570e+00	-1.3308538962e+00
 8.1535028043e-01	 1.7842999086e+00	-1.2888409703e+00
 7.9848418542e-01	 1.7919110476e+00	-1.2431881754e+00
 7.8157664628e-01	 1.7993499148e+00	-1.1951024429e+00
 7.6463020335e-01	 1.8066163993e+00	-1.1456364664e+00
 7.4764738957e-01	 1.8137104385e+00	-1.0956761496e+00
 7.3063072931e-01	 1.8206320172e+00	-1.0464915840e+00
 7.1358273739e-01	 1.8273811674e+00	-1.0011286824e+00
 6.9650591794e-01	 1.8339579680e+00	-9.6044019688e-01
 6.7940276344e-01	 1.8403625441e+00	-9.2467161321e-01
 8.5276608528e-01	 1.7765155975e+00	-1.3493905400e+00
 8.3591507583e-01	 1.7845065320e+00	-1.3087224367e+00
 8.1901731432e-01	 1.7923247887e+00	-1.2631201549e+00
 8.0207536413e-01	 1.7999701588e+00	-1.2143334004e+00
 7.8509178342e-01	 1.8074424822e+00	-1.1639805571e+00
 7.6806912395e-01	 1.8147416478e+00	-1.1135328767e+00
 7.5100993004e-01	 1.8218675923e+00	-1.0643009448e+00
 7.3391673744e-01	 1.8288203008e+00	-1.0176609030e+00
 7.1679207226e-01	 1.8355998053e+00	-9.7690000684e-01
 6.9963844990e-01	 1.8422061850e+00	-9.4355213707e-01
 6.8245837404e-01	 1.8486395656e+00	-9.1826557339e-01
 6.5190226803e-01	 1.7658693503e+00	-1.0098073233e+00
 6.3547131114e-01	 1.7718485933e+00	-9.6147845198e-01
 6.1901983667e-01	 1.7776630090e+00	-9.1119515425e-01
 6.0255019490e-01	 1.7833128461e+00	-8.5990204935e-01
 5.8606472121e-01	 1.7887983956e+00	-8.0833028206e-01
 5.6956573515e-01	 1.7941199904e+00	-7.5699904836e-01
 5.5305553956e-01	 1.7992780042e+00	-7.0622036707e-01
 5.3653641979e-01	 1.8042728512e+00	-6.5610691977e-01
 5.2001064282e-01	 1.8091049855e+00	-6.0658276545e-01
 5.0348045650e-01	 1.8137749003e+00	-5.5739672282e-01
 4.8694808875e-01	 1.8182831273e+00	-5.0813820154e-01
 6.5495787863e-01	 1.7741463719e+00	-9.9098144075e-01
 6.3844990620e-01	 1.7801536409e+00	-9.3783552903e-01
 6.2192132001e-01	 1.7859953100e+00	-8.8250920507e-01
 6.0537448139e-01	 1.7916716291e+00	-8.2621711927e-01
 5.8881173662e-01	 1.7971828907e+00	-7.6995156205e-01
 5.7223541615e-01	 1.8025294290e+00	-7.1448390118e-01
 5.5564783361e-01	 1.8077116195e+00	-6.6036938787e-01
 5.3905128506e-01	 1.8127298785e+00	-6.0795514817e-01
 5.2244804811e-01	 1.8175846620e+00	-5.5739115985e-01
 5.0584038114e-01	 1.8222764658e+00	-5.0864400094e-01
 4.8923052251e-01	 1.8268058238e+00	-4.6151314387e-01
 6.5801348923e-01	 1.7824233934e+00	-9.7585328972e-01
 6.4142850126e-01	 1.7884586885e+00	-9.1920720265e-01
 6.2482280336e-01	 1.7943276110e+00	-8.6066490549e-01
 6.0819876787e-01	 1.8000304122e+00	-8.0165598851e-01
 5.9155875203e-01	 1.8055673857e+00	-7.4337644930e-01
 5.7490509715e-01	 1.8109388675e+00	-6.8679015598e-01
 5.5824012766e-01	 1.8161452348e+00	-6.3263380622e-01
 5.4156615033e-01	 1.8211869057e+00	-5.8142519192e-01
 5.2488545340e-01	 1.8260643386e+00	-5.3347456349e-01
 5.0820030577e-01	 1.8307780312e+00	-4.8889887263e-01
 4.9151295627e-01	 1.8353285204e+00	-4.4763866006e-01
 6.6106909983e-01	 1.7907004149e+00	-9.6383936622e-01
 6.4440709632e-01	 1.7967637360e+00	-9.0521277080e-01
 6.2772428671e-01	 1.8026599120e+00	-8.4545710195e-01
 6.1102305435e-01	 1.8083891953e+00	-7.8616256809e-01
 5.9430576744e-01	 1.8139518808e+00	-7.2867220017e-01
 5.7757477815e-01	 1.8193483061e+00	-6.7408345497e-01
 5.6083242171e-01	 1.8245788501e+00	-6.2325344468e-01
 5.4408101560e-01	 1.8296439330e+00	-5.7680759670e-01
 5.2732285868e-01	 1.8345440151e+00	-5.3515153021e-01
 5.1056023041e-01	 1.8392795967e+00	-4.9848592103e-01
 4.9379539003e-01	 1.8438512169e+00	-4.6682411340e-01
 6.6412471043e-01	 1.7989774365e+00	-9.5435728057e-01
 6.4738569138e-01	 1.8050687836e+00	-8.9546807526e-01
 6.3062577006e-01	 1.8109922131e+00	-8.3667323020e-01
 6.1384734083e-01	 1.8167479783e+00	-7.7967000559e-01
 5.9705278285e-01	 1.8223363759e+00	-7.2589254220e-01
 5.8024445915e-01	 1.8277577446e+00	-6.7651371804e-01
 5.6342471576e-01	 1.8330124654e+00	-6.3245076636e-01
 5.4659588087e-01	 1.8381009602e+00	-5.9437445177e-01
 5.2976026397e-01	 1.8430236917e+00	-5.6272158383e-01
 5.1292015504e-01	 1.8477811622e+00	-5.3771063181e-01
 4.9607782379e-01	 1.8523739134e+00	-5.1927038283e-01
 6.6718032103e-01	 1.8072544580e+00	-9.4682617719e-01
 6.5036428644e-01	 1.8133738312e+00	-8.8958597777e-01
 6.3352725341e-01	 1.8193245141e+00	-8.3409383602e-01
 6.1667162732e-01	 1.8251067614e+00	-7.8210123930e-01
 5.9979979826e-01	 1.8307208709e+00	-7.3507825040e-01
 5.8291414015e-01	 1.8361671832e+00	-6.9421573084e-01
 5.6601700981e-01	 1.8414460807e+00	-6.6043146446e-01
 5.4911074614e-01	 1.8465579875e+00	-6.3437997097e-01
 5.3219766926e-01	 1.8515033682e+00	-6.1646578116e-01
 5.1528007968e-01	 1.8562827277e+00	-5.9973341583e-01
 4.9836025755e-01	 1.8608966100e+00	-5.7507127608e-01
 6.7023593163e-01	 1.8155314795e+00	-9.4066715356e-01
 6.5334288150e-01	 1.8216788787e+00	-8.8717683323e-01
 6.3642873675e-01	 1.8276568151e+00	-8.3749309124e-01
 6.1949591380e-01	 1.8334655445e+00	-7.9336954589e-01
 6.0254681367e-01	 1.8391053660e+00	-7.5625771615e-01
 5.8558382115e-01	 1.8445766217e+00	-7.2730972443e-01
 5.6860930386e-01	 1.8498796960e+00	-7.0738504273e-01
 5.5162561141e-01	 1.8550150148e+00	-6.9361067569e-01
 5.3463507454e-01	 1.8599830448e+00	-6.7303378685e-01
 5.1764000431e-01	 1.8647842931e+00	-6.4508258957e-01
 5.0064269131e-01	 1.8694193065e+00	-6.1060462616e-01
 6.7329154224e-01	 1.8238085011e+00	-9.3530367865e-01
 6.5632147656e-01	 1.8299839263e+00	-8.8784896002e-01
 6.3933022010e-01	 1.8359891162e+00	-8.4663930508e-01
 6.2232020028e-01	 1.8418243275e+00	-8.1337908209e-01
 6.0529382908e-01	 1.8474898610e+00	-7.8944750876e-01
 5.8825350215e-01	 1.8529860603e+00	-7.7549813453e-01
 5.7120159791e-01	 1.8583133113e+00	-7.5934313870e-01
 5.5414047668e-01	 1.8634720420e+00	-7.3554073434e-01
 5.3707247983e-01	 1.8684627213e+00	-7.0491213481e-01
 5.1999992895e-01	 1.8732858586e+00	-6.6829960371e-01
 5.0292512507e-01	 1.8779420031e+00	-6.2657678394e-01
 6.7634715284e-01	 1.8320855226e+00	-9.3016201049e-01
 6.5930007162e-01	 1.8382889739e+00	-8.9120910764e-01
 6.4223170345e-01	 1.8443214172e+00	-8.6129543099e-01
 6.2514448676e-01	 1.8501831106e+00	-8.4202542041e-01
 6.0804084449e-01	 1.8558743561e+00	-8.2952974691e-01
 5.9092318315e-01	 1.8613954988e+00	-8.1009825079e-01
 5.7379389196e-01	 1.8667469266e+00	-7.8363892353e-01
 5.5665534195e-01	 1.8719290693e+00	-7.5095410724e-01
 5.3950988512e-01	 1.8769423979e+00	-7.1284946052e-01
 5.2235985359e-01	 1.8817874241e+00	-6.7014546905e-01
 5.0520755883e-01	 1.8864646996e+00	-6.2368781632e-01
 6.7940276344e-01	 1.8403625441e+00	-9.2467161321e-01
 6.6227866668e-01	 1.8465940215e+00	-8.9686292166e-01
 6.4513318680e-01	 1.8526537182e+00	-8.8104255667e-01
 6.2796877325e-01	 1.8585418937e+00	-8.6545510754e-01
 6.1078785990e-01	 1.8642588511e+00	-8.4284651512e-01
 5.9359286415e-01	 1.8698049374e+00	-8.1400791782e-01
 5.7638618601e-01	 1.8751805420e+00	-7.7969929746e-01
 5.5917020722e-01	 1.8803860966e+00	-7.4066364173e-01
 5.4194729040e-01	 1.8854220744e+00	-6.9763983841e-01
 5.2471977822e-01	 1.8902889896e+00	-6.5137434423e-01
 5.0748999259e-01	 1.8949873961e+00	-6.0263167942e-01
 6.8245837404e-01	 1.8486395656e+00	-9.1826557339e-01
 6.6525726174e-01	 1.8548990690e+00	-9.0180826299e-01
 6.4803467015e-01	 1.8609860192e+00	-8.8150364018e-01
 6.3079305973e-01	 1.8669006767e+00	-8.5527317987e-01
 6.1353487531e-01	 1.8726433462e+00	-8.2387338215e-01
 5.9626254515e-01	 1.8782143759e+00	-7.8800464591e-01
 5.7897848006e-01	 1.8836141573e+00	-7.4832709601e-01
 5.6168507249e-01	 1.8888431238e+00	-7.0547506530e-01
 5.4438469569e-01	 1.8939017510e+00	-6.6007026791e-01
 5.2707970286e-01	 1.8987905551e+00	-6.1273370907e-01
 5.0977242635e-01	 1.9035100927e+00	-5.6409638445e-01
 4.8694808875e-01	 1.8182831273e+00	-5.0813820154e-01
 4.7041574706e-01	 1.8226302364e+00	-4.6121978038e-01
 4.5388561839e-01	 1.8268168362e+00	-4.1956520484e-01
 4.3735986779e-01	 1.8308435719e+00	-3.8333027729e-01
 4.2084063749e-01	 1.8347111246e+00	-3.5256696237e-01
 4.0433004622e-01	 1.8384202100e+00	-3.2724701364e-01
 3.8783018861e-01	 1.8419715781e+00	-3.0728664070e-01
 3.7134313460e-01	 1.8453660122e+00	-2.9257196487e-01
 3.5487092882e-01	 1.8486043281e+00	-2.8243634268e-01
 3.3841559011e-01	 1.8516873736e+00	-2.7498269769e-01
 3.2197911094e-01	 1.8546160272e+00	-2.6564440364e-01
 4.8923052251e-01	 1.8268058238e+00	-4.6151314387e-01
 4.7262069006e-01	 1.8311733088e+00	-4.1843317871e-01
 4.5601308101e-01	 1.8353795321e+00	-3.8207522414e-01
 4.3940987056e-01	 1.8394251420e+00	-3.5238368392e-01
 4.2281321096e-01	 1.8433108228e+00	-3.2919475763e-01
 4.0622523088e-01	 1.8470372935e+00	-3.1226140466e-01
 3.8964803478e-01	 1.8506053077e+00	-3.0127938548e-01
 3.7308370228e-01	 1.8540156522e+00	-2.9411335775e-01
 3.5653428762e-01	 1.8572691468e+00	-2.8400097559e-01
 3.4000181909e-01	 1.8603666432e+00	-2.6975840753e-01
 3.2348829849e-01	 1.8633090241e+00	-2.5103363192e-01
 4.9151295627e-01	 1.8353285204e+00	-4.4763866006e-01
 4.7482563307e-01	 1.8397163812e+00	-4.1206212735e-01
 4.5814054363e-01	 1.8439422280e+00	-3.8453009989e-01
 4.4145987332e-01	 1.8480067122e+00	-3.6475118936e-01
 4.2478578442e-01	 1.8519105210e+00	-3.5232073947e-01
 4.0812041554e-01	 1.8556543770e+00	-3.4112129286e-01
 3.9146588094e-01	 1.8592390372e+00	-3.2602049767e-01
 3.7482426996e-01	 1.8626652922e+00	-3.0785451282e-01
 3.5819764642e-01	 1.8659339656e+00	-2.8730566880e-01
 3.4158804806e-01	 1.8690459129e+00	-2.6400650878e-01
 3.2499748604e-01	 1.8720020210e+00	-2.3765611509e-01
 4.9379539003e-01	 1.8438512169e+00	-4.6682411340e-01
 4.7703057607e-01	 1.8482594536e+00	-4.4238881253e-01
 4.6026800626e-01	 1.8525049239e+00	-4.2703302139e-01
 4.4350987608e-01	 1.8565882823e+00	-4.1200492447e-01
 4.2675835788e-01	 1.8605102192e+00	-3.9283381488e-01
 4.1001560020e-01	 1.8642714605e+00	-3.7014171275e-01
 3.9328372711e-01	 1.8678727668e+00	-3.4462206374e-01
 3.7656483765e-01	 1.8713149323e+00	-3.1704572598e-01
 3.5986100522e-01	 1.8745987843e+00	-2.8812207489e-01
 3.4317427704e-01	 1.8777251825e+00	-2.5764245235e-01
 3.2650667358e-01	 1.8806950179e+00	-2.2534589129e-01
 4.9607782379e-01	 1.8523739134e+00	-5.1927038283e-01
 4.7923551908e-01	 1.8568025260e+00	-5.0045124946e-01
 4.6239546888e-01	 1.8610676199e+00	-4.7769070323e-01
 4.4555987884e-01	 1.8651698524e+00	-4.5141488575e-01
 4.2873093135e-01	 1.8691099174e+00	-4.2210645427e-01
 4.1191078486e-01	 1.8728885440e+00	-3.9031170478e-01
 3.9510157327e-01	 1.8765064963e+00	-3.5664702689e-01
 3.7830540533e-01	 1.8799645723e+00	-3.2180475542e-01
 3.6152436402e-01	 1.8832636031e+00	-2.8647791237e-01
 3.4476050601e-01	 1.8864044522e+00	-2.5059975386e-01
 3.2801586113e-01	 1.8893880148e+00	-2.1394101260e-01
 4.9836025755e-01	 1.8608966100e+00	-5.7507127608e-01
 4.8144046208e-01	 1.8653455984e+00	-5.4520910863e-01
 4.6452293151e-01	 1.8696303158e+00	-5.1259614933e-01
 4.4760988161e-01	 1.8737514226e+00	-4.7757243916e-01
 4.3070350481e-01	 1.8777096156e+00	-4.4053335274e-01
 4.1380596952e-01	 1.8815056276e+00	-4.0193662917e-01
 3.9691941944e-01	 1.8851402259e+00	-3.6230871459e-01
 3.8004597302e-01	 1.8886142123e+00	-3.2225048447e-01
 3.6318772282e-01	 1.8919284218e+00	-2.8240243183e-01
 3.4634673499e-01	 1.8950837218e+00	-2.4281466048e-01
 3.2952504868e-01	 1.8980810117e+00	-2.0328353514e-01
 5.0064269131e-01	 1.8694193065e+00	-6.1060462616e-01
 4.8364540509e-01	 1.8738886708e+00	-5.7227254368e-01
 4.6665039413e-01	 1.8781930117e+00	-5.3230885338e-01
 4.4965988437e-01	 1.8823329927e+00	-4.9095505930e-01
 4.3267607828e-01	 1.8863093138e+00	-4.4850675329e-01
 4.1570115418e-01	 1.8901227111e+00	-4.0532056075e-01
 3.9873726560e-01	 1.8937739555e+00	-3.6182037734e-01
 3.8178654070e-01	 1.8972638524e+00	-3.1850296750e-01
 3.6485108162e-01	 1.9005932405e+00	-2.7592648104e-01
 3.4793296396e-01	 1.9037629915e+00	-2.3422617911e-01
 3.3103423623e-01	 1.9067740086e+00	-1.9321950949e-01
 5.0292512507e-01	 1.8779420031e+00	-6.2657678394e-01
 4.8585034809e-01	 1.8824317432e+00	-5.8227407992e-01
 4.6877785675e-01	 1.8867557076e+00	-5.3738381546e-01
 4.5170988714e-01	 1.8909145628e+00	-4.9203678435e-01
 4.3464865175e-01	 1.8949090120e+00	-4.4641656409e-01
 4.1759633884e-01	 1.8987397946e+00	-4.0076638329e-01
 4.0055511177e-01	 1.9024076850e+00	-3.5539525827e-01
 3.8352710838e-01	 1.9059134924e+00	-3.1068347296e-01
 3.6651444042e-01	 1.9092580593e+00	-2.6708256828e-01
 3.4951919294e-01	 1.9124422611e+00	-2.2477610382e-01
 3.3254342378e-01	 1.9154670055e+00	-1.8359897123e-01
 5.0520755883e-01	 1.8864646996e+00	-6.2368781632e-01
 4.8805529110e-01	 1.8909748156e+00	-5.7584090553e-01
 4.7090531938e-01	 1.8953184036e+00	-5.2837169263e-01
 4.5375988990e-01	 1.8994961330e+00	-4.8128834837e-01
 4.3662122521e-01	 1.9035087102e+00	-4.3465047058e-01
 4.1949152350e-01	 1.9073568781e+00	-3.8857587945e-01
 4.0237295794e-01	 1.9110414146e+00	-3.4324665923e-01
 3.8526767607e-01	 1.9145631324e+00	-2.9891452400e-01
 3.6817779922e-01	 1.9179228780e+00	-2.5590492405e-01
 3.5110542191e-01	 1.9211215308e+00	-2.1440904258e-01
 3.3405261133e-01	 1.9241600024e+00	-1.7427593189e-01
 5.0748999259e-01	 1.8949873961e+00	-6.0263167942e-01
 4.9026023410e-01	 1.8995178880e+00	-5.5359503140e-01
 4.7303278200e-01	 1.9038810995e+00	-5.0581894314e-01
 4.5580989266e-01	 1.9080777031e+00	-4.5917730788e-01
 4.3859379868e-01	 1.9121084084e+00	-4.1359404258e-01
 4.2138670816e-01	 1.9159739616e+00	-3.6904981662e-01
 4.0419080410e-01	 1.9196751442e+00	-3.2558800352e-01
 3.8700824375e-01	 1.9232127724e+00	-2.8331993636e-01
 3.6984115802e-01	 1.9265876967e+00	-2.4242956104e-01
 3.5269165089e-01	 1.9298008004e+00	-2.0307244320e-01
 3.3556179888e-01	 1.9328529993e+00	-1.6510836995e-01
 5.0977242635e-01	 1.9035100927e+00	-5.6409638445e-01
 4.9246517711e-01	 1.9080609604e+00	-5.1615344390e-01
 4.7516024463e-01	 1.9124437954e+00	-4.7026796432e-01
 4.5785989543e-01	 1.9166592732e+00	-4.2616816295e-01
 4.4056637214e-01	 1.9207081067e+00	-3.8363083653e-01
 4.2328189282e-01	 1.9245910451e+00	-3.4248802861e-01
 4.0600865027e-01	 1.9283088737e+00	-3.0263289535e-01
 3.8874881144e-01	 1.9318624125e+00	-2.6402485399e-01
 3.7150451682e-01	 1.9352525155e+00	-2.2669409976e-01
 3.5427787987e-01	 1.9384800701e+00	-1.9071661860e-01
 3.3707098643e-01	 1.9415459962e+00	-1.5595822214e-01
 3.2197911094e-01	 1.8546160272e+00	-2.6564440364e-01
 3.0556066871e-01	 1.8573916564e+00	-2.5259583926e-01
 2.8916500231e-01	 1.8600146878e+00	-2.3814584586e-01
 2.7279402747e-01	 1.8624860872e+00	-2.2218343536e-01
 2.5644963163e-01	 1.8648068484e+00	-2.0481650523e-01
 2.4013367353e-01	 1.8669779921e+00	-1.8635036804e-01
 2.2384798283e-01	 1.8690005651e+00	-1.6726765828e-01
 2.0759435981e-01	 1.8708756396e+00	-1.4820956396e-01
 1.9137457499e-01	 1.8726043121e+00	-1.2995832830e-01
 1.7519036889e-01	 1.8741877030e+00	-1.1342096468e-01
 1.5904345171e-01	 1.8756269553e+00	-9.9614126779e-02
 3.2348829849e-01	 1.8633090241e+00	-2.5103363192e-01
 3.0699289937e-01	 1.8660976633e+00	-2.3020179312e-01
 2.9052038284e-01	 1.8687329894e+00	-2.0945124391e-01
 2.7407267362e-01	 1.8712159728e+00	-1.8853736321e-01
 2.5765166797e-01	 1.8735476120e+00	-1.6742672358e-01
 2.4125923334e-01	 1.8757289323e+00	-1.4627588298e-01
 2.2489720800e-01	 1.8777609856e+00	-1.2541158454e-01
 2.0856740064e-01	 1.8796448489e+00	-1.0531230885e-01
 1.9227159009e-01	 1.8813816241e+00	-8.6591121059e-02
 1.7601152503e-01	 1.8829724367e+00	-6.9979752838e-02
 1.5978892366e-01	 1.8844184351e+00	-5.6313858447e-02
 3.2499748604e-01	 1.8720020210e+00	-2.3765611509e-01
 3.0842513004e-01	 1.8748036702e+00	-2.1056640278e-01
 2.9187576338e-01	 1.8774512910e+00	-1.8475736832e-01
 2.7535131976e-01	 1.8799458584e+00	-1.5987224789e-01
 2.5885370430e-01	 1.8822883755e+00	-1.3575833967e-01
 2.4238479316e-01	 1.8844798725e+00	-1.1244602492e-01
 2.2594643317e-01	 1.8865214060e+00	-9.0129228472e-02
 2.0954044147e-01	 1.8884140582e+00	-6.9147260106e-02
 1.9316860519e-01	 1.8901589361e+00	-4.9967975847e-02
 1.7683268116e-01	 1.8917571704e+00	-3.3172196567e-02
 1.6053439561e-01	 1.8932099149e+00	-1.9439319886e-02
 3.2650667358e-01	 1.8806950179e+00	-2.2534589129e-01
 3.0985736070e-01	 1.8835096771e+00	-1.9343477311e-01
 2.9323114392e-01	 1.8861695926e+00	-1.6373707834e-01
 2.7662996591e-01	 1.8886757441e+00	-1.3580502817e-01
 2.6005574064e-01	 1.8910291390e+00	-1.0938832400e-01
 2.4351035298e-01	 1.8932308127e+00	-8.4413365692e-02
 2.2699565834e-01	 1.8952818264e+00	-6.0963941191e-02
 2.1051348230e-01	 1.8971832676e+00	-3.9263325899e-02
 1.9406562030e-01	 1.8989362481e+00	-1.9657727885e-02
 1.7765383730e-01	 1.9005419041e+00	-2.6010131695e-03
 1.6127986756e-01	 1.9020013947e+00	 1.1359355839e-02
 3.2801586113e-01	 1.8893880148e+00	-2.1394101260e-01
 3.1128959137e-01	 1.8922156840e+00	-1.7855723815e-01
 2.9458652446e-01	 1.8948878943e+00	-1.4606941737e-01
 2.7790861205e-01	 1.8974056297e+00	-1.1595952678e-01
 2.6125777697e-01	 1.8997699026e+00	-8.7900980952e-02
 2.4463591280e-01	 1.9019817528e+00	-6.1738016286e-02
 2.2804488351e-01	 1.9040422468e+00	-3.7466578834e-02
 2.1148652314e-01	 1.9059524769e+00	-1.5216651395e-02
 1.9496263540e-01	 1.9077135601e+00	 4.7640471729e-03
 1.7847499343e-01	 1.9093266378e+00	 2.2125059178e-02
 1.6202533951e-01	 1.9107928745e+00	 3.6426951798e-02
 3.2952504868e-01	 1.8980810117e+00	-2.0328353514e-01
 3.1272182203e-01	 1.9009216909e+00	-1.6568931525e-01
 2.9594190500e-01	 1.9036061959e+00	-1.3143953769e-01
 2.7918725820e-01	 1.9061355153e+00	-9.9966352316e-02
 2.6245981331e-01	 1.9085106661e+00	-7.0887834106e-02
 2.4576147262e-01	 1.9107326930e+00	-4.3987501675e-02
 2.2909410868e-01	 1.9128026673e+00	-1.9195373003e-02
 2.1245956397e-01	 1.9147216862e+00	 3.4295094443e-03
 1.9585965050e-01	 1.9164908721e+00	 2.3715154388e-02
 1.7929614957e-01	 1.9181113715e+00	 4.1391370035e-02
 1.6277081146e-01	 1.9195843543e+00	 5.6103257940e-02
 3.3103423623e-01	 1.9067740086e+00	-1.9321950949e-01
 3.1415405270e-01	 1.9096276978e+00	-1.5459166045e-01
 2.9729728554e-01	 1.9123244975e+00	-1.1953862734e-01
 2.8046590435e-01	 1.9148654009e+00	-8.7462803756e-02
 2.6366184964e-01	 1.9172514297e+00	-5.7947514596e-02
 2.4688703243e-01	 1.9194836332e+00	-3.0736639055e-02
 2.3014333386e-01	 1.9215630877e+00	-5.7158046555e-03
 2.1343260480e-01	 1.9234908955e+00	 1.7104918621e-02
 1.9675666560e-01	 1.9252681841e+00	 3.7606897444e-02
 1.8011730570e-01	 1.9268961052e+00	 5.5577462400e-02
 1.6351628341e-01	 1.9283758340e+00	 7.0723159405e-02
 3.3254342378e-01	 1.9154670055e+00	-1.8359897123e-01
 3.1558628337e-01	 1.9183337047e+00	-1.4503002497e-01
 2.9865266608e-01	 1.9210427991e+00	-1.1006383878e-01
 2.8174455049e-01	 1.9235952865e+00	-7.8092777504e-02
 2.6486388598e-01	 1.9259921932e+00	-4.8685652466e-02
 2.4801259225e-01	 1.9282345734e+00	-2.1567419301e-02
 2.3119255903e-01	 1.9303235081e+00	 3.3995186428e-03
 2.1440564563e-01	 1.9322601048e+00	 2.6232475537e-02
 1.9765368070e-01	 1.9340454961e+00	 4.6844193403e-02
 1.8093846184e-01	 1.9356808389e+00	 6.5057175596e-02
 1.6426175536e-01	 1.9371673138e+00	 8.0616722492e-02
 3.3405261133e-01	 1.9241600024e+00	-1.7427593189e-01
 3.1701851403e-01	 1.9270397115e+00	-1.3677521297e-01
 3.0000804662e-01	 1.9297611007e+00	-1.0271821954e-01
 2.8302319664e-01	 1.9323251722e+00	-7.1506676900e-02
 2.6606592231e-01	 1.9347329568e+00	-4.2714770884e-02
 2.4913815207e-01	 1.9369855135e+00	-1.6068891578e-02
 2.3224178420e-01	 1.9390839285e+00	 8.5709822036e-03
 2.1537868647e-01	 1.9410293141e+00	 3.1228335206e-02
 1.9855069580e-01	 1.9428228080e+00	 5.1825684431e-02
 1.8175961797e-01	 1.9444655726e+00	 7.0198745431e-02
 1.6500722731e-01	 1.9459587936e+00	 8.6109278355e-02
 3.3556179888e-01	 1.9328529993e+00	-1.6510836995e-01
 3.1845074470e-01	 1.9357457184e+00	-1.2960304026e-01
 3.0136342716e-01	 1.9384794024e+00	-9.7210644628e-02
 2.8430184279e-01	 1.9410550578e+00	-6.7361324114e-02
 2.6726795865e-01	 1.9434737203e+00	-3.9654183159e-02
 2.5026371189e-01	 1.9457364537e+00	-1.3837050982e-02
 2.3329100937e-01	 1.9478443490e+00	 1.0212080556e-02
 2.1635172730e-01	 1.9497985234e+00	 3.2502023347e-02
 1.9944771090e-01	 1.9516001200e+00	 5.2943846565e-02
 1.8258077411e-01	 1.9532503062e+00	 7.1364901721e-02
 1.6575269926e-01	 1.9547502734e+00	 8.7521504495e-02
 3.3707098643e-01	 1.9415459962e+00	-1.5595822214e-01
 3.1988297537e-01	 1.9444517253e+00	-1.2329429420e-01
 3.0271880770e-01	 1.9471977040e+00	-9.3255750770e-02
 2.8558048894e-01	 1.9497849434e+00	-6.5319874332e-02
 2.6846999499e-01	 1.9522144839e+00	-3.9129892439e-02
 2.5138927171e-01	 1.9544873939e+00	-1.4474729142e-02
 2.3434023454e-01	 1.9566047694e+00	 8.7295307306e-03
 2.1732476813e-01	 1.9585677328e+00	 3.0456548460e-02
 2.0034472601e-01	 1.9603774320e+00	 5.0585095636e-02
 1.8340193024e-01	 1.9620350399e+00	 6.8912963252e-02
 1.6649817121e-01	 1.9635417532e+00	 8.5169504122e-02
 1.5904345171e-01	 1.8756269553e+00	-9.9614126779e-02
 1.4293823142e-01	 1.8769230258e+00	-8.8084957430e-02
 1.2687357695e-01	 1.8780773568e+00	-7.7375806408e-02
 1.1085106873e-01	 1.8790911537e+00	-6.7147069037e-02
 9.4872257094e-02	 1.8799656418e+00	-5.7146259608e-02
 7.8938662051e-02	 1.8807020647e+00	-4.7199117264e-02
 6.3051773189e-02	 1.8813016841e+00	-3.7201445321e-02
 4.7213049540e-02	 1.8817657788e+00	-2.7111627139e-02
 3.1423919486e-02	 1.8820956438e+00	-1.6943763388e-02
 1.5685780682e-02	 1.8822925895e+00	-6.7613774004e-03
 0.0000000000e+00	 1.8823579412e+00	 3.3283629028e-03
 1.5978892366e-01	 1.8844184351e+00	-5.6313858447e-02
 1.4360821463e-01	 1.8857205806e+00	-4.5039591271e-02
 1.2746826155e-01	 1.8868803221e+00	-3.4750144390e-02
 1.1137065229e-01	 1.8878988710e+00	-2.5146531064e-02
 9.5316944414e-02	 1.8887774579e+00	-1.6014322844e-02
 7.9308665075e-02	 1.8895173326e+00	-7.2148769253e-03
 6.3347310839e-02	 1.8901197626e+00	 1.3226938031e-03
 4.7434347578e-02	 1.8905860326e+00	 9.6088668532e-03
 3.1571210368e-02	 1.8909174437e+00	 1.7600429471e-02
 1.5759303416e-02	 1.8911153126e+00	 2.5206626271e-02
 0.0000000000e+00	 1.8911809706e+00	 3.2294788419e-02
 1.6053439561e-01	 1.8932099149e+00	-1.9439319886e-02
 1.4427819784e-01	 1.8945181354e+00	-8.1701960984e-03
 1.2806294616e-01	 1.8956832875e+00	 1.9561027686e-03
 1.1189023584e-01	 1.8967065882e+00	 1.1204002973e-02
 9.5761631733e-02	 1.8975892741e+00	 1.9756197727e-02
 7.9678668098e-02	 1.8983326006e+00	 2.7722275798e-02
 6.3642848489e-02	 1.8989378411e+00	 3.5146598373e-02
 4.7655645616e-02	 1.8994062864e+00	 4.2015485074e-02
 3.1718501251e-02	 1.8997392437e+00	 4.8263768171e-02
 1.5832826150e-02	 1.8999380357e+00	 5.3780771896e-02
 0.0000000000e+00	 1.9000040000e+00	 5.8415771886e-02
 1.6127986756e-01	 1.9020013947e+00	 1.1359355839e-02
 1.4494818105e-01	 1.9033156901e+00	 2.2820517907e-02
 1.2865763077e-01	 1.9044862529e+00	 3.2990526593e-02
 1.1240981940e-01	 1.9055143055e+00	 4.2105260378e-02
 9.6206319053e-02	 1.9064010903e+00	 5.0321954478e-02
 8.0048671122e-02	 1.9071478685e+00	 5.7727662625e-02
 6.3938386140e-02	 1.9077559196e+00	 6.4346958295e-02
 4.7876943654e-02	 1.9082265403e+00	 7.0148938400e-02
 3.1865792133e-02	 1.9085610437e+00	 7.5053590490e-02
 1.5906348884e-02	 1.9087607588e+00	 7.8937582276e-02
 0.0000000000e+00	 1.9088270294e+00	 8.1639530314e-02
 1.6202533951e-01	 1.9107928745e+00	 3.6426951798e-02
 1.4561816426e-01	 1.9121132449e+00	 4.8225759317e-02
 1.2925231538e-01	 1.9132892182e+00	 5.8597559913e-02
 1.1292940296e-01	 1.9143220227e+00	 6.7755655387e-02
 9.6651006372e-02	 1.9152129065e+00	 7.5838058579e-02
 8.0418674146e-02	 1.9159631365e+00	 8.2915765346e-02
 6.4233923790e-02	 1.9165739981e+00	 8.9000257412e-02
 4.8098241692e-02	 1.9170467941e+00	 9.4050301292e-02
 3.2013083015e-02	 1.9173828436e+00	 9.7978106410e-02
 1.5979871618e-02	 1.9175834819e+00	 1.0065490318e-01
 0.0000000000e+00	 1.9176500588e+00	 1.0191599976e-01
 1.6277081146e-01	 1.9195843543e+00	 5.6103257940e-02
 1.4628814746e-01	 1.9209107996e+00	 6.8334726516e-02
 1.2984699999e-01	 1.9220921836e+00	 7.9018529813e-02
 1.1344898651e-01	 1.9231297400e+00	 8.8351325541e-02
 9.7095693692e-02	 1.9240247226e+00	 9.6458101294e-02
 8.0788677170e-02	 1.9247784044e+00	 1.0340023352e-01
 6.4529461441e-02	 1.9253920766e+00	 1.0918276905e-01
 4.8319539731e-02	 1.9258670479e+00	 1.1376099659e-01
 3.2160373898e-02	 1.9262046436e+00	 1.1704637354e-01
 1.6053394352e-02	 1.9264062049e+00	 1.1891187073e-01
 0.0000000000e+00	 1.9264730883e+00	 1.1919679596e-01
 1.6351628341e-01	 1.9283758340e+00	 7.0723159405e-02
 1.4695813067e-01	 1.9297083544e+00	 8.3432676870e-02
 1.3044168459e-01	 1.9308951489e+00	 9.4491709173e-02
 1.1396857007e-01	 1.9319374572e+00	 1.0408616710e-01
 9.7540381012e-02	 1.9328365388e+00	 1.1233417473e-01
 8.1158680194e-02	 1.9335936724e+00	 1.1929389201e-01
 6.4824999092e-02	 1.9342101551e+00	 1.2497055170e-01
 4.8540837769e-02	 1.9346873017e+00	 1.2932278075e-01
 3.2307664781e-02	 1.9350264435e+00	 1.3226827318e-01
 1.6126917087e-02	 1.9352289280e+00	 1.3368887965e-01
 0.0000000000e+00	 1.9352961177e+00	 1.3343517605e-01
 1.6426175536e-01	 1.9371673138e+00	 8.0616722492e-02
 1.4762811388e-01	 1.9385059091e+00	 9.3800994059e-02
 1.3103636920e-01	 1.9396981143e+00	 1.0525236685e-01
 1.1448815362e-01	 1.9407451745e+00	 1.1515186952e-01
 9.7985068333e-02	 1.9416483550e+00	 1.2361689206e-01
 8.1528683219e-02	 1.9424089403e+00	 1.3070874826e-01
 6.5120536743e-02	 1.9430282336e+00	 1.3643944483e-01
 4.8762135809e-02	 1.9435075555e+00	 1.4077772943e-01
 3.2454955664e-02	 1.9438482435e+00	 1.4365448712e-01
 1.6200439821e-02	 1.9440516511e+00	 1.4496755240e-01
 0.0000000000e+00	 1.9441191471e+00	 1.4458600132e-01
 1.6500722731e-01	 1.9459587936e+00	 8.6109278355e-02
 1.4829809709e-01	 1.9473034639e+00	 9.9717253636e-02
 1.3163105381e-01	 1.9485010797e+00	 1.1153281655e-01
 1.1500773718e-01	 1.9495528917e+00	 1.2173794905e-01
 9.8429755654e-02	 1.9504601711e+00	 1.3045540718e-01
 8.1898686244e-02	 1.9512242083e+00	 1.3775599950e-01
 6.5416074395e-02	 1.9518463121e+00	 1.4366506482e-01
 4.8983433848e-02	 1.9523278093e+00	 1.4816822356e-01
 3.2602246547e-02	 1.9526700435e+00	 1.5121647496e-01
 1.6273962556e-02	 1.9528743742e+00	 1.5273070917e-01
 0.0000000000e+00	 1.9529421765e+00	 1.5260570095e-01
 1.6575269926e-01	 1.9547502734e+00	 8.7521504495e-02
 1.4896808030e-01	 1.9561010187e+00	 1.0145528687e-01
 1.3222573842e-01	 1.9573040450e+00	 1.1356246439e-01
 1.1552732074e-01	 1.9583606090e+00	 1.2403178144e-01
 9.8874442976e-02	 1.9592719873e+00	 1.3299743392e-01
 8.2268689270e-02	 1.9600394762e+00	 1.4054603971e-01
 6.5711612047e-02	 1.9606643906e+00	 1.4672280103e-01
 4.9204731888e-02	 1.9611480631e+00	 1.5153693574e-01
 3.2749537431e-02	 1.9614918434e+00	 1.5496645215e-01
 1.6347485291e-02	 1.9616970973e+00	 1.5696233863e-01
 0.0000000000e+00	 1.9617652059e+00	 1.5745223680e-01
 1.6649817121e-01	 1.9635417532e+00	 8.5169504122e-02
 1.4963806351e-01	 1.9648985734e+00	 9.9285242919e-02
 1.3282042303e-01	 1.9661070104e+00	 1.1156785532e-01
 1.1604690430e-01	 1.9671683262e+00	 1.2221863379e-01
 9.9319130298e-02	 1.9680838035e+00	 1.3138926473e-01
 8.2638692297e-02	 1.9688547442e+00	 1.3918846641e-01
 6.6007149700e-02	 1.9694824691e+00	 1.4568781198e-01
 4.9426029929e-02	 1.9699683169e+00	 1.5092681699e-01
 3.2896828315e-02	 1.9703136434e+00	 1.5491736854e-01
 1.6421008026e-02	 1.9705198204e+00	 1.5764756952e-01
 0.0000000000e+00	 1.9705882353e+00	 1.5908506905e-01
 1.9705882353e+00	 0.0000000000e+00	 2.8489602757e+00
 1.9705198204e+00	 1.6421008026e-02	 2.8477288585e+00
 1.9703136434e+00	 3.2896828315e-02	 2.8442587278e+00
 1.9699683169e+00	 4.9426029929e-02	 2.8384184036e+00
 1.9694824691e+00	 6.6007149700e-02	 2.8301131937e+00
 1.9688547442e+00	 8.2638692297e-02	 2.8192871398e+00
 1.9680838035e+00	 9.9319130298e-02	 2.8059255834e+00
 1.9671683262e+00	 1.1604690430e-01	 2.7900584253e+00
 1.9661070104e+00	 1.3282042303e-01	 2.7717641527e+00
 1.9648985734e+00	 1.4963806351e-01	 2.7511747140e+00
 1.9635417532e+00	 1.6649817121e-01	 2.7284813209e+00
 1.9794112647e+00	 0.0000000000e+00	 2.8372137719e+00
 1.9793425435e+00	 1.6494530761e-02	 2.8372478211e+00
 1.9791354434e+00	 3.3044119200e-02	 2.8347660229e+00
 1.9787885708e+00	 4.9647327970e-02	 2.8296832146e+00
 1.9783005476e+00	 6.6302687354e-02	 2.8219468798e+00
 1.9776700121e+00	 8.3008695325e-02	 2.8115387506e+00
 1.9768956197e+00	 9.9763817621e-02	 2.7984770296e+00
 1.9759760435e+00	 1.1656648786e-01	 2.7828193054e+00
 1.9749099758e+00	 1.3341510764e-01	 2.7646662394e+00
 1.9736961282e+00	 1.5030804672e-01	 2.7441661046e+00
 1.9723332330e+00	 1.6724364317e-01	 2.7215202597e+00
 1.9882342941e+00	 0.0000000000e+00	 2.8247626748e+00
 1.9881652666e+00	 1.6568053497e-02	 2.8259092969e+00
 1.9879572433e+00	 3.3191410085e-02	 2.8243110312e+00
 1.9876088246e+00	 4.9868626012e-02	 2.8199219115e+00
 1.9871186261e+00	 6.6598225009e-02	 2.8127244085e+00
 1.9864852801e+00	 8.3378698353e-02	 2.8027306888e+00
 1.9857074358e+00	 1.0020850495e-01	 2.7899844921e+00
 1.9847837608e+00	 1.1708607142e-01	 2.7745637025e+00
 1.9837129411e+00	 1.3400979225e-01	 2.7565836941e+00
 1.9824936829e+00	 1.5097802994e-01	 2.7362015336e+00
 1.9811247128e+00	 1.6798911512e-01	 2.7136211250e+00
 1.9970573235e+00	 0.0000000000e+00	 2.8116063669e+00
 1.9969879897e+00	 1.6641576232e-02	 2.8136847299e+00
 1.9967790433e+00	 3.3338700970e-02	 2.8128393231e+00
 1.9964290784e+00	 5.0089924054e-02	 2.8090564252e+00
 1.9959367046e+00	 6.6893762664e-02	 2.8023464774e+00
 1.9953005480e+00	 8.3748701382e-02	 2.7927449982e+00
 1.9945192520e+00	 1.0065319227e-01	 2.7803141146e+00
 1.9935914780e+00	 1.1760565498e-01	 2.7651447895e+00
 1.9925159065e+00	 1.3460447687e-01	 2.7473598246e+00
 1.9912912377e+00	 1.5164801315e-01	 2.7271177254e+00
 1.9899161926e+00	 1.6873458708e-01	 2.7046175160e+00
 2.0058803529e+00	 0.0000000000e+00	 2.7977440572e+00
 2.0058107128e+00	 1.6715098968e-02	 2.8005459303e+00
 2.0056008432e+00	 3.3485991856e-02	 2.8002973352e+00
 2.0052493322e+00	 5.0311222096e-02	 2.7970100131e+00
 2.0047547831e+00	 6.7189300319e-02	 2.7907155290e+00
 2.0041158160e+00	 8.4118704411e-02	 2.7814658423e+00
 2.0033310682e+00	 1.0109787960e-01	 2.7693344918e+00
 2.0023991953e+00	 1.1812523854e-01	 2.7544184764e+00
 2.0013188718e+00	 1.3519916148e-01	 2.7368409149e+00
 2.0000887924e+00	 1.5231799636e-01	 2.7167545728e+00
 1.9987076723e+00	 1.6948005903e-01	 2.6943463446e+00
 2.0147033823e+00	 0.0000000000e+00	 2.7831747848e+00
 2.0146334358e+00	 1.6788621704e-02	 2.7864650705e+00
 2.0144226432e+00	 3.3633282741e-02	 2.7866323599e+00
 2.0140695860e+00	 5.0532520139e-02	 2.7837072409e+00
 2.0135728616e+00	 6.7484837975e-02	 2.7777357256e+00
 2.0129310839e+00	 8.4488707440e-02	 2.7687794745e+00
 2.0121428843e+00	 1.0154256692e-01	 2.7569166337e+00
 2.0112069125e+00	 1.1864482210e-01	 2.7422433692e+00
 2.0101218372e+00	 1.3579384609e-01	 2.7248761810e+00
 2.0088863472e+00	 1.5298797958e-01	 2.7049550895e+00
 2.0074991521e+00	 1.7022553099e-01	 2.6826477848e+00
 2.0235264118e+00	 0.0000000000e+00	 2.7678974229e+00
 2.0234561589e+00	 1.6862144440e-02	 2.7714146815e+00
 2.0232444432e+00	 3.3780573627e-02	 2.7717925339e+00
 2.0228898398e+00	 5.0753818181e-02	 2.7690739656e+00
 2.0223909401e+00	 6.7780375630e-02	 2.7633129265e+00
 2.0217463519e+00	 8.4858710470e-02	 2.7545742078e+00
 2.0209547005e+00	 1.0198725425e-01	 2.7429339307e+00
 2.0200146298e+00	 1.1916440566e-01	 2.7284807310e+00
 2.0189248026e+00	 1.3638853071e-01	 2.7113177270e+00
 2.0176839020e+00	 1.5365796279e-01	 2.6915653631e+00
 2.0162906319e+00	 1.7097100294e-01	 2.6693652235e+00
 2.0323494412e+00	 0.0000000000e+00	 2.7519106820e+00
 2.0322788820e+00	 1.6935667176e-02	 2.7553676494e+00
 2.0320662431e+00	 3.3927864512e-02	 2.7557268284e+00
 2.0317100936e+00	 5.0975116224e-02	 2.7530373180e+00
 2.0312090186e+00	 6.8075913286e-02	 2.7473546638e+00
 2.0305616198e+00	 8.5228713499e-02	 2.7387403865e+00
 2.0297665167e+00	 1.0243194157e-01	 2.7272621196e+00
 2.0288223470e+00	 1.1968398923e-01	 2.7129944433e+00
 2.0277277679e+00	 1.3698321532e-01	 2.6960205032e+00
 2.0264814567e+00	 1.5432794601e-01	 2.6764345094e+00
 2.0250821117e+00	 1.7171647490e-01	 2.6543452122e+00
 2.0411724706e+00	 0.0000000000e+00	 2.7352131140e+00
 2.0411016051e+00	 1.7009189911e-02	 2.7382972116e+00
 2.0408880431e+00	 3.4075155398e-02	 2.7383850383e+00
 2.0405303474e+00	 5.1196414266e-02	 2.7355256864e+00
 2.0400270971e+00	 6.8371450941e-02	 2.7297701208e+00
 2.0393768878e+00	 8.5598716529e-02	 2.7211703580e+00
 2.0385783329e+00	 1.0287662890e-01	 2.7097792506e+00
 2.0376300643e+00	 1.2020357279e-01	 2.6956509680e+00
 2.0365307333e+00	 1.3757789993e-01	 2.6788422639e+00
 2.0352790115e+00	 1.5499792922e-01	 2.6594146277e+00
 2.0338735915e+00	 1.7246194685e-01	 2.6374374195e+00
 2.0499955000e+00	 0.0000000000e+00	 2.7178031150e+00
 2.0499243282e+00	 1.7082712647e-02	 2.7201769535e+00
 2.0497098431e+00	 3.4222446283e-02	 2.7197177726e+00
 2.0493506013e+00	 5.1417712308e-02	 2.7164686998e+00
 2.0488451756e+00	 6.8666988596e-02	 2.7104701088e+00
 2.0481921557e+00	 8.5968719558e-02	 2.7017584448e+00
 2.0473901490e+00	 1.0332131622e-01	 2.6903656545e+00
 2.0464377815e+00	 1.2072315635e-01	 2.6763193110e+00
 2.0453336986e+00	 1.3817258455e-01	 2.6596435272e+00
 2.0440765662e+00	 1.5566791243e-01	 2.6403607567e+00
 2.0426650713e+00	 1.7320741881e-01	 2.6184945851e+00
 2.0588185294e+00	 0.0000000000e+00	 2.6996789289e+00
 2.0587470513e+00	 1.7156235382e-02	 2.7009808051e+00
 2.0585316430e+00	 3.4369737168e-02	 2.6996764439e+00
 2.0581708551e+00	 5.1639010350e-02	 2.6957972128e+00
 2.0576632541e+00	 6.8962526251e-02	 2.6893670464e+00
 2.0570074237e+00	 8.6338722586e-02	 2.6804009180e+00
 2.0562019652e+00	 1.0376600355e-01	 2.6689039110e+00
 2.0552454988e+00	 1.2124273991e-01	 2.6548709855e+00
 2.0541366640e+00	 1.3876726916e-01	 2.6382875347e+00
 2.0528741210e+00	 1.5633789565e-01	 2.6191308316e+00
 2.0514565511e+00	 1.7395289077e-01	 2.5973724735e+00
 1.9635417532e+00	 1.6649817121e-01	 2.7284813209e+00
 1.9620350399e+00	 1.8340193024e-01	 2.7040952020e+00
 1.9603774320e+00	 2.0034472601e-01	 2.6781107904e+00
 1.9585677328e+00	 2.1732476813e-01	 2.6503393084e+00
 1.9566047694e+00	 2.3434023454e-01	 2.6206794961e+00
 1.9544873939e+00	 2.5138927171e-01	 2.5891301028e+00
 1.9522144839e+00	 2.6846999499e-01	 2.5558038604e+00
 1.9497849434e+00	 2.8558048894e-01	 2.5209430290e+00
 1.9471977040e+00	 3.0271880770e-01	 2.4849366049e+00
 1.9444517253e+00	 3.1988297537e-01	 2.4483392824e+00
 1.9415459962e+00	 3.3707098643e-01	 2.4118922565e+00
 1.9723332330e+00	 1.6724364317e-01	 2.7215202597e+00
 1.9708197736e+00	 1.8422308638e-01	 2.6971485801e+00
 1.9691547440e+00	 2.0124174111e-01	 2.6711318113e+00
 1.9673369421e+00	 2.1829780897e-01	 2.6432485255e+00
 1.9653651898e+00	 2.3538945972e-01	 2.6133586653e+00
 1.9632383341e+00	 2.5251483153e-01	 2.5814158457e+00
 1.9609552474e+00	 2.6967203132e-01	 2.5474811598e+00
 1.9585148290e+00	 2.8685913508e-01	 2.5117385842e+00
 1.9559160056e+00	 3.0407418824e-01	 2.4745120769e+00
 1.9531577322e+00	 3.2131520604e-01	 2.4362844618e+00
 1.9502389931e+00	 3.3858017398e-01	 2.3977181898e+00
 1.9811247128e+00	 1.6798911512e-01	 2.7136211250e+00
 1.9796045073e+00	 1.8504424252e-01	 2.6892757528e+00
 1.9779320560e+00	 2.0213875621e-01	 2.6632487728e+00
 1.9761061514e+00	 2.1927084980e-01	 2.6352956119e+00
 1.9741256102e+00	 2.3643868489e-01	 2.6052467051e+00
 1.9719892742e+00	 2.5364039135e-01	 2.5730195805e+00
 1.9696960109e+00	 2.7087406766e-01	 2.5386324728e+00
 1.9672447146e+00	 2.8813778123e-01	 2.5022195619e+00
 1.9646343072e+00	 3.0542956878e-01	 2.4640479355e+00
 1.9618637391e+00	 3.2274743671e-01	 2.4245363692e+00
 1.9589319900e+00	 3.4008936153e-01	 2.3842760216e+00
 1.9899161926e+00	 1.6873458708e-01	 2.7046175160e+00
 1.9883892410e+00	 1.8586539866e-01	 2.6803084165e+00
 1.9867093680e+00	 2.0303577132e-01	 2.6542902897e+00
 1.9848753607e+00	 2.2024389064e-01	 2.6263048521e+00
 1.9828860307e+00	 2.3748791006e-01	 2.5961622489e+00
 1.9807402144e+00	 2.5476595117e-01	 2.5637528965e+00
 1.9784367745e+00	 2.7207610400e-01	 2.5290608778e+00
 1.9759746003e+00	 2.8941642738e-01	 2.4921789883e+00
 1.9733526089e+00	 3.0678494932e-01	 2.4533255357e+00
 1.9705697460e+00	 3.2417966737e-01	 2.4128629914e+00
 1.9676249869e+00	 3.4159854908e-01	 2.3713185923e+00
 1.9987076723e+00	 1.6948005903e-01	 2.6943463446e+00
 1.9971739747e+00	 1.8668655480e-01	 2.6700817172e+00
 1.9954866800e+00	 2.0393278642e-01	 2.6440886016e+00
 1.9936445700e+00	 2.2121693148e-01	 2.6161043714e+00
 1.9916464511e+00	 2.3853713524e-01	 2.5859280315e+00
 1.9894911546e+00	 2.5589151099e-01	 2.5534317934e+00
 1.9871775380e+00	 2.7327814034e-01	 2.5185742244e+00
 1.9847044859e+00	 2.9069507353e-01	 2.4814150760e+00
 1.9820709105e+00	 3.0814032986e-01	 2.4421318938e+00
 1.9792757529e+00	 3.2561189804e-01	 2.4010385133e+00
 1.9763179838e+00	 3.4310773663e-01	 2.3586055429e+00
 2.0074991521e+00	 1.7022553099e-01	 2.6826477848e+00
 2.0059587084e+00	 1.8750771094e-01	 2.6584341977e+00
 2.0042639920e+00	 2.0482980153e-01	 2.6324795162e+00
 2.0024137793e+00	 2.2218997231e-01	 2.6045260742e+00
 2.0004068715e+00	 2.3958636041e-01	 2.5743708222e+00
 1.9982420948e+00	 2.5701707081e-01	 2.5418766072e+00
 1.9959183016e+00	 2.7448017667e-01	 2.5069850509e+00
 1.9934343715e+00	 2.9197371968e-01	 2.4697311330e+00
 1.9907892121e+00	 3.0949571040e-01	 2.4302595848e+00
 1.9879817598e+00	 3.2704412871e-01	 2.3888432033e+00
 1.9850109807e+00	 3.4461692418e-01	 2.3459031876e+00
 2.0162906319e+00	 1.7097100294e-01	 2.6693652235e+00
 2.0147434421e+00	 1.8832886708e-01	 2.6452077458e+00
 2.0130413039e+00	 2.0572681663e-01	 2.6193023535e+00
 2.0111829887e+00	 2.2316301315e-01	 2.5914055844e+00
 2.0091672920e+00	 2.4063558559e-01	 2.5613213585e+00
 2.0069930350e+00	 2.5814263063e-01	 2.5289119371e+00
 2.0046590651e+00	 2.7568221301e-01	 2.4941105032e+00
 2.0021642571e+00	 2.9325236582e-01	 2.4569354720e+00
 1.9995075137e+00	 3.1085109094e-01	 2.4175066425e+00
 1.9966877667e+00	 3.2847635937e-01	 2.3760633016e+00
 1.9937039777e+00	 3.4612611173e-01	 2.3329843885e+00
 2.0250821117e+00	 1.7171647490e-01	 2.6543452122e+00
 2.0235281758e+00	 1.8915002322e-01	 2.6302475430e+00
 2.0218186159e+00	 2.0662383174e-01	 2.6043998916e+00
 2.0199521980e+00	 2.2413605399e-01	 2.5765821858e+00
 2.0179277124e+00	 2.4168481076e-01	 2.5466142813e+00
 2.0157439751e+00	 2.5926819046e-01	 2.5143665742e+00
 2.0133998287e+00	 2.7688424935e-01	 2.4797722555e+00
 2.0108941428e+00	 2.9453101197e-01	 2.4428413222e+00
 2.0082258154e+00	 3.1220647148e-01	 2.4036764600e+00
 2.0053937736e+00	 3.2990859004e-01	 2.3624909097e+00
 2.0023969746e+00	 3.4763529928e-01	 2.3196284329e+00
 2.0338735915e+00	 1.7246194685e-01	 2.6374374195e+00
 2.0323129095e+00	 1.8997117936e-01	 2.6134020149e+00
 2.0305959279e+00	 2.0752084685e-01	 2.5876183130e+00
 2.0287214073e+00	 2.2510909482e-01	 2.5598987639e+00
 2.0266881328e+00	 2.4273403594e-01	 2.5300880714e+00
 2.0244949153e+00	 2.6039375028e-01	 2.4980734309e+00
 2.0221405922e+00	 2.7808628569e-01	 2.4637964318e+00
 2.0196240284e+00	 2.9580965812e-01	 2.4272667422e+00
 2.0169441170e+00	 3.1356185202e-01	 2.3885776931e+00
 2.0140997805e+00	 3.3134082071e-01	 2.3479238824e+00
 2.0110899715e+00	 3.4914448683e-01	 2.3056209124e+00
 2.0426650713e+00	 1.7320741881e-01	 2.6184945851e+00
 2.0410976432e+00	 1.9079233550e-01	 2.5945227820e+00
 2.0393732399e+00	 2.0841786195e-01	 2.5688071519e+00
 2.0374906166e+00	 2.2608213566e-01	 2.5412017490e+00
 2.0354485532e+00	 2.4378326111e-01	 2.5115849863e+00
 2.0332458555e+00	 2.6151931010e-01	 2.4798694715e+00
 2.0308813558e+00	 2.7928832202e-01	 2.4460135298e+00
 2.0283539140e+00	 2.9708830427e-01	 2.4100345341e+00
 2.0256624186e+00	 3.1491723256e-01	 2.3720241647e+00
 2.0228057874e+00	 3.3277305137e-01	 2.3321657209e+00
 2.0197829684e+00	 3.5065367438e-01	 2.2907536043e+00
 2.0514565511e+00	 1.7395289077e-01	 2.5973724735e+00
 2.0498823769e+00	 1.9161349164e-01	 2.5734646113e+00
 2.0481505519e+00	 2.0931487706e-01	 2.5478192425e+00
 2.0462598259e+00	 2.2705517649e-01	 2.5203410600e+00
 2.0442089737e+00	 2.4483248629e-01	 2.4909509991e+00
 2.0419967957e+00	 2.6264486992e-01	 2.4595956443e+00
 2.0396221193e+00	 2.8049035836e-01	 2.4262583441e+00
 2.0370837996e+00	 2.9836695041e-01	 2.3909721595e+00
 2.0343807202e+00	 3.1627261310e-01	 2.3538347707e+00
 2.0315117943e+00	 3.3420528204e-01	 2.3150254681e+00
 2.0284759653e+00	 3.5216286193e-01	 2.2748243543e+00
 1.9415459962e+00	 3.3707098643e-01	 2.4118922565e+00
 1.9384800701e+00	 3.5427787987e-01	 2.3732369117e+00
 1.9352525155e+00	 3.7150451682e-01	 2.3295789510e+00
 1.9318624125e+00	 3.8874881144e-01	 2.2833517925e+00
 1.9283088737e+00	 4.0600865027e-01	 2.2362509485e+00
 1.9245910451e+00	 4.2328189282e-01	 2.1882894889e+00
 1.9207081067e+00	 4.4056637214e-01	 2.1395419636e+00
 1.9166592732e+00	 4.5785989543e-01	 2.0901382016e+00
 1.9124437954e+00	 4.7516024463e-01	 2.0402563090e+00
 1.9080609604e+00	 4.9246517711e-01	 1.9901147714e+00
 1.9035100927e+00	 5.0977242635e-01	 1.9399635640e+00
 1.9502389931e+00	 3.3858017398e-01	 2.3977181898e+00
 1.9471593398e+00	 3.5586410884e-01	 2.3564467078e+00
 1.9439173342e+00	 3.7316787562e-01	 2.3097716253e+00
 1.9405120525e+00	 3.9048937912e-01	 2.2604555540e+00
 1.9369426033e+00	 4.0782649643e-01	 2.2099804212e+00
 1.9332081286e+00	 4.2517707748e-01	 2.1584763216e+00
 1.9293078049e+00	 4.4253894561e-01	 2.1061322337e+00
 1.9252408433e+00	 4.5990989819e-01	 2.0531899938e+00
 1.9210064914e+00	 4.7728770725e-01	 1.9999374519e+00
 1.9166040328e+00	 4.9467012011e-01	 1.9467007061e+00
 1.9120327892e+00	 5.1205486010e-01	 1.8938353194e+00
 1.9589319900e+00	 3.4008936153e-01	 2.3842760216e+00
 1.9558386094e+00	 3.5745033782e-01	 2.3408810238e+00
 1.9525821529e+00	 3.7483123442e-01	 2.2917565876e+00
 1.9491616925e+00	 3.9222994681e-01	 2.2399148495e+00
 1.9455763329e+00	 4.0964434260e-01	 2.1866390661e+00
 1.9418252122e+00	 4.2707226214e-01	 2.1321565199e+00
 1.9379075031e+00	 4.4451151907e-01	 2.0767510067e+00
 1.9338224135e+00	 4.6195990095e-01	 2.0207570307e+00
 1.9295691873e+00	 4.7941516987e-01	 1.9645531601e+00
 1.9251471052e+00	 4.9687506312e-01	 1.9085544398e+00
 1.9205554858e+00	 5.1433729386e-01	 1.8532037567e+00
 1.9676249869e+00	 3.4159854908e-01	 2.3713185923e+00
 1.9645178791e+00	 3.5903656679e-01	 2.3262796242e+00
 1.9612469717e+00	 3.7649459322e-01	 2.2752668638e+00
 1.9578113326e+00	 3.9397051449e-01	 2.2214611637e+00
 1.9542100624e+00	 4.1146218876e-01	 2.1659627432e+00
 1.9504422957e+00	 4.2896744680e-01	 2.1090763579e+00
 1.9465072013e+00	 4.4648409254e-01	 2.0511611348e+00
 1.9424039836e+00	 4.6400990371e-01	 1.9926250326e+00
 1.9381318832e+00	 4.8154263249e-01	 1.9339184426e+00
 1.9336901776e+00	 4.9908000612e-01	 1.8755268224e+00
 1.9290781823e+00	 5.1661972762e-01	 1.8179622554e+00
 1.9763179838e+00	 3.4310773663e-01	 2.3586055429e+00
 1.9731971487e+00	 3.6062279577e-01	 2.3123896769e+00
 1.9699117904e+00	 3.7815795202e-01	 2.2600430697e+00
 1.9664609726e+00	 3.9571108217e-01	 2.2048339512e+00
 1.9628437920e+00	 4.1328003493e-01	 2.1476955543e+00
 1.9590593792e+00	 4.3086263145e-01	 2.0889905101e+00
 1.9551068995e+00	 4.4845666600e-01	 2.0291339092e+00
 1.9509855537e+00	 4.6605990648e-01	 1.9685880726e+00
 1.9466945791e+00	 4.8367009512e-01	 1.9078564432e+00
 1.9422332501e+00	 5.0128494912e-01	 1.8474764854e+00
 1.9376008788e+00	 5.1890216138e-01	 1.7880114816e+00
 1.9850109807e+00	 3.4461692418e-01	 2.3459031876e+00
 1.9818764184e+00	 3.6220902474e-01	 2.2989656119e+00
 1.9785766092e+00	 3.7982131082e-01	 2.2458332710e+00
 1.9751106126e+00	 3.9745164986e-01	 2.1897804859e+00
 1.9714775216e+00	 4.1509788109e-01	 2.1315896841e+00
 1.9676764627e+00	 4.3275781611e-01	 2.0716618845e+00
 1.9637065977e+00	 4.5042923946e-01	 2.0104488871e+00
 1.9595671239e+00	 4.6810990924e-01	 1.9484483990e+00
 1.9552572751e+00	 4.8579755774e-01	 1.8861982618e+00
 1.9507763225e+00	 5.0348989212e-01	 1.8242696624e+00
 1.9461235754e+00	 5.2118459513e-01	 1.7632592104e+00
 1.9937039777e+00	 3.4612611173e-01	 2.3329843885e+00
 1.9905556880e+00	 3.6379525372e-01	 2.2857689845e+00
 1.9872414279e+00	 3.8148466962e-01	 2.2323928463e+00
 1.9837602527e+00	 3.9919221754e-01	 2.1760557136e+00
 1.9801112511e+00	 4.1691572725e-01	 2.1174052427e+00
 1.9762935462e+00	 4.3465300077e-01	 2.0568614583e+00
 1.9723062959e+00	 4.5240181292e-01	 1.9948937222e+00
 1.9681486940e+00	 4.7015991200e-01	 1.9320162618e+00
 1.9638199710e+00	 4.8792502036e-01	 1.8687827780e+00
 1.9593193949e+00	 5.0569483513e-01	 1.8057800127e+00
 1.9546462719e+00	 5.2346702889e-01	 1.7436201514e+00
 2.0023969746e+00	 3.4763529928e-01	 2.3196284329e+00
 1.9992349577e+00	 3.6538148269e-01	 2.2725683391e+00
 1.9959062466e+00	 3.8314802842e-01	 2.2194843523e+00
 1.9924098927e+00	 4.0093278522e-01	 2.1634221071e+00
 1.9887449807e+00	 4.1873357342e-01	 2.1049101123e+00
 1.9849106297e+00	 4.3654818543e-01	 2.0443681159e+00
 1.9809059941e+00	 4.5437438639e-01	 1.9822639968e+00
 1.9767302641e+00	 4.7220991476e-01	 1.9191097408e+00
 1.9723826669e+00	 4.9005248298e-01	 1.8554564772e+00
 1.9678624673e+00	 5.0789977813e-01	 1.7918884466e+00
 1.9631689684e+00	 5.2574946265e-01	 1.7290157752e+00
 2.0110899715e+00	 3.4914448683e-01	 2.3056209124e+00
 2.0079142273e+00	 3.6696771167e-01	 2.2591390764e+00
 2.0045710654e+00	 3.8481138722e-01	 2.2068773926e+00
 2.0010595327e+00	 4.0267335290e-01	 2.1516495235e+00
 1.9973787103e+00	 4.2055141958e-01	 2.0938797958e+00
 1.9935277133e+00	 4.3844337008e-01	 2.0339684916e+00
 1.9895056923e+00	 4.5634695985e-01	 1.9723630577e+00
 1.9853118343e+00	 4.7425991752e-01	 1.9095545774e+00
 1.9809453628e+00	 4.9217994560e-01	 1.8460732794e+00
 1.9764055397e+00	 5.1010472113e-01	 1.7824829542e+00
 1.9716916650e+00	 5.2803189640e-01	 1.7193741434e+00
 2.0197829684e+00	 3.5065367438e-01	 2.2907536043e+00
 2.0165934970e+00	 3.6855394064e-01	 2.2452633224e+00
 2.0132358841e+00	 3.8647474601e-01	 2.1943484873e+00
 2.0097091728e+00	 4.0441392058e-01	 2.1405150653e+00
 2.0060124398e+00	 4.2236926574e-01	 2.0840972684e+00
 2.0021447968e+00	 4.4033855474e-01	 2.0254568124e+00
 1.9981053905e+00	 4.5831953331e-01	 1.9650018550e+00
 1.9938934044e+00	 4.7630992028e-01	 1.9031840086e+00
 1.9895080588e+00	 4.9430740822e-01	 1.8404943714e+00
 1.9849486121e+00	 5.1230966413e-01	 1.7774584357e+00
 1.9802143615e+00	 5.3031433016e-01	 1.7146297397e+00
 2.0284759653e+00	 3.5216286193e-01	 2.2748243543e+00
 2.0252727667e+00	 3.7014016961e-01	 2.2307298001e+00
 2.0219007028e+00	 3.8813810481e-01	 2.1816809467e+00
 2.0183588128e+00	 4.0615448827e-01	 2.1298029424e+00
 2.0146461694e+00	 4.2418711190e-01	 2.0753528316e+00
 2.0107618803e+00	 4.4223373939e-01	 2.0186347461e+00
 2.0067050887e+00	 4.6029210677e-01	 1.9599987822e+00
 2.0024749745e+00	 4.7835992304e-01	 1.8998386037e+00
 1.9980707547e+00	 4.9643487084e-01	 1.8385880399e+00
 1.9934916845e+00	 5.1451460713e-01	 1.7767165343e+00
 1.9887370581e+00	 5.3259676391e-01	 1.7147233037e+00
 1.9035100927e+00	 5.0977242635e-01	 1.9399635640e+00
 1.8987905551e+00	 5.2707970286e-01	 1.8870926239e+00
 1.8939017510e+00	 5.4438469569e-01	 1.8285285958e+00
 1.8888431238e+00	 5.6168507249e-01	 1.7641586240e+00
 1.8836141573e+00	 5.7897848006e-01	 1.6938784994e+00
 1.8782143759e+00	 5.9626254515e-01	 1.6175783402e+00
 1.8726433462e+00	 6.1353487531e-01	 1.5351267806e+00
 1.8669006767e+00	 6.3079305973e-01	 1.4463536080e+00
 1.8609860192e+00	 6.4803467015e-01	 1.3510307993e+00
 1.8548990690e+00	 6.6525726174e-01	 1.2488519159e+00
 1.8486395656e+00	 6.8245837404e-01	 1.1422283437e+00
 1.9120327892e+00	 5.1205486010e-01	 1.8938353194e+00
 1.9072921205e+00	 5.2943962749e-01	 1.8389104186e+00
 1.9023814275e+00	 5.4682210098e-01	 1.7792851568e+00
 1.8973001511e+00	 5.6419993776e-01	 1.7150287419e+00
 1.8920477726e+00	 5.8157077411e-01	 1.6462161838e+00
 1.8866238145e+00	 5.9893222615e-01	 1.5729137655e+00
 1.8810278413e+00	 6.1628189072e-01	 1.4951629717e+00
 1.8752594598e+00	 6.3361734621e-01	 1.4129628136e+00
 1.8693183203e+00	 6.5093615350e-01	 1.3262504963e+00
 1.8632041166e+00	 6.6823585680e-01	 1.2348803867e+00
 1.8569165872e+00	 6.8551398464e-01	 1.1386012509e+00
 1.9205554858e+00	 5.1433729386e-01	 1.8532037567e+00
 1.9157936860e+00	 5.3179955213e-01	 1.7963206578e+00
 1.9108611041e+00	 5.4925950626e-01	 1.7355634125e+00
 1.9057571784e+00	 5.6671480303e-01	 1.6711588100e+00
 1.9004813879e+00	 5.8416306816e-01	 1.6033371512e+00
 1.8950332530e+00	 6.0160190715e-01	 1.5323175584e+00
 1.8894123363e+00	 6.1902890613e-01	 1.4582916898e+00
 1.8836182429e+00	 6.3644163270e-01	 1.3814057967e+00
 1.8776506213e+00	 6.5383763685e-01	 1.3017410644e+00
 1.8715091642e+00	 6.7121445186e-01	 1.2192921951e+00
 1.8651936087e+00	 6.8856959524e-01	 1.1339441974e+00
 1.9290781823e+00	 5.1661972762e-01	 1.8179622554e+00
 1.9242952515e+00	 5.3415947676e-01	 1.7592664194e+00
 1.9193407806e+00	 5.5169691155e-01	 1.6973638610e+00
 1.9142142056e+00	 5.6922966830e-01	 1.6326147179e+00
 1.9089150032e+00	 5.8675536221e-01	 1.5653809085e+00
 1.9034426916e+00	 6.0427158815e-01	 1.4960113275e+00
 1.8977968314e+00	 6.2177592154e-01	 1.4248253928e+00
 1.8919770259e+00	 6.3926591918e-01	 1.3520948793e+00
 1.8859829223e+00	 6.5673912020e-01	 1.2780239769e+00
 1.8798142117e+00	 6.7419304692e-01	 1.2027275294e+00
 1.8734706302e+00	 6.9162520584e-01	 1.1262074147e+00
 1.9376008788e+00	 5.1890216138e-01	 1.7880114816e+00
 1.9327968170e+00	 5.3651940139e-01	 1.7276974207e+00
 1.9278204572e+00	 5.5413431683e-01	 1.6646928281e+00
 1.9226712329e+00	 5.7174453357e-01	 1.5994672006e+00
 1.9173486185e+00	 5.8934765626e-01	 1.5324906485e+00
 1.9118521302e+00	 6.0694126915e-01	 1.4642190244e+00
 1.9061813264e+00	 6.2452293695e-01	 1.3950773495e+00
 1.9003358090e+00	 6.4209020566e-01	 1.3254414679e+00
 1.8943152234e+00	 6.5964060354e-01	 1.2556178653e+00
 1.8881192593e+00	 6.7717164198e-01	 1.1858216041e+00
 1.8817476518e+00	 6.9468081645e-01	 1.1161523344e+00
 1.9461235754e+00	 5.2118459513e-01	 1.7632592104e+00
 1.9412983825e+00	 5.3887932603e-01	 1.7015698452e+00
 1.9363001337e+00	 5.5657172212e-01	 1.6375623009e+00
 1.9311282602e+00	 5.7425939884e-01	 1.5717916810e+00
 1.9257822338e+00	 5.9193995031e-01	 1.5048131042e+00
 1.9202615687e+00	 6.0961095015e-01	 1.4371668132e+00
 1.9145658215e+00	 6.2726995236e-01	 1.3693615273e+00
 1.9086945921e+00	 6.4491449215e-01	 1.3018559620e+00
 1.9026475244e+00	 6.6254208689e-01	 1.2350384512e+00
 1.8964243069e+00	 6.8015023704e-01	 1.1692046196e+00
 1.8900246733e+00	 6.9773642705e-01	 1.1045330632e+00
 1.9546462719e+00	 5.2346702889e-01	 1.7436201514e+00
 1.9497999479e+00	 5.4123925066e-01	 1.6808461711e+00
 1.9447798103e+00	 5.5900912740e-01	 1.6159897625e+00
 1.9395852874e+00	 5.7677426411e-01	 1.5496681141e+00
 1.9342158491e+00	 5.9453224436e-01	 1.4824984044e+00
 1.9286710073e+00	 6.1228063115e-01	 1.4150829399e+00
 1.9229503165e+00	 6.3001696777e-01	 1.3479924787e+00
 1.9170533751e+00	 6.4773877863e-01	 1.2817476608e+00
 1.9109798254e+00	 6.6544357024e-01	 1.2167984770e+00
 1.9047293545e+00	 6.8312883210e-01	 1.1535017191e+00
 1.8983016948e+00	 7.0079203765e-01	 1.0920963691e+00
 1.9631689684e+00	 5.2574946265e-01	 1.7290157752e+00
 1.9583015134e+00	 5.4359917529e-01	 1.6654950025e+00
 1.9532594868e+00	 5.6144653269e-01	 1.5999980288e+00
 1.9480423147e+00	 5.7928912938e-01	 1.5331808310e+00
 1.9426494644e+00	 5.9712453841e-01	 1.4656999293e+00
 1.9370804458e+00	 6.1495031215e-01	 1.3981976019e+00
 1.9313348116e+00	 6.3276398318e-01	 1.3312852269e+00
 1.9254121582e+00	 6.5056306511e-01	 1.2655246681e+00
 1.9193121264e+00	 6.6834505359e-01	 1.2014076328e+00
 1.9130344020e+00	 6.8610742717e-01	 1.1393329413e+00
 1.9065787164e+00	 7.0384764826e-01	 1.0795816631e+00
 1.9716916650e+00	 5.2803189640e-01	 1.7193741434e+00
 1.9668030789e+00	 5.4595909993e-01	 1.6554909015e+00
 1.9617391634e+00	 5.6388393797e-01	 1.5896150866e+00
 1.9564993420e+00	 5.8180399465e-01	 1.5224183859e+00
 1.9510830797e+00	 5.9971683246e-01	 1.4545741668e+00
 1.9454898844e+00	 6.1761999316e-01	 1.3867428171e+00
 1.9397193067e+00	 6.3551099859e-01	 1.3195551511e+00
 1.9337709413e+00	 6.5338735160e-01	 1.2535937962e+00
 1.9276444275e+00	 6.7124653694e-01	 1.1893724817e+00
 1.9213394496e+00	 6.8908602223e-01	 1.1273131698e+00
 1.9148557379e+00	 7.0690325886e-01	 1.0677209765e+00
 1.9802143615e+00	 5.3031433016e-01	 1.7146297397e+00
 1.9753046444e+00	 5.4831902456e-01	 1.6508142229e+00
 1.9702188399e+00	 5.6632134326e-01	 1.5848739331e+00
 1.9649563692e+00	 5.8431885992e-01	 1.5174734024e+00
 1.9595166950e+00	 6.0230912651e-01	 1.4492805694e+00
 1.9538993229e+00	 6.2028967416e-01	 1.3809522932e+00
 1.9481038017e+00	 6.3825801400e-01	 1.3131178706e+00
 1.9421297244e+00	 6.5621163808e-01	 1.2463604671e+00
 1.9359767285e+00	 6.7414802029e-01	 1.1811963821e+00
 1.9296444972e+00	 6.9206461729e-01	 1.1180520795e+00
 1.9231327594e+00	 7.0995886946e-01	 1.0572389336e+00
 1.9887370581e+00	 5.3259676391e-01	 1.7147233037e+00
 1.9838062098e+00	 5.5067894919e-01	 1.6514509503e+00
 1.9786985165e+00	 5.6875874854e-01	 1.5858124167e+00
 1.9734133965e+00	 5.8683372519e-01	 1.5184424214e+00
 1.9679503103e+00	 6.0490142056e-01	 1.4499814113e+00
 1.9623087615e+00	 6.2295935516e-01	 1.3810612969e+00
 1.9564882968e+00	 6.4100502941e-01	 1.3122891278e+00
 1.9504885074e+00	 6.5903592457e-01	 1.2442286140e+00
 1.9443090295e+00	 6.7704950364e-01	 1.1773794082e+00
 1.9379495447e+00	 6.9504321235e-01	 1.1121540794e+00
 1.9314097810e+00	 7.1301448007e-01	 1.0488527204e+00
 1.8486395656e+00	 6.8245837404e-01	 1.1422283437e+00
 1.8422061850e+00	 6.9963844990e-01	 1.0446148649e+00
 1.8355998053e+00	 7.1679207226e-01	 9.5603801897e-01
 1.8288203008e+00	 7.3391673744e-01	 8.7553423416e-01
 1.8218675923e+00	 7.5100993004e-01	 8.0114839492e-01
 1.8147416478e+00	 7.6806912395e-01	 7.2905213456e-01
 1.8074424822e+00	 7.8509178342e-01	 6.5776954697e-01
 1.7999701588e+00	 8.0207536413e-01	 5.8593736129e-01
 1.7923247887e+00	 8.1901731432e-01	 5.1203532641e-01
 1.7845065320e+00	 8.3591507583e-01	 4.3439650979e-01
 1.7765155975e+00	 8.5276608528e-01	 3.5121952676e-01
 1.8569165872e+00	 6.8551398464e-01	 1.1386012509e+00
 1.8504544020e+00	 7.0277098185e-01	 1.0357607829e+00
 1.8438184431e+00	 7.2000140712e-01	 9.3872480885e-01
 1.8370085843e+00	 7.3720274557e-01	 8.5281710301e-01
 1.8300247461e+00	 7.5437247051e-01	 7.7526811093e-01
 1.8228668962e+00	 7.7150804454e-01	 7.0228808525e-01
 1.8155350497e+00	 7.8860692056e-01	 6.3211907478e-01
 1.8080292700e+00	 8.0566654285e-01	 5.6290566704e-01
 1.8003496688e+00	 8.2268434822e-01	 4.9263699272e-01
 1.7924964070e+00	 8.3965776706e-01	 4.1915776368e-01
 1.7844696941e+00	 8.5658422452e-01	 3.4018128852e-01
 1.8651936087e+00	 6.8856959524e-01	 1.1339441974e+00
 1.8587026190e+00	 7.0590351381e-01	 1.0435634115e+00
 1.8520370810e+00	 7.2321074199e-01	 9.4589385250e-01
 1.8451968679e+00	 7.4048875370e-01	 8.5068874223e-01
 1.8381819000e+00	 7.5773501099e-01	 7.6616900047e-01
 1.8309921446e+00	 7.7494696514e-01	 6.8882036142e-01
 1.8236276171e+00	 7.9212205770e-01	 6.1654266420e-01
 1.8160883811e+00	 8.0925772156e-01	 5.4707048222e-01
 1.8083745489e+00	 8.2635138211e-01	 4.7798255763e-01
 1.8004862819e+00	 8.4340045828e-01	 4.0671343922e-01
 1.7924237908e+00	 8.6040236375e-01	 3.3056714662e-01
 1.8734706302e+00	 6.9162520584e-01	 1.1262074147e+00
 1.8669508360e+00	 7.0903604576e-01	 1.0464455373e+00
 1.8602557188e+00	 7.2642007686e-01	 9.6100637441e-01
 1.8533851515e+00	 7.4377476183e-01	 8.6894522019e-01
 1.8463390538e+00	 7.6109755146e-01	 7.7428008483e-01
 1.8391173930e+00	 7.7838588573e-01	 6.8909133367e-01
 1.8317201845e+00	 7.9563719483e-01	 6.1146867564e-01
 1.8241474923e+00	 8.1284890028e-01	 5.3881772944e-01
 1.8163994290e+00	 8.3001841600e-01	 4.6838602023e-01
 1.8084761569e+00	 8.4714314951e-01	 3.9727507877e-01
 1.8003778875e+00	 8.6422050298e-01	 3.2245461726e-01
 1.8817476518e+00	 6.9468081645e-01	 1.1161523344e+00
 1.8751990530e+00	 7.1216857772e-01	 1.0447671100e+00
 1.8684743567e+00	 7.2962941173e-01	 9.6918025005e-01
 1.8615734351e+00	 7.4706076995e-01	 8.8809121275e-01
 1.8544962076e+00	 7.6446009194e-01	 7.9854824963e-01
 1.8472426414e+00	 7.8182480633e-01	 7.0353895497e-01
 1.8398127520e+00	 7.9915233197e-01	 6.1732120361e-01
 1.8322066034e+00	 8.1644007899e-01	 5.3852973013e-01
 1.8244243091e+00	 8.3368544990e-01	 4.6415897735e-01
 1.8164660319e+00	 8.5088584073e-01	 3.9105357652e-01
 1.8083319842e+00	 8.6803864221e-01	 3.1592289831e-01
 1.8900246733e+00	 6.9773642705e-01	 1.1045330632e+00
 1.8834472699e+00	 7.1530110968e-01	 1.0394000872e+00
 1.8766929945e+00	 7.3283874660e-01	 9.7138277108e-01
 1.8697617187e+00	 7.5034677808e-01	 8.9885661258e-01
 1.8626533614e+00	 7.6782263241e-01	 8.1888358727e-01
 1.8553678898e+00	 7.8526372693e-01	 7.3011613551e-01
 1.8479053194e+00	 8.0266746911e-01	 6.3452005608e-01
 1.8402657146e+00	 8.2003125771e-01	 5.4658515646e-01
 1.8324491893e+00	 8.3735248379e-01	 4.6561053680e-01
 1.8244559068e+00	 8.5462853196e-01	 3.8825904130e-01
 1.8162860809e+00	 8.7185678144e-01	 3.1105266966e-01
 1.8983016948e+00	 7.0079203765e-01	 1.0920963691e+00
 1.8916954869e+00	 7.1843364163e-01	 1.0312068737e+00
 1.8849116324e+00	 7.3604808146e-01	 9.6856981679e-01
 1.8779500023e+00	 7.5363278621e-01	 9.0228884960e-01
 1.8708105152e+00	 7.7118517289e-01	 8.2964563958e-01
 1.8634931382e+00	 7.8870264752e-01	 7.4935819832e-01
 1.8559978868e+00	 8.0618260625e-01	 6.6022558415e-01
 1.8483248258e+00	 8.2362243642e-01	 5.6335897619e-01
 1.8404740694e+00	 8.4101951769e-01	 4.7304722429e-01
 1.8324457818e+00	 8.5837122318e-01	 3.8910065425e-01
 1.8242401776e+00	 8.7567492067e-01	 3.0792588982e-01
 1.9065787164e+00	 7.0384764826e-01	 1.0795816631e+00
 1.8999437039e+00	 7.2156617359e-01	 1.0210403293e+00
 1.8931302703e+00	 7.3925741633e-01	 9.6168587930e-01
 1.8861382859e+00	 7.5691879434e-01	 8.9941811015e-01
 1.8789676691e+00	 7.7454771336e-01	 8.3189703120e-01
 1.8716183866e+00	 7.9214156812e-01	 7.5789167810e-01
 1.8640904543e+00	 8.0969774340e-01	 6.7618608603e-01
 1.8563839369e+00	 8.2721361514e-01	 5.8556691020e-01
 1.8484989495e+00	 8.4468655158e-01	 4.8677288432e-01
 1.8404356568e+00	 8.6211391441e-01	 3.9378652151e-01
 1.8321942743e+00	 8.7949305990e-01	 3.0662558889e-01
 1.9148557379e+00	 7.0690325886e-01	 1.0677209765e+00
 1.9081919209e+00	 7.2469870555e-01	 1.0097437710e+00
 1.9013489081e+00	 7.4246675120e-01	 9.5165591036e-01
 1.8943265694e+00	 7.6020480247e-01	 8.9125764153e-01
 1.8871248229e+00	 7.7791025384e-01	 8.2668281669e-01
 1.8797436350e+00	 7.9558048872e-01	 7.5676915577e-01
 1.8721830217e+00	 8.1321288054e-01	 6.8036223374e-01
 1.8644430481e+00	 8.3080479385e-01	 5.9630913598e-01
 1.8565238296e+00	 8.4835358548e-01	 5.0345141621e-01
 1.8484255317e+00	 8.6585660563e-01	 4.0252352199e-01
 1.8401483710e+00	 8.8331119913e-01	 3.0723565801e-01
 1.9231327594e+00	 7.0995886946e-01	 1.0572389336e+00
 1.9164401379e+00	 7.2783123751e-01	 9.9815097004e-01
 1.9095675460e+00	 7.4567608607e-01	 9.3936854749e-01
 1.9025148530e+00	 7.6349081060e-01	 8.7880404991e-01
 1.8952819767e+00	 7.8127279431e-01	 8.1503079125e-01
 1.8878688835e+00	 7.9901940931e-01	 7.4702574810e-01
 1.8802755891e+00	 8.1672801768e-01	 6.7377157222e-01
 1.8725021593e+00	 8.3439597257e-01	 5.9424989569e-01
 1.8645487097e+00	 8.5202061937e-01	 5.0743391877e-01
 1.8564154067e+00	 8.6959929686e-01	 4.1228028463e-01
 1.8481024677e+00	 8.8712933836e-01	 3.0984063543e-01
 1.9314097810e+00	 7.1301448007e-01	 1.0488527204e+00
 1.9246883549e+00	 7.3096376946e-01	 9.8708614393e-01
 1.9177861838e+00	 7.4888542094e-01	 9.2574475994e-01
 1.9107031366e+00	 7.6677681873e-01	 8.6303759172e-01
 1.9034391305e+00	 7.8463533479e-01	 7.9795179455e-01
 1.8959941319e+00	 8.0245832991e-01	 7.2967941504e-01
 1.8883681565e+00	 8.2024315482e-01	 6.5741471013e-01
 1.8805612704e+00	 8.3798715128e-01	 5.8034697940e-01
 1.8725735898e+00	 8.5568765327e-01	 4.9765265999e-01
 1.8644052817e+00	 8.7334198809e-01	 4.0848668863e-01
 1.8560565644e+00	 8.9094747759e-01	 3.1197313996e-01
 1.7765155975e+00	 8.5276608528e-01	 3.5121952676e-01
 1.7683536454e+00	 8.6956492342e-01	 2.6703090610e-01
 1.7600196386e+00	 8.8631188877e-01	 1.8710820034e-01
 1.7515139334e+00	 9.0300440955e-01	 1.1061878535e-01
 1.7428369360e+00	 9.1963991332e-01	 3.6598844254e-02
 1.7339891027e+00	 9.3621582822e-01	-3.6026500734e-02
 1.7249709404e+00	 9.5272958417e-01	-1.0842092959e-01
 1.7157830063e+00	 9.6917861406e-01	-1.8181255151e-01
 1.7064259082e+00	 9.8556035499e-01	-2.5746744308e-01
 1.6969003048e+00	 1.0018722495e+00	-3.3666113621e-01
 1.6872069052e+00	 1.0181117467e+00	-4.2064810772e-01
 1.7844696941e+00	 8.5658422452e-01	 3.4018128852e-01
 1.7762711981e+00	 8.7345827706e-01	 2.5940342425e-01
 1.7678998770e+00	 8.9028022458e-01	 1.8173658130e-01
 1.7593560887e+00	 9.0704748376e-01	 1.0655510935e-01
 1.7506402413e+00	 9.2375747063e-01	 3.3093082280e-02
 1.7417527931e+00	 9.4040760185e-01	-3.9535664593e-02
 1.7326942532e+00	 9.5699529580e-01	-1.1231530916e-01
 1.7234651814e+00	 9.7351797389e-01	-1.8630364030e-01
 1.7140661883e+00	 9.8997306174e-01	-2.6260550260e-01
 1.7044979353e+00	 1.0063579904e+00	-3.4234412563e-01
 1.6947611348e+00	 1.0226701977e+00	-4.2663038890e-01
 1.7924237908e+00	 8.6040236375e-01	 3.3056714662e-01
 1.7841887508e+00	 8.7735163071e-01	 2.5235910763e-01
 1.7757801154e+00	 8.9424856039e-01	 1.7648994902e-01
 1.7671982440e+00	 9.1109055796e-01	 1.0247104192e-01
 1.7584435465e+00	 9.2787502795e-01	 2.9665185114e-02
 1.7495164834e+00	 9.4459937547e-01	-4.2693351845e-02
 1.7404175660e+00	 9.6126100742e-01	-1.1547653543e-01
 1.7311473565e+00	 9.7785733371e-01	-1.8963803438e-01
 1.7217064683e+00	 9.9438576848e-01	-2.6618646807e-01
 1.7120955658e+00	 1.0108437314e+00	-3.4615647340e-01
 1.7023153645e+00	 1.0272286487e+00	-4.3057764102e-01
 1.8003778875e+00	 8.6422050298e-01	 3.2245461726e-01
 1.7921063035e+00	 8.8124498436e-01	 2.4583396884e-01
 1.7836603537e+00	 8.9821689620e-01	 1.7118069399e-01
 1.7750403993e+00	 9.1513363217e-01	 9.8074172159e-02
 1.7662468518e+00	 9.3199258526e-01	 2.5937686012e-02
 1.7572801737e+00	 9.4879114909e-01	-4.5941430293e-02
 1.7481408788e+00	 9.6552671904e-01	-1.1838932975e-01
 1.7388295316e+00	 9.8219669353e-01	-1.9232088595e-01
 1.7293467484e+00	 9.9879847523e-01	-2.6871264299e-01
 1.7196931963e+00	 1.0153294723e+00	-3.4857351727e-01
 1.7098695942e+00	 1.0317870997e+00	-4.3291330164e-01
 1.8083319842e+00	 8.6803864221e-01	 3.1592289831e-01
 1.8000238562e+00	 8.8513833800e-01	 2.3976818615e-01
 1.7915405921e+00	 9.0218523201e-01	 1.6562756632e-01
 1.7828825546e+00	 9.1917670637e-01	 9.3080338176e-02
 1.7740501570e+00	 9.3611014258e-01	 2.1542937510e-02
 1.7650438641e+00	 9.5298292272e-01	-4.9710711779e-02
 1.7558641916e+00	 9.6979243067e-01	-1.2152646876e-01
 1.7465117068e+00	 9.8653605336e-01	-1.9484487588e-01
 1.7369870284e+00	 1.0032111820e+00	-2.7067370917e-01
 1.7272908268e+00	 1.0198152133e+00	-3.5005821321e-01
 1.7174238239e+00	 1.0363455507e+00	-4.3404907066e-01
 1.8162860809e+00	 8.7185678144e-01	 3.1105266966e-01
 1.8079414089e+00	 8.8903169165e-01	 2.3410583849e-01
 1.7994208305e+00	 9.0615356782e-01	 1.5965535244e-01
 1.7907247099e+00	 9.2321978058e-01	 8.7213252805e-02
 1.7818534623e+00	 9.4022769989e-01	 1.6122693796e-02
 1.7728075544e+00	 9.5717469634e-01	-5.4421405071e-02
 1.7635875044e+00	 9.7405814229e-01	-1.2534926413e-01
 1.7541938819e+00	 9.9087541318e-01	-1.9769071156e-01
 1.7446273085e+00	 1.0076238887e+00	-2.7254723367e-01
 1.7348884573e+00	 1.0243009542e+00	-3.5106164198e-01
 1.7249780536e+00	 1.0409040017e+00	-4.3438540668e-01
 1.8242401776e+00	 8.7567492067e-01	 3.0792588982e-01
 1.8158589616e+00	 8.9292504530e-01	 2.2879463831e-01
 1.8073010689e+00	 9.1012190363e-01	 1.5309455093e-01
 1.7985668651e+00	 9.2726285478e-01	 8.0204129520e-02
 1.7896567675e+00	 9.4434525721e-01	 9.3276942728e-03
 1.7805712447e+00	 9.6136646996e-01	-6.0483566833e-02
 1.7713108171e+00	 9.7832385392e-01	-1.3030803986e-01
 1.7618760570e+00	 9.9521477300e-01	-2.0132762202e-01
 1.7522675885e+00	 1.0120365955e+00	-2.7479917279e-01
 1.7424860878e+00	 1.0287866951e+00	-3.5202351295e-01
 1.7325322833e+00	 1.0454624527e+00	-4.3431202107e-01
 1.8321942743e+00	 8.7949305990e-01	 3.0662558889e-01
 1.8237765143e+00	 8.9681839894e-01	 2.2378566215e-01
 1.8151813072e+00	 9.1409023944e-01	 1.4578104740e-01
 1.8064090204e+00	 9.3130592898e-01	 7.1791308597e-02
 1.7974600728e+00	 9.4846281452e-01	 8.1724827088e-04
 1.7883349351e+00	 9.6555824359e-01	-6.8297550710e-02
 1.7790341299e+00	 9.8258956554e-01	-1.3684260717e-01
 1.7695582321e+00	 9.9955413283e-01	-2.0621385036e-01
 1.7599078685e+00	 1.0164493022e+00	-2.7788437344e-01
 1.7500837184e+00	 1.0332724361e+00	-3.5337266520e-01
 1.7400865129e+00	 1.0500209036e+00	-4.3420836972e-01
 1.8401483710e+00	 8.8331119913e-01	 3.0723565801e-01
 1.8316940670e+00	 9.0071175259e-01	 2.1903307923e-01
 1.8230615456e+00	 9.1805857525e-01	 1.3755578858e-01
 1.8142511757e+00	 9.3534900319e-01	 6.1719883495e-02
 1.8052633781e+00	 9.5258037184e-01	-9.7411791348e-03
 1.7960986254e+00	 9.6975001721e-01	-7.8254454610e-02
 1.7867574427e+00	 9.8685527717e-01	-1.4538273712e-01
 1.7772404072e+00	 1.0038934927e+00	-2.1279714352e-01
 1.7675481486e+00	 1.0208620090e+00	-2.8224707163e-01
 1.7576813489e+00	 1.0377581770e+00	-3.5552756624e-01
 1.7476407426e+00	 1.0545793546e+00	-4.3444414272e-01
 1.8481024677e+00	 8.8712933836e-01	 3.0984063543e-01
 1.8396116197e+00	 9.0460510624e-01	 2.1449387797e-01
 1.8309417840e+00	 9.2202691106e-01	 1.2826445553e-01
 1.8220933310e+00	 9.3939207740e-01	 4.9741327446e-02
 1.8130666833e+00	 9.5669792915e-01	-2.2672380224e-02
 1.8038623158e+00	 9.7394179083e-01	-9.0736566223e-02
 1.7944807555e+00	 9.9112098879e-01	-1.5634863094e-01
 1.7849225824e+00	 1.0082328525e+00	-2.2151523957e-01
 1.7751884286e+00	 1.0252747157e+00	-2.8832138850e-01
 1.7652789794e+00	 1.0422439180e+00	-3.5889680807e-01
 1.7551949723e+00	 1.0591378056e+00	-4.3537975186e-01
 1.8560565644e+00	 8.9094747759e-01	 3.1197313996e-01
 1.8475291724e+00	 9.0849845989e-01	 2.1012759044e-01
 1.8388220224e+00	 9.2599524687e-01	 1.1775713612e-01
 1.8299354863e+00	 9.4343515160e-01	 3.5613120255e-02
 1.8208699886e+00	 9.6081548646e-01	-3.8293816688e-02
 1.8116260061e+00	 9.7813356446e-01	-1.0611780684e-01
 1.8022040683e+00	 9.9538670041e-01	-1.7015138821e-01
 1.7926047575e+00	 1.0125722123e+00	-2.3279635249e-01
 1.7828287087e+00	 1.0296874225e+00	-2.9653182371e-01
 1.7728766099e+00	 1.0467296589e+00	-3.6387960101e-01
 1.7627492020e+00	 1.0636962566e+00	-4.3736681605e-01
 1.6872069052e+00	 1.0181117467e+00	-4.2064810772e-01
 1.6773464695e+00	 1.0342763041e+00	-5.0500946811e-01
 1.6673198101e+00	 1.0503633895e+00	-5.8518194921e-01
 1.6571277905e+00	 1.0663704815e+00	-6.6205623121e-01
 1.6467713242e+00	 1.0822950704e+00	-7.3634290824e-01
 1.6362513750e+00	 1.0981346594e+00	-8.0853307572e-01
 1.6255689568e+00	 1.1138867658e+00	-8.7880815920e-01
 1.6147251331e+00	 1.1295489225e+00	-9.4506669271e-01
 1.6037210169e+00	 1.1451186788e+00	-1.0059681348e+00
 1.5925577705e+00	 1.1605936020e+00	-1.0611655604e+00
 1.5812366048e+00	 1.1759712785e+00	-1.1102566150e+00
 1.6947611348e+00	 1.0226701977e+00	-4.2663038890e-01
 1.6848565504e+00	 1.0389071296e+00	-5.1081059224e-01
 1.6747849982e+00	 1.0550662427e+00	-5.9031046252e-01
 1.6645473452e+00	 1.0711450041e+00	-6.6622097372e-01
 1.6541445093e+00	 1.0871408931e+00	-7.3945464467e-01
 1.6435774585e+00	 1.1030514016e+00	-8.1070507915e-01
 1.6328472113e+00	 1.1188740358e+00	-8.7999850023e-01
 1.6219548359e+00	 1.1346063176e+00	-9.4492163486e-01
 1.6109014504e+00	 1.1502457853e+00	-1.0049230463e+00
 1.5996882221e+00	 1.1657899953e+00	-1.0598110859e+00
 1.5883163675e+00	 1.1812365232e+00	-1.1093342609e+00
 1.7023153645e+00	 1.0272286487e+00	-4.3057764102e-01
 1.6923666314e+00	 1.0435379551e+00	-5.1457906622e-01
 1.6822501862e+00	 1.0597690958e+00	-5.9353653087e-01
 1.6719668999e+00	 1.0759195268e+00	-6.6871800619e-01
 1.6615176944e+00	 1.0919867158e+00	-7.4121509701e-01
 1.6509035420e+00	 1.1079681438e+00	-8.1190155841e-01
 1.6401254658e+00	 1.1238613059e+00	-8.8024260372e-01
 1.6291845387e+00	 1.1396637127e+00	-9.4413115190e-01
 1.6180818838e+00	 1.1553728918e+00	-1.0035117583e+00
 1.6068186737e+00	 1.1709863886e+00	-1.0583254064e+00
 1.5953961302e+00	 1.1865017678e+00	-1.1084491645e+00
 1.7098695942e+00	 1.0317870997e+00	-4.3291330164e-01
 1.6998767124e+00	 1.0481687806e+00	-5.1667541812e-01
 1.6897153742e+00	 1.0644719489e+00	-5.9516146553e-01
 1.6793864546e+00	 1.0806940494e+00	-6.6979348286e-01
 1.6688908795e+00	 1.0968325385e+00	-7.4181969341e-01
 1.6582296256e+00	 1.1128848861e+00	-8.1224961705e-01
 1.6474037203e+00	 1.1288485760e+00	-8.7961240045e-01
 1.6364142416e+00	 1.1447211079e+00	-9.4273969141e-01
 1.6252623173e+00	 1.1604999983e+00	-1.0017575400e+00
 1.6139491253e+00	 1.1761827819e+00	-1.0567172422e+00
 1.6024758929e+00	 1.1917670125e+00	-1.1076024436e+00
 1.7174238239e+00	 1.0363455507e+00	-4.3404907066e-01
 1.7073867934e+00	 1.0527996061e+00	-5.1744924126e-01
 1.6971805623e+00	 1.0691748021e+00	-5.9547634604e-01
 1.6868060093e+00	 1.0854685720e+00	-6.6968392303e-01
 1.6762640646e+00	 1.1016783613e+00	-7.4145471161e-01
 1.6655557091e+00	 1.1178016283e+00	-8.1163079836e-01
 1.6546819748e+00	 1.1338358460e+00	-8.7818091404e-01
 1.6436439444e+00	 1.1497785030e+00	-9.4079310721e-01
 1.6324427508e+00	 1.1656271049e+00	-9.9968528157e-01
 1.6210795769e+00	 1.1813791752e+00	-1.0549970450e+00
 1.6095556556e+00	 1.1970322572e+00	-1.1067969475e+00
 1.7249780536e+00	 1.0409040017e+00	-4.3438540668e-01
 1.7148968744e+00	 1.0574304316e+00	-5.1723967603e-01
 1.7046457503e+00	 1.0738776552e+00	-5.9476248869e-01
 1.6942255640e+00	 1.0902430947e+00	-6.6861666764e-01
 1.6836372497e+00	 1.1065241840e+00	-7.4029772496e-01
 1.6728817926e+00	 1.1227183705e+00	-8.1008445585e-01
 1.6619602293e+00	 1.1388231161e+00	-8.7602219987e-01
 1.6508736472e+00	 1.1548358982e+00	-9.3833859367e-01
 1.6396231842e+00	 1.1707542114e+00	-9.9732142665e-01
 1.6282100286e+00	 1.1865755685e+00	-1.0531769306e+00
 1.6166354183e+00	 1.2022975018e+00	-1.1060371927e+00
 1.7325322833e+00	 1.0454624527e+00	-4.3431202107e-01
 1.7224069553e+00	 1.0620612571e+00	-5.1637588985e-01
 1.7121109383e+00	 1.0785805084e+00	-5.9329191363e-01
 1.7016451188e+00	 1.0950176173e+00	-6.6681033476e-01
 1.6910104348e+00	 1.1113700067e+00	-7.3851754804e-01
 1.6802078761e+00	 1.1276351128e+00	-8.0771787403e-01
 1.6692384838e+00	 1.1438103861e+00	-8.7321128385e-01
 1.6581033501e+00	 1.1598932933e+00	-9.3542462025e-01
 1.6468036177e+00	 1.1758813179e+00	-9.9469390500e-01
 1.6353404802e+00	 1.1917719618e+00	-1.0512706129e+00
 1.6237151810e+00	 1.2075627465e+00	-1.1053293005e+00
 1.7400865129e+00	 1.0500209036e+00	-4.3420836972e-01
 1.7299170363e+00	 1.0666920826e+00	-5.1517755541e-01
 1.7195761264e+00	 1.0832833615e+00	-5.9132781071e-01
 1.7090646735e+00	 1.0997921399e+00	-6.6447527431e-01
 1.6983836199e+00	 1.1162158294e+00	-7.3608847739e-01
 1.6875339596e+00	 1.1325518550e+00	-8.0463886101e-01
 1.6765167384e+00	 1.1487976562e+00	-8.6982410129e-01
 1.6653330529e+00	 1.1649506885e+00	-9.3210086619e-01
 1.6539840511e+00	 1.1810084244e+00	-9.9183206541e-01
 1.6424709318e+00	 1.1969683551e+00	-1.0492933375e+00
 1.6307949437e+00	 1.2128279911e+00	-1.1046809336e+00
 1.7476407426e+00	 1.0545793546e+00	-4.3444414272e-01
 1.7374271173e+00	 1.0713229081e+00	-5.1395532721e-01
 1.7270413144e+00	 1.0879862147e+00	-5.8912500394e-01
 1.7164842282e+00	 1.1045666626e+00	-6.6181402176e-01
 1.7057568050e+00	 1.1210616521e+00	-7.3300769487e-01
 1.6948600432e+00	 1.1374685972e+00	-8.0095569347e-01
 1.6837949929e+00	 1.1537849262e+00	-8.6593743562e-01
 1.6725627557e+00	 1.1700080836e+00	-9.2841815530e-01
 1.6611644846e+00	 1.1861355309e+00	-9.8876660903e-01
 1.6496013834e+00	 1.2021647484e+00	-1.0472618153e+00
 1.6378747064e+00	 1.2180932358e+00	-1.1041012344e+00
 1.7551949723e+00	 1.0591378056e+00	-4.3537975186e-01
 1.7449371983e+00	 1.0759537336e+00	-5.1301131639e-01
 1.7345065024e+00	 1.0926890678e+00	-5.8693041487e-01
 1.7239037829e+00	 1.1093411852e+00	-6.5902175106e-01
 1.7131299901e+00	 1.1259074749e+00	-7.2942015745e-01
 1.7021861267e+00	 1.1423853395e+00	-7.9677706141e-01
 1.6910732474e+00	 1.1587721963e+00	-8.6162885724e-01
 1.6797924585e+00	 1.1750654787e+00	-9.2442839097e-01
 1.6683449181e+00	 1.1912626374e+00	-9.8552952280e-01
 1.6567318350e+00	 1.2073611416e+00	-1.0451941580e+00
 1.6449544691e+00	 1.2233584805e+00	-1.1036007625e+00
 1.7627492020e+00	 1.0636962566e+00	-4.3736681605e-01
 1.7524472793e+00	 1.0805845591e+00	-5.1263956402e-01
 1.7419716905e+00	 1.0973919210e+00	-5.8498352460e-01
 1.7313233376e+00	 1.1141157078e+00	-6.5622595929e-01
 1.7205031752e+00	 1.1307532976e+00	-7.2547073865e-01
 1.7095122102e+00	 1.1473020817e+00	-7.9221201268e-01
 1.6983515019e+00	 1.1637594664e+00	-8.5697666217e-01
 1.6870221614e+00	 1.1801228739e+00	-9.2018449131e-01
 1.6755253515e+00	 1.1963897440e+00	-9.8215401330e-01
 1.6638622866e+00	 1.2125575349e+00	-1.0431098120e+00
 1.6520342318e+00	 1.2286237251e+00	-1.1031914330e+00
 1.5812366048e+00	 1.1759712785e+00	-1.1102566150e+00
 1.5697568158e+00	 1.1912519024e+00	-1.1573923328e+00
 1.5581216283e+00	 1.2064304705e+00	-1.2070638772e+00
 1.5463324046e+00	 1.2215046238e+00	-1.2592747045e+00
 1.5343905539e+00	 1.2364720272e+00	-1.3139148701e+00
 1.5222975323e+00	 1.2513303705e+00	-1.3707715921e+00
 1.5100548418e+00	 1.2660773696e+00	-1.4295406793e+00
 1.4976640298e+00	 1.2807107680e+00	-1.4898387375e+00
 1.4851266886e+00	 1.2952283376e+00	-1.5512160621e+00
 1.4724444546e+00	 1.3096278799e+00	-1.6099243431e+00
 1.4596190077e+00	 1.3239072270e+00	-1.6561953381e+00
 1.5883163675e+00	 1.1812365232e+00	-1.1093342609e+00
 1.5767851794e+00	 1.1965855638e+00	-1.1572150998e+00
 1.5650978970e+00	 1.2118320918e+00	-1.2073594798e+00
 1.5532558887e+00	 1.2269737376e+00	-1.2596826350e+00
 1.5412605701e+00	 1.2420081554e+00	-1.3139853706e+00
 1.5291134037e+00	 1.2569330248e+00	-1.3699651374e+00
 1.5168158983e+00	 1.2717460515e+00	-1.4272279970e+00
 1.5043696082e+00	 1.2864449689e+00	-1.4853013880e+00
 1.4917761328e+00	 1.3010275389e+00	-1.5436475982e+00
 1.4790371159e+00	 1.3154915530e+00	-1.6014360211e+00
 1.4661542448e+00	 1.3298348339e+00	-1.6493181411e+00
 1.5953961302e+00	 1.1865017678e+00	-1.1084491645e+00
 1.5838135430e+00	 1.2019192253e+00	-1.1571772440e+00
 1.5720741657e+00	 1.2172337132e+00	-1.2078548759e+00
 1.5601793728e+00	 1.2324428513e+00	-1.2603237885e+00
 1.5481305862e+00	 1.2475442836e+00	-1.3143102384e+00
 1.5359292751e+00	 1.2625356791e+00	-1.3694365867e+00
 1.5235769547e+00	 1.2774147334e+00	-1.4252337943e+00
 1.5110751865e+00	 1.2921791698e+00	-1.4811547401e+00
 1.4984255770e+00	 1.3068267401e+00	-1.5365882663e+00
 1.4856297772e+00	 1.3213552262e+00	-1.5908738448e+00
 1.4726894820e+00	 1.3357624408e+00	-1.6401662321e+00
 1.6024758929e+00	 1.1917670125e+00	-1.1076024436e+00
 1.5908419065e+00	 1.2072528868e+00	-1.1572762999e+00
 1.5790504343e+00	 1.2226353346e+00	-1.2085447774e+00
 1.5671028568e+00	 1.2379119651e+00	-1.2611906284e+00
 1.5550006024e+00	 1.2530804118e+00	-1.3148800703e+00
 1.5427451464e+00	 1.2681383334e+00	-1.3691748586e+00
 1.5303380112e+00	 1.2830834153e+00	-1.4235453026e+00
 1.5177807649e+00	 1.2979133706e+00	-1.4773841293e+00
 1.5050750212e+00	 1.3126259413e+00	-1.5300210958e+00
 1.4922224384e+00	 1.3272188993e+00	-1.5807382392e+00
 1.4792247191e+00	 1.3416900476e+00	-1.6285747849e+00
 1.6095556556e+00	 1.1970322572e+00	-1.1067969475e+00
 1.5978702701e+00	 1.2125865483e+00	-1.1575114728e+00
 1.5860267030e+00	 1.2280369560e+00	-1.2094255049e+00
 1.5740263409e+00	 1.2433810789e+00	-1.2622771627e+00
 1.5618706185e+00	 1.2586165399e+00	-1.3156869472e+00
 1.5495610178e+00	 1.2737409877e+00	-1.3691702993e+00
 1.5370990676e+00	 1.2887520972e+00	-1.4221511310e+00
 1.5244863432e+00	 1.3036475715e+00	-1.4739762288e+00
 1.5117244653e+00	 1.3184251425e+00	-1.5239304253e+00
 1.4988150997e+00	 1.3330825724e+00	-1.5712524288e+00
 1.4857599563e+00	 1.3476176545e+00	-1.6151511922e+00
 1.6166354183e+00	 1.2022975018e+00	-1.1060371927e+00
 1.6048986337e+00	 1.2179202098e+00	-1.1578835813e+00
 1.5930029717e+00	 1.2334385773e+00	-1.2104949338e+00
 1.5809498250e+00	 1.2488501926e+00	-1.2635788980e+00
 1.5687406347e+00	 1.2641526681e+00	-1.3167243929e+00
 1.5563768891e+00	 1.2793436420e+00	-1.3694146473e+00
 1.5438601240e+00	 1.2944207791e+00	-1.4210412382e+00
 1.5311919215e+00	 1.3093817724e+00	-1.4709190270e+00
 1.5183739095e+00	 1.3242243438e+00	-1.5183018864e+00
 1.5054077610e+00	 1.3389462456e+00	-1.5623991030e+00
 1.4922951934e+00	 1.3535452614e+00	-1.6023923347e+00
 1.6237151810e+00	 1.2075627465e+00	-1.1053293005e+00
 1.6119269972e+00	 1.2232538713e+00	-1.1583949984e+00
 1.5999792403e+00	 1.2388401987e+00	-1.2117524431e+00
 1.5878733091e+00	 1.2543193064e+00	-1.2650927918e+00
 1.5756106508e+00	 1.2696887963e+00	-1.3179873334e+00
 1.5631927605e+00	 1.2849462963e+00	-1.3699009995e+00
 1.5506211805e+00	 1.3000894610e+00	-1.4202069036e+00
 1.5378974999e+00	 1.3151159732e+00	-1.4682018056e+00
 1.5250233537e+00	 1.3300235450e+00	-1.5131223877e+00
 1.5120004222e+00	 1.3448099187e+00	-1.5541622258e+00
 1.4988304306e+00	 1.3594728683e+00	-1.5904893311e+00
 1.6307949437e+00	 1.2128279911e+00	-1.1046809336e+00
 1.6189553608e+00	 1.2285875327e+00	-1.1590495944e+00
 1.6069555090e+00	 1.2442418201e+00	-1.2131988621e+00
 1.5947967932e+00	 1.2597884201e+00	-1.2668172066e+00
 1.5824806669e+00	 1.2752249245e+00	-1.3194720566e+00
 1.5700086318e+00	 1.2905489506e+00	-1.3706237759e+00
 1.5573822369e+00	 1.3057581429e+00	-1.4196406993e+00
 1.5446030782e+00	 1.3208501741e+00	-1.4658151175e+00
 1.5316727978e+00	 1.3358227462e+00	-1.5083800992e+00
 1.5185930835e+00	 1.3506735918e+00	-1.5465270261e+00
 1.5053656677e+00	 1.3654004752e+00	-1.5794237153e+00
 1.6378747064e+00	 1.2180932358e+00	-1.1041012344e+00
 1.6259837244e+00	 1.2339211942e+00	-1.1598526792e+00
 1.6139317777e+00	 1.2496434414e+00	-1.2148364188e+00
 1.6017202773e+00	 1.2652575339e+00	-1.2687518633e+00
 1.5893506831e+00	 1.2807610527e+00	-1.3211761711e+00
 1.5768245032e+00	 1.2961516049e+00	-1.3715786860e+00
 1.5641432934e+00	 1.3114268248e+00	-1.4193364615e+00
 1.5513086566e+00	 1.3265843750e+00	-1.4637507642e+00
 1.5383222420e+00	 1.3416219475e+00	-1.5040644353e+00
 1.5251857448e+00	 1.3565372650e+00	-1.5394799868e+00
 1.5119009048e+00	 1.3713280821e+00	-1.5691783008e+00
 1.6449544691e+00	 1.2233584805e+00	-1.1036007625e+00
 1.6330120879e+00	 1.2392548557e+00	-1.1608109456e+00
 1.6209080463e+00	 1.2550450628e+00	-1.2166686883e+00
 1.6086437614e+00	 1.2707266476e+00	-1.2708977948e+00
 1.5962206992e+00	 1.2862971808e+00	-1.3230985667e+00
 1.5836403745e+00	 1.3017542592e+00	-1.3727626936e+00
 1.5709043498e+00	 1.3170955067e+00	-1.4192892627e+00
 1.5580142349e+00	 1.3323185759e+00	-1.4620017741e+00
 1.5449716862e+00	 1.3474211487e+00	-1.5001660393e+00
 1.5317784060e+00	 1.3624009381e+00	-1.5330088349e+00
 1.5184361420e+00	 1.3772556890e+00	-1.5597371753e+00
 1.6520342318e+00	 1.2286237251e+00	-1.1031914330e+00
 1.6400404515e+00	 1.2445885172e+00	-1.1619324120e+00
 1.6278843150e+00	 1.2604466842e+00	-1.2187005409e+00
 1.6155672454e+00	 1.2761957614e+00	-1.2732573006e+00
 1.6030907154e+00	 1.2918333090e+00	-1.3252393737e+00
 1.5904562459e+00	 1.3073569135e+00	-1.3741739833e+00
 1.5776654063e+00	 1.3227641886e+00	-1.4194953829e+00
 1.5647198132e+00	 1.3380527767e+00	-1.4605623797e+00
 1.5516211303e+00	 1.3532203499e+00	-1.4966767668e+00
 1.5383710673e+00	 1.3682646113e+00	-1.5271025306e+00
 1.5249713791e+00	 1.3831832959e+00	-1.5510856958e+00
 1.4596190077e+00	 1.3239072270e+00	-1.6561953381e+00
 1.4466542826e+00	 1.3380618508e+00	-1.6921680640e+00
 1.4335498557e+00	 1.3520921059e+00	-1.7214513368e+00
 1.4203075088e+00	 1.3659959471e+00	-1.7448345949e+00
 1.4069290638e+00	 1.3797713641e+00	-1.7633501656e+00
 1.3934163822e+00	 1.3934163822e+00	-1.7782134233e+00
 1.3797713641e+00	 1.4069290638e+00	-1.7907608601e+00
 1.3659959471e+00	 1.4203075088e+00	-1.8023864709e+00
 1.3520921059e+00	 1.4335498557e+00	-1.8144768753e+00
 1.3380618508e+00	 1.4466542826e+00	-1.8283456011e+00
 1.3239072270e+00	 1.4596190077e+00	-1.8451669691e+00
 1.4661542448e+00	 1.3298348339e+00	-1.6493181411e+00
 1.4531314720e+00	 1.3440528330e+00	-1.6859271170e+00
 1.4399683719e+00	 1.3581459066e+00	-1.7152807682e+00
 1.4266667343e+00	 1.3721120003e+00	-1.7383233283e+00
 1.4132283892e+00	 1.3859490947e+00	-1.7562534752e+00
 1.3996552065e+00	 1.3996552065e+00	-1.7704624586e+00
 1.3859490947e+00	 1.4132283892e+00	-1.7824700621e+00
 1.3721120003e+00	 1.4266667343e+00	-1.7938588161e+00
 1.3581459066e+00	 1.4399683719e+00	-1.8062068927e+00
 1.3440528330e+00	 1.4531314720e+00	-1.8210201240e+00
 1.3298348339e+00	 1.4661542448e+00	-1.8396635926e+00
 1.4726894820e+00	 1.3357624408e+00	-1.6401662321e+00
 1.4596086614e+00	 1.3500438152e+00	-1.6779678443e+00
 1.4463868881e+00	 1.3641997073e+00	-1.7079879961e+00
 1.4330259598e+00	 1.3782280535e+00	-1.7313178610e+00
 1.4195277146e+00	 1.3921268254e+00	-1.7493147550e+00
 1.4058940308e+00	 1.4058940308e+00	-1.7635382003e+00
 1.3921268254e+00	 1.4195277146e+00	-1.7756837433e+00
 1.3782280535e+00	 1.4330259598e+00	-1.7875149586e+00
 1.3641997073e+00	 1.4463868881e+00	-1.8007940789e+00
 1.3500438152e+00	 1.4596086614e+00	-1.8172117080e+00
 1.3357624408e+00	 1.4726894820e+00	-1.8383160773e+00
 1.4792247191e+00	 1.3416900476e+00	-1.6285747849e+00
 1.4660858508e+00	 1.3560347974e+00	-1.6681261218e+00
 1.4528054044e+00	 1.3702535080e+00	-1.6994049905e+00
 1.4393851853e+00	 1.3843441066e+00	-1.7236419118e+00
 1.4258270400e+00	 1.3983045560e+00	-1.7423454035e+00
 1.4121328551e+00	 1.4121328551e+00	-1.7572359452e+00
 1.3983045560e+00	 1.4258270400e+00	-1.7701776169e+00
 1.3843441066e+00	 1.4393851853e+00	-1.7831078545e+00
 1.3702535080e+00	 1.4528054044e+00	-1.7979657767e+00
 1.3560347974e+00	 1.4660858508e+00	-1.8166195511e+00
 1.3416900476e+00	 1.4792247191e+00	-1.8407932758e+00
 1.4857599563e+00	 1.3476176545e+00	-1.6151511922e+00
 1.4725630403e+00	 1.3620257796e+00	-1.6562487111e+00
 1.4592239206e+00	 1.3763073087e+00	-1.6893741502e+00
 1.4457444107e+00	 1.3904601598e+00	-1.7151291703e+00
 1.4321263654e+00	 1.4044822867e+00	-1.7351663307e+00
 1.4183716794e+00	 1.4183716794e+00	-1.7513600421e+00
 1.4044822867e+00	 1.4321263654e+00	-1.7657359879e+00
 1.3904601598e+00	 1.4457444107e+00	-1.7803985922e+00
 1.3763073087e+00	 1.4592239206e+00	-1.7974570025e+00
 1.3620257796e+00	 1.4725630403e+00	-1.8189500679e+00
 1.3476176545e+00	 1.4857599563e+00	-1.8457620208e+00
 1.4922951934e+00	 1.3535452614e+00	-1.6023923347e+00
 1.4790402297e+00	 1.3680167618e+00	-1.6421939849e+00
 1.4656424368e+00	 1.3823611094e+00	-1.6777490197e+00
 1.4521036362e+00	 1.3965762130e+00	-1.7056240027e+00
 1.4384256908e+00	 1.4106600173e+00	-1.7276086516e+00
 1.4246105036e+00	 1.4246105036e+00	-1.7457245705e+00
 1.4106600173e+00	 1.4384256908e+00	-1.7621524161e+00
 1.3965762130e+00	 1.4521036362e+00	-1.7791570374e+00
 1.3823611094e+00	 1.4656424368e+00	-1.7990110726e+00
 1.3680167618e+00	 1.4790402297e+00	-1.8239174962e+00
 1.3535452614e+00	 1.4922951934e+00	-1.8495706738e+00
 1.4988304306e+00	 1.3594728683e+00	-1.5904893311e+00
 1.4855174191e+00	 1.3740077441e+00	-1.6265147409e+00
 1.4720609530e+00	 1.3884149101e+00	-1.6643950054e+00
 1.4584628617e+00	 1.4026922661e+00	-1.6949821572e+00
 1.4447250162e+00	 1.4168377480e+00	-1.7195143785e+00
 1.4308493279e+00	 1.4308493279e+00	-1.7401540189e+00
 1.4168377480e+00	 1.4447250162e+00	-1.7592303786e+00
 1.4026922661e+00	 1.4584628617e+00	-1.7791624790e+00
 1.3884149101e+00	 1.4720609530e+00	-1.8023802306e+00
 1.3740077441e+00	 1.4855174191e+00	-1.8304045886e+00
 1.3594728683e+00	 1.4988304306e+00	-1.8518338506e+00
 1.5053656677e+00	 1.3654004752e+00	-1.5794237153e+00
 1.4919946085e+00	 1.3799987263e+00	-1.6117226662e+00
 1.4784794692e+00	 1.3944687107e+00	-1.6491900920e+00
 1.4648220872e+00	 1.4088083193e+00	-1.6830714692e+00
 1.4510243416e+00	 1.4230154786e+00	-1.7107371141e+00
 1.4370881522e+00	 1.4370881522e+00	-1.7344839635e+00
 1.4230154786e+00	 1.4510243416e+00	-1.7567839328e+00
 1.4088083193e+00	 1.4648220872e+00	-1.7802042751e+00
 1.3944687107e+00	 1.4784794692e+00	-1.8073262749e+00
 1.3799987263e+00	 1.4919946085e+00	-1.8350514955e+00
 1.3654004752e+00	 1.5053656677e+00	-1.8524704179e+00
 1.5119009048e+00	 1.3713280821e+00	-1.5691783008e+00
 1.4984717980e+00	 1.3859897085e+00	-1.5980441894e+00
 1.4848979854e+00	 1.4005225114e+00	-1.6325124842e+00
 1.4711813127e+00	 1.4149243725e+00	-1.6697725670e+00
 1.4573236670e+00	 1.4291932092e+00	-1.7011427441e+00
 1.4433269765e+00	 1.4433269765e+00	-1.7285617467e+00
 1.4291932092e+00	 1.4573236670e+00	-1.7546383795e+00
 1.4149243725e+00	 1.4711813127e+00	-1.7820824986e+00
 1.4005225114e+00	 1.4848979854e+00	-1.8130644194e+00
 1.3859897085e+00	 1.4984717980e+00	-1.8375107683e+00
 1.3713280821e+00	 1.5119009048e+00	-1.8514160672e+00
 1.5184361420e+00	 1.3772556890e+00	-1.5597371753e+00
 1.5049489874e+00	 1.3919806907e+00	-1.5854578994e+00
 1.4913165016e+00	 1.4065763121e+00	-1.6168732815e+00
 1.4775405382e+00	 1.4210404256e+00	-1.6549795762e+00
 1.4636229924e+00	 1.4353709399e+00	-1.6906101295e+00
 1.4495658007e+00	 1.4495658007e+00	-1.7222471557e+00
 1.4353709399e+00	 1.4636229924e+00	-1.7526309258e+00
 1.4210404256e+00	 1.4775405382e+00	-1.7846085843e+00
 1.4065763121e+00	 1.4913165016e+00	-1.8165147699e+00
 1.3919806907e+00	 1.5049489874e+00	-1.8377655530e+00
 1.3772556890e+00	 1.5184361420e+00	-1.8486226588e+00
 1.5249713791e+00	 1.3831832959e+00	-1.5510856958e+00
 1.5114261768e+00	 1.3979716729e+00	-1.5739437232e+00
 1.4977350178e+00	 1.4126301128e+00	-1.6026204010e+00
 1.4838997636e+00	 1.4271564788e+00	-1.6388412539e+00
 1.4699223178e+00	 1.4415486705e+00	-1.6790317994e+00
 1.4558046250e+00	 1.4558046250e+00	-1.7154131011e+00
 1.4415486705e+00	 1.4699223178e+00	-1.7506113489e+00
 1.4271564788e+00	 1.4838997636e+00	-1.7873508033e+00
 1.4126301128e+00	 1.4977350178e+00	-1.8172636807e+00
 1.3979716729e+00	 1.5114261768e+00	-1.8358141744e+00
 1.3831832959e+00	 1.5249713791e+00	-1.8440575677e+00
 1.3239072270e+00	 1.4596190077e+00	-1.8451669691e+00
 1.3096278799e+00	 1.4724444546e+00	-1.8675242543e+00
 1.2952283376e+00	 1.4851266886e+00	-1.8975408564e+00
 1.2807107680e+00	 1.4976640298e+00	-1.9227585786e+00
 1.2660773696e+00	 1.5100548418e+00	-1.9391529799e+00
 1.2513303705e+00	 1.5222975323e+00	-1.9476816558e+00
 1.2364720272e+00	 1.5343905539e+00	-1.9494122875e+00
 1.2215046238e+00	 1.5463324046e+00	-1.9455282891e+00
 1.2064304705e+00	 1.5581216283e+00	-1.9373342566e+00
 1.1912519024e+00	 1.5697568158e+00	-1.9262611335e+00
 1.1759712785e+00	 1.5812366048e+00	-1.9138710042e+00
 1.3298348339e+00	 1.4661542448e+00	-1.8396635926e+00
 1.3154915530e+00	 1.4790371159e+00	-1.8651193523e+00
 1.3010275389e+00	 1.4917761328e+00	-1.8941547860e+00
 1.2864449689e+00	 1.5043696082e+00	-1.9149963374e+00
 1.2717460515e+00	 1.5168158983e+00	-1.9280705370e+00
 1.2569330248e+00	 1.5291134037e+00	-1.9342585437e+00
 1.2420081554e+00	 1.5412605701e+00	-1.9345481251e+00
 1.2269737376e+00	 1.5532558887e+00	-1.9300397820e+00
 1.2118320918e+00	 1.5650978970e+00	-1.9219526840e+00
 1.1965855638e+00	 1.5767851794e+00	-1.9116303248e+00
 1.1812365232e+00	 1.5883163675e+00	-1.9005458065e+00
 1.3357624408e+00	 1.4726894820e+00	-1.8383160773e+00
 1.3213552262e+00	 1.4856297772e+00	-1.8664550527e+00
 1.3068267401e+00	 1.4984255770e+00	-1.8908449639e+00
 1.2921791698e+00	 1.5110751865e+00	-1.9077126159e+00
 1.2774147334e+00	 1.5235769547e+00	-1.9177703605e+00
 1.2625356791e+00	 1.5359292751e+00	-1.9218275861e+00
 1.2475442836e+00	 1.5481305862e+00	-1.9207974152e+00
 1.2324428513e+00	 1.5601793728e+00	-1.9157033129e+00
 1.2172337132e+00	 1.5720741657e+00	-1.9076855152e+00
 1.2019192253e+00	 1.5838135430e+00	-1.8980071792e+00
 1.1865017678e+00	 1.5953961302e+00	-1.8880601621e+00
 1.3416900476e+00	 1.4792247191e+00	-1.8407932758e+00
 1.3272188993e+00	 1.4922224384e+00	-1.8675308080e+00
 1.3126259413e+00	 1.5050750212e+00	-1.8874026700e+00
 1.2979133706e+00	 1.5177807649e+00	-1.9006829132e+00
 1.2830834153e+00	 1.5303380112e+00	-1.9080194801e+00
 1.2681383334e+00	 1.5427451464e+00	-1.9101545893e+00
 1.2530804118e+00	 1.5550006024e+00	-1.9079319132e+00
 1.2379119651e+00	 1.5671028568e+00	-1.9023036784e+00
 1.2226353346e+00	 1.5790504343e+00	-1.8943375918e+00
 1.2072528868e+00	 1.5908419065e+00	-1.8852234922e+00
 1.1917670125e+00	 1.6024758929e+00	-1.8762796297e+00
 1.3476176545e+00	 1.4857599563e+00	-1.8457620208e+00
 1.3330825724e+00	 1.4988150997e+00	-1.8678265735e+00
 1.3184251425e+00	 1.5117244653e+00	-1.8836391535e+00
 1.3036475715e+00	 1.5244863432e+00	-1.8937027846e+00
 1.2887520972e+00	 1.5370990676e+00	-1.8986049552e+00
 1.2737409877e+00	 1.5495610178e+00	-1.8990252483e+00
 1.2586165399e+00	 1.5618706185e+00	-1.8957430073e+00
 1.2433810789e+00	 1.5740263409e+00	-1.8896449356e+00
 1.2280369560e+00	 1.5860267030e+00	-1.8817325277e+00
 1.2125865483e+00	 1.5978702701e+00	-1.8731292280e+00
 1.1970322572e+00	 1.6095556556e+00	-1.8650872158e+00
 1.3535452614e+00	 1.4922951934e+00	-1.8495706738e+00
 1.3389462456e+00	 1.5054077610e+00	-1.8671956571e+00
 1.3242243438e+00	 1.5183739095e+00	-1.8793849769e+00
 1.3093817724e+00	 1.5311919215e+00	-1.8865871931e+00
 1.2944207791e+00	 1.5438601240e+00	-1.8893332363e+00
 1.2793436420e+00	 1.5563768891e+00	-1.8882445213e+00
 1.2641526681e+00	 1.5687406347e+00	-1.8840411091e+00
 1.2488501926e+00	 1.5809498250e+00	-1.8775498137e+00
 1.2334385773e+00	 1.5930029717e+00	-1.8697121445e+00
 1.2179202098e+00	 1.6048986337e+00	-1.8615919800e+00
 1.2022975018e+00	 1.6166354183e+00	-1.8543828643e+00
 1.3594728683e+00	 1.4988304306e+00	-1.8518338506e+00
 1.3448099187e+00	 1.5120004222e+00	-1.8655098178e+00
 1.3300235450e+00	 1.5250233537e+00	-1.8744893617e+00
 1.3151159732e+00	 1.5378974999e+00	-1.8791698614e+00
 1.3000894610e+00	 1.5506211805e+00	-1.8800295271e+00
 1.2849462963e+00	 1.5631927605e+00	-1.8776360053e+00
 1.2696887963e+00	 1.5756106508e+00	-1.8726550463e+00
 1.2543193064e+00	 1.5878733091e+00	-1.8658591251e+00
 1.2388401987e+00	 1.5999792403e+00	-1.8581359049e+00
 1.2232538713e+00	 1.6119269972e+00	-1.8504964308e+00
 1.2075627465e+00	 1.6237151810e+00	-1.8440829458e+00
 1.3654004752e+00	 1.5053656677e+00	-1.8524704179e+00
 1.3506735918e+00	 1.5185930835e+00	-1.8626586094e+00
 1.3358227462e+00	 1.5316727978e+00	-1.8688195353e+00
 1.3208501741e+00	 1.5446030782e+00	-1.8713026258e+00
 1.3057581429e+00	 1.5573822369e+00	-1.8705371482e+00
 1.2905489506e+00	 1.5700086318e+00	-1.8670413128e+00
 1.2752249245e+00	 1.5824806669e+00	-1.8614314547e+00
 1.2597884201e+00	 1.5947967932e+00	-1.8544311781e+00
 1.2442418201e+00	 1.6069555090e+00	-1.8468803478e+00
 1.2285875327e+00	 1.6189553608e+00	-1.8397438126e+00
 1.2128279911e+00	 1.6307949437e+00	-1.8341197455e+00
 1.3713280821e+00	 1.5119009048e+00	-1.8514160672e+00
 1.3565372650e+00	 1.5251857448e+00	-1.8585487245e+00
 1.3416219475e+00	 1.5383222420e+00	-1.8622600784e+00
 1.3265843750e+00	 1.5513086566e+00	-1.8628547903e+00
 1.3114268248e+00	 1.5641432934e+00	-1.8607169015e+00
 1.2961516049e+00	 1.5768245032e+00	-1.8563194492e+00
 1.2807610527e+00	 1.5893506831e+00	-1.8502341727e+00
 1.2652575339e+00	 1.6017202773e+00	-1.8431411893e+00
 1.2496434414e+00	 1.6139317777e+00	-1.8358385232e+00
 1.2339211942e+00	 1.6259837244e+00	-1.8292513664e+00
 1.2180932358e+00	 1.6378747064e+00	-1.8244409513e+00
 1.3772556890e+00	 1.5184361420e+00	-1.8486226588e+00
 1.3624009381e+00	 1.5317784060e+00	-1.8531033398e+00
 1.3474211487e+00	 1.5449716862e+00	-1.8547122742e+00
 1.3323185759e+00	 1.5580142349e+00	-1.8537124825e+00
 1.3170955067e+00	 1.5709043498e+00	-1.8504464353e+00
 1.3017542592e+00	 1.5836403745e+00	-1.8453461911e+00
 1.2862971808e+00	 1.5962206992e+00	-1.8389436347e+00
 1.2707266476e+00	 1.6086437614e+00	-1.8318806963e+00
 1.2550450628e+00	 1.6209080463e+00	-1.8249194264e+00
 1.2392548557e+00	 1.6330120879e+00	-1.8189518020e+00
 1.2233584805e+00	 1.6449544691e+00	-1.8150091407e+00
 1.3831832959e+00	 1.5249713791e+00	-1.8440575677e+00
 1.3682646113e+00	 1.5383710673e+00	-1.8462614619e+00
 1.3532203499e+00	 1.5516211303e+00	-1.8460934583e+00
 1.3380527767e+00	 1.5647198132e+00	-1.8437780102e+00
 1.3227641886e+00	 1.5776654063e+00	-1.8396196116e+00
 1.3073569135e+00	 1.5904562459e+00	-1.8340134654e+00
 1.2918333090e+00	 1.6030907154e+00	-1.8274562664e+00
 1.2761957614e+00	 1.6155672454e+00	-1.8205569721e+00
 1.2604466842e+00	 1.6278843150e+00	-1.8140474334e+00
 1.2445885172e+00	 1.6400404515e+00	-1.8087927565e+00
 1.2286237251e+00	 1.6520342318e+00	-1.8058012663e+00
 1.1759712785e+00	 1.5812366048e+00	-1.9138710042e+00
 1.1605936020e+00	 1.5925577705e+00	-1.9006374169e+00
 1.1451186788e+00	 1.6037210169e+00	-1.8849728406e+00
 1.1295489225e+00	 1.6147251331e+00	-1.8655313136e+00
 1.1138867658e+00	 1.6255689568e+00	-1.8410739641e+00
 1.0981346594e+00	 1.6362513750e+00	-1.8138583912e+00
 1.0822950704e+00	 1.6467713242e+00	-1.7892105344e+00
 1.0663704815e+00	 1.6571277905e+00	-1.7663430333e+00
 1.0503633895e+00	 1.6673198101e+00	-1.7446303938e+00
 1.0342763041e+00	 1.6773464695e+00	-1.7237274534e+00
 1.0181117467e+00	 1.6872069052e+00	-1.7035301632e+00
 1.1812365232e+00	 1.5883163675e+00	-1.9005458065e+00
 1.1657899953e+00	 1.5996882221e+00	-1.8888023372e+00
 1.1502457853e+00	 1.6109014504e+00	-1.8745474007e+00
 1.1346063176e+00	 1.6219548359e+00	-1.8565088810e+00
 1.1188740358e+00	 1.6328472113e+00	-1.8335305011e+00
 1.1030514016e+00	 1.6435774585e+00	-1.8058417376e+00
 1.0871408931e+00	 1.6541445093e+00	-1.7797983311e+00
 1.0711450041e+00	 1.6645473452e+00	-1.7557417028e+00
 1.0550662427e+00	 1.6747849982e+00	-1.7331481635e+00
 1.0389071296e+00	 1.6848565504e+00	-1.7117826446e+00
 1.0226701977e+00	 1.6947611348e+00	-1.6916582102e+00
 1.1865017678e+00	 1.5953961302e+00	-1.8880601621e+00
 1.1709863886e+00	 1.6068186737e+00	-1.8776336058e+00
 1.1553728918e+00	 1.6180818838e+00	-1.8646612722e+00
 1.1396637127e+00	 1.6291845387e+00	-1.8479446594e+00
 1.1238613059e+00	 1.6401254658e+00	-1.8264085091e+00
 1.1079681438e+00	 1.6509035420e+00	-1.7992928892e+00
 1.0919867158e+00	 1.6615176944e+00	-1.7720404958e+00
 1.0759195268e+00	 1.6719668999e+00	-1.7470005189e+00
 1.0597690958e+00	 1.6822501862e+00	-1.7237458464e+00
 1.0435379551e+00	 1.6923666314e+00	-1.7021448924e+00
 1.0272286487e+00	 1.7023153645e+00	-1.6823198330e+00
 1.1917670125e+00	 1.6024758929e+00	-1.8762796297e+00
 1.1761827819e+00	 1.6139491253e+00	-1.8670250422e+00
 1.1604999983e+00	 1.6252623173e+00	-1.8552188090e+00
 1.1447211079e+00	 1.6364142416e+00	-1.8397358296e+00
 1.1288485760e+00	 1.6474037203e+00	-1.8195803202e+00
 1.1128848861e+00	 1.6582296256e+00	-1.7938926628e+00
 1.0968325385e+00	 1.6688908795e+00	-1.7656234767e+00
 1.0806940494e+00	 1.6793864546e+00	-1.7397366252e+00
 1.0644719489e+00	 1.6897153742e+00	-1.7159541885e+00
 1.0481687806e+00	 1.6998767124e+00	-1.6942416815e+00
 1.0317870997e+00	 1.7098695942e+00	-1.6748226294e+00
 1.1970322572e+00	 1.6095556556e+00	-1.8650872158e+00
 1.1813791752e+00	 1.6210795769e+00	-1.8568872903e+00
 1.1656271049e+00	 1.6324427508e+00	-1.8461408765e+00
 1.1497785030e+00	 1.6436439444e+00	-1.8317960788e+00
 1.1338358460e+00	 1.6546819748e+00	-1.8129350738e+00
 1.1178016283e+00	 1.6655557091e+00	-1.7887812106e+00
 1.1016783613e+00	 1.6762640646e+00	-1.7602499144e+00
 1.0854685720e+00	 1.6868060093e+00	-1.7335837749e+00
 1.0691748021e+00	 1.6971805623e+00	-1.7093212593e+00
 1.0527996061e+00	 1.7073867934e+00	-1.6875188300e+00
 1.0363455507e+00	 1.7174238239e+00	-1.6684938367e+00
 1.2022975018e+00	 1.6166354183e+00	-1.8543828643e+00
 1.1865755685e+00	 1.6282100286e+00	-1.8471473355e+00
 1.1707542114e+00	 1.6396231842e+00	-1.8373643903e+00
 1.1548358982e+00	 1.6508736472e+00	-1.8240551547e+00
 1.1388231161e+00	 1.6619602293e+00	-1.8063782783e+00
 1.1227183705e+00	 1.6728817926e+00	-1.7836373119e+00
 1.1065241840e+00	 1.6836372497e+00	-1.7556388200e+00
 1.0902430947e+00	 1.6942255640e+00	-1.7281924796e+00
 1.0738776552e+00	 1.7046457503e+00	-1.7034125641e+00
 1.0574304316e+00	 1.7148968744e+00	-1.6814405594e+00
 1.0409040017e+00	 1.7249780536e+00	-1.6626803512e+00
 1.2075627465e+00	 1.6237151810e+00	-1.8440829458e+00
 1.1917719618e+00	 1.6353404802e+00	-1.8377480217e+00
 1.1758813179e+00	 1.6468036177e+00	-1.8288418536e+00
 1.1598932933e+00	 1.6581033501e+00	-1.8164584176e+00
 1.1438103861e+00	 1.6692384838e+00	-1.7998313724e+00
 1.1276351128e+00	 1.6802078761e+00	-1.7783417427e+00
 1.1113700067e+00	 1.6910104348e+00	-1.7515246246e+00
 1.0950176173e+00	 1.7016451188e+00	-1.7232301568e+00
 1.0785805084e+00	 1.7121109383e+00	-1.6978111562e+00
 1.0620612571e+00	 1.7224069553e+00	-1.6754895642e+00
 1.0454624527e+00	 1.7325322833e+00	-1.6567487514e+00
 1.2128279911e+00	 1.6307949437e+00	-1.8341197455e+00
 1.1969683551e+00	 1.6424709318e+00	-1.8286475659e+00
 1.1810084244e+00	 1.6539840511e+00	-1.8205408935e+00
 1.1649506885e+00	 1.6653330529e+00	-1.8089663910e+00
 1.1487976562e+00	 1.6765167384e+00	-1.7932312842e+00
 1.1325518550e+00	 1.6875339596e+00	-1.7727913783e+00
 1.1162158294e+00	 1.6983836199e+00	-1.7472580724e+00
 1.0997921399e+00	 1.7090646735e+00	-1.7183812778e+00
 1.0832833615e+00	 1.7195761264e+00	-1.6921177496e+00
 1.0666920826e+00	 1.7299170363e+00	-1.6691670845e+00
 1.0500209036e+00	 1.7400865129e+00	-1.6500853226e+00
 1.2180932358e+00	 1.6378747064e+00	-1.8244409513e+00
 1.2021647484e+00	 1.6496013834e+00	-1.8198190723e+00
 1.1861355309e+00	 1.6611644846e+00	-1.8124437951e+00
 1.1700080836e+00	 1.6725627557e+00	-1.8015543111e+00
 1.1537849262e+00	 1.6837949929e+00	-1.7865299899e+00
 1.1374685972e+00	 1.6948600432e+00	-1.7668987546e+00
 1.1210616521e+00	 1.7057568050e+00	-1.7423444364e+00
 1.1045666626e+00	 1.7164842282e+00	-1.7133475154e+00
 1.0879862147e+00	 1.7270413144e+00	-1.6859508325e+00
 1.0713229081e+00	 1.7374271173e+00	-1.6619929789e+00
 1.0545793546e+00	 1.7476407426e+00	-1.6420960846e+00
 1.2233584805e+00	 1.6449544691e+00	-1.8150091407e+00
 1.2073611416e+00	 1.6567318350e+00	-1.8112500455e+00
 1.1912626374e+00	 1.6683449181e+00	-1.8045470347e+00
 1.1750654787e+00	 1.6797924585e+00	-1.7942116743e+00
 1.1587721963e+00	 1.6910732474e+00	-1.7796940694e+00
 1.1423853395e+00	 1.7021861267e+00	-1.7605916278e+00
 1.1259074749e+00	 1.7131299901e+00	-1.7366567821e+00
 1.1093411852e+00	 1.7239037829e+00	-1.7078478907e+00
 1.0926890678e+00	 1.7345065024e+00	-1.6789467808e+00
 1.0759537336e+00	 1.7449371983e+00	-1.6535057990e+00
 1.0591378056e+00	 1.7551949723e+00	-1.6322068211e+00
 1.2286237251e+00	 1.6520342318e+00	-1.8058012663e+00
 1.2125575349e+00	 1.6638622866e+00	-1.8029419019e+00
 1.1963897440e+00	 1.6755253515e+00	-1.7968608120e+00
 1.1801228739e+00	 1.6870221614e+00	-1.7869417836e+00
 1.1637594664e+00	 1.6983515019e+00	-1.7727042623e+00
 1.1473020817e+00	 1.7095122102e+00	-1.7538125327e+00
 1.1307532976e+00	 1.7205031752e+00	-1.7300838371e+00
 1.1141157078e+00	 1.7313233376e+00	-1.7014953315e+00
 1.0973919210e+00	 1.7419716905e+00	-1.6707599726e+00
 1.0805845591e+00	 1.7524472793e+00	-1.6432628654e+00
 1.0636962566e+00	 1.7627492020e+00	-1.6198631122e+00
 1.0181117467e+00	 1.6872069052e+00	-1.7035301632e+00
 1.0018722495e+00	 1.6969003048e+00	-1.6808817880e+00
 9.8556035499e-01	 1.7064259082e+00	-1.6531061130e+00
 9.6917861406e-01	 1.7157830063e+00	-1.6210379614e+00
 9.5272958417e-01	 1.7249709404e+00	-1.5855647276e+00
 9.3621582822e-01	 1.7339891027e+00	-1.5475926149e+00
 9.1963991332e-01	 1.7428369360e+00	-1.5080145236e+00
 9.0300440955e-01	 1.7515139334e+00	-1.4676797218e+00
 8.8631188877e-01	 1.7600196386e+00	-1.4273654232e+00
 8.6956492342e-01	 1.7683536454e+00	-1.3877503737e+00
 8.5276608528e-01	 1.7765155975e+00	-1.3493905400e+00
 1.0226701977e+00	 1.6947611348e+00	-1.6916582102e+00
 1.0063579904e+00	 1.7044979353e+00	-1.6694119364e+00
 9.8997306174e-01	 1.7140661883e+00	-1.6420371075e+00
 9.7351797389e-01	 1.7234651814e+00	-1.6102954355e+00
 9.5699529580e-01	 1.7326942532e+00	-1.5749896153e+00
 9.4040760185e-01	 1.7417527931e+00	-1.5369289202e+00
 9.2375747063e-01	 1.7506402413e+00	-1.4968965152e+00
 9.0704748376e-01	 1.7593560887e+00	-1.4556186257e+00
 8.9028022458e-01	 1.7678998770e+00	-1.4137356854e+00
 8.7345827706e-01	 1.7762711981e+00	-1.3717755695e+00
 8.5658422452e-01	 1.7844696941e+00	-1.3301290054e+00
 1.0272286487e+00	 1.7023153645e+00	-1.6823198330e+00
 1.0108437314e+00	 1.7120955658e+00	-1.6606196160e+00
 9.9438576848e-01	 1.7217064683e+00	-1.6336557993e+00
 9.7785733371e-01	 1.7311473565e+00	-1.6021561120e+00
 9.6126100742e-01	 1.7404175660e+00	-1.5668804013e+00
 9.4459937547e-01	 1.7495164834e+00	-1.5285854818e+00
 9.2787502795e-01	 1.7584435465e+00	-1.4879917715e+00
 9.1109055796e-01	 1.7671982440e+00	-1.4457518519e+00
 8.9424856039e-01	 1.7757801154e+00	-1.4024210808e+00
 8.7735163071e-01	 1.7841887508e+00	-1.3584303636e+00
 8.6040236375e-01	 1.7924237908e+00	-1.3140611799e+00
 1.0317870997e+00	 1.7098695942e+00	-1.6748226294e+00
 1.0153294723e+00	 1.7196931963e+00	-1.6537034970e+00
 9.9879847523e-01	 1.7293467484e+00	-1.6270900243e+00
 9.8219669353e-01	 1.7388295316e+00	-1.5957146333e+00
 9.6552671904e-01	 1.7481408788e+00	-1.5603356913e+00
 9.4879114909e-01	 1.7572801737e+00	-1.5217015136e+00
 9.3199258526e-01	 1.7662468518e+00	-1.4805162165e+00
 9.1513363217e-01	 1.7750403993e+00	-1.4374075651e+00
 8.9821689620e-01	 1.7836603537e+00	-1.3928969439e+00
 8.8124498436e-01	 1.7921063035e+00	-1.3473715616e+00
 8.6422050298e-01	 1.8003778875e+00	-1.3010589844e+00
 1.0363455507e+00	 1.7174238239e+00	-1.6684938367e+00
 1.0198152133e+00	 1.7272908268e+00	-1.6478830078e+00
 1.0032111820e+00	 1.7369870284e+00	-1.6214888351e+00
 9.8653605336e-01	 1.7465117068e+00	-1.5900866669e+00
 9.6979243067e-01	 1.7558641916e+00	-1.5544742878e+00
 9.5298292272e-01	 1.7650438641e+00	-1.5154349713e+00
 9.3611014258e-01	 1.7740501570e+00	-1.4737024472e+00
 9.1917670637e-01	 1.7828825546e+00	-1.4299279321e+00
 9.0218523201e-01	 1.7915405921e+00	-1.3846493528e+00
 8.8513833800e-01	 1.8000238562e+00	-1.3382628777e+00
 8.6803864221e-01	 1.8083319842e+00	-1.2909968516e+00
 1.0409040017e+00	 1.7249780536e+00	-1.6626803512e+00
 1.0243009542e+00	 1.7348884573e+00	-1.6423983106e+00
 1.0076238887e+00	 1.7446273085e+00	-1.6160224464e+00
 9.9087541318e-01	 1.7541938819e+00	-1.5844088364e+00
 9.7405814229e-01	 1.7635875044e+00	-1.5484351191e+00
 9.5717469634e-01	 1.7728075544e+00	-1.5089624944e+00
 9.4022769989e-01	 1.7818534623e+00	-1.4667997024e+00
 9.2321978058e-01	 1.7907247099e+00	-1.4226691320e+00
 9.0615356782e-01	 1.7994208305e+00	-1.3771751929e+00
 8.8903169165e-01	 1.8079414089e+00	-1.3307750665e+00
 8.7185678144e-01	 1.8162860809e+00	-1.2837519375e+00
 1.0454624527e+00	 1.7325322833e+00	-1.6567487514e+00
 1.0287866951e+00	 1.7424860878e+00	-1.6365102796e+00
 1.0120365955e+00	 1.7522675885e+00	-1.6098821845e+00
 9.9521477300e-01	 1.7618760570e+00	-1.5778386557e+00
 9.7832385392e-01	 1.7713108171e+00	-1.5413771729e+00
 9.6136646996e-01	 1.7805712447e+00	-1.5014793525e+00
 9.4434525721e-01	 1.7896567675e+00	-1.4590738352e+00
 9.2726285478e-01	 1.7985668651e+00	-1.4150013683e+00
 9.1012190363e-01	 1.8073010689e+00	-1.3699822211e+00
 8.9292504530e-01	 1.8158589616e+00	-1.3245860520e+00
 8.7567492067e-01	 1.8242401776e+00	-1.2792043287e+00
 1.0500209036e+00	 1.7400865129e+00	-1.6500853226e+00
 1.0332724361e+00	 1.7500837184e+00	-1.6295004844e+00
 1.0164493022e+00	 1.7599078685e+00	-1.6022804410e+00
 9.9955413283e-01	 1.7695582321e+00	-1.5695544673e+00
 9.8258956554e-01	 1.7790341299e+00	-1.5324794332e+00
 9.6555824359e-01	 1.7883349351e+00	-1.4921993949e+00
 9.4846281452e-01	 1.7974600728e+00	-1.4498072881e+00
 9.3130592898e-01	 1.8064090204e+00	-1.4063088814e+00
 9.1409023944e-01	 1.8151813072e+00	-1.3625891305e+00
 8.9681839894e-01	 1.8237765143e+00	-1.3193810554e+00
 8.7949305990e-01	 1.8321942743e+00	-1.2772372461e+00
 1.0545793546e+00	 1.7476407426e+00	-1.6420960846e+00
 1.0377581770e+00	 1.7576813489e+00	-1.6206711748e+00
 1.0208620090e+00	 1.7675481486e+00	-1.5924506305e+00
 1.0038934927e+00	 1.7772404072e+00	-1.5587553859e+00
 9.8685527717e-01	 1.7867574427e+00	-1.5209408222e+00
 9.6975001721e-01	 1.7960986254e+00	-1.4803550029e+00
 9.5258037184e-01	 1.8052633781e+00	-1.4382990697e+00
 9.3534900319e-01	 1.8142511757e+00	-1.3959899636e+00
 9.1805857525e-01	 1.8230615456e+00	-1.3545256137e+00
 9.0071175259e-01	 1.8316940670e+00	-1.3148527212e+00
 8.8331119913e-01	 1.8401483710e+00	-1.2777372444e+00
 1.0591378056e+00	 1.7551949723e+00	-1.6322068211e+00
 1.0422439180e+00	 1.7652789794e+00	-1.6093452698e+00
 1.0252747157e+00	 1.7751884286e+00	-1.5796471514e+00
 1.0082328525e+00	 1.7849225824e+00	-1.5446612443e+00
 9.9112098879e-01	 1.7944807555e+00	-1.5059801452e+00
 9.7394179083e-01	 1.8038623158e+00	-1.4651970470e+00
 9.5669792915e-01	 1.8130666833e+00	-1.4238647356e+00
 9.3939207740e-01	 1.8220933310e+00	-1.3834569751e+00
 9.2202691106e-01	 1.8309417840e+00	-1.3453324279e+00
 9.0460510624e-01	 1.8396116197e+00	-1.3107012412e+00
 8.8712933836e-01	 1.8481024677e+00	-1.2805944076e+00
 1.0636962566e+00	 1.7627492020e+00	-1.6198631122e+00
 1.0467296589e+00	 1.7728766099e+00	-1.5948663498e+00
 1.0296874225e+00	 1.7828287087e+00	-1.5631453511e+00
 1.0125722123e+00	 1.7926047575e+00	-1.5265125443e+00
 9.9538670041e-01	 1.8022040683e+00	-1.4868360393e+00
 9.7813356446e-01	 1.8116260061e+00	-1.4459948459e+00
 9.6081548646e-01	 1.8208699886e+00	-1.4058363703e+00
 9.4343515160e-01	 1.8299354863e+00	-1.3681363612e+00
 9.2599524687e-01	 1.8388220224e+00	-1.3345614584e+00
 9.0849845989e-01	 1.8475291724e+00	-1.3066344772e+00
 8.9094747759e-01	 1.8560565644e+00	-1.2831753074e+00
 8.5276608528e-01	 1.7765155975e+00	-1.3493905400e+00
 8.3591507583e-01	 1.7845065320e+00	-1.3087224367e+00
 8.1901731432e-01	 1.7923247887e+00	-1.2631201549e+00
 8.0207536413e-01	 1.7999701588e+00	-1.2143334004e+00
 7.8509178342e-01	 1.8074424822e+00	-1.1639805571e+00
 7.6806912395e-01	 1.8147416478e+00	-1.1135328767e+00
 7.5100993004e-01	 1.8218675923e+00	-1.0643009448e+00
 7.3391673744e-01	 1.8288203008e+00	-1.0176609030e+00
 7.1679207226e-01	 1.8355998053e+00	-9.7690000684e-01
 6.9963844990e-01	 1.8422061850e+00	-9.4355213707e-01
 6.8245837404e-01	 1.8486395656e+00	-9.1826557339e-01
 8.5658422452e-01	 1.7844696941e+00	-1.3301290054e+00
 8.3965776706e-01	 1.7924964070e+00	-1.2857292214e+00
 8.2268434822e-01	 1.8003496688e+00	-1.2368290012e+00
 8.0566654285e-01	 1.8080292700e+00	-1.1855790749e+00
 7.8860692056e-01	 1.8155350497e+00	-1.1340061731e+00
 7.7150804454e-01	 1.8228668962e+00	-1.0839961790e+00
 7.5437247051e-01	 1.8300247461e+00	-1.0372796190e+00
 7.3720274557e-01	 1.8370085843e+00	-9.9547839815e-01
 7.2000140712e-01	 1.8438184431e+00	-9.6192098948e-01
 7.0277098185e-01	 1.8504544020e+00	-9.3888167616e-01
 6.8551398464e-01	 1.8569165872e+00	-9.2046644471e-01
 8.6040236375e-01	 1.7924237908e+00	-1.3140611799e+00
 8.4340045828e-01	 1.8004862819e+00	-1.2669379116e+00
 8.2635138211e-01	 1.8083745489e+00	-1.2163153617e+00
 8.0925772156e-01	 1.8160883811e+00	-1.1646936219e+00
 7.9212205770e-01	 1.8236276171e+00	-1.1144523985e+00
 7.7494696514e-01	 1.8309921446e+00	-1.0678332406e+00
 7.5773501099e-01	 1.8381819000e+00	-1.0269241751e+00
 7.4048875370e-01	 1.8451968679e+00	-9.9364695255e-01
 7.2321074199e-01	 1.8520370810e+00	-9.7114620725e-01
 7.0590351381e-01	 1.8587026190e+00	-9.5031211404e-01
 6.8856959524e-01	 1.8651936087e+00	-9.2068403662e-01
 8.6422050298e-01	 1.8003778875e+00	-1.3010589844e+00
 8.4714314951e-01	 1.8084761569e+00	-1.2524283027e+00
 8.3001841600e-01	 1.8163994290e+00	-1.2018197087e+00
 8.1284890028e-01	 1.8241474923e+00	-1.1520318440e+00
 7.9563719483e-01	 1.8317201845e+00	-1.1057428913e+00
 7.7838588573e-01	 1.8391173930e+00	-1.0654919936e+00
 7.6109755146e-01	 1.8463390538e+00	-1.0336631505e+00
 7.4377476183e-01	 1.8533851515e+00	-1.0119402746e+00
 7.2642007686e-01	 1.8602557188e+00	-9.8749084585e-01
 7.0903604576e-01	 1.8669508360e+00	-9.5557597092e-01
 6.9162520584e-01	 1.8734706302e+00	-9.1675233792e-01
 8.6803864221e-01	 1.8083319842e+00	-1.2909968516e+00
 8.5088584073e-01	 1.8164660319e+00	-1.2422784634e+00
 8.3368544990e-01	 1.8244243091e+00	-1.1935774123e+00
 8.1644007899e-01	 1.8322066034e+00	-1.1479409150e+00
 7.9915233197e-01	 1.8398127520e+00	-1.1082919895e+00
 7.8182480633e-01	 1.8472426414e+00	-1.0774101777e+00
 7.6446009194e-01	 1.8544962076e+00	-1.0563960133e+00
 7.4706076995e-01	 1.8615734351e+00	-1.0302886873e+00
 7.2962941173e-01	 1.8684743567e+00	-9.9567236838e-01
 7.1216857772e-01	 1.8751990530e+00	-9.5507212359e-01
 6.9468081645e-01	 1.8817476518e+00	-9.0940858370e-01
 8.7185678144e-01	 1.8162860809e+00	-1.2837519375e+00
 8.5462853196e-01	 1.8244559068e+00	-1.2365650243e+00
 8.3735248379e-01	 1.8324491893e+00	-1.1918190883e+00
 8.2003125771e-01	 1.8402657146e+00	-1.1527607693e+00
 8.0266746911e-01	 1.8479053194e+00	-1.1225051230e+00
 7.8526372693e-01	 1.8553678898e+00	-1.1014748219e+00
 7.6782263241e-01	 1.8626533614e+00	-1.0745067539e+00
 7.5034677808e-01	 1.8697617187e+00	-1.0392466923e+00
 7.3283874660e-01	 1.8766929945e+00	-9.9677578317e-01
 7.1530110968e-01	 1.8834472699e+00	-9.4972896506e-01
 6.9773642705e-01	 1.8900246733e+00	-8.9938490552e-01
 8.7567492067e-01	 1.8242401776e+00	-1.2792043287e+00
 8.5837122318e-01	 1.8324457818e+00	-1.2353634610e+00
 8.4101951769e-01	 1.8404740694e+00	-1.1967709383e+00
 8.2362243642e-01	 1.8483248258e+00	-1.1668244816e+00
 8.0618260625e-01	 1.8559978868e+00	-1.1454589750e+00
 7.8870264752e-01	 1.8634931382e+00	-1.1177923054e+00
 7.7118517289e-01	 1.8708105152e+00	-1.0823372654e+00
 7.5363278621e-01	 1.8779500023e+00	-1.0400129020e+00
 7.3604808146e-01	 1.8849116324e+00	-9.9187461122e-01
 7.1843364163e-01	 1.8916954869e+00	-9.4046625066e-01
 7.0079203765e-01	 1.8983016948e+00	-8.8740830209e-01
 8.7949305990e-01	 1.8321942743e+00	-1.2772372461e+00
 8.6211391441e-01	 1.8404356568e+00	-1.2387483704e+00
 8.4468655158e-01	 1.8484989495e+00	-1.2086550815e+00
 8.2721361514e-01	 1.8563839369e+00	-1.1867500273e+00
 8.0969774340e-01	 1.8640904543e+00	-1.1585834516e+00
 7.9214156812e-01	 1.8716183866e+00	-1.1230654031e+00
 7.7454771336e-01	 1.8789676691e+00	-1.0811312775e+00
 7.5691879434e-01	 1.8861382859e+00	-1.0337690589e+00
 7.3925741633e-01	 1.8931302703e+00	-9.8203094597e-01
 7.2156617359e-01	 1.8999437039e+00	-9.2819511846e-01
 7.0384764826e-01	 1.9065787164e+00	-8.7420060520e-01
 8.8331119913e-01	 1.8401483710e+00	-1.2777372444e+00
 8.6585660563e-01	 1.8484255317e+00	-1.2467937408e+00
 8.4835358548e-01	 1.8565238296e+00	-1.2240242798e+00
 8.3080479385e-01	 1.8644430481e+00	-1.1954261120e+00
 8.1321288054e-01	 1.8721830217e+00	-1.1599617306e+00
 7.9558048872e-01	 1.8797436350e+00	-1.1185410655e+00
 7.7791025384e-01	 1.8871248229e+00	-1.0721148832e+00
 7.6020480247e-01	 1.8943265694e+00	-1.0216803422e+00
 7.4246675120e-01	 1.9013489081e+00	-9.6828590809e-01
 7.2469870555e-01	 1.9081919209e+00	-9.1381810321e-01
 7.0690325886e-01	 1.9148557379e+00	-8.6047844082e-01
 8.8712933836e-01	 1.8481024677e+00	-1.2805944076e+00
 8.6959929686e-01	 1.8564154067e+00	-1.2563371959e+00
 8.5202061937e-01	 1.8645487097e+00	-1.2271136804e+00
 8.3439597257e-01	 1.8725021593e+00	-1.1916512257e+00
 8.1672801768e-01	 1.8802755891e+00	-1.1508033471e+00
 7.9901940931e-01	 1.8878688835e+00	-1.1054485513e+00
 7.8127279431e-01	 1.8952819767e+00	-1.0564968560e+00
 7.6349081060e-01	 1.9025148530e+00	-1.0048956659e+00
 7.4567608607e-01	 1.9095675460e+00	-9.5163499752e-01
 7.2783123751e-01	 1.9164401379e+00	-8.9822914406e-01
 7.0995886946e-01	 1.9231327594e+00	-8.4695318570e-01
 8.9094747759e-01	 1.8560565644e+00	-1.2831753074e+00
 8.7334198809e-01	 1.8644052817e+00	-1.2527753593e+00
 8.5568765327e-01	 1.8725735898e+00	-1.2169770816e+00
 8.3798715128e-01	 1.8805612704e+00	-1.1765581038e+00
 8.2024315482e-01	 1.8883681565e+00	-1.1323007696e+00
 8.0245832991e-01	 1.8959941319e+00	-1.0849997397e+00
 7.8463533479e-01	 1.9034391305e+00	-1.0354689580e+00
 7.6677681873e-01	 1.9107031366e+00	-9.8454796776e-01
 7.4888542094e-01	 1.9177861838e+00	-9.3310756575e-01
 7.3096376946e-01	 1.9246883549e+00	-8.8231358603e-01
 7.1301448007e-01	 1.9314097810e+00	-8.3433091948e-01
 6.8245837404e-01	 1.8486395656e+00	-9.1826557339e-01
 6.6525726174e-01	 1.8548990690e+00	-9.0180826299e-01
 6.4803467015e-01	 1.8609860192e+00	-8.8150364018e-01
 6.3079305973e-01	 1.8669006767e+00	-8.5527317987e-01
 6.1353487531e-01	 1.8726433462e+00	-8.2387338215e-01
 5.9626254515e-01	 1.8782143759e+00	-7.8800464591e-01
 5.7897848006e-01	 1.8836141573e+00	-7.4832709601e-01
 5.6168507249e-01	 1.8888431238e+00	-7.0547506530e-01
 5.4438469569e-01	 1.8939017510e+00	-6.6007026791e-01
 5.2707970286e-01	 1.8987905551e+00	-6.1273370907e-01
 5.0977242635e-01	 1.9035100927e+00	-5.6409638445e-01
 6.8551398464e-01	 1.8569165872e+00	-9.2046644471e-01
 6.6823585680e-01	 1.8632041166e+00	-8.9450201390e-01
 6.5093615350e-01	 1.8693183203e+00	-8.6375319528e-01
 6.3361734621e-01	 1.8752594598e+00	-8.2895739531e-01
 6.1628189072e-01	 1.8810278413e+00	-7.9076910752e-01
 5.9893222615e-01	 1.8866238145e+00	-7.4977754257e-01
 5.8157077411e-01	 1.8920477726e+00	-7.0652284013e-01
 5.6419993776e-01	 1.8973001511e+00	-6.6151089135e-01
 5.4682210098e-01	 1.9023814275e+00	-6.1522681008e-01
 5.2943962749e-01	 1.9072921205e+00	-5.6814710009e-01
 5.1205486010e-01	 1.9120327892e+00	-5.2075057390e-01
 6.8856959524e-01	 1.8651936087e+00	-9.2068403662e-01
 6.7121445186e-01	 1.8715091642e+00	-8.8489769113e-01
 6.5383763685e-01	 1.8776506213e+00	-8.4597684023e-01
 6.3644163270e-01	 1.8836182429e+00	-8.0456796005e-01
 6.1902890613e-01	 1.8894123363e+00	-7.6122697269e-01
 6.0160190715e-01	 1.8950332530e+00	-7.1643727089e-01
 5.8416306816e-01	 1.9004813879e+00	-6.7062627530e-01
 5.6671480303e-01	 1.9057571784e+00	-6.2418055454e-01
 5.4925950626e-01	 1.9108611041e+00	-5.7745954859e-01
 5.3179955213e-01	 1.9157936860e+00	-5.3080794485e-01
 5.1433729386e-01	 1.9205554858e+00	-4.8456676487e-01
 6.9162520584e-01	 1.8734706302e+00	-9.1675233792e-01
 6.7419304692e-01	 1.8798142117e+00	-8.7352561921e-01
 6.5673912020e-01	 1.8859829223e+00	-8.2851600801e-01
 6.3926591918e-01	 1.8919770259e+00	-7.8228041987e-01
 6.2177592154e-01	 1.8977968314e+00	-7.3527953946e-01
 6.0427158815e-01	 1.9034426916e+00	-6.8789620383e-01
 5.8675536221e-01	 1.9089150032e+00	-6.4045226563e-01
 5.6922966830e-01	 1.9142142056e+00	-5.9322396830e-01
 5.5169691155e-01	 1.9193407806e+00	-5.4645587585e-01
 5.3415947676e-01	 1.9242952515e+00	-5.0037340910e-01
 5.1661972762e-01	 1.9290781823e+00	-4.5519404910e-01
 6.9468081645e-01	 1.8817476518e+00	-9.0940858370e-01
 6.7717164198e-01	 1.8881192593e+00	-8.6091477799e-01
 6.5964060354e-01	 1.8943152234e+00	-8.1171407932e-01
 6.4209020566e-01	 1.9003358090e+00	-7.6227512003e-01
 6.2452293695e-01	 1.9061813264e+00	-7.1296658204e-01
 6.0694126915e-01	 1.9118521302e+00	-6.6407590300e-01
 5.8934765626e-01	 1.9173486185e+00	-6.1582640630e-01
 5.7174453357e-01	 1.9226712329e+00	-5.6839288877e-01
 5.5413431683e-01	 1.9278204572e+00	-5.2191571127e-01
 5.3651940139e-01	 1.9327968170e+00	-4.7651344650e-01
 5.1890216138e-01	 1.9376008788e+00	-4.3229414785e-01
 6.9773642705e-01	 1.8900246733e+00	-8.9938490552e-01
 6.8015023704e-01	 1.8964243069e+00	-8.4759271654e-01
 6.6254208689e-01	 1.9026475244e+00	-7.9591624336e-01
 6.4491449215e-01	 1.9086945921e+00	-7.4473702133e-01
 6.2726995236e-01	 1.9145658215e+00	-6.9433486685e-01
 6.0961095015e-01	 1.9202615687e+00	-6.4490687088e-01
 5.9193995031e-01	 1.9257822338e+00	-5.9658475647e-01
 5.7425939884e-01	 1.9311282602e+00	-5.4945063670e-01
 5.5657172212e-01	 1.9363001337e+00	-5.0355122039e-01
 5.3887932603e-01	 1.9412983825e+00	-4.5891052309e-01
 5.2118459513e-01	 1.9461235754e+00	-4.1554114988e-01
 7.0079203765e-01	 1.8983016948e+00	-8.8740830209e-01
 6.8312883210e-01	 1.9047293545e+00	-8.3408546403e-01
 6.6544357024e-01	 1.9109798254e+00	-7.8146935718e-01
 6.4773877863e-01	 1.9170533751e+00	-7.2985551633e-01
 6.3001696777e-01	 1.9229503165e+00	-6.7943793393e-01
 6.1228063115e-01	 1.9286710073e+00	-6.3032830542e-01
 5.9453224436e-01	 1.9342158491e+00	-5.8257357533e-01
 5.7677426411e-01	 1.9395852874e+00	-5.3617182301e-01
 5.5900912740e-01	 1.9447798103e+00	-4.9108653810e-01
 5.4123925066e-01	 1.9497999479e+00	-4.4725934602e-01
 5.2346702889e-01	 1.9546462719e+00	-4.0462125361e-01
 7.0384764826e-01	 1.9065787164e+00	-8.7420060520e-01
 6.8610742717e-01	 1.9130344020e+00	-8.2091743765e-01
 6.6834505359e-01	 1.9193121264e+00	-7.6872180373e-01
 6.5056306511e-01	 1.9254121582e+00	-7.1782424565e-01
 6.3276398318e-01	 1.9313348116e+00	-6.6833587953e-01
 6.1495031215e-01	 1.9370804458e+00	-6.2028785706e-01
 5.9712453841e-01	 1.9426494644e+00	-5.7364906135e-01
 5.7928912938e-01	 1.9480423147e+00	-5.2834207821e-01
 5.6144653269e-01	 1.9532594868e+00	-4.8425749584e-01
 5.4359917529e-01	 1.9583015134e+00	-4.4126659642e-01
 5.2574946265e-01	 1.9631689684e+00	-3.9923251318e-01
 7.0690325886e-01	 1.9148557379e+00	-8.6047844082e-01
 6.8908602223e-01	 1.9213394496e+00	-8.0861134760e-01
 6.7124653694e-01	 1.9276444275e+00	-7.5802334868e-01
 6.5338735160e-01	 1.9337709413e+00	-7.0884091452e-01
 6.3551099859e-01	 1.9397193067e+00	-6.6109514013e-01
 6.1761999316e-01	 1.9454898844e+00	-6.1474138791e-01
 5.9971683246e-01	 1.9510830797e+00	-5.6967709446e-01
 5.8180399465e-01	 1.9564993420e+00	-5.2575778516e-01
 5.6388393797e-01	 1.9617391634e+00	-4.8281135265e-01
 5.4595909993e-01	 1.9668030789e+00	-4.4065066610e-01
 5.2803189640e-01	 1.9716916650e+00	-3.9908458838e-01
 7.0995886946e-01	 1.9231327594e+00	-8.4695318570e-01
 6.9206461729e-01	 1.9296444972e+00	-7.9768809931e-01
 6.7414802029e-01	 1.9359767285e+00	-7.4972499602e-01
 6.5621163808e-01	 1.9421297244e+00	-7.0310710932e-01
 6.3825801400e-01	 1.9481038017e+00	-6.5778827764e-01
 6.2028967416e-01	 1.9538993229e+00	-6.1365273324e-01
 6.0230912651e-01	 1.9595166950e+00	-5.7053298124e-01
 5.8431885992e-01	 1.9649563692e+00	-5.2822581540e-01
 5.6632134326e-01	 1.9702188399e+00	-4.8650652999e-01
 5.4831902456e-01	 1.9753046444e+00	-4.4514139828e-01
 5.3031433016e-01	 1.9802143615e+00	-4.0389849840e-01
 7.1301448007e-01	 1.9314097810e+00	-8.3433091948e-01
 6.9504321235e-01	 1.9379495447e+00	-7.8866669298e-01
 6.7704950364e-01	 1.9443090295e+00	-7.4417884244e-01
 6.5903592457e-01	 1.9504885074e+00	-7.0082811437e-01
 6.4100502941e-01	 1.9564882968e+00	-6.5849376595e-01
 6.2295935516e-01	 1.9623087615e+00	-6.1699346507e-01
 6.0490142056e-01	 1.9679503103e+00	-5.7610120289e-01
 5.8683372519e-01	 1.9734133965e+00	-5.3556326879e-01
 5.6875874854e-01	 1.9786985165e+00	-4.9511235021e-01
 5.5067894919e-01	 1.9838062098e+00	-4.5447983187e-01
 5.3259676391e-01	 1.9887370581e+00	-4.1340637908e-01
 5.0977242635e-01	 1.9035100927e+00	-5.6409638445e-01
 4.9246517711e-01	 1.9080609604e+00	-5.1615344390e-01
 4.7516024463e-01	 1.9124437954e+00	-4.7026796432e-01
 4.5785989543e-01	 1.9166592732e+00	-4.2616816295e-01
 4.4056637214e-01	 1.9207081067e+00	-3.8363083653e-01
 4.2328189282e-01	 1.9245910451e+00	-3.4248802861e-01
 4.0600865027e-01	 1.9283088737e+00	-3.0263289535e-01
 3.8874881144e-01	 1.9318624125e+00	-2.6402485399e-01
 3.7150451682e-01	 1.9352525155e+00	-2.2669409976e-01
 3.5427787987e-01	 1.9384800701e+00	-1.9071661860e-01
 3.3707098643e-01	 1.9415459962e+00	-1.5595822214e-01
 5.1205486010e-01	 1.9120327892e+00	-5.2075057390e-01
 4.9467012011e-01	 1.9166040328e+00	-4.7487429788e-01
 4.7728770725e-01	 1.9210064914e+00	-4.3173685885e-01
 4.5990989819e-01	 1.9252408433e+00	-3.9092799912e-01
 4.4253894561e-01	 1.9293078049e+00	-3.5208461584e-01
 4.2517707748e-01	 1.9332081286e+00	-3.1489734730e-01
 4.0782649643e-01	 1.9369426033e+00	-2.7911633291e-01
 3.9048937912e-01	 1.9405120525e+00	-2.4455623434e-01
 3.7316787562e-01	 1.9439173342e+00	-2.1110060729e-01
 3.5586410884e-01	 1.9471593398e+00	-1.7872525630e-01
 3.3858017398e-01	 1.9502389931e+00	-1.4730915511e-01
 5.1433729386e-01	 1.9205554858e+00	-4.8456676487e-01
 4.9687506312e-01	 1.9251471052e+00	-4.4046990008e-01
 4.7941516987e-01	 1.9295691873e+00	-3.9965286239e-01
 4.6195990095e-01	 1.9338224135e+00	-3.6159240592e-01
 4.4451151907e-01	 1.9379075031e+00	-3.2581109442e-01
 4.2707226214e-01	 1.9418252122e+00	-2.9188376302e-01
 4.0964434260e-01	 1.9455763329e+00	-2.5944312836e-01
 3.9222994681e-01	 1.9491616925e+00	-2.2818463870e-01
 3.7483123442e-01	 1.9525821529e+00	-1.9787065674e-01
 3.5745033782e-01	 1.9558386094e+00	-1.6838061656e-01
 3.4008936153e-01	 1.9589319900e+00	-1.3962457662e-01
 5.1661972762e-01	 1.9290781823e+00	-4.5519404910e-01
 4.9908000612e-01	 1.9336901776e+00	-4.1259409658e-01
 4.8154263249e-01	 1.9381318832e+00	-3.7367803313e-01
 4.6400990371e-01	 1.9424039836e+00	-3.3783489914e-01
 4.4648409254e-01	 1.9465072013e+00	-3.0449828502e-01
 4.2896744680e-01	 1.9504422957e+00	-2.7315262424e-01
 4.1146218876e-01	 1.9542100624e+00	-2.4333860955e-01
 3.9397051449e-01	 1.9578113326e+00	-2.1465782789e-01
 3.7649459322e-01	 1.9612469717e+00	-1.8677671054e-01
 3.5903656679e-01	 1.9645178791e+00	-1.5948731567e-01
 3.4159854908e-01	 1.9676249869e+00	-1.3274242867e-01
 5.1890216138e-01	 1.9376008788e+00	-4.3229414785e-01
 5.0128494912e-01	 1.9422332501e+00	-3.9091295149e-01
 4.8367009512e-01	 1.9466945791e+00	-3.5348614957e-01
 4.6605990648e-01	 1.9509855537e+00	-3.1934013739e-01
 4.4845666600e-01	 1.9551068995e+00	-2.8784469207e-01
 4.3086263145e-01	 1.9590593792e+00	-2.5841905268e-01
 4.1328003493e-01	 1.9628437920e+00	-2.3053709832e-01
 3.9571108217e-01	 1.9664609726e+00	-2.0373172333e-01
 3.7815795202e-01	 1.9699117904e+00	-1.7759851059e-01
 3.6062279577e-01	 1.9731971487e+00	-1.5185564678e-01
 3.4310773663e-01	 1.9763179838e+00	-1.2650520891e-01
 5.2118459513e-01	 1.9461235754e+00	-4.1554114988e-01
 5.0348989212e-01	 1.9507763225e+00	-3.7510450285e-01
 4.8579755774e-01	 1.9552572751e+00	-3.3876248536e-01
 4.6810990924e-01	 1.9595671239e+00	-3.0580371637e-01
 4.5042923946e-01	 1.9637065977e+00	-2.7555912599e-01
 4.3275781611e-01	 1.9676764627e+00	-2.4740777831e-01
 4.1509788109e-01	 1.9714775216e+00	-2.2078176659e-01
 3.9745164986e-01	 1.9751106126e+00	-1.9517028434e-01
 3.7982131082e-01	 1.9785766092e+00	-1.7012297716e-01
 3.6220902474e-01	 1.9818764184e+00	-1.4530154247e-01
 3.4461692418e-01	 1.9850109807e+00	-1.2075994918e-01
 5.2346702889e-01	 1.9546462719e+00	-4.0462125361e-01
 5.0569483513e-01	 1.9593193949e+00	-3.6485852246e-01
 4.8792502036e-01	 1.9638199710e+00	-3.2920358759e-01
 4.7015991200e-01	 1.9681486940e+00	-2.9693196642e-01
 4.5240181292e-01	 1.9723062959e+00	-2.6736052062e-01
 4.3465300077e-01	 1.9762935462e+00	-2.3985297693e-01
 4.1691572725e-01	 1.9801112511e+00	-2.1382449461e-01
 3.9919221754e-01	 1.9837602527e+00	-1.8874538740e-01
 3.8148466962e-01	 1.9872414279e+00	-1.6414410922e-01
 3.6379525372e-01	 1.9905556880e+00	-1.3964653832e-01
 3.4612611173e-01	 1.9937039777e+00	-1.1535819449e-01
 5.2574946265e-01	 1.9631689684e+00	-3.9923251318e-01
 5.0789977813e-01	 1.9678624673e+00	-3.5987627948e-01
 4.9005248298e-01	 1.9723826669e+00	-3.2451705864e-01
 4.7220991476e-01	 1.9767302641e+00	-2.9244175325e-01
 4.5437438639e-01	 1.9809059941e+00	-2.6297775339e-01
 4.3654818543e-01	 1.9849106297e+00	-2.3549811038e-01
 4.1873357342e-01	 1.9887449807e+00	-2.0942573137e-01
 4.0093278522e-01	 1.9924098927e+00	-1.8423670707e-01
 3.8314802842e-01	 1.9959062466e+00	-1.5946288603e-01
 3.6538148269e-01	 1.9992349577e+00	-1.3471773745e-01
 3.4763529928e-01	 2.0023969746e+00	-1.1015598255e-01
 5.2803189640e-01	 1.9716916650e+00	-3.9908458838e-01
 5.1010472113e-01	 1.9764055397e+00	-3.5987030765e-01
 4.9217994560e-01	 1.9809453628e+00	-3.2442134136e-01
 4.7425991752e-01	 1.9853118343e+00	-2.9206028177e-01
 4.5634695985e-01	 1.9895056923e+00	-2.6214946829e-01
 4.3844337008e-01	 1.9935277133e+00	-2.3409576902e-01
 4.2055141958e-01	 1.9973787103e+00	-2.0735435712e-01
 4.0267335290e-01	 2.0010595327e+00	-1.8143159865e-01
 3.8481138722e-01	 2.0045710654e+00	-1.5588717019e-01
 3.6696771167e-01	 2.0079142273e+00	-1.3034777589e-01
 3.4914448683e-01	 2.0110899715e+00	-1.0501382387e-01
 5.3031433016e-01	 1.9802143615e+00	-4.0389849840e-01
 5.1230966413e-01	 1.9849486121e+00	-3.6456417596e-01
 4.9430740822e-01	 1.9895080588e+00	-3.2864550756e-01
 4.7630992028e-01	 1.9938934044e+00	-2.9552490292e-01
 4.5831953331e-01	 1.9981053905e+00	-2.6462390157e-01
 4.4033855474e-01	 2.0021447968e+00	-2.3540751677e-01
 4.2236926574e-01	 2.0060124398e+00	-2.0738754786e-01
 4.0441392058e-01	 2.0097091728e+00	-1.8012498252e-01
 3.8647474601e-01	 2.0132358841e+00	-1.5323161182e-01
 3.6855394064e-01	 2.0165934970e+00	-1.2637478894e-01
 3.5065367438e-01	 2.0197829684e+00	-9.9796682268e-02
 5.3259676391e-01	 1.9887370581e+00	-4.1340637908e-01
 5.1451460713e-01	 1.9934916845e+00	-3.7369226285e-01
 4.9643487084e-01	 1.9980707547e+00	-3.3692904964e-01
 4.7835992304e-01	 2.0024749745e+00	-3.0258292334e-01
 4.6029210677e-01	 2.0067050887e+00	-2.7015870996e-01
 4.4223373939e-01	 2.0107618803e+00	-2.3920373822e-01
 4.2418711190e-01	 2.0146461694e+00	-2.0931064183e-01
 4.0615448827e-01	 2.0183588128e+00	-1.8011923004e-01
 3.8813810481e-01	 2.0219007028e+00	-1.5131755410e-01
 3.7014016961e-01	 2.0252727667e+00	-1.2264237835e-01
 3.5216286193e-01	 2.0284759653e+00	-9.4373955896e-02
 3.3707098643e-01	 1.9415459962e+00	-1.5595822214e-01
 3.1988297537e-01	 1.9444517253e+00	-1.2329429420e-01
 3.0271880770e-01	 1.9471977040e+00	-9.3255750770e-02
 2.8558048894e-01	 1.9497849434e+00	-6.5319874332e-02
 2.6846999499e-01	 1.9522144839e+00	-3.9129892439e-02
 2.5138927171e-01	 1.9544873939e+00	-1.4474729142e-02
 2.3434023454e-01	 1.9566047694e+00	 8.7295307306e-03
 2.1732476813e-01	 1.9585677328e+00	 3.0456548460e-02
 2.0034472601e-01	 1.9603774320e+00	 5.0585095636e-02
 1.8340193024e-01	 1.9620350399e+00	 6.8912963252e-02
 1.6649817121e-01	 1.9635417532e+00	 8.5169504122e-02
 3.3858017398e-01	 1.9502389931e+00	-1.4730915511e-01
 3.2131520604e-01	 1.9531577322e+00	-1.1757180503e-01
 3.0407418824e-01	 1.9559160056e+00	-8.9953652199e-02
 2.8685913508e-01	 1.9585148290e+00	-6.3985158468e-02
 2.6967203132e-01	 1.9609552474e+00	-3.9359610430e-02
 2.5251483153e-01	 1.9632383341e+00	-1.5912862900e-02
 2.3538945972e-01	 1.9653651898e+00	 6.3951677893e-03
 2.1829780897e-01	 1.9673369421e+00	 2.7497347995e-02
 2.0124174111e-01	 1.9691547440e+00	 4.7234597970e-02
 1.8422308638e-01	 1.9708197736e+00	 6.5369680937e-02
 1.6724364317e-01	 1.9723332330e+00	 8.1599601688e-02
 3.4008936153e-01	 1.9589319900e+00	-1.3962457662e-01
 3.2274743671e-01	 1.9618637391e+00	-1.1221334620e-01
 3.0542956878e-01	 1.9646343072e+00	-8.6520794150e-02
 2.8813778123e-01	 1.9672447146e+00	-6.2124186535e-02
 2.7087406766e-01	 1.9696960109e+00	-3.8759816726e-02
 2.5364039135e-01	 1.9719892742e+00	-1.6302772166e-02
 2.3643868489e-01	 1.9741256102e+00	 5.2515113565e-03
 2.1927084980e-01	 1.9761061514e+00	 2.5803998791e-02
 2.0213875621e-01	 1.9779320560e+00	 4.5167201182e-02
 1.8504424252e-01	 1.9796045073e+00	 6.3078811591e-02
 1.6798911512e-01	 1.9811247128e+00	 7.9213926563e-02
 3.4159854908e-01	 1.9676249869e+00	-1.3274242867e-01
 3.2417966737e-01	 1.9705697460e+00	-1.0708846733e-01
 3.0678494932e-01	 1.9733526089e+00	-8.2852563411e-02
 2.8941642738e-01	 1.9759746003e+00	-5.9652495103e-02
 2.7207610400e-01	 1.9784367745e+00	-3.7260591741e-02
 2.5476595117e-01	 1.9807402144e+00	-1.5583555424e-02
 2.3748791006e-01	 1.9828860307e+00	 5.3558915802e-03
 2.2024389064e-01	 1.9848753607e+00	 2.5435628100e-02
 2.0303577132e-01	 1.9867093680e+00	 4.4449120488e-02
 1.8586539866e-01	 1.9883892410e+00	 6.2118872019e-02
 1.6873458708e-01	 1.9899161926e+00	 7.8108433687e-02
 3.4310773663e-01	 1.9763179838e+00	-1.2650520891e-01
 3.2561189804e-01	 1.9792757529e+00	-1.0207023560e-01
 3.0814032986e-01	 1.9820709105e+00	-7.8846979095e-02
 2.9069507353e-01	 1.9847044859e+00	-5.6487517318e-02
 2.7327814034e-01	 1.9871775380e+00	-3.4793322852e-02
 2.5589151099e-01	 1.9894911546e+00	-1.3695171153e-02
 2.3853713524e-01	 1.9916464511e+00	 6.7650865049e-03
 2.2121693148e-01	 1.9936445700e+00	 2.6450983554e-02
 2.0393278642e-01	 1.9954866800e+00	 4.5146232296e-02
 1.8668655480e-01	 1.9971739747e+00	 6.2567953158e-02
 1.6948005903e-01	 1.9987076723e+00	 7.8378441058e-02
 3.4461692418e-01	 1.9850109807e+00	-1.2075994918e-01
 3.2704412871e-01	 1.9879817598e+00	-9.7035229075e-02
 3.0949571040e-01	 1.9907892121e+00	-7.4404697987e-02
 2.9197371968e-01	 1.9934343715e+00	-5.2548597693e-02
 2.7448017667e-01	 1.9959183016e+00	-3.1290726032e-02
 2.5701707081e-01	 1.9982420948e+00	-1.0578463738e-02
 2.3958636041e-01	 2.0004068715e+00	 9.5352944323e-03
 2.2218997231e-01	 2.0024137793e+00	 2.8908406287e-02
 2.0482980153e-01	 2.0042639920e+00	 4.7324050530e-02
 1.8750771094e-01	 2.0059587084e+00	 6.4503702025e-02
 1.7022553099e-01	 2.0074991521e+00	 8.0118619680e-02
 3.4612611173e-01	 1.9937039777e+00	-1.1535819449e-01
 3.2847635937e-01	 1.9966877667e+00	-9.1863530035e-02
 3.1085109094e-01	 1.9995075137e+00	-6.9429019694e-02
 2.9325236582e-01	 2.0021642571e+00	-4.7757006459e-02
 2.7568221301e-01	 2.0046590651e+00	-2.6686866855e-02
 2.5814263063e-01	 2.0069930350e+00	-6.1751886165e-03
 2.4063558559e-01	 2.0091672920e+00	 1.3722107073e-02
 2.2316301315e-01	 2.0111829887e+00	 3.2865804817e-02
 2.0572681663e-01	 2.0130413039e+00	 5.1047703653e-02
 1.8832886708e-01	 2.0147434421e+00	 6.8003304209e-02
 1.7097100294e-01	 2.0162906319e+00	 8.3422983835e-02
 3.4763529928e-01	 2.0023969746e+00	-1.1015598255e-01
 3.2990859004e-01	 2.0053937736e+00	-8.6438718536e-02
 3.1220647148e-01	 2.0082258154e+00	-6.3825891614e-02
 2.9453101197e-01	 2.0108941428e+00	-4.2035953475e-02
 2.7688424935e-01	 2.0133998287e+00	-2.0917180881e-02
 2.5926819046e-01	 2.0157439751e+00	-4.2803672093e-04
 2.4168481076e-01	 2.0179277124e+00	 1.9380483471e-02
 2.2413605399e-01	 2.0199521980e+00	 3.8380629691e-02
 2.0662383174e-01	 2.0218186159e+00	 5.6381912338e-02
 1.8915002322e-01	 2.0235281758e+00	 7.3143466872e-02
 1.7171647490e-01	 2.0250821117e+00	 8.8384881650e-02
 3.4914448683e-01	 2.0110899715e+00	-1.0501382387e-01
 3.3134082071e-01	 2.0140997805e+00	-8.0647866046e-02
 3.1356185202e-01	 2.0169441170e+00	-5.7503913729e-02
 2.9580965812e-01	 2.0196240284e+00	-3.5310601722e-02
 2.7808628569e-01	 2.0221405922e+00	-1.3918493454e-02
 2.6039375028e-01	 2.0244949153e+00	 6.7193417967e-03
 2.4273403594e-01	 2.0266881328e+00	 2.6564724667e-02
 2.2510909482e-01	 2.0287214073e+00	 4.5509848846e-02
 2.0752084685e-01	 2.0305959279e+00	 6.3390967795e-02
 1.8997117936e-01	 2.0323129095e+00	 8.0000402254e-02
 1.7246194685e-01	 2.0338735915e+00	 9.5096985977e-02
 3.5065367438e-01	 2.0197829684e+00	-9.9796682268e-02
 3.3277305137e-01	 2.0228057874e+00	-7.4381529224e-02
 3.1491723256e-01	 2.0256624186e+00	-5.0374343214e-02
 2.9708830427e-01	 2.0283539140e+00	-2.7508080386e-02
 2.7928832202e-01	 2.0308813558e+00	-5.6290389224e-03
 2.6151931010e-01	 2.0332458555e+00	 1.5322314514e-02
 2.4378326111e-01	 2.0354485532e+00	 3.5328449096e-02
 2.2608213566e-01	 2.0374906166e+00	 5.4309923680e-02
 2.0841786195e-01	 2.0393732399e+00	 7.2138710714e-02
 1.9079233550e-01	 2.0410976432e+00	 8.8649811665e-02
 1.7320741881e-01	 2.0426650713e+00	 1.0365128555e-01
 3.5216286193e-01	 2.0284759653e+00	-9.4373955896e-02
 3.3420528204e-01	 2.0315117943e+00	-6.7533743825e-02
 3.1627261310e-01	 2.0343807202e+00	-4.2351098891e-02
 2.9836695041e-01	 2.0370837996e+00	-1.8557497553e-02
 2.8049035836e-01	 2.0396221193e+00	 4.0115207032e-03
 2.6264486992e-01	 2.0419967957e+00	 2.5435244350e-02
 2.4483248629e-01	 2.0442089737e+00	 4.5724568676e-02
 2.2705517649e-01	 2.0462598259e+00	 6.4836785800e-02
 2.0931487706e-01	 2.0481505519e+00	 8.2688510822e-02
 1.9161349164e-01	 2.0498823769e+00	 9.9166869948e-02
 1.7395289077e-01	 2.0514565511e+00	 1.1413907645e-01
 1.6649817121e-01	 1.9635417532e+00	 8.5169504122e-02
 1.4963806351e-01	 1.9648985734e+00	 9.9285242919e-02
 1.3282042303e-01	 1.9661070104e+00	 1.1156785532e-01
 1.1604690430e-01	 1.9671683262e+00	 1.2221863379e-01
 9.9319130298e-02	 1.9680838035e+00	 1.3138926473e-01
 8.2638692297e-02	 1.9688547442e+00	 1.3918846641e-01
 6.6007149700e-02	 1.9694824691e+00	 1.4568781198e-01
 4.9426029929e-02	 1.9699683169e+00	 1.5092681699e-01
 3.2896828315e-02	 1.9703136434e+00	 1.5491736854e-01
 1.6421008026e-02	 1.9705198204e+00	 1.5764756952e-01
 0.0000000000e+00	 1.9705882353e+00	 1.5908506905e-01
 1.6724364317e-01	 1.9723332330e+00	 8.1599601688e-02
 1.5030804672e-01	 1.9736961282e+00	 9.5768553525e-02
 1.3341510764e-01	 1.9749099758e+00	 1.0812362141e-01
 1.1656648786e-01	 1.9759760435e+00	 1.1887821889e-01
 9.9763817621e-02	 1.9768956197e+00	 1.2820117563e-01
 8.3008695325e-02	 1.9776700121e+00	 1.3622303118e-01
 6.6302687354e-02	 1.9783005476e+00	 1.4304150678e-01
 4.9647327970e-02	 1.9787885708e+00	 1.4872623776e-01
 3.3044119200e-02	 1.9791354434e+00	 1.5332284577e-01
 1.6494530761e-02	 1.9793425435e+00	 1.5685642691e-01
 0.0000000000e+00	 1.9794112647e+00	 1.5933452901e-01
 1.6798911512e-01	 1.9811247128e+00	 7.9213926563e-02
 1.5097802994e-01	 1.9824936829e+00	 9.3364053872e-02
 1.3400979225e-01	 1.9837129411e+00	 1.0573783787e-01
 1.1708607142e-01	 1.9847837608e+00	 1.1655431569e-01
 1.0020850495e-01	 1.9857074358e+00	 1.2599285966e-01
 8.3378698353e-02	 1.9864852801e+00	 1.3419912707e-01
 6.6598225009e-02	 1.9871186261e+00	 1.4129018159e-01
 4.9868626012e-02	 1.9876088246e+00	 1.4735887104e-01
 3.3191410085e-02	 1.9879572433e+00	 1.5247754366e-01
 1.6568053497e-02	 1.9881652666e+00	 1.5670118117e-01
 0.0000000000e+00	 1.9882342941e+00	 1.6007002411e-01
 1.6873458708e-01	 1.9899161926e+00	 7.8108433687e-02
 1.5164801315e-01	 1.9912912377e+00	 9.2184621848e-02
 1.3460447687e-01	 1.9925159065e+00	 1.0453432309e-01
 1.1760565498e-01	 1.9935914780e+00	 1.1537589256e-01
 1.0065319227e-01	 1.9945192520e+00	 1.2489283916e-01
 8.3748701382e-02	 1.9953005480e+00	 1.3323943152e-01
 6.6893762664e-02	 1.9959367046e+00	 1.4054546893e-01
 5.0089924054e-02	 1.9964290784e+00	 1.4692030491e-01
 3.3338700970e-02	 1.9967790433e+00	 1.5245620782e-01
 1.6641576232e-02	 1.9969879897e+00	 1.5723113956e-01
 0.0000000000e+00	 1.9970573235e+00	 1.6131102985e-01
 1.6948005903e-01	 1.9987076723e+00	 7.8378441058e-02
 1.5231799636e-01	 2.0000887924e+00	 9.2342265309e-02
 1.3519916148e-01	 2.0013188718e+00	 1.0463586916e-01
 1.1812523854e-01	 2.0023991953e+00	 1.1547081122e-01
 1.0109787960e-01	 2.0033310682e+00	 1.2502852482e-01
 8.4118704411e-02	 2.0041158160e+00	 1.3346557967e-01
 6.7189300319e-02	 2.0047547831e+00	 1.4091810202e-01
 5.0311222096e-02	 2.0052493322e+00	 1.4750544377e-01
 3.3485991856e-02	 2.0056008432e+00	 1.5333318755e-01
 1.6715098968e-02	 2.0058107128e+00	 1.5849557118e-01
 0.0000000000e+00	 2.0058803529e+00	 1.6307741142e-01
 1.7022553099e-01	 2.0074991521e+00	 8.0118619680e-02
 1.5298797958e-01	 2.0088863472e+00	 9.3948120201e-02
 1.3579384609e-01	 2.0101218372e+00	 1.0616424616e-01
 1.1864482210e-01	 2.0112069125e+00	 1.1696583549e-01
 1.0154256692e-01	 2.0121428843e+00	 1.2652622692e-01
 8.4488707440e-02	 2.0129310839e+00	 1.3499817642e-01
 6.7484837975e-02	 2.0135728616e+00	 1.4251792584e-01
 5.0532520139e-02	 2.0140695860e+00	 1.4920851686e-01
 3.3633282741e-02	 2.0144226432e+00	 1.5518244018e-01
 1.6788621704e-02	 2.0146334358e+00	 1.6054370558e-01
 0.0000000000e+00	 2.0147033823e+00	 1.6538941519e-01
 1.7097100294e-01	 2.0162906319e+00	 8.3422983835e-02
 1.5365796279e-01	 2.0176839020e+00	 9.7112448775e-02
 1.3638853071e-01	 2.0189248026e+00	 1.0924020647e-01
 1.1916440566e-01	 2.0200146298e+00	 1.1998663978e-01
 1.0198725425e-01	 2.0209547005e+00	 1.2951116627e-01
 8.4858710470e-02	 2.0217463519e+00	 1.3795680813e-01
 6.7780375630e-02	 2.0223909401e+00	 1.4545390791e-01
 5.0753818181e-02	 2.0228898398e+00	 1.5212308648e-01
 3.3780573627e-02	 2.0232444432e+00	 1.5807753527e-01
 1.6862144440e-02	 2.0234561589e+00	 1.6342473142e-01
 0.0000000000e+00	 2.0235264118e+00	 1.6826766036e-01
 1.7171647490e-01	 2.0250821117e+00	 8.8384881650e-02
 1.5432794601e-01	 2.0264814567e+00	 1.0194463791e-01
 1.3698321532e-01	 2.0277277679e+00	 1.1398348898e-01
 1.1968398923e-01	 2.0288223470e+00	 1.2465781742e-01
 1.0243194157e-01	 2.0297665167e+00	 1.3410748495e-01
 8.5228713499e-02	 2.0305616198e+00	 1.4246005397e-01
 6.8075913286e-02	 2.0312090186e+00	 1.4983414882e-01
 5.0975116224e-02	 2.0317100936e+00	 1.5634205606e-01
 3.3927864512e-02	 2.0320662431e+00	 1.6209165865e-01
 1.6935667176e-02	 2.0322788820e+00	 1.6718779516e-01
 0.0000000000e+00	 2.0323494412e+00	 1.7173313086e-01
 1.7246194685e-01	 2.0338735915e+00	 9.5096985977e-02
 1.5499792922e-01	 2.0352790115e+00	 1.0855319751e-01
 1.3757789993e-01	 2.0365307333e+00	 1.2051282324e-01
 1.2020357279e-01	 2.0376300643e+00	 1.3110288881e-01
 1.0287662890e-01	 2.0385783329e+00	 1.4043825673e-01
 8.5598716529e-02	 2.0393768878e+00	 1.4862549714e-01
 6.8371450941e-02	 2.0400270971e+00	 1.5576589245e-01
 5.1196414266e-02	 2.0405303474e+00	 1.6195767799e-01
 3.4075155398e-02	 2.0408880431e+00	 1.6729761648e-01
 1.7009189911e-02	 2.0411016051e+00	 1.7188199979e-01
 0.0000000000e+00	 2.0411724706e+00	 1.7580716754e-01
 1.7320741881e-01	 2.0426650713e+00	 1.0365128555e-01
 1.5566791243e-01	 2.0440765662e+00	 1.1704575900e-01
 1.3817258455e-01	 2.0453336986e+00	 1.2894593350e-01
 1.2072315635e-01	 2.0464377815e+00	 1.3944430936e-01
 1.0332131622e-01	 2.0473901490e+00	 1.4862549729e-01
 8.5968719558e-02	 2.0481921557e+00	 1.5656973568e-01
 6.8666988596e-02	 2.0488451756e+00	 1.6335553596e-01
 5.1417712308e-02	 2.0493506013e+00	 1.6906156128e-01
 3.4222446283e-02	 2.0497098431e+00	 1.7376783908e-01
 1.7082712647e-02	 2.0499243282e+00	 1.7755640358e-01
 0.0000000000e+00	 2.0499955000e+00	 1.8051146039e-01
 1.7395289077e-01	 2.0514565511e+00	 1.1413907645e-01
 1.5633789565e-01	 2.0528741210e+00	 1.2752907392e-01
 1.3876726916e-01	 2.0541366640e+00	 1.3939954276e-01
 1.2124273991e-01	 2.0552454988e+00	 1.4980347728e-01
 1.0376600355e-01	 2.0562019652e+00	 1.5879017419e-01
 8.6338722586e-02	 2.0570074237e+00	 1.6640839310e-01
 6.8962526251e-02	 2.0576632541e+00	 1.7270863959e-01
 5.1639010350e-02	 2.0581708551e+00	 1.7774467905e-01
 3.4369737168e-02	 2.0585316430e+00	 1.8157438474e-01
 1.7156235382e-02	 2.0587470513e+00	 1.8426001884e-01
 0.0000000000e+00	 2.0588185294e+00	 1.8586804116e-01
 2.0588185294e+00	 0.0000000000e+00	 2.6996789289e+00
 2.0587470513e+00	 1.7156235382e-02	 2.7009808051e+00
 2.0585316430e+00	 3.4369737168e-02	 2.6996764439e+00
 2.0581708551e+00	 5.1639010350e-02	 2.6957972128e+00
 2.0576632541e+00	 6.8962526251e-02	 2.6893670464e+00
 2.0570074237e+00	 8.6338722586e-02	 2.6804009180e+00
 2.0562019652e+00	 1.0376600355e-01	 2.6689039110e+00
 2.0552454988e+00	 1.2124273991e-01	 2.6548709855e+00
 2.0541366640e+00	 1.3876726916e-01	 2.6382875347e+00
 2.0528741210e+00	 1.5633789565e-01	 2.6191308316e+00
 2.0514565511e+00	 1.7395289077e-01	 2.5973724735e+00
 2.0676430588e+00	 0.0000000000e+00	 2.6812592626e+00
 2.0675712743e+00	 1.7229770617e-02	 2.6814614368e+00
 2.0673549428e+00	 3.4517053093e-02	 2.6792879922e+00
 2.0669926084e+00	 5.1860346014e-02	 2.6747588601e+00
 2.0664828318e+00	 6.9258114149e-02	 2.6678818674e+00
 2.0658241903e+00	 8.6708788518e-02	 2.6586508437e+00
 2.0650152795e+00	 1.0421076647e-01	 2.6470443272e+00
 2.0640547134e+00	 1.2176241180e-01	 2.6330249615e+00
 2.0629411260e+00	 1.3936205487e-01	 2.6165396844e+00
 2.0616731714e+00	 1.5700799276e-01	 2.5975208105e+00
 2.0602495255e+00	 1.7469848946e-01	 2.5758881165e+00
 2.0764675882e+00	 0.0000000000e+00	 2.6629611072e+00
 2.0763954974e+00	 1.7303305852e-02	 2.6623716437e+00
 2.0761782425e+00	 3.4664369019e-02	 2.6595807104e+00
 2.0758143618e+00	 5.2081681678e-02	 2.6546031398e+00
 2.0753024094e+00	 6.9553702047e-02	 2.6474370554e+00
 2.0746409569e+00	 8.7078854450e-02	 2.6380615994e+00
 2.0738285937e+00	 1.0465552940e-01	 2.6264352550e+00
 2.0728639281e+00	 1.2228208370e-01	 2.6124948582e+00
 2.0717455879e+00	 1.3995684059e-01	 2.5961554007e+00
 2.0704722218e+00	 1.5767808988e-01	 2.5773107301e+00
 2.0690424999e+00	 1.7544408815e-01	 2.5558352566e+00
 2.0852921176e+00	 0.0000000000e+00	 2.6447706369e+00
 2.0852197204e+00	 1.7376841086e-02	 2.6436761133e+00
 2.0850015423e+00	 3.4811684943e-02	 2.6404987623e+00
 2.0846361151e+00	 5.2303017341e-02	 2.6352546528e+00
 2.0841219871e+00	 6.9849289945e-02	 2.6279386077e+00
 2.0834577236e+00	 8.7448920382e-02	 2.6185215368e+00
 2.0826419080e+00	 1.0510029232e-01	 2.6069483597e+00
 2.0816731427e+00	 1.2280175559e-01	 2.5931366142e+00
 2.0805500499e+00	 1.4055162630e-01	 2.5769758564e+00
 2.0792712723e+00	 1.5834818700e-01	 2.5583279590e+00
 2.0778354743e+00	 1.7618968684e-01	 2.5370284217e+00
 2.0941166470e+00	 0.0000000000e+00	 2.6266740822e+00
 2.0940439435e+00	 1.7450376320e-02	 2.6253400381e+00
 2.0938248420e+00	 3.4959000868e-02	 2.6219872412e+00
 2.0934578684e+00	 5.2524353004e-02	 2.6166393315e+00
 2.0929415647e+00	 7.0144877842e-02	 2.6092942344e+00
 2.0922744902e+00	 8.7818986313e-02	 2.5999210845e+00
 2.0914552223e+00	 1.0554505525e-01	 2.5884577305e+00
 2.0904823574e+00	 1.2332142749e-01	 2.5748089251e+00
 2.0893545118e+00	 1.4114641202e-01	 2.5588453025e+00
 2.0880703227e+00	 1.5901828411e-01	 2.5404032567e+00
 2.0866284488e+00	 1.7693528553e-01	 2.5192858354e+00
 2.1029411764e+00	 0.0000000000e+00	 2.6086577287e+00
 2.1028681665e+00	 1.7523911554e-02	 2.6073291086e+00
 2.1026481418e+00	 3.5106316793e-02	 2.6039921576e+00
 2.1022796218e+00	 5.2745688667e-02	 2.5986844218e+00
 2.1017611424e+00	 7.0440465740e-02	 2.5914133357e+00
 2.1010912568e+00	 8.8189052244e-02	 2.5821527183e+00
 2.1002685365e+00	 1.0598981817e-01	 2.5708398458e+00
 2.0992915720e+00	 1.2384109938e-01	 2.5573732030e+00
 2.0981589738e+00	 1.4174119773e-01	 2.5416110220e+00
 2.0968693731e+00	 1.5968838123e-01	 2.5233707201e+00
 2.0954214232e+00	 1.7768088423e-01	 2.5024293579e+00
 2.1117657059e+00	 0.0000000000e+00	 2.5907079159e+00
 2.1116923896e+00	 1.7597446789e-02	 2.5896095075e+00
 2.1114714416e+00	 3.5253632717e-02	 2.5864604272e+00
 2.1111013751e+00	 5.2967024330e-02	 2.5813184666e+00
 2.1105807201e+00	 7.0736053637e-02	 2.5742069789e+00
 2.1099080235e+00	 8.8559118175e-02	 2.5651109336e+00
 2.1090818508e+00	 1.0643458110e-01	 2.5539735387e+00
 2.1081007867e+00	 1.2436077128e-01	 2.5406935365e+00
 2.1069634357e+00	 1.4233598344e-01	 2.5251232840e+00
 2.1056684235e+00	 1.6035847835e-01	 2.5070677322e+00
 2.1042143976e+00	 1.7842648292e-01	 2.4862844274e+00
 2.1205902353e+00	 0.0000000000e+00	 2.5728110363e+00
 2.1205166126e+00	 1.7670982023e-02	 2.5721479027e+00
 2.1202947413e+00	 3.5400948642e-02	 2.5693398600e+00
 2.1199231285e+00	 5.3188359993e-02	 2.5644712882e+00
 2.1194002977e+00	 7.1031641534e-02	 2.5575878763e+00
 2.1187247901e+00	 8.8929184106e-02	 2.5486922175e+00
 2.1178951651e+00	 1.0687934402e-01	 2.5377399646e+00
 2.1169100013e+00	 1.2488044317e-01	 2.5246366521e+00
 2.1157678977e+00	 1.4293076916e-01	 2.5092352992e+00
 2.1144674740e+00	 1.6102857546e-01	 2.4913349113e+00
 2.1130073720e+00	 1.7917208161e-01	 2.4706800042e+00
 2.1294147647e+00	 0.0000000000e+00	 2.5549535339e+00
 2.1293408356e+00	 1.7744517257e-02	 2.5549114418e+00
 2.1291180411e+00	 3.5548264567e-02	 2.5525791484e+00
 2.1287448818e+00	 5.3409695656e-02	 2.5480739725e+00
 2.1282198754e+00	 7.1327229432e-02	 2.5414703636e+00
 2.1275415567e+00	 8.9299250037e-02	 2.5327950219e+00
 2.1267084793e+00	 1.0732410695e-01	 2.5220225683e+00
 2.1257192160e+00	 1.2540011506e-01	 2.5090718759e+00
 2.1245723596e+00	 1.4352555487e-01	 2.4938031758e+00
 2.1232665244e+00	 1.6169867258e-01	 2.4760160611e+00
 2.1218003465e+00	 1.7991768030e-01	 2.4554485138e+00
 2.1382392941e+00	 0.0000000000e+00	 2.5371219033e+00
 2.1381650587e+00	 1.7818052492e-02	 2.5378677459e+00
 2.1379413408e+00	 3.5695580492e-02	 2.5361278568e+00
 2.1375666352e+00	 5.3631031320e-02	 2.5320588529e+00
 2.1370394530e+00	 7.1622817330e-02	 2.5257703791e+00
 2.1363583234e+00	 8.9669315969e-02	 2.5173197370e+00
 2.1355217936e+00	 1.0776886987e-01	 2.5067070523e+00
 2.1345284306e+00	 1.2591978696e-01	 2.4938710964e+00
 2.1333768216e+00	 1.4412034059e-01	 2.4786858768e+00
 2.1320655748e+00	 1.6236876970e-01	 2.4609581224e+00
 2.1305933209e+00	 1.8066327899e-01	 2.4404257933e+00
 2.1470638235e+00	 0.0000000000e+00	 2.5193026890e+00
 2.1469892817e+00	 1.7891587727e-02	 2.5209849035e+00
 2.1467646406e+00	 3.5842896417e-02	 2.5199364106e+00
 2.1463883885e+00	 5.3852366984e-02	 2.5163594944e+00
 2.1458590307e+00	 7.1918405228e-02	 2.5104054424e+00
 2.1451750900e+00	 9.0039381901e-02	 2.5021686655e+00
 2.1443351079e+00	 1.0821363280e-01	 2.4916813457e+00
 2.1433376453e+00	 1.2643945885e-01	 2.4789087282e+00
 2.1421812835e+00	 1.4471512630e-01	 2.4637451777e+00
 2.1408646252e+00	 1.6303886681e-01	 2.4460111248e+00
 2.1393862953e+00	 1.8140887769e-01	 2.4254510368e+00
 2.0514565511e+00	 1.7395289077e-01	 2.5973724735e+00
 2.0498823769e+00	 1.9161349164e-01	 2.5734646113e+00
 2.0481505519e+00	 2.0931487706e-01	 2.5478192425e+00
 2.0462598259e+00	 2.2705517649e-01	 2.5203410600e+00
 2.0442089737e+00	 2.4483248629e-01	 2.4909509991e+00
 2.0419967957e+00	 2.6264486992e-01	 2.4595956443e+00
 2.0396221193e+00	 2.8049035836e-01	 2.4262583441e+00
 2.0370837996e+00	 2.9836695041e-01	 2.3909721595e+00
 2.0343807202e+00	 3.1627261310e-01	 2.3538347707e+00
 2.0315117943e+00	 3.3420528204e-01	 2.3150254681e+00
 2.0284759653e+00	 3.5216286193e-01	 2.2748243543e+00
 2.0602495255e+00	 1.7469848946e-01	 2.5758881165e+00
 2.0586686040e+00	 1.9243478738e-01	 2.5520588305e+00
 2.0569293561e+00	 2.1021204466e-01	 2.5264873928e+00
 2.0550305261e+00	 2.2802838276e-01	 2.4991315123e+00
 2.0529708834e+00	 2.4588188984e-01	 2.4699568942e+00
 2.0507492236e+00	 2.6377062109e-01	 2.4389462014e+00
 2.0483643689e+00	 2.8169259905e-01	 2.4061097444e+00
 2.0458151694e+00	 2.9964581394e-01	 2.3714980290e+00
 2.0431005041e+00	 3.1762822406e-01	 2.3352162935e+00
 2.0402192813e+00	 3.3563775620e-01	 2.2974411620e+00
 2.0371704401e+00	 3.5367230605e-01	 2.2584395467e+00
 2.0690424999e+00	 1.7544408815e-01	 2.5558352566e+00
 2.0674548312e+00	 1.9325608313e-01	 2.5321069282e+00
 2.0657081603e+00	 2.1110921227e-01	 2.5066112139e+00
 2.0638012263e+00	 2.2900158902e-01	 2.4793546613e+00
 2.0617327932e+00	 2.4693129339e-01	 2.4503435348e+00
 2.0595016515e+00	 2.6489637227e-01	 2.4195923237e+00
 2.0571066184e+00	 2.8289483975e-01	 2.3871339996e+00
 2.0545465392e+00	 3.0092467747e-01	 2.3530321576e+00
 2.0518202879e+00	 3.1898383503e-01	 2.3173951749e+00
 2.0489267683e+00	 3.3707023036e-01	 2.2803925214e+00
 2.0458649149e+00	 3.5518175017e-01	 2.2422733540e+00
 2.0778354743e+00	 1.7618968684e-01	 2.5370284217e+00
 2.0762410584e+00	 1.9407737887e-01	 2.5134129443e+00
 2.0744869645e+00	 2.1200637987e-01	 2.4879880973e+00
 2.0725719264e+00	 2.2997479528e-01	 2.4608052297e+00
 2.0704947030e+00	 2.4798069694e-01	 2.4319070930e+00
 2.0682540794e+00	 2.6602212344e-01	 2.4013358871e+00
 2.0658488680e+00	 2.8409708044e-01	 2.3691430781e+00
 2.0632779090e+00	 3.0220354100e-01	 2.3354011254e+00
 2.0605400717e+00	 3.2033944599e-01	 2.3002172546e+00
 2.0576342553e+00	 3.3850270451e-01	 2.2637494166e+00
 2.0545593897e+00	 3.5669119430e-01	 2.2262245690e+00
 2.0866284488e+00	 1.7693528553e-01	 2.5192858354e+00
 2.0850272856e+00	 1.9489867461e-01	 2.4957848916e+00
 2.0832657688e+00	 2.1290354748e-01	 2.4704196334e+00
 2.0813426266e+00	 2.3094800154e-01	 2.4432823154e+00
 2.0792566128e+00	 2.4903010049e-01	 2.4144482417e+00
 2.0770065074e+00	 2.6714787462e-01	 2.3839833440e+00
 2.0745911176e+00	 2.8529932113e-01	 2.3519535507e+00
 2.0720092788e+00	 3.0348240453e-01	 2.3184360918e+00
 2.0692598555e+00	 3.2169505696e-01	 2.2835328787e+00
 2.0663417423e+00	 3.3993517867e-01	 2.2473861037e+00
 2.0632538645e+00	 3.5820063842e-01	 2.2101962004e+00
 2.0954214232e+00	 1.7768088423e-01	 2.5024293579e+00
 2.0938135128e+00	 1.9571997035e-01	 2.4790346900e+00
 2.0920445730e+00	 2.1380071508e-01	 2.4537115418e+00
 2.0901133268e+00	 2.3192120780e-01	 2.4265893165e+00
 2.0880185226e+00	 2.5007950404e-01	 2.3977720765e+00
 2.0857589353e+00	 2.6827362580e-01	 2.3673456427e+00
 2.0833333671e+00	 2.8650156183e-01	 2.3353865084e+00
 2.0807406486e+00	 3.0476126806e-01	 2.3019727125e+00
 2.0779796393e+00	 3.2305066793e-01	 2.2671968180e+00
 2.0750492293e+00	 3.4136765283e-01	 2.2311811436e+00
 2.0719483393e+00	 3.5971008254e-01	 2.1940953951e+00
 2.1042143976e+00	 1.7842648292e-01	 2.4862844274e+00
 2.1025997400e+00	 1.9654126610e-01	 2.4629781030e+00
 2.1008233772e+00	 2.1469788269e-01	 2.4376736011e+00
 2.0988840269e+00	 2.3289441406e-01	 2.4105338581e+00
 2.0967804324e+00	 2.5112890760e-01	 2.3816880385e+00
 2.0945113632e+00	 2.6939937697e-01	 2.3512381477e+00
 2.0920756167e+00	 2.8770380252e-01	 2.3192674814e+00
 2.0894720184e+00	 3.0604013158e-01	 2.2858510578e+00
 2.0866994232e+00	 3.2440627889e-01	 2.2510681861e+00
 2.0837567163e+00	 3.4280012699e-01	 2.2150173219e+00
 2.0806428141e+00	 3.6121952667e-01	 2.1778333609e+00
 2.1130073720e+00	 1.7917208161e-01	 2.4706800042e+00
 2.1113859671e+00	 1.9736256184e-01	 2.4474346749e+00
 2.1096021814e+00	 2.1559505030e-01	 2.4221195818e+00
 2.1076547271e+00	 2.3386762033e-01	 2.3949277198e+00
 2.1055423421e+00	 2.5217831115e-01	 2.3660098388e+00
 2.1032637911e+00	 2.7052512815e-01	 2.3354805618e+00
 2.1008178662e+00	 2.8890604321e-01	 2.3034263592e+00
 2.0982033881e+00	 3.0731899511e-01	 2.2699155317e+00
 2.0954192070e+00	 3.2576188986e-01	 2.2350103591e+00
 2.0924642033e+00	 3.4423260114e-01	 2.1987815702e+00
 2.0893372889e+00	 3.6272897079e-01	 2.1613252895e+00
 2.1218003465e+00	 1.7991768030e-01	 2.4554485138e+00
 2.1201721943e+00	 1.9818385758e-01	 2.4322276689e+00
 2.1183809856e+00	 2.1649221790e-01	 2.4068671795e+00
 2.1164254273e+00	 2.3484082659e-01	 2.3795867649e+00
 2.1143042519e+00	 2.5322771470e-01	 2.3505553843e+00
 2.1120162190e+00	 2.7165087932e-01	 2.3198968489e+00
 2.1095601158e+00	 2.9010828391e-01	 2.2876973120e+00
 2.1069347579e+00	 3.0859785864e-01	 2.2540147932e+00
 2.1041389908e+00	 3.2711750082e-01	 2.2188908971e+00
 2.1011716903e+00	 3.4566507530e-01	 2.1823648883e+00
 2.0980317637e+00	 3.6423841491e-01	 2.1444902814e+00
 2.1305933209e+00	 1.8066327899e-01	 2.4404257933e+00
 2.1289584215e+00	 1.9900515333e-01	 2.4171840072e+00
 2.1271597898e+00	 2.1738938551e-01	 2.3917379493e+00
 2.1251961274e+00	 2.3581403285e-01	 2.3643308713e+00
 2.1230661617e+00	 2.5427711825e-01	 2.3351467047e+00
 2.1207686470e+00	 2.7277663050e-01	 2.3043151584e+00
 2.1183023654e+00	 2.9131052460e-01	 2.2719187134e+00
 2.1156661277e+00	 3.0987672217e-01	 2.2380016778e+00
 2.1128587746e+00	 3.2847311179e-01	 2.2025814658e+00
 2.1098791773e+00	 3.4709754946e-01	 2.1656622670e+00
 2.1067262385e+00	 3.6574785904e-01	 2.1272512709e+00
 2.1393862953e+00	 1.8140887769e-01	 2.4254510368e+00
 2.1377446487e+00	 1.9982644907e-01	 2.4021342113e+00
 2.1359385941e+00	 2.1828655311e-01	 2.3765572419e+00
 2.1339668276e+00	 2.3678723911e-01	 2.3489838623e+00
 2.1318280715e+00	 2.5532652180e-01	 2.3196098808e+00
 2.1295210749e+00	 2.7390238167e-01	 2.2885677516e+00
 2.1270446149e+00	 2.9251276530e-01	 2.2559330647e+00
 2.1243974975e+00	 3.1115558570e-01	 2.2217331209e+00
 2.1215785585e+00	 3.2982872276e-01	 2.1859577596e+00
 2.1185866643e+00	 3.4853002362e-01	 2.1485726127e+00
 2.1154207133e+00	 3.6725730316e-01	 2.1095349520e+00
 2.0284759653e+00	 3.5216286193e-01	 2.2748243543e+00
 2.0252727667e+00	 3.7014016961e-01	 2.2307298001e+00
 2.0219007028e+00	 3.8813810481e-01	 2.1816809467e+00
 2.0183588128e+00	 4.0615448827e-01	 2.1298029424e+00
 2.0146461694e+00	 4.2418711190e-01	 2.0753528316e+00
 2.0107618803e+00	 4.4223373939e-01	 2.0186347461e+00
 2.0067050887e+00	 4.6029210677e-01	 1.9599987822e+00
 2.0024749745e+00	 4.7835992304e-01	 1.8998386037e+00
 1.9980707547e+00	 4.9643487084e-01	 1.8385880399e+00
 1.9934916845e+00	 5.1451460713e-01	 1.7767165343e+00
 1.9887370581e+00	 5.3259676391e-01	 1.7147233037e+00
 2.0371704401e+00	 3.5367230605e-01	 2.2584395467e+00
 2.0339535119e+00	 3.7172666826e-01	 2.2157610830e+00
 2.0305669947e+00	 3.8980174639e-01	 2.1686415192e+00
 2.0270099233e+00	 4.0789535186e-01	 2.1188011914e+00
 2.0232813668e+00	 4.2600526711e-01	 2.0664356622e+00
 2.0193804288e+00	 4.4412924625e-01	 2.0117870276e+00
 2.0153062490e+00	 4.6226501559e-01	 1.9551430132e+00
 2.0110580036e+00	 4.8041027432e-01	 1.8968351940e+00
 2.0066349064e+00	 4.9856269515e-01	 1.8372361863e+00
 2.0020362093e+00	 5.1671992500e-01	 1.7767556622e+00
 1.9972612035e+00	 5.3487958570e-01	 1.7158350399e+00
 2.0458649149e+00	 3.5518175017e-01	 2.2422733540e+00
 2.0426342571e+00	 3.7331316691e-01	 2.2006815393e+00
 2.0392332865e+00	 3.9146538798e-01	 2.1551129293e+00
 2.0356610339e+00	 4.0963621545e-01	 2.1069316933e+00
 2.0319165642e+00	 4.2782342233e-01	 2.0562821710e+00
 2.0279989773e+00	 4.4602475310e-01	 2.0033542996e+00
 2.0239074092e+00	 4.6423792440e-01	 1.9483833519e+00
 2.0196410327e+00	 4.8246062560e-01	 1.8916487787e+00
 2.0151990580e+00	 5.0069051946e-01	 1.8334719997e+00
 2.0105807341e+00	 5.1892524286e-01	 1.7742129885e+00
 2.0057853490e+00	 5.3716240750e-01	 1.7142654982e+00
 2.0545593897e+00	 3.5669119430e-01	 2.2262245690e+00
 2.0513150023e+00	 3.7489966555e-01	 2.1854199424e+00
 2.0478995784e+00	 3.9312902956e-01	 2.1410537357e+00
 2.0443121444e+00	 4.1137707905e-01	 2.0941819495e+00
 2.0405517615e+00	 4.2964157754e-01	 2.0449072326e+00
 2.0366175258e+00	 4.4792025996e-01	 1.9933769328e+00
 2.0325085695e+00	 4.6621083322e-01	 1.9397834836e+00
 2.0282240618e+00	 4.8451097688e-01	 1.8843638764e+00
 2.0237632097e+00	 5.0281834376e-01	 1.8273980576e+00
 2.0191252589e+00	 5.2113056072e-01	 1.7692060890e+00
 2.0143094945e+00	 5.3944522929e-01	 1.7101439117e+00
 2.0632538645e+00	 3.5820063842e-01	 2.2101962004e+00
 2.0599957475e+00	 3.7648616420e-01	 2.1699085272e+00
 2.0565658702e+00	 3.9479267114e-01	 2.1264261806e+00
 2.0529632550e+00	 4.1311794264e-01	 2.0805429663e+00
 2.0491869589e+00	 4.3145973275e-01	 2.0323290633e+00
 2.0452360743e+00	 4.4981576681e-01	 1.9818984915e+00
 2.0411097297e+00	 4.6818374204e-01	 1.9294101555e+00
 2.0368070908e+00	 4.8656132815e-01	 1.8750679549e+00
 2.0323273614e+00	 5.0494616807e-01	 1.8191197942e+00
 2.0276697837e+00	 5.2333587859e-01	 1.7618553242e+00
 2.0228336400e+00	 5.4172805108e-01	 1.7036022495e+00
 2.0719483393e+00	 3.5971008254e-01	 2.1940953951e+00
 2.0686764927e+00	 3.7807266284e-01	 2.1540833413e+00
 2.0652321620e+00	 3.9645631273e-01	 2.1111961284e+00
 2.0616143656e+00	 4.1485880623e-01	 2.0660091940e+00
 2.0578221563e+00	 4.3327788796e-01	 2.0185691585e+00
 2.0538546228e+00	 4.5171127367e-01	 1.9689656688e+00
 2.0497108899e+00	 4.7015665086e-01	 1.9173331092e+00
 2.0453901199e+00	 4.8861167943e-01	 1.8638513586e+00
 2.0408915130e+00	 5.0707399238e-01	 1.8087454203e+00
 2.0362143085e+00	 5.2554119645e-01	 1.7522837516e+00
 2.0313577855e+00	 5.4401087287e-01	 1.6947751198e+00
 2.0806428141e+00	 3.6121952667e-01	 2.1778333609e+00
 2.0773572379e+00	 3.7965916149e-01	 2.1378841828e+00
 2.0738984539e+00	 3.9811995431e-01	 2.0953330047e+00
 2.0702654761e+00	 4.1659966983e-01	 2.0505784663e+00
 2.0664573537e+00	 4.3509604318e-01	 2.0036522311e+00
 2.0624731713e+00	 4.5360678052e-01	 1.9546282227e+00
 2.0583120502e+00	 4.7212955967e-01	 1.9036250130e+00
 2.0539731490e+00	 4.9066203071e-01	 1.8508072358e+00
 2.0494556647e+00	 5.0920181669e-01	 1.7963858450e+00
 2.0447588333e+00	 5.2774651431e-01	 1.7406170394e+00
 2.0398819309e+00	 5.4629369467e-01	 1.6837996736e+00
 2.0893372889e+00	 3.6272897079e-01	 2.1613252895e+00
 2.0860379832e+00	 3.8124566014e-01	 2.1212545398e+00
 2.0825647457e+00	 3.9978359589e-01	 2.0788097366e+00
 2.0789165867e+00	 4.1834053342e-01	 2.0342519403e+00
 2.0750925511e+00	 4.3691419839e-01	 1.9876061504e+00
 2.0710917198e+00	 4.5550228738e-01	 1.9389389125e+00
 2.0669132104e+00	 4.7410246849e-01	 1.8883613945e+00
 2.0625561781e+00	 4.9271238200e-01	 1.8360314663e+00
 2.0580198164e+00	 5.1132964100e-01	 1.7821545964e+00
 2.0533033581e+00	 5.2995183218e-01	 1.7269833794e+00
 2.0484060764e+00	 5.4857651646e-01	 1.6708155082e+00
 2.0980317637e+00	 3.6423841491e-01	 2.1444902814e+00
 2.0947187284e+00	 3.8283215878e-01	 2.1041415298e+00
 2.0912310376e+00	 4.0144723748e-01	 2.0616026932e+00
 2.0875676972e+00	 4.2008139701e-01	 2.0170340365e+00
 2.0837277484e+00	 4.3873235360e-01	 1.9704618808e+00
 2.0797102683e+00	 4.5739779424e-01	 1.9219534353e+00
 2.0755143707e+00	 4.7607537731e-01	 1.8716205731e+00
 2.0711392072e+00	 4.9476273328e-01	 1.8196225889e+00
 2.0665839680e+00	 5.1345746531e-01	 1.7661677430e+00
 2.0618478829e+00	 5.3215715004e-01	 1.7115134002e+00
 2.0569302219e+00	 5.5085933825e-01	 1.6559645716e+00
 2.1067262385e+00	 3.6574785904e-01	 2.1272512709e+00
 2.1033994736e+00	 3.8441865743e-01	 2.0864958399e+00
 2.0998973294e+00	 4.0311087906e-01	 2.0436916264e+00
 2.0962188078e+00	 4.2182226061e-01	 1.9989323800e+00
 2.0923629458e+00	 4.4055050882e-01	 1.9522534216e+00
 2.0883288168e+00	 4.5929330109e-01	 1.9037303626e+00
 2.0841155309e+00	 4.7804828613e-01	 1.8534835934e+00
 2.0797222362e+00	 4.9681308456e-01	 1.8016817297e+00
 2.0751481197e+00	 5.1558528963e-01	 1.7485438151e+00
 2.0703924078e+00	 5.3436246791e-01	 1.6943400811e+00
 2.0654543674e+00	 5.5314216005e-01	 1.6393910661e+00
 2.1154207133e+00	 3.6725730316e-01	 2.1095349520e+00
 2.1120802188e+00	 3.8600515608e-01	 2.0682716683e+00
 2.1085636212e+00	 4.0477452065e-01	 2.0250596129e+00
 2.1048699183e+00	 4.2356312421e-01	 1.9799577412e+00
 2.1009981432e+00	 4.4236866403e-01	 1.9330177461e+00
 2.0969473653e+00	 4.6118880795e-01	 1.8843310776e+00
 2.0927166911e+00	 4.8002119495e-01	 1.8340341582e+00
 2.0883052653e+00	 4.9886343584e-01	 1.7823125297e+00
 2.0837122714e+00	 5.1771311394e-01	 1.7294037264e+00
 2.0789369326e+00	 5.3656778577e-01	 1.6755986658e+00
 2.0739785129e+00	 5.5542498184e-01	 1.6212413532e+00
 1.9887370581e+00	 5.3259676391e-01	 1.7147233037e+00
 1.9838062098e+00	 5.5067894919e-01	 1.6514509503e+00
 1.9786985165e+00	 5.6875874854e-01	 1.5858124167e+00
 1.9734133965e+00	 5.8683372519e-01	 1.5184424214e+00
 1.9679503103e+00	 6.0490142056e-01	 1.4499814113e+00
 1.9623087615e+00	 6.2295935516e-01	 1.3810612969e+00
 1.9564882968e+00	 6.4100502941e-01	 1.3122891278e+00
 1.9504885074e+00	 6.5903592457e-01	 1.2442286140e+00
 1.9443090295e+00	 6.7704950364e-01	 1.1773794082e+00
 1.9379495447e+00	 6.9504321235e-01	 1.1121540794e+00
 1.9314097810e+00	 7.1301448007e-01	 1.0488527204e+00
 1.9972612035e+00	 5.3487958570e-01	 1.7158350399e+00
 1.9923092207e+00	 5.5303927503e-01	 1.6533418913e+00
 1.9871796347e+00	 5.7119656821e-01	 1.5882217599e+00
 1.9818718615e+00	 5.8934901801e-01	 1.5210666376e+00
 1.9763853595e+00	 6.0749415532e-01	 1.4524769476e+00
 1.9707196297e+00	 6.2562949003e-01	 1.3830475335e+00
 1.9648742173e+00	 6.4375251184e-01	 1.3133515230e+00
 1.9588487116e+00	 6.6186069121e-01	 1.2439219675e+00
 1.9526427471e+00	 6.7995148028e-01	 1.1752311685e+00
 1.9462560043e+00	 6.9802231381e-01	 1.1076676177e+00
 1.9396882097e+00	 7.1607061016e-01	 1.0415104894e+00
 2.0057853490e+00	 5.3716240750e-01	 1.7142654982e+00
 2.0008122315e+00	 5.5539960088e-01	 1.6525243713e+00
 1.9956607529e+00	 5.7363438788e-01	 1.5879609647e+00
 1.9903303266e+00	 5.9186431083e-01	 1.5211212056e+00
 1.9848204086e+00	 6.1008689009e-01	 1.4525623249e+00
 1.9791304980e+00	 6.2829962490e-01	 1.3828391147e+00
 1.9732601378e+00	 6.4649999427e-01	 1.3124879942e+00
 1.9672089157e+00	 6.6468545785e-01	 1.2420087799e+00
 1.9609764647e+00	 6.8285345691e-01	 1.1718440663e+00
 1.9545624638e+00	 7.0100141526e-01	 1.1023561395e+00
 1.9479666384e+00	 7.1912674025e-01	 1.0338013605e+00
 2.0143094945e+00	 5.3944522929e-01	 1.7101439117e+00
 2.0093152423e+00	 5.5775992672e-01	 1.6491370346e+00
 2.0041418710e+00	 5.7607220754e-01	 1.5851770640e+00
 1.9987887916e+00	 5.9437960365e-01	 1.5187604510e+00
 1.9932554577e+00	 6.1267962486e-01	 1.4503980002e+00
 1.9875413662e+00	 6.3096975978e-01	 1.3806014126e+00
 1.9816460583e+00	 6.4924747670e-01	 1.3098675676e+00
 1.9755691199e+00	 6.6751022449e-01	 1.2386604351e+00
 1.9693101823e+00	 6.8575543354e-01	 1.1673905213e+00
 1.9628689233e+00	 7.0398051672e-01	 1.0963917648e+00
 1.9562450671e+00	 7.2218287034e-01	 1.0258958153e+00
 2.0228336400e+00	 5.4172805108e-01	 1.7036022495e+00
 2.0178182531e+00	 5.6012025256e-01	 1.6433212149e+00
 2.0126229892e+00	 5.7851002721e-01	 1.5800197120e+00
 2.0072472567e+00	 5.9689489647e-01	 1.5141412298e+00
 2.0016905068e+00	 6.1527235962e-01	 1.4461468479e+00
 1.9959522344e+00	 6.3363989465e-01	 1.3765020805e+00
 1.9900319788e+00	 6.5199495913e-01	 1.3056613895e+00
 1.9839293240e+00	 6.7033499113e-01	 1.2340502513e+00
 1.9776438999e+00	 6.8865741017e-01	 1.1620446783e+00
 1.9711753828e+00	 7.0695961817e-01	 1.0899481045e+00
 1.9645234958e+00	 7.2523900043e-01	 1.0179655676e+00
 2.0313577855e+00	 5.4401087287e-01	 1.6947751198e+00
 2.0263212640e+00	 5.6248057841e-01	 1.6352208270e+00
 2.0211041074e+00	 5.8094784688e-01	 1.5726410648e+00
 2.0157057217e+00	 5.9941018929e-01	 1.5074227980e+00
 2.0101255559e+00	 6.1786509439e-01	 1.4399740162e+00
 2.0043631027e+00	 6.3631002952e-01	 1.3707108950e+00
 1.9984178993e+00	 6.5474244156e-01	 1.3000425544e+00
 1.9922895281e+00	 6.7315975777e-01	 1.2283532951e+00
 1.9859776175e+00	 6.9155938681e-01	 1.1559822042e+00
 1.9794818423e+00	 7.0993871962e-01	 1.0832000410e+00
 1.9728019245e+00	 7.2829513052e-01	 1.0101833269e+00
 2.0398819309e+00	 5.4629369467e-01	 1.6837996736e+00
 2.0348242748e+00	 5.6484090425e-01	 1.6249822608e+00
 2.0295852256e+00	 5.8338566655e-01	 1.5631956624e+00
 2.0241641867e+00	 6.0192548211e-01	 1.4987666810e+00
 2.0185606050e+00	 6.2045782915e-01	 1.4320467839e+00
 2.0127739709e+00	 6.3898016440e-01	 1.3633995988e+00
 2.0068038198e+00	 6.5748992399e-01	 1.2931859339e+00
 2.0006497323e+00	 6.7598452442e-01	 1.2217461945e+00
 1.9943113351e+00	 6.9446136344e-01	 1.1493800866e+00
 1.9877883018e+00	 7.1291782108e-01	 1.0763235099e+00
 1.9810803532e+00	 7.3135126060e-01	 1.0027225632e+00
 2.0484060764e+00	 5.4857651646e-01	 1.6708155082e+00
 2.0433272856e+00	 5.6720123010e-01	 1.6127542736e+00
 2.0380663437e+00	 5.8582348622e-01	 1.5518403101e+00
 2.0326226518e+00	 6.0444077494e-01	 1.4883365430e+00
 2.0269956541e+00	 6.2305056392e-01	 1.4225344169e+00
 2.0211848391e+00	 6.4165029927e-01	 1.3547417452e+00
 2.0151897403e+00	 6.6023740642e-01	 1.2852680059e+00
 2.0090099364e+00	 6.7880929106e-01	 1.2144069541e+00
 2.0026450527e+00	 6.9736334007e-01	 1.1424164326e+00
 1.9960947613e+00	 7.1589692253e-01	 1.0694952833e+00
 1.9893587819e+00	 7.3440739069e-01	 9.9575727264e-01
 2.0569302219e+00	 5.5085933825e-01	 1.6559645716e+00
 2.0518302965e+00	 5.6956155594e-01	 1.5986878837e+00
 2.0465474619e+00	 5.8826130589e-01	 1.5387339612e+00
 2.0410811168e+00	 6.0695606776e-01	 1.4762980575e+00
 2.0354307032e+00	 6.2564329869e-01	 1.4116080262e+00
 2.0295957074e+00	 6.4432043415e-01	 1.3449125412e+00
 2.0235756608e+00	 6.6298488885e-01	 1.2764666850e+00
 2.0173701406e+00	 6.8163405770e-01	 1.2065147698e+00
 2.0109787703e+00	 7.0026531671e-01	 1.1352702688e+00
 2.0044012208e+00	 7.1887602399e-01	 1.0628927527e+00
 1.9976372106e+00	 7.3746352078e-01	 9.8946174502e-01
 2.0654543674e+00	 5.5314216005e-01	 1.6393910661e+00
 2.0603333073e+00	 5.7192188179e-01	 1.5829362645e+00
 2.0550285801e+00	 5.9069912556e-01	 1.5240375989e+00
 2.0495395819e+00	 6.0947136058e-01	 1.4628187777e+00
 2.0438657523e+00	 6.2823603346e-01	 1.3994404257e+00
 2.0380065756e+00	 6.4699056902e-01	 1.3340886930e+00
 2.0319615813e+00	 6.6573237129e-01	 1.2669611530e+00
 2.0257303447e+00	 6.8445882434e-01	 1.1982498457e+00
 2.0193124879e+00	 7.0316729334e-01	 1.1281213418e+00
 2.0127076804e+00	 7.2185512544e-01	 1.0566937148e+00
 2.0059156394e+00	 7.4051965087e-01	 9.8401033123e-01
 2.0739785129e+00	 5.5542498184e-01	 1.6212413532e+00
 2.0688363181e+00	 5.7428220763e-01	 1.5656546377e+00
 2.0635096983e+00	 5.9313694523e-01	 1.5079141193e+00
 2.0579980469e+00	 6.1198665341e-01	 1.4480680077e+00
 2.0523008014e+00	 6.3082876822e-01	 1.3862059906e+00
 2.0464174439e+00	 6.4966070390e-01	 1.3224482509e+00
 2.0403475018e+00	 6.6847985372e-01	 1.2569316901e+00
 2.0340905489e+00	 6.8728359099e-01	 1.1897932099e+00
 2.0276462055e+00	 7.0606926997e-01	 1.1211499199e+00
 2.0210141399e+00	 7.2483422690e-01	 1.0510761559e+00
 2.0141940681e+00	 7.4357578096e-01	 9.7957442997e-01
 1.9314097810e+00	 7.1301448007e-01	 1.0488527204e+00
 1.9246883549e+00	 7.3096376946e-01	 9.8708614393e-01
 1.9177861838e+00	 7.4888542094e-01	 9.2574475994e-01
 1.9107031366e+00	 7.6677681873e-01	 8.6303759172e-01
 1.9034391305e+00	 7.8463533479e-01	 7.9795179455e-01
 1.8959941319e+00	 8.0245832991e-01	 7.2967941504e-01
 1.8883681565e+00	 8.2024315482e-01	 6.5741471013e-01
 1.8805612704e+00	 8.3798715128e-01	 5.8034697940e-01
 1.8725735898e+00	 8.5568765327e-01	 4.9765265999e-01
 1.8644052817e+00	 8.7334198809e-01	 4.0848668863e-01
 1.8560565644e+00	 8.9094747759e-01	 3.1197313996e-01
 1.9396882097e+00	 7.1607061016e-01	 1.0415104894e+00
 1.9329379741e+00	 7.3409683398e-01	 9.7654483709e-01
 1.9260062189e+00	 7.5209530143e-01	 9.1193464899e-01
 1.9188928123e+00	 7.7006338551e-01	 8.4628126476e-01
 1.9115976711e+00	 7.8799844693e-01	 7.7893338342e-01
 1.9041207617e+00	 8.0589783516e-01	 7.0932375558e-01
 1.8964620998e+00	 8.2375888957e-01	 6.3688357103e-01
 1.8886217517e+00	 8.4157894054e-01	 5.6103477660e-01
 1.8805998342e+00	 8.5935531060e-01	 4.8118163613e-01
 1.8723965150e+00	 8.7708531561e-01	 3.9670153718e-01
 1.8640120133e+00	 8.9476626595e-01	 3.0693505407e-01
 1.9479666384e+00	 7.1912674025e-01	 1.0338013605e+00
 1.9411875934e+00	 7.3722989850e-01	 9.6609559422e-01
 1.9342262540e+00	 7.5530518192e-01	 8.9860892945e-01
 1.9270824880e+00	 7.7334995230e-01	 8.3035009600e-01
 1.9197562117e+00	 7.9136155907e-01	 7.6094718199e-01
 1.9122473914e+00	 8.0933734041e-01	 6.9004989679e-01
 1.9045560431e+00	 8.2727462432e-01	 6.1730328181e-01
 1.8966822330e+00	 8.4517072979e-01	 5.4233955282e-01
 1.8886260786e+00	 8.6302296792e-01	 4.6476916294e-01
 1.8803877483e+00	 8.8082864313e-01	 3.8417109117e-01
 1.8719674623e+00	 8.9858505431e-01	 3.0008236653e-01
 1.9562450671e+00	 7.2218287034e-01	 1.0258958153e+00
 1.9494372126e+00	 7.4036296303e-01	 9.5591039793e-01
 1.9424462891e+00	 7.5851506241e-01	 8.8595529889e-01
 1.9352721636e+00	 7.7663651908e-01	 8.1543946165e-01
 1.9279147524e+00	 7.9472467122e-01	 7.4420528618e-01
 1.9203740212e+00	 8.1277684566e-01	 6.7209601261e-01
 1.9126499863e+00	 8.3079035907e-01	 5.9894776729e-01
 1.9047427143e+00	 8.4876251904e-01	 5.2458096803e-01
 1.8966523230e+00	 8.6669062525e-01	 4.4879092801e-01
 1.8883789816e+00	 8.8457197066e-01	 3.7133766309e-01
 1.8799229113e+00	 9.0240384266e-01	 2.9193491286e-01
 1.9645234958e+00	 7.2523900043e-01	 1.0179655676e+00
 1.9576868319e+00	 7.4349602755e-01	 9.4615297788e-01
 1.9506663242e+00	 7.6172494290e-01	 8.7415883664e-01
 1.9434618393e+00	 7.7992308587e-01	 8.0174192222e-01
 1.9360732930e+00	 7.9808778336e-01	 7.2891662146e-01
 1.9285006510e+00	 8.1621635091e-01	 6.5569658892e-01
 1.9207439296e+00	 8.3430609383e-01	 5.8208657805e-01
 1.9128031956e+00	 8.5235430830e-01	 5.0807344792e-01
 1.9046785674e+00	 8.7035828259e-01	 4.3361634541e-01
 1.8963702150e+00	 8.8831529818e-01	 3.5863606809e-01
 1.8878783602e+00	 9.0622263102e-01	 2.8300361788e-01
 1.9728019245e+00	 7.2829513052e-01	 1.0101833269e+00
 1.9659364512e+00	 7.4662909207e-01	 9.3698849829e-01
 1.9588863593e+00	 7.6493482339e-01	 8.6340200131e-01
 1.9516515150e+00	 7.8320965266e-01	 7.8944722363e-01
 1.9442318336e+00	 8.0145089550e-01	 7.1528695076e-01
 1.9366272808e+00	 8.1965585616e-01	 6.4108244140e-01
 1.9288378728e+00	 8.3782182858e-01	 5.6698492182e-01
 1.9208636769e+00	 8.5594609755e-01	 4.9312623213e-01
 1.9127048118e+00	 8.7402593992e-01	 4.1960862429e-01
 1.9043614483e+00	 8.9205862570e-01	 3.4649371680e-01
 1.8958338092e+00	 9.1004141937e-01	 2.7379061654e-01
 1.9810803532e+00	 7.3135126060e-01	 1.0027225632e+00
 1.9741860704e+00	 7.4976215659e-01	 9.2859781374e-01
 1.9671063944e+00	 7.6814470388e-01	 8.5386462944e-01
 1.9598411907e+00	 7.8649621944e-01	 7.7874229942e-01
 1.9523903742e+00	 8.0481400765e-01	 7.0351888331e-01
 1.9447539106e+00	 8.2309536141e-01	 6.2848073426e-01
 1.9369318161e+00	 8.4133756333e-01	 5.5390369517e-01
 1.9289241582e+00	 8.5953788681e-01	 4.8004342249e-01
 1.9207310563e+00	 8.7769359725e-01	 4.0712483711e-01
 1.9123526816e+00	 8.9580195323e-01	 3.3533070709e-01
 1.9037892582e+00	 9.1386020773e-01	 2.6478937287e-01
 1.9893587819e+00	 7.3440739069e-01	 9.9575727264e-01
 1.9824356897e+00	 7.5289522111e-01	 9.2115936163e-01
 1.9753264296e+00	 7.7135458437e-01	 8.4572393539e-01
 1.9680308663e+00	 7.8978278623e-01	 7.6981127412e-01
 1.9605489148e+00	 8.0817711979e-01	 6.9381188446e-01
 1.9528805404e+00	 8.2653486666e-01	 6.1811499958e-01
 1.9450257593e+00	 8.4485329808e-01	 5.4309951571e-01
 1.9369846395e+00	 8.6312967606e-01	 4.6912403126e-01
 1.9287573007e+00	 8.8136125458e-01	 3.9651598738e-01
 1.9203439150e+00	 8.9954528075e-01	 3.2555991481e-01
 1.9117447071e+00	 9.1767899609e-01	 2.5648479736e-01
 1.9976372106e+00	 7.3746352078e-01	 9.8946174502e-01
 1.9906853090e+00	 7.5602828563e-01	 9.1484900178e-01
 1.9835464647e+00	 7.7456446486e-01	 8.3915451231e-01
 1.9762205420e+00	 7.9306935301e-01	 7.6283546767e-01
 1.9687074554e+00	 8.1154023193e-01	 6.8636228647e-01
 1.9610071702e+00	 8.2997437191e-01	 6.1020515747e-01
 1.9531197026e+00	 8.4836903283e-01	 5.3482475472e-01
 1.9450451208e+00	 8.6672146532e-01	 4.6066202942e-01
 1.9367835451e+00	 8.8502891191e-01	 3.8812707696e-01
 1.9283351483e+00	 9.0328860828e-01	 3.1758708351e-01
 1.9197001561e+00	 9.2149778444e-01	 2.4935336259e-01
 2.0059156394e+00	 7.4051965087e-01	 9.8401033123e-01
 1.9989349282e+00	 7.5916135015e-01	 9.0984001791e-01
 1.9917664998e+00	 7.7777434535e-01	 8.3432833426e-01
 1.9844102177e+00	 7.9635591980e-01	 7.5799340085e-01
 1.9768659961e+00	 8.1490334408e-01	 6.8136330012e-01
 1.9691337999e+00	 8.3341387716e-01	 6.0496753685e-01
 1.9612136458e+00	 8.5188476759e-01	 5.2932757008e-01
 1.9531056021e+00	 8.7031325457e-01	 4.5494639501e-01
 1.9448097895e+00	 8.8869656924e-01	 3.8229717293e-01
 1.9363263816e+00	 9.0703193580e-01	 3.1181091319e-01
 1.9276556051e+00	 9.2531657280e-01	 2.4386321727e-01
 2.0141940681e+00	 7.4357578096e-01	 9.7957442997e-01
 2.0071845475e+00	 7.6229441467e-01	 9.0630312021e-01
 1.9999865349e+00	 7.8098422584e-01	 8.3141475936e-01
 1.9925998934e+00	 7.9964248658e-01	 7.5546080179e-01
 1.9850245367e+00	 8.1826645622e-01	 6.7900502728e-01
 1.9772604297e+00	 8.3685338241e-01	 6.0261489693e-01
 1.9693075891e+00	 8.5540050234e-01	 5.2685193969e-01
 1.9611660834e+00	 8.7390504382e-01	 4.5226116142e-01
 1.9528360339e+00	 8.9236422656e-01	 3.7935947403e-01
 1.9443176149e+00	 9.1077526332e-01	 3.0862314809e-01
 1.9356110540e+00	 9.2913536115e-01	 2.4047429872e-01
 1.8560565644e+00	 8.9094747759e-01	 3.1197313996e-01
 1.8475291724e+00	 9.0849845989e-01	 2.1012759044e-01
 1.8388220224e+00	 9.2599524687e-01	 1.1775713612e-01
 1.8299354863e+00	 9.4343515160e-01	 3.5613120255e-02
 1.8208699886e+00	 9.6081548646e-01	-3.8293816688e-02
 1.8116260061e+00	 9.7813356446e-01	-1.0611780684e-01
 1.8022040683e+00	 9.9538670041e-01	-1.7015138821e-01
 1.7926047575e+00	 1.0125722123e+00	-2.3279635249e-01
 1.7828287087e+00	 1.0296874225e+00	-2.9653182371e-01
 1.7728766099e+00	 1.0467296589e+00	-3.6387960101e-01
 1.7627492020e+00	 1.0636962566e+00	-4.3736681605e-01
 1.8640120133e+00	 8.9476626595e-01	 3.0693505407e-01
 1.8554480712e+00	 9.1239247544e-01	 2.1100274697e-01
 1.8467036004e+00	 9.2996425734e-01	 1.1237713518e-01
 1.8377789748e+00	 9.4747891317e-01	 2.5034641457e-02
 1.8286746205e+00	 9.6493374381e-01	-5.1689074289e-02
 1.8193910164e+00	 9.8232605072e-01	-1.2035088656e-01
 1.8099286942e+00	 9.9965313725e-01	-1.8364727442e-01
 1.8002882387e+00	 1.0169123099e+00	-2.4438424261e-01
 1.7904702876e+00	 1.0341008794e+00	-3.0544439940e-01
 1.7804755321e+00	 1.0512161625e+00	-3.6975122429e-01
 1.7703047160e+00	 1.0682554826e+00	-4.4023057648e-01
 1.8719674623e+00	 8.9858505431e-01	 3.0008236653e-01
 1.8633669700e+00	 9.1628649100e-01	 2.1142342013e-01
 1.8545851785e+00	 9.3393326781e-01	 1.1773598321e-01
 1.8456224633e+00	 9.5152267474e-01	 2.3987080702e-02
 1.8364792524e+00	 9.6905200115e-01	-5.7584085000e-02
 1.8271560266e+00	 9.8651853699e-01	-1.2897847179e-01
 1.8176533200e+00	 1.0039195741e+00	-1.9325432189e-01
 1.8079717198e+00	 1.0212524074e+00	-2.5358118176e-01
 1.7981118666e+00	 1.0385143364e+00	-3.1320604818e-01
 1.7880744542e+00	 1.0557026660e+00	-3.7541662709e-01
 1.7778602299e+00	 1.0728147085e+00	-4.4350175634e-01
 1.8799229113e+00	 9.0240384266e-01	 2.9193491286e-01
 1.8712858687e+00	 9.2018050656e-01	 2.0937788108e-01
 1.8624667566e+00	 9.3790227828e-01	 1.2280478125e-01
 1.8534659519e+00	 9.5556643631e-01	 3.2357124237e-02
 1.8442838843e+00	 9.7317025849e-01	-5.5765346457e-02
 1.8349210368e+00	 9.9071102326e-01	-1.3176439302e-01
 1.8253779458e+00	 1.0081860109e+00	-1.9872994219e-01
 1.8156552010e+00	 1.0255925050e+00	-2.6015494633e-01
 1.8057534456e+00	 1.0429277933e+00	-3.1961222737e-01
 1.7956733764e+00	 1.0601891696e+00	-3.8071679278e-01
 1.7854157439e+00	 1.0773739345e+00	-4.4708523526e-01
 1.8878783602e+00	 9.0622263102e-01	 2.8300361788e-01
 1.8792047675e+00	 9.2407452212e-01	 2.0545150885e-01
 1.8703483347e+00	 9.4187128875e-01	 1.2482020211e-01
 1.8613094404e+00	 9.5961019788e-01	 4.1053757900e-02
 1.8520885162e+00	 9.7728851583e-01	-4.6026653146e-02
 1.8426860471e+00	 9.9490350953e-01	-1.2847577732e-01
 1.8331025717e+00	 1.0124524478e+00	-1.9983490112e-01
 1.8233386822e+00	 1.0299326025e+00	-2.6387640237e-01
 1.8133950246e+00	 1.0473412503e+00	-3.2446088707e-01
 1.8032722986e+00	 1.0646756731e+00	-3.8549425822e-01
 1.7929712579e+00	 1.0819331605e+00	-4.5088615512e-01
 1.8958338092e+00	 9.1004141937e-01	 2.7379061654e-01
 1.8871236663e+00	 9.2796853768e-01	 2.0021952903e-01
 1.8782299128e+00	 9.4584029922e-01	 1.2441622902e-01
 1.8691529289e+00	 9.6365395945e-01	 4.6172681639e-02
 1.8598931481e+00	 9.8140677317e-01	-3.4838793377e-02
 1.8504510573e+00	 9.9909599579e-01	-1.1888327687e-01
 1.8408271975e+00	 1.0167188846e+00	-1.9633355472e-01
 1.8310221634e+00	 1.0342727001e+00	-2.6451975512e-01
 1.8210366035e+00	 1.0517547072e+00	-3.2755273905e-01
 1.8108712208e+00	 1.0691621767e+00	-3.8959340840e-01
 1.8005267719e+00	 1.0864923864e+00	-4.5481024689e-01
 1.9037892582e+00	 9.1386020773e-01	 2.6478937287e-01
 1.8950425651e+00	 9.3186255324e-01	 1.9424715939e-01
 1.8861114909e+00	 9.4980930969e-01	 1.2221573405e-01
 1.8769964175e+00	 9.6769772102e-01	 4.8379772065e-02
 1.8676977800e+00	 9.8552503052e-01	-2.7693340539e-02
 1.8582160676e+00	 1.0032884821e+00	-1.0656951421e-01
 1.8485518234e+00	 1.0209853214e+00	-1.8799408914e-01
 1.8387056445e+00	 1.0386127976e+00	-2.6186280194e-01
 1.8286781825e+00	 1.0561681642e+00	-3.2869152889e-01
 1.8184701430e+00	 1.0736486803e+00	-3.9286077378e-01
 1.8080822859e+00	 1.0910516124e+00	-4.5876415934e-01
 1.9117447071e+00	 9.1767899609e-01	 2.5648479736e-01
 1.9029614638e+00	 9.3575656880e-01	 1.8808975317e-01
 1.8939930690e+00	 9.5377832015e-01	 1.1883064228e-01
 1.8848399060e+00	 9.7174148259e-01	 4.8329114204e-02
 1.8755024119e+00	 9.8964328786e-01	-2.3908992645e-02
 1.8659810778e+00	 1.0074809683e+00	-9.8509875880e-02
 1.8562764492e+00	 1.0252517583e+00	-1.7624867408e-01
 1.8463891257e+00	 1.0429528952e+00	-2.5568718883e-01
 1.8363197615e+00	 1.0605816211e+00	-3.2768431127e-01
 1.8260690651e+00	 1.0781351838e+00	-3.9514533028e-01
 1.8156377998e+00	 1.0956108384e+00	-4.6265578986e-01
 1.9197001561e+00	 9.2149778444e-01	 2.4935336259e-01
 1.9108803626e+00	 9.3965058435e-01	 1.8229294006e-01
 1.9018746471e+00	 9.5774733062e-01	 1.1486209314e-01
 1.8926833945e+00	 9.7578524416e-01	 4.6663178092e-02
 1.8833070438e+00	 9.9376154520e-01	-2.2816650236e-02
 1.8737460881e+00	 1.0116734546e+00	-9.4221953573e-02
 1.8640010751e+00	 1.0295181951e+00	-1.6834623139e-01
 1.8540726069e+00	 1.0472929928e+00	-2.4614979237e-01
 1.8439613405e+00	 1.0649950781e+00	-3.2434172824e-01
 1.8336679873e+00	 1.0826216874e+00	-3.9629880181e-01
 1.8231933138e+00	 1.1001700644e+00	-4.6639461720e-01
 1.9276556051e+00	 9.2531657280e-01	 2.4386321727e-01
 1.9187992614e+00	 9.4354459991e-01	 1.7739276488e-01
 1.9097562252e+00	 9.6171634109e-01	 1.1090059902e-01
 1.9005268831e+00	 9.7982900573e-01	 4.4012992265e-02
 1.8911116757e+00	 9.9787980254e-01	-2.3759233212e-02
 1.8815110983e+00	 1.0158659409e+00	-9.3037583240e-02
 1.8717257009e+00	 1.0337846320e+00	-1.6459350129e-01
 1.8617560881e+00	 1.0516330903e+00	-2.3936665366e-01
 1.8516029194e+00	 1.0694085350e+00	-3.1847829059e-01
 1.8412669095e+00	 1.0871081909e+00	-3.9617596534e-01
 1.8307488278e+00	 1.1047292903e+00	-4.6989203596e-01
 1.9356110540e+00	 9.2913536115e-01	 2.4047429872e-01
 1.9267181602e+00	 9.4743861547e-01	 1.7391582420e-01
 1.9176378033e+00	 9.6568535156e-01	 1.0752620123e-01
 1.9083703716e+00	 9.8387276730e-01	 4.0998314228e-02
 1.8989163076e+00	 1.0019980599e+00	-2.6091500921e-02
 1.8892761086e+00	 1.0200584271e+00	-9.4300768553e-02
 1.8794503267e+00	 1.0380510688e+00	-1.6433894321e-01
 1.8694395692e+00	 1.0559731879e+00	-2.3708618036e-01
 1.8592444984e+00	 1.0738219920e+00	-3.1361274309e-01
 1.8488658317e+00	 1.0915946945e+00	-3.9463495838e-01
 1.8383043418e+00	 1.1092885163e+00	-4.7306169308e-01
 1.7627492020e+00	 1.0636962566e+00	-4.3736681605e-01
 1.7524472793e+00	 1.0805845591e+00	-5.1263956402e-01
 1.7419716905e+00	 1.0973919210e+00	-5.8498352460e-01
 1.7313233376e+00	 1.1141157078e+00	-6.5622595929e-01
 1.7205031752e+00	 1.1307532976e+00	-7.2547073865e-01
 1.7095122102e+00	 1.1473020817e+00	-7.9221201268e-01
 1.6983515019e+00	 1.1637594664e+00	-8.5697666217e-01
 1.6870221614e+00	 1.1801228739e+00	-9.2018449131e-01
 1.6755253515e+00	 1.1963897440e+00	-9.8215401330e-01
 1.6638622866e+00	 1.2125575349e+00	-1.0431098120e+00
 1.6520342318e+00	 1.2286237251e+00	-1.1031914330e+00
 1.7703047160e+00	 1.0682554826e+00	-4.4023057648e-01
 1.7599586370e+00	 1.0852161719e+00	-5.1303118666e-01
 1.7494381477e+00	 1.1020955736e+00	-5.8368069486e-01
 1.7387441537e+00	 1.1188910422e+00	-6.5367273711e-01
 1.7278776138e+00	 1.1355999441e+00	-7.2160128916e-01
 1.7168395392e+00	 1.1522196598e+00	-7.8759276293e-01
 1.7056309938e+00	 1.1687475843e+00	-8.5214805539e-01
 1.6942530933e+00	 1.1851811288e+00	-9.1565794712e-01
 1.6827070057e+00	 1.2015177221e+00	-9.7840917214e-01
 1.6709939504e+00	 1.2177548117e+00	-1.0405921118e+00
 1.6591151981e+00	 1.2338898649e+00	-1.1023100647e+00
 1.7778602299e+00	 1.0728147085e+00	-4.4350175634e-01
 1.7674699948e+00	 1.0898477847e+00	-5.1416778818e-01
 1.7569046049e+00	 1.1067992263e+00	-5.8328436527e-01
 1.7461649698e+00	 1.1236663765e+00	-6.5174918780e-01
 1.7352520524e+00	 1.1404465907e+00	-7.1824681749e-01
 1.7241668683e+00	 1.1571372379e+00	-7.8329003215e-01
 1.7129104857e+00	 1.1737357022e+00	-8.4738309237e-01
 1.7014840253e+00	 1.1902393838e+00	-9.1091604402e-01
 1.6898886599e+00	 1.2066457003e+00	-9.7417103456e-01
 1.6781256143e+00	 1.2229520884e+00	-1.0373303036e+00
 1.6661961644e+00	 1.2391560047e+00	-1.1004857982e+00
 1.7854157439e+00	 1.0773739345e+00	-4.4708523526e-01
 1.7749813526e+00	 1.0944793975e+00	-5.1602230465e-01
 1.7643710621e+00	 1.1115028790e+00	-5.8382397447e-01
 1.7535857859e+00	 1.1284417108e+00	-6.5054535451e-01
 1.7426264911e+00	 1.1452932372e+00	-7.1553973504e-01
 1.7314941973e+00	 1.1620548161e+00	-7.7946788818e-01
 1.7201899775e+00	 1.1787238202e+00	-8.4286645848e-01
 1.7087149572e+00	 1.1952976387e+00	-9.0615272187e-01
 1.6970703141e+00	 1.2117736785e+00	-9.6963111073e-01
 1.6852572781e+00	 1.2281493651e+00	-1.0335014661e+00
 1.6732771307e+00	 1.2444221445e+00	-1.0978689659e+00
 1.7929712579e+00	 1.0819331605e+00	-4.5088615512e-01
 1.7824927103e+00	 1.0991110103e+00	-5.1856653028e-01
 1.7718375193e+00	 1.1162065317e+00	-5.8518062229e-01
 1.7610066021e+00	 1.1332170452e+00	-6.5015210337e-01
 1.7500009297e+00	 1.1501398838e+00	-7.1361237608e-01
 1.7388215263e+00	 1.1669723942e+00	-7.7628961836e-01
 1.7274694694e+00	 1.1837119381e+00	-8.3878155770e-01
 1.7159458892e+00	 1.2003558937e+00	-9.0156034585e-01
 1.7042519683e+00	 1.2169016567e+00	-9.6497925569e-01
 1.6923889420e+00	 1.2333466419e+00	-1.0292811604e+00
 1.6803580971e+00	 1.2496882843e+00	-1.0946087417e+00
 1.8005267719e+00	 1.0864923864e+00	-4.5481024689e-01
 1.7900040681e+00	 1.1037426231e+00	-5.2177147765e-01
 1.7793039765e+00	 1.1209101843e+00	-5.8728502931e-01
 1.7684274182e+00	 1.1379923795e+00	-6.5066104858e-01
 1.7573753683e+00	 1.1549865304e+00	-7.1259694334e-01
 1.7461488554e+00	 1.1718899723e+00	-7.7391769210e-01
 1.7347489613e+00	 1.1887000561e+00	-8.3531048817e-01
 1.7231768211e+00	 1.2054141486e+00	-8.9732969115e-01
 1.7114336225e+00	 1.2220296348e+00	-9.6040365905e-01
 1.6995206058e+00	 1.2385439186e+00	-1.0248434200e+00
 1.6874390634e+00	 1.2549544241e+00	-1.0908531289e+00
 1.8080822859e+00	 1.0910516124e+00	-4.5876415934e-01
 1.7975154259e+00	 1.1083742359e+00	-5.2560773930e-01
 1.7867704336e+00	 1.1256138370e+00	-5.9017993440e-01
 1.7758482343e+00	 1.1427677139e+00	-6.5216447767e-01
 1.7647498069e+00	 1.1598331769e+00	-7.1262545330e-01
 1.7534761844e+00	 1.1768075504e+00	-7.7251372260e-01
 1.7420284532e+00	 1.1936881740e+00	-8.3263401673e-01
 1.7304077531e+00	 1.2104724036e+00	-8.9364992653e-01
 1.7186152767e+00	 1.2271576130e+00	-9.5609083362e-01
 1.7066522697e+00	 1.2437411953e+00	-1.0203607408e+00
 1.6945200297e+00	 1.2602205639e+00	-1.0867489457e+00
 1.8156377998e+00	 1.0956108384e+00	-4.6265578986e-01
 1.8050267837e+00	 1.1130058486e+00	-5.3002897877e-01
 1.7942368908e+00	 1.1303174897e+00	-5.9390969576e-01
 1.7832690504e+00	 1.1475430482e+00	-6.5475527681e-01
 1.7721242455e+00	 1.1646798235e+00	-7.1382968123e-01
 1.7608035134e+00	 1.1817251286e+00	-7.7223842806e-01
 1.7493079451e+00	 1.1986762919e+00	-8.3093155269e-01
 1.7376386850e+00	 1.2155306585e+00	-8.9070859685e-01
 1.7257969309e+00	 1.2322855912e+00	-9.5222560290e-01
 1.7137839336e+00	 1.2489384720e+00	-1.0160040695e+00
 1.7016009960e+00	 1.2654867037e+00	-1.0824418113e+00
 1.8231933138e+00	 1.1001700644e+00	-4.6639461720e-01
 1.8125381414e+00	 1.1176374614e+00	-5.3486377151e-01
 1.8017033480e+00	 1.1350211424e+00	-5.9852019388e-01
 1.7906898665e+00	 1.1523183826e+00	-6.5852685629e-01
 1.7794986842e+00	 1.1695264700e+00	-7.1634110582e-01
 1.7681308425e+00	 1.1866427067e+00	-7.7325159213e-01
 1.7565874370e+00	 1.2036644099e+00	-8.3038112053e-01
 1.7448696170e+00	 1.2205889135e+00	-8.8869160445e-01
 1.7329785851e+00	 1.2374135694e+00	-9.4899108743e-01
 1.7209155974e+00	 1.2541357488e+00	-1.0119427911e+00
 1.7086819623e+00	 1.2707528435e+00	-1.0780761303e+00
 1.8307488278e+00	 1.1047292903e+00	-4.6989203596e-01
 1.8200494992e+00	 1.1222690742e+00	-5.4006795367e-01
 1.8091698052e+00	 1.1397247950e+00	-6.0405873516e-01
 1.7981106826e+00	 1.1570937169e+00	-6.6357307609e-01
 1.7868731228e+00	 1.1743731166e+00	-7.2029085357e-01
 1.7754581715e+00	 1.1915602848e+00	-7.7571202375e-01
 1.7638669289e+00	 1.2086525278e+00	-8.3115933188e-01
 1.7521005489e+00	 1.2256471684e+00	-8.8778318968e-01
 1.7401602394e+00	 1.2425415475e+00	-9.4656869018e-01
 1.7280472613e+00	 1.2593330255e+00	-1.0083447152e+00
 1.7157629287e+00	 1.2760189833e+00	-1.0737950761e+00
 1.8383043418e+00	 1.1092885163e+00	-4.7306169308e-01
 1.8275608570e+00	 1.1269006870e+00	-5.4563573962e-01
 1.8166362624e+00	 1.1444284477e+00	-6.1057395607e-01
 1.8055314987e+00	 1.1618690513e+00	-6.6998817160e-01
 1.7942475614e+00	 1.1792197631e+00	-7.2580964283e-01
 1.7827855005e+00	 1.1964778629e+00	-7.7977751641e-01
 1.7711464208e+00	 1.2136406457e+00	-8.3344135655e-01
 1.7593314809e+00	 1.2307054234e+00	-8.8816591033e-01
 1.7473418936e+00	 1.2476695257e+00	-9.4513808080e-01
 1.7351789251e+00	 1.2645303022e+00	-1.0053760619e+00
 1.7228438950e+00	 1.2812851231e+00	-1.0697405746e+00
 1.6520342318e+00	 1.2286237251e+00	-1.1031914330e+00
 1.6400404515e+00	 1.2445885172e+00	-1.1619324120e+00
 1.6278843150e+00	 1.2604466842e+00	-1.2187005409e+00
 1.6155672454e+00	 1.2761957614e+00	-1.2732573006e+00
 1.6030907154e+00	 1.2918333090e+00	-1.3252393737e+00
 1.5904562459e+00	 1.3073569135e+00	-1.3741739833e+00
 1.5776654063e+00	 1.3227641886e+00	-1.4194953829e+00
 1.5647198132e+00	 1.3380527767e+00	-1.4605623797e+00
 1.5516211303e+00	 1.3532203499e+00	-1.4966767668e+00
 1.5383710673e+00	 1.3682646113e+00	-1.5271025306e+00
 1.5249713791e+00	 1.3831832959e+00	-1.5510856958e+00
 1.6591151981e+00	 1.2338898649e+00	-1.1023100647e+00
 1.6470700099e+00	 1.2499230855e+00	-1.1625625606e+00
 1.6348617697e+00	 1.2658492239e+00	-1.2202376853e+00
 1.6224919066e+00	 1.2816658049e+00	-1.2751405472e+00
 1.6099618995e+00	 1.2973703784e+00	-1.3269501644e+00
 1.5972732760e+00	 1.3129605203e+00	-1.3752352559e+00
 1.5844276121e+00	 1.3284338343e+00	-1.4194712176e+00
 1.5714265316e+00	 1.3437879525e+00	-1.4590581603e+00
 1.5582717050e+00	 1.3590205371e+00	-1.4933398816e+00
 1.5449648494e+00	 1.3741292813e+00	-1.5216236358e+00
 1.5315077273e+00	 1.3891119105e+00	-1.5432005573e+00
 1.6661961644e+00	 1.2391560047e+00	-1.1004857982e+00
 1.6540995684e+00	 1.2552576537e+00	-1.1621197731e+00
 1.6418392244e+00	 1.2712517636e+00	-1.2206405219e+00
 1.6294165677e+00	 1.2871358485e+00	-1.2758955034e+00
 1.6168330836e+00	 1.3029074478e+00	-1.3276048443e+00
 1.6040903061e+00	 1.3185641271e+00	-1.3753775986e+00
 1.5911898180e+00	 1.3341034799e+00	-1.4187292258e+00
 1.5781332499e+00	 1.3495231282e+00	-1.4571001590e+00
 1.5649222796e+00	 1.3648207242e+00	-1.4898753352e+00
 1.5515586315e+00	 1.3799939513e+00	-1.5164045428e+00
 1.5380440755e+00	 1.3950405252e+00	-1.5360234428e+00
 1.6732771307e+00	 1.2444221445e+00	-1.0978689659e+00
 1.6611291269e+00	 1.2605922220e+00	-1.1607224791e+00
 1.6488166791e+00	 1.2766543033e+00	-1.2199978044e+00
 1.6363412289e+00	 1.2926058921e+00	-1.2755834801e+00
 1.6237042677e+00	 1.3084445172e+00	-1.3272395152e+00
 1.6109073362e+00	 1.3241677340e+00	-1.3746141349e+00
 1.5979520239e+00	 1.3397731255e+00	-1.4172617744e+00
 1.5848399683e+00	 1.3552583039e+00	-1.4546621965e+00
 1.5715728543e+00	 1.3706209114e+00	-1.4862405950e+00
 1.5581524135e+00	 1.3858586213e+00	-1.5113885398e+00
 1.5445804237e+00	 1.4009691398e+00	-1.5294856124e+00
 1.6803580971e+00	 1.2496882843e+00	-1.0946087417e+00
 1.6681586853e+00	 1.2659267902e+00	-1.1584884104e+00
 1.6557941338e+00	 1.2820568430e+00	-1.2183980254e+00
 1.6432658900e+00	 1.2980759356e+00	-1.2742659376e+00
 1.6305754518e+00	 1.3139815865e+00	-1.3258908136e+00
 1.6177243663e+00	 1.3297713408e+00	-1.3729588795e+00
 1.6047142298e+00	 1.3454427712e+00	-1.4150624503e+00
 1.5915466866e+00	 1.3609934797e+00	-1.4517196116e+00
 1.5782234289e+00	 1.3764210985e+00	-1.4823949150e+00
 1.5647461956e+00	 1.3917232913e+00	-1.5065209376e+00
 1.5511167719e+00	 1.4068977544e+00	-1.5235205509e+00
 1.6874390634e+00	 1.2549544241e+00	-1.0908531289e+00
 1.6751882438e+00	 1.2712613585e+00	-1.1555345835e+00
 1.6627715885e+00	 1.2874593827e+00	-1.2159293935e+00
 1.6501905512e+00	 1.3035459792e+00	-1.2720044606e+00
 1.6374466359e+00	 1.3195186559e+00	-1.3235958816e+00
 1.6245413965e+00	 1.3353749476e+00	-1.3704267087e+00
 1.6114764357e+00	 1.3511124168e+00	-1.4121260296e+00
 1.5982534050e+00	 1.3667286554e+00	-1.4482492313e+00
 1.5848740035e+00	 1.3822212857e+00	-1.4782993055e+00
 1.5713399777e+00	 1.3975879614e+00	-1.5017490403e+00
 1.5576531201e+00	 1.4128263691e+00	-1.5180639418e+00
 1.6945200297e+00	 1.2602205639e+00	-1.0867489457e+00
 1.6822178022e+00	 1.2765959267e+00	-1.1519772804e+00
 1.6697490431e+00	 1.2928619224e+00	-1.2126798118e+00
 1.6571152123e+00	 1.3090160227e+00	-1.2688607320e+00
 1.6443178200e+00	 1.3250557253e+00	-1.3203923395e+00
 1.6313584266e+00	 1.3409785544e+00	-1.3670333305e+00
 1.6182386416e+00	 1.3567820624e+00	-1.4084484467e+00
 1.6049601233e+00	 1.3724638312e+00	-1.4442293398e+00
 1.5915245782e+00	 1.3880214728e+00	-1.4739165036e+00
 1.5779337598e+00	 1.4034526314e+00	-1.4970221183e+00
 1.5641894683e+00	 1.4187549837e+00	-1.5130536419e+00
 1.7016009960e+00	 1.2654867037e+00	-1.0824418113e+00
 1.6892473607e+00	 1.2819304950e+00	-1.1479320303e+00
 1.6767264978e+00	 1.2982644621e+00	-1.2087368535e+00
 1.6640398735e+00	 1.3144860663e+00	-1.2648965067e+00
 1.6511890041e+00	 1.3305927947e+00	-1.3163182571e+00
 1.6381754567e+00	 1.3465821612e+00	-1.3627952545e+00
 1.6250008475e+00	 1.3624517081e+00	-1.4040267641e+00
 1.6116668417e+00	 1.3781990069e+00	-1.4396396478e+00
 1.5981751528e+00	 1.3938216600e+00	-1.4692109435e+00
 1.5845275419e+00	 1.4093173014e+00	-1.4922913794e+00
 1.5707258165e+00	 1.4246835984e+00	-1.5084296555e+00
 1.7086819623e+00	 1.2707528435e+00	-1.0780761303e+00
 1.6962769191e+00	 1.2872650633e+00	-1.1435135886e+00
 1.6837039525e+00	 1.3036670018e+00	-1.2041877396e+00
 1.6709645346e+00	 1.3199561098e+00	-1.2601735850e+00
 1.6580601882e+00	 1.3361298640e+00	-1.3114121246e+00
 1.6449924868e+00	 1.3521857680e+00	-1.3577297624e+00
 1.6317630533e+00	 1.3681213537e+00	-1.3988591417e+00
 1.6183735600e+00	 1.3839341827e+00	-1.4344612628e+00
 1.6048257275e+00	 1.3996218471e+00	-1.4641487273e+00
 1.5911213239e+00	 1.4151819714e+00	-1.4875099421e+00
 1.5772621647e+00	 1.4306122130e+00	-1.5041341104e+00
 1.7157629287e+00	 1.2760189833e+00	-1.0737950761e+00
 1.7033064776e+00	 1.2925996315e+00	-1.1388359172e+00
 1.6906814072e+00	 1.3090695415e+00	-1.1991193136e+00
 1.6778891957e+00	 1.3254261534e+00	-1.2547537860e+00
 1.6649313724e+00	 1.3416669334e+00	-1.3057128246e+00
 1.6518095169e+00	 1.3577893748e+00	-1.3518548774e+00
 1.6385252592e+00	 1.3737909994e+00	-1.3929448063e+00
 1.6250802784e+00	 1.3896693584e+00	-1.4286766586e+00
 1.6114763021e+00	 1.4054220343e+00	-1.4586975962e+00
 1.5977151060e+00	 1.4210466414e+00	-1.4826328082e+00
 1.5837985129e+00	 1.4365408276e+00	-1.5001112323e+00
 1.7228438950e+00	 1.2812851231e+00	-1.0697405746e+00
 1.7103360360e+00	 1.2979341998e+00	-1.1340121629e+00
 1.6976588619e+00	 1.3144720812e+00	-1.1936180178e+00
 1.6848138569e+00	 1.3308961970e+00	-1.2486989204e+00
 1.6718025565e+00	 1.3472040028e+00	-1.2992596023e+00
 1.6586265470e+00	 1.3633929816e+00	-1.3451893347e+00
 1.6452874651e+00	 1.3794606450e+00	-1.3862840214e+00
 1.6317869967e+00	 1.3954045341e+00	-1.4222696458e+00
 1.6181268767e+00	 1.4112222214e+00	-1.4528269015e+00
 1.6043088881e+00	 1.4269113115e+00	-1.4776168362e+00
 1.5903348611e+00	 1.4424694423e+00	-1.4963073215e+00
 1.5249713791e+00	 1.3831832959e+00	-1.5510856958e+00
 1.5114261768e+00	 1.3979716729e+00	-1.5739437232e+00
 1.4977350178e+00	 1.4126301128e+00	-1.6026204010e+00
 1.4838997636e+00	 1.4271564788e+00	-1.6388412539e+00
 1.4699223178e+00	 1.4415486705e+00	-1.6790317994e+00
 1.4558046250e+00	 1.4558046250e+00	-1.7154131011e+00
 1.4415486705e+00	 1.4699223178e+00	-1.7506113489e+00
 1.4271564788e+00	 1.4838997636e+00	-1.7873508033e+00
 1.4126301128e+00	 1.4977350178e+00	-1.8172636807e+00
 1.3979716729e+00	 1.5114261768e+00	-1.8358141744e+00
 1.3831832959e+00	 1.5249713791e+00	-1.8440575677e+00
 1.5315077273e+00	 1.3891119105e+00	-1.5432005573e+00
 1.5179044674e+00	 1.4039636736e+00	-1.5635807919e+00
 1.5041546253e+00	 1.4186849427e+00	-1.5899212799e+00
 1.4902600703e+00	 1.4332735718e+00	-1.6240262875e+00
 1.4762227141e+00	 1.4477274514e+00	-1.6666658562e+00
 1.4620445099e+00	 1.4620445099e+00	-1.7083583056e+00
 1.4477274514e+00	 1.4762227141e+00	-1.7489029580e+00
 1.4332735718e+00	 1.4902600703e+00	-1.7881073724e+00
 1.4186849427e+00	 1.5041546253e+00	-1.8158713813e+00
 1.4039636736e+00	 1.5179044674e+00	-1.8321993513e+00
 1.3891119105e+00	 1.5315077273e+00	-1.8382339183e+00
 1.5380440755e+00	 1.3950405252e+00	-1.5360234428e+00
 1.5243827581e+00	 1.4099556744e+00	-1.5544108420e+00
 1.5105742327e+00	 1.4247397726e+00	-1.5789064049e+00
 1.4966203769e+00	 1.4393906647e+00	-1.6113829342e+00
 1.4825231104e+00	 1.4539062324e+00	-1.6537972997e+00
 1.4682843949e+00	 1.4682843949e+00	-1.7013707288e+00
 1.4539062324e+00	 1.4825231104e+00	-1.7477841049e+00
 1.4393906647e+00	 1.4966203769e+00	-1.7867549772e+00
 1.4247397726e+00	 1.5105742327e+00	-1.8129253226e+00
 1.4099556744e+00	 1.5243827581e+00	-1.8275115155e+00
 1.3950405252e+00	 1.5380440755e+00	-1.8317359182e+00
 1.5445804237e+00	 1.4009691398e+00	-1.5294856124e+00
 1.5308610487e+00	 1.4159476751e+00	-1.5463549240e+00
 1.5169938401e+00	 1.4307946025e+00	-1.5694881828e+00
 1.5029806835e+00	 1.4455077577e+00	-1.6008166207e+00
 1.4888235068e+00	 1.4600850133e+00	-1.6423561814e+00
 1.4745242798e+00	 1.4745242798e+00	-1.6943257541e+00
 1.4600850133e+00	 1.4888235068e+00	-1.7451592623e+00
 1.4455077577e+00	 1.5029806835e+00	-1.7833843394e+00
 1.4307946025e+00	 1.5169938401e+00	-1.8085138150e+00
 1.4159476751e+00	 1.5308610487e+00	-1.8218391966e+00
 1.4009691398e+00	 1.5445804237e+00	-1.8246550537e+00
 1.5511167719e+00	 1.4068977544e+00	-1.5235205509e+00
 1.5373393393e+00	 1.4219396759e+00	-1.5393364866e+00
 1.5234134475e+00	 1.4368494324e+00	-1.5615815655e+00
 1.5093409901e+00	 1.4516248506e+00	-1.5922354356e+00
 1.4951239031e+00	 1.4662637942e+00	-1.6333632629e+00
 1.4807641648e+00	 1.4807641648e+00	-1.6871153036e+00
 1.4662637942e+00	 1.4951239031e+00	-1.7400071487e+00
 1.4516248506e+00	 1.5093409901e+00	-1.7780983330e+00
 1.4368494324e+00	 1.5234134475e+00	-1.8027371311e+00
 1.4219396759e+00	 1.5373393393e+00	-1.8152826827e+00
 1.4068977544e+00	 1.5511167719e+00	-1.8170943498e+00
 1.5576531201e+00	 1.4128263691e+00	-1.5180639418e+00
 1.5438176299e+00	 1.4279316766e+00	-1.5332813536e+00
 1.5298330550e+00	 1.4429042623e+00	-1.5551040305e+00
 1.5157012967e+00	 1.4577419436e+00	-1.5855501147e+00
 1.5014242995e+00	 1.4724425751e+00	-1.6267242324e+00
 1.4870040497e+00	 1.4870040497e+00	-1.6797744836e+00
 1.4724425751e+00	 1.5014242995e+00	-1.7324474152e+00
 1.4577419436e+00	 1.5157012967e+00	-1.7710113304e+00
 1.4429042623e+00	 1.5298330550e+00	-1.7957068606e+00
 1.4279316766e+00	 1.5438176299e+00	-1.8079533856e+00
 1.4128263691e+00	 1.5576531201e+00	-1.8091677466e+00
 1.5641894683e+00	 1.4187549837e+00	-1.5130536419e+00
 1.5502959205e+00	 1.4339236773e+00	-1.5281177017e+00
 1.5362526624e+00	 1.4489590922e+00	-1.5499755627e+00
 1.5220616033e+00	 1.4638590365e+00	-1.5806740268e+00
 1.5077246958e+00	 1.4786213560e+00	-1.6223475050e+00
 1.4932439346e+00	 1.4932439346e+00	-1.6725328162e+00
 1.4786213560e+00	 1.5077246958e+00	-1.7226107231e+00
 1.4638590365e+00	 1.5220616033e+00	-1.7622485491e+00
 1.4489590922e+00	 1.5362526624e+00	-1.7875452660e+00
 1.4339236773e+00	 1.5502959205e+00	-1.7999732068e+00
 1.4187549837e+00	 1.5641894683e+00	-1.8009994772e+00
 1.5707258165e+00	 1.4246835984e+00	-1.5084296555e+00
 1.5567742111e+00	 1.4399156781e+00	-1.5237760382e+00
 1.5426722698e+00	 1.4550139221e+00	-1.5461186353e+00
 1.5284219099e+00	 1.4699761295e+00	-1.5775231594e+00
 1.5140250921e+00	 1.4848001369e+00	-1.6198004185e+00
 1.4994838196e+00	 1.4994838196e+00	-1.6655049821e+00
 1.4848001369e+00	 1.5140250921e+00	-1.7110498461e+00
 1.4699761295e+00	 1.5284219099e+00	-1.7519453992e+00
 1.4550139221e+00	 1.5426722698e+00	-1.7783846379e+00
 1.4399156781e+00	 1.5567742111e+00	-1.7914739028e+00
 1.4246835984e+00	 1.5707258165e+00	-1.7927234441e+00
 1.5772621647e+00	 1.4306122130e+00	-1.5041341104e+00
 1.5632525017e+00	 1.4459076788e+00	-1.5201891792e+00
 1.5490918772e+00	 1.4610687520e+00	-1.5434581927e+00
 1.5347822165e+00	 1.4760932225e+00	-1.5760161055e+00
 1.5203254885e+00	 1.4909789179e+00	-1.6172821677e+00
 1.5057237045e+00	 1.5057237045e+00	-1.6587999706e+00
 1.4909789179e+00	 1.5203254885e+00	-1.7000414989e+00
 1.4760932225e+00	 1.5347822165e+00	-1.7402468299e+00
 1.4610687520e+00	 1.5490918772e+00	-1.7683666513e+00
 1.4459076788e+00	 1.5632525017e+00	-1.7825964510e+00
 1.4306122130e+00	 1.5772621647e+00	-1.7844825968e+00
 1.5837985129e+00	 1.4365408276e+00	-1.5001112323e+00
 1.5697307923e+00	 1.4518996795e+00	-1.5172922287e+00
 1.5555114847e+00	 1.4671235819e+00	-1.5419216322e+00
 1.5411425232e+00	 1.4822103154e+00	-1.5760594246e+00
 1.5266258848e+00	 1.4971576988e+00	-1.6146344249e+00
 1.5119635895e+00	 1.5119635895e+00	-1.6525228633e+00
 1.4971576988e+00	 1.5266258848e+00	-1.6900014833e+00
 1.4822103154e+00	 1.5411425232e+00	-1.7273253689e+00
 1.4671235819e+00	 1.5555114847e+00	-1.7576417210e+00
 1.4518996795e+00	 1.5697307923e+00	-1.7734904153e+00
 1.4365408276e+00	 1.5837985129e+00	-1.7764283081e+00
 1.5903348611e+00	 1.4424694423e+00	-1.4963073215e+00
 1.5762090829e+00	 1.4578916803e+00	-1.5150225574e+00
 1.5619310921e+00	 1.4731784118e+00	-1.5414387876e+00
 1.5475028298e+00	 1.4883274084e+00	-1.5763494160e+00
 1.5329262812e+00	 1.5033364797e+00	-1.6119592439e+00
 1.5182034744e+00	 1.5182034744e+00	-1.6467748900e+00
 1.5033364797e+00	 1.5329262812e+00	-1.6810322180e+00
 1.4883274084e+00	 1.5475028298e+00	-1.7149454200e+00
 1.4731784118e+00	 1.5619310921e+00	-1.7463683581e+00
 1.4578916803e+00	 1.5762090829e+00	-1.7643133122e+00
 1.4424694423e+00	 1.5903348611e+00	-1.7687197514e+00
 1.3831832959e+00	 1.5249713791e+00	-1.8440575677e+00
 1.3682646113e+00	 1.5383710673e+00	-1.8462614619e+00
 1.3532203499e+00	 1.5516211303e+00	-1.8460934583e+00
 1.3380527767e+00	 1.5647198132e+00	-1.8437780102e+00
 1.3227641886e+00	 1.5776654063e+00	-1.8396196116e+00
 1.3073569135e+00	 1.5904562459e+00	-1.8340134654e+00
 1.2918333090e+00	 1.6030907154e+00	-1.8274562664e+00
 1.2761957614e+00	 1.6155672454e+00	-1.8205569721e+00
 1.2604466842e+00	 1.6278843150e+00	-1.8140474334e+00
 1.2445885172e+00	 1.6400404515e+00	-1.8087927565e+00
 1.2286237251e+00	 1.6520342318e+00	-1.8058012663e+00
 1.3891119105e+00	 1.5315077273e+00	-1.8382339183e+00
 1.3741292813e+00	 1.5449648494e+00	-1.8384988101e+00
 1.3590205371e+00	 1.5582717050e+00	-1.8368402659e+00
 1.3437879525e+00	 1.5714265316e+00	-1.8334506552e+00
 1.3284338343e+00	 1.5844276121e+00	-1.8286029219e+00
 1.3129605203e+00	 1.5972732760e+00	-1.8226617916e+00
 1.2973703784e+00	 1.6099618995e+00	-1.8160951087e+00
 1.2816658049e+00	 1.6224919066e+00	-1.8094851684e+00
 1.2658492239e+00	 1.6348617697e+00	-1.8035399138e+00
 1.2499230855e+00	 1.6470700099e+00	-1.7991038633e+00
 1.2338898649e+00	 1.6591151981e+00	-1.7971686344e+00
 1.3950405252e+00	 1.5380440755e+00	-1.8317359182e+00
 1.3799939513e+00	 1.5515586315e+00	-1.8303826985e+00
 1.3648207242e+00	 1.5649222796e+00	-1.8274928343e+00
 1.3495231282e+00	 1.5781332499e+00	-1.8232364638e+00
 1.3341034799e+00	 1.5911898180e+00	-1.8178642062e+00
 1.3185641271e+00	 1.6040903061e+00	-1.8117189161e+00
 1.3029074478e+00	 1.6168330836e+00	-1.8052475805e+00
 1.2871358485e+00	 1.6294165677e+00	-1.7990132228e+00
 1.2712517636e+00	 1.6418392244e+00	-1.7937066761e+00
 1.2552576537e+00	 1.6540995684e+00	-1.7901580878e+00
 1.2391560047e+00	 1.6661961644e+00	-1.7893480170e+00
 1.4009691398e+00	 1.5445804237e+00	-1.8246550537e+00
 1.3858586213e+00	 1.5581524135e+00	-1.8220060485e+00
 1.3706209114e+00	 1.5715728543e+00	-1.8181395804e+00
 1.3552583039e+00	 1.5848399683e+00	-1.8132132767e+00
 1.3397731255e+00	 1.5979520239e+00	-1.8074645270e+00
 1.3241677340e+00	 1.6109073362e+00	-1.8012227905e+00
 1.3084445172e+00	 1.6237042677e+00	-1.7949220625e+00
 1.2926058921e+00	 1.6363412289e+00	-1.7891133592e+00
 1.2766543033e+00	 1.6488166791e+00	-1.7844770790e+00
 1.2605922220e+00	 1.6611291269e+00	-1.7818350958e+00
 1.2444221445e+00	 1.6732771307e+00	-1.7821624433e+00
 1.4068977544e+00	 1.5511167719e+00	-1.8170943498e+00
 1.3917232913e+00	 1.5647461956e+00	-1.8134731534e+00
 1.3764210985e+00	 1.5782234289e+00	-1.8088802534e+00
 1.3609934797e+00	 1.5915466866e+00	-1.8034703547e+00
 1.3454427712e+00	 1.6047142298e+00	-1.7974765813e+00
 1.3297713408e+00	 1.6177243663e+00	-1.7912233433e+00
 1.3139815865e+00	 1.6305754518e+00	-1.7851393820e+00
 1.2980759356e+00	 1.6432658900e+00	-1.7797708452e+00
 1.2820568430e+00	 1.6557941338e+00	-1.7757942482e+00
 1.2659267902e+00	 1.6681586853e+00	-1.7740291694e+00
 1.2496882843e+00	 1.6803580971e+00	-1.7754505343e+00
 1.4128263691e+00	 1.5576531201e+00	-1.8091677466e+00
 1.3975879614e+00	 1.5713399777e+00	-1.8048990677e+00
 1.3822212857e+00	 1.5848740035e+00	-1.7998253337e+00
 1.3667286554e+00	 1.5982534050e+00	-1.7941077854e+00
 1.3511124168e+00	 1.6114764357e+00	-1.7879841146e+00
 1.3353749476e+00	 1.6245413965e+00	-1.7817818989e+00
 1.3195186559e+00	 1.6374466359e+00	-1.7759322345e+00
 1.3035459792e+00	 1.6501905512e+00	-1.7709834139e+00
 1.2874593827e+00	 1.6627715885e+00	-1.7676144977e+00
 1.2712613585e+00	 1.6751882438e+00	-1.7666486260e+00
 1.2549544241e+00	 1.6874390634e+00	-1.7690659163e+00
 1.4187549837e+00	 1.5641894683e+00	-1.8009994772e+00
 1.4034526314e+00	 1.5779337598e+00	-1.7964089949e+00
 1.3880214728e+00	 1.5915245782e+00	-1.7910954314e+00
 1.3724638312e+00	 1.6049601233e+00	-1.7852358906e+00
 1.3567820624e+00	 1.6182386416e+00	-1.7790813344e+00
 1.3409785544e+00	 1.6313584266e+00	-1.7729705951e+00
 1.3250557253e+00	 1.6443178200e+00	-1.7673446049e+00
 1.3090160227e+00	 1.6571152123e+00	-1.7627606873e+00
 1.2928619224e+00	 1.6697490431e+00	-1.7599067525e+00
 1.2765959267e+00	 1.6822178022e+00	-1.7596152382e+00
 1.2602205639e+00	 1.6945200297e+00	-1.7628766370e+00
 1.4246835984e+00	 1.5707258165e+00	-1.7927234441e+00
 1.4093173014e+00	 1.5845275419e+00	-1.7881376767e+00
 1.3938216600e+00	 1.5981751528e+00	-1.7828206851e+00
 1.3781990069e+00	 1.6116668417e+00	-1.7769746323e+00
 1.3624517081e+00	 1.6250008475e+00	-1.7708723233e+00
 1.3465821612e+00	 1.6381754567e+00	-1.7648718020e+00
 1.3305927947e+00	 1.6511890041e+00	-1.7594311892e+00
 1.3144860663e+00	 1.6640398735e+00	-1.7551235988e+00
 1.2982644621e+00	 1.6767264978e+00	-1.7526519703e+00
 1.2819304950e+00	 1.6892473607e+00	-1.7528636537e+00
 1.2654867037e+00	 1.7016009960e+00	-1.7567645807e+00
 1.4306122130e+00	 1.5772621647e+00	-1.7844825968e+00
 1.4151819714e+00	 1.5911213239e+00	-1.7802287811e+00
 1.3996218471e+00	 1.6048257275e+00	-1.7751401592e+00
 1.3839341827e+00	 1.6183735600e+00	-1.7694530195e+00
 1.3681213537e+00	 1.6317630533e+00	-1.7634704521e+00
 1.3521857680e+00	 1.6449924868e+00	-1.7575775400e+00
 1.3361298640e+00	 1.6580601882e+00	-1.7522568160e+00
 1.3199561098e+00	 1.6709645346e+00	-1.7481038166e+00
 1.3036670018e+00	 1.6837039525e+00	-1.7458425656e+00
 1.2872650633e+00	 1.6962769191e+00	-1.7463408168e+00
 1.2707528435e+00	 1.7086819623e+00	-1.7506248864e+00
 1.4365408276e+00	 1.5837985129e+00	-1.7764283081e+00
 1.4210466414e+00	 1.5977151060e+00	-1.7728342901e+00
 1.4054220343e+00	 1.6114763021e+00	-1.7682012421e+00
 1.3896693584e+00	 1.6250802784e+00	-1.7628085140e+00
 1.3737909994e+00	 1.6385252592e+00	-1.7569977925e+00
 1.3577893748e+00	 1.6518095169e+00	-1.7511888972e+00
 1.3416669334e+00	 1.6649313724e+00	-1.7458958674e+00
 1.3254261534e+00	 1.6778891957e+00	-1.7417431669e+00
 1.3090695415e+00	 1.6906814072e+00	-1.7394818323e+00
 1.2925996315e+00	 1.7033064776e+00	-1.7400053900e+00
 1.2760189833e+00	 1.7157629287e+00	-1.7443653659e+00
 1.4424694423e+00	 1.5903348611e+00	-1.7687197514e+00
 1.4269113115e+00	 1.6043088881e+00	-1.7661138881e+00
 1.4112222214e+00	 1.6181268767e+00	-1.7621590439e+00
 1.3954045341e+00	 1.6317869967e+00	-1.7571864363e+00
 1.3794606450e+00	 1.6452874651e+00	-1.7515845299e+00
 1.3633929816e+00	 1.6586265470e+00	-1.7458154479e+00
 1.3472040028e+00	 1.6718025565e+00	-1.7404317013e+00
 1.3308961970e+00	 1.6848138569e+00	-1.7360930573e+00
 1.3144720812e+00	 1.6976588619e+00	-1.7335833678e+00
 1.2979341998e+00	 1.7103360360e+00	-1.7338271766e+00
 1.2812851231e+00	 1.7228438950e+00	-1.7379059233e+00
 1.2286237251e+00	 1.6520342318e+00	-1.8058012663e+00
 1.2125575349e+00	 1.6638622866e+00	-1.8029419019e+00
 1.1963897440e+00	 1.6755253515e+00	-1.7968608120e+00
 1.1801228739e+00	 1.6870221614e+00	-1.7869417836e+00
 1.1637594664e+00	 1.6983515019e+00	-1.7727042623e+00
 1.1473020817e+00	 1.7095122102e+00	-1.7538125327e+00
 1.1307532976e+00	 1.7205031752e+00	-1.7300838371e+00
 1.1141157078e+00	 1.7313233376e+00	-1.7014953315e+00
 1.0973919210e+00	 1.7419716905e+00	-1.6707599726e+00
 1.0805845591e+00	 1.7524472793e+00	-1.6432628654e+00
 1.0636962566e+00	 1.7627492020e+00	-1.6198631122e+00
 1.2338898649e+00	 1.6591151981e+00	-1.7971686344e+00
 1.2177548117e+00	 1.6709939504e+00	-1.7952697622e+00
 1.2015177221e+00	 1.6827070057e+00	-1.7897821994e+00
 1.1851811288e+00	 1.6942530933e+00	-1.7801666997e+00
 1.1687475843e+00	 1.7056309938e+00	-1.7660169829e+00
 1.1522196598e+00	 1.7168395392e+00	-1.7470693425e+00
 1.1355999441e+00	 1.7278776138e+00	-1.7232111731e+00
 1.1188910422e+00	 1.7387441537e+00	-1.6944883096e+00
 1.1020955736e+00	 1.7494381477e+00	-1.6621735036e+00
 1.0852161719e+00	 1.7599586370e+00	-1.6322739840e+00
 1.0682554826e+00	 1.7703047160e+00	-1.6063783232e+00
 1.2391560047e+00	 1.6661961644e+00	-1.7893480170e+00
 1.2229520884e+00	 1.6781256143e+00	-1.7884431090e+00
 1.2066457003e+00	 1.6898886599e+00	-1.7835137053e+00
 1.1902393838e+00	 1.7014840253e+00	-1.7741070310e+00
 1.1737357022e+00	 1.7129104857e+00	-1.7599021874e+00
 1.1571372379e+00	 1.7241668683e+00	-1.7407201811e+00
 1.1404465907e+00	 1.7352520524e+00	-1.7165328499e+00
 1.1236663765e+00	 1.7461649698e+00	-1.6874705757e+00
 1.1067992263e+00	 1.7569046049e+00	-1.6540607744e+00
 1.0898477847e+00	 1.7674699948e+00	-1.6217607761e+00
 1.0728147085e+00	 1.7778602299e+00	-1.5934199002e+00
 1.2444221445e+00	 1.6732771307e+00	-1.7821624433e+00
 1.2281493651e+00	 1.6852572781e+00	-1.7822335908e+00
 1.2117736785e+00	 1.6970703141e+00	-1.7777929977e+00
 1.1952976387e+00	 1.7087149572e+00	-1.7684836913e+00
 1.1787238202e+00	 1.7201899775e+00	-1.7540810766e+00
 1.1620548161e+00	 1.7314941973e+00	-1.7345033798e+00
 1.1452932372e+00	 1.7426264911e+00	-1.7098209656e+00
 1.1284417108e+00	 1.7535857859e+00	-1.6802644122e+00
 1.1115028790e+00	 1.7643710621e+00	-1.6462312401e+00
 1.0944793975e+00	 1.7749813526e+00	-1.6116173356e+00
 1.0773739345e+00	 1.7854157439e+00	-1.5809810635e+00
 1.2496882843e+00	 1.6803580971e+00	-1.7754505343e+00
 1.2333466419e+00	 1.6923889420e+00	-1.7764293405e+00
 1.2169016567e+00	 1.7042519683e+00	-1.7723748310e+00
 1.2003558937e+00	 1.7159458892e+00	-1.7630349935e+00
 1.1837119381e+00	 1.7274694694e+00	-1.7482922731e+00
 1.1669723942e+00	 1.7388215263e+00	-1.7281744259e+00
 1.1501398838e+00	 1.7500009297e+00	-1.7028642199e+00
 1.1332170452e+00	 1.7610066021e+00	-1.6727078621e+00
 1.1162065317e+00	 1.7718375193e+00	-1.6382220446e+00
 1.0991110103e+00	 1.7824927103e+00	-1.6017521303e+00
 1.0819331605e+00	 1.7929712579e+00	-1.5690667616e+00
 1.2549544241e+00	 1.6874390634e+00	-1.7690659163e+00
 1.2385439186e+00	 1.6995206058e+00	-1.7708343862e+00
 1.2220296348e+00	 1.7114336225e+00	-1.7670304614e+00
 1.2054141486e+00	 1.7231768211e+00	-1.7575160752e+00
 1.1887000561e+00	 1.7347489613e+00	-1.7422912641e+00
 1.1718899723e+00	 1.7461488554e+00	-1.7215054287e+00
 1.1549865304e+00	 1.7573753683e+00	-1.6954674100e+00
 1.1379923795e+00	 1.7684274182e+00	-1.6646542606e+00
 1.1209101843e+00	 1.7793039765e+00	-1.6297185948e+00
 1.1037426231e+00	 1.7900040681e+00	-1.5920881827e+00
 1.0864923864e+00	 1.8005267719e+00	-1.5576938855e+00
 1.2602205639e+00	 1.6945200297e+00	-1.7628766370e+00
 1.2437411953e+00	 1.7066522697e+00	-1.7652680646e+00
 1.2271576130e+00	 1.7186152767e+00	-1.7615470644e+00
 1.2104724036e+00	 1.7304077531e+00	-1.7516983263e+00
 1.1936881740e+00	 1.7420284532e+00	-1.7358498459e+00
 1.1768075504e+00	 1.7534761844e+00	-1.7142845865e+00
 1.1598331769e+00	 1.7647498069e+00	-1.6874509270e+00
 1.1427677139e+00	 1.7758482343e+00	-1.6559717665e+00
 1.1256138370e+00	 1.7867704336e+00	-1.6206521685e+00
 1.1083742359e+00	 1.7975154259e+00	-1.5825632498e+00
 1.0910516124e+00	 1.8080822859e+00	-1.5468914817e+00
 1.2654867037e+00	 1.7016009960e+00	-1.7567645807e+00
 1.2489384720e+00	 1.7137839336e+00	-1.7595644354e+00
 1.2322855912e+00	 1.7257969309e+00	-1.7557271528e+00
 1.2155306585e+00	 1.7376386850e+00	-1.7453688185e+00
 1.1986762919e+00	 1.7493079451e+00	-1.7287555694e+00
 1.1817251286e+00	 1.7608035134e+00	-1.7063156557e+00
 1.1646798235e+00	 1.7721242455e+00	-1.6786502532e+00
 1.1475430482e+00	 1.7832690504e+00	-1.6465428942e+00
 1.1303174897e+00	 1.7942368908e+00	-1.6109673955e+00
 1.1130058486e+00	 1.8050267837e+00	-1.5730941706e+00
 1.0956108384e+00	 1.8156377998e+00	-1.5367009614e+00
 1.2707528435e+00	 1.7086819623e+00	-1.7506248864e+00
 1.2541357488e+00	 1.7209155974e+00	-1.7535716967e+00
 1.2374135694e+00	 1.7329785851e+00	-1.7493879975e+00
 1.2205889135e+00	 1.7448696170e+00	-1.7383297356e+00
 1.2036644099e+00	 1.7565874370e+00	-1.7208111879e+00
 1.1866427067e+00	 1.7681308425e+00	-1.6974174202e+00
 1.1695264700e+00	 1.7794986842e+00	-1.6689154598e+00
 1.1523183826e+00	 1.7906898665e+00	-1.6362640457e+00
 1.1350211424e+00	 1.8017033480e+00	-1.6006218292e+00
 1.1176374614e+00	 1.8125381414e+00	-1.5633539110e+00
 1.1001700644e+00	 1.8231933138e+00	-1.5271763089e+00
 1.2760189833e+00	 1.7157629287e+00	-1.7443653659e+00
 1.2593330255e+00	 1.7280472613e+00	-1.7471516020e+00
 1.2425415475e+00	 1.7401602394e+00	-1.7423610487e+00
 1.2256471684e+00	 1.7521005489e+00	-1.7303978062e+00
 1.2086525278e+00	 1.7638669289e+00	-1.7118341055e+00
 1.1915602848e+00	 1.7754581715e+00	-1.6874231623e+00
 1.1743731166e+00	 1.7868731228e+00	-1.6581107061e+00
 1.1570937169e+00	 1.7981106826e+00	-1.6250450425e+00
 1.1397247950e+00	 1.8091698052e+00	-1.5895855182e+00
 1.1222690742e+00	 1.8200494992e+00	-1.5533092695e+00
 1.1047292903e+00	 1.8307488278e+00	-1.5183842867e+00
 1.2812851231e+00	 1.7228438950e+00	-1.7379059233e+00
 1.2645303022e+00	 1.7351789251e+00	-1.7401788792e+00
 1.2476695257e+00	 1.7473418936e+00	-1.7344913595e+00
 1.2307054234e+00	 1.7593314809e+00	-1.7214037372e+00
 1.2136406457e+00	 1.7711464208e+00	-1.7016558269e+00
 1.1964778629e+00	 1.7827855005e+00	-1.6761801345e+00
 1.1792197631e+00	 1.7942475614e+00	-1.6461137385e+00
 1.1618690513e+00	 1.8055314987e+00	-1.6128086585e+00
 1.1444284477e+00	 1.8166362624e+00	-1.5778405764e+00
 1.1269006870e+00	 1.8275608570e+00	-1.5430157855e+00
 1.1092885163e+00	 1.8383043418e+00	-1.5104046387e+00
 1.0636962566e+00	 1.7627492020e+00	-1.6198631122e+00
 1.0467296589e+00	 1.7728766099e+00	-1.5948663498e+00
 1.0296874225e+00	 1.7828287087e+00	-1.5631453511e+00
 1.0125722123e+00	 1.7926047575e+00	-1.5265125443e+00
 9.9538670041e-01	 1.8022040683e+00	-1.4868360393e+00
 9.7813356446e-01	 1.8116260061e+00	-1.4459948459e+00
 9.6081548646e-01	 1.8208699886e+00	-1.4058363703e+00
 9.4343515160e-01	 1.8299354863e+00	-1.3681363612e+00
 9.2599524687e-01	 1.8388220224e+00	-1.3345614584e+00
 9.0849845989e-01	 1.8475291724e+00	-1.3066344772e+00
 8.9094747759e-01	 1.8560565644e+00	-1.2831753074e+00
 1.0682554826e+00	 1.7703047160e+00	-1.6063783232e+00
 1.0512161625e+00	 1.7804755321e+00	-1.5789538379e+00
 1.0341008794e+00	 1.7904702876e+00	-1.5451732437e+00
 1.0169123099e+00	 1.8002882387e+00	-1.5071236616e+00
 9.9965313725e-01	 1.8099286942e+00	-1.4669597382e+00
 9.8232605072e-01	 1.8193910164e+00	-1.4268572673e+00
 9.6493374381e-01	 1.8286746205e+00	-1.3889691482e+00
 9.4747891317e-01	 1.8377789748e+00	-1.3553838579e+00
 9.2996425734e-01	 1.8467036004e+00	-1.3280865945e+00
 9.1239247544e-01	 1.8554480712e+00	-1.3072338809e+00
 8.9476626595e-01	 1.8640120133e+00	-1.2785148978e+00
 1.0728147085e+00	 1.7778602299e+00	-1.5934199002e+00
 1.0557026660e+00	 1.7880744542e+00	-1.5638130339e+00
 1.0385143364e+00	 1.7981118666e+00	-1.5285352546e+00
 1.0212524074e+00	 1.8079717198e+00	-1.4899350674e+00
 1.0039195741e+00	 1.8176533200e+00	-1.4504378429e+00
 9.8651853699e-01	 1.8271560266e+00	-1.4124978646e+00
 9.6905200115e-01	 1.8364792524e+00	-1.3785527767e+00
 9.5152267474e-01	 1.8456224633e+00	-1.3509806149e+00
 9.3393326781e-01	 1.8545851785e+00	-1.3311757662e+00
 9.1628649100e-01	 1.8633669700e+00	-1.3066565205e+00
 8.9858505431e-01	 1.8719674623e+00	-1.2716640071e+00
 1.0773739345e+00	 1.7854157439e+00	-1.5809810635e+00
 1.0601891696e+00	 1.7956733764e+00	-1.5495302720e+00
 1.0429277933e+00	 1.8057534456e+00	-1.5133827516e+00
 1.0255925050e+00	 1.8156552010e+00	-1.4751354725e+00
 1.0081860109e+00	 1.8253779458e+00	-1.4374691191e+00
 9.9071102326e-01	 1.8349210368e+00	-1.4030985853e+00
 9.7317025849e-01	 1.8442838843e+00	-1.3747259396e+00
 9.5556643631e-01	 1.8534659519e+00	-1.3547218042e+00
 9.3790227828e-01	 1.8624667566e+00	-1.3331044239e+00
 9.2018050656e-01	 1.8712858687e+00	-1.3029569618e+00
 9.0240384266e-01	 1.8799229113e+00	-1.2631054665e+00
 1.0819331605e+00	 1.7929712579e+00	-1.5690667616e+00
 1.0646756731e+00	 1.8032722986e+00	-1.5362010781e+00
 1.0473412503e+00	 1.8133950246e+00	-1.4998742438e+00
 1.0299326025e+00	 1.8233386822e+00	-1.4629191608e+00
 1.0124524478e+00	 1.8331025717e+00	-1.4282568160e+00
 9.9490350953e-01	 1.8426860471e+00	-1.3988452467e+00
 9.7728851583e-01	 1.8520885162e+00	-1.3776269691e+00
 9.5961019788e-01	 1.8613094404e+00	-1.3579293564e+00
 9.4187128875e-01	 1.8703483347e+00	-1.3312832770e+00
 9.2407452212e-01	 1.8792047675e+00	-1.2967467197e+00
 9.0622263102e-01	 1.8878783602e+00	-1.2533170369e+00
 1.0864923864e+00	 1.8005267719e+00	-1.5576938855e+00
 1.0691621767e+00	 1.8108712208e+00	-1.5239304170e+00
 1.0517547072e+00	 1.8210366035e+00	-1.4881756504e+00
 1.0342727001e+00	 1.8310221634e+00	-1.4534862706e+00
 1.0167188846e+00	 1.8408271975e+00	-1.4230089518e+00
 9.9909599579e-01	 1.8504510573e+00	-1.3999278142e+00
 9.8140677317e-01	 1.8598931481e+00	-1.3812092141e+00
 9.6365395945e-01	 1.8691529289e+00	-1.3570137747e+00
 9.4584029922e-01	 1.8782299128e+00	-1.3264231130e+00
 9.2796853768e-01	 1.8871236663e+00	-1.2886299202e+00
 9.1004141937e-01	 1.8958338092e+00	-1.2427714192e+00
 1.0910516124e+00	 1.8080822859e+00	-1.5468914817e+00
 1.0736486803e+00	 1.8184701430e+00	-1.5128329352e+00
 1.0561681642e+00	 1.8286781825e+00	-1.4784605662e+00
 1.0386127976e+00	 1.8387056445e+00	-1.4470430723e+00
 1.0209853214e+00	 1.8485518234e+00	-1.4219385922e+00
 1.0032884821e+00	 1.8582160676e+00	-1.4030867702e+00
 9.8552503052e-01	 1.8676977800e+00	-1.3804987416e+00
 9.6769772102e-01	 1.8769964175e+00	-1.3527566911e+00
 9.4980930969e-01	 1.8861114909e+00	-1.3192255044e+00
 9.3186255324e-01	 1.8950425651e+00	-1.2792033521e+00
 9.1386020773e-01	 1.9037892582e+00	-1.2319362631e+00
 1.0956108384e+00	 1.8156377998e+00	-1.5367009614e+00
 1.0781351838e+00	 1.8260690651e+00	-1.5030332018e+00
 1.0605816211e+00	 1.8363197615e+00	-1.4709105219e+00
 1.0429528952e+00	 1.8463891257e+00	-1.4438022401e+00
 1.0252517583e+00	 1.8562764492e+00	-1.4237972487e+00
 1.0074809683e+00	 1.8659810778e+00	-1.4021169188e+00
 9.8964328786e-01	 1.8755024119e+00	-1.3763205718e+00
 9.7174148259e-01	 1.8848399060e+00	-1.3459291667e+00
 9.5377832015e-01	 1.8939930690e+00	-1.3103828911e+00
 9.3575656880e-01	 1.9029614638e+00	-1.2690565164e+00
 9.1767899609e-01	 1.9117447071e+00	-1.2212741749e+00
 1.1001700644e+00	 1.8231933138e+00	-1.5271763089e+00
 1.0826216874e+00	 1.8336679873e+00	-1.4946659451e+00
 1.0649950781e+00	 1.8439613405e+00	-1.4657152416e+00
 1.0472929928e+00	 1.8540726069e+00	-1.4436649660e+00
 1.0295181951e+00	 1.8640010751e+00	-1.4222941909e+00
 1.0116734546e+00	 1.8737460881e+00	-1.3976791955e+00
 9.9376154520e-01	 1.8833070438e+00	-1.3694882458e+00
 9.7578524416e-01	 1.8926833945e+00	-1.3372917940e+00
 9.5774733062e-01	 1.9018746471e+00	-1.3005786593e+00
 9.3965058435e-01	 1.9108803626e+00	-1.2587716732e+00
 9.2149778444e-01	 1.9197001561e+00	-1.2112427235e+00
 1.1047292903e+00	 1.8307488278e+00	-1.5183842867e+00
 1.0871081909e+00	 1.8412669095e+00	-1.4878762863e+00
 1.0694085350e+00	 1.8516029194e+00	-1.4630728957e+00
 1.0516330903e+00	 1.8617560881e+00	-1.4414912077e+00
 1.0337846320e+00	 1.8717257009e+00	-1.4173981321e+00
 1.0158659409e+00	 1.8815110983e+00	-1.3906035531e+00
 9.9787980254e-01	 1.8911116757e+00	-1.3608039392e+00
 9.7982900573e-01	 1.9005268831e+00	-1.3275947960e+00
 9.6171634109e-01	 1.9097562252e+00	-1.2904872178e+00
 9.4354459991e-01	 1.9187992614e+00	-1.2489238861e+00
 9.2531657280e-01	 1.9276556051e+00	-1.2022944457e+00
 1.1092885163e+00	 1.8383043418e+00	-1.5104046387e+00
 1.0915946945e+00	 1.8488658317e+00	-1.4828199701e+00
 1.0738219920e+00	 1.8592444984e+00	-1.4601592244e+00
 1.0559731879e+00	 1.8694395692e+00	-1.4360226834e+00
 1.0380510688e+00	 1.8794503267e+00	-1.4099302968e+00
 1.0200584271e+00	 1.8892761086e+00	-1.3817080992e+00
 1.0019980599e+00	 1.8989163076e+00	-1.3510585711e+00
 9.8387276730e-01	 1.9083703716e+00	-1.3175781210e+00
 9.6568535156e-01	 1.9176378033e+00	-1.2807740701e+00
 9.4743861547e-01	 1.9267181602e+00	-1.2400810649e+00
 9.2913536115e-01	 1.9356110540e+00	-1.1948768501e+00
 8.9094747759e-01	 1.8560565644e+00	-1.2831753074e+00
 8.7334198809e-01	 1.8644052817e+00	-1.2527753593e+00
 8.5568765327e-01	 1.8725735898e+00	-1.2169770816e+00
 8.3798715128e-01	 1.8805612704e+00	-1.1765581038e+00
 8.2024315482e-01	 1.8883681565e+00	-1.1323007696e+00
 8.0245832991e-01	 1.8959941319e+00	-1.0849997397e+00
 7.8463533479e-01	 1.9034391305e+00	-1.0354689580e+00
 7.6677681873e-01	 1.9107031366e+00	-9.8454796776e-01
 7.4888542094e-01	 1.9177861838e+00	-9.3310756575e-01
 7.3096376946e-01	 1.9246883549e+00	-8.8231358603e-01
 7.1301448007e-01	 1.9314097810e+00	-8.3433091948e-01
 8.9476626595e-01	 1.8640120133e+00	-1.2785148978e+00
 8.7708531561e-01	 1.8723965150e+00	-1.2415114594e+00
 8.5935531060e-01	 1.8805998342e+00	-1.2007118616e+00
 8.4157894054e-01	 1.8886217517e+00	-1.1568126565e+00
 8.2375888957e-01	 1.8964620998e+00	-1.1105014163e+00
 8.0589783516e-01	 1.9041207617e+00	-1.0624648352e+00
 7.8799844693e-01	 1.9115976711e+00	-1.0133961886e+00
 7.7006338551e-01	 1.9188928123e+00	-9.6400213063e-01
 7.5209530143e-01	 1.9260062189e+00	-9.1500882254e-01
 7.3409683398e-01	 1.9329379741e+00	-8.6728087681e-01
 7.1607061016e-01	 1.9396882097e+00	-8.2274789857e-01
 8.9858505431e-01	 1.8719674623e+00	-1.2716640071e+00
 8.8082864313e-01	 1.8803877483e+00	-1.2295100075e+00
 8.6302296792e-01	 1.8886260786e+00	-1.1848949817e+00
 8.4517072979e-01	 1.8966822330e+00	-1.1384341080e+00
 8.2727462432e-01	 1.9045560431e+00	-1.0907218711e+00
 8.0933734041e-01	 1.9122473914e+00	-1.0423406395e+00
 7.9136155907e-01	 1.9197562117e+00	-9.9386858847e-01
 7.7334995230e-01	 1.9270824880e+00	-9.4588695073e-01
 7.5530518192e-01	 1.9342262540e+00	-8.9898658581e-01
 7.3722989850e-01	 1.9411875934e+00	-8.5380397331e-01
 7.1912674025e-01	 1.9479666384e+00	-8.1196083053e-01
 9.0240384266e-01	 1.8799229113e+00	-1.2631054665e+00
 8.8457197066e-01	 1.8883789816e+00	-1.2171166817e+00
 8.6669062525e-01	 1.8966523230e+00	-1.1697582547e+00
 8.4876251904e-01	 1.9047427143e+00	-1.1215636114e+00
 8.3079035907e-01	 1.9126499863e+00	-1.0730357366e+00
 8.1277684566e-01	 1.9203740212e+00	-1.0246562034e+00
 7.9472467122e-01	 1.9279147524e+00	-9.7689353207e-01
 7.7663651908e-01	 1.9352721636e+00	-9.3021086522e-01
 7.5851506241e-01	 1.9424462891e+00	-8.8507294450e-01
 7.4036296303e-01	 1.9494372126e+00	-8.4195267062e-01
 7.2218287034e-01	 1.9562450671e+00	-8.0209947485e-01
 9.0622263102e-01	 1.8878783602e+00	-1.2533170369e+00
 8.8831529818e-01	 1.8963702150e+00	-1.2046744739e+00
 8.7035828259e-01	 1.9046785674e+00	-1.1555327924e+00
 8.5235430830e-01	 1.9128031956e+00	-1.1063432051e+00
 8.3430609383e-01	 1.9207439296e+00	-1.0575186901e+00
 8.1621635091e-01	 1.9285006510e+00	-1.0094434461e+00
 7.9808778336e-01	 1.9360732930e+00	-9.6248166287e-01
 7.7992308587e-01	 1.9434618393e+00	-9.1698558868e-01
 7.6172494290e-01	 1.9506663242e+00	-8.7330288435e-01
 7.4349602755e-01	 1.9576868319e+00	-8.3178325630e-01
 7.2523900043e-01	 1.9645234958e+00	-7.9329750367e-01
 9.1004141937e-01	 1.8958338092e+00	-1.2427714192e+00
 8.9205862570e-01	 1.9043614483e+00	-1.1925236558e+00
 8.7402593992e-01	 1.9127048118e+00	-1.1424489346e+00
 8.5594609755e-01	 1.9208636769e+00	-1.0929157143e+00
 8.3782182858e-01	 1.9288378728e+00	-1.0442483650e+00
 8.1965585616e-01	 1.9366272808e+00	-9.9673702569e-01
 8.0145089550e-01	 1.9442318336e+00	-9.5064675908e-01
 7.8320965266e-01	 1.9516515150e+00	-9.0622598328e-01
 7.6493482339e-01	 1.9588863593e+00	-8.6371417020e-01
 7.4662909207e-01	 1.9659364512e+00	-8.2334880307e-01
 7.2829513052e-01	 1.9728019245e+00	-7.8569223524e-01
 9.1386020773e-01	 1.9037892582e+00	-1.2319362631e+00
 8.9580195323e-01	 1.9123526816e+00	-1.1810017442e+00
 8.7769359725e-01	 1.9207310563e+00	-1.1307361797e+00
 8.5953788681e-01	 1.9289241582e+00	-1.0814246540e+00
 8.4133756333e-01	 1.9369318161e+00	-1.0333042348e+00
 8.2309536141e-01	 1.9447539106e+00	-9.8657421059e-01
 8.0481400765e-01	 1.9523903742e+00	-9.4140560238e-01
 7.8649621944e-01	 1.9598411907e+00	-8.9794993151e-01
 7.6814470388e-01	 1.9671063944e+00	-8.5634723057e-01
 7.4976215659e-01	 1.9741860704e+00	-8.1673329126e-01
 7.3135126060e-01	 1.9810803532e+00	-7.7942436879e-01
 9.1767899609e-01	 1.9117447071e+00	-1.2212741749e+00
 8.9954528075e-01	 1.9203439150e+00	-1.1704434666e+00
 8.8136125458e-01	 1.9287573007e+00	-1.1206231162e+00
 8.6312967606e-01	 1.9369846395e+00	-1.0720141339e+00
 8.4485329808e-01	 1.9450257593e+00	-1.0247674992e+00
 8.2653486666e-01	 1.9528805404e+00	-9.7899475469e-01
 8.0817711979e-01	 1.9605489148e+00	-9.3477784901e-01
 7.8978278623e-01	 1.9680308663e+00	-8.9217821151e-01
 7.7135458437e-01	 1.9753264296e+00	-8.5124504468e-01
 7.5289522111e-01	 1.9824356897e+00	-8.1202282861e-01
 7.3440739069e-01	 1.9893587819e+00	-7.7463772048e-01
 9.2149778444e-01	 1.9197001561e+00	-1.2112427235e+00
 9.0328860828e-01	 1.9283351483e+00	-1.1611807269e+00
 8.8502891191e-01	 1.9367835451e+00	-1.1123373544e+00
 8.6672146532e-01	 1.9450451208e+00	-1.0648287642e+00
 8.4836903283e-01	 1.9531197026e+00	-1.0187209714e+00
 8.2997437191e-01	 1.9610071702e+00	-9.7404077430e-01
 8.1154023193e-01	 1.9687074554e+00	-9.3078590356e-01
 7.9306935301e-01	 1.9762205420e+00	-8.8893437476e-01
 7.7456446486e-01	 1.9835464647e+00	-8.4845303155e-01
 7.5602828563e-01	 1.9906853090e+00	-8.0930527294e-01
 7.3746352078e-01	 1.9976372106e+00	-7.7147896065e-01
 9.2531657280e-01	 1.9276556051e+00	-1.2022944457e+00
 9.0703193580e-01	 1.9363263816e+00	-1.1535425701e+00
 8.8869656924e-01	 1.9448097895e+00	-1.1061054588e+00
 8.7031325457e-01	 1.9531056021e+00	-1.0600135634e+00
 8.5188476759e-01	 1.9612136458e+00	-1.0152489681e+00
 8.3341387716e-01	 1.9691337999e+00	-9.7175662743e-01
 8.1490334408e-01	 1.9768659961e+00	-9.2945479501e-01
 7.9635591980e-01	 1.9844102177e+00	-8.8824462626e-01
 7.7777434535e-01	 1.9917664998e+00	-8.4801894130e-01
 7.5916135015e-01	 1.9989349282e+00	-8.0867014181e-01
 7.4051965087e-01	 2.0059156394e+00	-7.7009735214e-01
 9.2913536115e-01	 1.9356110540e+00	-1.1948768501e+00
 9.1077526332e-01	 1.9443176149e+00	-1.1478551476e+00
 8.9236422656e-01	 1.9528360339e+00	-1.1021528824e+00
 8.7390504382e-01	 1.9611660834e+00	-1.0577138672e+00
 8.5540050234e-01	 1.9693075891e+00	-1.0144372014e+00
 8.3685338241e-01	 1.9772604297e+00	-9.7218879543e-01
 8.1826645622e-01	 1.9850245367e+00	-9.3081205527e-01
 7.9964248658e-01	 1.9925998934e+00	-8.9013770695e-01
 7.8098422584e-01	 1.9999865349e+00	-8.4999274858e-01
 7.6229441467e-01	 2.0071845475e+00	-8.1020852375e-01
 7.4357578096e-01	 2.0141940681e+00	-7.7062791653e-01
 7.1301448007e-01	 1.9314097810e+00	-8.3433091948e-01
 6.9504321235e-01	 1.9379495447e+00	-7.8866669298e-01
 6.7704950364e-01	 1.9443090295e+00	-7.4417884244e-01
 6.5903592457e-01	 1.9504885074e+00	-7.0082811437e-01
 6.4100502941e-01	 1.9564882968e+00	-6.5849376595e-01
 6.2295935516e-01	 1.9623087615e+00	-6.1699346507e-01
 6.0490142056e-01	 1.9679503103e+00	-5.7610120289e-01
 5.8683372519e-01	 1.9734133965e+00	-5.3556326879e-01
 5.6875874854e-01	 1.9786985165e+00	-4.9511235021e-01
 5.5067894919e-01	 1.9838062098e+00	-4.5447983187e-01
 5.3259676391e-01	 1.9887370581e+00	-4.1340637908e-01
 7.1607061016e-01	 1.9396882097e+00	-8.2274789857e-01
 6.9802231381e-01	 1.9462560043e+00	-7.8068372137e-01
 6.7995148028e-01	 1.9526427471e+00	-7.3962958388e-01
 6.6186069121e-01	 1.9588487116e+00	-6.9947209721e-01
 6.4375251184e-01	 1.9648742173e+00	-6.6002487886e-01
 6.2562949003e-01	 1.9707196297e+00	-6.2104854369e-01
 6.0749415532e-01	 1.9763853595e+00	-5.8226862770e-01
 5.8934901801e-01	 1.9818718615e+00	-5.4339149755e-01
 5.7119656821e-01	 1.9871796347e+00	-5.0411831206e-01
 5.5303927503e-01	 1.9923092207e+00	-4.6415711389e-01
 5.3487958570e-01	 1.9972612035e+00	-4.2323314023e-01
 7.1912674025e-01	 1.9479666384e+00	-8.1196083053e-01
 7.0100141526e-01	 1.9545624638e+00	-7.7266171098e-01
 6.8285345691e-01	 1.9609764647e+00	-7.3425235181e-01
 6.6468545785e-01	 1.9672089157e+00	-6.9656117546e-01
 6.4649999427e-01	 1.9732601378e+00	-6.5935137291e-01
 6.2829962490e-01	 1.9791304980e+00	-6.2234097993e-01
 6.1008689009e-01	 1.9848204086e+00	-5.8522080572e-01
 5.9186431083e-01	 1.9903303266e+00	-5.4767027001e-01
 5.7363438788e-01	 1.9956607529e+00	-5.0937121859e-01
 5.5539960088e-01	 2.0008122315e+00	-4.7001979920e-01
 5.3716240750e-01	 2.0057853490e+00	-4.2933649107e-01
 7.2218287034e-01	 1.9562450671e+00	-8.0209947485e-01
 7.0398051672e-01	 1.9628689233e+00	-7.6479545039e-01
 6.8575543354e-01	 1.9693101823e+00	-7.2829539411e-01
 6.6751022449e-01	 1.9755691199e+00	-6.9238535247e-01
 6.4924747670e-01	 1.9816460583e+00	-6.5679318717e-01
 6.3096975978e-01	 1.9875413662e+00	-6.2120873100e-01
 6.1267962486e-01	 1.9932554577e+00	-5.8530171474e-01
 5.9437960365e-01	 1.9987887916e+00	-5.4873752469e-01
 5.7607220754e-01	 2.0041418710e+00	-5.1119086414e-01
 5.5775992672e-01	 2.0093152423e+00	-4.7235740504e-01
 5.3944522929e-01	 2.0143094945e+00	-4.3196352742e-01
 7.2523900043e-01	 1.9645234958e+00	-7.9329750367e-01
 7.0695961817e-01	 1.9711753828e+00	-7.5728275610e-01
 6.8865741017e-01	 1.9776438999e+00	-7.2200925189e-01
 6.7033499113e-01	 1.9839293240e+00	-6.8723634196e-01
 6.5199495913e-01	 1.9900319788e+00	-6.5267154195e-01
 6.3363989465e-01	 1.9959522344e+00	-6.1799076184e-01
 6.1527235962e-01	 2.0016905068e+00	-5.8285622440e-01
 5.9689489647e-01	 2.0072472567e+00	-5.4693213554e-01
 5.7851002721e-01	 2.0126229892e+00	-5.0989818356e-01
 5.6012025256e-01	 2.0178182531e+00	-4.7146095778e-01
 5.4172805108e-01	 2.0228336400e+00	-4.3136338826e-01
 7.2829513052e-01	 1.9728019245e+00	-7.8569223524e-01
 7.0993871962e-01	 1.9794818423e+00	-7.5032424706e-01
 6.9155938681e-01	 1.9859776175e+00	-7.1564657071e-01
 6.7315975777e-01	 1.9922895281e+00	-6.8140741157e-01
 6.5474244156e-01	 1.9984178993e+00	-6.4730881030e-01
 6.3631002952e-01	 2.0043631027e+00	-6.1302694019e-01
 6.1786509439e-01	 2.0101255559e+00	-5.7823001024e-01
 5.9941018929e-01	 2.0157057217e+00	-5.4259384054e-01
 5.8094784688e-01	 2.0211041074e+00	-5.0581519083e-01
 5.6248057841e-01	 2.0263212640e+00	-4.6762293675e-01
 5.4401087287e-01	 2.0313577855e+00	-4.2778720031e-01
 7.3135126060e-01	 1.9810803532e+00	-7.7942436879e-01
 7.1291782108e-01	 1.9877883018e+00	-7.4412311977e-01
 6.9446136344e-01	 1.9943113351e+00	-7.0946191173e-01
 6.7598452442e-01	 2.0006497323e+00	-6.7519322588e-01
 6.5748992399e-01	 2.0068038198e+00	-6.4102838860e-01
 6.3898016440e-01	 2.0127739709e+00	-6.0665793037e-01
 6.2045782915e-01	 2.0185606050e+00	-5.7176946634e-01
 6.0192548211e-01	 2.0241641867e+00	-5.3606316875e-01
 5.8338566655e-01	 2.0295852256e+00	-4.9926491595e-01
 5.6484090425e-01	 2.0348242748e+00	-4.6113721675e-01
 5.4629369467e-01	 2.0398819309e+00	-4.2148802138e-01
 7.3440739069e-01	 1.9893587819e+00	-7.7463772048e-01
 7.1589692253e-01	 1.9960947613e+00	-7.3888492380e-01
 6.9736334007e-01	 2.0026450527e+00	-7.0371156280e-01
 6.7880929106e-01	 2.0090099364e+00	-6.6888968887e-01
 6.6023740642e-01	 2.0151897403e+00	-6.3415456619e-01
 6.4165029927e-01	 2.0211848391e+00	-5.9922508582e-01
 6.2305056392e-01	 2.0269956541e+00	-5.6382161649e-01
 6.0444077494e-01	 2.0326226518e+00	-5.2768136580e-01
 5.8582348622e-01	 2.0380663437e+00	-4.9057134046e-01
 5.6720123010e-01	 2.0433272856e+00	-4.5229900901e-01
 5.4857651646e-01	 2.0484060764e+00	-4.1272078252e-01
 7.3746352078e-01	 1.9976372106e+00	-7.7147896065e-01
 7.1887602399e-01	 2.0044012208e+00	-7.3481733799e-01
 7.0026531671e-01	 2.0109787703e+00	-6.9865334952e-01
 6.8163405770e-01	 2.0173701406e+00	-6.6279378587e-01
 6.6298488885e-01	 2.0235756608e+00	-6.2701239411e-01
 6.4432043415e-01	 2.0295957074e+00	-5.9107034050e-01
 6.2564329869e-01	 2.0354307032e+00	-5.5473402407e-01
 6.0695606776e-01	 2.0410811168e+00	-5.1779031792e-01
 5.8826130589e-01	 2.0465474619e+00	-4.8005933142e-01
 5.6956155594e-01	 2.0518302965e+00	-4.4140480084e-01
 5.5085933825e-01	 2.0569302219e+00	-4.0174222900e-01
 7.4051965087e-01	 2.0059156394e+00	-7.7009735214e-01
 7.2185512544e-01	 2.0127076804e+00	-7.3212994705e-01
 7.0316729334e-01	 2.0193124879e+00	-6.9454644626e-01
 6.8445882434e-01	 2.0257303447e+00	-6.5720342500e-01
 6.6573237129e-01	 2.0319615813e+00	-6.1992755290e-01
 6.4699056902e-01	 2.0380065756e+00	-5.8253609908e-01
 6.2823603346e-01	 2.0438657523e+00	-5.4485470045e-01
 6.0947136058e-01	 2.0495395819e+00	-5.0673247458e-01
 5.9069912556e-01	 2.0550285801e+00	-4.6805457394e-01
 5.7192188179e-01	 2.0603333073e+00	-4.2875229394e-01
 5.5314216005e-01	 2.0654543674e+00	-3.8881086011e-01
 7.4357578096e-01	 2.0141940681e+00	-7.7062791653e-01
 7.2483422690e-01	 2.0210141399e+00	-7.3103401867e-01
 7.0606926997e-01	 2.0276462055e+00	-6.9165118715e-01
 6.8728359099e-01	 2.0340905489e+00	-6.5241727807e-01
 6.6847985372e-01	 2.0403475018e+00	-6.1322621969e-01
 6.4966070390e-01	 2.0464174439e+00	-5.7396512604e-01
 6.3082876822e-01	 2.0523008014e+00	-5.3453201221e-01
 6.1198665341e-01	 2.0579980469e+00	-4.9485076962e-01
 5.9313694523e-01	 2.0635096983e+00	-4.5488350232e-01
 5.7428220763e-01	 2.0688363181e+00	-4.1464034139e-01
 5.5542498184e-01	 2.0739785129e+00	-3.7418686790e-01
 5.3259676391e-01	 1.9887370581e+00	-4.1340637908e-01
 5.1451460713e-01	 1.9934916845e+00	-3.7369226285e-01
 4.9643487084e-01	 1.9980707547e+00	-3.3692904964e-01
 4.7835992304e-01	 2.0024749745e+00	-3.0258292334e-01
 4.6029210677e-01	 2.0067050887e+00	-2.7015870996e-01
 4.4223373939e-01	 2.0107618803e+00	-2.3920373822e-01
 4.2418711190e-01	 2.0146461694e+00	-2.0931064183e-01
 4.0615448827e-01	 2.0183588128e+00	-1.8011923004e-01
 3.8813810481e-01	 2.0219007028e+00	-1.5131755410e-01
 3.7014016961e-01	 2.0252727667e+00	-1.2264237835e-01
 3.5216286193e-01	 2.0284759653e+00	-9.4373955896e-02
 5.3487958570e-01	 1.9972612035e+00	-4.2323314023e-01
 5.1671992500e-01	 2.0020362093e+00	-3.8313444167e-01
 4.9856269515e-01	 2.0066349064e+00	-3.4550572105e-01
 4.8041027432e-01	 2.0110580036e+00	-3.0990160624e-01
 4.6226501559e-01	 2.0153062490e+00	-2.7591510991e-01
 4.4412924625e-01	 2.0193804288e+00	-2.4318098271e-01
 4.2600526711e-01	 2.0232813668e+00	-2.1137798074e-01
 4.0789535186e-01	 2.0270099233e+00	-1.8023017865e-01
 3.8980174639e-01	 2.0305669947e+00	-1.4950746134e-01
 3.7172666826e-01	 2.0339535119e+00	-1.1902532752e-01
 3.5367230605e-01	 2.0371704401e+00	-8.9087735469e-02
 5.3716240750e-01	 2.0057853490e+00	-4.2933649107e-01
 5.1892524286e-01	 2.0105807341e+00	-3.8906944834e-01
 5.0069051946e-01	 2.0151990580e+00	-3.5087239124e-01
 4.8246062560e-01	 2.0196410327e+00	-3.1437405669e-01
 4.6423792440e-01	 2.0239074092e+00	-2.7924163856e-01
 4.4602475310e-01	 2.0279989773e+00	-2.4518363132e-01
 4.2782342233e-01	 2.0319165642e+00	-2.1195155886e-01
 4.0963621545e-01	 2.0356610339e+00	-1.7934072515e-01
 3.9146538798e-01	 2.0392332865e+00	-1.4719012472e-01
 3.7331316691e-01	 2.0426342571e+00	-1.1538165145e-01
 3.5518175017e-01	 2.0458649149e+00	-8.4225109848e-02
 5.3944522929e-01	 2.0143094945e+00	-4.3196352742e-01
 5.2113056072e-01	 2.0191252589e+00	-3.9169568906e-01
 5.0281834376e-01	 2.0237632097e+00	-3.5317858354e-01
 4.8451097688e-01	 2.0282240618e+00	-3.1610102486e-01
 4.6621083322e-01	 2.0325085695e+00	-2.8019069010e-01
 4.4792025996e-01	 2.0366175258e+00	-2.4521645075e-01
 4.2964157754e-01	 2.0405517615e+00	-2.1098955858e-01
 4.1137707905e-01	 2.0443121444e+00	-1.7736382807e-01
 3.9312902956e-01	 2.0478995784e+00	-1.4423495867e-01
 3.7489966555e-01	 2.0513150023e+00	-1.1153914070e-01
 3.5669119430e-01	 2.0545593897e+00	-7.9577900319e-02
 5.4172805108e-01	 2.0228336400e+00	-4.3136338826e-01
 5.2333587859e-01	 2.0276697837e+00	-3.9121421564e-01
 5.0494616807e-01	 2.0323273614e+00	-3.5257703779e-01
 4.8656132815e-01	 2.0368070908e+00	-3.1518701423e-01
 4.6818374204e-01	 2.0411097297e+00	-2.7881891235e-01
 4.4981576681e-01	 2.0452360743e+00	-2.4328892300e-01
 4.3145973275e-01	 2.0491869589e+00	-2.0845529850e-01
 4.1311794264e-01	 2.0529632550e+00	-1.7421796045e-01
 3.9479267114e-01	 2.0565658702e+00	-1.4051722608e-01
 3.7648616420e-01	 2.0599957475e+00	-1.0733180247e-01
 3.5820063842e-01	 2.0632538645e+00	-7.4943823073e-02
 5.4401087287e-01	 2.0313577855e+00	-4.2778720031e-01
 5.2554119645e-01	 2.0362143085e+00	-3.8782866829e-01
 5.0707399238e-01	 2.0408915130e+00	-3.4922365083e-01
 4.8861167943e-01	 2.0453901199e+00	-3.1174021935e-01
 4.7015665086e-01	 2.0497108899e+00	-2.7518714148e-01
 4.5171127367e-01	 2.0538546228e+00	-2.3941517682e-01
 4.3327788796e-01	 2.0578221563e+00	-2.0431716152e-01
 4.1485880623e-01	 2.0616143656e+00	-1.6982703446e-01
 3.9645631273e-01	 2.0652321620e+00	-1.3591795944e-01
 3.7807266284e-01	 2.0686764927e+00	-1.0259969817e-01
 3.5971008254e-01	 2.0719483393e+00	-7.0126440332e-02
 5.4629369467e-01	 2.0398819309e+00	-4.2148802138e-01
 5.2774651431e-01	 2.0447588333e+00	-3.8174521735e-01
 5.0920181669e-01	 2.0494556647e+00	-3.4327741611e-01
 4.9066203071e-01	 2.0539731490e+00	-3.0587246306e-01
 4.7212955967e-01	 2.0583120502e+00	-2.6936033653e-01
 4.5360678052e-01	 2.0624731713e+00	-2.3361391925e-01
 4.3509604318e-01	 2.0664573537e+00	-1.9854852322e-01
 4.1659966983e-01	 2.0702654761e+00	-1.6412032663e-01
 3.9811995431e-01	 2.0738984539e+00	-1.3032388290e-01
 3.7965916149e-01	 2.0773572379e+00	-9.7188862289e-02
 3.6121952667e-01	 2.0806428141e+00	-6.4935112653e-02
 5.4857651646e-01	 2.0484060764e+00	-4.1272078252e-01
 5.2995183218e-01	 2.0533033581e+00	-3.7317250409e-01
 5.1132964100e-01	 2.0580198164e+00	-3.3490036279e-01
 4.9271238200e-01	 2.0625561781e+00	-2.9769913333e-01
 4.7410246849e-01	 2.0669132104e+00	-2.6140751374e-01
 4.5550228738e-01	 2.0710917198e+00	-2.2590836724e-01
 4.3691419839e-01	 2.0750925511e+00	-1.9112768062e-01
 4.1834053342e-01	 2.0789165867e+00	-1.5703240357e-01
 3.9978359589e-01	 2.0825647457e+00	-1.2362733494e-01
 3.8124566014e-01	 2.0860379832e+00	-9.0951222220e-02
 3.6272897079e-01	 2.0893372889e+00	-5.9184952425e-02
 5.5085933825e-01	 2.0569302219e+00	-4.0174222900e-01
 5.3215715004e-01	 2.0618478829e+00	-3.6232158059e-01
 5.1345746531e-01	 2.0665839680e+00	-3.2425749399e-01
 4.9476273328e-01	 2.0711392072e+00	-2.8733911965e-01
 4.7607537731e-01	 2.0755143707e+00	-2.5140168068e-01
 4.5739779424e-01	 2.0797102683e+00	-2.1632617929e-01
 4.3873235360e-01	 2.0837277484e+00	-1.8203778114e-01
 4.2008139701e-01	 2.0875676972e+00	-1.4850304821e-01
 4.0144723748e-01	 2.0912310376e+00	-1.1572619194e-01
 3.8283215878e-01	 2.0947187284e+00	-8.3744519056e-02
 3.6423841491e-01	 2.0980317637e+00	-5.2696778487e-02
 5.5314216005e-01	 2.0654543674e+00	-3.8881086011e-01
 5.3436246791e-01	 2.0703924078e+00	-3.4940584871e-01
 5.1558528963e-01	 2.0751481197e+00	-3.1151672448e-01
 4.9681308456e-01	 2.0797222362e+00	-2.7491474898e-01
 4.7804828613e-01	 2.0841155309e+00	-2.3941977022e-01
 4.5929330109e-01	 2.0883288168e+00	-2.0489938714e-01
 4.4055050882e-01	 2.0923629458e+00	-1.7126675191e-01
 4.2182226061e-01	 2.0962188078e+00	-1.3847718661e-01
 4.0311087906e-01	 2.0998973294e+00	-1.0652379233e-01
 3.8441865743e-01	 2.1033994736e+00	-7.5432229274e-02
 3.6574785904e-01	 2.1067262385e+00	-4.5297071851e-02
 5.5542498184e-01	 2.0739785129e+00	-3.7418686790e-01
 5.3656778577e-01	 2.0789369326e+00	-3.3464099822e-01
 5.1771311394e-01	 2.0837122714e+00	-2.9684881774e-01
 4.9886343584e-01	 2.0883052653e+00	-2.6055172137e-01
 4.8002119495e-01	 2.0927166911e+00	-2.2554257433e-01
 4.6118880795e-01	 2.0969473653e+00	-1.9166432760e-01
 4.4236866403e-01	 2.1009981432e+00	-1.5880722934e-01
 4.2356312421e-01	 2.1048699183e+00	-1.2690481515e-01
 4.0477452065e-01	 2.1085636212e+00	-9.5928861551e-02
 3.8600515608e-01	 2.1120802188e+00	-6.5883487318e-02
 3.6725730316e-01	 2.1154207133e+00	-3.6817932500e-02
 3.5216286193e-01	 2.0284759653e+00	-9.4373955896e-02
 3.3420528204e-01	 2.0315117943e+00	-6.7533743825e-02
 3.1627261310e-01	 2.0343807202e+00	-4.2351098891e-02
 2.9836695041e-01	 2.0370837996e+00	-1.8557497553e-02
 2.8049035836e-01	 2.0396221193e+00	 4.0115207032e-03
 2.6264486992e-01	 2.0419967957e+00	 2.5435244350e-02
 2.4483248629e-01	 2.0442089737e+00	 4.5724568676e-02
 2.2705517649e-01	 2.0462598259e+00	 6.4836785800e-02
 2.0931487706e-01	 2.0481505519e+00	 8.2688510822e-02
 1.9161349164e-01	 2.0498823769e+00	 9.9166869948e-02
 1.7395289077e-01	 2.0514565511e+00	 1.1413907645e-01
 3.5367230605e-01	 2.0371704401e+00	-8.9087735469e-02
 3.3563775620e-01	 2.0402192813e+00	-6.0844457612e-02
 3.1762822406e-01	 2.0431005041e+00	-3.4502666947e-02
 2.9964581394e-01	 2.0458151694e+00	-9.7912986478e-03
 2.8169259905e-01	 2.0483643689e+00	 1.3466238381e-02
 2.6377062109e-01	 2.0507492236e+00	 3.5370651013e-02
 2.4588188984e-01	 2.0529708834e+00	 5.5963195832e-02
 2.2802838276e-01	 2.0550305261e+00	 7.5240085401e-02
 2.1021204466e-01	 2.0569293561e+00	 9.3164996409e-02
 1.9243478738e-01	 2.0586686040e+00	 1.0967981001e-01
 1.7469848946e-01	 2.0602495255e+00	 1.2471371459e-01
 3.5518175017e-01	 2.0458649149e+00	-8.4225109848e-02
 3.3707023036e-01	 2.0489267683e+00	-5.4962590473e-02
 3.1898383503e-01	 2.0518202879e+00	-2.7778533391e-02
 3.0092467747e-01	 2.0545465392e+00	-2.4029011673e-03
 2.8289483975e-01	 2.0571066184e+00	 2.1349388042e-02
 2.6489637227e-01	 2.0595016515e+00	 4.3596743994e-02
 2.4693129339e-01	 2.0617327932e+00	 6.4406988412e-02
 2.2900158902e-01	 2.0638012263e+00	 8.3811372205e-02
 2.1110921227e-01	 2.0657081603e+00	 1.0181666004e-01
 1.9325608313e-01	 2.0674548312e+00	 1.1841541717e-01
 1.7544408815e-01	 2.0690424999e+00	 1.3359463319e-01
 3.5669119430e-01	 2.0545593897e+00	-7.9577900319e-02
 3.3850270451e-01	 2.0576342553e+00	-4.9649025949e-02
 3.2033944599e-01	 2.0605400717e+00	-2.1916160249e-02
 3.0220354100e-01	 2.0632779090e+00	 3.8862459080e-03
 2.8409708044e-01	 2.0658488680e+00	 2.7948241298e-02
 2.6602212344e-01	 2.0682540794e+00	 5.0402346808e-02
 2.4798069694e-01	 2.0704947030e+00	 7.1339284131e-02
 2.2997479528e-01	 2.0725719264e+00	 9.0821598099e-02
 2.1200637987e-01	 2.0744869645e+00	 1.0889531161e-01
 1.9407737887e-01	 2.0762410584e+00	 1.2559975266e-01
 1.7618968684e-01	 2.0778354743e+00	 1.4097569272e-01
 3.5820063842e-01	 2.0632538645e+00	-7.4943823073e-02
 3.3993517867e-01	 2.0663417423e+00	-4.4670524685e-02
 3.2169505696e-01	 2.0692598555e+00	-1.6658797885e-02
 3.0348240453e-01	 2.0720092788e+00	 9.3490652808e-03
 2.8529932113e-01	 2.0745911176e+00	 3.3544673028e-02
 2.6714787462e-01	 2.0770065074e+00	 5.6071189682e-02
 2.4903010049e-01	 2.0792566128e+00	 7.7038703000e-02
 2.3094800154e-01	 2.0813426266e+00	 9.6537445280e-02
 2.1290354748e-01	 2.0832657688e+00	 1.1464901200e-01
 1.9489867461e-01	 2.0850272856e+00	 1.3145572229e-01
 1.7693528553e-01	 2.0866284488e+00	 1.4704826505e-01
 3.5971008254e-01	 2.0719483393e+00	-7.0126440332e-02
 3.4136765283e-01	 2.0750492293e+00	-3.9799668136e-02
 3.2305066793e-01	 2.0779796393e+00	-1.1755423461e-02
 3.0476126806e-01	 2.0807406486e+00	 1.4252916001e-02
 2.8650156183e-01	 2.0833333671e+00	 3.8415227063e-02
 2.6827362580e-01	 2.0857589353e+00	 6.0881974186e-02
 2.5007950404e-01	 2.0880185226e+00	 8.1779208892e-02
 2.3192120780e-01	 2.0901133268e+00	 1.0122138275e-01
 2.1380071508e-01	 2.0920445730e+00	 1.1932212259e-01
 1.9571997035e-01	 2.0938135128e+00	 1.3620311707e-01
 1.7768088423e-01	 2.0954214232e+00	 1.5200126314e-01
 3.6121952667e-01	 2.0806428141e+00	-6.4935112653e-02
 3.4280012699e-01	 2.0837567163e+00	-3.4814803639e-02
 3.2440627889e-01	 2.0866994232e+00	-6.9606808804e-03
 3.0604013158e-01	 2.0894720184e+00	 1.8859656564e-02
 2.8770380252e-01	 2.0920756167e+00	 4.2831180281e-02
 2.6939937697e-01	 2.0945113632e+00	 6.5108436321e-02
 2.5112890760e-01	 2.0967804324e+00	 8.5830169627e-02
 2.3289441406e-01	 2.0988840269e+00	 1.0513172146e-01
 2.1469788269e-01	 2.1008233772e+00	 1.2315535353e-01
 1.9654126610e-01	 2.1025997400e+00	 1.4005865275e-01
 1.7842648292e-01	 2.1042143976e+00	 1.5602117013e-01
 3.6272897079e-01	 2.0893372889e+00	-5.9184952425e-02
 3.4423260114e-01	 2.0924642033e+00	-2.9499990828e-02
 3.2576188986e-01	 2.0954192070e+00	-2.0348221874e-03
 3.0731899511e-01	 2.0982033881e+00	 2.3425706491e-02
 2.8890604321e-01	 2.1008178662e+00	 4.7058605168e-02
 2.7052512815e-01	 2.1032637911e+00	 6.9019408091e-02
 2.5217831115e-01	 2.1055423421e+00	 8.9456415629e-02
 2.3386762033e-01	 2.1076547271e+00	 1.0852266818e-01
 2.1559505030e-01	 2.1096021814e+00	 1.2638581093e-01
 1.9736256184e-01	 2.1113859671e+00	 1.4323600849e-01
 1.7917208161e-01	 2.1130073720e+00	 1.5929206769e-01
 3.6423841491e-01	 2.0980317637e+00	-5.2696778487e-02
 3.4566507530e-01	 2.1011716903e+00	-2.3644949337e-02
 3.2711750082e-01	 2.1041389908e+00	 3.2563496246e-03
 3.0859785864e-01	 2.1069347579e+00	 2.8202106441e-02
 2.9010828391e-01	 2.1095601158e+00	 5.1358430891e-02
 2.7165087932e-01	 2.1120162190e+00	 7.2878877613e-02
 2.5322771470e-01	 2.1143042519e+00	 9.2918297189e-02
 2.3484082659e-01	 2.1164254273e+00	 1.1164437800e-01
 2.1649221790e-01	 2.1183809856e+00	 1.2924704288e-01
 1.9818385758e-01	 2.1201721943e+00	 1.4594586464e-01
 1.7991768030e-01	 2.1218003465e+00	 1.6199566373e-01
 3.6574785904e-01	 2.1067262385e+00	-4.5297071851e-02
 3.4709754946e-01	 2.1098791773e+00	-1.7045007767e-02
 3.2847311179e-01	 2.1128587746e+00	 9.1415364386e-03
 3.0987672217e-01	 2.1156661277e+00	 3.3434576880e-02
 2.9131052460e-01	 2.1183023654e+00	 5.5986502908e-02
 2.7277663050e-01	 2.1207686470e+00	 7.6946047801e-02
 2.5427711825e-01	 2.1230661617e+00	 9.6471740374e-02
 2.3581403285e-01	 2.1251961274e+00	 1.1474300573e-01
 2.1738938551e-01	 2.1271597898e+00	 1.3196908447e-01
 1.9900515333e-01	 2.1289584215e+00	 1.4839593959e-01
 1.8066327899e-01	 2.1305933209e+00	 1.6431131950e-01
 3.6725730316e-01	 2.1154207133e+00	-3.6817932500e-02
 3.4853002362e-01	 2.1185866643e+00	-9.5010538761e-03
 3.2982872276e-01	 2.1215785585e+00	 1.5843999510e-02
 3.1115558570e-01	 2.1243974975e+00	 3.9363575370e-02
 2.9251276530e-01	 2.1270446149e+00	 6.1193641189e-02
 2.7390238167e-01	 2.1295210749e+00	 8.1475393672e-02
 2.5532652180e-01	 2.1318280715e+00	 1.0036830163e-01
 2.3678723911e-01	 2.1339668276e+00	 1.1806075598e-01
 2.1828655311e-01	 2.1359385941e+00	 1.3477850164e-01
 1.9982644907e-01	 2.1377446487e+00	 1.5079102580e-01
 1.8140887769e-01	 2.1393862953e+00	 1.6641607606e-01
 1.7395289077e-01	 2.0514565511e+00	 1.1413907645e-01
 1.5633789565e-01	 2.0528741210e+00	 1.2752907392e-01
 1.3876726916e-01	 2.0541366640e+00	 1.3939954276e-01
 1.2124273991e-01	 2.0552454988e+00	 1.4980347728e-01
 1.0376600355e-01	 2.0562019652e+00	 1.5879017419e-01
 8.6338722586e-02	 2.0570074237e+00	 1.6640839310e-01
 6.8962526251e-02	 2.0576632541e+00	 1.7270863959e-01
 5.1639010350e-02	 2.0581708551e+00	 1.7774467905e-01
 3.4369737168e-02	 2.0585316430e+00	 1.8157438474e-01
 1.7156235382e-02	 2.0587470513e+00	 1.8426001884e-01
 0.0000000000e+00	 2.0588185294e+00	 1.8586804116e-01
 1.7469848946e-01	 2.0602495255e+00	 1.2471371459e-01
 1.5700799276e-01	 2.0616731714e+00	 1.3819434645e-01
 1.3936205487e-01	 2.0629411260e+00	 1.5011378735e-01
 1.2176241180e-01	 2.0640547134e+00	 1.6048415472e-01
 1.0421076647e-01	 2.0650152795e+00	 1.6931826149e-01
 8.6708788518e-02	 2.0658241903e+00	 1.7663240434e-01
 6.9258114149e-02	 2.0664828318e+00	 1.8244826924e-01
 5.1860346014e-02	 2.0669926084e+00	 1.8679406539e-01
 3.4517053093e-02	 2.0673549428e+00	 1.8970499406e-01
 1.7229770617e-02	 2.0675712743e+00	 1.9122315378e-01
 0.0000000000e+00	 2.0676430588e+00	 1.9139697898e-01
 1.7544408815e-01	 2.0690424999e+00	 1.3359463319e-01
 1.5767808988e-01	 2.0704722218e+00	 1.4726610360e-01
 1.3995684059e-01	 2.0717455879e+00	 1.5933584072e-01
 1.2228208370e-01	 2.0728639281e+00	 1.6977724917e-01
 1.0465552940e-01	 2.0738285937e+00	 1.7856930142e-01
 8.7078854450e-02	 2.0746409569e+00	 1.8569892651e-01
 6.9553702047e-02	 2.0753024094e+00	 1.9116251085e-01
 5.2081681678e-02	 2.0758143618e+00	 1.9496662524e-01
 3.4664369019e-02	 2.0761782425e+00	 1.9712808780e-01
 1.7303305852e-02	 2.0763954974e+00	 1.9767346691e-01
 0.0000000000e+00	 2.0764675882e+00	 1.9663812402e-01
 1.7618968684e-01	 2.0778354743e+00	 1.4097569272e-01
 1.5834818700e-01	 2.0792712723e+00	 1.5490490430e-01
 1.4055162630e-01	 2.0805500499e+00	 1.6719713084e-01
 1.2280175559e-01	 2.0816731427e+00	 1.7778928345e-01
 1.0510029232e-01	 2.0826419080e+00	 1.8662919082e-01
 8.7448920382e-02	 2.0834577236e+00	 1.9367756095e-01
 6.9849289945e-02	 2.0841219871e+00	 1.9890904954e-01
 5.2303017341e-02	 2.0846361151e+00	 2.0231255293e-01
 3.4811684943e-02	 2.0850015423e+00	 2.0389083804e-01
 1.7376841086e-02	 2.0852197204e+00	 2.0365961659e-01
 0.0000000000e+00	 2.0852921176e+00	 2.0164616577e-01
 1.7693528553e-01	 2.0866284488e+00	 1.4704826505e-01
 1.5901828411e-01	 2.0880703227e+00	 1.6126947143e-01
 1.4114641202e-01	 2.0893545118e+00	 1.7382780210e-01
 1.2332142749e-01	 2.0904823574e+00	 1.8462595108e-01
 1.0554505525e-01	 2.0914552223e+00	 1.9358335554e-01
 8.7818986313e-02	 2.0922744902e+00	 2.0063770229e-01
 7.0144877842e-02	 2.0929415647e+00	 2.0574553616e-01
 5.2524353004e-02	 2.0934578684e+00	 2.0888209121e-01
 3.4959000868e-02	 2.0938248420e+00	 2.1004046050e-01
 1.7450376320e-02	 2.0940439435e+00	 2.0923021459e-01
 0.0000000000e+00	 2.0941166470e+00	 2.0647557390e-01
 1.7768088423e-01	 2.0954214232e+00	 1.5200126314e-01
 1.5968838123e-01	 2.0968693731e+00	 1.6651671074e-01
 1.4174119773e-01	 2.0981589738e+00	 1.7935672519e-01
 1.2384109938e-01	 2.0992915720e+00	 1.9039211919e-01
 1.0598981817e-01	 2.1002685365e+00	 1.9951674798e-01
 8.8189052244e-02	 2.1010912568e+00	 2.0664853256e-01
 7.0440465740e-02	 2.1017611424e+00	 2.1172957982e-01
 5.2745688667e-02	 2.1022796218e+00	 2.1472552412e-01
 3.5106316793e-02	 2.1026481418e+00	 2.1562420943e-01
 1.7523911554e-02	 2.1028681665e+00	 2.1443382503e-01
 0.0000000000e+00	 2.1029411764e+00	 2.1118060277e-01
 1.7842648292e-01	 2.1042143976e+00	 1.5602117013e-01
 1.6035847835e-01	 2.1056684235e+00	 1.7080172935e-01
 1.4233598344e-01	 2.1069634357e+00	 1.8391150695e-01
 1.2436077128e-01	 2.1081007867e+00	 1.9519183123e-01
 1.0643458110e-01	 2.1090818508e+00	 2.0451384475e-01
 8.8559118175e-02	 2.1099080235e+00	 2.1177901557e-01
 7.0736053637e-02	 2.1105807201e+00	 2.1691874068e-01
 5.2967024330e-02	 2.1111013751e+00	 2.1989316997e-01
 3.5253632717e-02	 2.1114714416e+00	 2.2068937274e-01
 1.7597446789e-02	 2.1116923896e+00	 2.1931896323e-01
 0.0000000000e+00	 2.1117657059e+00	 2.1581529601e-01
 1.7917208161e-01	 2.1130073720e+00	 1.5929206769e-01
 1.6102857546e-01	 2.1144674740e+00	 1.7427785381e-01
 1.4293076916e-01	 2.1157678977e+00	 1.8761849982e-01
 1.2488044317e-01	 2.1169100013e+00	 1.9912830979e-01
 1.0687934402e-01	 2.1178951651e+00	 2.0865864443e-01
 8.8929184106e-02	 2.1187247901e+00	 2.1609789128e-01
 7.1031641534e-02	 2.1194002977e+00	 2.2137052292e-01
 5.3188359993e-02	 2.1199231285e+00	 2.2443537457e-01
 3.5400948642e-02	 2.1202947413e+00	 2.2528326707e-01
 1.7670982023e-02	 2.1205166126e+00	 2.2393409459e-01
 0.0000000000e+00	 2.1205902353e+00	 2.2043349087e-01
 1.7991768030e-01	 2.1218003465e+00	 1.6199566373e-01
 1.6169867258e-01	 2.1232665244e+00	 1.7709664782e-01
 1.4352555487e-01	 2.1245723596e+00	 1.9060281124e-01
 1.2540011506e-01	 2.1257192160e+00	 2.0230395933e-01
 1.0732410695e-01	 2.1267084793e+00	 2.1203466535e-01
 8.9299250037e-02	 2.1275415567e+00	 2.1967367054e-01
 7.1327229432e-02	 2.1282198754e+00	 2.2514236785e-01
 5.3409695656e-02	 2.1287448818e+00	 2.2840250456e-01
 3.5548264567e-02	 2.1291180411e+00	 2.2945323323e-01
 1.7744517257e-02	 2.1293408356e+00	 2.2832763363e-01
 0.0000000000e+00	 2.1294147647e+00	 2.2508882248e-01
 1.8066327899e-01	 2.1305933209e+00	 1.6431131950e-01
 1.6236876970e-01	 2.1320655748e+00	 1.7940792946e-01
 1.4412034059e-01	 2.1333768216e+00	 1.9298831279e-01
 1.2591978696e-01	 2.1345284306e+00	 2.0482036882e-01
 1.0776886987e-01	 2.1355217936e+00	 2.1472494352e-01
 8.9669315969e-02	 2.1363583234e+00	 2.2257462978e-01
 7.1622817330e-02	 2.1370394530e+00	 2.2829164726e-01
 5.3631031320e-02	 2.1375666352e+00	 2.3184494099e-01
 3.5695580492e-02	 2.1379413408e+00	 2.3324663151e-01
 1.7818052492e-02	 2.1381650587e+00	 2.3254794285e-01
 0.0000000000e+00	 2.1382392941e+00	 2.2983472808e-01
 1.8140887769e-01	 2.1393862953e+00	 1.6641607606e-01
 1.6303886681e-01	 2.1408646252e+00	 1.8135978813e-01
 1.4471512630e-01	 2.1421812835e+00	 1.9489764916e-01
 1.2643945885e-01	 2.1433376453e+00	 2.0677831446e-01
 1.0821363280e-01	 2.1443351079e+00	 2.1681203061e-01
 9.0039381901e-02	 2.1451750900e+00	 2.2486880597e-01
 7.1918405228e-02	 2.1458590307e+00	 2.3087565694e-01
 5.3852366984e-02	 2.1463883885e+00	 2.3481307302e-01
 3.5842896417e-02	 2.1467646406e+00	 2.3671083730e-01
 1.7891587727e-02	 2.1469892817e+00	 2.3664333181e-01
 0.0000000000e+00	 2.1470638235e+00	 2.3472445101e-01
 2.1470638235e+00	 0.0000000000e+00	 2.5193026890e+00
 2.1469892817e+00	 1.7891587727e-02	 2.5209849035e+00
 2.1467646406e+00	 3.5842896417e-02	 2.5199364106e+00
 2.1463883885e+00	 5.3852366984e-02	 2.5163594944e+00
 2.1458590307e+00	 7.1918405228e-02	 2.5104054424e+00
 2.1451750900e+00	 9.0039381901e-02	 2.5021686655e+00
 2.1443351079e+00	 1.0821363280e-01	 2.4916813457e+00
 2.1433376453e+00	 1.2643945885e-01	 2.4789087282e+00
 2.1421812835e+00	 1.4471512630e-01	 2.4637451777e+00
 2.1408646252e+00	 1.6303886681e-01	 2.4460111248e+00
 2.1393862953e+00	 1.8140887769e-01	 2.4254510368e+00
 2.1558868529e+00	 0.0000000000e+00	 2.5020466704e+00
 2.1558120048e+00	 1.7965110462e-02	 2.5046290877e+00
 2.1555864406e+00	 3.5990187302e-02	 2.5042287818e+00
 2.1552086423e+00	 5.4073665026e-02	 2.5010964698e+00
 2.1546771092e+00	 7.2213942883e-02	 2.4954279046e+00
 2.1539903579e+00	 9.0409384930e-02	 2.4873574722e+00
 2.1531469241e+00	 1.0865832012e-01	 2.4769523067e+00
 2.1521453625e+00	 1.2695904241e-01	 2.4642070387e+00
 2.1509842489e+00	 1.4530981091e-01	 2.4490393013e+00
 2.1496621800e+00	 1.6370885003e-01	 2.4312861224e+00
 2.1481777751e+00	 1.8215434964e-01	 2.4107013400e+00
 2.1647098823e+00	 0.0000000000e+00	 2.4859107125e+00
 2.1646347279e+00	 1.8038633198e-02	 2.4891673354e+00
 2.1644082405e+00	 3.6137478187e-02	 2.4892249788e+00
 2.1640288961e+00	 5.4294963068e-02	 2.4863820368e+00
 2.1634951877e+00	 7.2509480538e-02	 2.4808780058e+00
 2.1628056259e+00	 9.0779387959e-02	 2.4728865502e+00
 2.1619587402e+00	 1.0910300745e-01	 2.4625090742e+00
 2.1609530798e+00	 1.2747862598e-01	 2.4497689164e+00
 2.1597872142e+00	 1.4590449553e-01	 2.4346062948e+00
 2.1584597348e+00	 1.6437883324e-01	 2.4168741327e+00
 2.1569692549e+00	 1.8289982160e-01	 2.3963349065e+00
 2.1735329117e+00	 0.0000000000e+00	 2.4708994242e+00
 2.1734574510e+00	 1.8112155933e-02	 2.4745781772e+00
 2.1732300405e+00	 3.6284769073e-02	 2.4748789289e+00
 2.1728491500e+00	 5.4516261110e-02	 2.4721471037e+00
 2.1723132662e+00	 7.2805018193e-02	 2.4666653304e+00
 2.1716208938e+00	 9.1149390988e-02	 2.4586459683e+00
 2.1707705564e+00	 1.0954769477e-01	 2.4482241251e+00
 2.1697607970e+00	 1.2799820954e-01	 2.4354512870e+00
 2.1685901796e+00	 1.4649918014e-01	 2.4202896910e+00
 2.1672572895e+00	 1.6504881646e-01	 2.4026075729e+00
 2.1657607347e+00	 1.8364529355e-01	 2.3821754347e+00
 2.1823559412e+00	 0.0000000000e+00	 2.4570171701e+00
 2.1822801741e+00	 1.8185678669e-02	 2.4608404427e+00
 2.1820518404e+00	 3.6432059958e-02	 2.4611453646e+00
 2.1816694038e+00	 5.4737559153e-02	 2.4583238525e+00
 2.1811313447e+00	 7.3100555849e-02	 2.4527011688e+00
 2.1804361618e+00	 9.1519394018e-02	 2.4445278977e+00
 2.1795823726e+00	 1.0999238210e-01	 2.4339723994e+00
 2.1785685143e+00	 1.2851779310e-01	 2.4211138646e+00
 2.1773931450e+00	 1.4709386476e-01	 2.4059361021e+00
 2.1760548443e+00	 1.6571879967e-01	 2.3883221968e+00
 2.1745522145e+00	 1.8439076551e-01	 2.3680501834e+00
 2.1911789706e+00	 0.0000000000e+00	 2.4442680759e+00
 2.1911028972e+00	 1.8259201405e-02	 2.4479332580e+00
 2.1908736404e+00	 3.6579350844e-02	 2.4479798135e+00
 2.1904896576e+00	 5.4958857195e-02	 2.4448457228e+00
 2.1899494232e+00	 7.3396093504e-02	 2.4388984948e+00
 2.1892514297e+00	 9.1889397047e-02	 2.4304265830e+00
 2.1883941887e+00	 1.1043706942e-01	 2.4196312651e+00
 2.1873762315e+00	 1.2903737666e-01	 2.4066191108e+00
 2.1861961103e+00	 1.4768854937e-01	 2.3913951730e+00
 2.1848523990e+00	 1.6638878288e-01	 2.3738570424e+00
 2.1833436942e+00	 1.8513623746e-01	 2.3537899148e+00
 2.2000020000e+00	 0.0000000000e+00	 2.4326560331e+00
 2.1999256203e+00	 1.8332724141e-02	 2.4358360440e+00
 2.1996954404e+00	 3.6726641730e-02	 2.4353385900e+00
 2.1993099114e+00	 5.5180155238e-02	 2.4316473965e+00
 2.1987675017e+00	 7.3691631160e-02	 2.4251719438e+00
 2.1980666977e+00	 9.2259400077e-02	 2.4162383138e+00
 2.1972060049e+00	 1.1088175675e-01	 2.4050804833e+00
 2.1961839488e+00	 1.2955696022e-01	 2.3918321944e+00
 2.1949990757e+00	 1.4828323398e-01	 2.3765195356e+00
 2.1936499538e+00	 1.6705876610e-01	 2.3590543815e+00
 2.1921351740e+00	 1.8588170942e-01	 2.3392288387e+00
 2.2088250294e+00	 0.0000000000e+00	 2.4221847031e+00
 2.2087483434e+00	 1.8406246877e-02	 2.4245285137e+00
 2.2085172403e+00	 3.6873932615e-02	 2.4231787861e+00
 2.2081301652e+00	 5.5401453280e-02	 2.4186647819e+00
 2.2075855802e+00	 7.3987168815e-02	 2.4114377907e+00
 2.2068819656e+00	 9.2629403106e-02	 2.4018613968e+00
 2.2060178211e+00	 1.1132644407e-01	 2.3902021752e+00
 2.2049916661e+00	 1.3007654378e-01	 2.3766209519e+00
 2.2038020411e+00	 1.4887791859e-01	 2.3611647640e+00
 2.2024475085e+00	 1.6772874931e-01	 2.3437596690e+00
 2.2009266538e+00	 1.8662718137e-01	 2.3242045574e+00
 2.2176480588e+00	 0.0000000000e+00	 2.4128575225e+00
 2.2175710665e+00	 1.8479769612e-02	 2.4139906707e+00
 2.2173390403e+00	 3.7021223500e-02	 2.4114582631e+00
 2.2169504190e+00	 5.5622751322e-02	 2.4058349993e+00
 2.2164036587e+00	 7.4282706470e-02	 2.3976139293e+00
 2.2156972336e+00	 9.2999406135e-02	 2.3871961289e+00
 2.2148296373e+00	 1.1177113140e-01	 2.3748807884e+00
 2.2137993833e+00	 1.3059612734e-01	 2.3608558492e+00
 2.2126050064e+00	 1.4947260321e-01	 2.3451893306e+00
 2.2112450633e+00	 1.6839873252e-01	 2.3278214947e+00
 2.2097181336e+00	 1.8737265333e-01	 2.3085580119e+00
 2.2264710882e+00	 0.0000000000e+00	 2.4035236925e+00
 2.2263937896e+00	 1.8553292348e-02	 2.4033147123e+00
 2.2261608403e+00	 3.7168514385e-02	 2.3995387559e+00
 2.2257706728e+00	 5.5844049364e-02	 2.3927657609e+00
 2.2252217372e+00	 7.4578244125e-02	 2.3834905759e+00
 2.2245125015e+00	 9.3369409163e-02	 2.3721301500e+00
 2.2236414534e+00	 1.1221581872e-01	 2.3590204711e+00
 2.2226071006e+00	 1.3111571090e-01	 2.3444132312e+00
 2.2214079718e+00	 1.5006728782e-01	 2.3284545626e+00
 2.2200426181e+00	 1.6906871573e-01	 2.3110915346e+00
 2.2185096134e+00	 1.8811812528e-01	 2.2921334291e+00
 2.2352941176e+00	 0.0000000000e+00	 2.3868557293e+00
 2.2352165126e+00	 1.8626815083e-02	 2.3866391463e+00
 2.2349826402e+00	 3.7315805270e-02	 2.3829975934e+00
 2.2345909267e+00	 5.6065347405e-02	 2.3764455659e+00
 2.2340398157e+00	 7.4873781778e-02	 2.3674235380e+00
 2.2333277695e+00	 9.3739412190e-02	 2.3562952880e+00
 2.2324532696e+00	 1.1266050604e-01	 2.3433449724e+00
 2.2314148178e+00	 1.3163529446e-01	 2.3287739265e+00
 2.2302109371e+00	 1.5066197243e-01	 2.3126971673e+00
 2.2288401728e+00	 1.6973869895e-01	 2.2951395743e+00
 2.2273010932e+00	 1.8886359723e-01	 2.2760317222e+00
 2.1393862953e+00	 1.8140887769e-01	 2.4254510368e+00
 2.1377446487e+00	 1.9982644907e-01	 2.4021342113e+00
 2.1359385941e+00	 2.1828655311e-01	 2.3765572419e+00
 2.1339668276e+00	 2.3678723911e-01	 2.3489838623e+00
 2.1318280715e+00	 2.5532652180e-01	 2.3196098808e+00
 2.1295210749e+00	 2.7390238167e-01	 2.2885677516e+00
 2.1270446149e+00	 2.9251276530e-01	 2.2559330647e+00
 2.1243974975e+00	 3.1115558570e-01	 2.2217331209e+00
 2.1215785585e+00	 3.2982872276e-01	 2.1859577596e+00
 2.1185866643e+00	 3.4853002362e-01	 2.1485726127e+00
 2.1154207133e+00	 3.6725730316e-01	 2.1095349520e+00
 2.1481777751e+00	 1.8215434964e-01	 2.4107013400e+00
 2.1465293824e+00	 2.0064760521e-01	 2.3873323869e+00
 2.1447159060e+00	 2.1918356822e-01	 2.3616664763e+00
 2.1427360369e+00	 2.3776027995e-01	 2.3339834826e+00
 2.1405884919e+00	 2.5637574698e-01	 2.3044866601e+00
 2.1382720151e+00	 2.7502794149e-01	 2.2733066783e+00
 2.1357853785e+00	 2.9371480163e-01	 2.2405075969e+00
 2.1331273831e+00	 3.1243423184e-01	 2.2060949498e+00
 2.1302968601e+00	 3.3118410329e-01	 2.1700261133e+00
 2.1272926712e+00	 3.4996225428e-01	 2.1322231334e+00
 2.1241137102e+00	 3.6876649071e-01	 2.0925881874e+00
 2.1569692549e+00	 1.8289982160e-01	 2.3963349065e+00
 2.1553141161e+00	 2.0146876135e-01	 2.3730151306e+00
 2.1534932180e+00	 2.2008058332e-01	 2.3473903931e+00
 2.1515052462e+00	 2.3873332078e-01	 2.3197511063e+00
 2.1493489123e+00	 2.5742497215e-01	 2.2903022318e+00
 2.1470229552e+00	 2.7615350131e-01	 2.2591667706e+00
 2.1445261420e+00	 2.9491683797e-01	 2.2263912129e+00
 2.1418572687e+00	 3.1371287799e-01	 2.1919531225e+00
 2.1390151617e+00	 3.3253948383e-01	 2.1557710349e+00
 2.1359986781e+00	 3.5139448495e-01	 2.1177168494e+00
 2.1328067071e+00	 3.7027567826e-01	 2.0776308960e+00
 2.1657607347e+00	 1.8364529355e-01	 2.3821754347e+00
 2.1640988498e+00	 2.0228991749e-01	 2.3589999210e+00
 2.1622705300e+00	 2.2097759843e-01	 2.3335428925e+00
 2.1602744555e+00	 2.3970636162e-01	 2.3060998725e+00
 2.1581093328e+00	 2.5847419733e-01	 2.2768719674e+00
 2.1557738954e+00	 2.7727906114e-01	 2.2459688009e+00
 2.1532669055e+00	 2.9611887431e-01	 2.2134134283e+00
 2.1505871544e+00	 3.1499152414e-01	 2.1791494120e+00
 2.1477334633e+00	 3.3389486437e-01	 2.1430502386e+00
 2.1447046850e+00	 3.5282671562e-01	 2.1049312672e+00
 2.1414997040e+00	 3.7178486581e-01	 2.0645713434e+00
 2.1745522145e+00	 1.8439076551e-01	 2.3680501834e+00
 2.1728835834e+00	 2.0311107363e-01	 2.3451079891e+00
 2.1710478420e+00	 2.2187461353e-01	 2.3199417869e+00
 2.1690436649e+00	 2.4067940246e-01	 2.2928469612e+00
 2.1668697532e+00	 2.5952342250e-01	 2.2640153762e+00
 2.1645248356e+00	 2.7840462096e-01	 2.2335377442e+00
 2.1620076691e+00	 2.9732091064e-01	 2.2014079948e+00
 2.1593170400e+00	 3.1627017029e-01	 2.1675298289e+00
 2.1564517649e+00	 3.3525024491e-01	 2.1317256470e+00
 2.1534106919e+00	 3.5425894628e-01	 2.0937480411e+00
 2.1501927009e+00	 3.7329405336e-01	 2.0533229929e+00
 2.1833436942e+00	 1.8513623746e-01	 2.3537899148e+00
 2.1816683171e+00	 2.0393222977e-01	 2.3311642561e+00
 2.1798251540e+00	 2.2277162864e-01	 2.3064087353e+00
 2.1778128742e+00	 2.4165244329e-01	 2.2798135235e+00
 2.1756301736e+00	 2.6057264767e-01	 2.2515560316e+00
 2.1732757758e+00	 2.7953018078e-01	 2.2217027022e+00
 2.1707484326e+00	 2.9852294698e-01	 2.1902128214e+00
 2.1680469256e+00	 3.1754881644e-01	 2.1569445420e+00
 2.1651700666e+00	 3.3660562545e-01	 2.1216633099e+00
 2.1621166988e+00	 3.5569117695e-01	 2.0840528907e+00
 2.1588856978e+00	 3.7480324091e-01	 2.0437929197e+00
 2.1921351740e+00	 1.8588170942e-01	 2.3392288387e+00
 2.1904530508e+00	 2.0475338591e-01	 2.3169972736e+00
 2.1886024660e+00	 2.2366864375e-01	 2.2927691783e+00
 2.1865820835e+00	 2.4262548413e-01	 2.2668246127e+00
 2.1843905940e+00	 2.6162187285e-01	 2.2393214995e+00
 2.1820267160e+00	 2.8065574060e-01	 2.2102968280e+00
 2.1794891962e+00	 2.9972498332e-01	 2.1796698977e+00
 2.1767768112e+00	 3.1882746258e-01	 2.1472477981e+00
 2.1738883682e+00	 3.3796100599e-01	 2.1127333231e+00
 2.1708227057e+00	 3.5712340762e-01	 2.0757355201e+00
 2.1675786947e+00	 3.7631242846e-01	 2.0358920568e+00
 2.2009266538e+00	 1.8662718137e-01	 2.3242045574e+00
 2.1992377845e+00	 2.0557454205e-01	 2.3024391636e+00
 2.1973797780e+00	 2.2456565885e-01	 2.2788522746e+00
 2.1953512928e+00	 2.4359852496e-01	 2.2537091171e+00
 2.1931510145e+00	 2.6267109802e-01	 2.2271432670e+00
 2.1907776561e+00	 2.8178130042e-01	 2.1991572523e+00
 2.1882299597e+00	 3.0092701966e-01	 2.1696252168e+00
 2.1855066969e+00	 3.2010610873e-01	 2.1382978445e+00
 2.1826066698e+00	 3.3931638653e-01	 2.1048097498e+00
 2.1795287126e+00	 3.5855563829e-01	 2.0686895380e+00
 2.1762716916e+00	 3.7782161601e-01	 2.0295351877e+00
 2.2097181336e+00	 1.8737265333e-01	 2.3085580119e+00
 2.2080225182e+00	 2.0639569819e-01	 2.2873255603e+00
 2.2061570900e+00	 2.2546267395e-01	 2.2644908381e+00
 2.2041205021e+00	 2.4457156580e-01	 2.2402996937e+00
 2.2019114349e+00	 2.6372032320e-01	 2.2148566733e+00
 2.1995285963e+00	 2.8290686024e-01	 2.1881250112e+00
 2.1969707233e+00	 3.0212905599e-01	 2.1599287008e+00
 2.1942365825e+00	 3.2138475488e-01	 2.1299568515e+00
 2.1913249715e+00	 3.4067176707e-01	 2.0977705415e+00
 2.1882347194e+00	 3.5998786895e-01	 2.0628123778e+00
 2.1849646885e+00	 3.7933080355e-01	 2.0246408807e+00
 2.2185096134e+00	 1.8811812528e-01	 2.2921334291e+00
 2.2168072519e+00	 2.0721685432e-01	 2.2714955530e+00
 2.2149344020e+00	 2.2635968906e-01	 2.2495212771e+00
 2.2128897114e+00	 2.4554460663e-01	 2.2264327027e+00
 2.2106718553e+00	 2.6476954837e-01	 2.2023008404e+00
 2.2082795365e+00	 2.8403242006e-01	 2.1770449740e+00
 2.2057114868e+00	 3.0333109233e-01	 2.1504341267e+00
 2.2029664681e+00	 3.2266340102e-01	 2.1220908369e+00
 2.2000432731e+00	 3.4202714761e-01	 2.0914974611e+00
 2.1969407263e+00	 3.6142009962e-01	 2.0580052205e+00
 2.1936576854e+00	 3.8083999110e-01	 2.0211314242e+00
 2.2273010932e+00	 1.8886359723e-01	 2.2760317222e+00
 2.2255919856e+00	 2.0803801046e-01	 2.2554477901e+00
 2.2237117139e+00	 2.2725670416e-01	 2.2339338823e+00
 2.2216589208e+00	 2.4651764747e-01	 2.2119481438e+00
 2.2194322757e+00	 2.6581877354e-01	 2.1893186060e+00
 2.2170304767e+00	 2.8515797987e-01	 2.1657657733e+00
 2.2144522504e+00	 3.0453312866e-01	 2.1409990534e+00
 2.2116963537e+00	 3.2394204717e-01	 2.1145695909e+00
 2.2087615747e+00	 3.4338252815e-01	 2.0858760067e+00
 2.2056467332e+00	 3.6285233028e-01	 2.0541729168e+00
 2.2023506823e+00	 3.8234917865e-01	 2.0189327628e+00
 2.1154207133e+00	 3.6725730316e-01	 2.1095349520e+00
 2.1120802188e+00	 3.8600515608e-01	 2.0682716683e+00
 2.1085636212e+00	 4.0477452065e-01	 2.0250596129e+00
 2.1048699183e+00	 4.2356312421e-01	 1.9799577412e+00
 2.1009981432e+00	 4.4236866403e-01	 1.9330177461e+00
 2.0969473653e+00	 4.6118880795e-01	 1.8843310776e+00
 2.0927166911e+00	 4.8002119495e-01	 1.8340341582e+00
 2.0883052653e+00	 4.9886343584e-01	 1.7823125297e+00
 2.0837122714e+00	 5.1771311394e-01	 1.7294037264e+00
 2.0789369326e+00	 5.3656778577e-01	 1.6755986658e+00
 2.0739785129e+00	 5.5542498184e-01	 1.6212413532e+00
 2.1241137102e+00	 3.6876649071e-01	 2.0925881874e+00
 2.1207594885e+00	 3.8759138505e-01	 2.0508274290e+00
 2.1172284400e+00	 4.0643787945e-01	 2.0071669645e+00
 2.1135195584e+00	 4.2530369189e-01	 1.9616561896e+00
 2.1096318728e+00	 4.4418651020e-01	 1.9143663860e+00
 2.1055644488e+00	 4.6308399261e-01	 1.8654081736e+00
 2.1013163893e+00	 4.8199376841e-01	 1.8149374710e+00
 2.0968868355e+00	 5.0091343860e-01	 1.7631603634e+00
 2.0922749673e+00	 5.1984057656e-01	 1.7103366629e+00
 2.0874800050e+00	 5.3877272878e-01	 1.6567819481e+00
 2.0825012094e+00	 5.5770741560e-01	 1.6028678694e+00
 2.1328067071e+00	 3.7027567826e-01	 2.0776308960e+00
 2.1294387581e+00	 3.8917761403e-01	 2.0354922930e+00
 2.1258932587e+00	 4.0810123824e-01	 1.9914438027e+00
 2.1221691984e+00	 4.2704425957e-01	 1.9455440410e+00
 2.1182656023e+00	 4.4600435636e-01	 1.8978830133e+00
 2.1141815323e+00	 4.6497917727e-01	 1.8485898061e+00
 2.1099160876e+00	 4.8396634188e-01	 1.7978393207e+00
 2.1054684056e+00	 5.0296344137e-01	 1.7458578864e+00
 2.1008376632e+00	 5.2196803918e-01	 1.6929275335e+00
 2.0960230774e+00	 5.4097767178e-01	 1.6393887052e+00
 2.0910239059e+00	 5.5998984936e-01	 1.5856411859e+00
 2.1414997040e+00	 3.7178486581e-01	 2.0645713434e+00
 2.1381180278e+00	 3.9076384300e-01	 2.0221916138e+00
 2.1345580774e+00	 4.0976459704e-01	 1.9778429117e+00
 2.1308188384e+00	 4.2878482725e-01	 1.9316023534e+00
 2.1268993319e+00	 4.4782220253e-01	 1.8835775948e+00
 2.1227986158e+00	 4.6687436193e-01	 1.8339152828e+00
 2.1185157858e+00	 4.8593891534e-01	 1.7828085883e+00
 2.1140499757e+00	 5.0501344413e-01	 1.7305035922e+00
 2.1094003591e+00	 5.2409550181e-01	 1.6773042969e+00
 2.1045661498e+00	 5.4318261479e-01	 1.6235760331e+00
 2.0995466025e+00	 5.6227228312e-01	 1.5697470362e+00
 2.1501927009e+00	 3.7329405336e-01	 2.0533229929e+00
 2.1467972974e+00	 3.9235007198e-01	 2.0108546553e+00
 2.1432228962e+00	 4.1142795584e-01	 1.9663208153e+00
 2.1394684784e+00	 4.3052539494e-01	 1.9198157244e+00
 2.1355330615e+00	 4.4964004869e-01	 1.8714634067e+00
 2.1314156994e+00	 4.6876954659e-01	 1.8214269583e+00
 2.1271154840e+00	 4.8791148881e-01	 1.7699169071e+00
 2.1226315458e+00	 5.0706344689e-01	 1.7171983991e+00
 2.1179630551e+00	 5.2622296443e-01	 1.6635969742e+00
 2.1131092222e+00	 5.4538755780e-01	 1.6095026941e+00
 2.1080692990e+00	 5.6455471688e-01	 1.5553723886e+00
 2.1588856978e+00	 3.7480324091e-01	 2.0437929197e+00
 2.1554765671e+00	 3.9393630095e-01	 2.0014145236e+00
 2.1518877149e+00	 4.1309131464e-01	 1.9568377080e+00
 2.1481181185e+00	 4.3226596262e-01	 1.9101722216e+00
 2.1441667910e+00	 4.5145789486e-01	 1.8615569641e+00
 2.1400327829e+00	 4.7066473125e-01	 1.8111701630e+00
 2.1357151822e+00	 4.8988406227e-01	 1.7592385900e+00
 2.1312131160e+00	 5.0911344966e-01	 1.7060455749e+00
 2.1265257510e+00	 5.2835042706e-01	 1.6519375722e+00
 2.1216522946e+00	 5.4759250080e-01	 1.5973290362e+00
 2.1165919955e+00	 5.6683715064e-01	 1.5427053619e+00
 2.1675786947e+00	 3.7631242846e-01	 2.0358920568e+00
 2.1641558367e+00	 3.9552252993e-01	 1.9938080987e+00
 2.1605525337e+00	 4.1475467344e-01	 1.9493573875e+00
 2.1567677585e+00	 4.3400653031e-01	 1.9026633145e+00
 2.1528005206e+00	 4.5327574102e-01	 1.8538779511e+00
 2.1486498664e+00	 4.7255991591e-01	 1.8031931317e+00
 2.1443148804e+00	 4.9185663574e-01	 1.7508505567e+00
 2.1397946861e+00	 5.1116345242e-01	 1.6971506620e+00
 2.1350884469e+00	 5.3047788968e-01	 1.6424600050e+00
 2.1301953670e+00	 5.4979744381e-01	 1.5872169127e+00
 2.1251146921e+00	 5.6911958440e-01	 1.5319351419e+00
 2.1762716916e+00	 3.7782161601e-01	 2.0295351877e+00
 2.1728351064e+00	 3.9710875890e-01	 1.9879759683e+00
 2.1692173524e+00	 4.1641803224e-01	 1.9438471864e+00
 2.1654173985e+00	 4.3574709799e-01	 1.8972838057e+00
 2.1614342502e+00	 4.5509358719e-01	 1.8484491517e+00
 2.1572669499e+00	 4.7445510057e-01	 1.7975469332e+00
 2.1529145786e+00	 4.9382920920e-01	 1.7448322609e+00
 2.1483762562e+00	 5.1321345518e-01	 1.6906214028e+00
 2.1436511428e+00	 5.3260535231e-01	 1.6353000174e+00
 2.1387384394e+00	 5.5200238681e-01	 1.5793296019e+00
 2.1336373886e+00	 5.7140201817e-01	 1.5232518976e+00
 2.1849646885e+00	 3.7933080355e-01	 2.0246408807e+00
 2.1815143761e+00	 3.9869498788e-01	 1.9838623613e+00
 2.1778821711e+00	 4.1808139104e-01	 1.9402779065e+00
 2.1740670386e+00	 4.3748766567e-01	 1.8940317637e+00
 2.1700679797e+00	 4.5691143335e-01	 1.8452963812e+00
 2.1658840334e+00	 4.7635028523e-01	 1.7942853999e+00
 2.1615142768e+00	 4.9580178267e-01	 1.7412656185e+00
 2.1569578264e+00	 5.1526345795e-01	 1.6865676654e+00
 2.1522138388e+00	 5.3473281493e-01	 1.6305951075e+00
 2.1472815118e+00	 5.5420732982e-01	 1.5738317266e+00
 2.1421600852e+00	 5.7368445192e-01	 1.5168466966e+00
 2.1936576854e+00	 3.8083999110e-01	 2.0211314242e+00
 2.1901936457e+00	 4.0028121685e-01	 1.9814150825e+00
 2.1865469899e+00	 4.1974474984e-01	 1.9386237523e+00
 2.1827166786e+00	 4.3922823336e-01	 1.8929084561e+00
 2.1787017093e+00	 4.5872927951e-01	 1.8444484179e+00
 2.1745011169e+00	 4.7824546988e-01	 1.7934650578e+00
 2.1701139750e+00	 4.9777435613e-01	 1.7402349356e+00
 2.1655393965e+00	 5.1731346071e-01	 1.6851013690e+00
 2.1607765347e+00	 5.3686027755e-01	 1.6284844493e+00
 2.1558245842e+00	 5.5641227282e-01	 1.5708891739e+00
 2.1506827817e+00	 5.7596688568e-01	 1.5129114216e+00
 2.2023506823e+00	 3.8234917865e-01	 2.0189327628e+00
 2.1988729154e+00	 4.0186744582e-01	 1.9805854488e+00
 2.1952118086e+00	 4.2140810864e-01	 1.9388622662e+00
 2.1913663186e+00	 4.4096880104e-01	 1.8939182830e+00
 2.1873354389e+00	 4.6054712568e-01	 1.8459369355e+00
 2.1831182005e+00	 4.8014065454e-01	 1.7951450576e+00
 2.1787136732e+00	 4.9974692960e-01	 1.7418268368e+00
 2.1741209666e+00	 5.1936346347e-01	 1.6863364101e+00
 2.1693392306e+00	 5.3898774018e-01	 1.6291088163e+00
 2.1643676566e+00	 5.5861721583e-01	 1.5706690145e+00
 2.1592054782e+00	 5.7824931944e-01	 1.5116386858e+00
 2.0739785129e+00	 5.5542498184e-01	 1.6212413532e+00
 2.0688363181e+00	 5.7428220763e-01	 1.5656546377e+00
 2.0635096983e+00	 5.9313694523e-01	 1.5079141193e+00
 2.0579980469e+00	 6.1198665341e-01	 1.4480680077e+00
 2.0523008014e+00	 6.3082876822e-01	 1.3862059906e+00
 2.0464174439e+00	 6.4966070390e-01	 1.3224482509e+00
 2.0403475018e+00	 6.6847985372e-01	 1.2569316901e+00
 2.0340905489e+00	 6.8728359099e-01	 1.1897932099e+00
 2.0276462055e+00	 7.0606926997e-01	 1.1211499199e+00
 2.0210141399e+00	 7.2483422690e-01	 1.0510761559e+00
 2.0141940681e+00	 7.4357578096e-01	 9.7957442997e-01
 2.0825012094e+00	 5.5770741560e-01	 1.6028678694e+00
 2.0773378836e+00	 5.7664213227e-01	 1.5480100645e+00
 2.0719893748e+00	 5.9557435052e-01	 1.4913062330e+00
 2.0664550742e+00	 6.1450151868e-01	 1.4327321142e+00
 2.0607344167e+00	 6.3342106228e-01	 1.3723097737e+00
 2.0548268824e+00	 6.5233038490e-01	 1.3100970390e+00
 2.0487319969e+00	 6.7122686913e-01	 1.2461740563e+00
 2.0424493319e+00	 6.9010787747e-01	 1.1806268164e+00
 2.0359785066e+00	 7.0897075332e-01	 1.1135275090e+00
 2.0293191874e+00	 7.2781282196e-01	 1.0449115876e+00
 2.0224710896e+00	 7.4663139157e-01	 9.7474111444e-01
 2.0910239059e+00	 5.5998984936e-01	 1.5856411859e+00
 2.0858394491e+00	 5.7900205690e-01	 1.5312006892e+00
 2.0804690514e+00	 5.9801175580e-01	 1.4752002418e+00
 2.0749121014e+00	 6.1701638395e-01	 1.4175529821e+00
 2.0691680320e+00	 6.3601335633e-01	 1.3582235522e+00
 2.0632363210e+00	 6.5500006590e-01	 1.2972179533e+00
 2.0571164919e+00	 6.7397388454e-01	 1.2345704366e+00
 2.0508081150e+00	 6.9293216396e-01	 1.1703272688e+00
 2.0443108076e+00	 7.1187223668e-01	 1.1045272287e+00
 2.0376242350e+00	 7.3079141703e-01	 1.0371787091e+00
 2.0307481111e+00	 7.4968700217e-01	 9.6821171292e-01
 2.0995466025e+00	 5.6227228312e-01	 1.5697470362e+00
 2.0943410145e+00	 5.8136198154e-01	 1.5154396437e+00
 2.0889487279e+00	 6.0044916109e-01	 1.4598346352e+00
 2.0833691287e+00	 6.1953124922e-01	 1.4027921674e+00
 2.0776016473e+00	 6.3860565038e-01	 1.3442294161e+00
 2.0716457595e+00	 6.5766974691e-01	 1.2841108551e+00
 2.0655009870e+00	 6.7672089996e-01	 1.2224354810e+00
 2.0591668981e+00	 6.9575645045e-01	 1.1592208159e+00
 2.0526431086e+00	 7.1477372003e-01	 1.0944835404e+00
 2.0459292826e+00	 7.3377001209e-01	 1.0282166248e+00
 2.0390251327e+00	 7.5274261278e-01	 9.6032549477e-01
 2.1080692990e+00	 5.6455471688e-01	 1.5553723886e+00
 2.1028425800e+00	 5.8372190618e-01	 1.5009408363e+00
 2.0974284045e+00	 6.0288656638e-01	 1.4454482063e+00
 2.0918261560e+00	 6.2204611450e-01	 1.3887110425e+00
 2.0860352626e+00	 6.4119794444e-01	 1.3306087727e+00
 2.0800551981e+00	 6.6033942791e-01	 1.2710744142e+00
 2.0738854820e+00	 6.7946791537e-01	 1.2100821318e+00
 2.0675256811e+00	 6.9858073693e-01	 1.1476314770e+00
 2.0609754097e+00	 7.1767520338e-01	 1.0837281520e+00
 2.0542343302e+00	 7.3674860715e-01	 1.0183611619e+00
 2.0473021542e+00	 7.5579822338e-01	 9.5141638458e-01
 2.1165919955e+00	 5.6683715064e-01	 1.5427053619e+00
 2.1113441455e+00	 5.8608183082e-01	 1.4879188649e+00
 2.1059080810e+00	 6.0532397167e-01	 1.4322799590e+00
 2.1002831832e+00	 6.2456097977e-01	 1.3755706975e+00
 2.0944688779e+00	 6.4379023849e-01	 1.3176422413e+00
 2.0884646366e+00	 6.6300910891e-01	 1.2584059949e+00
 2.0822699771e+00	 6.8221493078e-01	 1.1978214999e+00
 2.0758844642e+00	 7.0140502342e-01	 1.1358809083e+00
 2.0693077107e+00	 7.2057668673e-01	 1.0725898726e+00
 2.0625393777e+00	 7.3972720222e-01	 1.0079447126e+00
 2.0555791757e+00	 7.5885383399e-01	 9.4181302580e-01
 2.1251146921e+00	 5.6911958440e-01	 1.5319351419e+00
 2.1198457110e+00	 5.8844175545e-01	 1.4765889281e+00
 2.1143877576e+00	 6.0776137696e-01	 1.4205690153e+00
 2.1087402105e+00	 6.2707584504e-01	 1.3636318415e+00
 2.1029024933e+00	 6.4638253254e-01	 1.3056095467e+00
 2.0968740752e+00	 6.6567878992e-01	 1.2464015424e+00
 2.0906544721e+00	 6.8496194619e-01	 1.1859627425e+00
 2.0842432473e+00	 7.0422930990e-01	 1.1242882696e+00
 2.0776400117e+00	 7.2347817008e-01	 1.0613944680e+00
 2.0708444253e+00	 7.4270579728e-01	 9.9729624475e-01
 2.0638561973e+00	 7.6190944459e-01	 9.3183884393e-01
 2.1336373886e+00	 5.7140201817e-01	 1.5232518976e+00
 2.1283472765e+00	 5.9080168009e-01	 1.4671667379e+00
 2.1228674341e+00	 6.1019878225e-01	 1.4105545215e+00
 2.1171972378e+00	 6.2959071031e-01	 1.3531547031e+00
 2.1113361086e+00	 6.4897482659e-01	 1.2947894132e+00
 2.1052835137e+00	 6.6834847092e-01	 1.2353554678e+00
 2.0990389672e+00	 6.8770896161e-01	 1.1748129385e+00
 2.0926020303e+00	 7.0705359639e-01	 1.1131700903e+00
 2.0859723127e+00	 7.2637965343e-01	 1.0504645146e+00
 2.0791494729e+00	 7.4568439234e-01	 9.8674054179e-01
 2.0721332188e+00	 7.6496505519e-01	 9.2181210925e-01
 2.1421600852e+00	 5.7368445192e-01	 1.5168466966e+00
 2.1368488419e+00	 5.9316160473e-01	 1.4598684307e+00
 2.1313471107e+00	 6.1263618754e-01	 1.4024755553e+00
 2.1256542650e+00	 6.3210557559e-01	 1.3443989303e+00
 2.1197697239e+00	 6.5156712065e-01	 1.2854594573e+00
 2.1136929523e+00	 6.7101815192e-01	 1.2255605337e+00
 2.1074234623e+00	 6.9045597702e-01	 1.1646769646e+00
 2.1009608134e+00	 7.0987788287e-01	 1.1028401342e+00
 2.0943046138e+00	 7.2928113678e-01	 1.0401192532e+00
 2.0874545204e+00	 7.4866298740e-01	 9.7659640540e-01
 2.0804102403e+00	 7.6802066580e-01	 9.1204599901e-01
 2.1506827817e+00	 5.7596688568e-01	 1.5129114216e+00
 2.1453504074e+00	 5.9552152936e-01	 1.4549104790e+00
 2.1398267872e+00	 6.1507359282e-01	 1.3965710313e+00
 2.1341112923e+00	 6.3462044086e-01	 1.3376234912e+00
 2.1282033392e+00	 6.5415941470e-01	 1.2778960810e+00
 2.1221023909e+00	 6.7368783293e-01	 1.2173077377e+00
 2.1158079573e+00	 6.9320299243e-01	 1.1558573706e+00
 2.1093195965e+00	 7.1270216936e-01	 1.0936092647e+00
 2.1026369148e+00	 7.3218262013e-01	 1.0306744420e+00
 2.0957595680e+00	 7.5164158246e-01	 9.6717750959e-01
 2.0886872619e+00	 7.7107627640e-01	 9.0284865929e-01
 2.1592054782e+00	 5.7824931944e-01	 1.5116386858e+00
 2.1538519729e+00	 5.9788145400e-01	 1.4525096026e+00
 2.1483064638e+00	 6.1751099811e-01	 1.3930796072e+00
 2.1425683196e+00	 6.3713530613e-01	 1.3330865728e+00
 2.1366369545e+00	 6.5675170875e-01	 1.2723743635e+00
 2.1305118294e+00	 6.7635751393e-01	 1.2108861975e+00
 2.1241924524e+00	 6.9595000784e-01	 1.1486542538e+00
 2.1176783796e+00	 7.1552645584e-01	 1.0857853091e+00
 2.1109692158e+00	 7.3508410348e-01	 1.0224422099e+00
 2.1040646156e+00	 7.5462017753e-01	 9.5879252263e-01
 2.0969642834e+00	 7.7413188700e-01	 8.9452326633e-01
 2.0141940681e+00	 7.4357578096e-01	 9.7957442997e-01
 2.0071845475e+00	 7.6229441467e-01	 9.0630312021e-01
 1.9999865349e+00	 7.8098422584e-01	 8.3141475936e-01
 1.9925998934e+00	 7.9964248658e-01	 7.5546080179e-01
 1.9850245367e+00	 8.1826645622e-01	 6.7900502728e-01
 1.9772604297e+00	 8.3685338241e-01	 6.0261489693e-01
 1.9693075891e+00	 8.5540050234e-01	 5.2685193969e-01
 1.9611660834e+00	 8.7390504382e-01	 4.5226116142e-01
 1.9528360339e+00	 8.9236422656e-01	 3.7935947403e-01
 1.9443176149e+00	 9.1077526332e-01	 3.0862314809e-01
 1.9356110540e+00	 9.2913536115e-01	 2.4047429872e-01
 2.0224710896e+00	 7.4663139157e-01	 9.7474111444e-01
 2.0154327645e+00	 7.6542694663e-01	 9.0256919696e-01
 2.0082051727e+00	 7.8419356071e-01	 8.2852334094e-01
 2.0007881769e+00	 8.0292849471e-01	 7.5317306553e-01
 1.9931816905e+00	 8.2162899669e-01	 6.7710287932e-01
 1.9853856781e+00	 8.4029230301e-01	 6.0090354256e-01
 1.9774001565e+00	 8.5891563948e-01	 5.2516233291e-01
 1.9692251945e+00	 8.7749622254e-01	 4.5045230566e-01
 1.9608609140e+00	 8.9603126046e-01	 3.7732054537e-01
 1.9523074899e+00	 9.1451795455e-01	 3.0627541186e-01
 1.9435651507e+00	 9.3295350038e-01	 2.3777278985e-01
 2.0307481111e+00	 7.4968700217e-01	 9.6821171292e-01
 2.0236809814e+00	 7.6855947859e-01	 8.9707958845e-01
 2.0164238106e+00	 7.8740289558e-01	 8.2387009917e-01
 2.0089764605e+00	 8.0621450284e-01	 7.4916273296e-01
 2.0013388443e+00	 8.2499153717e-01	 6.7355463940e-01
 1.9935109265e+00	 8.4373122361e-01	 5.9765180997e-01
 1.9854927239e+00	 8.6243077662e-01	 5.2205923423e-01
 1.9772843057e+00	 8.8108740126e-01	 4.4737002218e-01
 1.9688857941e+00	 8.9969829436e-01	 3.7415348897e-01
 1.9602973649e+00	 9.1826064577e-01	 3.0294220429e-01
 1.9515192474e+00	 9.3677163962e-01	 2.3421801543e-01
 2.0390251327e+00	 7.5274261278e-01	 9.6032549477e-01
 2.0319291984e+00	 7.7169201055e-01	 8.9016615415e-01
 2.0246424484e+00	 7.9061223045e-01	 8.1777914945e-01
 2.0171647441e+00	 8.0950051097e-01	 7.4374592673e-01
 2.0094959981e+00	 8.2835407765e-01	 6.6866827682e-01
 2.0016361750e+00	 8.4717014421e-01	 5.9315944514e-01
 1.9935852914e+00	 8.6594591376e-01	 5.1783418966e-01
 1.9853434169e+00	 8.8467857997e-01	 4.4329777629e-01
 1.9769106742e+00	 9.0336532825e-01	 3.7013390720e-01
 1.9682872398e+00	 9.2200333700e-01	 2.9889158365e-01
 1.9594733441e+00	 9.4058977885e-01	 2.3007091208e-01
 2.0473021542e+00	 7.5579822338e-01	 9.5141638458e-01
 2.0401774154e+00	 7.7482454250e-01	 8.8215547015e-01
 2.0328610863e+00	 7.9382156532e-01	 8.1056938543e-01
 2.0253530277e+00	 8.1278651910e-01	 7.3723360769e-01
 2.0176531519e+00	 8.3171661812e-01	 6.6274665545e-01
 2.0097614234e+00	 8.5060906480e-01	 5.8772113963e-01
 2.0016778588e+00	 8.6946105090e-01	 5.1277373453e-01
 1.9934025280e+00	 8.8826975869e-01	 4.3851405729e-01
 1.9849355543e+00	 9.0703236214e-01	 3.6553245021e-01
 1.9762771148e+00	 9.2574602823e-01	 2.9438666721e-01
 1.9674274408e+00	 9.4440791808e-01	 2.2558747233e-01
 2.0555791757e+00	 7.5885383399e-01	 9.4181302580e-01
 2.0484256324e+00	 7.7795707446e-01	 8.7336889155e-01
 2.0410797241e+00	 7.9703090019e-01	 8.0255454003e-01
 2.0335413113e+00	 8.1607252723e-01	 7.2993163442e-01
 2.0258103058e+00	 8.3507915860e-01	 6.5608759174e-01
 2.0178866718e+00	 8.5404798540e-01	 5.8162658690e-01
 2.0097704262e+00	 8.7297618804e-01	 5.0715944816e-01
 2.0014616392e+00	 8.9186093740e-01	 4.3329243146e-01
 1.9929604344e+00	 9.1069939604e-01	 3.6061486737e-01
 1.9842669898e+00	 9.2948871945e-01	 2.8968568106e-01
 1.9753815375e+00	 9.4822605731e-01	 2.2101879291e-01
 2.0638561973e+00	 7.6190944459e-01	 9.3183884393e-01
 2.0566738494e+00	 7.8108960642e-01	 8.6412261454e-01
 2.0492983620e+00	 8.0024023506e-01	 7.9404324615e-01
 2.0417295949e+00	 8.1935853536e-01	 7.2214082250e-01
 2.0339674596e+00	 8.3844169907e-01	 6.4898391241e-01
 2.0260119202e+00	 8.5748690600e-01	 5.7516053850e-01
 2.0178629937e+00	 8.7649132518e-01	 5.0126800842e-01
 2.0095207504e+00	 8.9545211611e-01	 4.2790159506e-01
 2.0009853145e+00	 9.1436642993e-01	 3.5564205857e-01
 1.9922568647e+00	 9.3323141068e-01	 2.8504200995e-01
 1.9833356342e+00	 9.5204419654e-01	 2.1661112311e-01
 2.0721332188e+00	 7.6496505519e-01	 9.2181210925e-01
 2.0649220664e+00	 7.8422213838e-01	 8.5472773788e-01
 2.0575169999e+00	 8.0344956993e-01	 7.8533909694e-01
 2.0499178784e+00	 8.2264454349e-01	 7.1415700343e-01
 2.0421246134e+00	 8.4180423954e-01	 6.4172351197e-01
 2.0341371686e+00	 8.6092582659e-01	 5.6860285999e-01
 2.0259555611e+00	 8.8000646232e-01	 4.9537124609e-01
 2.0175798615e+00	 8.9904329483e-01	 4.2260542708e-01
 2.0090101946e+00	 9.1803346383e-01	 3.5087012555e-01
 2.0002467397e+00	 9.3697410190e-01	 2.8070424707e-01
 1.9912897309e+00	 9.5586233577e-01	 2.1260591322e-01
 2.0804102403e+00	 7.6802066580e-01	 9.1204599901e-01
 2.0731702834e+00	 7.8735467033e-01	 8.4549032414e-01
 2.0657356377e+00	 8.0665890480e-01	 7.7674070583e-01
 2.0581061620e+00	 8.2593055162e-01	 7.0627108329e-01
 2.0502817672e+00	 8.4516678002e-01	 6.3458940992e-01
 2.0422624170e+00	 8.6436474719e-01	 5.6222858672e-01
 2.0340481285e+00	 8.8352159946e-01	 4.8973619917e-01
 2.0256389727e+00	 9.0263447354e-01	 4.1766304204e-01
 2.0170350748e+00	 9.2170049772e-01	 3.4655042312e-01
 2.0082366147e+00	 9.4071679313e-01	 2.7691624387e-01
 1.9992438276e+00	 9.5968047500e-01	 2.0923986295e-01
 2.0886872619e+00	 7.7107627640e-01	 9.0284865929e-01
 2.0814185003e+00	 7.9048720229e-01	 8.3671146045e-01
 2.0739542756e+00	 8.0986823966e-01	 7.6854176609e-01
 2.0662944456e+00	 8.2921655974e-01	 6.9876910108e-01
 2.0584389210e+00	 8.4852932049e-01	 6.2785980778e-01
 2.0503876654e+00	 8.6780366778e-01	 5.5630797942e-01
 2.0421406960e+00	 8.8703673660e-01	 4.8462516696e-01
 2.0336980839e+00	 9.0622565226e-01	 4.1332884269e-01
 2.0250599549e+00	 9.2536753162e-01	 3.4292961044e-01
 2.0162264897e+00	 9.4445948435e-01	 2.7391715993e-01
 2.0071979243e+00	 9.6349861423e-01	 2.0674496993e-01
 2.0969642834e+00	 7.7413188700e-01	 8.9452326633e-01
 2.0896667173e+00	 7.9361973424e-01	 8.2868731893e-01
 2.0821729134e+00	 8.1307757453e-01	 7.6103111015e-01
 2.0744827292e+00	 8.3250256787e-01	 6.9193228680e-01
 2.0665960749e+00	 8.5189186097e-01	 6.2180814582e-01
 2.0585129138e+00	 8.7124258838e-01	 5.5110657958e-01
 2.0502332634e+00	 8.9055187374e-01	 4.8029576412e-01
 2.0417571950e+00	 9.0981683097e-01	 4.0985257252e-01
 2.0330848350e+00	 9.2903456551e-01	 3.4024970221e-01
 2.0242163646e+00	 9.4820217558e-01	 2.7194151276e-01
 2.0151520210e+00	 9.6731675346e-01	 2.0534857834e-01
 1.9356110540e+00	 9.2913536115e-01	 2.4047429872e-01
 1.9267181602e+00	 9.4743861547e-01	 1.7391582420e-01
 1.9176378033e+00	 9.6568535156e-01	 1.0752620123e-01
 1.9083703716e+00	 9.8387276730e-01	 4.0998314228e-02
 1.8989163076e+00	 1.0019980599e+00	-2.6091500921e-02
 1.8892761086e+00	 1.0200584271e+00	-9.4300768553e-02
 1.8794503267e+00	 1.0380510688e+00	-1.6433894321e-01
 1.8694395692e+00	 1.0559731879e+00	-2.3708618036e-01
 1.8592444984e+00	 1.0738219920e+00	-3.1361274309e-01
 1.8488658317e+00	 1.0915946945e+00	-3.9463495838e-01
 1.8383043418e+00	 1.1092885163e+00	-4.7306169308e-01
 1.9435651507e+00	 9.3295350038e-01	 2.3777278985e-01
 1.9346357129e+00	 9.5133196912e-01	 1.7086308436e-01
 1.9255180417e+00	 9.6965368737e-01	 1.0420662708e-01
 1.9162125269e+00	 9.8791584150e-01	 3.7582127149e-02
 1.9067196129e+00	 1.0061156172e+00	-2.9349620105e-02
 1.8970397989e+00	 1.0242502008e+00	-9.7063512948e-02
 1.8871736395e+00	 1.0423167804e+00	-1.6618870792e-01
 1.8771217444e+00	 1.0603125477e+00	-2.3752791096e-01
 1.8668847785e+00	 1.0782346987e+00	-3.1207732903e-01
 1.8564634622e+00	 1.0960804354e+00	-3.9104720906e-01
 1.8458585715e+00	 1.1138469673e+00	-4.7386902925e-01
 1.9515192474e+00	 9.3677163962e-01	 2.3421801543e-01
 1.9425532656e+00	 9.5522532277e-01	 1.6706103509e-01
 1.9333982801e+00	 9.7362202318e-01	 1.0019813626e-01
 1.9240546822e+00	 9.9195891571e-01	 3.3489998695e-02
 1.9145229181e+00	 1.0102331745e+00	-3.3321668838e-02
 1.9048034893e+00	 1.0284419744e+00	-1.0063237295e-01
 1.8948969523e+00	 1.0465824920e+00	-1.6899389257e-01
 1.8848039195e+00	 1.0646519075e+00	-2.3913408895e-01
 1.8745250585e+00	 1.0826474054e+00	-3.1197740167e-01
 1.8640610927e+00	 1.1005661764e+00	-3.8866595595e-01
 1.8534128012e+00	 1.1184054183e+00	-4.7040695861e-01
 1.9594733441e+00	 9.4058977885e-01	 2.3007091208e-01
 1.9504708183e+00	 9.5911867641e-01	 1.6276511066e-01
 1.9412785184e+00	 9.7759035899e-01	 9.5753450675e-02
 1.9318968375e+00	 9.9600198991e-01	 2.8974798659e-02
 1.9223262234e+00	 1.0143507318e+00	-3.7751698359e-02
 1.9125671796e+00	 1.0326337480e+00	-1.0474531851e-01
 1.9026202651e+00	 1.0508482037e+00	-1.7248331193e-01
 1.8924860946e+00	 1.0689912674e+00	-2.4162122822e-01
 1.8821653385e+00	 1.0870601122e+00	-3.1301395640e-01
 1.8716587232e+00	 1.1050519173e+00	-3.8773740115e-01
 1.8609670309e+00	 1.1229638693e+00	-4.6667252448e-01
 1.9674274408e+00	 9.4440791808e-01	 2.2558747233e-01
 1.9583883710e+00	 9.6301203006e-01	 1.5822576448e-01
 1.9491587568e+00	 9.8155869480e-01	 9.1120222076e-02
 1.9397389928e+00	 1.0000450641e+00	 2.4284183931e-02
 1.9301295287e+00	 1.0184682891e+00	-4.2389169938e-02
 1.9203308700e+00	 1.0368255216e+00	-1.0914598196e-01
 1.9103435779e+00	 1.0551139153e+00	-1.7639175146e-01
 1.9001682698e+00	 1.0733306272e+00	-2.4471217831e-01
 1.8898056186e+00	 1.0914728189e+00	-3.1489474648e-01
 1.8792563537e+00	 1.1095376583e+00	-3.8795096992e-01
 1.8685212605e+00	 1.1275223202e+00	-4.6434058196e-01
 1.9753815375e+00	 9.4822605731e-01	 2.2101879291e-01
 1.9663059237e+00	 9.6690538371e-01	 1.5368851635e-01
 1.9570389952e+00	 9.8552703061e-01	 8.6541079173e-02
 1.9475811480e+00	 1.0040881383e+00	 1.9660646303e-02
 1.9379328339e+00	 1.0225858465e+00	-4.6988905491e-02
 1.9280945603e+00	 1.0410172952e+00	-1.1358360612e-01
 1.9180668907e+00	 1.0593796269e+00	-1.8045991202e-01
 1.9078504449e+00	 1.0776699870e+00	-2.4813606479e-01
 1.8974458986e+00	 1.0958855257e+00	-3.1733421815e-01
 1.8868539842e+00	 1.1140233992e+00	-3.8898329079e-01
 1.8760754902e+00	 1.1320807712e+00	-4.6310530492e-01
 1.9833356342e+00	 9.5204419654e-01	 2.1661112311e-01
 1.9742234764e+00	 9.7079873735e-01	 1.4939399988e-01
 1.9649192336e+00	 9.8949536642e-01	 8.2253674845e-02
 1.9554233033e+00	 1.0081312125e+00	 1.5341560354e-02
 1.9457361392e+00	 1.0267034038e+00	-5.1311038162e-02
 1.9358582506e+00	 1.0452090689e+00	-1.1781299248e-01
 1.9257902035e+00	 1.0636453385e+00	-1.8443435471e-01
 1.9155326200e+00	 1.0820093468e+00	-2.5162822988e-01
 1.9050861787e+00	 1.1002982324e+00	-3.2005344614e-01
 1.8944516148e+00	 1.1185091402e+00	-3.9047662310e-01
 1.8836297199e+00	 1.1366392222e+00	-4.6266818030e-01
 1.9912897309e+00	 9.5586233577e-01	 2.1260591322e-01
 1.9821410291e+00	 9.7469209100e-01	 1.4557800989e-01
 1.9727994719e+00	 9.9346370223e-01	 7.8490733420e-02
 1.9632654586e+00	 1.0121742867e+00	 1.1559231398e-02
 1.9535394444e+00	 1.0308209611e+00	-5.5120962863e-02
 1.9436219410e+00	 1.0494008425e+00	-1.2159444937e-01
 1.9335135163e+00	 1.0679110502e+00	-1.8806744587e-01
 1.9232147951e+00	 1.0863487066e+00	-2.5493017331e-01
 1.9127264587e+00	 1.1047109392e+00	-3.2278006947e-01
 1.9020492453e+00	 1.1229948811e+00	-3.9215133162e-01
 1.8911839496e+00	 1.1411976732e+00	-4.6273788259e-01
 1.9992438276e+00	 9.5968047500e-01	 2.0923986295e-01
 1.9900585818e+00	 9.7858544465e-01	 1.4247154997e-01
 1.9806797103e+00	 9.9743203804e-01	 7.5480098063e-02
 1.9711076139e+00	 1.0162173609e+00	 8.5409435160e-03
 1.9613427497e+00	 1.0349385184e+00	-5.8189286783e-02
 1.9513856313e+00	 1.0535926161e+00	-1.2469374019e-01
 1.9412368291e+00	 1.0721767618e+00	-1.9111730210e-01
 1.9308969703e+00	 1.0906880665e+00	-2.5778949340e-01
 1.9203667388e+00	 1.1091236459e+00	-3.2524822767e-01
 1.9096468758e+00	 1.1274806220e+00	-3.9374055974e-01
 1.8987381793e+00	 1.1457561242e+00	-4.6303014891e-01
 2.0071979243e+00	 9.6349861423e-01	 2.0674496993e-01
 1.9979761345e+00	 9.8247879829e-01	 1.4030088005e-01
 1.9885599487e+00	 1.0014003738e+00	 7.3444778225e-02
 1.9789497692e+00	 1.0202604351e+00	 6.5090076486e-03
 1.9691460550e+00	 1.0390560757e+00	-6.0291779863e-02
 1.9591493217e+00	 1.0577843897e+00	-1.2688203164e-01
 1.9489601419e+00	 1.0764424734e+00	-1.9334773547e-01
 1.9385791454e+00	 1.0950274263e+00	-2.5995982832e-01
 1.9280070188e+00	 1.1135363527e+00	-3.2718968563e-01
 1.9172445063e+00	 1.1319663630e+00	-3.9498402528e-01
 1.9062924090e+00	 1.1503145752e+00	-4.6326765483e-01
 2.0151520210e+00	 9.6731675346e-01	 2.0534857834e-01
 2.0058936872e+00	 9.8637215194e-01	 1.3928756411e-01
 1.9964401871e+00	 1.0053687097e+00	 7.2602997195e-02
 1.9867919245e+00	 1.0243035093e+00	 5.6808097608e-03
 1.9769493602e+00	 1.0431736330e+00	-6.1209325242e-02
 1.9669130120e+00	 1.0619761634e+00	-1.2793584197e-01
 1.9566834547e+00	 1.0807081850e+00	-1.9452819880e-01
 1.9462613205e+00	 1.0993667861e+00	-2.6120079758e-01
 1.9356472989e+00	 1.1179490594e+00	-3.2831310818e-01
 1.9248421368e+00	 1.1364521039e+00	-3.9562790661e-01
 1.9138466387e+00	 1.1548730262e+00	-4.6317989074e-01
 1.8383043418e+00	 1.1092885163e+00	-4.7306169308e-01
 1.8275608570e+00	 1.1269006870e+00	-5.4563573962e-01
 1.8166362624e+00	 1.1444284477e+00	-6.1057395607e-01
 1.8055314987e+00	 1.1618690513e+00	-6.6998817160e-01
 1.7942475614e+00	 1.1792197631e+00	-7.2580964283e-01
 1.7827855005e+00	 1.1964778629e+00	-7.7977751641e-01
 1.7711464208e+00	 1.2136406457e+00	-8.3344135655e-01
 1.7593314809e+00	 1.2307054234e+00	-8.8816591033e-01
 1.7473418936e+00	 1.2476695257e+00	-9.4513808080e-01
 1.7351789251e+00	 1.2645303022e+00	-1.0053760619e+00
 1.7228438950e+00	 1.2812851231e+00	-1.0697405746e+00
 1.8458585715e+00	 1.1138469673e+00	-4.7386902925e-01
 1.8350709380e+00	 1.1315315125e+00	-5.4959233885e-01
 1.8241014505e+00	 1.1491313009e+00	-6.1620152947e-01
 1.8129510535e+00	 1.1666435739e+00	-6.7609291918e-01
 1.8016207465e+00	 1.1840655858e+00	-7.3145814235e-01
 1.7901115841e+00	 1.2013946052e+00	-7.8428416094e-01
 1.7784246753e+00	 1.2186279158e+00	-8.3635560117e-01
 1.7665611837e+00	 1.2357628185e+00	-8.8925940013e-01
 1.7545223270e+00	 1.2527966322e+00	-9.4439173200e-01
 1.7423093767e+00	 1.2697266955e+00	-1.0029671672e+00
 1.7299236577e+00	 1.2865503678e+00	-1.0660300023e+00
 1.8534128012e+00	 1.1184054183e+00	-4.7040695861e-01
 1.8425810190e+00	 1.1361623380e+00	-5.4997429069e-01
 1.8315666385e+00	 1.1538341540e+00	-6.1903465045e-01
 1.8203706082e+00	 1.1714180965e+00	-6.8012114590e-01
 1.8089939316e+00	 1.1889114086e+00	-7.3567534314e-01
 1.7974376676e+00	 1.2063113474e+00	-7.8792178153e-01
 1.7857029298e+00	 1.2236151859e+00	-8.3887014149e-01
 1.7737908865e+00	 1.2408202136e+00	-8.9031979579e-01
 1.7617027605e+00	 1.2579237387e+00	-9.4386671326e-01
 1.7494398283e+00	 1.2749230888e+00	-1.0009126673e+00
 1.7370034204e+00	 1.2918156124e+00	-1.0626766861e+00
 1.8609670309e+00	 1.1229638693e+00	-4.6667252448e-01
 1.8500910999e+00	 1.1407931635e+00	-5.4679306252e-01
 1.8390318265e+00	 1.1585370072e+00	-6.1905720942e-01
 1.8277901629e+00	 1.1761926191e+00	-6.8203500349e-01
 1.8163671167e+00	 1.1937572313e+00	-7.3840768105e-01
 1.8047637511e+00	 1.2112280896e+00	-7.9062729592e-01
 1.7929811843e+00	 1.2286024559e+00	-8.4091874059e-01
 1.7810205893e+00	 1.2458776088e+00	-8.9128422542e-01
 1.7688831939e+00	 1.2630508453e+00	-9.4351018409e-01
 1.7565702799e+00	 1.2801194821e+00	-9.9917655696e-01
 1.7440831831e+00	 1.2970808571e+00	-1.0596683876e+00
 1.8685212605e+00	 1.1275223202e+00	-4.6434058196e-01
 1.8576011809e+00	 1.1454239890e+00	-5.4156805550e-01
 1.8464970146e+00	 1.1632398603e+00	-6.1625515058e-01
 1.8352097176e+00	 1.1809671418e+00	-6.8179886907e-01
 1.8237403018e+00	 1.1986030540e+00	-7.3960391159e-01
 1.8120898346e+00	 1.2161448319e+00	-7.9233995573e-01
 1.8002594388e+00	 1.2335897260e+00	-8.4243742681e-01
 1.7882502922e+00	 1.2509350039e+00	-8.9209192809e-01
 1.7760636274e+00	 1.2681779518e+00	-9.4327117231e-01
 1.7637007315e+00	 1.2853158754e+00	-9.9772436523e-01
 1.7511629458e+00	 1.3023461018e+00	-1.0569939749e+00
 1.8760754902e+00	 1.1320807712e+00	-4.6310530492e-01
 1.8651112619e+00	 1.1500548145e+00	-5.3768586903e-01
 1.8539622026e+00	 1.1679427135e+00	-6.1078922057e-01
 1.8426292723e+00	 1.1857416644e+00	-6.7937922817e-01
 1.8311134869e+00	 1.2034488767e+00	-7.3921499316e-01
 1.8194159182e+00	 1.2210615741e+00	-7.9300123208e-01
 1.8075376933e+00	 1.2385769960e+00	-8.4336438389e-01
 1.7954799950e+00	 1.2559923991e+00	-8.9268415070e-01
 1.7832440609e+00	 1.2733050583e+00	-9.4310047974e-01
 1.7708311831e+00	 1.2905122687e+00	-9.9652307239e-01
 1.7582427084e+00	 1.3076113464e+00	-1.0546433525e+00
 1.8836297199e+00	 1.1366392222e+00	-4.6266818030e-01
 1.8726213429e+00	 1.1546856400e+00	-5.3498230054e-01
 1.8614273907e+00	 1.1726455666e+00	-6.0569359998e-01
 1.8500488270e+00	 1.1905161870e+00	-6.7474455888e-01
 1.8384866720e+00	 1.2082946994e+00	-7.3719397165e-01
 1.8267420017e+00	 1.2259783163e+00	-7.9255470245e-01
 1.8148159478e+00	 1.2435642661e+00	-8.4363984221e-01
 1.8027096978e+00	 1.2610497942e+00	-8.9300404579e-01
 1.7904244943e+00	 1.2784321648e+00	-9.4295058877e-01
 1.7779616348e+00	 1.2957086620e+00	-9.9554102741e-01
 1.7653224711e+00	 1.3128765911e+00	-1.0526073925e+00
 1.8911839496e+00	 1.1411976732e+00	-4.6273788259e-01
 1.8801314239e+00	 1.1593164655e+00	-5.3314910011e-01
 1.8688925787e+00	 1.1773484197e+00	-6.0183898981e-01
 1.8574683818e+00	 1.1952907097e+00	-6.6891381360e-01
 1.8458598571e+00	 1.2131405222e+00	-7.3349586598e-01
 1.8340680852e+00	 1.2308950586e+00	-7.9094593870e-01
 1.8220942023e+00	 1.2485515361e+00	-8.4320597124e-01
 1.8099394007e+00	 1.2661071893e+00	-8.9299657041e-01
 1.7976049278e+00	 1.2835592713e+00	-9.4277556982e-01
 1.7850920864e+00	 1.3009050553e+00	-9.9474786620e-01
 1.7724022338e+00	 1.3181418357e+00	-1.0508778654e+00
 1.8987381793e+00	 1.1457561242e+00	-4.6303014891e-01
 1.8876415049e+00	 1.1639472910e+00	-5.3188543886e-01
 1.8763577667e+00	 1.1820512729e+00	-5.9891292263e-01
 1.8648879365e+00	 1.2000652323e+00	-6.6425285128e-01
 1.8532330423e+00	 1.2179863449e+00	-7.2812953367e-01
 1.8413941687e+00	 1.2358118008e+00	-7.8812239612e-01
 1.8293724569e+00	 1.2535388062e+00	-8.4200677297e-01
 1.8171691035e+00	 1.2711645845e+00	-8.9260838602e-01
 1.8047853612e+00	 1.2886863779e+00	-9.4253098969e-01
 1.7922225380e+00	 1.3061014486e+00	-9.9411443051e-01
 1.7794819965e+00	 1.3234070804e+00	-1.0494473717e+00
 1.9062924090e+00	 1.1503145752e+00	-4.6326765483e-01
 1.8951515858e+00	 1.1685781165e+00	-5.3089777521e-01
 1.8838229548e+00	 1.1867541260e+00	-5.9661048764e-01
 1.8723074912e+00	 1.2048397549e+00	-6.6056680515e-01
 1.8606062274e+00	 1.2228321676e+00	-7.2301145685e-01
 1.8487202523e+00	 1.2407285430e+00	-7.8403330371e-01
 1.8366507114e+00	 1.2585260763e+00	-8.3998797646e-01
 1.8243988063e+00	 1.2762219796e+00	-8.9178775929e-01
 1.8119657947e+00	 1.2938134844e+00	-9.4217382074e-01
 1.7993529896e+00	 1.3112978419e+00	-9.9361268751e-01
 1.7865617592e+00	 1.3286723250e+00	-1.0483092743e+00
 1.9138466387e+00	 1.1548730262e+00	-4.6317989074e-01
 1.9026616668e+00	 1.1732089420e+00	-5.2989972198e-01
 1.8912881428e+00	 1.1914569792e+00	-5.9463418993e-01
 1.8797270459e+00	 1.2096142776e+00	-6.5755198775e-01
 1.8679794125e+00	 1.2276779903e+00	-7.1890560816e-01
 1.8560463358e+00	 1.2456452853e+00	-7.7903246746e-01
 1.8439289659e+00	 1.2635133463e+00	-8.3709693342e-01
 1.8316285092e+00	 1.2812793748e+00	-8.9048446391e-01
 1.8191462282e+00	 1.2989405909e+00	-9.4166235091e-01
 1.8064834412e+00	 1.3164942352e+00	-9.9321565006e-01
 1.7936415219e+00	 1.3339375697e+00	-1.0474576307e+00
 1.7228438950e+00	 1.2812851231e+00	-1.0697405746e+00
 1.7103360360e+00	 1.2979341998e+00	-1.1340121629e+00
 1.6976588619e+00	 1.3144720812e+00	-1.1936180178e+00
 1.6848138569e+00	 1.3308961970e+00	-1.2486989204e+00
 1.6718025565e+00	 1.3472040028e+00	-1.2992596023e+00
 1.6586265470e+00	 1.3633929816e+00	-1.3451893347e+00
 1.6452874651e+00	 1.3794606450e+00	-1.3862840214e+00
 1.6317869967e+00	 1.3954045341e+00	-1.4222696458e+00
 1.6181268767e+00	 1.4112222214e+00	-1.4528269015e+00
 1.6043088881e+00	 1.4269113115e+00	-1.4776168362e+00
 1.5903348611e+00	 1.4424694423e+00	-1.4963073215e+00
 1.7299236577e+00	 1.2865503678e+00	-1.0660300023e+00
 1.7173643996e+00	 1.3032678613e+00	-1.1292889426e+00
 1.7046351306e+00	 1.3198737025e+00	-1.1880096052e+00
 1.6917373410e+00	 1.3363653107e+00	-1.2423703825e+00
 1.6786725726e+00	 1.3527401310e+00	-1.2924123282e+00
 1.6654424184e+00	 1.3689956359e+00	-1.3380603537e+00
 1.6520485216e+00	 1.3851293269e+00	-1.3791459693e+00
 1.6384925751e+00	 1.4011387350e+00	-1.4154314139e+00
 1.6247763209e+00	 1.4170214227e+00	-1.4466350011e+00
 1.6109015494e+00	 1.4327749846e+00	-1.4724575042e+00
 1.5968700983e+00	 1.4483970492e+00	-1.4926093893e+00
 1.7370034204e+00	 1.2918156124e+00	-1.0626766861e+00
 1.7243927632e+00	 1.3086015228e+00	-1.1248445206e+00
 1.7116113993e+00	 1.3252753239e+00	-1.1825830296e+00
 1.6986608251e+00	 1.3418344245e+00	-1.2361200888e+00
 1.6855425888e+00	 1.3582762592e+00	-1.2855443979e+00
 1.6722582897e+00	 1.3745982903e+00	-1.3308272820e+00
 1.6588095780e+00	 1.3907980088e+00	-1.3718460818e+00
 1.6451981534e+00	 1.4068729359e+00	-1.4084089678e+00
 1.6314257651e+00	 1.4228206239e+00	-1.4402810053e+00
 1.6174942106e+00	 1.4386386577e+00	-1.4672112846e+00
 1.6034053354e+00	 1.4543246561e+00	-1.4889609233e+00
 1.7440831831e+00	 1.2970808571e+00	-1.0596683876e+00
 1.7314211267e+00	 1.3139351842e+00	-1.1206919056e+00
 1.7185876679e+00	 1.3306769453e+00	-1.1773723858e+00
 1.7055843091e+00	 1.3473035382e+00	-1.2299989093e+00
 1.6924126049e+00	 1.3638123873e+00	-1.2787189941e+00
 1.6790741611e+00	 1.3802009446e+00	-1.3235610020e+00
 1.6655706344e+00	 1.3964666907e+00	-1.3644581769e+00
 1.6519037317e+00	 1.4126071367e+00	-1.4012741468e+00
 1.6380752093e+00	 1.4286198251e+00	-1.4338297105e+00
 1.6240868719e+00	 1.4445023309e+00	-1.4619307188e+00
 1.6099405725e+00	 1.4602522630e+00	-1.4853968527e+00
 1.7511629458e+00	 1.3023461018e+00	-1.0569939749e+00
 1.7384494903e+00	 1.3192688457e+00	-1.1168447780e+00
 1.7255639366e+00	 1.3360785667e+00	-1.1724120888e+00
 1.7125077932e+00	 1.3527726520e+00	-1.2240577672e+00
 1.6992826210e+00	 1.3693485155e+00	-1.2719991725e+00
 1.6858900324e+00	 1.3858035989e+00	-1.3163321754e+00
 1.6723316909e+00	 1.4021353726e+00	-1.3570558461e+00
 1.6586093101e+00	 1.4183413376e+00	-1.3940986462e+00
 1.6447246534e+00	 1.4344190263e+00	-1.4273459416e+00
 1.6306795332e+00	 1.4503660040e+00	-1.4566686401e+00
 1.6164758097e+00	 1.4661798698e+00	-1.4819527520e+00
 1.7582427084e+00	 1.3076113464e+00	-1.0546433525e+00
 1.7454778539e+00	 1.3246025072e+00	-1.1133174340e+00
 1.7325402052e+00	 1.3414801880e+00	-1.1677368309e+00
 1.7194312773e+00	 1.3582417657e+00	-1.2183476077e+00
 1.7061526372e+00	 1.3748846437e+00	-1.2654478395e+00
 1.6927059038e+00	 1.3914062532e+00	-1.3092112293e+00
 1.6790927473e+00	 1.4078040545e+00	-1.3497124473e+00
 1.6653148884e+00	 1.4240755385e+00	-1.3869540162e+00
 1.6513740976e+00	 1.4402182276e+00	-1.4208945545e+00
 1.6372721944e+00	 1.4562296772e+00	-1.4514781770e+00
 1.6230110468e+00	 1.4721074767e+00	-1.4786648446e+00
 1.7653224711e+00	 1.3128765911e+00	-1.0526073925e+00
 1.7525062174e+00	 1.3299361687e+00	-1.1101247298e+00
 1.7395164739e+00	 1.3468818094e+00	-1.1633815382e+00
 1.7263547614e+00	 1.3637108795e+00	-1.2129193655e+00
 1.7130226533e+00	 1.3804207719e+00	-1.2591277299e+00
 1.6995217752e+00	 1.3970089075e+00	-1.3022683419e+00
 1.6858538038e+00	 1.4134727364e+00	-1.3425010973e+00
 1.6720204668e+00	 1.4298097394e+00	-1.3799116593e+00
 1.6580235418e+00	 1.4460174288e+00	-1.4145404373e+00
 1.6438648557e+00	 1.4620933503e+00	-1.4464127571e+00
 1.6295462840e+00	 1.4780350836e+00	-1.4755700073e+00
 1.7724022338e+00	 1.3181418357e+00	-1.0508778654e+00
 1.7595345810e+00	 1.3352698302e+00	-1.1072820265e+00
 1.7464927426e+00	 1.3522834308e+00	-1.1593813274e+00
 1.7332782455e+00	 1.3691799933e+00	-1.2078239327e+00
 1.7198926695e+00	 1.3859569001e+00	-1.2531013842e+00
 1.7063376465e+00	 1.4026115618e+00	-1.2955734282e+00
 1.6926148602e+00	 1.4191414183e+00	-1.3354946640e+00
 1.6787260451e+00	 1.4355439402e+00	-1.3730428277e+00
 1.6646729859e+00	 1.4518166300e+00	-1.4083485114e+00
 1.6504575170e+00	 1.4679570234e+00	-1.4415261100e+00
 1.6360815211e+00	 1.4839626905e+00	-1.4725946934e+00
 1.7794819965e+00	 1.3234070804e+00	-1.0494473717e+00
 1.7665629446e+00	 1.3406034917e+00	-1.1048051351e+00
 1.7534690112e+00	 1.3576850521e+00	-1.1557714628e+00
 1.7402017296e+00	 1.3746491070e+00	-1.2031121261e+00
 1.7267626856e+00	 1.3914930283e+00	-1.2474311254e+00
 1.7131535179e+00	 1.4082142161e+00	-1.2891961246e+00
 1.6993759167e+00	 1.4248101002e+00	-1.3287657581e+00
 1.6854316234e+00	 1.4412781411e+00	-1.3664186202e+00
 1.6713224301e+00	 1.4576158313e+00	-1.4023837318e+00
 1.6570501782e+00	 1.4738206966e+00	-1.4368722703e+00
 1.6426167583e+00	 1.4898902974e+00	-1.4688729255e+00
 1.7865617592e+00	 1.3286723250e+00	-1.0483092743e+00
 1.7735913081e+00	 1.3459371531e+00	-1.1027102610e+00
 1.7604452799e+00	 1.3630866735e+00	-1.1525873130e+00
 1.7471252137e+00	 1.3801182208e+00	-1.1988346548e+00
 1.7336327017e+00	 1.3970291564e+00	-1.2421790358e+00
 1.7199693892e+00	 1.4138168704e+00	-1.2832057738e+00
 1.7061369731e+00	 1.4304787821e+00	-1.3223867240e+00
 1.6921372018e+00	 1.4470123420e+00	-1.3601099787e+00
 1.6779718743e+00	 1.4634150325e+00	-1.3967110875e+00
 1.6636428395e+00	 1.4796843697e+00	-1.4325055794e+00
 1.6491519954e+00	 1.4958179043e+00	-1.4643443348e+00
 1.7936415219e+00	 1.3339375697e+00	-1.0474576307e+00
 1.7806196717e+00	 1.3512708146e+00	-1.1010139496e+00
 1.7674215486e+00	 1.3684882949e+00	-1.1498643079e+00
 1.7540486977e+00	 1.3855873345e+00	-1.1950420872e+00
 1.7405027179e+00	 1.4025652846e+00	-1.2374069331e+00
 1.7267852606e+00	 1.4194195247e+00	-1.2776714090e+00
 1.7128980295e+00	 1.4361474640e+00	-1.3164296311e+00
 1.6988427801e+00	 1.4527465428e+00	-1.3541876837e+00
 1.6846213184e+00	 1.4692142337e+00	-1.3913956009e+00
 1.6702355008e+00	 1.4855480428e+00	-1.4282287493e+00
 1.6556872326e+00	 1.5017455112e+00	-1.4591669181e+00
 1.5903348611e+00	 1.4424694423e+00	-1.4963073215e+00
 1.5762090829e+00	 1.4578916803e+00	-1.5150225574e+00
 1.5619310921e+00	 1.4731784118e+00	-1.5414387876e+00
 1.5475028298e+00	 1.4883274084e+00	-1.5763494160e+00
 1.5329262812e+00	 1.5033364797e+00	-1.6119592439e+00
 1.5182034744e+00	 1.5182034744e+00	-1.6467748900e+00
 1.5033364797e+00	 1.5329262812e+00	-1.6810322180e+00
 1.4883274084e+00	 1.5475028298e+00	-1.7149454200e+00
 1.4731784118e+00	 1.5619310921e+00	-1.7463683581e+00
 1.4578916803e+00	 1.5762090829e+00	-1.7643133122e+00
 1.4424694423e+00	 1.5903348611e+00	-1.7687197514e+00
 1.5968700983e+00	 1.4483970492e+00	-1.4926093893e+00
 1.5826862724e+00	 1.4638826625e+00	-1.5131572622e+00
 1.5683496083e+00	 1.4792322124e+00	-1.5416780899e+00
 1.5538620553e+00	 1.4944434615e+00	-1.5757878039e+00
 1.5392256065e+00	 1.5095142103e+00	-1.6088975763e+00
 1.5244422987e+00	 1.5244422987e+00	-1.6411072572e+00
 1.5095142103e+00	 1.5392256065e+00	-1.6726048264e+00
 1.4944434615e+00	 1.5538620553e+00	-1.7035567102e+00
 1.4792322124e+00	 1.5683496083e+00	-1.7339527097e+00
 1.4638826625e+00	 1.5826862724e+00	-1.7544217046e+00
 1.4483970492e+00	 1.5968700983e+00	-1.7606812942e+00
 1.6034053354e+00	 1.4543246561e+00	-1.4889609233e+00
 1.5891634618e+00	 1.4698736447e+00	-1.5115227849e+00
 1.5747681245e+00	 1.4852860131e+00	-1.5420016525e+00
 1.5602212807e+00	 1.5005595147e+00	-1.5741394714e+00
 1.5455249319e+00	 1.5156919410e+00	-1.6051063837e+00
 1.5306811229e+00	 1.5306811229e+00	-1.6350760007e+00
 1.5156919410e+00	 1.5455249319e+00	-1.6641833266e+00
 1.5005595147e+00	 1.5602212807e+00	-1.6925420129e+00
 1.4852860131e+00	 1.5747681245e+00	-1.7202615924e+00
 1.4698736447e+00	 1.5891634618e+00	-1.7431381190e+00
 1.4543246561e+00	 1.6034053354e+00	-1.7515897848e+00
 1.6099405725e+00	 1.4602522630e+00	-1.4853968527e+00
 1.5956406512e+00	 1.4758646269e+00	-1.5101339873e+00
 1.5811866407e+00	 1.4913398138e+00	-1.5411774875e+00
 1.5665805062e+00	 1.5066755679e+00	-1.5715426897e+00
 1.5518242573e+00	 1.5218696716e+00	-1.6007070836e+00
 1.5369199472e+00	 1.5369199472e+00	-1.6287865770e+00
 1.5218696716e+00	 1.5518242573e+00	-1.6558581384e+00
 1.5066755679e+00	 1.5665805062e+00	-1.6819776667e+00
 1.4913398138e+00	 1.5811866407e+00	-1.7071978364e+00
 1.4758646269e+00	 1.5956406512e+00	-1.7305843964e+00
 1.4602522630e+00	 1.6099405725e+00	-1.7415477013e+00
 1.6164758097e+00	 1.4661798698e+00	-1.4819527520e+00
 1.6021178406e+00	 1.4818556091e+00	-1.5090038763e+00
 1.5876051569e+00	 1.4973936145e+00	-1.5392305221e+00
 1.5729397317e+00	 1.5127916210e+00	-1.5681313083e+00
 1.5581235827e+00	 1.5280474023e+00	-1.5958169531e+00
 1.5431587715e+00	 1.5431587715e+00	-1.6223405698e+00
 1.5280474023e+00	 1.5581235827e+00	-1.6477160613e+00
 1.5127916210e+00	 1.5729397317e+00	-1.6719366255e+00
 1.4973936145e+00	 1.5876051569e+00	-1.6949932329e+00
 1.4818556091e+00	 1.6021178406e+00	-1.7168929372e+00
 1.4661798698e+00	 1.6164758097e+00	-1.7306640595e+00
 1.6230110468e+00	 1.4721074767e+00	-1.4786648446e+00
 1.6085950301e+00	 1.4878465913e+00	-1.5073231403e+00
 1.5940236731e+00	 1.5034474152e+00	-1.5363073782e+00
 1.5792989572e+00	 1.5189076742e+00	-1.5640348199e+00
 1.5644229081e+00	 1.5342251329e+00	-1.5905491927e+00
 1.5493975958e+00	 1.5493975958e+00	-1.6158357530e+00
 1.5342251329e+00	 1.5644229081e+00	-1.6398403365e+00
 1.5189076742e+00	 1.5792989572e+00	-1.6624885201e+00
 1.5034474152e+00	 1.5940236731e+00	-1.6837047521e+00
 1.4878465913e+00	 1.6085950301e+00	-1.7034313087e+00
 1.4721074767e+00	 1.6230110468e+00	-1.7190537645e+00
 1.6295462840e+00	 1.4780350836e+00	-1.4755700073e+00
 1.6150722195e+00	 1.4938375735e+00	-1.5045563373e+00
 1.6004421894e+00	 1.5095012159e+00	-1.5325500951e+00
 1.5856581827e+00	 1.5250237274e+00	-1.5593784251e+00
 1.5707222335e+00	 1.5404028635e+00	-1.5850129896e+00
 1.5556364200e+00	 1.5556364200e+00	-1.6093661528e+00
 1.5404028635e+00	 1.5707222335e+00	-1.6323107085e+00
 1.5250237274e+00	 1.5856581827e+00	-1.6536997188e+00
 1.5095012159e+00	 1.6004421894e+00	-1.6733863189e+00
 1.4938375735e+00	 1.6150722195e+00	-1.6912433386e+00
 1.4780350836e+00	 1.6295462840e+00	-1.7068369643e+00
 1.6360815211e+00	 1.4839626905e+00	-1.4725946934e+00
 1.6215494089e+00	 1.4998285557e+00	-1.5008583266e+00
 1.6068607056e+00	 1.5155550166e+00	-1.5280961950e+00
 1.5920174081e+00	 1.5311397805e+00	-1.5542830969e+00
 1.5770215589e+00	 1.5465805942e+00	-1.5793135814e+00
 1.5618752443e+00	 1.5618752443e+00	-1.6030221110e+00
 1.5465805942e+00	 1.5770215589e+00	-1.6252034875e+00
 1.5311397805e+00	 1.5920174081e+00	-1.6456333902e+00
 1.5155550166e+00	 1.6068607056e+00	-1.6640888745e+00
 1.4998285557e+00	 1.6215494089e+00	-1.6803686806e+00
 1.4839626905e+00	 1.6360815211e+00	-1.6943132035e+00
 1.6426167583e+00	 1.4898902974e+00	-1.4688729255e+00
 1.6280265984e+00	 1.5058195380e+00	-1.4963792188e+00
 1.6132792218e+00	 1.5216088173e+00	-1.5230787495e+00
 1.5983766336e+00	 1.5372558337e+00	-1.5488656458e+00
 1.5833208843e+00	 1.5527583248e+00	-1.5735523203e+00
 1.5681140686e+00	 1.5681140686e+00	-1.5968903477e+00
 1.5527583248e+00	 1.5833208843e+00	-1.6185916121e+00
 1.5372558337e+00	 1.5983766336e+00	-1.6383495645e+00
 1.5216088173e+00	 1.6132792218e+00	-1.6558604379e+00
 1.5058195380e+00	 1.6280265984e+00	-1.6708442636e+00
 1.4898902974e+00	 1.6426167583e+00	-1.6830655360e+00
 1.6491519954e+00	 1.4958179043e+00	-1.4643443348e+00
 1.6345037878e+00	 1.5118105202e+00	-1.4912644422e+00
 1.6196977380e+00	 1.5276626180e+00	-1.5176264445e+00
 1.6047358591e+00	 1.5433718869e+00	-1.5432387842e+00
 1.5896202097e+00	 1.5589360555e+00	-1.5678267363e+00
 1.5743528929e+00	 1.5743528929e+00	-1.5910540250e+00
 1.5589360555e+00	 1.5896202097e+00	-1.6125447119e+00
 1.5433718869e+00	 1.6047358591e+00	-1.6319051967e+00
 1.5276626180e+00	 1.6196977380e+00	-1.6487461692e+00
 1.5118105202e+00	 1.6345037878e+00	-1.6627043547e+00
 1.4958179043e+00	 1.6491519954e+00	-1.6734638942e+00
 1.6556872326e+00	 1.5017455112e+00	-1.4591669181e+00
 1.6409809772e+00	 1.5178015024e+00	-1.4856548096e+00
 1.6261162542e+00	 1.5337164186e+00	-1.5118636463e+00
 1.6110950846e+00	 1.5494879400e+00	-1.5375111910e+00
 1.5959195351e+00	 1.5651137861e+00	-1.5622306019e+00
 1.5805917172e+00	 1.5805917172e+00	-1.5855928098e+00
 1.5651137861e+00	 1.5959195351e+00	-1.6071291703e+00
 1.5494879400e+00	 1.6110950846e+00	-1.6263542288e+00
 1.5337164186e+00	 1.6261162542e+00	-1.6427884316e+00
 1.5178015024e+00	 1.6409809772e+00	-1.6559806217e+00
 1.5017455112e+00	 1.6556872326e+00	-1.6655301555e+00
 1.4424694423e+00	 1.5903348611e+00	-1.7687197514e+00
 1.4269113115e+00	 1.6043088881e+00	-1.7661138881e+00
 1.4112222214e+00	 1.6181268767e+00	-1.7621590439e+00
 1.3954045341e+00	 1.6317869967e+00	-1.7571864363e+00
 1.3794606450e+00	 1.6452874651e+00	-1.7515845299e+00
 1.3633929816e+00	 1.6586265470e+00	-1.7458154479e+00
 1.3472040028e+00	 1.6718025565e+00	-1.7404317013e+00
 1.3308961970e+00	 1.6848138569e+00	-1.7360930573e+00
 1.3144720812e+00	 1.6976588619e+00	-1.7335833678e+00
 1.2979341998e+00	 1.7103360360e+00	-1.7338271766e+00
 1.2812851231e+00	 1.7228438950e+00	-1.7379059233e+00
 1.4483970492e+00	 1.5968700983e+00	-1.7606812942e+00
 1.4327749846e+00	 1.6109015494e+00	-1.7593753954e+00
 1.4170214227e+00	 1.6247763209e+00	-1.7563167948e+00
 1.4011387350e+00	 1.6384925751e+00	-1.7518964663e+00
 1.3851293269e+00	 1.6520485216e+00	-1.7465573557e+00
 1.3689956359e+00	 1.6654424184e+00	-1.7408114166e+00
 1.3527401310e+00	 1.6786725726e+00	-1.7352569938e+00
 1.3363653107e+00	 1.6917373410e+00	-1.7305963675e+00
 1.3198737025e+00	 1.7046351306e+00	-1.7276532746e+00
 1.3032678613e+00	 1.7173643996e+00	-1.7273902193e+00
 1.2865503678e+00	 1.7299236577e+00	-1.7309253855e+00
 1.4543246561e+00	 1.6034053354e+00	-1.7515897848e+00
 1.4386386577e+00	 1.6174942106e+00	-1.7518682230e+00
 1.4228206239e+00	 1.6314257651e+00	-1.7499146869e+00
 1.4068729359e+00	 1.6451981534e+00	-1.7461869066e+00
 1.3907980088e+00	 1.6588095780e+00	-1.7411895539e+00
 1.3745982903e+00	 1.6722582897e+00	-1.7354919143e+00
 1.3582762592e+00	 1.6855425888e+00	-1.7297459335e+00
 1.3418344245e+00	 1.6986608251e+00	-1.7247044495e+00
 1.3252753239e+00	 1.7116113993e+00	-1.7212394170e+00
 1.3086015228e+00	 1.7243927632e+00	-1.7203599327e+00
 1.2918156124e+00	 1.7370034204e+00	-1.7232298668e+00
 1.4602522630e+00	 1.6099405725e+00	-1.7415477013e+00
 1.4445023309e+00	 1.6240868719e+00	-1.7436785267e+00
 1.4286198251e+00	 1.6380752093e+00	-1.7430271044e+00
 1.4126071367e+00	 1.6519037317e+00	-1.7401248031e+00
 1.3964666907e+00	 1.6655706344e+00	-1.7355451404e+00
 1.3802009446e+00	 1.6790741611e+00	-1.7299221018e+00
 1.3638123873e+00	 1.6924126049e+00	-1.7239688620e+00
 1.3473035382e+00	 1.7055843091e+00	-1.7184967152e+00
 1.3306769453e+00	 1.7185876679e+00	-1.7144340156e+00
 1.3139351842e+00	 1.7314211267e+00	-1.7128449281e+00
 1.2970808571e+00	 1.7440831831e+00	-1.7149477906e+00
 1.4661798698e+00	 1.6164758097e+00	-1.7306640595e+00
 1.4503660040e+00	 1.6306795332e+00	-1.7348992130e+00
 1.4344190263e+00	 1.6447246534e+00	-1.7357353580e+00
 1.4183413376e+00	 1.6586093101e+00	-1.7337842658e+00
 1.4021353726e+00	 1.6723316909e+00	-1.7296952944e+00
 1.3858035989e+00	 1.6858900324e+00	-1.7241743639e+00
 1.3693485155e+00	 1.6992826210e+00	-1.7180033660e+00
 1.3527726520e+00	 1.7125077932e+00	-1.7120598039e+00
 1.3360785667e+00	 1.7255639366e+00	-1.7073364604e+00
 1.3192688457e+00	 1.7384494903e+00	-1.7049608877e+00
 1.3023461018e+00	 1.7511629458e+00	-1.7062145121e+00
 1.4721074767e+00	 1.6230110468e+00	-1.7190537645e+00
 1.4562296772e+00	 1.6372721944e+00	-1.7256292965e+00
 1.4402182276e+00	 1.6513740976e+00	-1.7281270488e+00
 1.4240755385e+00	 1.6653148884e+00	-1.7272458418e+00
 1.4078040545e+00	 1.6790927473e+00	-1.7237177416e+00
 1.3914062532e+00	 1.6927059038e+00	-1.7183277051e+00
 1.3748846437e+00	 1.7061526372e+00	-1.7119336878e+00
 1.3582417657e+00	 1.7194312773e+00	-1.7054870076e+00
 1.3414801880e+00	 1.7325402052e+00	-1.7000527536e+00
 1.3246025072e+00	 1.7454778539e+00	-1.6968300267e+00
 1.3076113464e+00	 1.7582427084e+00	-1.6971718000e+00
 1.4780350836e+00	 1.6295462840e+00	-1.7068369643e+00
 1.4620933503e+00	 1.6438648557e+00	-1.7159732579e+00
 1.4460174288e+00	 1.6580235418e+00	-1.7202954335e+00
 1.4298097394e+00	 1.6720204668e+00	-1.7205958888e+00
 1.4134727364e+00	 1.6858538038e+00	-1.7176961393e+00
 1.3970089075e+00	 1.6995217752e+00	-1.7124671460e+00
 1.3804207719e+00	 1.7130226533e+00	-1.7058501349e+00
 1.3637108795e+00	 1.7263547614e+00	-1.6988776973e+00
 1.3468818094e+00	 1.7395164739e+00	-1.6926949526e+00
 1.3299361687e+00	 1.7525062174e+00	-1.6885805539e+00
 1.3128765911e+00	 1.7653224711e+00	-1.6879673179e+00
 1.4839626905e+00	 1.6360815211e+00	-1.6943132035e+00
 1.4679570234e+00	 1.6504575170e+00	-1.7060404028e+00
 1.4518166300e+00	 1.6646729859e+00	-1.7123387904e+00
 1.4355439402e+00	 1.6787260451e+00	-1.7139259495e+00
 1.4191414183e+00	 1.6926148602e+00	-1.7117194602e+00
 1.4026115618e+00	 1.7063376465e+00	-1.7066831203e+00
 1.3859569001e+00	 1.7198926695e+00	-1.6998484912e+00
 1.3691799933e+00	 1.7332782455e+00	-1.6923367484e+00
 1.3522834308e+00	 1.7464927426e+00	-1.6853806123e+00
 1.3352698302e+00	 1.7595345810e+00	-1.6803461333e+00
 1.3181418357e+00	 1.7724022338e+00	-1.6787541051e+00
 1.4898902974e+00	 1.6426167583e+00	-1.6830655360e+00
 1.4738206966e+00	 1.6570501782e+00	-1.6959442204e+00
 1.4576158313e+00	 1.6713224301e+00	-1.7043597845e+00
 1.4412781411e+00	 1.6854316234e+00	-1.7073321265e+00
 1.4248101002e+00	 1.6993759167e+00	-1.7058813780e+00
 1.4082142161e+00	 1.7131535179e+00	-1.7010708717e+00
 1.3914930283e+00	 1.7267626856e+00	-1.6940294273e+00
 1.3746491070e+00	 1.7402017296e+00	-1.6859739667e+00
 1.3576850521e+00	 1.7534690112e+00	-1.6782322279e+00
 1.3406034917e+00	 1.7665629446e+00	-1.6722653443e+00
 1.3234070804e+00	 1.7794819965e+00	-1.6696900567e+00
 1.4958179043e+00	 1.6491519954e+00	-1.6734638942e+00
 1.4796843697e+00	 1.6636428395e+00	-1.6858017438e+00
 1.4634150325e+00	 1.6779718743e+00	-1.6964648352e+00
 1.4470123420e+00	 1.6921372018e+00	-1.7009144574e+00
 1.4304787821e+00	 1.7061369731e+00	-1.7002796530e+00
 1.4138168704e+00	 1.7199693892e+00	-1.6957298518e+00
 1.3970291564e+00	 1.7336327017e+00	-1.6884979118e+00
 1.3801182208e+00	 1.7471252137e+00	-1.6799035146e+00
 1.3630866735e+00	 1.7604452799e+00	-1.6713766775e+00
 1.3459371531e+00	 1.7735913081e+00	-1.6644811427e+00
 1.3286723250e+00	 1.7865617592e+00	-1.6609374035e+00
 1.5017455112e+00	 1.6556872326e+00	-1.6655301555e+00
 1.4855480428e+00	 1.6702355008e+00	-1.6761557283e+00
 1.4692142337e+00	 1.6846213184e+00	-1.6887634826e+00
 1.4527465428e+00	 1.6988427801e+00	-1.6947762909e+00
 1.4361474640e+00	 1.7128980295e+00	-1.6950155180e+00
 1.4194195247e+00	 1.7267852606e+00	-1.6907631174e+00
 1.4025652846e+00	 1.7405027179e+00	-1.6833626223e+00
 1.3855873345e+00	 1.7540486977e+00	-1.6742433371e+00
 1.3684882949e+00	 1.7674215486e+00	-1.6649446644e+00
 1.3512708146e+00	 1.7806196717e+00	-1.6571403206e+00
 1.3339375697e+00	 1.7936415219e+00	-1.6526621915e+00
 1.2812851231e+00	 1.7228438950e+00	-1.7379059233e+00
 1.2645303022e+00	 1.7351789251e+00	-1.7401788792e+00
 1.2476695257e+00	 1.7473418936e+00	-1.7344913595e+00
 1.2307054234e+00	 1.7593314809e+00	-1.7214037372e+00
 1.2136406457e+00	 1.7711464208e+00	-1.7016558269e+00
 1.1964778629e+00	 1.7827855005e+00	-1.6761801345e+00
 1.1792197631e+00	 1.7942475614e+00	-1.6461137385e+00
 1.1618690513e+00	 1.8055314987e+00	-1.6128086585e+00
 1.1444284477e+00	 1.8166362624e+00	-1.5778405764e+00
 1.1269006870e+00	 1.8275608570e+00	-1.5430157855e+00
 1.1092885163e+00	 1.8383043418e+00	-1.5104046387e+00
 1.2865503678e+00	 1.7299236577e+00	-1.7309253855e+00
 1.2697266955e+00	 1.7423093767e+00	-1.7324532619e+00
 1.2527966322e+00	 1.7545223270e+00	-1.7257293170e+00
 1.2357628185e+00	 1.7665611837e+00	-1.7114714689e+00
 1.2186279158e+00	 1.7784246753e+00	-1.6905889069e+00
 1.2013946052e+00	 1.7901115841e+00	-1.6641957516e+00
 1.1840655858e+00	 1.8016207465e+00	-1.6336233048e+00
 1.1666435739e+00	 1.8129510535e+00	-1.6004307390e+00
 1.1491313009e+00	 1.8241014505e+00	-1.5664140866e+00
 1.1315315125e+00	 1.8350709380e+00	-1.5336134015e+00
 1.1138469673e+00	 1.8458585715e+00	-1.5043179762e+00
 1.2918156124e+00	 1.7370034204e+00	-1.7232298668e+00
 1.2749230888e+00	 1.7494398283e+00	-1.7239432686e+00
 1.2579237387e+00	 1.7617027605e+00	-1.7162205914e+00
 1.2408202136e+00	 1.7737908865e+00	-1.7009319101e+00
 1.2236151859e+00	 1.7857029298e+00	-1.6791499388e+00
 1.2063113474e+00	 1.7974376676e+00	-1.6521641360e+00
 1.1889114086e+00	 1.8089939316e+00	-1.6214933578e+00
 1.1714180965e+00	 1.8203706082e+00	-1.5888969020e+00
 1.1538341540e+00	 1.8315666385e+00	-1.5563838006e+00
 1.1361623380e+00	 1.8425810190e+00	-1.5262202257e+00
 1.1184054183e+00	 1.8534128012e+00	-1.5008413770e+00
 1.2970808571e+00	 1.7440831831e+00	-1.7149477906e+00
 1.2801194821e+00	 1.7565702799e+00	-1.7147953255e+00
 1.2630508453e+00	 1.7688831939e+00	-1.7061226981e+00
 1.2458776088e+00	 1.7810205893e+00	-1.6899467705e+00
 1.2286024559e+00	 1.7929811843e+00	-1.6674979551e+00
 1.2112280896e+00	 1.8047637511e+00	-1.6402348012e+00
 1.1937572313e+00	 1.8163671167e+00	-1.6098570855e+00
 1.1761926191e+00	 1.8277901629e+00	-1.5783172468e+00
 1.1585370072e+00	 1.8390318265e+00	-1.5478300139e+00
 1.1407931635e+00	 1.8500910999e+00	-1.5208800929e+00
 1.1229638693e+00	 1.8609670309e+00	-1.4970255616e+00
 1.3023461018e+00	 1.7511629458e+00	-1.7062145121e+00
 1.2853158754e+00	 1.7637007315e+00	-1.7051626918e+00
 1.2681779518e+00	 1.7760636274e+00	-1.6956000067e+00
 1.2509350039e+00	 1.7882502922e+00	-1.6786847508e+00
 1.2335897260e+00	 1.8002594388e+00	-1.6557992293e+00
 1.2161448319e+00	 1.8120898346e+00	-1.6285648605e+00
 1.1986030540e+00	 1.8237403018e+00	-1.5988557406e+00
 1.1809671418e+00	 1.8352097176e+00	-1.5688105021e+00
 1.1632398603e+00	 1.8464970146e+00	-1.5408423149e+00
 1.1454239890e+00	 1.8576011809e+00	-1.5166006581e+00
 1.1275223202e+00	 1.8685212605e+00	-1.4918004266e+00
 1.3076113464e+00	 1.7582427084e+00	-1.6971718000e+00
 1.2905122687e+00	 1.7708311831e+00	-1.6952049614e+00
 1.2733050583e+00	 1.7832440609e+00	-1.6848232604e+00
 1.2559923991e+00	 1.7954799950e+00	-1.6673210795e+00
 1.2385769960e+00	 1.8075376933e+00	-1.6442268269e+00
 1.2210615741e+00	 1.8194159182e+00	-1.6173185911e+00
 1.2034488767e+00	 1.8311134869e+00	-1.5886382136e+00
 1.1857416644e+00	 1.8426292723e+00	-1.5605036093e+00
 1.1679427135e+00	 1.8539622026e+00	-1.5354075448e+00
 1.1500548145e+00	 1.8651112619e+00	-1.5111742167e+00
 1.1320807712e+00	 1.8760754902e+00	-1.4855872660e+00
 1.3128765911e+00	 1.7653224711e+00	-1.6879673179e+00
 1.2957086620e+00	 1.7779616348e+00	-1.6850875642e+00
 1.2784321648e+00	 1.7904244943e+00	-1.6739690956e+00
 1.2610497942e+00	 1.8027096978e+00	-1.6560370476e+00
 1.2435642661e+00	 1.8148159478e+00	-1.6329601550e+00
 1.2259783163e+00	 1.8267420017e+00	-1.6066669951e+00
 1.2082946994e+00	 1.8384866720e+00	-1.5793606061e+00
 1.1905161870e+00	 1.8500488270e+00	-1.5535313042e+00
 1.1726455666e+00	 1.8614273907e+00	-1.5297003482e+00
 1.1546856400e+00	 1.8726213429e+00	-1.5049249017e+00
 1.1366392222e+00	 1.8836297199e+00	-1.4787969446e+00
 1.3181418357e+00	 1.7724022338e+00	-1.6787541051e+00
 1.3009050553e+00	 1.7850920864e+00	-1.6749812661e+00
 1.2835592713e+00	 1.7976049278e+00	-1.6632195596e+00
 1.2661071893e+00	 1.8099394007e+00	-1.6450195428e+00
 1.2485515361e+00	 1.8220942023e+00	-1.6221845100e+00
 1.2308950586e+00	 1.8340680852e+00	-1.5967873612e+00
 1.2131405222e+00	 1.8458598571e+00	-1.5711858025e+00
 1.1952907097e+00	 1.8574683818e+00	-1.5474279699e+00
 1.1773484197e+00	 1.8688925787e+00	-1.5233745556e+00
 1.1593164655e+00	 1.8801314239e+00	-1.4982728233e+00
 1.1411976732e+00	 1.8911839496e+00	-1.4718300568e+00
 1.3234070804e+00	 1.7794819965e+00	-1.6696900567e+00
 1.3061014486e+00	 1.7922225380e+00	-1.6650616690e+00
 1.2886863779e+00	 1.8047853612e+00	-1.6527616281e+00
 1.2711645845e+00	 1.8171691035e+00	-1.6344605830e+00
 1.2535388062e+00	 1.8293724569e+00	-1.6120906261e+00
 1.2358118008e+00	 1.8413941687e+00	-1.5878628244e+00
 1.2179863449e+00	 1.8532330423e+00	-1.5642563616e+00
 1.2000652323e+00	 1.8648879365e+00	-1.5410109776e+00
 1.1820512729e+00	 1.8763577667e+00	-1.5168535436e+00
 1.1639472910e+00	 1.8876415049e+00	-1.4916275475e+00
 1.1457561242e+00	 1.8987381793e+00	-1.4650770850e+00
 1.3286723250e+00	 1.7865617592e+00	-1.6609374035e+00
 1.3112978419e+00	 1.7993529896e+00	-1.6555087092e+00
 1.2938134844e+00	 1.8119657947e+00	-1.6427867215e+00
 1.2762219796e+00	 1.8243988063e+00	-1.6245568483e+00
 1.2585260763e+00	 1.8366507114e+00	-1.6028742205e+00
 1.2407285430e+00	 1.8487202523e+00	-1.5800819246e+00
 1.2228321676e+00	 1.8606062274e+00	-1.5577659572e+00
 1.2048397549e+00	 1.8723074912e+00	-1.5346325262e+00
 1.1867541260e+00	 1.8838229548e+00	-1.5105499788e+00
 1.1685781165e+00	 1.8951515858e+00	-1.4853882654e+00
 1.1503145752e+00	 1.9062924090e+00	-1.4589185566e+00
 1.3339375697e+00	 1.7936415219e+00	-1.6526621915e+00
 1.3164942352e+00	 1.8064834412e+00	-1.6465061563e+00
 1.2989405909e+00	 1.8191462282e+00	-1.6334902207e+00
 1.2812793748e+00	 1.8316285092e+00	-1.6155092122e+00
 1.2635133463e+00	 1.8439289659e+00	-1.5947355396e+00
 1.2456452853e+00	 1.8560463358e+00	-1.5734682921e+00
 1.2276779903e+00	 1.8679794125e+00	-1.5515668143e+00
 1.2096142776e+00	 1.8797270459e+00	-1.5287026963e+00
 1.1914569792e+00	 1.8912881428e+00	-1.5048659963e+00
 1.1732089420e+00	 1.9026616668e+00	-1.4799439613e+00
 1.1548730262e+00	 1.9138466387e+00	-1.4537252017e+00
 1.1092885163e+00	 1.8383043418e+00	-1.5104046387e+00
 1.0915946945e+00	 1.8488658317e+00	-1.4828199701e+00
 1.0738219920e+00	 1.8592444984e+00	-1.4601592244e+00
 1.0559731879e+00	 1.8694395692e+00	-1.4360226834e+00
 1.0380510688e+00	 1.8794503267e+00	-1.4099302968e+00
 1.0200584271e+00	 1.8892761086e+00	-1.3817080992e+00
 1.0019980599e+00	 1.8989163076e+00	-1.3510585711e+00
 9.8387276730e-01	 1.9083703716e+00	-1.3175781210e+00
 9.6568535156e-01	 1.9176378033e+00	-1.2807740701e+00
 9.4743861547e-01	 1.9267181602e+00	-1.2400810649e+00
 9.2913536115e-01	 1.9356110540e+00	-1.1948768501e+00
 1.1138469673e+00	 1.8458585715e+00	-1.5043179762e+00
 1.0960804354e+00	 1.8564634622e+00	-1.4796164919e+00
 1.0782346987e+00	 1.8668847785e+00	-1.4548171373e+00
 1.0603125477e+00	 1.8771217444e+00	-1.4286216240e+00
 1.0423167804e+00	 1.8871736395e+00	-1.4010053682e+00
 1.0242502008e+00	 1.8970397989e+00	-1.3717955322e+00
 1.0061156172e+00	 1.9067196129e+00	-1.3406894147e+00
 9.8791584150e-01	 1.9162125269e+00	-1.3072724129e+00
 9.6965368737e-01	 1.9255180417e+00	-1.2710354715e+00
 9.5133196912e-01	 1.9346357129e+00	-1.2313919427e+00
 9.3295350038e-01	 1.9435651507e+00	-1.1876937868e+00
 1.1184054183e+00	 1.8534128012e+00	-1.5008413770e+00
 1.1005661764e+00	 1.8640610927e+00	-1.4753315202e+00
 1.0826474054e+00	 1.8745250585e+00	-1.4483069518e+00
 1.0646519075e+00	 1.8848039195e+00	-1.4203356720e+00
 1.0465824920e+00	 1.8948969523e+00	-1.3913996283e+00
 1.0284419744e+00	 1.9048034893e+00	-1.3613262052e+00
 1.0102331745e+00	 1.9145229181e+00	-1.3298071139e+00
 9.9195891571e-01	 1.9240546822e+00	-1.2964168387e+00
 9.7362202318e-01	 1.9333982801e+00	-1.2606305531e+00
 9.5522532277e-01	 1.9425532656e+00	-1.2218414285e+00
 9.3677163962e-01	 1.9515192474e+00	-1.1793772637e+00
 1.1229638693e+00	 1.8609670309e+00	-1.4970255616e+00
 1.1050519173e+00	 1.8716587232e+00	-1.4698805670e+00
 1.0870601122e+00	 1.8821653385e+00	-1.4409672835e+00
 1.0689912674e+00	 1.8924860946e+00	-1.4114844809e+00
 1.0508482037e+00	 1.9026202651e+00	-1.3814192012e+00
 1.0326337480e+00	 1.9125671796e+00	-1.3505981065e+00
 1.0143507318e+00	 1.9223262234e+00	-1.3187068738e+00
 9.9600198991e-01	 1.9318968375e+00	-1.2853091294e+00
 9.7759035899e-01	 1.9412785184e+00	-1.2498648358e+00
 9.5911867641e-01	 1.9504708183e+00	-1.2117480509e+00
 9.4058977885e-01	 1.9594733441e+00	-1.1702639860e+00
 1.1275223202e+00	 1.8685212605e+00	-1.4918004266e+00
 1.1095376583e+00	 1.8792563537e+00	-1.4636214017e+00
 1.0914728189e+00	 1.8898056186e+00	-1.4331320274e+00
 1.0733306272e+00	 1.9001682698e+00	-1.4023834529e+00
 1.0551139153e+00	 1.9103435779e+00	-1.3713663402e+00
 1.0368255216e+00	 1.9203308700e+00	-1.3399056450e+00
 1.0184682891e+00	 1.9301295287e+00	-1.3076805213e+00
 1.0000450641e+00	 1.9397389928e+00	-1.2742437489e+00
 9.8155869480e-01	 1.9491587568e+00	-1.2390405945e+00
 9.6301203006e-01	 1.9583883710e+00	-1.2014270224e+00
 9.4440791808e-01	 1.9674274408e+00	-1.1606871829e+00
 1.1320807712e+00	 1.8760754902e+00	-1.4855872660e+00
 1.1140233992e+00	 1.8868539842e+00	-1.4568498541e+00
 1.0958855257e+00	 1.8974458986e+00	-1.4251302964e+00
 1.0776699870e+00	 1.9078504449e+00	-1.3933436753e+00
 1.0593796269e+00	 1.9180668907e+00	-1.3615393638e+00
 1.0410172952e+00	 1.9280945603e+00	-1.3295395868e+00
 1.0225858465e+00	 1.9379328339e+00	-1.2970164445e+00
 1.0040881383e+00	 1.9475811480e+00	-1.2635118383e+00
 9.8552703061e-01	 1.9570389952e+00	-1.2284568078e+00
 9.6690538371e-01	 1.9663059237e+00	-1.1911901976e+00
 9.4822605731e-01	 1.9753815375e+00	-1.1509765751e+00
 1.1366392222e+00	 1.8836297199e+00	-1.4787969446e+00
 1.1185091402e+00	 1.8944516148e+00	-1.4497373808e+00
 1.1002982324e+00	 1.9050861787e+00	-1.4172863597e+00
 1.0820093468e+00	 1.9155326200e+00	-1.3846718565e+00
 1.0636453385e+00	 1.9257902035e+00	-1.3522325911e+00
 1.0452090689e+00	 1.9358582506e+00	-1.3197869920e+00
 1.0267034038e+00	 1.9457361392e+00	-1.2869995327e+00
 1.0081312125e+00	 1.9554233033e+00	-1.2534011593e+00
 9.8949536642e-01	 1.9649192336e+00	-1.2184091084e+00
 9.7079873735e-01	 1.9742234764e+00	-1.1813460310e+00
 9.5204419654e-01	 1.9833356342e+00	-1.1414583418e+00
 1.1411976732e+00	 1.8911839496e+00	-1.4718300568e+00
 1.1229948811e+00	 1.9020492453e+00	-1.4426477630e+00
 1.1047109392e+00	 1.9127264587e+00	-1.4099195806e+00
 1.0863487066e+00	 1.9232147951e+00	-1.3766702623e+00
 1.0679110502e+00	 1.9335135163e+00	-1.3437362771e+00
 1.0494008425e+00	 1.9436219410e+00	-1.3109311514e+00
 1.0308209611e+00	 1.9535394444e+00	-1.2779111156e+00
 1.0121742867e+00	 1.9632654586e+00	-1.2441960390e+00
 9.9346370223e-01	 1.9727994719e+00	-1.2091897334e+00
 9.7469209100e-01	 1.9821410291e+00	-1.1721995350e+00
 9.5586233577e-01	 1.9912897309e+00	-1.1324550875e+00
 1.1457561242e+00	 1.8987381793e+00	-1.4650770850e+00
 1.1274806220e+00	 1.9096468758e+00	-1.4359523466e+00
 1.1091236459e+00	 1.9203667388e+00	-1.4033443550e+00
 1.0906880665e+00	 1.9308969703e+00	-1.3696366519e+00
 1.0721767618e+00	 1.9412368291e+00	-1.3363365495e+00
 1.0535926161e+00	 1.9513856313e+00	-1.3032515241e+00
 1.0349385184e+00	 1.9613427497e+00	-1.2700289033e+00
 1.0162173609e+00	 1.9711076139e+00	-1.2361773139e+00
 9.9743203804e-01	 1.9806797103e+00	-1.2010874739e+00
 9.7858544465e-01	 1.9900585818e+00	-1.1640522367e+00
 9.5968047500e-01	 1.9992438276e+00	-1.1242858088e+00
 1.1503145752e+00	 1.9062924090e+00	-1.4589185566e+00
 1.1319663630e+00	 1.9172445063e+00	-1.4300129471e+00
 1.1135363527e+00	 1.9280070188e+00	-1.3978383267e+00
 1.0950274263e+00	 1.9385791454e+00	-1.3638642137e+00
 1.0764424734e+00	 1.9489601419e+00	-1.3303153435e+00
 1.0577843897e+00	 1.9591493217e+00	-1.2970236741e+00
 1.0390560757e+00	 1.9691460550e+00	-1.2636269266e+00
 1.0202604351e+00	 1.9789497692e+00	-1.2296222740e+00
 1.0014003738e+00	 1.9885599487e+00	-1.1943876256e+00
 9.8247879829e-01	 1.9979761345e+00	-1.1572021365e+00
 9.6349861423e-01	 2.0071979243e+00	-1.1172658605e+00
 1.1548730262e+00	 1.9138466387e+00	-1.4537252017e+00
 1.1364521039e+00	 1.9248421368e+00	-1.4251819946e+00
 1.1179490594e+00	 1.9356472989e+00	-1.3935627215e+00
 1.0993667861e+00	 1.9462613205e+00	-1.3596415022e+00
 1.0807081850e+00	 1.9566834547e+00	-1.3259503386e+00
 1.0619761634e+00	 1.9669130120e+00	-1.2925192078e+00
 1.0431736330e+00	 1.9769493602e+00	-1.2589754767e+00
 1.0243035093e+00	 1.9867919245e+00	-1.2248046076e+00
 1.0053687097e+00	 1.9964401871e+00	-1.1893719392e+00
 9.8637215194e-01	 2.0058936872e+00	-1.1519436646e+00
 9.6731675346e-01	 2.0151520210e+00	-1.1117069220e+00
 9.2913536115e-01	 1.9356110540e+00	-1.1948768501e+00
 9.1077526332e-01	 1.9443176149e+00	-1.1478551476e+00
 8.9236422656e-01	 1.9528360339e+00	-1.1021528824e+00
 8.7390504382e-01	 1.9611660834e+00	-1.0577138672e+00
 8.5540050234e-01	 1.9693075891e+00	-1.0144372014e+00
 8.3685338241e-01	 1.9772604297e+00	-9.7218879543e-01
 8.1826645622e-01	 1.9850245367e+00	-9.3081205527e-01
 7.9964248658e-01	 1.9925998934e+00	-8.9013770695e-01
 7.8098422584e-01	 1.9999865349e+00	-8.4999274858e-01
 7.6229441467e-01	 2.0071845475e+00	-8.1020852375e-01
 7.4357578096e-01	 2.0141940681e+00	-7.7062791653e-01
 9.3295350038e-01	 1.9435651507e+00	-1.1876937868e+00
 9.1451795455e-01	 1.9523074899e+00	-1.1424123200e+00
 8.9603126046e-01	 1.9608609140e+00	-1.0984249907e+00
 8.7749622254e-01	 1.9692251945e+00	-1.0555950971e+00
 8.5891563948e-01	 1.9774001565e+00	-1.0137456201e+00
 8.4029230301e-01	 1.9853856781e+00	-9.7267102074e-01
 8.2162899669e-01	 1.9931816905e+00	-9.3214816326e-01
 8.0292849471e-01	 2.0007881769e+00	-8.9194634377e-01
 7.8419356071e-01	 2.0082051727e+00	-8.5183641253e-01
 7.6542694663e-01	 2.0154327645e+00	-8.1159898367e-01
 7.4663139157e-01	 2.0224710896e+00	-7.7103173320e-01
 9.3677163962e-01	 1.9515192474e+00	-1.1793772637e+00
 9.1826064577e-01	 1.9602973649e+00	-1.1355291087e+00
 8.9969829436e-01	 1.9688857941e+00	-1.0929647580e+00
 8.8108740126e-01	 1.9772843057e+00	-1.0514800856e+00
 8.6243077662e-01	 1.9854927239e+00	-1.0108346664e+00
 8.4373122361e-01	 1.9935109265e+00	-9.7076383954e-01
 8.2499153717e-01	 2.0013388443e+00	-9.3098986167e-01
 8.0621450284e-01	 2.0089764605e+00	-8.9123213294e-01
 7.8740289558e-01	 2.0164238106e+00	-8.5121648182e-01
 7.6855947859e-01	 2.0236809814e+00	-8.1068350391e-01
 7.4968700217e-01	 2.0307481111e+00	-7.6939595561e-01
 9.4058977885e-01	 1.9594733441e+00	-1.1702639860e+00
 9.2200333700e-01	 1.9682872398e+00	-1.1275608388e+00
 9.0336532825e-01	 1.9769106742e+00	-1.0861417587e+00
 8.8467857997e-01	 1.9853434169e+00	-1.0457481221e+00
 8.6594591376e-01	 1.9935852914e+00	-1.0060886533e+00
 8.4717014421e-01	 2.0016361750e+00	-9.6685174570e-01
 8.2835407765e-01	 2.0094959981e+00	-9.2771683883e-01
 8.0950051097e-01	 2.0171647441e+00	-8.8836483353e-01
 7.9061223045e-01	 2.0246424484e+00	-8.4848753231e-01
 7.7169201055e-01	 2.0319291984e+00	-8.0779609977e-01
 7.5274261278e-01	 2.0390251327e+00	-7.6602854478e-01
 9.4440791808e-01	 1.9674274408e+00	-1.1606871829e+00
 9.2574602823e-01	 1.9762771148e+00	-1.1188591843e+00
 9.0703236214e-01	 1.9849355543e+00	-1.0783218039e+00
 8.8826975869e-01	 1.9934025280e+00	-1.0387746849e+00
 8.6946105090e-01	 2.0016778588e+00	-9.9988810113e-01
 8.5060906480e-01	 2.0097614234e+00	-9.6131552783e-01
 8.3171661812e-01	 2.0176531519e+00	-9.2270523566e-01
 8.1278651910e-01	 2.0253530277e+00	-8.8371088775e-01
 7.9382156532e-01	 2.0328610863e+00	-8.4400112812e-01
 7.7482454250e-01	 2.0401774154e+00	-8.0326815650e-01
 7.5579822338e-01	 2.0473021542e+00	-7.6123529177e-01
 9.4822605731e-01	 1.9753815375e+00	-1.1509765751e+00
 9.2948871945e-01	 1.9842669898e+00	-1.1097721455e+00
 9.1069939604e-01	 1.9929604344e+00	-1.0698669265e+00
 8.9186093740e-01	 2.0014616392e+00	-1.0309314330e+00
 8.7297618804e-01	 2.0097704262e+00	-9.9260973443e-01
 8.5404798540e-01	 2.0178866718e+00	-9.5453226928e-01
 8.3507915860e-01	 2.0258103058e+00	-9.1632764754e-01
 8.1607252723e-01	 2.0335413113e+00	-8.7763342289e-01
 7.9703090019e-01	 2.0410797241e+00	-8.3810582192e-01
 7.7795707446e-01	 2.0484256324e+00	-7.9742842611e-01
 7.5885383399e-01	 2.0555791757e+00	-7.5531980932e-01
 9.5204419654e-01	 1.9833356342e+00	-1.1414583418e+00
 9.3323141068e-01	 1.9922568647e+00	-1.1006440252e+00
 9.1436642993e-01	 2.0009853145e+00	-1.0611353656e+00
 8.9545211611e-01	 2.0095207504e+00	-1.0225861963e+00
 8.7649132518e-01	 2.0178629937e+00	-9.8462647771e-01
 8.5748690600e-01	 2.0260119202e+00	-9.4687534758e-01
 8.3844169907e-01	 2.0339674596e+00	-9.0895312546e-01
 8.1935853536e-01	 2.0417295949e+00	-8.7049225259e-01
 8.0024023506e-01	 2.0492983620e+00	-8.3114715466e-01
 7.8108960642e-01	 2.0566738494e+00	-7.9060302389e-01
 7.6190944459e-01	 2.0638561973e+00	-7.4858352324e-01
 9.5586233577e-01	 1.9912897309e+00	-1.1324550875e+00
 9.3697410190e-01	 2.0002467397e+00	-1.0918154051e+00
 9.1803346383e-01	 2.0090101946e+00	-1.0524815505e+00
 8.9904329483e-01	 2.0175798615e+00	-1.0141029667e+00
 8.8000646232e-01	 2.0259555611e+00	-9.7630745078e-01
 8.6092582659e-01	 2.0341371686e+00	-9.3871443300e-01
 8.4180423954e-01	 2.0421246134e+00	-9.0094717648e-01
 8.2264454349e-01	 2.0499178784e+00	-8.6264387748e-01
 8.0344956993e-01	 2.0575169999e+00	-8.2346765476e-01
 7.8422213838e-01	 2.0649220664e+00	-7.8311542430e-01
 7.6496505519e-01	 2.0721332188e+00	-7.4132566342e-01
 9.5968047500e-01	 1.9992438276e+00	-1.1242858088e+00
 9.4071679313e-01	 2.0082366147e+00	-1.0836231210e+00
 9.2170049772e-01	 2.0170350748e+00	-1.0442560840e+00
 9.0263447354e-01	 2.0256389727e+00	-1.0058418876e+00
 8.8352159946e-01	 2.0340481285e+00	-9.6801796331e-01
 8.6436474719e-01	 2.0422624170e+00	-9.3041548652e-01
 8.4516678002e-01	 2.0502817672e+00	-8.9267176344e-01
 8.2593055162e-01	 2.0581061620e+00	-8.5444148523e-01
 8.0665890480e-01	 2.0657356377e+00	-8.1540683666e-01
 7.8735467033e-01	 2.0731702834e+00	-7.7528645662e-01
 7.6802066580e-01	 2.0804102403e+00	-7.3384325470e-01
 9.6349861423e-01	 2.0071979243e+00	-1.1172658605e+00
 9.4445948435e-01	 2.0162264897e+00	-1.0764002385e+00
 9.2536753162e-01	 2.0250599549e+00	-1.0368057255e+00
 9.0622565226e-01	 2.0336980839e+00	-9.9815924266e-01
 8.8703673660e-01	 2.0421406960e+00	-9.6011950876e-01
 8.6780366778e-01	 2.0503876654e+00	-9.2234075711e-01
 8.4852932049e-01	 2.0584389210e+00	-8.8448530413e-01
 8.2921655974e-01	 2.0662944456e+00	-8.4623494985e-01
 8.0986823966e-01	 2.0739542756e+00	-8.0730119899e-01
 7.9048720229e-01	 2.0814185003e+00	-7.6743430008e-01
 7.7107627640e-01	 2.0886872619e+00	-7.2643110741e-01
 9.6731675346e-01	 2.0151520210e+00	-1.1117069220e+00
 9.4820217558e-01	 2.0242163646e+00	-1.0704760278e+00
 9.2903456551e-01	 2.0330848350e+00	-1.0304733730e+00
 9.0981683097e-01	 2.0417571950e+00	-9.9140744493e-01
 8.9055187374e-01	 2.0502332634e+00	-9.5296975768e-01
 8.7124258838e-01	 2.0585129138e+00	-9.1484877834e-01
 8.5189186097e-01	 2.0665960749e+00	-8.7674266972e-01
 8.3250256787e-01	 2.0744827292e+00	-8.3837083056e-01
 8.1307757453e-01	 2.0821729134e+00	-7.9948422209e-01
 7.9361973424e-01	 2.0896667173e+00	-7.5987447858e-01
 7.7413188700e-01	 2.0969642834e+00	-7.1938180771e-01
 7.4357578096e-01	 2.0141940681e+00	-7.7062791653e-01
 7.2483422690e-01	 2.0210141399e+00	-7.3103401867e-01
 7.0606926997e-01	 2.0276462055e+00	-6.9165118715e-01
 6.8728359099e-01	 2.0340905489e+00	-6.5241727807e-01
 6.6847985372e-01	 2.0403475018e+00	-6.1322621969e-01
 6.4966070390e-01	 2.0464174439e+00	-5.7396512604e-01
 6.3082876822e-01	 2.0523008014e+00	-5.3453201221e-01
 6.1198665341e-01	 2.0579980469e+00	-4.9485076962e-01
 5.9313694523e-01	 2.0635096983e+00	-4.5488350232e-01
 5.7428220763e-01	 2.0688363181e+00	-4.1464034139e-01
 5.5542498184e-01	 2.0739785129e+00	-3.7418686790e-01
 7.4663139157e-01	 2.0224710896e+00	-7.7103173320e-01
 7.2781282196e-01	 2.0293191874e+00	-7.2988142407e-01
 7.0897075332e-01	 2.0359785066e+00	-6.8873288335e-01
 6.9010787747e-01	 2.0424493319e+00	-6.4764251675e-01
 6.7122686913e-01	 2.0487319969e+00	-6.0657029744e-01
 6.5233038490e-01	 2.0548268824e+00	-5.6547206058e-01
 6.3342106228e-01	 2.0607344167e+00	-5.2431716577e-01
 6.1450151868e-01	 2.0664550742e+00	-4.8310333240e-01
 5.9557435052e-01	 2.0719893748e+00	-4.4186875387e-01
 5.7664213227e-01	 2.0773378836e+00	-4.0070161214e-01
 5.5770741560e-01	 2.0825012094e+00	-3.5974712837e-01
 7.4968700217e-01	 2.0307481111e+00	-7.6939595561e-01
 7.3079141703e-01	 2.0376242350e+00	-7.2706864965e-01
 7.1187223668e-01	 2.0443108076e+00	-6.8454746433e-01
 6.9293216396e-01	 2.0508081150e+00	-6.4203130003e-01
 6.7397388454e-01	 2.0571164919e+00	-5.9952965183e-01
 6.5500006590e-01	 2.0632363210e+00	-5.5705132042e-01
 6.3601335633e-01	 2.0691680320e+00	-5.1462202935e-01
 6.1701638395e-01	 2.0749121014e+00	-4.7229912529e-01
 5.9801175580e-01	 2.0804690514e+00	-4.3018347156e-01
 5.7900205690e-01	 2.0858394491e+00	-3.8842866129e-01
 5.5998984936e-01	 2.0910239059e+00	-3.4724769124e-01
 7.5274261278e-01	 2.0390251327e+00	-7.6602854478e-01
 7.3377001209e-01	 2.0459292826e+00	-7.2287506584e-01
 7.1477372003e-01	 2.0526431086e+00	-6.7934365716e-01
 6.9575645045e-01	 2.0591668981e+00	-6.3580361574e-01
 6.7672089996e-01	 2.0655009870e+00	-5.9229765307e-01
 6.5766974691e-01	 2.0716457595e+00	-5.4887200444e-01
 6.3860565038e-01	 2.0776016473e+00	-5.0559400879e-01
 6.1953124922e-01	 2.0833691287e+00	-4.6256667812e-01
 6.0044916109e-01	 2.0889487279e+00	-4.1994037136e-01
 5.8136198154e-01	 2.0943410145e+00	-3.7792170418e-01
 5.6227228312e-01	 2.0995466025e+00	-3.3677984108e-01
 7.5579822338e-01	 2.0473021542e+00	-7.6123529177e-01
 7.3674860715e-01	 2.0542343302e+00	-7.1757979570e-01
 7.1767520338e-01	 2.0609754097e+00	-6.7337081534e-01
 6.9858073693e-01	 2.0675256811e+00	-6.2918086610e-01
 6.7946791537e-01	 2.0738854820e+00	-5.8506978394e-01
 6.6033942791e-01	 2.0800551981e+00	-5.4110592927e-01
 6.4119794444e-01	 2.0860352626e+00	-4.9738373653e-01
 6.2204611450e-01	 2.0918261560e+00	-4.5403815676e-01
 6.0288656638e-01	 2.0974284045e+00	-4.1125611254e-01
 5.8372190618e-01	 2.1028425800e+00	-3.6928510203e-01
 5.6455471688e-01	 2.1080692990e+00	-3.2843910390e-01
 7.5885383399e-01	 2.0555791757e+00	-7.5531980932e-01
 7.3972720222e-01	 2.0625393777e+00	-7.1146151556e-01
 7.2057668673e-01	 2.0693077107e+00	-6.6687872526e-01
 7.0140502342e-01	 2.0758844642e+00	-6.2238568043e-01
 6.8221493078e-01	 2.0822699771e+00	-5.7804345964e-01
 6.6300910891e-01	 2.0884646366e+00	-5.3392745673e-01
 6.4379023849e-01	 2.0944688779e+00	-4.9014490729e-01
 6.2456097977e-01	 2.1002831832e+00	-4.4684920788e-01
 6.0532397167e-01	 2.1059080810e+00	-4.0425115240e-01
 5.8608183082e-01	 2.1113441455e+00	-3.6262722750e-01
 5.6683715064e-01	 2.1165919955e+00	-3.2232512448e-01
 7.6190944459e-01	 2.0638561973e+00	-7.4858352324e-01
 7.4270579728e-01	 2.0708444253e+00	-7.0479033833e-01
 7.2347817008e-01	 2.0776400117e+00	-6.6011741270e-01
 7.0422930990e-01	 2.0842432473e+00	-6.1564172827e-01
 6.8496194619e-01	 2.0906544721e+00	-5.7141784787e-01
 6.6567878992e-01	 2.0968740752e+00	-5.2751332164e-01
 6.4638253254e-01	 2.1029024933e+00	-4.8403411432e-01
 6.2707584504e-01	 2.1087402105e+00	-4.4113880432e-01
 6.0776137696e-01	 2.1143877576e+00	-3.9904960150e-01
 5.8844175545e-01	 2.1198457110e+00	-3.5806033060e-01
 5.6911958440e-01	 2.1251146921e+00	-3.1854154387e-01
 7.6496505519e-01	 2.0721332188e+00	-7.4132566342e-01
 7.4568439234e-01	 2.0791494729e+00	-6.9781620041e-01
 7.2637965343e-01	 2.0859723127e+00	-6.5333694938e-01
 7.0705359639e-01	 2.0926020303e+00	-6.0917353257e-01
 6.8770896161e-01	 2.0990389672e+00	-5.6539368928e-01
 6.6834847092e-01	 2.1052835137e+00	-5.2204246007e-01
 6.4897482659e-01	 2.1113361086e+00	-4.7921068606e-01
 6.2959071031e-01	 2.1171972378e+00	-4.3704909090e-01
 6.1019878225e-01	 2.1228674341e+00	-3.9577907935e-01
 5.9080168009e-01	 2.1283472765e+00	-3.5570040516e-01
 5.7140201817e-01	 2.1336373886e+00	-3.1719587756e-01
 7.6802066580e-01	 2.0804102403e+00	-7.3384325470e-01
 7.4866298740e-01	 2.0874545204e+00	-6.9080895894e-01
 7.2928113678e-01	 2.0943046138e+00	-6.4678725963e-01
 7.0987788287e-01	 2.1009608134e+00	-6.0320628313e-01
 6.9045597702e-01	 2.1074234623e+00	-5.6017311823e-01
 6.7101815192e-01	 2.1136929523e+00	-5.1769583794e-01
 6.5156712065e-01	 2.1197697239e+00	-4.7583652327e-01
 6.3210557559e-01	 2.1256542650e+00	-4.3472523069e-01
 6.1263618754e-01	 2.1313471107e+00	-3.9457057066e-01
 5.9316160473e-01	 2.1368488419e+00	-3.5566705575e-01
 5.7368445192e-01	 2.1421600852e+00	-3.1839939382e-01
 7.7107627640e-01	 2.0886872619e+00	-7.2643110741e-01
 7.5164158246e-01	 2.0957595680e+00	-6.8403854319e-01
 7.3218262013e-01	 2.1026369148e+00	-6.4071792706e-01
 7.1270216936e-01	 2.1093195965e+00	-5.9796565023e-01
 6.9320299243e-01	 2.1158079573e+00	-5.5595948381e-01
 6.7368783293e-01	 2.1221023909e+00	-5.1465628001e-01
 6.5415941470e-01	 2.1282033392e+00	-4.7407593657e-01
 6.3462044086e-01	 2.1341112923e+00	-4.3431525182e-01
 6.1507359282e-01	 2.1398267872e+00	-3.9555828200e-01
 5.9552152936e-01	 2.1453504074e+00	-3.5808336504e-01
 5.7596688568e-01	 2.1506827817e+00	-3.2226699257e-01
 7.7413188700e-01	 2.0969642834e+00	-7.1938180771e-01
 7.5462017753e-01	 2.1040646156e+00	-6.7777310178e-01
 7.3508410348e-01	 2.1109692158e+00	-6.3537800138e-01
 7.1552645584e-01	 2.1176783796e+00	-5.9367759845e-01
 6.9595000784e-01	 2.1241924524e+00	-5.5295717120e-01
 6.7635751393e-01	 2.1305118294e+00	-5.1310829933e-01
 6.5675170875e-01	 2.1366369545e+00	-4.7409548447e-01
 6.3713530613e-01	 2.1425683196e+00	-4.3596989470e-01
 6.1751099811e-01	 2.1483064638e+00	-3.9887949899e-01
 5.9788145400e-01	 2.1538519729e+00	-3.6307576157e-01
 5.7824931944e-01	 2.1592054782e+00	-3.2891708465e-01
 5.5542498184e-01	 2.0739785129e+00	-3.7418686790e-01
 5.3656778577e-01	 2.0789369326e+00	-3.3464099822e-01
 5.1771311394e-01	 2.0837122714e+00	-2.9684881774e-01
 4.9886343584e-01	 2.0883052653e+00	-2.6055172137e-01
 4.8002119495e-01	 2.0927166911e+00	-2.2554257433e-01
 4.6118880795e-01	 2.0969473653e+00	-1.9166432760e-01
 4.4236866403e-01	 2.1009981432e+00	-1.5880722934e-01
 4.2356312421e-01	 2.1048699183e+00	-1.2690481515e-01
 4.0477452065e-01	 2.1085636212e+00	-9.5928861551e-02
 3.8600515608e-01	 2.1120802188e+00	-6.5883487318e-02
 3.6725730316e-01	 2.1154207133e+00	-3.6817932500e-02
 5.5770741560e-01	 2.0825012094e+00	-3.5974712837e-01
 5.3877272878e-01	 2.0874800050e+00	-3.2007817433e-01
 5.1984057656e-01	 2.0922749673e+00	-2.8241653078e-01
 5.0091343860e-01	 2.0968868355e+00	-2.4646795138e-01
 4.8199376841e-01	 2.1013163893e+00	-2.1199280890e-01
 4.6308399261e-01	 2.1055644488e+00	-1.7880414919e-01
 4.4418651020e-01	 2.1096318728e+00	-1.4676429776e-01
 4.2530369189e-01	 2.1135195584e+00	-1.1578020838e-01
 4.0643787945e-01	 2.1172284400e+00	-8.5797744557e-02
 3.8759138505e-01	 2.1207594885e+00	-5.6795084946e-02
 3.6876649071e-01	 2.1241137102e+00	-2.8780676098e-02
 5.5998984936e-01	 2.0910239059e+00	-3.4724769124e-01
 5.4097767178e-01	 2.0960230774e+00	-3.0767164352e-01
 5.2196803918e-01	 2.1008376632e+00	-2.7030890743e-01
 5.0296344137e-01	 2.1054684056e+00	-2.3482992779e-01
 4.8396634188e-01	 2.1099160876e+00	-2.0096307987e-01
 4.6497917727e-01	 2.1141815323e+00	-1.6849214366e-01
 4.4600435636e-01	 2.1182656023e+00	-1.3725228643e-01
 4.2704425957e-01	 2.1221691984e+00	-1.0712474930e-01
 4.0810123824e-01	 2.1258932587e+00	-7.8030435483e-02
 3.8917761403e-01	 2.1294387581e+00	-4.9922597789e-02
 3.7027567826e-01	 2.1328067071e+00	-2.2778852541e-02
 5.6227228312e-01	 2.0995466025e+00	-3.3677984108e-01
 5.4318261479e-01	 2.1045661498e+00	-2.9750469249e-01
 5.2409550181e-01	 2.1094003591e+00	-2.6059946096e-01
 5.0501344413e-01	 2.1140499757e+00	-2.2569977431e-01
 4.8593891534e-01	 2.1185157858e+00	-1.9250267287e-01
 4.6687436193e-01	 2.1227986158e+00	-1.6076348542e-01
 4.4782220253e-01	 2.1268993319e+00	-1.3029116773e-01
 4.2878482725e-01	 2.1308188384e+00	-1.0094230620e-01
 4.0976459704e-01	 2.1345580774e+00	-7.2613990974e-02
 3.9076384300e-01	 2.1381180278e+00	-4.5235762945e-02
 3.7178486581e-01	 2.1414997040e+00	-1.8760837744e-02
 5.6455471688e-01	 2.1080692990e+00	-3.2843910390e-01
 5.4538755780e-01	 2.1131092222e+00	-2.8966488284e-01
 5.2622296443e-01	 2.1179630551e+00	-2.5336599693e-01
 5.0706344689e-01	 2.1226315458e+00	-2.1914390844e-01
 4.8791148881e-01	 2.1271154840e+00	-1.8666515331e-01
 4.6876954659e-01	 2.1314156994e+00	-1.5565759944e-01
 4.4964004869e-01	 2.1355330615e+00	-1.2590512075e-01
 4.3052539494e-01	 2.1394684784e+00	-9.7240896223e-02
 4.1142795584e-01	 2.1432228962e+00	-6.9539545444e-02
 3.9235007198e-01	 2.1467972974e+00	-4.2708311748e-02
 3.7329405336e-01	 2.1501927009e+00	-1.6677503127e-02
 5.6683715064e-01	 2.1165919955e+00	-3.2232512448e-01
 5.4759250080e-01	 2.1216522946e+00	-2.8424393999e-01
 5.2835042706e-01	 2.1265257510e+00	-2.4869051301e-01
 5.0911344966e-01	 2.1312131160e+00	-2.1523295145e-01
 4.8988406227e-01	 2.1357151822e+00	-1.8350828558e-01
 4.7066473125e-01	 2.1400327829e+00	-1.5321808895e-01
 4.5145789486e-01	 2.1441667910e+00	-1.2412246666e-01
 4.3226596262e-01	 2.1481181185e+00	-9.6032627704e-02
 4.1309131464e-01	 2.1518877149e+00	-6.8802259606e-02
 3.9393630095e-01	 2.1554765671e+00	-4.2317923849e-02
 3.7480324091e-01	 2.1588856978e+00	-1.6488689106e-02
 5.6911958440e-01	 2.1251146921e+00	-3.1854154387e-01
 5.4979744381e-01	 2.1301953670e+00	-2.8133764253e-01
 5.3047788968e-01	 2.1350884469e+00	-2.4665909919e-01
 5.1116345242e-01	 2.1397946861e+00	-2.1404163849e-01
 4.9185663574e-01	 2.1443148804e+00	-1.8309395241e-01
 4.7255991591e-01	 2.1486498664e+00	-1.5349266318e-01
 4.5327574102e-01	 2.1528005206e+00	-1.2497560419e-01
 4.3400653031e-01	 2.1567677585e+00	-9.7333642556e-02
 4.1475467344e-01	 2.1605525337e+00	-7.0401269099e-02
 3.9552252993e-01	 2.1641558367e+00	-4.4046181394e-02
 3.7631242846e-01	 2.1675786947e+00	-1.8158084056e-02
 5.7140201817e-01	 2.1336373886e+00	-3.1719587756e-01
 5.5200238681e-01	 2.1387384394e+00	-2.8104571189e-01
 5.3260535231e-01	 2.1436511428e+00	-2.4736183819e-01
 5.1321345518e-01	 2.1483762562e+00	-2.1564872906e-01
 4.9382920920e-01	 2.1529145786e+00	-1.8548807443e-01
 4.7445510057e-01	 2.1572669499e+00	-1.5653306539e-01
 4.5509358719e-01	 2.1614342502e+00	-1.2850094522e-01
 4.3574709799e-01	 2.1654173985e+00	-1.0116405878e-01
 4.1641803224e-01	 2.1692173524e+00	-7.4339633210e-02
 3.9710875890e-01	 2.1728351064e+00	-4.7878523285e-02
 3.7782161601e-01	 2.1762716916e+00	-2.1653152788e-02
 5.7368445192e-01	 2.1421600852e+00	-3.1839939382e-01
 5.5420732982e-01	 2.1472815118e+00	-2.8347170230e-01
 5.3473281493e-01	 2.1522138388e+00	-2.5089270617e-01
 5.1526345795e-01	 2.1569578264e+00	-2.2013691761e-01
 4.9580178267e-01	 2.1615142768e+00	-1.9076052997e-01
 4.7635028523e-01	 2.1658840334e+00	-1.6239500090e-01
 4.5691143335e-01	 2.1700679797e+00	-1.3473885047e-01
 4.3748766567e-01	 2.1740670386e+00	-1.0754791306e-01
 4.1808139104e-01	 2.1778821711e+00	-8.0624283684e-02
 3.9869498788e-01	 2.1815143761e+00	-5.3804199522e-02
 3.7933080355e-01	 2.1849646885e+00	-2.6945095794e-02
 5.7596688568e-01	 2.1506827817e+00	-3.2226699257e-01
 5.5641227282e-01	 2.1558245842e+00	-2.8872289114e-01
 5.3686027755e-01	 2.1607765347e+00	-2.5734947375e-01
 5.1731346071e-01	 2.1655393965e+00	-2.2759274437e-01
 4.9777435613e-01	 2.1701139750e+00	-1.9898507492e-01
 4.7824546988e-01	 2.1745011169e+00	-1.7113806538e-01
 4.5872927951e-01	 2.1787017093e+00	-1.4373356536e-01
 4.3922823336e-01	 2.1827166786e+00	-1.1651310351e-01
 4.1974474984e-01	 2.1865469899e+00	-8.9265973619e-02
 4.0028121685e-01	 2.1901936457e+00	-6.1816225640e-02
 3.8083999110e-01	 2.1936576854e+00	-3.4008808578e-02
 5.7824931944e-01	 2.1592054782e+00	-3.2891708465e-01
 5.5861721583e-01	 2.1643676566e+00	-2.9691016954e-01
 5.3898774018e-01	 2.1693392306e+00	-2.6683360721e-01
 5.1936346347e-01	 2.1741209666e+00	-2.3810650641e-01
 4.9974692960e-01	 2.1787136732e+00	-2.1023926284e-01
 4.8014065454e-01	 2.1831182005e+00	-1.8282567324e-01
 4.6054712568e-01	 2.1873354389e+00	-1.5553315592e-01
 4.4096880104e-01	 2.1913663186e+00	-1.2809133240e-01
 4.2140810864e-01	 2.1952118086e+00	-1.0027922645e-01
 4.0186744582e-01	 2.1988729154e+00	-7.1911337207e-02
 3.8234917865e-01	 2.2023506823e+00	-4.2822841062e-02
 3.6725730316e-01	 2.1154207133e+00	-3.6817932500e-02
 3.4853002362e-01	 2.1185866643e+00	-9.5010538761e-03
 3.2982872276e-01	 2.1215785585e+00	 1.5843999510e-02
 3.1115558570e-01	 2.1243974975e+00	 3.9363575370e-02
 2.9251276530e-01	 2.1270446149e+00	 6.1193641189e-02
 2.7390238167e-01	 2.1295210749e+00	 8.1475393672e-02
 2.5532652180e-01	 2.1318280715e+00	 1.0036830163e-01
 2.3678723911e-01	 2.1339668276e+00	 1.1806075598e-01
 2.1828655311e-01	 2.1359385941e+00	 1.3477850164e-01
 1.9982644907e-01	 2.1377446487e+00	 1.5079102580e-01
 1.8140887769e-01	 2.1393862953e+00	 1.6641607606e-01
 3.6876649071e-01	 2.1241137102e+00	-2.8780676098e-02
 3.4996225428e-01	 2.1272926712e+00	-2.3510791172e-03
 3.3118410329e-01	 2.1302968601e+00	 2.2211327660e-02
 3.1243423184e-01	 2.1331273831e+00	 4.5020297698e-02
 2.9371480163e-01	 2.1357853785e+00	 6.6188728517e-02
 2.7502794149e-01	 2.1382720151e+00	 8.5843899814e-02
 2.5637574698e-01	 2.1405884919e+00	 1.0414009672e-01
 2.3776027995e-01	 2.1427360369e+00	 1.2126879754e-01
 2.1918356822e-01	 2.1447159060e+00	 1.3746660614e-01
 2.0064760521e-01	 2.1465293824e+00	 1.5302110901e-01
 1.8215434964e-01	 2.1481777751e+00	 1.6827483572e-01
 3.7027567826e-01	 2.1328067071e+00	-2.2778852541e-02
 3.5139448495e-01	 2.1359986781e+00	 2.9840830533e-03
 3.3253948383e-01	 2.1390151617e+00	 2.7001670199e-02
 3.1371287799e-01	 2.1418572687e+00	 4.9343960727e-02
 2.9491683797e-01	 2.1445261420e+00	 7.0090235396e-02
 2.7615350131e-01	 2.1470229552e+00	 8.9343859170e-02
 2.5742497215e-01	 2.1493489123e+00	 1.0724447223e-01
 2.3873332078e-01	 2.1515052462e+00	 1.2397770175e-01
 2.2008058332e-01	 2.1534932180e+00	 1.3978258037e-01
 2.0146876135e-01	 2.1553141161e+00	 1.5495685671e-01
 1.8289982160e-01	 2.1569692549e+00	 1.6986038225e-01
 3.7178486581e-01	 2.1414997040e+00	-1.8760837744e-02
 3.5282671562e-01	 2.1447046850e+00	 6.5684305859e-03
 3.3389486437e-01	 2.1477334633e+00	 3.0294043462e-02
 3.1499152414e-01	 2.1505871544e+00	 5.2427709259e-02
 2.9611887431e-01	 2.1532669055e+00	 7.3004744801e-02
 2.7727906114e-01	 2.1557738954e+00	 9.2094805478e-02
 2.5847419733e-01	 2.1581093328e+00	 1.0981363083e-01
 2.3970636162e-01	 2.1602744555e+00	 1.2633226621e-01
 2.2097759843e-01	 2.1622705300e+00	 1.4188395223e-01
 2.0228991749e-01	 2.1640988498e+00	 1.5676887298e-01
 1.8364529355e-01	 2.1657607347e+00	 1.7135695286e-01
 3.7329405336e-01	 2.1501927009e+00	-1.6677503127e-02
 3.5425894628e-01	 2.1534106919e+00	 8.4625120848e-03
 3.3525024491e-01	 2.1564517649e+00	 3.2164304244e-02
 3.1627017029e-01	 2.1593170400e+00	 5.4361775072e-02
 2.9732091064e-01	 2.1620076691e+00	 7.5036129236e-02
 2.7840462096e-01	 2.1645248356e+00	 9.4213720012e-02
 2.5952342250e-01	 2.1668697532e+00	 1.1197733569e-01
 2.4067940246e-01	 2.1690436649e+00	 1.2847491644e-01
 2.2187461353e-01	 2.1710478420e+00	 1.4392589904e-01
 2.0311107363e-01	 2.1728835834e+00	 1.5862538660e-01
 1.8439076551e-01	 2.1745522145e+00	 1.7294633827e-01
 3.7480324091e-01	 2.1588856978e+00	-1.6488689106e-02
 3.5569117695e-01	 2.1621166988e+00	 8.7234323499e-03
 3.3660562545e-01	 2.1651700666e+00	 3.2685156440e-02
 3.1754881644e-01	 2.1680469256e+00	 5.5233484887e-02
 2.9852294698e-01	 2.1707484326e+00	 7.6285560321e-02
 2.7953018078e-01	 2.1732757758e+00	 9.5815043117e-02
 2.6057264767e-01	 2.1756301736e+00	 1.1386292435e-01
 2.4165244329e-01	 2.1778128742e+00	 1.3054572250e-01
 2.2277162864e-01	 2.1798251540e+00	 1.4606126750e-01
 2.0393222977e-01	 2.1816683171e+00	 1.6069227485e-01
 1.8513623746e-01	 2.1833436942e+00	 1.7480791092e-01
 3.7631242846e-01	 2.1675786947e+00	-1.8158084056e-02
 3.5712340762e-01	 2.1708227057e+00	 7.4048578216e-03
 3.3796100599e-01	 2.1738883682e+00	 3.1926157570e-02
 3.1882746258e-01	 2.1767768112e+00	 5.5127268198e-02
 2.9972498332e-01	 2.1794891962e+00	 7.6851518200e-02
 2.8065574060e-01	 2.1820267160e+00	 9.7010685528e-02
 2.6162187285e-01	 2.1843905940e+00	 1.1559532226e-01
 2.4262548413e-01	 2.1865820835e+00	 1.3268241534e-01
 2.2366864375e-01	 2.1886024660e+00	 1.4844059317e-01
 2.0475338591e-01	 2.1904530508e+00	 1.6313308676e-01
 1.8588170942e-01	 2.1921351740e+00	 1.7711865253e-01
 3.7782161601e-01	 2.1762716916e+00	-2.1653152788e-02
 3.5855563829e-01	 2.1795287126e+00	 4.5570219297e-03
 3.3931638653e-01	 2.1826066698e+00	 2.9953725199e-02
 3.2010610873e-01	 2.1855066969e+00	 5.4124664980e-02
 3.0092701966e-01	 2.1882299597e+00	 7.6829800790e-02
 2.8178130042e-01	 2.1907776561e+00	 9.7910039487e-02
 2.6267109802e-01	 2.1931510145e+00	 1.1729705622e-01
 2.4359852496e-01	 2.1953512928e+00	 1.3502040283e-01
 2.2456565885e-01	 2.1973797780e+00	 1.5121211966e-01
 2.0557454205e-01	 2.1992377845e+00	 1.6610906588e-01
 1.8662718137e-01	 2.2009266538e+00	 1.8005318109e-01
 3.7933080355e-01	 2.1849646885e+00	-2.6945095794e-02
 3.5998786895e-01	 2.1882347194e+00	 2.2673035012e-04
 3.4067176707e-01	 2.1913249715e+00	 2.6831143250e-02
 3.2138475488e-01	 2.1942365825e+00	 5.2304333254e-02
 3.0212905599e-01	 2.1969707233e+00	 7.6313532873e-02
 2.8290686024e-01	 2.1995285963e+00	 9.8619989652e-02
 2.6372032320e-01	 2.2019114349e+00	 1.1908826743e-01
 2.4457156580e-01	 2.2041205021e+00	 1.3769278538e-01
 2.2546267395e-01	 2.2061570900e+00	 1.5452181733e-01
 2.0639569819e-01	 2.2080225182e+00	 1.6977917255e-01
 1.8737265333e-01	 2.2097181336e+00	 1.8378377723e-01
 3.8083999110e-01	 2.1936576854e+00	-3.4008808578e-02
 3.6142009962e-01	 2.1969407263e+00	-5.5426338291e-03
 3.4202714761e-01	 2.2000432731e+00	 2.2618568207e-02
 3.2266340102e-01	 2.2029664681e+00	 4.9742056533e-02
 3.0333109233e-01	 2.2057114868e+00	 7.5393175023e-02
 2.8403242006e-01	 2.2082795365e+00	 9.9244923814e-02
 2.6476954837e-01	 2.2106718553e+00	 1.2108672431e-01
 2.4554460663e-01	 2.2128897114e+00	 1.4083037137e-01
 2.2635968906e-01	 2.2149344020e+00	 1.5851340161e-01
 2.0721685432e-01	 2.2168072519e+00	 1.7430010574e-01
 1.8811812528e-01	 2.2185096134e+00	 1.8848041004e-01
 3.8234917865e-01	 2.2023506823e+00	-4.2822841062e-02
 3.6285233028e-01	 2.2056467332e+00	-1.2711105028e-02
 3.4338252815e-01	 2.2087615747e+00	 1.7373035225e-02
 3.2394204717e-01	 2.2116963537e+00	 4.6510751150e-02
 3.0453312866e-01	 2.2144522504e+00	 7.4156532386e-02
 2.8515797987e-01	 2.2170304767e+00	 9.9886743417e-02
 2.6581877354e-01	 2.2194322757e+00	 1.2340783517e-01
 2.4651764747e-01	 2.2216589208e+00	 1.4456169217e-01
 2.2725670416e-01	 2.2237117139e+00	 1.6317258355e-01
 2.0803801046e-01	 2.2255919856e+00	 1.7914158784e-01
 1.8886359723e-01	 2.2273010932e+00	 1.9298784680e-01
 1.8140887769e-01	 2.1393862953e+00	 1.6641607606e-01
 1.6303886681e-01	 2.1408646252e+00	 1.8135978813e-01
 1.4471512630e-01	 2.1421812835e+00	 1.9489764916e-01
 1.2643945885e-01	 2.1433376453e+00	 2.0677831446e-01
 1.0821363280e-01	 2.1443351079e+00	 2.1681203061e-01
 9.0039381901e-02	 2.1451750900e+00	 2.2486880597e-01
 7.1918405228e-02	 2.1458590307e+00	 2.3087565694e-01
 5.3852366984e-02	 2.1463883885e+00	 2.3481307302e-01
 3.5842896417e-02	 2.1467646406e+00	 2.3671083730e-01
 1.7891587727e-02	 2.1469892817e+00	 2.3664333181e-01
 0.0000000000e+00	 2.1470638235e+00	 2.3472445101e-01
 1.8215434964e-01	 2.1481777751e+00	 1.6827483572e-01
 1.6370885003e-01	 2.1496621800e+00	 1.8296979490e-01
 1.4530981091e-01	 2.1509842489e+00	 1.9638256893e-01
 1.2695904241e-01	 2.1521453625e+00	 2.0824614590e-01
 1.0865832012e-01	 2.1531469241e+00	 2.1836377495e-01
 9.0409384930e-02	 2.1539903579e+00	 2.2660648698e-01
 7.2213942883e-02	 2.1546771092e+00	 2.3290968778e-01
 5.4073665026e-02	 2.1552086423e+00	 2.3726897067e-01
 3.5990187302e-02	 2.1555864406e+00	 2.3973528896e-01
 1.7965110462e-02	 2.1558120048e+00	 2.4040962127e-01
 0.0000000000e+00	 2.1558868529e+00	 2.3943725601e-01
 1.8289982160e-01	 2.1569692549e+00	 1.6986038225e-01
 1.6437883324e-01	 2.1584597348e+00	 1.8428876916e-01
 1.4590449553e-01	 2.1597872142e+00	 1.9754536765e-01
 1.2747862598e-01	 2.1609530798e+00	 2.0935200510e-01
 1.0910300745e-01	 2.1619587402e+00	 2.1950903191e-01
 9.0779387959e-02	 2.1628056259e+00	 2.2789218199e-01
 7.2509480538e-02	 2.1634951877e+00	 2.3444850309e-01
 5.4294963068e-02	 2.1640288961e+00	 2.3919150826e-01
 3.6137478187e-02	 2.1644082405e+00	 2.4219569237e-01
 1.8038633198e-02	 2.1646347279e+00	 2.4359055042e-01
 0.0000000000e+00	 2.1647098823e+00	 2.4355422720e-01
 1.8364529355e-01	 2.1657607347e+00	 1.7135695286e-01
 1.6504881646e-01	 2.1672572895e+00	 1.8551057287e-01
 1.4649918014e-01	 2.1685901796e+00	 1.9858088821e-01
 1.2799820954e-01	 2.1697607970e+00	 2.1028317563e-01
 1.0954769477e-01	 2.1707705564e+00	 2.2041909464e-01
 9.1149390988e-02	 2.1716208938e+00	 2.2887287673e-01
 7.2805018193e-02	 2.1723132662e+00	 2.3560658280e-01
 5.4516261110e-02	 2.1728491500e+00	 2.4065458410e-01
 3.6284769073e-02	 2.1732300405e+00	 2.4411741454e-01
 1.8112155933e-02	 2.1734574510e+00	 2.4615513455e-01
 0.0000000000e+00	 2.1735329117e+00	 2.4698033941e-01
 1.8439076551e-01	 2.1745522145e+00	 1.7294633827e-01
 1.6571879967e-01	 2.1760548443e+00	 1.8682658077e-01
 1.4709386476e-01	 2.1773931450e+00	 1.9968155428e-01
 1.2851779310e-01	 2.1785685143e+00	 2.1122470018e-01
 1.0999238210e-01	 2.1795823726e+00	 2.2126330550e-01
 9.1519394018e-02	 2.1804361618e+00	 2.2969400940e-01
 7.3100555849e-02	 2.1811313447e+00	 2.3649737705e-01
 5.4737559153e-02	 2.1816694038e+00	 2.4173170026e-01
 3.6432059958e-02	 2.1820518404e+00	 2.4552617671e-01
 1.8185678669e-02	 2.1822801741e+00	 2.4807361150e-01
 0.0000000000e+00	 2.1823559412e+00	 2.4962277732e-01
 1.8513623746e-01	 2.1833436942e+00	 1.7480791092e-01
 1.6638878288e-01	 2.1848523990e+00	 1.8842571211e-01
 1.4768854937e-01	 2.1861961103e+00	 2.0103740316e-01
 1.2903737666e-01	 2.1873762315e+00	 2.1235941201e-01
 1.1043706942e-01	 2.1883941887e+00	 2.2220908373e-01
 9.1889397047e-02	 2.1892514297e+00	 2.3049949220e-01
 7.3396093504e-02	 2.1899494232e+00	 2.3723331924e-01
 5.4958857195e-02	 2.1904896576e+00	 2.4249596471e-01
 3.6579350844e-02	 2.1908736404e+00	 2.4644804321e-01
 1.8259201405e-02	 2.1911028972e+00	 2.4931741507e-01
 0.0000000000e+00	 2.1911789706e+00	 2.5139089095e-01
 1.8588170942e-01	 2.1921351740e+00	 1.7711865253e-01
 1.6705876610e-01	 2.1936499538e+00	 1.9049446169e-01
 1.4828323398e-01	 2.1949990757e+00	 2.0283611782e-01
 1.2955696022e-01	 2.1961839488e+00	 2.1386796568e-01
 1.1088175675e-01	 2.1972060049e+00	 2.2342195251e-01
 9.2259400077e-02	 2.1980666977e+00	 2.3143173237e-01
 7.3691631160e-02	 2.1987675017e+00	 2.3792583877e-01
 5.5180155238e-02	 2.1993099114e+00	 2.4302009340e-01
 3.6726641730e-02	 2.1996954404e+00	 2.4690941064e-01
 1.8332724141e-02	 2.1999256203e+00	 2.4985914894e-01
 0.0000000000e+00	 2.2000020000e+00	 2.5219615223e-01
 1.8662718137e-01	 2.2009266538e+00	 1.8005318109e-01
 1.6772874931e-01	 2.2024475085e+00	 1.9321693018e-01
 1.4887791859e-01	 2.2038020411e+00	 2.0526305823e-01
 1.3007654378e-01	 2.2049916661e+00	 2.1592886709e-01
 1.1132644407e-01	 2.2060178211e+00	 2.2506556545e-01
 9.2629403106e-02	 2.2068819656e+00	 2.3263165282e-01
 7.3987168815e-02	 2.2075855802e+00	 2.3868537345e-01
 5.5401453280e-02	 2.2081301652e+00	 2.4337641238e-01
 3.6873932615e-02	 2.2085172403e+00	 2.4693699734e-01
 1.8406246877e-02	 2.2087483434e+00	 2.4967256137e-01
 0.0000000000e+00	 2.2088250294e+00	 2.5195211265e-01
 1.8737265333e-01	 2.2097181336e+00	 1.8378377723e-01
 1.6839873252e-01	 2.2112450633e+00	 1.9677485368e-01
 1.4947260321e-01	 2.2126050064e+00	 2.0850129200e-01
 1.3059612734e-01	 2.2137993833e+00	 2.1871850284e-01
 1.1177113140e-01	 2.2148296373e+00	 2.2730173238e-01
 9.2999406135e-02	 2.2156972336e+00	 2.3423871220e-01
 7.4282706470e-02	 2.2164036587e+00	 2.3962138170e-01
 5.5622751322e-02	 2.2169504190e+00	 2.4363685975e-01
 3.7021223500e-02	 2.2173390403e+00	 2.4655783309e-01
 1.8479769612e-02	 2.2175710665e+00	 2.4873252041e-01
 0.0000000000e+00	 2.2176480588e+00	 2.5057436186e-01
 1.8811812528e-01	 2.2185096134e+00	 1.8848041004e-01
 1.6906871573e-01	 2.2200426181e+00	 2.0134763280e-01
 1.5006728782e-01	 2.2214079718e+00	 2.1273162427e-01
 1.3111571090e-01	 2.2226071006e+00	 2.2240726622e-01
 1.1221581872e-01	 2.2236414534e+00	 2.3026460485e-01
 9.3369409163e-02	 2.2245125015e+00	 2.3638091924e-01
 7.4578244125e-02	 2.2252217372e+00	 2.4092368249e-01
 5.5844049364e-02	 2.2257706728e+00	 2.4412717345e-01
 3.7168514385e-02	 2.2261608403e+00	 2.4628889148e-01
 1.8553292348e-02	 2.2263937896e+00	 2.4776621983e-01
 0.0000000000e+00	 2.2264710882e+00	 2.4897331713e-01
 1.8886359723e-01	 2.2273010932e+00	 1.9298784680e-01
 1.6973869895e-01	 2.2288401728e+00	 2.0526845402e-01
 1.5066197243e-01	 2.2302109371e+00	 2.1605187955e-01
 1.3163529446e-01	 2.2314148178e+00	 2.2525498756e-01
 1.1266050604e-01	 2.2324532696e+00	 2.3287056782e-01
 9.3739412190e-02	 2.2333277695e+00	 2.3896301788e-01
 7.4873781778e-02	 2.2340398157e+00	 2.4366434645e-01
 5.6065347405e-02	 2.2345909267e+00	 2.4717047354e-01
 3.7315805270e-02	 2.2349826402e+00	 2.4973780366e-01
 1.8626815083e-02	 2.2352165126e+00	 2.5168004912e-01
 0.0000000000e+00	 2.2352941176e+00	 2.5336528186e-01
 2.2352941176e+00	 0.0000000000e+00	 2.3868557293e+00
 2.2352165126e+00	 1.8626815083e-02	 2.3866391463e+00
 2.2349826402e+00	 3.7315805270e-02	 2.3829975934e+00
 2.2345909267e+00	 5.6065347405e-02	 2.3764455659e+00
 2.2340398157e+00	 7.4873781778e-02	 2.3674235380e+00
 2.2333277695e+00	 9.3739412190e-02	 2.3562952880e+00
 2.2324532696e+00	 1.1266050604e-01	 2.3433449724e+00
 2.2314148178e+00	 1.3163529446e-01	 2.3287739265e+00
 2.2302109371e+00	 1.5066197243e-01	 2.3126971673e+00
 2.2288401728e+00	 1.6973869895e-01	 2.2951395743e+00
 2.2273010932e+00	 1.8886359723e-01	 2.2760317222e+00
 2.2441171470e+00	 0.0000000000e+00	 2.3664015297e+00
 2.2440392357e+00	 1.8700337818e-02	 2.3668592028e+00
 2.2438044402e+00	 3.7463096154e-02	 2.3640332728e+00
 2.2434111805e+00	 5.6286645446e-02	 2.3583833295e+00
 2.2428578942e+00	 7.5169319431e-02	 2.3502960614e+00
 2.2421430375e+00	 9.4109415217e-02	 2.3400827193e+00
 2.2412650858e+00	 1.1310519337e-01	 2.3279763282e+00
 2.2402225351e+00	 1.3215487802e-01	 2.3141286254e+00
 2.2390139025e+00	 1.5125665704e-01	 2.2986066996e+00
 2.2376377276e+00	 1.7040868216e-01	 2.2813893061e+00
 2.2360925730e+00	 1.8960906919e-01	 2.2623628316e+00
 2.2529401764e+00	 0.0000000000e+00	 2.3469640860e+00
 2.2528619588e+00	 1.8773860553e-02	 2.3479182096e+00
 2.2526262402e+00	 3.7610387038e-02	 2.3457297839e+00
 2.2522314343e+00	 5.6507943486e-02	 2.3408083546e+00
 2.2516759727e+00	 7.5464857084e-02	 2.3334917333e+00
 2.2509583054e+00	 9.4479418243e-02	 2.3240435961e+00
 2.2500769020e+00	 1.1354988069e-01	 2.3126508309e+00
 2.2490302523e+00	 1.3267446158e-01	 2.2994206091e+00
 2.2478168679e+00	 1.5185134165e-01	 2.2843771587e+00
 2.2464352823e+00	 1.7107866537e-01	 2.2674582099e+00
 2.2448840528e+00	 1.9035454114e-01	 2.2485110888e+00
 2.2617632059e+00	 0.0000000000e+00	 2.3285237220e+00
 2.2616846819e+00	 1.8847383288e-02	 2.3298098556e+00
 2.2614480401e+00	 3.7757677922e-02	 2.3280933669e+00
 2.2610516881e+00	 5.6729241526e-02	 2.3237385470e+00
 2.2604940512e+00	 7.5760394736e-02	 2.3170391672e+00
 2.2597735734e+00	 9.4849421268e-02	 2.3082162091e+00
 2.2588887181e+00	 1.1399456801e-01	 2.2974153444e+00
 2.2578379696e+00	 1.3319404514e-01	 2.2847041381e+00
 2.2566198332e+00	 1.5244602626e-01	 2.2700689509e+00
 2.2552328371e+00	 1.7174864857e-01	 2.2534115136e+00
 2.2536755325e+00	 1.9110001309e-01	 2.2345451453e+00
 2.2705862353e+00	 0.0000000000e+00	 2.3110615811e+00
 2.2705074050e+00	 1.8920906022e-02	 2.3125284383e+00
 2.2702698401e+00	 3.7904968805e-02	 2.3111306711e+00
 2.2698719419e+00	 5.6950539565e-02	 2.3071920350e+00
 2.2693121297e+00	 7.6055932387e-02	 2.3009670259e+00
 2.2685888413e+00	 9.5219424293e-02	 2.2926387395e+00
 2.2677005343e+00	 1.1443925533e-01	 2.2823164799e+00
 2.2666456868e+00	 1.3371362869e-01	 2.2700330921e+00
 2.2654227986e+00	 1.5304071086e-01	 2.2557419908e+00
 2.2640303919e+00	 1.7241863178e-01	 2.2393138597e+00
 2.2624670123e+00	 1.9184548504e-01	 2.2205329914e+00
 2.2794092647e+00	 0.0000000000e+00	 2.2945596104e+00
 2.2793301281e+00	 1.8994428757e-02	 2.2960688505e+00
 2.2790916401e+00	 3.8052259688e-02	 2.2948487449e+00
 2.2786921957e+00	 5.7171837604e-02	 2.2911871622e+00
 2.2781302082e+00	 7.6351470039e-02	 2.2853040171e+00
 2.2774041093e+00	 9.5589427318e-02	 2.2773492565e+00
 2.2765123505e+00	 1.1488394265e-01	 2.2674005948e+00
 2.2754534041e+00	 1.3423321225e-01	 2.2554609714e+00
 2.2742257640e+00	 1.5363539547e-01	 2.2414557041e+00
 2.2728279466e+00	 1.7308861499e-01	 2.2252293096e+00
 2.2712584921e+00	 1.9259095699e-01	 2.2065419625e+00
 2.2882322941e+00	 0.0000000000e+00	 2.2790005450e+00
 2.2881528512e+00	 1.9067951492e-02	 2.2804265682e+00
 2.2879134400e+00	 3.8199550571e-02	 2.2792550260e+00
 2.2875124496e+00	 5.7393135643e-02	 2.2757424799e+00
 2.2869482867e+00	 7.6647007690e-02	 2.2700788879e+00
 2.2862193772e+00	 9.5959430343e-02	 2.2623857151e+00
 2.2853241667e+00	 1.1532862997e-01	 2.2527137928e+00
 2.2842611214e+00	 1.3475279581e-01	 2.2410408985e+00
 2.2830287293e+00	 1.5423008008e-01	 2.2272690306e+00
 2.2816255014e+00	 1.7375859820e-01	 2.2112213479e+00
 2.2800499719e+00	 1.9333642894e-01	 2.1926387441e+00
 2.2970553235e+00	 0.0000000000e+00	 2.2643678932e+00
 2.2969755743e+00	 1.9141474226e-02	 2.2655976377e+00
 2.2967352400e+00	 3.8346841455e-02	 2.2643573318e+00
 2.2963327034e+00	 5.7614433683e-02	 2.2608767405e+00
 2.2957663652e+00	 7.6942545342e-02	 2.2553204207e+00
 2.2950346452e+00	 9.6329433368e-02	 2.2477859534e+00
 2.2941359828e+00	 1.1577331729e-01	 2.2383019232e+00
 2.2930688386e+00	 1.3527237936e-01	 2.2268256191e+00
 2.2918316947e+00	 1.5482476469e-01	 2.2132404275e+00
 2.2904230561e+00	 1.7442858141e-01	 2.1973528872e+00
 2.2888414517e+00	 1.9408190089e-01	 2.1788893772e+00
 2.3058783529e+00	 0.0000000000e+00	 2.2506459213e+00
 2.3057982974e+00	 1.9214996961e-02	 2.2515786642e+00
 2.3055570400e+00	 3.8494132338e-02	 2.2501638499e+00
 2.3051529572e+00	 5.7835731722e-02	 2.2466088904e+00
 2.3045844437e+00	 7.7238082994e-02	 2.2410574287e+00
 2.3038499131e+00	 9.6699436393e-02	 2.2335876902e+00
 2.3029477990e+00	 1.1621800461e-01	 2.2242105805e+00
 2.3018765559e+00	 1.3579196292e-01	 2.2128675040e+00
 2.3006346601e+00	 1.5541944930e-01	 2.1994278721e+00
 2.2992206109e+00	 1.7509856462e-01	 2.1836862719e+00
 2.2976329315e+00	 1.9482737284e-01	 2.1653592639e+00
 2.3147013824e+00	 0.0000000000e+00	 2.2378196397e+00
 2.3146210205e+00	 1.9288519696e-02	 2.2383667994e+00
 2.3143788399e+00	 3.8641423222e-02	 2.2366831289e+00
 2.3139732110e+00	 5.8057029762e-02	 2.2329580632e+00
 2.3134025222e+00	 7.7533620647e-02	 2.2273187512e+00
 2.3126651811e+00	 9.7069439419e-02	 2.2198285230e+00
 2.3117596152e+00	 1.1666269193e-01	 2.2104851045e+00
 2.3106842731e+00	 1.3631154648e-01	 2.1992185501e+00
 2.3094376254e+00	 1.5601413391e-01	 2.1858888647e+00
 2.3080181656e+00	 1.7576854783e-01	 2.1702832826e+00
 2.3064244113e+00	 1.9557284479e-01	 2.1521131724e+00
 2.3235244118e+00	 0.0000000000e+00	 2.2258747881e+00
 2.3234437436e+00	 1.9362042431e-02	 2.2259597307e+00
 2.3232006399e+00	 3.8788714106e-02	 2.2239240696e+00
 2.3227934648e+00	 5.8278327803e-02	 2.2199435733e+00
 2.3222206007e+00	 7.7829158300e-02	 2.2141332493e+00
 2.3214804490e+00	 9.7439442445e-02	 2.2065459256e+00
 2.3205714314e+00	 1.1710737926e-01	 2.1971705794e+00
 2.3194919904e+00	 1.3683113004e-01	 2.1859303822e+00
 2.3182405908e+00	 1.5660881852e-01	 2.1726804320e+00
 2.3168157204e+00	 1.7643853104e-01	 2.1572051404e+00
 2.3152158911e+00	 1.9631831674e-01	 2.1392152424e+00
 2.2273010932e+00	 1.8886359723e-01	 2.2760317222e+00
 2.2255919856e+00	 2.0803801046e-01	 2.2554477901e+00
 2.2237117139e+00	 2.2725670416e-01	 2.2339338823e+00
 2.2216589208e+00	 2.4651764747e-01	 2.2119481438e+00
 2.2194322757e+00	 2.6581877354e-01	 2.1893186060e+00
 2.2170304767e+00	 2.8515797987e-01	 2.1657657733e+00
 2.2144522504e+00	 3.0453312866e-01	 2.1409990534e+00
 2.2116963537e+00	 3.2394204717e-01	 2.1145695909e+00
 2.2087615747e+00	 3.4338252815e-01	 2.0858760067e+00
 2.2056467332e+00	 3.6285233028e-01	 2.0541729168e+00
 2.2023506823e+00	 3.8234917865e-01	 2.0189327628e+00
 2.2360925730e+00	 1.8960906919e-01	 2.2623628316e+00
 2.2343767193e+00	 2.0885916660e-01	 2.2415525373e+00
 2.2324890259e+00	 2.2815371926e-01	 2.2194512215e+00
 2.2304281301e+00	 2.4749068830e-01	 2.1964900041e+00
 2.2281926962e+00	 2.6686799871e-01	 2.1729954411e+00
 2.2257814168e+00	 2.8628353969e-01	 2.1491825397e+00
 2.2231930139e+00	 3.0573516500e-01	 2.1251472299e+00
 2.2204262394e+00	 3.2522069331e-01	 2.1005562771e+00
 2.2174798763e+00	 3.4473790869e-01	 2.0738926798e+00
 2.2143527401e+00	 3.6428456095e-01	 2.0442231695e+00
 2.2110436792e+00	 3.8385836620e-01	 2.0109762459e+00
 2.2448840528e+00	 1.9035454114e-01	 2.2485110888e+00
 2.2431614530e+00	 2.0968032273e-01	 2.2275193088e+00
 2.2412663379e+00	 2.2905073436e-01	 2.2049308345e+00
 2.2391973394e+00	 2.4846372913e-01	 2.1811364826e+00
 2.2369531166e+00	 2.6791722388e-01	 2.1564250785e+00
 2.2345323570e+00	 2.8740909951e-01	 2.1309765824e+00
 2.2319337775e+00	 3.0693720133e-01	 2.1048546649e+00
 2.2291561250e+00	 3.2649933946e-01	 2.0779987059e+00
 2.2261981779e+00	 3.4609328922e-01	 2.0502151865e+00
 2.2230587470e+00	 3.6571679161e-01	 2.0211684494e+00
 2.2197366761e+00	 3.8536755374e-01	 1.9901950429e+00
 2.2536755325e+00	 1.9110001309e-01	 2.2345451453e+00
 2.2519461867e+00	 2.1050147887e-01	 2.2134181374e+00
 2.2500436499e+00	 2.2994774946e-01	 2.1904414318e+00
 2.2479665487e+00	 2.4943676996e-01	 2.1659725176e+00
 2.2457135370e+00	 2.6896644905e-01	 2.1402694121e+00
 2.2432832972e+00	 2.8853465932e-01	 2.1134838899e+00
 2.2406745410e+00	 3.0813923766e-01	 2.0856541551e+00
 2.2378860106e+00	 3.2777798560e-01	 2.0566969256e+00
 2.2349164796e+00	 3.4744866976e-01	 2.0263989029e+00
 2.2317647539e+00	 3.6714902227e-01	 1.9944075972e+00
 2.2284296730e+00	 3.8687674129e-01	 1.9607587043e+00
 2.2624670123e+00	 1.9184548504e-01	 2.2205329914e+00
 2.2607309204e+00	 2.1132263500e-01	 2.1993183478e+00
 2.2588209619e+00	 2.3084476456e-01	 2.1760510063e+00
 2.2567357580e+00	 2.5040981079e-01	 2.1510620062e+00
 2.2544739575e+00	 2.7001567422e-01	 2.1245853815e+00
 2.2520342374e+00	 2.8966021914e-01	 2.0967514871e+00
 2.2494153045e+00	 3.0934127399e-01	 2.0675797573e+00
 2.2466158962e+00	 3.2905663174e-01	 2.0369708702e+00
 2.2436347812e+00	 3.4880405029e-01	 2.0046982854e+00
 2.2404707608e+00	 3.6858125293e-01	 1.9703991264e+00
 2.2371226699e+00	 3.8838592883e-01	 1.9341562762e+00
 2.2712584921e+00	 1.9259095699e-01	 2.2065419625e+00
 2.2695156541e+00	 2.1214379113e-01	 2.1852885627e+00
 2.2675982739e+00	 2.3174177966e-01	 2.1618268393e+00
 2.2655049673e+00	 2.5138285162e-01	 2.1364681623e+00
 2.2632343779e+00	 2.7106489939e-01	 2.1094293118e+00
 2.2607851776e+00	 2.9078577895e-01	 2.0808258923e+00
 2.2581560681e+00	 3.1054331033e-01	 2.0506651721e+00
 2.2553457818e+00	 3.3033527789e-01	 2.0188383180e+00
 2.2523530828e+00	 3.5015943083e-01	 1.9851119937e+00
 2.2491767677e+00	 3.7001348360e-01	 1.9491192921e+00
 2.2458156668e+00	 3.8989511638e-01	 1.9109908839e+00
 2.2800499719e+00	 1.9333642894e-01	 2.1926387441e+00
 2.2783003878e+00	 2.1296494727e-01	 2.1713967087e+00
 2.2763755859e+00	 2.3263879476e-01	 2.1478355063e+00
 2.2742741767e+00	 2.5235589245e-01	 2.1222535222e+00
 2.2719947983e+00	 2.7211412455e-01	 2.0948569164e+00
 2.2695361177e+00	 2.9191133877e-01	 2.0657531190e+00
 2.2668968316e+00	 3.1174534666e-01	 2.0349437422e+00
 2.2640756675e+00	 3.3161392403e-01	 2.0023168782e+00
 2.2610713844e+00	 3.5151481136e-01	 1.9676387506e+00
 2.2578827746e+00	 3.7144571426e-01	 1.9305458154e+00
 2.2545086637e+00	 3.9140430392e-01	 1.8912126452e+00
 2.2888414517e+00	 1.9408190089e-01	 2.1788893772e+00
 2.2870851215e+00	 2.1378610340e-01	 2.1577100225e+00
 2.2851528979e+00	 2.3353580986e-01	 2.1341428831e+00
 2.2830433860e+00	 2.5332893328e-01	 2.1084799495e+00
 2.2807552187e+00	 2.7316334972e-01	 2.0809233015e+00
 2.2782870579e+00	 2.9303689858e-01	 2.0515786774e+00
 2.2756375952e+00	 3.1294738299e-01	 2.0204484511e+00
 2.2728055531e+00	 3.3289257017e-01	 1.9874239862e+00
 2.2697896861e+00	 3.5287019190e-01	 1.9522773322e+00
 2.2665887815e+00	 3.7287794492e-01	 1.9146579028e+00
 2.2632016606e+00	 3.9291349147e-01	 1.8747724497e+00
 2.2976329315e+00	 1.9482737284e-01	 2.1653592639e+00
 2.2958698551e+00	 2.1460725954e-01	 2.1442950569e+00
 2.2939302098e+00	 2.3443282496e-01	 2.1208141517e+00
 2.2918125953e+00	 2.5430197411e-01	 2.0952086405e+00
 2.2895156391e+00	 2.7421257489e-01	 2.0676829697e+00
 2.2870379981e+00	 2.9416245840e-01	 2.0383475761e+00
 2.2843783587e+00	 3.1414941932e-01	 2.0072119223e+00
 2.2815354387e+00	 3.3417121631e-01	 1.9741768990e+00
 2.2785079877e+00	 3.5422557243e-01	 1.9390265588e+00
 2.2752947884e+00	 3.7431017558e-01	 1.9014316947e+00
 2.2718946575e+00	 3.9442267901e-01	 1.8616219336e+00
 2.3064244113e+00	 1.9557284479e-01	 2.1521131724e+00
 2.3046545888e+00	 2.1542841567e-01	 2.1312176863e+00
 2.3027075218e+00	 2.3532984006e-01	 2.1079138062e+00
 2.3005818046e+00	 2.5527501495e-01	 2.0825001293e+00
 2.2982760596e+00	 2.7526180006e-01	 2.0551898236e+00
 2.2957889383e+00	 2.9528801822e-01	 2.0261043238e+00
 2.2931191223e+00	 3.1535145565e-01	 1.9952664179e+00
 2.2902653243e+00	 3.3544986246e-01	 1.9625926904e+00
 2.2872262893e+00	 3.5558095297e-01	 1.9278852866e+00
 2.2840007953e+00	 3.7574240624e-01	 1.8908435765e+00
 2.2805876544e+00	 3.9593186656e-01	 1.8517134563e+00
 2.3152158911e+00	 1.9631831674e-01	 2.1392152424e+00
 2.3134393225e+00	 2.1624957181e-01	 2.1185431128e+00
 2.3114848338e+00	 2.3622685516e-01	 2.0955056584e+00
 2.3093510139e+00	 2.5624805578e-01	 2.0704142931e+00
 2.3070364800e+00	 2.7631102523e-01	 2.0434971703e+00
 2.3045398784e+00	 2.9641357803e-01	 2.0148929317e+00
 2.3018598858e+00	 3.1655349199e-01	 1.9846438383e+00
 2.2989952099e+00	 3.3672850860e-01	 1.9526882471e+00
 2.2959445909e+00	 3.5693633350e-01	 1.9188523987e+00
 2.2927068022e+00	 3.7717463691e-01	 1.8828703334e+00
 2.2892806513e+00	 3.9744105410e-01	 1.8450000768e+00
 2.2023506823e+00	 3.8234917865e-01	 2.0189327628e+00
 2.1988729154e+00	 4.0186744582e-01	 1.9805854488e+00
 2.1952118086e+00	 4.2140810864e-01	 1.9388622662e+00
 2.1913663186e+00	 4.4096880104e-01	 1.8939182830e+00
 2.1873354389e+00	 4.6054712568e-01	 1.8459369355e+00
 2.1831182005e+00	 4.8014065454e-01	 1.7951450576e+00
 2.1787136732e+00	 4.9974692960e-01	 1.7418268368e+00
 2.1741209666e+00	 5.1936346347e-01	 1.6863364101e+00
 2.1693392306e+00	 5.3898774018e-01	 1.6291088163e+00
 2.1643676566e+00	 5.5861721583e-01	 1.5706690145e+00
 2.1592054782e+00	 5.7824931944e-01	 1.5116386858e+00
 2.2110436792e+00	 3.8385836620e-01	 2.0109762459e+00
 2.2075521850e+00	 4.0345367480e-01	 1.9744368038e+00
 2.2038766273e+00	 4.2307146744e-01	 1.9342838879e+00
 2.2000159587e+00	 4.4270936872e-01	 1.8906596319e+00
 2.1959691684e+00	 4.6236497184e-01	 1.8437348628e+00
 2.1917352840e+00	 4.8203583920e-01	 1.7937252184e+00
 2.1873133714e+00	 5.0171950306e-01	 1.7409061657e+00
 2.1827025368e+00	 5.2141346623e-01	 1.6856266277e+00
 2.1779019266e+00	 5.4111520280e-01	 1.6283209217e+00
 2.1729107290e+00	 5.6082215883e-01	 1.5695187145e+00
 2.1677281748e+00	 5.8053175320e-01	 1.5098526978e+00
 2.2197366761e+00	 3.8536755374e-01	 1.9901950429e+00
 2.2162314547e+00	 4.0503990377e-01	 1.9560104274e+00
 2.2125414461e+00	 4.2473482623e-01	 1.9181353530e+00
 2.2086655987e+00	 4.4444993640e-01	 1.8766680119e+00
 2.2046028980e+00	 4.6418281800e-01	 1.8317357667e+00
 2.2003523675e+00	 4.8393102385e-01	 1.7835124261e+00
 2.1959130696e+00	 5.0369207652e-01	 1.7322343988e+00
 2.1912841069e+00	 5.2346346899e-01	 1.6782154202e+00
 2.1864646225e+00	 5.4324266542e-01	 1.6218595495e+00
 2.1814538014e+00	 5.6302710183e-01	 1.5636721291e+00
 2.1762508713e+00	 5.8281418696e-01	 1.5042684046e+00
 2.2284296730e+00	 3.8687674129e-01	 1.9607587043e+00
 2.2249107243e+00	 4.0662613274e-01	 1.9260531877e+00
 2.2212062648e+00	 4.2639818503e-01	 1.8903342852e+00
 2.2173152387e+00	 4.4619050408e-01	 1.8518591657e+00
 2.2132366276e+00	 4.6600066416e-01	 1.8098578612e+00
 2.2089694510e+00	 4.8582620851e-01	 1.7644318367e+00
 2.2045127678e+00	 5.0566464998e-01	 1.7157482277e+00
 2.1998656770e+00	 5.2551347175e-01	 1.6640557394e+00
 2.1950273184e+00	 5.4537012804e-01	 1.6096987728e+00
 2.1899968738e+00	 5.6523204483e-01	 1.5531294601e+00
 2.1847735679e+00	 5.8509662071e-01	 1.4949172971e+00
 2.2371226699e+00	 3.8838592883e-01	 1.9341562762e+00
 2.2335899940e+00	 4.0821236171e-01	 1.8964637184e+00
 2.2298710835e+00	 4.2806154382e-01	 1.8574562790e+00
 2.2259648788e+00	 4.4793107176e-01	 1.8177753609e+00
 2.2218703571e+00	 4.6781851032e-01	 1.7780238823e+00
 2.2175865345e+00	 4.8772139316e-01	 1.7364131554e+00
 2.2131124661e+00	 5.0763722344e-01	 1.6913888113e+00
 2.2084472472e+00	 5.2756347451e-01	 1.6431048066e+00
 2.2035900143e+00	 5.4749759066e-01	 1.5918166158e+00
 2.1985399462e+00	 5.6743698783e-01	 1.5378944134e+00
 2.1932962644e+00	 5.8737905447e-01	 1.4818337897e+00
 2.2458156668e+00	 3.8989511638e-01	 1.9109908839e+00
 2.2422692636e+00	 4.0979859068e-01	 1.8711096528e+00
 2.2385359023e+00	 4.2972490262e-01	 1.8295795067e+00
 2.2346145188e+00	 4.4967163944e-01	 1.7870256194e+00
 2.2305040867e+00	 4.6963635648e-01	 1.7440479247e+00
 2.2262036180e+00	 4.8961657782e-01	 1.7012265132e+00
 2.2217121643e+00	 5.0960979690e-01	 1.6591016588e+00
 2.2170288173e+00	 5.2961347727e-01	 1.6153239901e+00
 2.2121527103e+00	 5.4962505327e-01	 1.5681949250e+00
 2.2070830186e+00	 5.6964193084e-01	 1.5179740671e+00
 2.2018189609e+00	 5.8966148822e-01	 1.4650550865e+00
 2.2545086637e+00	 3.9140430392e-01	 1.8912126452e+00
 2.2509485333e+00	 4.1138481965e-01	 1.8499160553e+00
 2.2472007210e+00	 4.3138826141e-01	 1.8067161740e+00
 2.2432641588e+00	 4.5141220712e-01	 1.7621995153e+00
 2.2391378163e+00	 4.7145420264e-01	 1.7169290663e+00
 2.2348207015e+00	 4.9151176247e-01	 1.6714496853e+00
 2.2303118625e+00	 5.1158237036e-01	 1.6262938695e+00
 2.2256103874e+00	 5.3166348003e-01	 1.5819879234e+00
 2.2207154062e+00	 5.5175251589e-01	 1.5388192434e+00
 2.2156260910e+00	 5.7184687384e-01	 1.4933787414e+00
 2.2103416575e+00	 5.9194392198e-01	 1.4446210490e+00
 2.2632016606e+00	 3.9291349147e-01	 1.8747724497e+00
 2.2596278029e+00	 4.1297104862e-01	 1.8328090805e+00
 2.2558655397e+00	 4.3305162021e-01	 1.7887709322e+00
 2.2519137988e+00	 4.5315277479e-01	 1.7431837223e+00
 2.2477715458e+00	 4.7327204880e-01	 1.6965514093e+00
 2.2434377850e+00	 4.9340694713e-01	 1.6493616173e+00
 2.2389115607e+00	 5.1355494382e-01	 1.6020914369e+00
 2.2341919575e+00	 5.3371348279e-01	 1.5552136346e+00
 2.2292781021e+00	 5.5387997851e-01	 1.5092032993e+00
 2.2241691634e+00	 5.7405181684e-01	 1.4645449577e+00
 2.2188643540e+00	 5.9422635573e-01	 1.4205740642e+00
 2.2718946575e+00	 3.9442267901e-01	 1.8616219336e+00
 2.2683070726e+00	 4.1455727759e-01	 1.8197159418e+00
 2.2645303585e+00	 4.3471497900e-01	 1.7756497542e+00
 2.2605634389e+00	 4.5489334247e-01	 1.7298664454e+00
 2.2564052754e+00	 4.7508989496e-01	 1.6827891520e+00
 2.2520548686e+00	 4.9530213178e-01	 1.6348265507e+00
 2.2475112589e+00	 5.1552751728e-01	 1.5863787181e+00
 2.2427735277e+00	 5.3576348554e-01	 1.5378434073e+00
 2.2378407980e+00	 5.5600744113e-01	 1.4896227713e+00
 2.2327122358e+00	 5.7625675983e-01	 1.4421305642e+00
 2.2273870506e+00	 5.9650878948e-01	 1.3957998502e+00
 2.2805876544e+00	 3.9593186656e-01	 1.8517134563e+00
 2.2769863422e+00	 4.1614350656e-01	 1.8105648821e+00
 2.2731951772e+00	 4.3637833780e-01	 1.7672599004e+00
 2.2692130789e+00	 4.5663391015e-01	 1.7221373822e+00
 2.2650390049e+00	 4.7690774112e-01	 1.6755181355e+00
 2.2606719521e+00	 4.9719731644e-01	 1.6277104604e+00
 2.2561109571e+00	 5.1750009074e-01	 1.5790160953e+00
 2.2513550978e+00	 5.3781348830e-01	 1.5297365865e+00
 2.2464034940e+00	 5.5813490375e-01	 1.4801801160e+00
 2.2412553082e+00	 5.7846170283e-01	 1.4306688170e+00
 2.2359097471e+00	 5.9879122324e-01	 1.3815466090e+00
 2.2892806513e+00	 3.9744105410e-01	 1.8450000768e+00
 2.2856656119e+00	 4.1772973553e-01	 1.8052851446e+00
 2.2818599959e+00	 4.3804169659e-01	 1.7635098843e+00
 2.2778627189e+00	 4.5837447783e-01	 1.7198876862e+00
 2.2736727345e+00	 4.7872558728e-01	 1.6746158041e+00
 2.2692890356e+00	 4.9909250109e-01	 1.6278810140e+00
 2.2647106553e+00	 5.1947266420e-01	 1.5798656710e+00
 2.2599366679e+00	 5.3986349106e-01	 1.5307541996e+00
 2.2549661899e+00	 5.6026236637e-01	 1.4807400515e+00
 2.2497983806e+00	 5.8066664583e-01	 1.4300331641e+00
 2.2444324436e+00	 6.0107365699e-01	 1.3788679497e+00
 2.1592054782e+00	 5.7824931944e-01	 1.5116386858e+00
 2.1538519729e+00	 5.9788145400e-01	 1.4525096026e+00
 2.1483064638e+00	 6.1751099811e-01	 1.3930796072e+00
 2.1425683196e+00	 6.3713530613e-01	 1.3330865728e+00
 2.1366369545e+00	 6.5675170875e-01	 1.2723743635e+00
 2.1305118294e+00	 6.7635751393e-01	 1.2108861975e+00
 2.1241924524e+00	 6.9595000784e-01	 1.1486542538e+00
 2.1176783796e+00	 7.1552645584e-01	 1.0857853091e+00
 2.1109692158e+00	 7.3508410348e-01	 1.0224422099e+00
 2.1040646156e+00	 7.5462017753e-01	 9.5879252263e-01
 2.0969642834e+00	 7.7413188700e-01	 8.9452326633e-01
 2.1677281748e+00	 5.8053175320e-01	 1.5098526978e+00
 2.1623535384e+00	 6.0024137863e-01	 1.4499359923e+00
 2.1567861403e+00	 6.1994840339e-01	 1.3896819342e+00
 2.1510253468e+00	 6.3965017140e-01	 1.3288419854e+00
 2.1450705698e+00	 6.5934400280e-01	 1.2672822311e+00
 2.1389212680e+00	 6.7902719493e-01	 1.2049772106e+00
 2.1325769474e+00	 6.9869702325e-01	 1.1419998802e+00
 2.1260371626e+00	 7.1835074232e-01	 1.0785074875e+00
 2.1193015169e+00	 7.3798558683e-01	 1.0147231552e+00
 2.1123696632e+00	 7.5759877259e-01	 9.5085161201e-01
 2.1052413049e+00	 7.7718749760e-01	 8.8654393675e-01
 2.1762508713e+00	 5.8281418696e-01	 1.5042684046e+00
 2.1708551038e+00	 6.0260130326e-01	 1.4443572652e+00
 2.1652658169e+00	 6.2238580868e-01	 1.3839632968e+00
 2.1594823741e+00	 6.4216503667e-01	 1.3228559255e+00
 2.1535041851e+00	 6.6193629684e-01	 1.2609283216e+00
 2.1473307065e+00	 6.8169687593e-01	 1.1981917105e+00
 2.1409614425e+00	 7.0144403866e-01	 1.1347657023e+00
 2.1343959457e+00	 7.2117502881e-01	 1.0708644103e+00
 2.1276338179e+00	 7.4088707018e-01	 1.0067781539e+00
 2.1206747107e+00	 7.6057736764e-01	 9.4273647756e-01
 2.1135183265e+00	 7.8024310820e-01	 8.7836931119e-01
 2.1847735679e+00	 5.8509662071e-01	 1.4949172971e+00
 2.1793566693e+00	 6.0496122789e-01	 1.4358381864e+00
 2.1737454935e+00	 6.2482321396e-01	 1.3760203003e+00
 2.1679394014e+00	 6.4467990193e-01	 1.3152552064e+00
 2.1619378004e+00	 6.6452859089e-01	 1.2534678373e+00
 2.1557401451e+00	 6.8436655692e-01	 1.1907112958e+00
 2.1493459376e+00	 7.0419105406e-01	 1.1271575604e+00
 2.1427547288e+00	 7.2399931529e-01	 1.0630838563e+00
 2.1359661189e+00	 7.4378855353e-01	 9.9885492630e-01
 2.1289797583e+00	 7.6355596270e-01	 9.3470617454e-01
 2.1217953480e+00	 7.8329871880e-01	 8.7027226563e-01
 2.1932962644e+00	 5.8737905447e-01	 1.4818337897e+00
 2.1878582348e+00	 6.0732115253e-01	 1.4244457768e+00
 2.1822251700e+00	 6.2726061925e-01	 1.3659511010e+00
 2.1763964286e+00	 6.4719476720e-01	 1.3061674516e+00
 2.1703714157e+00	 6.6712088494e-01	 1.2450560153e+00
 2.1641495836e+00	 6.8703623792e-01	 1.1827167895e+00
 2.1577304326e+00	 7.0693806947e-01	 1.1193796761e+00
 2.1511135119e+00	 7.2682360177e-01	 1.0553911110e+00
 2.1442984200e+00	 7.4669003687e-01	 9.9119486684e-01
 2.1372848059e+00	 7.6653455776e-01	 9.2701553878e-01
 2.1300723696e+00	 7.8635432940e-01	 8.6252119253e-01
 2.2018189609e+00	 5.8966148822e-01	 1.4650550865e+00
 2.1963598003e+00	 6.0968107716e-01	 1.4102491776e+00
 2.1907048466e+00	 6.2969802453e-01	 1.3538552691e+00
 2.1848534559e+00	 6.4970963247e-01	 1.2957209549e+00
 2.1788050310e+00	 6.6971317899e-01	 1.2358479830e+00
 2.1725590222e+00	 6.8970591892e-01	 1.1743880909e+00
 2.1661149277e+00	 7.0968508488e-01	 1.1116344987e+00
 2.1594722949e+00	 7.2964788825e-01	 1.0480088069e+00
 2.1526307210e+00	 7.4959152022e-01	 9.8403404341e-01
 2.1455898535e+00	 7.6951315282e-01	 9.1991523586e-01
 2.1383493911e+00	 7.8940994000e-01	 8.5538005541e-01
 2.2103416575e+00	 5.9194392198e-01	 1.4446210490e+00
 2.2048613658e+00	 6.1204100179e-01	 1.3933195163e+00
 2.1991845231e+00	 6.3213542981e-01	 1.3398336513e+00
 2.1933104832e+00	 6.5222449773e-01	 1.2840445400e+00
 2.1872386464e+00	 6.7230547303e-01	 1.2259986147e+00
 2.1809684607e+00	 6.9237559992e-01	 1.1659040269e+00
 2.1744994227e+00	 7.1243210028e-01	 1.1041225523e+00
 2.1678310780e+00	 7.3247217473e-01	 1.0411567651e+00
 2.1609630220e+00	 7.5249300356e-01	 9.7760467075e-01
 2.1538949010e+00	 7.7249174788e-01	 9.1365181010e-01
 2.1466264126e+00	 7.9246555060e-01	 8.4910844333e-01
 2.2188643540e+00	 5.9422635573e-01	 1.4205740642e+00
 2.2133629312e+00	 6.1440092642e-01	 1.3737297723e+00
 2.2076641997e+00	 6.3457283509e-01	 1.3239882347e+00
 2.2017675104e+00	 6.5473936300e-01	 1.2712674213e+00
 2.1956722617e+00	 6.7489776708e-01	 1.2156623881e+00
 2.1893778993e+00	 6.9504528091e-01	 1.1574422047e+00
 2.1828839178e+00	 7.1517911569e-01	 1.0970422827e+00
 2.1761898611e+00	 7.3529646121e-01	 1.0350518364e+00
 2.1692953231e+00	 7.5539448691e-01	 9.7213515353e-01
 2.1621999486e+00	 7.7547034294e-01	 9.0846773341e-01
 2.1549034342e+00	 7.9552116120e-01	 8.4396162494e-01
 2.2273870506e+00	 5.9650878948e-01	 1.3957998502e+00
 2.2218644967e+00	 6.1676085105e-01	 1.3515546450e+00
 2.2161438762e+00	 6.3701024038e-01	 1.3064220118e+00
 2.2102245377e+00	 6.5725422827e-01	 1.2575190648e+00
 2.2041058770e+00	 6.7749006113e-01	 1.2049932417e+00
 2.1977873378e+00	 6.9771496191e-01	 1.1491788642e+00
 2.1912684129e+00	 7.1792613110e-01	 1.0905899046e+00
 2.1845486441e+00	 7.3812074769e-01	 1.0299077420e+00
 2.1776276241e+00	 7.5829597026e-01	 9.6785012949e-01
 2.1705049962e+00	 7.7844893799e-01	 9.0460145398e-01
 2.1631804557e+00	 7.9857677180e-01	 8.4019060244e-01
 2.2359097471e+00	 5.9879122324e-01	 1.3815466090e+00
 2.2303660622e+00	 6.1912077568e-01	 1.3336922622e+00
 2.2246235528e+00	 6.3944764566e-01	 1.2878258081e+00
 2.2186815650e+00	 6.5976909353e-01	 1.2429290505e+00
 2.2125394923e+00	 6.8008235517e-01	 1.1941444324e+00
 2.2061967764e+00	 7.0038464291e-01	 1.1412887309e+00
 2.1996529079e+00	 7.2067314650e-01	 1.0849592491e+00
 2.1929074272e+00	 7.4094503417e-01	 1.0259349128e+00
 2.1859599251e+00	 7.6119745360e-01	 9.6497051252e-01
 2.1788100438e+00	 7.8142753305e-01	 9.0228744484e-01
 2.1714574772e+00	 8.0163238240e-01	 8.3804216519e-01
 2.2444324436e+00	 6.0107365699e-01	 1.3788679497e+00
 2.2388676277e+00	 6.2148070031e-01	 1.3280239690e+00
 2.2331032293e+00	 6.4188505094e-01	 1.2782882561e+00
 2.2271385922e+00	 6.6228395880e-01	 1.2299632661e+00
 2.2209731076e+00	 6.8267464922e-01	 1.1832683936e+00
 2.2146062150e+00	 7.0305432391e-01	 1.1339448693e+00
 2.2080374030e+00	 7.2342016191e-01	 1.0803416114e+00
 2.2012662103e+00	 7.4376932065e-01	 1.0233390983e+00
 2.1942922261e+00	 7.6409893695e-01	 9.6371353564e-01
 2.1871150913e+00	 7.8440612811e-01	 9.0175625229e-01
 2.1797344988e+00	 8.0468799300e-01	 8.3775894319e-01
 2.0969642834e+00	 7.7413188700e-01	 8.9452326633e-01
 2.0896667173e+00	 7.9361973424e-01	 8.2868731893e-01
 2.0821729134e+00	 8.1307757453e-01	 7.6103111015e-01
 2.0744827292e+00	 8.3250256787e-01	 6.9193228680e-01
 2.0665960749e+00	 8.5189186097e-01	 6.2180814582e-01
 2.0585129138e+00	 8.7124258838e-01	 5.5110657958e-01
 2.0502332634e+00	 8.9055187374e-01	 4.8029576412e-01
 2.0417571950e+00	 9.0981683097e-01	 4.0985257252e-01
 2.0330848350e+00	 9.2903456551e-01	 3.4024970221e-01
 2.0242163646e+00	 9.4820217558e-01	 2.7194151276e-01
 2.0151520210e+00	 9.6731675346e-01	 2.0534857834e-01
 2.1052413049e+00	 7.7718749760e-01	 8.8654393675e-01
 2.0979149343e+00	 7.9675226620e-01	 8.2090968327e-01
 2.0903915513e+00	 8.1628690940e-01	 7.5367907969e-01
 2.0826710128e+00	 8.3578857600e-01	 6.8517825803e-01
 2.0747532287e+00	 8.5525440144e-01	 6.1577583989e-01
 2.0666381623e+00	 8.7468150897e-01	 5.4587389447e-01
 2.0583258308e+00	 8.9406701088e-01	 4.7589760878e-01
 2.0498163062e+00	 9.1340800969e-01	 4.0628365064e-01
 2.0411097151e+00	 9.3270159940e-01	 3.3746721237e-01
 2.0322062396e+00	 9.5194486680e-01	 2.6986773083e-01
 2.0231061177e+00	 9.7113489269e-01	 2.0387328713e-01
 2.1135183265e+00	 7.8024310820e-01	 8.7836931119e-01
 2.1061631513e+00	 7.9988479815e-01	 8.1286768095e-01
 2.0986101891e+00	 8.1949624426e-01	 7.4596495769e-01
 2.0908592964e+00	 8.3907458413e-01	 6.7794382619e-01
 2.0829103825e+00	 8.5861694191e-01	 6.0913228436e-01
 2.0747634107e+00	 8.7812042957e-01	 5.3989460443e-01
 2.0664183983e+00	 8.9758214802e-01	 4.7062097454e-01
 2.0578754174e+00	 9.1699918840e-01	 4.0171580038e-01
 2.0491345952e+00	 9.3636863330e-01	 3.3358465351e-01
 2.0401961146e+00	 9.5568755803e-01	 2.6661986107e-01
 2.0310602143e+00	 9.7495303193e-01	 2.0118473973e-01
 2.1217953480e+00	 7.8329871880e-01	 8.7027226563e-01
 2.1144113683e+00	 8.0301733011e-01	 8.0484626880e-01
 2.1068288270e+00	 8.2270557913e-01	 7.3818363324e-01
 2.0990475800e+00	 8.4236059225e-01	 6.7053155192e-01
 2.0910675363e+00	 8.6197948239e-01	 6.0218534182e-01
 2.0828886591e+00	 8.8155935017e-01	 5.3347939863e-01
 2.0745109657e+00	 9.0109728516e-01	 4.6477679955e-01
 2.0659345285e+00	 9.2059036712e-01	 3.9645753256e-01
 2.0571594753e+00	 9.4003566719e-01	 3.2890533780e-01
 2.0481859895e+00	 9.5943024926e-01	 2.6249315470e-01
 2.0390143110e+00	 9.7877117116e-01	 1.9756717703e-01
 2.1300723696e+00	 7.8635432940e-01	 8.6252119253e-01
 2.1226595853e+00	 8.0614986206e-01	 7.9712567730e-01
 2.1150474649e+00	 8.2591491400e-01	 7.3062505323e-01
 2.1072358636e+00	 8.4564660038e-01	 6.6323886605e-01
 2.0992246901e+00	 8.6534202286e-01	 5.9523758672e-01
 2.0910139075e+00	 8.8499827076e-01	 5.2693355030e-01
 2.0826035331e+00	 9.0461242230e-01	 4.5867050985e-01
 2.0739936397e+00	 9.2418154583e-01	 3.9081178259e-01
 2.0651843554e+00	 9.4370270109e-01	 3.2372697286e-01
 2.0561758645e+00	 9.6317294048e-01	 2.5777726454e-01
 2.0469684077e+00	 9.8258931039e-01	 1.9329928429e-01
 2.1383493911e+00	 7.8940994000e-01	 8.5538005541e-01
 2.1309078023e+00	 8.0928239402e-01	 7.8998147017e-01
 2.1232661027e+00	 8.2912424886e-01	 7.2357428630e-01
 2.1154241471e+00	 8.4893260851e-01	 6.5635813706e-01
 2.1073818440e+00	 8.6870456333e-01	 5.8858637569e-01
 2.0991391559e+00	 8.8843719136e-01	 5.2055698908e-01
 2.0906961006e+00	 9.0812755944e-01	 4.5260209299e-01
 2.0820527509e+00	 9.2777272455e-01	 3.8507598455e-01
 2.0732092355e+00	 9.4736973498e-01	 3.1834173537e-01
 2.0641657395e+00	 9.6691563171e-01	 2.5275631731e-01
 2.0549225044e+00	 9.8640744962e-01	 1.8865426119e-01
 2.1466264126e+00	 7.9246555060e-01	 8.4910844333e-01
 2.1391560192e+00	 8.1241492597e-01	 7.8368460360e-01
 2.1314847406e+00	 8.3233358373e-01	 7.1731158621e-01
 2.1236124307e+00	 8.5221861663e-01	 6.5017673804e-01
 2.1155389978e+00	 8.7206710381e-01	 5.8252391722e-01
 2.1072644043e+00	 8.9187611195e-01	 5.1464437271e-01
 2.0987886680e+00	 9.1164269658e-01	 4.4686617102e-01
 2.0901118620e+00	 9.3136390326e-01	 3.7954214458e-01
 2.0812341156e+00	 9.5103676888e-01	 3.1303634405e-01
 2.0721556144e+00	 9.7065832294e-01	 2.4770898537e-01
 2.0628766011e+00	 9.9022558885e-01	 1.8389989134e-01
 2.1549034342e+00	 7.9552116120e-01	 8.4396162494e-01
 2.1474042362e+00	 8.1554745792e-01	 7.7850148515e-01
 2.1397033784e+00	 8.3554291859e-01	 7.1211245490e-01
 2.1318007143e+00	 8.5550462476e-01	 6.4497711309e-01
 2.1236961516e+00	 8.7542964428e-01	 5.7733734090e-01
 2.1153896527e+00	 8.9531503255e-01	 5.0948515832e-01
 2.1068812354e+00	 9.1515783372e-01	 4.4175207292e-01
 2.0981709732e+00	 9.3495508198e-01	 3.7449691385e-01
 2.0892589957e+00	 9.5470380277e-01	 3.0809213224e-01
 2.0801454894e+00	 9.7440101416e-01	 2.4290855794e-01
 2.0708306978e+00	 9.9404372809e-01	 1.7929861144e-01
 2.1631804557e+00	 7.9857677180e-01	 8.4019060244e-01
 2.1556524532e+00	 8.1867998988e-01	 7.7469403234e-01
 2.1479220163e+00	 8.3875225346e-01	 7.0824770509e-01
 2.1399889979e+00	 8.5879063289e-01	 6.4103684343e-01
 2.1318533054e+00	 8.7879218475e-01	 5.7330876615e-01
 2.1235149012e+00	 8.9875395314e-01	 5.0536367310e-01
 2.1149738029e+00	 9.1867297086e-01	 4.3754390657e-01
 2.1062300844e+00	 9.3854626069e-01	 3.7022166081e-01
 2.0972838758e+00	 9.5837083667e-01	 3.0378511979e-01
 2.0881353644e+00	 9.7814370539e-01	 2.3862301190e-01
 2.0787847945e+00	 9.9786186732e-01	 1.7510757995e-01
 2.1714574772e+00	 8.0163238240e-01	 8.3804216519e-01
 2.1639006702e+00	 8.2181252183e-01	 7.7251973089e-01
 2.1561406541e+00	 8.4196158833e-01	 7.0598352257e-01
 2.1481772815e+00	 8.6207664101e-01	 6.3862871288e-01
 2.1400104593e+00	 8.8215472523e-01	 5.7071537038e-01
 2.1316401496e+00	 9.0219287374e-01	 5.0255918444e-01
 2.1230663703e+00	 9.2218810800e-01	 4.3452063006e-01
 2.1142891955e+00	 9.4213743941e-01	 3.6699254311e-01
 2.1053087559e+00	 9.6203787056e-01	 3.0038608462e-01
 2.0961252394e+00	 9.8188639661e-01	 2.3511508211e-01
 2.0867388912e+00	 1.0016800066e+00	 1.7157874538e-01
 2.1797344988e+00	 8.0468799300e-01	 8.3775894319e-01
 2.1721488872e+00	 8.2494505378e-01	 7.7223169269e-01
 2.1643592920e+00	 8.4517092319e-01	 7.0558152799e-01
 2.1563655651e+00	 8.6536264914e-01	 6.3802077307e-01
 2.1481676131e+00	 8.8551726570e-01	 5.6982945682e-01
 2.1397653980e+00	 9.0563179433e-01	 5.0134596961e-01
 2.1311589378e+00	 9.2570324514e-01	 4.3295612261e-01
 2.1223483067e+00	 9.4572861812e-01	 3.6508057885e-01
 2.1133336360e+00	 9.6570490446e-01	 2.9816063363e-01
 2.1041151143e+00	 9.8562908784e-01	 2.3264233121e-01
 2.0946929879e+00	 1.0054981458e+00	 1.6895891418e-01
 2.0151520210e+00	 9.6731675346e-01	 2.0534857834e-01
 2.0058936872e+00	 9.8637215194e-01	 1.3928756411e-01
 1.9964401871e+00	 1.0053687097e+00	 7.2602997195e-02
 1.9867919245e+00	 1.0243035093e+00	 5.6808097608e-03
 1.9769493602e+00	 1.0431736330e+00	-6.1209325242e-02
 1.9669130120e+00	 1.0619761634e+00	-1.2793584197e-01
 1.9566834547e+00	 1.0807081850e+00	-1.9452819880e-01
 1.9462613205e+00	 1.0993667861e+00	-2.6120079758e-01
 1.9356472989e+00	 1.1179490594e+00	-3.2831310818e-01
 1.9248421368e+00	 1.1364521039e+00	-3.9562790661e-01
 1.9138466387e+00	 1.1548730262e+00	-4.6317989074e-01
 2.0231061177e+00	 9.7113489269e-01	 2.0387328713e-01
 2.0138112399e+00	 9.9026550559e-01	 1.3822753001e-01
 2.0043204254e+00	 1.0093370455e+00	 7.1753799972e-02
 1.9946340798e+00	 1.0283465836e+00	 4.8862041716e-03
 1.9847526655e+00	 1.0472911903e+00	-6.2055756744e-02
 1.9746767024e+00	 1.0661679370e+00	-1.2888947195e-01
 1.9644067675e+00	 1.0849738967e+00	-1.9559260953e-01
 1.9539434956e+00	 1.1037061459e+00	-2.6232754339e-01
 1.9432875789e+00	 1.1223617662e+00	-3.2930535148e-01
 1.9324397673e+00	 1.1409378449e+00	-3.9621927403e-01
 1.9214008684e+00	 1.1594314772e+00	-4.6315727640e-01
 2.0310602143e+00	 9.7495303193e-01	 2.0118473973e-01
 2.0217287927e+00	 9.9415885924e-01	 1.3595542692e-01
 2.0122006638e+00	 1.0133053813e+00	 6.9729422779e-02
 2.0024762350e+00	 1.0323896578e+00	 2.9815294594e-03
 1.9925559707e+00	 1.0514087477e+00	-6.3926276714e-02
 1.9824403927e+00	 1.0703597106e+00	-1.3076755739e-01
 1.9721300803e+00	 1.0892396083e+00	-1.9747526741e-01
 1.9616256708e+00	 1.1080455058e+00	-2.6416668432e-01
 1.9509278590e+00	 1.1267744729e+00	-3.3088284016e-01
 1.9400373978e+00	 1.1454235858e+00	-3.9734141309e-01
 1.9289550980e+00	 1.1639899281e+00	-4.6364031802e-01
 2.0390143110e+00	 9.7877117116e-01	 1.9756717703e-01
 2.0296463454e+00	 9.9805221288e-01	 1.3274323980e-01
 2.0200809022e+00	 1.0172737171e+00	 6.6790174560e-02
 2.0103183903e+00	 1.0364327320e+00	 2.1610569126e-04
 2.0003592760e+00	 1.0555263050e+00	-6.6581757096e-02
 1.9902040830e+00	 1.0745514842e+00	-1.3334025318e-01
 1.9798533931e+00	 1.0935053199e+00	-1.9995458664e-01
 1.9693078459e+00	 1.1123848656e+00	-2.6650237128e-01
 1.9585681390e+00	 1.1311871796e+00	-3.3284894323e-01
 1.9476350283e+00	 1.1499093267e+00	-3.9880365031e-01
 1.9365093277e+00	 1.1685483791e+00	-4.6444272662e-01
 2.0469684077e+00	 9.8258931039e-01	 1.9329928429e-01
 2.0375638981e+00	 1.0019455665e+00	 1.2885745084e-01
 2.0279611406e+00	 1.0212420529e+00	 6.3190896168e-02
 2.0181605456e+00	 1.0404758062e+00	-3.1662002486e-03
 2.0081625813e+00	 1.0596438623e+00	-6.9788529336e-02
 1.9979677734e+00	 1.0787432579e+00	-1.3638320268e-01
 1.9875767059e+00	 1.0977710315e+00	-2.0281452289e-01
 1.9769900210e+00	 1.1167242254e+00	-2.6910603438e-01
 1.9662084191e+00	 1.1355998864e+00	-3.3501236528e-01
 1.9552326588e+00	 1.1543950677e+00	-4.0042063066e-01
 1.9440635574e+00	 1.1731068301e+00	-4.6538353713e-01
 2.0549225044e+00	 9.8640744962e-01	 1.8865426119e-01
 2.0454814508e+00	 1.0058389202e+00	 1.2455910684e-01
 2.0358413790e+00	 1.0252103887e+00	 5.9181025178e-02
 2.0260027009e+00	 1.0445188804e+00	-6.9269122189e-03
 2.0159658865e+00	 1.0637614196e+00	-7.3318324121e-02
 2.0057314637e+00	 1.0829350315e+00	-1.3967747943e-01
 1.9953000187e+00	 1.1020367432e+00	-2.0584451680e-01
 1.9846721962e+00	 1.1210635852e+00	-2.7177551246e-01
 1.9738486991e+00	 1.1400125931e+00	-3.3718705050e-01
 1.9628302893e+00	 1.1588808086e+00	-4.0201221922e-01
 1.9516177871e+00	 1.1776652811e+00	-4.6628700708e-01
 2.0628766011e+00	 9.9022558885e-01	 1.8389989134e-01
 2.0533990035e+00	 1.0097322738e+00	 1.2010388618e-01
 2.0437216173e+00	 1.0291787245e+00	 5.5004660380e-02
 2.0338448562e+00	 1.0485619546e+00	-1.0832882646e-02
 2.0237691918e+00	 1.0678789769e+00	-7.6948211349e-02
 2.0134951541e+00	 1.0871268051e+00	-1.4300952908e-01
 2.0030233315e+00	 1.1063024548e+00	-2.0883943752e-01
 1.9923543713e+00	 1.1254029451e+00	-2.7432257751e-01
 1.9814889792e+00	 1.1444252999e+00	-3.3919208681e-01
 1.9704279198e+00	 1.1633665496e+00	-4.0340340289e-01
 1.9591720168e+00	 1.1822237321e+00	-4.6698251553e-01
 2.0708306978e+00	 9.9404372809e-01	 1.7929861144e-01
 2.0613165562e+00	 1.0136256275e+00	 1.1574216538e-01
 2.0516018557e+00	 1.0331470603e+00	 5.0900625959e-02
 2.0416870115e+00	 1.0526050288e+00	-1.4656230611e-02
 2.0315724971e+00	 1.0719965342e+00	-8.0460540307e-02
 2.0212588444e+00	 1.0913185787e+00	-1.4617111142e-01
 2.0107466443e+00	 1.1105681664e+00	-2.1159952651e-01
 2.0000365464e+00	 1.1297423049e+00	-2.7656409333e-01
 1.9891292592e+00	 1.1488380066e+00	-3.4085161008e-01
 1.9780255504e+00	 1.1678522905e+00	-4.0442419219e-01
 1.9667262465e+00	 1.1867821831e+00	-4.6730446198e-01
 2.0787847945e+00	 9.9786186732e-01	 1.7510757995e-01
 2.0692341089e+00	 1.0175189811e+00	 1.1171908535e-01
 2.0594820941e+00	 1.0371153961e+00	 4.7102535373e-02
 2.0495291668e+00	 1.0566481030e+00	-1.8174280178e-02
 2.0393758023e+00	 1.0761140915e+00	-8.3642880042e-02
 2.0290225348e+00	 1.0955103524e+00	-1.4895924264e-01
 2.0184699571e+00	 1.1148338780e+00	-2.1392599056e-01
 2.0077187215e+00	 1.1340816647e+00	-2.7832192185e-01
 1.9967695393e+00	 1.1532507134e+00	-3.4199470845e-01
 1.9856231809e+00	 1.1723380314e+00	-4.0490952311e-01
 1.9742804762e+00	 1.1913406340e+00	-4.6709216546e-01
 2.0867388912e+00	 1.0016800066e+00	 1.7157874538e-01
 2.0771516616e+00	 1.0214123348e+00	 1.0827461727e-01
 2.0673623325e+00	 1.0410837320e+00	 4.3838854931e-02
 2.0573713221e+00	 1.0606911772e+00	-2.1169498983e-02
 2.0471791076e+00	 1.0802316489e+00	-8.6287959951e-02
 2.0367862251e+00	 1.0997021260e+00	-1.5117613772e-01
 2.0261932699e+00	 1.1190995897e+00	-2.1562702987e-01
 2.0154008967e+00	 1.1384210245e+00	-2.7942282966e-01
 2.0044098193e+00	 1.1576634201e+00	-3.4245532674e-01
 1.9932208114e+00	 1.1768237724e+00	-4.0469915910e-01
 1.9818347058e+00	 1.1958990850e+00	-4.6618976363e-01
 2.0946929879e+00	 1.0054981458e+00	 1.6895891418e-01
 2.0850692143e+00	 1.0253056884e+00	 1.0564362809e-01
 2.0752425708e+00	 1.0450520678e+00	 4.1332967084e-02
 2.0652134774e+00	 1.0647342514e+00	-2.3429437047e-02
 2.0549824128e+00	 1.0843492062e+00	-8.8193610549e-02
 2.0445499154e+00	 1.1038938996e+00	-1.5262915296e-01
 2.0339165827e+00	 1.1233653013e+00	-2.1652572685e-01
 2.0230830718e+00	 1.1427603843e+00	-2.7969839453e-01
 2.0120500994e+00	 1.1620761269e+00	-3.4207217096e-01
 2.0008184419e+00	 1.1813095133e+00	-4.0363759311e-01
 1.9893889355e+00	 1.2004575360e+00	-4.6444611202e-01
 1.9138466387e+00	 1.1548730262e+00	-4.6317989074e-01
 1.9026616668e+00	 1.1732089420e+00	-5.2989972198e-01
 1.8912881428e+00	 1.1914569792e+00	-5.9463418993e-01
 1.8797270459e+00	 1.2096142776e+00	-6.5755198775e-01
 1.8679794125e+00	 1.2276779903e+00	-7.1890560816e-01
 1.8560463358e+00	 1.2456452853e+00	-7.7903246746e-01
 1.8439289659e+00	 1.2635133463e+00	-8.3709693342e-01
 1.8316285092e+00	 1.2812793748e+00	-8.9048446391e-01
 1.8191462282e+00	 1.2989405909e+00	-9.4166235091e-01
 1.8064834412e+00	 1.3164942352e+00	-9.9321565006e-01
 1.7936415219e+00	 1.3339375697e+00	-1.0474576307e+00
 1.9214008684e+00	 1.1594314772e+00	-4.6315727640e-01
 1.9101717478e+00	 1.1778397675e+00	-5.2912088293e-01
 1.8987533309e+00	 1.1961598323e+00	-5.9305619136e-01
 1.8871466006e+00	 1.2143888002e+00	-6.5513083740e-01
 1.8753525976e+00	 1.2325238130e+00	-7.1559656373e-01
 1.8633724193e+00	 1.2505620275e+00	-7.7479033157e-01
 1.8512072204e+00	 1.2685006164e+00	-8.3312634856e-01
 1.8388582120e+00	 1.2863367699e+00	-8.8839927162e-01
 1.8263266616e+00	 1.3040676974e+00	-9.4063220807e-01
 1.8136138928e+00	 1.3216906284e+00	-9.9252361612e-01
 1.8007212846e+00	 1.3392028144e+00	-1.0464900011e+00
 1.9289550980e+00	 1.1639899281e+00	-4.6364031802e-01
 1.9176818288e+00	 1.1824705930e+00	-5.2885377097e-01
 1.9062185189e+00	 1.2008626855e+00	-5.9202133492e-01
 1.8945661553e+00	 1.2191633228e+00	-6.5330512820e-01
 1.8827257827e+00	 1.2373696358e+00	-7.1295170811e-01
 1.8706985028e+00	 1.2554787697e+00	-7.7129317361e-01
 1.8584854749e+00	 1.2734878864e+00	-8.2874799409e-01
 1.8460879148e+00	 1.2913941650e+00	-8.8530060809e-01
 1.8335070951e+00	 1.3091948039e+00	-9.3877688247e-01
 1.8207443444e+00	 1.3268870217e+00	-9.9118149530e-01
 1.8078010473e+00	 1.3444680590e+00	-1.0450317957e+00
 1.9365093277e+00	 1.1685483791e+00	-4.6444272662e-01
 1.9251919098e+00	 1.1871014185e+00	-5.2891571624e-01
 1.9136837069e+00	 1.2055655386e+00	-5.9135070352e-01
 1.9019857101e+00	 1.2239378454e+00	-6.5189987299e-01
 1.8900989678e+00	 1.2422154585e+00	-7.1080020512e-01
 1.8780245864e+00	 1.2603955120e+00	-7.6837457352e-01
 1.8657637294e+00	 1.2784751565e+00	-8.2503256280e-01
 1.8533176176e+00	 1.2964515602e+00	-8.8127101839e-01
 1.8406875285e+00	 1.3143219104e+00	-9.3614216742e-01
 1.8278747960e+00	 1.3320834150e+00	-9.8922978289e-01
 1.8148808100e+00	 1.3497333037e+00	-1.0431192095e+00
 1.9440635574e+00	 1.1731068301e+00	-4.6538353713e-01
 1.9327019908e+00	 1.1917322440e+00	-5.2912938837e-01
 1.9211488950e+00	 1.2102683917e+00	-5.9087073175e-01
 1.9094052648e+00	 1.2287123681e+00	-6.5074544476e-01
 1.8974721529e+00	 1.2470612812e+00	-7.0897658317e-01
 1.8853506699e+00	 1.2653122542e+00	-7.6587347582e-01
 1.8730419839e+00	 1.2834624265e+00	-8.2183253488e-01
 1.8605473205e+00	 1.3015089553e+00	-8.7733779315e-01
 1.8478679620e+00	 1.3194490169e+00	-9.3277351249e-01
 1.8350052476e+00	 1.3372798083e+00	-9.8670869941e-01
 1.8219605727e+00	 1.3549985483e+00	-1.0407882377e+00
 1.9516177871e+00	 1.1776652811e+00	-4.6628700708e-01
 1.9402120717e+00	 1.1963630695e+00	-5.2932269220e-01
 1.9286140830e+00	 1.2149712449e+00	-5.9041309868e-01
 1.9168248195e+00	 1.2334868907e+00	-6.4967746667e-01
 1.9048453380e+00	 1.2519071039e+00	-7.0732062248e-01
 1.8926767534e+00	 1.2702289964e+00	-7.6363407433e-01
 1.8803202384e+00	 1.2884496966e+00	-8.1899681778e-01
 1.8677770233e+00	 1.3065663505e+00	-8.7387586358e-01
 1.8550483954e+00	 1.3245761235e+00	-9.2882650189e-01
 1.8421356992e+00	 1.3424762016e+00	-9.8365813332e-01
 1.8290403354e+00	 1.3602637930e+00	-1.0380746221e+00
 1.9591720168e+00	 1.1822237321e+00	-4.6698251553e-01
 1.9477221527e+00	 1.2009938950e+00	-5.2932866364e-01
 1.9360792710e+00	 1.2196740980e+00	-5.8981462081e-01
 1.9242443742e+00	 1.2382614133e+00	-6.4853670207e-01
 1.9122185231e+00	 1.2567529266e+00	-7.0567724256e-01
 1.9000028369e+00	 1.2751457386e+00	-7.6150569708e-01
 1.8875984929e+00	 1.2934369666e+00	-8.1637944371e-01
 1.8750067261e+00	 1.3116237456e+00	-8.7074430494e-01
 1.8622288289e+00	 1.3297032300e+00	-9.2513480096e-01
 1.8492661508e+00	 1.3476725949e+00	-9.8011758381e-01
 1.8361200981e+00	 1.3655290376e+00	-1.0350137981e+00
 1.9667262465e+00	 1.1867821831e+00	-4.6730446198e-01
 1.9552322337e+00	 1.2056247205e+00	-5.2898536562e-01
 1.9435444591e+00	 1.2243769512e+00	-5.8891714505e-01
 1.9316639289e+00	 1.2430359359e+00	-6.4716894480e-01
 1.9195917082e+00	 1.2615987493e+00	-7.0389638972e-01
 1.9073289205e+00	 1.2800624809e+00	-7.5934269130e-01
 1.8948767475e+00	 1.2984242367e+00	-8.1383945225e-01
 1.8822364290e+00	 1.3166811407e+00	-8.6780718354e-01
 1.8694092624e+00	 1.3348303365e+00	-9.2175554942e-01
 1.8563966024e+00	 1.3528689882e+00	-9.7628335771e-01
 1.8431998607e+00	 1.3707942823e+00	-1.0316408412e+00
 1.9742804762e+00	 1.1913406340e+00	-4.6709216546e-01
 1.9627423147e+00	 1.2102555460e+00	-5.2813578413e-01
 1.9510096471e+00	 1.2290798043e+00	-5.8756744193e-01
 1.9390834836e+00	 1.2478104586e+00	-6.4542490948e-01
 1.9269648933e+00	 1.2664445720e+00	-7.0183292473e-01
 1.9146550040e+00	 1.2849792231e+00	-7.5700430854e-01
 1.9021550020e+00	 1.3034115067e+00	-8.1124077308e-01
 1.8894661318e+00	 1.3217385359e+00	-8.6493343726e-01
 1.8765896958e+00	 1.3399574430e+00	-9.1856306595e-01
 1.8635270540e+00	 1.3580653815e+00	-9.7270005085e-01
 1.8502796234e+00	 1.3760595269e+00	-1.0279904141e+00
 1.9818347058e+00	 1.1958990850e+00	-4.6618976363e-01
 1.9702523957e+00	 1.2148863715e+00	-5.2662772438e-01
 1.9584748352e+00	 1.2337826575e+00	-5.8561709875e-01
 1.9465030383e+00	 1.2525849812e+00	-6.4316012199e-01
 1.9343380784e+00	 1.2712903948e+00	-6.9934651055e-01
 1.9219810875e+00	 1.2898959653e+00	-7.5435458987e-01
 1.9094332565e+00	 1.3083987768e+00	-8.0845210882e-01
 1.8966958346e+00	 1.3267959310e+00	-8.6199675620e-01
 1.8837701293e+00	 1.3450845495e+00	-9.1543639636e-01
 1.8706575056e+00	 1.3632617747e+00	-9.6930904299e-01
 1.8573593861e+00	 1.3813247716e+00	-1.0242425913e+00
 1.9893889355e+00	 1.2004575360e+00	-4.6444611202e-01
 1.9777624767e+00	 1.2195171970e+00	-5.2431370698e-01
 1.9659400232e+00	 1.2384855106e+00	-5.8292241298e-01
 1.9539225930e+00	 1.2573595038e+00	-6.4023480995e-01
 1.9417112635e+00	 1.2761362175e+00	-6.9630150027e-01
 1.9293071710e+00	 1.2948127076e+00	-7.5126225123e-01
 1.9167115110e+00	 1.3133860468e+00	-8.0534681802e-01
 1.9039255374e+00	 1.3318533261e+00	-8.5887546343e-01
 1.8909505627e+00	 1.3502116560e+00	-9.1225919225e-01
 1.8777879572e+00	 1.3684581680e+00	-9.6599972010e-01
 1.8644391488e+00	 1.3865900162e+00	-1.0206891978e+00
 1.7936415219e+00	 1.3339375697e+00	-1.0474576307e+00
 1.7806196717e+00	 1.3512708146e+00	-1.1010139496e+00
 1.7674215486e+00	 1.3684882949e+00	-1.1498643079e+00
 1.7540486977e+00	 1.3855873345e+00	-1.1950420872e+00
 1.7405027179e+00	 1.4025652846e+00	-1.2374069331e+00
 1.7267852606e+00	 1.4194195247e+00	-1.2776714090e+00
 1.7128980295e+00	 1.4361474640e+00	-1.3164296311e+00
 1.6988427801e+00	 1.4527465428e+00	-1.3541876837e+00
 1.6846213184e+00	 1.4692142337e+00	-1.3913956009e+00
 1.6702355008e+00	 1.4855480428e+00	-1.4282287493e+00
 1.6556872326e+00	 1.5017455112e+00	-1.4591669181e+00
 1.8007212846e+00	 1.3392028144e+00	-1.0464900011e+00
 1.7876480353e+00	 1.3566044761e+00	-1.0993404443e+00
 1.7743978172e+00	 1.3738899163e+00	-1.1472732286e+00
 1.7609721818e+00	 1.3910564483e+00	-1.1914647157e+00
 1.7473727340e+00	 1.4081014128e+00	-1.2329108725e+00
 1.7336011319e+00	 1.4250221790e+00	-1.2724545480e+00
 1.7196590860e+00	 1.4418161459e+00	-1.3108147882e+00
 1.7055483585e+00	 1.4584807437e+00	-1.3486179822e+00
 1.6912707626e+00	 1.4750134349e+00	-1.3864306214e+00
 1.6768281620e+00	 1.4914117160e+00	-1.4233416864e+00
 1.6622224697e+00	 1.5076731181e+00	-1.4534218024e+00
 1.8078010473e+00	 1.3444680590e+00	-1.0450317957e+00
 1.7946763988e+00	 1.3619381376e+00	-1.0973244949e+00
 1.7813740859e+00	 1.3792915376e+00	-1.1444804756e+00
 1.7678956659e+00	 1.3965255620e+00	-1.1878161230e+00
 1.7542427502e+00	 1.4136375410e+00	-1.2284605293e+00
 1.7404170033e+00	 1.4306248333e+00	-1.2673834161e+00
 1.7264201424e+00	 1.4474848278e+00	-1.3054251526e+00
 1.7122539368e+00	 1.4642149446e+00	-1.3433286579e+00
 1.6979202068e+00	 1.4808126362e+00	-1.3817729638e+00
 1.6834208233e+00	 1.4972753891e+00	-1.4178651105e+00
 1.6687577069e+00	 1.5136007250e+00	-1.4471614624e+00
 1.8148808100e+00	 1.3497333037e+00	-1.0431192095e+00
 1.8017047624e+00	 1.3672717991e+00	-1.0949985729e+00
 1.7883503545e+00	 1.3846931590e+00	-1.1415149466e+00
 1.7748191500e+00	 1.4019946758e+00	-1.1841217934e+00
 1.7611127663e+00	 1.4191736692e+00	-1.2240781410e+00
 1.7472328746e+00	 1.4362274876e+00	-1.2624771726e+00
 1.7331811989e+00	 1.4531535097e+00	-1.3002769729e+00
 1.7189595151e+00	 1.4699491454e+00	-1.3383332117e+00
 1.7045696510e+00	 1.4866118374e+00	-1.3770986457e+00
 1.6900134846e+00	 1.5031390623e+00	-1.4119099743e+00
 1.6752929440e+00	 1.5195283319e+00	-1.4404941581e+00
 1.8219605727e+00	 1.3549985483e+00	-1.0407882377e+00
 1.8087331259e+00	 1.3726054606e+00	-1.0923950360e+00
 1.7953266232e+00	 1.3900947804e+00	-1.1384055285e+00
 1.7817426341e+00	 1.4074637895e+00	-1.1804073185e+00
 1.7679827825e+00	 1.4247097973e+00	-1.2197861841e+00
 1.7540487460e+00	 1.4418301419e+00	-1.2577553600e+00
 1.7399422553e+00	 1.4588221916e+00	-1.2953870354e+00
 1.7256650935e+00	 1.4756833463e+00	-1.3336458450e+00
 1.7112190951e+00	 1.4924110386e+00	-1.3719594587e+00
 1.6966061458e+00	 1.5090027354e+00	-1.4055830469e+00
 1.6818281812e+00	 1.5254559387e+00	-1.4335240495e+00
 1.8290403354e+00	 1.3602637930e+00	-1.0380746221e+00
 1.8157614895e+00	 1.3779391220e+00	-1.0895460788e+00
 1.8023028919e+00	 1.3954964017e+00	-1.1351810521e+00
 1.7886661182e+00	 1.4129329033e+00	-1.1766983563e+00
 1.7748527986e+00	 1.4302459255e+00	-1.2156073378e+00
 1.7608646173e+00	 1.4474327962e+00	-1.2532378717e+00
 1.7467033117e+00	 1.4644908735e+00	-1.2907726360e+00
 1.7323706718e+00	 1.4814175472e+00	-1.3292814365e+00
 1.7178685393e+00	 1.4982102399e+00	-1.3664548713e+00
 1.7031988071e+00	 1.5148664085e+00	-1.3989869659e+00
 1.6883634183e+00	 1.5313835456e+00	-1.4263512514e+00
 1.8361200981e+00	 1.3655290376e+00	-1.0350137981e+00
 1.8227898531e+00	 1.3832727835e+00	-1.0864836839e+00
 1.8092791605e+00	 1.4008980231e+00	-1.1318702475e+00
 1.7955896022e+00	 1.4184020170e+00	-1.1730205907e+00
 1.7817228147e+00	 1.4357820537e+00	-1.2115644476e+00
 1.7676804887e+00	 1.4530354505e+00	-1.2489449198e+00
 1.7534643682e+00	 1.4701595554e+00	-1.2864515523e+00
 1.7390762501e+00	 1.4871517480e+00	-1.3249176346e+00
 1.7245179835e+00	 1.5040094411e+00	-1.3606862063e+00
 1.7097914684e+00	 1.5207300817e+00	-1.3922202899e+00
 1.6948986554e+00	 1.5373111525e+00	-1.4190718895e+00
 1.8431998607e+00	 1.3707942823e+00	-1.0316408412e+00
 1.8298182166e+00	 1.3886064450e+00	-1.0832395725e+00
 1.8162554292e+00	 1.4062996445e+00	-1.1285016988e+00
 1.8025130863e+00	 1.4238711308e+00	-1.1693996904e+00
 1.7885928309e+00	 1.4413181819e+00	-1.2076804886e+00
 1.7744963600e+00	 1.4586381048e+00	-1.2448970033e+00
 1.7602254246e+00	 1.4758282373e+00	-1.2824420165e+00
 1.7457818285e+00	 1.4928859489e+00	-1.3202706265e+00
 1.7311674276e+00	 1.5098086423e+00	-1.3547506679e+00
 1.7163841296e+00	 1.5265937548e+00	-1.3853775503e+00
 1.7014338926e+00	 1.5432387594e+00	-1.4117781561e+00
 1.8502796234e+00	 1.3760595269e+00	-1.0279904141e+00
 1.8368465802e+00	 1.3939401065e+00	-1.0798451557e+00
 1.8232316979e+00	 1.4117012658e+00	-1.1251037996e+00
 1.8094365704e+00	 1.4293402445e+00	-1.1658612687e+00
 1.7954628470e+00	 1.4468543100e+00	-1.2039785293e+00
 1.7813122314e+00	 1.4642407591e+00	-1.2411148756e+00
 1.7669864811e+00	 1.4814969192e+00	-1.2787626861e+00
 1.7524874068e+00	 1.4986201498e+00	-1.3154363996e+00
 1.7378168718e+00	 1.5156078435e+00	-1.3487413898e+00
 1.7229767909e+00	 1.5324574279e+00	-1.3785493040e+00
 1.7079691297e+00	 1.5491663663e+00	-1.4045583657e+00
 1.8573593861e+00	 1.3813247716e+00	-1.0242425913e+00
 1.8438749438e+00	 1.3992737680e+00	-1.0763314852e+00
 1.8302079665e+00	 1.4171028872e+00	-1.1217047078e+00
 1.8163600545e+00	 1.4348093583e+00	-1.1624308424e+00
 1.8023328632e+00	 1.4523904382e+00	-1.2004816949e+00
 1.7881281027e+00	 1.4698434134e+00	-1.2376195127e+00
 1.7737475375e+00	 1.4871656011e+00	-1.2751555422e+00
 1.7591929851e+00	 1.5043543506e+00	-1.3105068773e+00
 1.7444663160e+00	 1.5214070448e+00	-1.3427474849e+00
 1.7295694522e+00	 1.5383211011e+00	-1.3718221854e+00
 1.7145043669e+00	 1.5550939732e+00	-1.3974970103e+00
 1.8644391488e+00	 1.3865900162e+00	-1.0206891978e+00
 1.8509033073e+00	 1.4046074294e+00	-1.0727292048e+00
 1.8371842352e+00	 1.4225045086e+00	-1.1183323012e+00
 1.8232835386e+00	 1.4402784720e+00	-1.1591337915e+00
 1.8092028793e+00	 1.4579265664e+00	-1.1972131314e+00
 1.7949439741e+00	 1.4754460677e+00	-1.2344320808e+00
 1.7805085939e+00	 1.4928342830e+00	-1.2714118360e+00
 1.7658985635e+00	 1.5100885515e+00	-1.3055699108e+00
 1.7511157601e+00	 1.5272062460e+00	-1.3368540931e+00
 1.7361621134e+00	 1.5441847742e+00	-1.3652789588e+00
 1.7210396040e+00	 1.5610215801e+00	-1.3906748159e+00
 1.6556872326e+00	 1.5017455112e+00	-1.4591669181e+00
 1.6409809772e+00	 1.5178015024e+00	-1.4856548096e+00
 1.6261162542e+00	 1.5337164186e+00	-1.5118636463e+00
 1.6110950846e+00	 1.5494879400e+00	-1.5375111910e+00
 1.5959195351e+00	 1.5651137861e+00	-1.5622306019e+00
 1.5805917172e+00	 1.5805917172e+00	-1.5855928098e+00
 1.5651137861e+00	 1.5959195351e+00	-1.6071291703e+00
 1.5494879400e+00	 1.6110950846e+00	-1.6263542288e+00
 1.5337164186e+00	 1.6261162542e+00	-1.6427884316e+00
 1.5178015024e+00	 1.6409809772e+00	-1.6559806217e+00
 1.5017455112e+00	 1.6556872326e+00	-1.6655301555e+00
 1.6622224697e+00	 1.5076731181e+00	-1.4534218024e+00
 1.6474581666e+00	 1.5237924846e+00	-1.4795724435e+00
 1.6325347704e+00	 1.5397702193e+00	-1.5057289646e+00
 1.6174543101e+00	 1.5556039932e+00	-1.5315198041e+00
 1.6022188605e+00	 1.5712915168e+00	-1.5564873372e+00
 1.5868305414e+00	 1.5868305414e+00	-1.5801110260e+00
 1.5712915168e+00	 1.6022188605e+00	-1.6018308505e+00
 1.5556039932e+00	 1.6174543101e+00	-1.6210708508e+00
 1.5397702193e+00	 1.6325347704e+00	-1.6372626116e+00
 1.5237924846e+00	 1.6474581666e+00	-1.6498685203e+00
 1.5076731181e+00	 1.6622224697e+00	-1.6584046344e+00
 1.6687577069e+00	 1.5136007250e+00	-1.4471614624e+00
 1.6539353561e+00	 1.5297834668e+00	-1.4730204277e+00
 1.6389532867e+00	 1.5458240200e+00	-1.4991511076e+00
 1.6238135356e+00	 1.5617200464e+00	-1.5251002239e+00
 1.6085181859e+00	 1.5774692474e+00	-1.5503269176e+00
 1.5930693657e+00	 1.5930693657e+00	-1.5742266791e+00
 1.5774692474e+00	 1.6085181859e+00	-1.5961555615e+00
 1.5617200464e+00	 1.6238135356e+00	-1.6154545063e+00
 1.5458240200e+00	 1.6389532867e+00	-1.6314736054e+00
 1.5297834668e+00	 1.6539353561e+00	-1.6435961285e+00
 1.5136007250e+00	 1.6687577069e+00	-1.6512621440e+00
 1.6752929440e+00	 1.5195283319e+00	-1.4404941581e+00
 1.6604125455e+00	 1.5357744490e+00	-1.4661045486e+00
 1.6453718029e+00	 1.5518778207e+00	-1.4922334069e+00
 1.6301727611e+00	 1.5678360995e+00	-1.5183532215e+00
 1.6148175113e+00	 1.5836469781e+00	-1.5438473248e+00
 1.5993081900e+00	 1.5993081900e+00	-1.5680346076e+00
 1.5836469781e+00	 1.6148175113e+00	-1.5901945218e+00
 1.5678360995e+00	 1.6301727611e+00	-1.6095921940e+00
 1.5518778207e+00	 1.6453718029e+00	-1.6255034719e+00
 1.5357744490e+00	 1.6604125455e+00	-1.6372397246e+00
 1.5195283319e+00	 1.6752929440e+00	-1.6441722241e+00
 1.6818281812e+00	 1.5254559387e+00	-1.4335240495e+00
 1.6668897349e+00	 1.5417654312e+00	-1.4589265771e+00
 1.6517903191e+00	 1.5579316214e+00	-1.4850752668e+00
 1.6365319865e+00	 1.5739521527e+00	-1.5113757339e+00
 1.6211168367e+00	 1.5898247087e+00	-1.5371428038e+00
 1.6055470143e+00	 1.6055470143e+00	-1.5616260168e+00
 1.5898247087e+00	 1.6211168367e+00	-1.5840354260e+00
 1.5739521527e+00	 1.6365319865e+00	-1.6035675056e+00
 1.5579316214e+00	 1.6517903191e+00	-1.6194309861e+00
 1.5417654312e+00	 1.6668897349e+00	-1.6308724351e+00
 1.5254559387e+00	 1.6818281812e+00	-1.6372014034e+00
 1.6883634183e+00	 1.5313835456e+00	-1.4263512514e+00
 1.6733669244e+00	 1.5477564134e+00	-1.4515843275e+00
 1.6582088353e+00	 1.5639854221e+00	-1.4777722272e+00
 1.6428912120e+00	 1.5800682059e+00	-1.5042609297e+00
 1.6274161620e+00	 1.5960024393e+00	-1.5303039322e+00
 1.6117858385e+00	 1.6117858385e+00	-1.5550885507e+00
 1.5960024393e+00	 1.6274161620e+00	-1.5777625199e+00
 1.5800682059e+00	 1.6428912120e+00	-1.5974607022e+00
 1.5639854221e+00	 1.6582088353e+00	-1.6133317185e+00
 1.5477564134e+00	 1.6733669244e+00	-1.6245643153e+00
 1.5313835456e+00	 1.6883634183e+00	-1.6304132816e+00
 1.6948986554e+00	 1.5373111525e+00	-1.4190718895e+00
 1.6798441138e+00	 1.5537473956e+00	-1.4441717167e+00
 1.6646273515e+00	 1.5700392228e+00	-1.4704160258e+00
 1.6492504375e+00	 1.5861842590e+00	-1.4970982749e+00
 1.6337154874e+00	 1.6021801700e+00	-1.5234176888e+00
 1.6180246628e+00	 1.6180246628e+00	-1.5485063636e+00
 1.6021801700e+00	 1.6337154874e+00	-1.5714566741e+00
 1.5861842590e+00	 1.6492504375e+00	-1.5913487909e+00
 1.5700392228e+00	 1.6646273515e+00	-1.6072781135e+00
 1.5537473956e+00	 1.6798441138e+00	-1.6183824301e+00
 1.5373111525e+00	 1.6948986554e+00	-1.6238686111e+00
 1.7014338926e+00	 1.5432387594e+00	-1.4117781561e+00
 1.6863213032e+00	 1.5597383779e+00	-1.4367788236e+00
 1.6710458677e+00	 1.5760930235e+00	-1.4630946607e+00
 1.6556096630e+00	 1.5923003122e+00	-1.4899735980e+00
 1.6400148128e+00	 1.6083579006e+00	-1.5165675222e+00
 1.6242634871e+00	 1.6242634871e+00	-1.5419601915e+00
 1.6083579006e+00	 1.6400148128e+00	-1.5651954585e+00
 1.5923003122e+00	 1.6556096630e+00	-1.5853056016e+00
 1.5760930235e+00	 1.6710458677e+00	-1.6013395686e+00
 1.5597383779e+00	 1.6863213032e+00	-1.6123909343e+00
 1.5432387594e+00	 1.7014338926e+00	-1.6176253795e+00
 1.7079691297e+00	 1.5491663663e+00	-1.4045583657e+00
 1.6927984926e+00	 1.5657293601e+00	-1.4294919474e+00
 1.6774643839e+00	 1.5821468241e+00	-1.4558924528e+00
 1.6619688885e+00	 1.5984163654e+00	-1.4829691563e+00
 1.6463141382e+00	 1.6145356313e+00	-1.5098334194e+00
 1.6305023114e+00	 1.6305023114e+00	-1.5355274238e+00
 1.6145356313e+00	 1.6463141382e+00	-1.5590532164e+00
 1.5984163654e+00	 1.6619688885e+00	-1.5794018639e+00
 1.5821468241e+00	 1.6774643839e+00	-1.5955825126e+00
 1.5657293601e+00	 1.6927984926e+00	-1.6066511534e+00
 1.5491663663e+00	 1.7079691297e+00	-1.6117388912e+00
 1.7145043669e+00	 1.5550939732e+00	-1.3974970103e+00
 1.6992756821e+00	 1.5717203423e+00	-1.4223936676e+00
 1.6838829001e+00	 1.5882006248e+00	-1.4488901077e+00
 1.6683281139e+00	 1.6045324185e+00	-1.4761637008e+00
 1.6526134636e+00	 1.6207133619e+00	-1.5032919748e+00
 1.6367411356e+00	 1.6367411356e+00	-1.5292821747e+00
 1.6207133619e+00	 1.6526134636e+00	-1.5531011388e+00
 1.6045324185e+00	 1.6683281139e+00	-1.5737052828e+00
 1.5882006248e+00	 1.6838829001e+00	-1.5900704847e+00
 1.5717203423e+00	 1.6992756821e+00	-1.6012216642e+00
 1.5550939732e+00	 1.7145043669e+00	-1.6062618498e+00
 1.7210396040e+00	 1.5610215801e+00	-1.3906748159e+00
 1.7057528715e+00	 1.5777113245e+00	-1.4155629021e+00
 1.6903014164e+00	 1.5942544255e+00	-1.4421647788e+00
 1.6746873394e+00	 1.6106484717e+00	-1.4696325421e+00
 1.6589127890e+00	 1.6268910925e+00	-1.4970164579e+00
 1.6429799599e+00	 1.6429799599e+00	-1.5232953546e+00
 1.6268910925e+00	 1.6589127890e+00	-1.5474073383e+00
 1.6106484717e+00	 1.6746873394e+00	-1.5682806160e+00
 1.5942544255e+00	 1.6903014164e+00	-1.5848642132e+00
 1.5777113245e+00	 1.7057528715e+00	-1.5961583751e+00
 1.5610215801e+00	 1.7210396040e+00	-1.6012444404e+00
 1.5017455112e+00	 1.6556872326e+00	-1.6655301555e+00
 1.4855480428e+00	 1.6702355008e+00	-1.6761557283e+00
 1.4692142337e+00	 1.6846213184e+00	-1.6887634826e+00
 1.4527465428e+00	 1.6988427801e+00	-1.6947762909e+00
 1.4361474640e+00	 1.7128980295e+00	-1.6950155180e+00
 1.4194195247e+00	 1.7267852606e+00	-1.6907631174e+00
 1.4025652846e+00	 1.7405027179e+00	-1.6833626223e+00
 1.3855873345e+00	 1.7540486977e+00	-1.6742433371e+00
 1.3684882949e+00	 1.7674215486e+00	-1.6649446644e+00
 1.3512708146e+00	 1.7806196717e+00	-1.6571403206e+00
 1.3339375697e+00	 1.7936415219e+00	-1.6526621915e+00
 1.5076731181e+00	 1.6622224697e+00	-1.6584046344e+00
 1.4914117160e+00	 1.6768281620e+00	-1.6674350401e+00
 1.4750134349e+00	 1.6912707626e+00	-1.6804776463e+00
 1.4584807437e+00	 1.7055483585e+00	-1.6881596324e+00
 1.4418161459e+00	 1.7196590860e+00	-1.6893690802e+00
 1.4250221790e+00	 1.7336011319e+00	-1.6855013161e+00
 1.4081014128e+00	 1.7473727340e+00	-1.6780114934e+00
 1.3910564483e+00	 1.7609721818e+00	-1.6684396038e+00
 1.3738899163e+00	 1.7743978172e+00	-1.6584356443e+00
 1.3566044761e+00	 1.7876480353e+00	-1.6497846839e+00
 1.3392028144e+00	 1.8007212846e+00	-1.6444315754e+00
 1.5136007250e+00	 1.6687577069e+00	-1.6512621440e+00
 1.4972753891e+00	 1.6834208233e+00	-1.6588747534e+00
 1.4808126362e+00	 1.6979202068e+00	-1.6708662409e+00
 1.4642149446e+00	 1.7122539368e+00	-1.6803401555e+00
 1.4474848278e+00	 1.7264201424e+00	-1.6826490655e+00
 1.4306248333e+00	 1.7404170033e+00	-1.6792970269e+00
 1.4136375410e+00	 1.7542427502e+00	-1.6718461498e+00
 1.3965255620e+00	 1.7678956659e+00	-1.6619424632e+00
 1.3792915376e+00	 1.7813740859e+00	-1.6513419559e+00
 1.3619381376e+00	 1.7946763988e+00	-1.6419365288e+00
 1.3444680590e+00	 1.8078010473e+00	-1.6357795965e+00
 1.5195283319e+00	 1.6752929440e+00	-1.6441722241e+00
 1.5031390623e+00	 1.6900134846e+00	-1.6505375097e+00
 1.4866118374e+00	 1.7045696510e+00	-1.6606923059e+00
 1.4699491454e+00	 1.7189595151e+00	-1.6714742517e+00
 1.4531535097e+00	 1.7331811989e+00	-1.6750025414e+00
 1.4362274876e+00	 1.7472328746e+00	-1.6722894657e+00
 1.4191736692e+00	 1.7611127663e+00	-1.6649994073e+00
 1.4019946758e+00	 1.7748191500e+00	-1.6548797577e+00
 1.3846931590e+00	 1.7883503545e+00	-1.6437878651e+00
 1.3672717991e+00	 1.8017047624e+00	-1.6337179072e+00
 1.3497333037e+00	 1.8148808100e+00	-1.6268274179e+00
 1.5254559387e+00	 1.6818281812e+00	-1.6372014034e+00
 1.5090027354e+00	 1.6966061458e+00	-1.6424830754e+00
 1.4924110386e+00	 1.7112190951e+00	-1.6509752308e+00
 1.4756833463e+00	 1.7256650935e+00	-1.6617184033e+00
 1.4588221916e+00	 1.7399422553e+00	-1.6665769888e+00
 1.4418301419e+00	 1.7540487460e+00	-1.6646185985e+00
 1.4247097973e+00	 1.7679827825e+00	-1.6576051813e+00
 1.4074637895e+00	 1.7817426341e+00	-1.6473807874e+00
 1.3900947804e+00	 1.7953266232e+00	-1.6358994589e+00
 1.3726054606e+00	 1.8087331259e+00	-1.6252530587e+00
 1.3549985483e+00	 1.8219605727e+00	-1.6176987578e+00
 1.5313835456e+00	 1.6883634183e+00	-1.6304132816e+00
 1.5148664085e+00	 1.7031988071e+00	-1.6347684249e+00
 1.4982102399e+00	 1.7178685393e+00	-1.6417766367e+00
 1.4814175472e+00	 1.7323706718e+00	-1.6512285750e+00
 1.4644908735e+00	 1.7467033117e+00	-1.6575197016e+00
 1.4474327962e+00	 1.7608646173e+00	-1.6564245504e+00
 1.4302459255e+00	 1.7748527986e+00	-1.6497979041e+00
 1.4129329033e+00	 1.7886661182e+00	-1.6395757367e+00
 1.3954964017e+00	 1.8023028919e+00	-1.6278040833e+00
 1.3779391220e+00	 1.8157614895e+00	-1.6166678605e+00
 1.3602637930e+00	 1.8290403354e+00	-1.6085193505e+00
 1.5373111525e+00	 1.6948986554e+00	-1.6238686111e+00
 1.5207300817e+00	 1.7097914684e+00	-1.6274478238e+00
 1.5040094411e+00	 1.7245179835e+00	-1.6331449822e+00
 1.4871517480e+00	 1.7390762501e+00	-1.6407931396e+00
 1.4701595554e+00	 1.7534643682e+00	-1.6479771867e+00
 1.4530354505e+00	 1.7676804887e+00	-1.6478470134e+00
 1.4357820537e+00	 1.7817228147e+00	-1.6417119420e+00
 1.4184020170e+00	 1.7955896022e+00	-1.6315951019e+00
 1.4008980231e+00	 1.8092791605e+00	-1.6196297812e+00
 1.3832727835e+00	 1.8227898531e+00	-1.6080892758e+00
 1.3655290376e+00	 1.8361200981e+00	-1.5994164072e+00
 1.5432387594e+00	 1.7014338926e+00	-1.6176253795e+00
 1.5265937548e+00	 1.7163841296e+00	-1.6205729126e+00
 1.5098086423e+00	 1.7311674276e+00	-1.6251262212e+00
 1.4928859489e+00	 1.7457818285e+00	-1.6311559877e+00
 1.4758282373e+00	 1.7602254246e+00	-1.6380945641e+00
 1.4586381048e+00	 1.7744963600e+00	-1.6390246551e+00
 1.4413181819e+00	 1.7885928309e+00	-1.6334810135e+00
 1.4238711308e+00	 1.8025130863e+00	-1.6235691187e+00
 1.4062996445e+00	 1.8162554292e+00	-1.6115047303e+00
 1.3886064450e+00	 1.8298182166e+00	-1.5996448035e+00
 1.3707942823e+00	 1.8431998607e+00	-1.5905180778e+00
 1.5491663663e+00	 1.7079691297e+00	-1.6117388912e+00
 1.5324574279e+00	 1.7229767909e+00	-1.6141927900e+00
 1.5156078435e+00	 1.7378168718e+00	-1.6177638880e+00
 1.4986201498e+00	 1.7524874068e+00	-1.6223558534e+00
 1.4814969192e+00	 1.7669864811e+00	-1.6280149691e+00
 1.4642407591e+00	 1.7813122314e+00	-1.6300945271e+00
 1.4468543100e+00	 1.7954628470e+00	-1.6252376064e+00
 1.4293402445e+00	 1.8094365704e+00	-1.6156271893e+00
 1.4117012658e+00	 1.8232316979e+00	-1.6035566811e+00
 1.3939401065e+00	 1.8368465802e+00	-1.5914619271e+00
 1.3760595269e+00	 1.8502796234e+00	-1.5819529114e+00
 1.5550939732e+00	 1.7145043669e+00	-1.6062618498e+00
 1.5383211011e+00	 1.7295694522e+00	-1.6083540967e+00
 1.5214070448e+00	 1.7444663160e+00	-1.6110991823e+00
 1.5043543506e+00	 1.7591929851e+00	-1.6144291413e+00
 1.4871656011e+00	 1.7737475375e+00	-1.6184233404e+00
 1.4698434134e+00	 1.7881281027e+00	-1.6211914738e+00
 1.4523904382e+00	 1.8023328632e+00	-1.6171123960e+00
 1.4348093583e+00	 1.8163600545e+00	-1.6078973106e+00
 1.4171028872e+00	 1.8302079665e+00	-1.5959123950e+00
 1.3992737680e+00	 1.8438749438e+00	-1.5836675642e+00
 1.3813247716e+00	 1.8573593861e+00	-1.5739814449e+00
 1.5610215801e+00	 1.7210396040e+00	-1.6012444404e+00
 1.5441847742e+00	 1.7361621134e+00	-1.6031010985e+00
 1.5272062460e+00	 1.7511157601e+00	-1.6051710543e+00
 1.5100885515e+00	 1.7658985635e+00	-1.6074101112e+00
 1.4928342830e+00	 1.7805085939e+00	-1.6099263335e+00
 1.4754460677e+00	 1.7949439741e+00	-1.6124475410e+00
 1.4579265664e+00	 1.8092028793e+00	-1.6092336624e+00
 1.4402784720e+00	 1.8232835386e+00	-1.6005055011e+00
 1.4225045086e+00	 1.8371842352e+00	-1.5886970824e+00
 1.4046074294e+00	 1.8509033073e+00	-1.5763875156e+00
 1.3865900162e+00	 1.8644391488e+00	-1.5670534210e+00
 1.3339375697e+00	 1.7936415219e+00	-1.6526621915e+00
 1.3164942352e+00	 1.8064834412e+00	-1.6465061563e+00
 1.2989405909e+00	 1.8191462282e+00	-1.6334902207e+00
 1.2812793748e+00	 1.8316285092e+00	-1.6155092122e+00
 1.2635133463e+00	 1.8439289659e+00	-1.5947355396e+00
 1.2456452853e+00	 1.8560463358e+00	-1.5734682921e+00
 1.2276779903e+00	 1.8679794125e+00	-1.5515668143e+00
 1.2096142776e+00	 1.8797270459e+00	-1.5287026963e+00
 1.1914569792e+00	 1.8912881428e+00	-1.5048659963e+00
 1.1732089420e+00	 1.9026616668e+00	-1.4799439613e+00
 1.1548730262e+00	 1.9138466387e+00	-1.4537252017e+00
 1.3392028144e+00	 1.8007212846e+00	-1.6444315754e+00
 1.3216906284e+00	 1.8136138928e+00	-1.6376208616e+00
 1.3040676974e+00	 1.8263266616e+00	-1.6244101069e+00
 1.2863367699e+00	 1.8388582120e+00	-1.6068008651e+00
 1.2685006164e+00	 1.8512072204e+00	-1.5870799263e+00
 1.2505620275e+00	 1.8633724193e+00	-1.5666240527e+00
 1.2325238130e+00	 1.8753525976e+00	-1.5450682119e+00
 1.2143888002e+00	 1.8871466006e+00	-1.5225188734e+00
 1.1961598323e+00	 1.8987533309e+00	-1.4989783472e+00
 1.1778397675e+00	 1.9101717478e+00	-1.4743459656e+00
 1.1594314772e+00	 1.9214008684e+00	-1.4484222798e+00
 1.3444680590e+00	 1.8078010473e+00	-1.6357795965e+00
 1.3268870217e+00	 1.8207443444e+00	-1.6283740202e+00
 1.3091948039e+00	 1.8335070951e+00	-1.6150294013e+00
 1.2913941650e+00	 1.8460879148e+00	-1.5978539190e+00
 1.2734878864e+00	 1.8584854749e+00	-1.5790011861e+00
 1.2554787697e+00	 1.8706985028e+00	-1.5588746814e+00
 1.2373696358e+00	 1.8827257827e+00	-1.5376033999e+00
 1.2191633228e+00	 1.8945661553e+00	-1.5153079916e+00
 1.2008626855e+00	 1.9062185189e+00	-1.4920018070e+00
 1.1824705930e+00	 1.9176818288e+00	-1.4675949456e+00
 1.1639899281e+00	 1.9289550980e+00	-1.4418984750e+00
 1.3497333037e+00	 1.8148808100e+00	-1.6268274179e+00
 1.3320834150e+00	 1.8278747960e+00	-1.6188860098e+00
 1.3143219104e+00	 1.8406875285e+00	-1.6054665439e+00
 1.2964515602e+00	 1.8533176176e+00	-1.5887782207e+00
 1.2784751565e+00	 1.8657637294e+00	-1.5703522313e+00
 1.2603955120e+00	 1.8780245864e+00	-1.5504974604e+00
 1.2422154585e+00	 1.8900989678e+00	-1.5294563892e+00
 1.2239378454e+00	 1.9019857101e+00	-1.5073599031e+00
 1.2055655386e+00	 1.9136837069e+00	-1.4842311882e+00
 1.1871014185e+00	 1.9251919098e+00	-1.4599897996e+00
 1.1685483791e+00	 1.9365093277e+00	-1.4344559035e+00
 1.3549985483e+00	 1.8219605727e+00	-1.6176987578e+00
 1.3372798083e+00	 1.8350052476e+00	-1.6092801452e+00
 1.3194490169e+00	 1.8478679620e+00	-1.5958433252e+00
 1.3015089553e+00	 1.8605473205e+00	-1.5795410746e+00
 1.2834624265e+00	 1.8730419839e+00	-1.5613912516e+00
 1.2653122542e+00	 1.8853506699e+00	-1.5417610212e+00
 1.2470612812e+00	 1.8974721529e+00	-1.5209025302e+00
 1.2287123681e+00	 1.9094052648e+00	-1.4989558055e+00
 1.2102683917e+00	 1.9211488950e+00	-1.4759526688e+00
 1.1917322440e+00	 1.9327019908e+00	-1.4518208263e+00
 1.1731068301e+00	 1.9440635574e+00	-1.4263881320e+00
 1.3602637930e+00	 1.8290403354e+00	-1.6085193505e+00
 1.3424762016e+00	 1.8421356992e+00	-1.5996821515e+00
 1.3245761235e+00	 1.8550483954e+00	-1.5862870584e+00
 1.3065663505e+00	 1.8677770233e+00	-1.5702837798e+00
 1.2884496966e+00	 1.8803202384e+00	-1.5523708163e+00
 1.2702289964e+00	 1.8926767534e+00	-1.5329255046e+00
 1.2519071039e+00	 1.9048453380e+00	-1.5122086717e+00
 1.2334868907e+00	 1.9168248195e+00	-1.4903683966e+00
 1.2149712449e+00	 1.9286140830e+00	-1.4674439439e+00
 1.1963630695e+00	 1.9402120717e+00	-1.4433698725e+00
 1.1776652811e+00	 1.9516177871e+00	-1.4179803215e+00
 1.3655290376e+00	 1.8361200981e+00	-1.5994164072e+00
 1.3476725949e+00	 1.8492661508e+00	-1.5902196379e+00
 1.3297032300e+00	 1.8622288289e+00	-1.5769779722e+00
 1.3116237456e+00	 1.8750067261e+00	-1.5612422031e+00
 1.2934369666e+00	 1.8875984929e+00	-1.5435351914e+00
 1.2751457386e+00	 1.9000028369e+00	-1.5242427207e+00
 1.2567529266e+00	 1.9122185231e+00	-1.5036333172e+00
 1.2382614133e+00	 1.9242443742e+00	-1.4818620286e+00
 1.2196740980e+00	 1.9360792710e+00	-1.4589743756e+00
 1.2009938950e+00	 1.9477221527e+00	-1.4349104795e+00
 1.1822237321e+00	 1.9591720168e+00	-1.4095093697e+00
 1.3707942823e+00	 1.8431998607e+00	-1.5905180778e+00
 1.3528689882e+00	 1.8563966024e+00	-1.5810744317e+00
 1.3348303365e+00	 1.8694092624e+00	-1.5681337844e+00
 1.3166811407e+00	 1.8822364290e+00	-1.5526441126e+00
 1.2984242367e+00	 1.8948767475e+00	-1.5351205027e+00
 1.2800624809e+00	 1.9073289205e+00	-1.5159563096e+00
 1.2615987493e+00	 1.9195917082e+00	-1.4954267831e+00
 1.2430359359e+00	 1.9316639289e+00	-1.4736928625e+00
 1.2243769512e+00	 1.9435444591e+00	-1.4508051447e+00
 1.2056247205e+00	 1.9552322337e+00	-1.4267080309e+00
 1.1867821831e+00	 1.9667262465e+00	-1.4012440536e+00
 1.3760595269e+00	 1.8502796234e+00	-1.5819529114e+00
 1.3580653815e+00	 1.8635270540e+00	-1.5725996619e+00
 1.3399574430e+00	 1.8765896958e+00	-1.5599651809e+00
 1.3217385359e+00	 1.8894661318e+00	-1.5447093430e+00
 1.3034115067e+00	 1.9021550020e+00	-1.5273548976e+00
 1.2849792231e+00	 1.9146550040e+00	-1.5083019007e+00
 1.2664445720e+00	 1.9269648933e+00	-1.4878313555e+00
 1.2478104586e+00	 1.9390834836e+00	-1.4661090217e+00
 1.2290798043e+00	 1.9510096471e+00	-1.4431894007e+00
 1.2102555460e+00	 1.9627423147e+00	-1.4190198982e+00
 1.1913406340e+00	 1.9742804762e+00	-1.3934451724e+00
 1.3813247716e+00	 1.8573593861e+00	-1.5739814449e+00
 1.3632617747e+00	 1.8706575056e+00	-1.5650045936e+00
 1.3450845495e+00	 1.8837701293e+00	-1.5526751355e+00
 1.3267959310e+00	 1.8966958346e+00	-1.5376499588e+00
 1.3083987768e+00	 1.9094332565e+00	-1.5204587076e+00
 1.2898959653e+00	 1.9219810875e+00	-1.5015072730e+00
 1.2712903948e+00	 1.9343380784e+00	-1.4810814471e+00
 1.2525849812e+00	 1.9465030383e+00	-1.4593507468e+00
 1.2337826575e+00	 1.9584748352e+00	-1.4363724124e+00
 1.2148863715e+00	 1.9702523957e+00	-1.4120955886e+00
 1.1958990850e+00	 1.9818347058e+00	-1.3863656897e+00
 1.3865900162e+00	 1.8644391488e+00	-1.5670534210e+00
 1.3684581680e+00	 1.8777879572e+00	-1.5584748048e+00
 1.3502116560e+00	 1.8909505627e+00	-1.5464590752e+00
 1.3318533261e+00	 1.9039255374e+00	-1.5316704189e+00
 1.3133860468e+00	 1.9167115110e+00	-1.5146446101e+00
 1.2948127076e+00	 1.9293071710e+00	-1.4957925142e+00
 1.2761362175e+00	 1.9417112635e+00	-1.4754037546e+00
 1.2573595038e+00	 1.9539225930e+00	-1.4536505482e+00
 1.2384855106e+00	 1.9659400232e+00	-1.4305917184e+00
 1.2195171970e+00	 1.9777624767e+00	-1.4061768905e+00
 1.2004575360e+00	 1.9893889355e+00	-1.3802508760e+00
 1.1548730262e+00	 1.9138466387e+00	-1.4537252017e+00
 1.1364521039e+00	 1.9248421368e+00	-1.4251819946e+00
 1.1179490594e+00	 1.9356472989e+00	-1.3935627215e+00
 1.0993667861e+00	 1.9462613205e+00	-1.3596415022e+00
 1.0807081850e+00	 1.9566834547e+00	-1.3259503386e+00
 1.0619761634e+00	 1.9669130120e+00	-1.2925192078e+00
 1.0431736330e+00	 1.9769493602e+00	-1.2589754767e+00
 1.0243035093e+00	 1.9867919245e+00	-1.2248046076e+00
 1.0053687097e+00	 1.9964401871e+00	-1.1893719392e+00
 9.8637215194e-01	 2.0058936872e+00	-1.1519436646e+00
 9.6731675346e-01	 2.0151520210e+00	-1.1117069220e+00
 1.1594314772e+00	 1.9214008684e+00	-1.4484222798e+00
 1.1409378449e+00	 1.9324397673e+00	-1.4202664369e+00
 1.1223617662e+00	 1.9432875789e+00	-1.3891995312e+00
 1.1037061459e+00	 1.9539434956e+00	-1.3555508384e+00
 1.0849738967e+00	 1.9644067675e+00	-1.3217548643e+00
 1.0661679370e+00	 1.9746767024e+00	-1.2882072088e+00
 1.0472911903e+00	 1.9847526655e+00	-1.2545267786e+00
 1.0283465836e+00	 1.9946340798e+00	-1.2201895032e+00
 1.0093370455e+00	 2.0043204254e+00	-1.1845506162e+00
 9.9026550559e-01	 2.0138112399e+00	-1.1468661046e+00
 9.7113489269e-01	 2.0231061177e+00	-1.1063132372e+00
 1.1639899281e+00	 1.9289550980e+00	-1.4418984750e+00
 1.1454235858e+00	 1.9400373978e+00	-1.4140508105e+00
 1.1267744729e+00	 1.9509278590e+00	-1.3834421516e+00
 1.1080455058e+00	 1.9616256708e+00	-1.3501763599e+00
 1.0892396083e+00	 1.9721300803e+00	-1.3162504811e+00
 1.0703597106e+00	 1.9824403927e+00	-1.2825686675e+00
 1.0514087477e+00	 1.9925559707e+00	-1.2487458627e+00
 1.0323896578e+00	 2.0024762350e+00	-1.2142530409e+00
 1.0133053813e+00	 2.0122006638e+00	-1.1784399902e+00
 9.9415885924e-01	 2.0217287927e+00	-1.1405572336e+00
 9.7495303193e-01	 2.0310602143e+00	-1.0997769973e+00
 1.1685483791e+00	 1.9365093277e+00	-1.4344559035e+00
 1.1499093267e+00	 1.9476350283e+00	-1.4068405214e+00
 1.1311871796e+00	 1.9585681390e+00	-1.3766002425e+00
 1.1123848656e+00	 1.9693078459e+00	-1.3437950645e+00
 1.0935053199e+00	 1.9798533931e+00	-1.3097204173e+00
 1.0745514842e+00	 1.9902040830e+00	-1.2758866455e+00
 1.0555263050e+00	 2.0003592760e+00	-1.2419161481e+00
 1.0364327320e+00	 2.0103183903e+00	-1.2072794214e+00
 1.0172737171e+00	 2.0200809022e+00	-1.1713253700e+00
 9.9805221288e-01	 2.0296463454e+00	-1.1333037011e+00
 9.7877117116e-01	 2.0390143110e+00	-1.0923863324e+00
 1.1731068301e+00	 1.9440635574e+00	-1.4263881320e+00
 1.1543950677e+00	 1.9552326588e+00	-1.3989324779e+00
 1.1355998864e+00	 1.9662084191e+00	-1.3689750051e+00
 1.1167242254e+00	 1.9769900210e+00	-1.3365786450e+00
 1.0977710315e+00	 1.9875767059e+00	-1.3024430991e+00
 1.0787432579e+00	 1.9979677734e+00	-1.2684396289e+00
 1.0596438623e+00	 2.0081625813e+00	-1.2343166921e+00
 1.0404758062e+00	 2.0181605456e+00	-1.1995486855e+00
 1.0212420529e+00	 2.0279611406e+00	-1.1634880956e+00
 1.0019455665e+00	 2.0375638981e+00	-1.1253883665e+00
 9.8258931039e-01	 2.0469684077e+00	-1.0844257511e+00
 1.1776652811e+00	 1.9516177871e+00	-1.4179803215e+00
 1.1588808086e+00	 1.9628302893e+00	-1.3906152298e+00
 1.1400125931e+00	 1.9738486991e+00	-1.3608593169e+00
 1.1210635852e+00	 1.9846721962e+00	-1.3287827619e+00
 1.1020367432e+00	 1.9953000187e+00	-1.2946920920e+00
 1.0829350315e+00	 2.0057314637e+00	-1.2605014728e+00
 1.0637614196e+00	 2.0159658865e+00	-1.2262221383e+00
 1.0445188804e+00	 2.0260027009e+00	-1.1913366657e+00
 1.0252103887e+00	 2.0358413790e+00	-1.1552054915e+00
 1.0058389202e+00	 2.0454814508e+00	-1.1170902572e+00
 9.8640744962e-01	 2.0549225044e+00	-1.0761761016e+00
 1.1822237321e+00	 1.9591720168e+00	-1.4095093697e+00
 1.1633665496e+00	 1.9704279198e+00	-1.3821691060e+00
 1.1444252999e+00	 1.9814889792e+00	-1.3525378658e+00
 1.1254029451e+00	 1.9923543713e+00	-1.3206973275e+00
 1.1063024548e+00	 2.0030233315e+00	-1.2867360434e+00
 1.0871268051e+00	 2.0134951541e+00	-1.2523413466e+00
 1.0678789769e+00	 2.0237691918e+00	-1.2179026648e+00
 1.0485619546e+00	 2.0338448562e+00	-1.1829149370e+00
 1.0291787245e+00	 2.0437216173e+00	-1.1467508225e+00
 1.0097322738e+00	 2.0533990035e+00	-1.1086845258e+00
 9.9022558885e-01	 2.0628766011e+00	-1.0679145333e+00
 1.1867821831e+00	 1.9667262465e+00	-1.4012440536e+00
 1.1678522905e+00	 1.9780255504e+00	-1.3738663537e+00
 1.1488380066e+00	 1.9891292592e+00	-1.3442872847e+00
 1.1297423049e+00	 2.0000365464e+00	-1.3126042154e+00
 1.1105681664e+00	 2.0107466443e+00	-1.2788386237e+00
 1.0913185787e+00	 2.0212588444e+00	-1.2442236783e+00
 1.0719965342e+00	 2.0315724971e+00	-1.2096239320e+00
 1.0526050288e+00	 2.0416870115e+00	-1.1745507687e+00
 1.0331470603e+00	 2.0516018557e+00	-1.1383932473e+00
 1.0136256275e+00	 2.0613165562e+00	-1.1004424088e+00
 9.9404372809e-01	 2.0708306978e+00	-1.0599144576e+00
 1.1913406340e+00	 1.9742804762e+00	-1.3934451724e+00
 1.1723380314e+00	 1.9856231809e+00	-1.3659712764e+00
 1.1532507134e+00	 1.9967695393e+00	-1.3363762852e+00
 1.1340816647e+00	 2.0077187215e+00	-1.3047773907e+00
 1.1148338780e+00	 2.0184699571e+00	-1.2712137609e+00
 1.0955103524e+00	 2.0290225348e+00	-1.2364080998e+00
 1.0761140915e+00	 2.0393758023e+00	-1.2016470307e+00
 1.0566481030e+00	 2.0495291668e+00	-1.1665070752e+00
 1.0371153961e+00	 2.0594820941e+00	-1.1303977737e+00
 1.0175189811e+00	 2.0692341089e+00	-1.0926311839e+00
 9.9786186732e-01	 2.0787847945e+00	-1.0524455096e+00
 1.1958990850e+00	 1.9818347058e+00	-1.3863656897e+00
 1.1768237724e+00	 1.9932208114e+00	-1.3587403721e+00
 1.1576634201e+00	 2.0044098193e+00	-1.3290657925e+00
 1.1384210245e+00	 2.0154008967e+00	-1.2974830407e+00
 1.1190995897e+00	 2.0261932699e+00	-1.2640540439e+00
 1.0997021260e+00	 2.0367862251e+00	-1.2291493912e+00
 1.0802316489e+00	 2.0471791076e+00	-1.1942284297e+00
 1.0606911772e+00	 2.0573713221e+00	-1.1590423671e+00
 1.0410837320e+00	 2.0673623325e+00	-1.1230252121e+00
 1.0214123348e+00	 2.0771516616e+00	-1.0855141276e+00
 1.0016800066e+00	 2.0867388912e+00	-1.0457735084e+00
 1.2004575360e+00	 1.9893889355e+00	-1.3802508760e+00
 1.1813095133e+00	 2.0008184419e+00	-1.3524224714e+00
 1.1620761269e+00	 2.0120500994e+00	-1.3226090789e+00
 1.1427603843e+00	 2.0230830718e+00	-1.2909797043e+00
 1.1233653013e+00	 2.0339165827e+00	-1.2576230677e+00
 1.1038938996e+00	 2.0445499154e+00	-1.2226974257e+00
 1.0843492062e+00	 2.0549824128e+00	-1.1876199236e+00
 1.0647342514e+00	 2.0652134774e+00	-1.1524107023e+00
 1.0450520678e+00	 2.0752425708e+00	-1.1165321306e+00
 1.0253056884e+00	 2.0850692143e+00	-1.0793504731e+00
 1.0054981458e+00	 2.0946929879e+00	-1.0401604185e+00
 9.6731675346e-01	 2.0151520210e+00	-1.1117069220e+00
 9.4820217558e-01	 2.0242163646e+00	-1.0704760278e+00
 9.2903456551e-01	 2.0330848350e+00	-1.0304733730e+00
 9.0981683097e-01	 2.0417571950e+00	-9.9140744493e-01
 8.9055187374e-01	 2.0502332634e+00	-9.5296975768e-01
 8.7124258838e-01	 2.0585129138e+00	-9.1484877834e-01
 8.5189186097e-01	 2.0665960749e+00	-8.7674266972e-01
 8.3250256787e-01	 2.0744827292e+00	-8.3837083056e-01
 8.1307757453e-01	 2.0821729134e+00	-7.9948422209e-01
 7.9361973424e-01	 2.0896667173e+00	-7.5987447858e-01
 7.7413188700e-01	 2.0969642834e+00	-7.1938180771e-01
 9.7113489269e-01	 2.0231061177e+00	-1.1063132372e+00
 9.5194486680e-01	 2.0322062396e+00	-1.0647016068e+00
 9.3270159940e-01	 2.0411097151e+00	-1.0242762483e+00
 9.1340800969e-01	 2.0498163062e+00	-9.8477788145e-01
 8.9406701088e-01	 2.0583258308e+00	-9.4593142164e-01
 8.7468150897e-01	 2.0666381623e+00	-9.0746011881e-01
 8.5525440144e-01	 2.0747532287e+00	-8.6909847897e-01
 8.3578857600e-01	 2.0826710128e+00	-8.3060394745e-01
 8.1628690940e-01	 2.0903915513e+00	-7.9176734359e-01
 7.9675226620e-01	 2.0979149343e+00	-7.5242204502e-01
 7.7718749760e-01	 2.1052413049e+00	-7.1245192771e-01
 9.7495303193e-01	 2.0310602143e+00	-1.0997769973e+00
 9.5568755803e-01	 2.0401961146e+00	-1.0579052709e+00
 9.3636863330e-01	 2.0491345952e+00	-1.0172005730e+00
 9.1699918840e-01	 2.0578754174e+00	-9.7742552114e-01
 8.9758214802e-01	 2.0664183983e+00	-9.3832829716e-01
 8.7812042957e-01	 2.0747634107e+00	-8.9965701630e-01
 8.5861694191e-01	 2.0829103825e+00	-8.6117284175e-01
 8.3907458413e-01	 2.0908592964e+00	-8.2266182464e-01
 8.1949624426e-01	 2.0986101891e+00	-7.8394545942e-01
 7.9988479815e-01	 2.1061631513e+00	-7.4488995284e-01
 7.8024310820e-01	 2.1135183265e+00	-7.0541421389e-01
 9.7877117116e-01	 2.0390143110e+00	-1.0923863324e+00
 9.5943024926e-01	 2.0481859895e+00	-1.0503766185e+00
 9.4003566719e-01	 2.0571594753e+00	-1.0095373742e+00
 9.2059036712e-01	 2.0659345285e+00	-9.6964287684e-01
 9.0109728516e-01	 2.0745109657e+00	-9.3045454023e-01
 8.8155935017e-01	 2.0828886591e+00	-8.9173552900e-01
 8.6197948239e-01	 2.0910675363e+00	-8.5326408135e-01
 8.4236059225e-01	 2.0990475800e+00	-8.1484551934e-01
 8.2270557913e-01	 2.1068288270e+00	-7.7632293713e-01
 8.0301733011e-01	 2.1144113683e+00	-7.3758656605e-01
 7.8329871880e-01	 2.1217953480e+00	-6.9858182404e-01
 9.8258931039e-01	 2.0469684077e+00	-1.0844257511e+00
 9.6317294048e-01	 2.0561758645e+00	-1.0424017864e+00
 9.4370270109e-01	 2.0651843554e+00	-1.0015743671e+00
 9.2418154583e-01	 2.0739936397e+00	-9.6171928864e-01
 9.0461242230e-01	 2.0826035331e+00	-9.2260125936e-01
 8.8499827076e-01	 2.0910139075e+00	-8.8398877735e-01
 8.6534202286e-01	 2.0992246901e+00	-8.4566767553e-01
 8.4564660038e-01	 2.1072358636e+00	-8.0745331587e-01
 8.2591491400e-01	 2.1150474649e+00	-7.6920142287e-01
 8.0614986206e-01	 2.1226595853e+00	-7.3081755554e-01
 7.8635432940e-01	 2.1300723696e+00	-6.9226522636e-01
 9.8640744962e-01	 2.0549225044e+00	-1.0761761016e+00
 9.6691563171e-01	 2.0641657395e+00	-1.0342634140e+00
 9.4736973498e-01	 2.0732092355e+00	-9.9359592368e-01
 9.2777272455e-01	 2.0820527509e+00	-9.5394089523e-01
 9.0812755944e-01	 2.0906961006e+00	-9.1505649036e-01
 8.8843719136e-01	 2.0991391559e+00	-8.7670692224e-01
 8.6870456333e-01	 2.1073818440e+00	-8.3867623816e-01
 8.4893260851e-01	 2.1154241471e+00	-8.0078071108e-01
 8.2912424886e-01	 2.1232661027e+00	-7.6287983049e-01
 8.0928239402e-01	 2.1309078023e+00	-7.2488589224e-01
 7.8940994000e-01	 2.1383493911e+00	-6.8677219682e-01
 9.9022558885e-01	 2.0628766011e+00	-1.0679145333e+00
 9.7065832294e-01	 2.0721556144e+00	-1.0262406080e+00
 9.5103676888e-01	 2.0812341156e+00	-9.8588303990e-01
 9.3136390326e-01	 2.0901118620e+00	-9.4659060516e-01
 9.1164269658e-01	 2.0987886680e+00	-9.0810517090e-01
 8.9187611195e-01	 2.1072644043e+00	-8.7017714297e-01
 8.7206710381e-01	 2.1155389978e+00	-8.3257950074e-01
 8.5221861663e-01	 2.1236124307e+00	-7.9512039942e-01
 8.3233358373e-01	 2.1314847406e+00	-7.5765433040e-01
 8.1241492597e-01	 2.1391560192e+00	-7.2009183994e-01
 7.9246555060e-01	 2.1466264126e+00	-6.8240781619e-01
 9.9404372809e-01	 2.0708306978e+00	-1.0599144576e+00
 9.7440101416e-01	 2.0801454894e+00	-1.0186089072e+00
 9.5470380277e-01	 2.0892589957e+00	-9.7871330404e-01
 9.3495508198e-01	 2.0981709732e+00	-9.3994806789e-01
 9.1515783372e-01	 2.1068812354e+00	-9.0202911491e-01
 8.9531503255e-01	 2.1153896527e+00	-8.6468361504e-01
 8.7542964428e-01	 2.1236961516e+00	-8.2766429361e-01
 8.5550462476e-01	 2.1318007143e+00	-7.9076225773e-01
 8.3554291859e-01	 2.1397033784e+00	-7.5381833819e-01
 8.1554745792e-01	 2.1474042362e+00	-7.1673294779e-01
 7.9552116120e-01	 2.1549034342e+00	-6.7947446667e-01
 9.9786186732e-01	 2.0787847945e+00	-1.0524455096e+00
 9.7814370539e-01	 2.0881353644e+00	-1.0116402465e+00
 9.5837083667e-01	 2.0972838758e+00	-9.7236086418e-01
 9.3854626069e-01	 2.1062300844e+00	-9.3428964479e-01
 9.1867297086e-01	 2.1149738029e+00	-8.9710698683e-01
 8.9875395314e-01	 2.1235149012e+00	-8.6050748775e-01
 8.7879218475e-01	 2.1318533054e+00	-8.2421452702e-01
 8.5879063289e-01	 2.1399889979e+00	-7.8799332988e-01
 8.3875225346e-01	 2.1479220163e+00	-7.5166250288e-01
 8.1867998988e-01	 2.1556524532e+00	-7.1510404247e-01
 7.9857677180e-01	 2.1631804557e+00	-6.7827182809e-01
 1.0016800066e+00	 2.0867388912e+00	-1.0457735084e+00
 9.8188639661e-01	 2.0961252394e+00	-1.0056029216e+00
 9.6203787056e-01	 2.1053087559e+00	-9.6709639575e-01
 9.4213743941e-01	 2.1142891955e+00	-9.2988837989e-01
 9.2218810800e-01	 2.1230663703e+00	-8.9361427567e-01
 9.0219287374e-01	 2.1316401496e+00	-8.5792686157e-01
 8.8215472523e-01	 2.1400104593e+00	-8.2251117188e-01
 8.6207664101e-01	 2.1481772815e+00	-7.8709781109e-01
 8.4196158833e-01	 2.1561406541e+00	-7.5147469493e-01
 8.2181252183e-01	 2.1639006702e+00	-7.1549722000e-01
 8.0163238240e-01	 2.1714574772e+00	-6.7909687385e-01
 1.0054981458e+00	 2.0946929879e+00	-1.0401604185e+00
 9.8562908784e-01	 2.1041151143e+00	-1.0007615526e+00
 9.6570490446e-01	 2.1133336360e+00	-9.6318706897e-01
 9.4572861812e-01	 2.1223483067e+00	-9.2701397056e-01
 9.2570324514e-01	 2.1311589378e+00	-8.9182326896e-01
 9.0563179433e-01	 2.1397653980e+00	-8.5721676544e-01
 8.8551726570e-01	 2.1481676131e+00	-8.2283224049e-01
 8.6536264914e-01	 2.1563655651e+00	-7.8835703205e-01
 8.4517092319e-01	 2.1643592920e+00	-7.5353999401e-01
 8.2494505378e-01	 2.1721488872e+00	-7.1820183731e-01
 8.0468799300e-01	 2.1797344988e+00	-6.8224386637e-01
 7.7413188700e-01	 2.0969642834e+00	-7.1938180771e-01
 7.5462017753e-01	 2.1040646156e+00	-6.7777310178e-01
 7.3508410348e-01	 2.1109692158e+00	-6.3537800138e-01
 7.1552645584e-01	 2.1176783796e+00	-5.9367759845e-01
 6.9595000784e-01	 2.1241924524e+00	-5.5295717120e-01
 6.7635751393e-01	 2.1305118294e+00	-5.1310829933e-01
 6.5675170875e-01	 2.1366369545e+00	-4.7409548447e-01
 6.3713530613e-01	 2.1425683196e+00	-4.3596989470e-01
 6.1751099811e-01	 2.1483064638e+00	-3.9887949899e-01
 5.9788145400e-01	 2.1538519729e+00	-3.6307576157e-01
 5.7824931944e-01	 2.1592054782e+00	-3.2891708465e-01
 7.7718749760e-01	 2.1052413049e+00	-7.1245192771e-01
 7.5759877259e-01	 2.1123696632e+00	-6.7164476681e-01
 7.3798558683e-01	 2.1193015169e+00	-6.3021921573e-01
 7.1835074232e-01	 2.1260371626e+00	-5.8955308229e-01
 6.9869702325e-01	 2.1325769474e+00	-5.5008701888e-01
 6.7902719493e-01	 2.1389212680e+00	-5.1163851916e-01
 6.5934400280e-01	 2.1450705698e+00	-4.7410835846e-01
 6.3965017140e-01	 2.1510253468e+00	-4.3749422928e-01
 6.1994840339e-01	 2.1567861403e+00	-4.0190065109e-01
 6.0024137863e-01	 2.1623535384e+00	-3.6754533089e-01
 5.8053175320e-01	 2.1677281748e+00	-3.3476216926e-01
 7.8024310820e-01	 2.1135183265e+00	-7.0541421389e-01
 7.6057736764e-01	 2.1206747107e+00	-6.6531968377e-01
 7.4088707018e-01	 2.1276338179e+00	-6.2474074845e-01
 7.2117502881e-01	 2.1343959457e+00	-5.8485915540e-01
 7.0144403866e-01	 2.1409614425e+00	-5.4632953041e-01
 6.8169687593e-01	 2.1473307065e+00	-5.0889170683e-01
 6.6193629684e-01	 2.1535041851e+00	-4.7237922352e-01
 6.4216503667e-01	 2.1594823741e+00	-4.3673292029e-01
 6.2238580868e-01	 2.1652658169e+00	-4.0201062156e-01
 6.0260130326e-01	 2.1708551038e+00	-3.6839315894e-01
 5.8281418696e-01	 2.1762508713e+00	-3.3618693412e-01
 7.8329871880e-01	 2.1217953480e+00	-6.9858182404e-01
 7.6355596270e-01	 2.1289797583e+00	-6.5911367716e-01
 7.4378855353e-01	 2.1359661189e+00	-6.1923997059e-01
 7.2399931529e-01	 2.1427547288e+00	-5.7990482889e-01
 7.0419105406e-01	 2.1493459376e+00	-5.4197857280e-01
 6.8436655692e-01	 2.1557401451e+00	-5.0514061691e-01
 6.6452859089e-01	 2.1619378004e+00	-4.6915386659e-01
 6.4467990193e-01	 2.1679394014e+00	-4.3389906009e-01
 6.2482321396e-01	 2.1737454935e+00	-3.9938422403e-01
 6.0496122789e-01	 2.1793566693e+00	-3.6575035341e-01
 5.8509662071e-01	 2.1847735679e+00	-3.3327352442e-01
 7.8635432940e-01	 2.1300723696e+00	-6.9226522636e-01
 7.6653455776e-01	 2.1372848059e+00	-6.5333990614e-01
 7.4669003687e-01	 2.1442984200e+00	-6.1401280077e-01
 7.2682360177e-01	 2.1511135119e+00	-5.7499737082e-01
 7.0693806947e-01	 2.1577304326e+00	-5.3732697812e-01
 6.8703623792e-01	 2.1641495836e+00	-5.0065770457e-01
 6.6712088494e-01	 2.1703714157e+00	-4.6467853684e-01
 6.4719476720e-01	 2.1763964286e+00	-4.2920698976e-01
 6.2726061925e-01	 2.1822251700e+00	-3.9419833113e-01
 6.0732115253e-01	 2.1878582348e+00	-3.5975091420e-01
 5.8737905447e-01	 2.1932962644e+00	-3.2610783284e-01
 7.8940994000e-01	 2.1383493911e+00	-6.8677219682e-01
 7.6951315282e-01	 2.1455898535e+00	-6.4830886549e-01
 7.4959152022e-01	 2.1526307210e+00	-6.0936751199e-01
 7.2964788825e-01	 2.1594722949e+00	-5.7044214592e-01
 7.0968508488e-01	 2.1661149277e+00	-5.3266639251e-01
 6.8970591892e-01	 2.1725590222e+00	-4.9571498201e-01
 6.6971317899e-01	 2.1788050310e+00	-4.5919980771e-01
 6.4970963247e-01	 2.1848534559e+00	-4.2287216498e-01
 6.2969802453e-01	 2.1907048466e+00	-3.8663174254e-01
 6.0968107716e-01	 2.1963598003e+00	-3.5053160184e-01
 5.8966148822e-01	 2.2018189609e+00	-3.1477936671e-01
 7.9246555060e-01	 2.1466264126e+00	-6.8240781619e-01
 7.7249174788e-01	 2.1538949010e+00	-6.4432838620e-01
 7.5249300356e-01	 2.1609630220e+00	-6.0560980851e-01
 7.3247217473e-01	 2.1678310780e+00	-5.6654245496e-01
 7.1243210028e-01	 2.1744994227e+00	-5.2828712477e-01
 6.9237559992e-01	 2.1809684607e+00	-4.9058387461e-01
 6.7230547303e-01	 2.1872386464e+00	-4.5296443887e-01
 6.5222449773e-01	 2.1933104832e+00	-4.1511102204e-01
 6.3213542981e-01	 2.1991845231e+00	-3.7686505322e-01
 6.1204100179e-01	 2.2048613658e+00	-3.3823180635e-01
 5.9194392198e-01	 2.2103416575e+00	-2.9938111577e-01
 7.9552116120e-01	 2.1549034342e+00	-6.7947446667e-01
 7.7547034294e-01	 2.1621999486e+00	-6.4170363552e-01
 7.5539448691e-01	 2.1692953231e+00	-6.0304282796e-01
 7.3529646121e-01	 2.1761898611e+00	-5.6359937359e-01
 7.1517911569e-01	 2.1828839178e+00	-5.2447799466e-01
 6.9504528091e-01	 2.1893778993e+00	-4.8553507682e-01
 6.7489776708e-01	 2.1956722617e+00	-4.4621923792e-01
 6.5473936300e-01	 2.2017675104e+00	-4.0614084371e-01
 6.3457283509e-01	 2.2076641997e+00	-3.6508052182e-01
 6.1440092642e-01	 2.2133629312e+00	-3.2299341640e-01
 5.9422635573e-01	 2.2188643540e+00	-2.8000942052e-01
 7.9857677180e-01	 2.1631804557e+00	-6.7827182809e-01
 7.7844893799e-01	 2.1705049962e+00	-6.4073711673e-01
 7.5829597026e-01	 2.1776276241e+00	-6.0196714309e-01
 7.3812074769e-01	 2.1845486441e+00	-5.6191159091e-01
 7.1792613110e-01	 2.1912684129e+00	-5.2152618082e-01
 6.9771496191e-01	 2.1977873378e+00	-4.8083840780e-01
 6.7749006113e-01	 2.2041058770e+00	-4.3921092209e-01
 6.5725422827e-01	 2.2102245377e+00	-3.9617962523e-01
 6.3701024038e-01	 2.2161438762e+00	-3.5146193928e-01
 6.1676085105e-01	 2.2218644967e+00	-3.0496068895e-01
 5.9650878948e-01	 2.2273870506e+00	-2.5975861449e-01
 8.0163238240e-01	 2.1714574772e+00	-6.7909687385e-01
 7.8142753305e-01	 2.1788100438e+00	-6.4172866839e-01
 7.6119745360e-01	 2.1859599251e+00	-6.0268076304e-01
 7.4094503417e-01	 2.1929074272e+00	-5.6177511409e-01
 7.2067314650e-01	 2.1996529079e+00	-5.1971706838e-01
 7.0038464291e-01	 2.2061967764e+00	-4.7676266678e-01
 6.8008235517e-01	 2.2125394923e+00	-4.3218597969e-01
 6.5976909353e-01	 2.2186815650e+00	-3.8544594022e-01
 6.3944764566e-01	 2.2246235528e+00	-3.3681762898e-01
 6.1912077568e-01	 2.2303660622e+00	-2.9149655383e-01
 5.9879122324e-01	 2.2359097471e+00	-2.5054228301e-01
 8.0468799300e-01	 2.1797344988e+00	-6.8224386637e-01
 7.8440612811e-01	 2.1871150913e+00	-6.4497546327e-01
 7.6409893695e-01	 2.1942922261e+00	-6.0547913428e-01
 7.4376932065e-01	 2.2012662103e+00	-5.6346082982e-01
 7.2342016191e-01	 2.2080374030e+00	-5.1933409627e-01
 7.0305432391e-01	 2.2146062150e+00	-4.7357548823e-01
 6.8267464922e-01	 2.2209731076e+00	-4.2539053147e-01
 6.6228395880e-01	 2.2271385922e+00	-3.7664850030e-01
 6.4188505094e-01	 2.2331032293e+00	-3.3193399447e-01
 6.2148070031e-01	 2.2388676277e+00	-2.9100754669e-01
 6.0107365699e-01	 2.2444324436e+00	-2.5353125770e-01
 5.7824931944e-01	 2.1592054782e+00	-3.2891708465e-01
 5.5861721583e-01	 2.1643676566e+00	-2.9691016954e-01
 5.3898774018e-01	 2.1693392306e+00	-2.6683360721e-01
 5.1936346347e-01	 2.1741209666e+00	-2.3810650641e-01
 4.9974692960e-01	 2.1787136732e+00	-2.1023926284e-01
 4.8014065454e-01	 2.1831182005e+00	-1.8282567324e-01
 4.6054712568e-01	 2.1873354389e+00	-1.5553315592e-01
 4.4096880104e-01	 2.1913663186e+00	-1.2809133240e-01
 4.2140810864e-01	 2.1952118086e+00	-1.0027922645e-01
 4.0186744582e-01	 2.1988729154e+00	-7.1911337207e-02
 3.8234917865e-01	 2.2023506823e+00	-4.2822841062e-02
 5.8053175320e-01	 2.1677281748e+00	-3.3476216926e-01
 5.6082215883e-01	 2.1729107290e+00	-3.0393790162e-01
 5.4111520280e-01	 2.1779019266e+00	-2.7473205443e-01
 5.2141346623e-01	 2.1827025368e+00	-2.4655169947e-01
 5.0171950306e-01	 2.1873133714e+00	-2.1890057956e-01
 4.8203583920e-01	 2.1917352840e+00	-1.9137043102e-01
 4.6236497184e-01	 2.1959691684e+00	-1.6363035653e-01
 4.4270936872e-01	 2.2000159587e+00	-1.3541451093e-01
 4.2307146744e-01	 2.2038766273e+00	-1.0650836475e-01
 4.0345367480e-01	 2.2075521850e+00	-7.6733810200e-02
 3.8385836620e-01	 2.2110436792e+00	-4.5933372269e-02
 5.8281418696e-01	 2.1762508713e+00	-3.3618693412e-01
 5.6302710183e-01	 2.1814538014e+00	-3.0565514118e-01
 5.4324266542e-01	 2.1864646225e+00	-2.7635481750e-01
 5.2346346899e-01	 2.1912841069e+00	-2.4770887526e-01
 5.0369207652e-01	 2.1959130696e+00	-2.1924297798e-01
 4.8393102385e-01	 2.2003523675e+00	-1.9057600357e-01
 4.6418281800e-01	 2.2046028980e+00	-1.6140850027e-01
 4.4444993640e-01	 2.2086655987e+00	-1.3150940685e-01
 4.2473482623e-01	 2.2125414461e+00	-1.0070131010e-01
 4.0503990377e-01	 2.2162314547e+00	-6.8844512775e-02
 3.8536755374e-01	 2.2197366761e+00	-3.5820183050e-02
 5.8509662071e-01	 2.1847735679e+00	-3.3327352442e-01
 5.6523204483e-01	 2.1899968738e+00	-3.0209593873e-01
 5.4537012804e-01	 2.1950273184e+00	-2.7169460483e-01
 5.2551347175e-01	 2.1998656770e+00	-2.4153597874e-01
 5.0566464998e-01	 2.2045127678e+00	-2.1119605135e-01
 4.8582620851e-01	 2.2089694510e+00	-1.8034988355e-01
 4.6600066416e-01	 2.2132366276e+00	-1.4875907593e-01
 4.4619050408e-01	 2.2173152387e+00	-1.1625745306e-01
 4.2639818503e-01	 2.2212062648e+00	-8.2735243949e-02
 4.0662613274e-01	 2.2249107243e+00	-4.8970479762e-02
 3.8687674129e-01	 2.2284296730e+00	-1.6730055824e-02
 5.8737905447e-01	 2.1932962644e+00	-3.2610783284e-01
 5.6743698783e-01	 2.1985399462e+00	-2.9329887676e-01
 5.4749759066e-01	 2.2035900143e+00	-2.6074928148e-01
 5.2756347451e-01	 2.2084472472e+00	-2.2799658204e-01
 5.0763722344e-01	 2.2131124661e+00	-1.9469534200e-01
 4.8772139316e-01	 2.2175865345e+00	-1.6060569208e-01
 4.6781851032e-01	 2.2218703571e+00	-1.2557974369e-01
 4.4793107176e-01	 2.2259648788e+00	-9.1224174491e-02
 4.2806154382e-01	 2.2298710835e+00	-5.9365451292e-02
 4.0821236171e-01	 2.2335899940e+00	-2.9345997031e-02
 3.8838592883e-01	 2.2371226699e+00	-4.6872583320e-04
 5.8966148822e-01	 2.2018189609e+00	-3.1477936671e-01
 5.6964193084e-01	 2.2070830186e+00	-2.7930693568e-01
 5.4962505327e-01	 2.2121527103e+00	-2.4352173575e-01
 5.2961347727e-01	 2.2170288173e+00	-2.0705975333e-01
 5.0960979690e-01	 2.2217121643e+00	-1.6968221442e-01
 4.8961657782e-01	 2.2262036180e+00	-1.3317061565e-01
 4.6963635648e-01	 2.2305040867e+00	-9.9951908794e-02
 4.4967163944e-01	 2.2346145188e+00	-6.9434792426e-02
 4.2972490262e-01	 2.2385359023e+00	-4.0986097933e-02
 4.0979859068e-01	 2.2422692636e+00	-1.3952269672e-02
 3.8989511638e-01	 2.2458156668e+00	 1.2345620255e-02
 5.9194392198e-01	 2.2103416575e+00	-2.9938111577e-01
 5.7184687384e-01	 2.2156260910e+00	-2.6016736054e-01
 5.5175251589e-01	 2.2207154062e+00	-2.2001974678e-01
 5.3166348003e-01	 2.2256103874e+00	-1.8006725575e-01
 5.1158237036e-01	 2.2303118625e+00	-1.4387251434e-01
 4.9151176247e-01	 2.2348207015e+00	-1.1111021931e-01
 4.7145420264e-01	 2.2391378163e+00	-8.1203537312e-02
 4.5141220712e-01	 2.2432641588e+00	-5.3568620074e-02
 4.3138826141e-01	 2.2472007210e+00	-2.7608894637e-02
 4.1138481965e-01	 2.2509485333e+00	-2.7097208968e-03
 3.9140430392e-01	 2.2545086637e+00	 2.1766611526e-02
 5.9422635573e-01	 2.2188643540e+00	-2.8000942052e-01
 5.7405181684e-01	 2.2241691634e+00	-2.3637603160e-01
 5.5387997851e-01	 2.2292781021e+00	-1.9604300569e-01
 5.3371348279e-01	 2.2341919575e+00	-1.5969070562e-01
 5.1355494382e-01	 2.2389115607e+00	-1.2678588508e-01
 4.9340694713e-01	 2.2434377850e+00	-9.6803689118e-02
 4.7327204880e-01	 2.2477715458e+00	-6.9221053245e-02
 4.5315277479e-01	 2.2519137988e+00	-4.3510531986e-02
 4.3305162021e-01	 2.2558655397e+00	-1.9134529580e-02
 4.1297104862e-01	 2.2596278029e+00	 4.4600953670e-03
 3.9291349147e-01	 2.2632016606e+00	 2.7847080389e-02
 5.9650878948e-01	 2.2273870506e+00	-2.5975861449e-01
 5.7625675983e-01	 2.2327122358e+00	-2.1917101729e-01
 5.5600744113e-01	 2.2378407980e+00	-1.8238760716e-01
 5.3576348554e-01	 2.2427735277e+00	-1.4892574871e-01
 5.1552751728e-01	 2.2475112589e+00	-1.1832147020e-01
 4.9530213178e-01	 2.2520548686e+00	-9.0122290016e-02
 4.7508989496e-01	 2.2564052754e+00	-6.3880508529e-02
 4.5489334247e-01	 2.2605634389e+00	-3.9146938631e-02
 4.3471497900e-01	 2.2645303585e+00	-1.5465046682e-02
 4.1455727759e-01	 2.2683070726e+00	 7.6345254592e-03
 3.9442267901e-01	 2.2718946575e+00	 3.0639087437e-02
 5.9879122324e-01	 2.2359097471e+00	-2.5054228301e-01
 5.7846170283e-01	 2.2412553082e+00	-2.1336280516e-01
 5.5813490375e-01	 2.2464034940e+00	-1.7919857044e-01
 5.3781348830e-01	 2.2513550978e+00	-1.4765335378e-01
 5.1750009074e-01	 2.2561109571e+00	-1.1835316019e-01
 4.9719731644e-01	 2.2606719521e+00	-9.0938902098e-02
 4.7690774112e-01	 2.2650390049e+00	-6.5059552910e-02
 4.5663391015e-01	 2.2692130789e+00	-4.0365749029e-02
 4.3637833780e-01	 2.2731951772e+00	-1.6503811071e-02
 4.1614350656e-01	 2.2769863422e+00	 6.8898460811e-03
 3.9593186656e-01	 2.2805876544e+00	 3.0193945579e-02
 6.0107365699e-01	 2.2444324436e+00	-2.5353125770e-01
 5.8066664583e-01	 2.2497983806e+00	-2.1886663289e-01
 5.6026236637e-01	 2.2549661899e+00	-1.8637140868e-01
 5.3986349106e-01	 2.2599366679e+00	-1.5575584831e-01
 5.1947266420e-01	 2.2647106553e+00	-1.2675635799e-01
 4.9909250109e-01	 2.2692890356e+00	-9.9127983877e-02
 4.7872558728e-01	 2.2736727345e+00	-7.2637396578e-02
 4.5837447783e-01	 2.2778627189e+00	-4.7056334463e-02
 4.3804169659e-01	 2.2818599959e+00	-2.2155475541e-02
 4.1772973553e-01	 2.2856656119e+00	 2.3012935224e-03
 3.9744105410e-01	 2.2892806513e+00	 2.6562243460e-02
 3.8234917865e-01	 2.2023506823e+00	-4.2822841062e-02
 3.6285233028e-01	 2.2056467332e+00	-1.2711105028e-02
 3.4338252815e-01	 2.2087615747e+00	 1.7373035225e-02
 3.2394204717e-01	 2.2116963537e+00	 4.6510751150e-02
 3.0453312866e-01	 2.2144522504e+00	 7.4156532386e-02
 2.8515797987e-01	 2.2170304767e+00	 9.9886743417e-02
 2.6581877354e-01	 2.2194322757e+00	 1.2340783517e-01
 2.4651764747e-01	 2.2216589208e+00	 1.4456169217e-01
 2.2725670416e-01	 2.2237117139e+00	 1.6317258355e-01
 2.0803801046e-01	 2.2255919856e+00	 1.7914158784e-01
 1.8886359723e-01	 2.2273010932e+00	 1.9298784680e-01
 3.8385836620e-01	 2.2110436792e+00	-4.5933372269e-02
 3.6428456095e-01	 2.2143527401e+00	-1.3838352133e-02
 3.4473790869e-01	 2.2174798763e+00	 1.8414030075e-02
 3.2522069331e-01	 2.2204262394e+00	 4.9711177725e-02
 3.0573516500e-01	 2.2231930139e+00	 7.9302040594e-02
 2.8628353969e-01	 2.2257814168e+00	 1.0581027684e-01
 2.6686799871e-01	 2.2281926962e+00	 1.2904553739e-01
 2.4749068830e-01	 2.2304281301e+00	 1.4922919918e-01
 2.2815371926e-01	 2.2324890259e+00	 1.6667653502e-01
 2.0885916660e-01	 2.2343767193e+00	 1.8178934703e-01
 1.8960906919e-01	 2.2360925730e+00	 1.9504911553e-01
 3.8536755374e-01	 2.2197366761e+00	-3.5820183050e-02
 3.6571679161e-01	 2.2230587470e+00	-1.5180275341e-03
 3.4609328922e-01	 2.2261981779e+00	 3.1410521829e-02
 3.2649933946e-01	 2.2291561250e+00	 6.1605532549e-02
 3.0693720133e-01	 2.2319337775e+00	 8.8914277640e-02
 2.8740909951e-01	 2.2345323570e+00	 1.1330194716e-01
 2.6791722388e-01	 2.2369531166e+00	 1.3484264409e-01
 2.4846372913e-01	 2.2391973394e+00	 1.5371098283e-01
 2.2905073436e-01	 2.2412663379e+00	 1.7017426429e-01
 2.0968032273e-01	 2.2431614530e+00	 1.8458520040e-01
 1.9035454114e-01	 2.2448840528e+00	 1.9737516073e-01
 3.8687674129e-01	 2.2284296730e+00	-1.6730055824e-02
 3.6714902227e-01	 2.2317647539e+00	 1.4630425165e-02
 3.4744866976e-01	 2.2349164796e+00	 4.4525408037e-02
 3.2777798560e-01	 2.2378860106e+00	 7.2150489793e-02
 3.0813923766e-01	 2.2406745410e+00	 9.7318647288e-02
 2.8853465932e-01	 2.2432832972e+00	 1.1995937019e-01
 2.6896644905e-01	 2.2457135370e+00	 1.4010971350e-01
 2.4943676996e-01	 2.2479665487e+00	 1.5790596257e-01
 2.2994774946e-01	 2.2500436499e+00	 1.7357588328e-01
 2.1050147887e-01	 2.2519461867e+00	 1.8743152953e-01
 1.9110001309e-01	 2.2536755325e+00	 1.9986257951e-01
 3.8838592883e-01	 2.2371226699e+00	-4.6872583320e-04
 3.6858125293e-01	 2.2404707608e+00	 2.7977704834e-02
 3.4880405029e-01	 2.2436347812e+00	 5.5447062228e-02
 3.2905663174e-01	 2.2466158962e+00	 8.1018286044e-02
 3.0934127399e-01	 2.2494153045e+00	 1.0447831431e-01
 2.8966021914e-01	 2.2520342374e+00	 1.2572922254e-01
 2.7001567422e-01	 2.2544739575e+00	 1.4477932390e-01
 2.5040981079e-01	 2.2567357580e+00	 1.6173489196e-01
 2.3084476456e-01	 2.2588209619e+00	 1.7679247768e-01
 2.1132263500e-01	 2.2607309204e+00	 1.9023179166e-01
 1.9184548504e-01	 2.2624670123e+00	 2.0240912222e-01
 3.8989511638e-01	 2.2458156668e+00	 1.2345620255e-02
 3.7001348360e-01	 2.2491767677e+00	 3.8551409327e-02
 3.5015943083e-01	 2.2523530828e+00	 6.4179042497e-02
 3.3033527789e-01	 2.2553457818e+00	 8.8191138374e-02
 3.1054331033e-01	 2.2581560681e+00	 1.1035674188e-01
 2.9078577895e-01	 2.2607851776e+00	 1.3055868776e-01
 2.7106489939e-01	 2.2632343779e+00	 1.4878473964e-01
 2.5138285162e-01	 2.2655049673e+00	 1.6511936187e-01
 2.3174177966e-01	 2.2675982739e+00	 1.7973609509e-01
 2.1214379113e-01	 2.2695156541e+00	 1.9289050528e-01
 1.9259095699e-01	 2.2712584921e+00	 2.0491367595e-01
 3.9140430392e-01	 2.2545086637e+00	 2.1766611526e-02
 3.7144571426e-01	 2.2578827746e+00	 4.6381117000e-02
 3.5151481136e-01	 2.2610713844e+00	 7.0724709669e-02
 3.3161392403e-01	 2.2640756675e+00	 9.3651331925e-02
 3.1174534666e-01	 2.2668968316e+00	 1.1491769512e-01
 2.9191133877e-01	 2.2695361177e+00	 1.3439545521e-01
 2.7211412455e-01	 2.2719947983e+00	 1.5205990597e-01
 2.5235589245e-01	 2.2742741767e+00	 1.6798179174e-01
 2.3263879476e-01	 2.2763755859e+00	 1.8231973330e-01
 2.1296494727e-01	 2.2783003878e+00	 1.9531323599e-01
 1.9333642894e-01	 2.2800499719e+00	 2.0727624844e-01
 3.9291349147e-01	 2.2632016606e+00	 2.7847080389e-02
 3.7287794492e-01	 2.2665887815e+00	 5.1499776834e-02
 3.5287019190e-01	 2.2697896861e+00	 7.5087241842e-02
 3.3289257017e-01	 2.2728055531e+00	 9.7381228573e-02
 3.1294738299e-01	 2.2756375952e+00	 1.1812524463e-01
 2.9303689858e-01	 2.2782870579e+00	 1.3718771891e-01
 2.7316334972e-01	 2.2807552187e+00	 1.5453944392e-01
 2.5332893328e-01	 2.2830433860e+00	 1.7024542104e-01
 2.3353580986e-01	 2.2851528979e+00	 1.8445732887e-01
 2.1378610340e-01	 2.2870851215e+00	 1.9740658266e-01
 1.9408190089e-01	 2.2888414517e+00	 2.0939795229e-01
 3.9442267901e-01	 2.2718946575e+00	 3.0639087437e-02
 3.7431017558e-01	 2.2752947884e+00	 5.3933585170e-02
 3.5422557243e-01	 2.2785079877e+00	 7.7269648516e-02
 3.3417121631e-01	 2.2815354387e+00	 9.9363275322e-02
 3.1414941932e-01	 2.2843783587e+00	 1.1994376970e-01
 2.9416245840e-01	 2.2870379981e+00	 1.3888417639e-01
 2.7421257489e-01	 2.2895156391e+00	 1.5615864523e-01
 2.5430197411e-01	 2.2918125953e+00	 1.7183430087e-01
 2.3443282496e-01	 2.2939302098e+00	 1.8606374587e-01
 2.1460725954e-01	 2.2958698551e+00	 1.9907816387e-01
 1.9482737284e-01	 2.2976329315e+00	 2.1118098955e-01
 3.9593186656e-01	 2.2805876544e+00	 3.0193945579e-02
 3.7574240624e-01	 2.2840007953e+00	 5.3707981785e-02
 3.5558095297e-01	 2.2872262893e+00	 7.7274784321e-02
 3.3544986246e-01	 2.2902653243e+00	 9.9580012420e-02
 3.1535145565e-01	 2.2931191223e+00	 1.2033796154e-01
 2.9528801822e-01	 2.2957889383e+00	 1.3943402748e-01
 2.7526180006e-01	 2.2982760596e+00	 1.5685346730e-01
 2.5527501495e-01	 2.3005818046e+00	 1.7267328567e-01
 2.3532984006e-01	 2.3027075218e+00	 1.8705476489e-01
 2.1542841567e-01	 2.3046545888e+00	 2.0023660461e-01
 1.9557284479e-01	 2.3064244113e+00	 2.1252863655e-01
 3.9744105410e-01	 2.2892806513e+00	 2.6562243460e-02
 3.7717463691e-01	 2.2927068022e+00	 5.0848011849e-02
 3.5693633350e-01	 2.2959445909e+00	 7.5105362341e-02
 3.3672850860e-01	 2.2989952099e+00	 9.8014081227e-02
 3.1655349199e-01	 2.3018598858e+00	 1.1927282625e-01
 2.9641357803e-01	 2.3045398784e+00	 1.3878697302e-01
 2.7631102523e-01	 2.3070364800e+00	 1.5656052832e-01
 2.5624805578e-01	 2.3093510139e+00	 1.7268802512e-01
 2.3622685516e-01	 2.3114848338e+00	 1.8734707224e-01
 2.1624957181e-01	 2.3134393225e+00	 2.0079152324e-01
 1.9631831674e-01	 2.3152158911e+00	 2.1334522910e-01
 1.8886359723e-01	 2.2273010932e+00	 1.9298784680e-01
 1.6973869895e-01	 2.2288401728e+00	 2.0526845402e-01
 1.5066197243e-01	 2.2302109371e+00	 2.1605187955e-01
 1.3163529446e-01	 2.2314148178e+00	 2.2525498756e-01
 1.1266050604e-01	 2.2324532696e+00	 2.3287056782e-01
 9.3739412190e-02	 2.2333277695e+00	 2.3896301788e-01
 7.4873781778e-02	 2.2340398157e+00	 2.4366434645e-01
 5.6065347405e-02	 2.2345909267e+00	 2.4717047354e-01
 3.7315805270e-02	 2.2349826402e+00	 2.4973780366e-01
 1.8626815083e-02	 2.2352165126e+00	 2.5168004912e-01
 0.0000000000e+00	 2.2352941176e+00	 2.5336528186e-01
 1.8960906919e-01	 2.2360925730e+00	 1.9504911553e-01
 1.7040868216e-01	 2.2376377276e+00	 2.0699921959e-01
 1.5125665704e-01	 2.2390139025e+00	 2.1771958432e-01
 1.3215487802e-01	 2.2402225351e+00	 2.2710302774e-01
 1.1310519337e-01	 2.2412650858e+00	 2.3511481090e-01
 9.4109415217e-02	 2.2421430375e+00	 2.4178847318e-01
 7.5169319431e-02	 2.2428578942e+00	 2.4722199254e-01
 5.6286645446e-02	 2.2434111805e+00	 2.5157424563e-01
 3.7463096154e-02	 2.2438044402e+00	 2.5506174296e-01
 1.8700337818e-02	 2.2440392357e+00	 2.5795561569e-01
 0.0000000000e+00	 2.2441171470e+00	 2.6057883157e-01
 1.9035454114e-01	 2.2448840528e+00	 1.9737516073e-01
 1.7107866537e-01	 2.2464352823e+00	 2.0906553049e-01
 1.5185134165e-01	 2.2478168679e+00	 2.1973521877e-01
 1.3267446158e-01	 2.2490302523e+00	 2.2925539829e-01
 1.1354988069e-01	 2.2500769020e+00	 2.3756648346e-01
 9.4479418243e-02	 2.2509583054e+00	 2.4467411141e-01
 7.5464857084e-02	 2.2516759727e+00	 2.5064545172e-01
 5.6507943486e-02	 2.2522314343e+00	 2.5560581879e-01
 3.7610387038e-02	 2.2526262402e+00	 2.5973556135e-01
 1.8773860553e-02	 2.2528619588e+00	 2.6326720475e-01
 0.0000000000e+00	 2.2529401764e+00	 2.6648282297e-01
 1.9110001309e-01	 2.2536755325e+00	 1.9986257951e-01
 1.7174864857e-01	 2.2552328371e+00	 2.1136168746e-01
 1.5244602626e-01	 2.2566198332e+00	 2.2199585935e-01
 1.3319404514e-01	 2.2578379696e+00	 2.3161696709e-01
 1.1399456801e-01	 2.2588887181e+00	 2.4014320152e-01
 9.4849421268e-02	 2.2597735734e+00	 2.4755519198e-01
 7.5760394736e-02	 2.2604940512e+00	 2.5389245829e-01
 5.6729241526e-02	 2.2610516881e+00	 2.5925016781e-01
 3.7757677922e-02	 2.2614480401e+00	 2.6377617168e-01
 1.8847383288e-02	 2.2616846819e+00	 2.6766829487e-01
 0.0000000000e+00	 2.2617632059e+00	 2.7117185633e-01
 1.9184548504e-01	 2.2624670123e+00	 2.0240912222e-01
 1.7241863178e-01	 2.2640303919e+00	 2.1378317327e-01
 1.5304071086e-01	 2.2654227986e+00	 2.2439971950e-01
 1.3371362869e-01	 2.2666456868e+00	 2.3409362053e-01
 1.1443925533e-01	 2.2677005343e+00	 2.4276340816e-01
 9.5219424293e-02	 2.2685888413e+00	 2.5036753755e-01
 7.6055932387e-02	 2.2693121297e+00	 2.5692097408e-01
 5.6950539565e-02	 2.2698719419e+00	 2.6249208796e-01
 3.7904968805e-02	 2.2702698401e+00	 2.6719982955e-01
 1.8920906022e-02	 2.2705074050e+00	 2.7121115965e-01
 0.0000000000e+00	 2.2705862353e+00	 2.7473870992e-01
 1.9259095699e-01	 2.2712584921e+00	 2.0491367595e-01
 1.7308861499e-01	 2.2728279466e+00	 2.1622663516e-01
 1.5363539547e-01	 2.2742257640e+00	 2.2684613243e-01
 1.3423321225e-01	 2.2754534041e+00	 2.3659224807e-01
 1.1488394265e-01	 2.2765123505e+00	 2.4534636135e-01
 9.5589427318e-02	 2.2774041093e+00	 2.5304752633e-01
 7.6351470039e-02	 2.2781302082e+00	 2.5968918669e-01
 5.7171837604e-02	 2.2786921957e+00	 2.6531620050e-01
 3.8052259688e-02	 2.2790916401e+00	 2.7002214746e-01
 1.8994428757e-02	 2.2793301281e+00	 2.7394689175e-01
 0.0000000000e+00	 2.2794092647e+00	 2.7727437525e-01
 1.9333642894e-01	 2.2800499719e+00	 2.0727624844e-01
 1.7375859820e-01	 2.2816255014e+00	 2.1858986765e-01
 1.5423008008e-01	 2.2830287293e+00	 2.2923553428e-01
 1.3475279581e-01	 2.2842611214e+00	 2.3902072718e-01
 1.1532862997e-01	 2.2853241667e+00	 2.4781212191e-01
 9.5959430343e-02	 2.2862193772e+00	 2.5553208462e-01
 7.6647007690e-02	 2.2869482867e+00	 2.6215550774e-01
 5.7393135643e-02	 2.2875124496e+00	 2.6770695808e-01
 3.8199550571e-02	 2.2879134400e+00	 2.7225810857e-01
 1.9067951492e-02	 2.2881528512e+00	 2.7592542641e-01
 0.0000000000e+00	 2.2882322941e+00	 2.7886809152e-01
 1.9408190089e-01	 2.2888414517e+00	 2.0939795229e-01
 1.7442858141e-01	 2.2904230561e+00	 2.2077179578e-01
 1.5482476469e-01	 2.2918316947e+00	 2.3146944772e-01
 1.3527237936e-01	 2.2930688386e+00	 2.4128790856e-01
 1.1577331729e-01	 2.2941359828e+00	 2.5008154183e-01
 9.6329433368e-02	 2.2950346452e+00	 2.5775867935e-01
 7.6942545342e-02	 2.2957663652e+00	 2.6427857119e-01
 5.7614433683e-02	 2.2963327034e+00	 2.6964864998e-01
 3.8346841455e-02	 2.2967352400e+00	 2.7392208021e-01
 1.9141474226e-02	 2.2969755743e+00	 2.7719556437e-01
 0.0000000000e+00	 2.2970553235e+00	 2.7960737928e-01
 1.9482737284e-01	 2.2976329315e+00	 2.1118098955e-01
 1.7509856462e-01	 2.2992206109e+00	 2.2267245865e-01
 1.5541944930e-01	 2.3006346601e+00	 2.3345046583e-01
 1.3579196292e-01	 2.3018765559e+00	 2.4330360176e-01
 1.1621800461e-01	 2.3029477990e+00	 2.5207625278e-01
 9.6699436393e-02	 2.3038499131e+00	 2.5966531096e-01
 7.7238082994e-02	 2.3045844437e+00	 2.6601723164e-01
 5.7835731722e-02	 2.3051529572e+00	 2.7112540722e-01
 3.8494132338e-02	 2.3055570400e+00	 2.7502782701e-01
 1.9214996961e-02	 2.3057982974e+00	 2.7780499430e-01
 0.0000000000e+00	 2.3058783529e+00	 2.7957807330e-01
 1.9557284479e-01	 2.3064244113e+00	 2.1252863655e-01
 1.7576854783e-01	 2.3080181656e+00	 2.2419299336e-01
 1.5601413391e-01	 2.3094376254e+00	 2.3508223633e-01
 1.3631154648e-01	 2.3106842731e+00	 2.4497856100e-01
 1.1666269193e-01	 2.3117596152e+00	 2.5371865493e-01
 9.7069439419e-02	 2.3126651811e+00	 2.6119050633e-01
 7.7533620647e-02	 2.3134025222e+00	 2.6733056274e-01
 5.8057029762e-02	 2.3139732110e+00	 2.7212120758e-01
 3.8641423222e-02	 2.3143788399e+00	 2.7558852376e-01
 1.9288519696e-02	 2.3146210205e+00	 2.7780031470e-01
 0.0000000000e+00	 2.3147013824e+00	 2.7886435470e-01
 1.9631831674e-01	 2.3152158911e+00	 2.1334522910e-01
 1.7643853104e-01	 2.3168157204e+00	 2.2523561922e-01
 1.5660881852e-01	 2.3182405908e+00	 2.3626944622e-01
 1.3683113004e-01	 2.3194919904e+00	 2.4622447142e-01
 1.1710737926e-01	 2.3205714314e+00	 2.5493190595e-01
 9.7439442445e-02	 2.3214804490e+00	 2.6227331188e-01
 7.7829158300e-02	 2.3222206007e+00	 2.6817785555e-01
 5.8278327803e-02	 2.3227934648e+00	 2.7261988048e-01
 3.8788714106e-02	 2.3232006399e+00	 2.7561676798e-01
 1.9362042431e-02	 2.3234437436e+00	 2.7722705529e-01
 0.0000000000e+00	 2.3235244118e+00	 2.7754878237e-01
 2.3235244118e+00	 0.0000000000e+00	 2.2258747881e+00
 2.3234437436e+00	 1.9362042431e-02	 2.2259597307e+00
 2.3232006399e+00	 3.8788714106e-02	 2.2239240696e+00
 2.3227934648e+00	 5.8278327803e-02	 2.2199435733e+00
 2.3222206007e+00	 7.7829158300e-02	 2.2141332493e+00
 2.3214804490e+00	 9.7439442445e-02	 2.2065459256e+00
 2.3205714314e+00	 1.1710737926e-01	 2.1971705794e+00
 2.3194919904e+00	 1.3683113004e-01	 2.1859303822e+00
 2.3182405908e+00	 1.5660881852e-01	 2.1726804320e+00
 2.3168157204e+00	 1.7643853104e-01	 2.1572051404e+00
 2.3152158911e+00	 1.9631831674e-01	 2.1392152424e+00
 2.3323489408e+00	 0.0000000000e+00	 2.2142285109e+00
 2.3322679662e+00	 1.9435577662e-02	 2.2138415698e+00
 2.3320239393e+00	 3.8936030025e-02	 2.2114326459e+00
 2.3316152178e+00	 5.8499663457e-02	 2.2071670562e+00
 2.3310401780e+00	 7.8124746184e-02	 2.2011509161e+00
 2.3302972153e+00	 9.7809508360e-02	 2.1934298338e+00
 2.3293847452e+00	 1.1755214216e-01	 2.1839873512e+00
 2.3283012046e+00	 1.3735080190e-01	 2.1727431001e+00
 2.3270450523e+00	 1.5720360420e-01	 2.1595506441e+00
 2.3256147704e+00	 1.7710862812e-01	 2.1441949719e+00
 2.3240088651e+00	 1.9706391539e-01	 2.1263896103e+00
 2.3411734673e+00	 0.0000000000e+00	 2.2023106945e+00
 2.3410921864e+00	 1.9509112873e-02	 2.2015070963e+00
 2.3408472361e+00	 3.9083345902e-02	 2.1987634746e+00
 2.3404369682e+00	 5.8720999048e-02	 2.1942368354e+00
 2.3398597527e+00	 7.8420333985e-02	 2.1880265668e+00
 2.3391139790e+00	 9.8179574170e-02	 2.1801732464e+00
 2.3381980566e+00	 1.1799690494e-01	 2.1706571942e+00
 2.3371104164e+00	 1.3787047363e-01	 2.1593967401e+00
 2.3358495114e+00	 1.5779838972e-01	 2.1462461744e+00
 2.3344138179e+00	 1.7777872501e-01	 2.1309933485e+00
 2.3328018366e+00	 1.9780951384e-01	 2.1133568901e+00
 2.3499979888e+00	 0.0000000000e+00	 2.1901212558e+00
 2.3499164015e+00	 1.9582648042e-02	 2.1889645585e+00
 2.3496705279e+00	 3.9230661696e-02	 2.1859325472e+00
 2.3492587136e+00	 5.8942334515e-02	 2.1811760147e+00
 2.3486793225e+00	 7.8715921619e-02	 2.1747897437e+00
 2.3479307377e+00	 9.8549639771e-02	 2.1668114271e+00
 2.3470113629e+00	 1.1844166747e-01	 2.1572203329e+00
 2.3459196231e+00	 1.3839014506e-01	 2.1459356826e+00
 2.3446539654e+00	 1.5839317490e-01	 2.1328147111e+00
 2.3432128605e+00	 1.7844882153e-01	 2.1176503733e+00
 2.3415948031e+00	 1.9855511186e-01	 2.1001686628e+00
 2.3588225028e+00	 0.0000000000e+00	 2.1776606295e+00
 2.3587406091e+00	 1.9656183149e-02	 2.1762225831e+00
 2.3584938123e+00	 3.9377977365e-02	 2.1729561031e+00
 2.3580804516e+00	 5.9163669793e-02	 2.1680078245e+00
 2.3574988847e+00	 7.9011509003e-02	 2.1614700039e+00
 2.3567474889e+00	 9.8919705058e-02	 2.1533795527e+00
 2.3558246618e+00	 1.1888642962e-01	 2.1437168133e+00
 2.3547288224e+00	 1.3890981604e-01	 2.1324040492e+00
 2.3534584120e+00	 1.5898795958e-01	 2.1193036133e+00
 2.3520118955e+00	 1.7911891748e-01	 2.1042157614e+00
 2.3503877622e+00	 1.9930070925e-01	 2.0868760744e+00
 2.3676470068e+00	 0.0000000000e+00	 2.1649297593e+00
 2.3675648068e+00	 1.9729718173e-02	 2.1632901673e+00
 2.3673170866e+00	 3.9525292868e-02	 2.1598506227e+00
 2.3669021795e+00	 5.9385004822e-02	 2.1547556162e+00
 2.3663184370e+00	 7.9307096051e-02	 2.1480969156e+00
 2.3655642302e+00	 9.9289769926e-02	 2.1399127105e+00
 2.3646379507e+00	 1.1933119126e-01	 2.1301865018e+00
 2.3635380116e+00	 1.3942948644e-01	 2.1188457016e+00
 2.3622628486e+00	 1.5958274358e-01	 2.1057599112e+00
 2.3608109206e+00	 1.7978901266e-01	 2.0907388415e+00
 2.3591807113e+00	 2.0004630580e-01	 2.0735298374e+00
 2.3764714982e+00	 0.0000000000e+00	 2.1519300882e+00
 2.3763889919e+00	 1.9803253093e-02	 2.1501766714e+00
 2.3761403485e+00	 3.9672608162e-02	 2.1466328217e+00
 2.3757238949e+00	 5.9606339536e-02	 2.1414428580e+00
 2.3751379767e+00	 7.9602682682e-02	 2.1347000540e+00
 2.3743809589e+00	 9.9659834270e-02	 2.1264458960e+00
 2.3734512271e+00	 1.1977595228e-01	 2.1166690837e+00
 2.3723471884e+00	 1.3994915611e-01	 2.1053042419e+00
 2.3710672727e+00	 1.6017752674e-01	 2.0922303076e+00
 2.3696099332e+00	 1.8045910690e-01	 2.0772685568e+00
 2.3679736479e+00	 2.0079190129e-01	 2.0601802331e+00
 2.3852959747e+00	 0.0000000000e+00	 2.1386635501e+00
 2.3852131620e+00	 1.9876787888e-02	 2.1368918110e+00
 2.3849635953e+00	 3.9819923205e-02	 2.1333196448e+00
 2.3845455954e+00	 5.9827673875e-02	 2.1280931296e+00
 2.3839575015e+00	 7.9898268809e-02	 2.1213089986e+00
 2.3831976727e+00	 1.0002989798e-01	 2.1130140103e+00
 2.3822644885e+00	 1.2022071254e-01	 2.1032040619e+00
 2.3811563502e+00	 1.4046882489e-01	 2.0918230119e+00
 2.3798716818e+00	 1.6077230889e-01	 2.0787611773e+00
 2.3784089309e+00	 1.8112920000e-01	 2.0638534666e+00
 2.3767665696e+00	 2.0153749551e-01	 2.0468771129e+00
 2.3941204337e+00	 0.0000000000e+00	 2.1251325612e+00
 2.3940373146e+00	 1.9950322536e-02	 2.1234456499e+00
 2.3937868247e+00	 3.9967237957e-02	 2.1199282597e+00
 2.3933672783e+00	 6.0049007775e-02	 2.1147301180e+00
 2.3927770088e+00	 8.0193854351e-02	 2.1079533291e+00
 2.3920143689e+00	 1.0039996097e-01	 2.0996518581e+00
 2.3910777324e+00	 1.2066547192e-01	 2.0898307557e+00
 2.3899654946e+00	 1.4098849264e-01	 2.0784450931e+00
 2.3886760735e+00	 1.6136708986e-01	 2.0653985684e+00
 2.3872079111e+00	 1.8179929177e-01	 2.0505417474e+00
 2.3855594738e+00	 2.0228308825e-01	 2.0336699007e+00
 2.4029448727e+00	 0.0000000000e+00	 2.1113400113e+00
 2.4028614472e+00	 2.0023857018e-02	 2.1098485933e+00
 2.4026100340e+00	 4.0114552374e-02	 2.1064760517e+00
 2.4021889412e+00	 6.0270341172e-02	 2.1013776125e+00
 2.4015964960e+00	 8.0489439222e-02	 2.0946626225e+00
 2.4008310452e+00	 1.0077002311e-01	 2.0863941453e+00
 2.3998909564e+00	 1.2111023029e-01	 2.0765882998e+00
 2.3987746190e+00	 1.4150815921e-01	 2.0652133062e+00
 2.3974804453e+00	 1.6196186948e-01	 2.0521882026e+00
 2.3960068713e+00	 1.8246938203e-01	 2.0373811943e+00
 2.3943523582e+00	 2.0302867931e-01	 2.0206075944e+00
 2.4117692892e+00	 0.0000000000e+00	 2.0972892556e+00
 2.4116855573e+00	 2.0097391313e-02	 2.0961113803e+00
 2.4114332208e+00	 4.0261866415e-02	 2.0929806175e+00
 2.4110105817e+00	 6.0491674005e-02	 2.0880595008e+00
 2.4104159608e+00	 8.0785023340e-02	 2.0814664495e+00
 2.4096476990e+00	 1.0114008431e-01	 2.0732754770e+00
 2.4087041578e+00	 1.2155498752e-01	 2.0635156429e+00
 2.4075837209e+00	 1.4202782445e-01	 2.0521702109e+00
 2.4062847945e+00	 1.6255664758e-01	 2.0391754761e+00
 2.4048058091e+00	 1.8313947057e-01	 2.0244192224e+00
 2.4031452201e+00	 2.0377426846e-01	 2.0077387684e+00
 2.3152158911e+00	 1.9631831674e-01	 2.1392152424e+00
 2.3134393225e+00	 2.1624957181e-01	 2.1185431128e+00
 2.3114848338e+00	 2.3622685516e-01	 2.0955056584e+00
 2.3093510139e+00	 2.5624805578e-01	 2.0704142931e+00
 2.3070364800e+00	 2.7631102523e-01	 2.0434971703e+00
 2.3045398784e+00	 2.9641357803e-01	 2.0148929317e+00
 2.3018598858e+00	 3.1655349199e-01	 1.9846438383e+00
 2.2989952099e+00	 3.3672850860e-01	 1.9526882471e+00
 2.2959445909e+00	 3.5693633350e-01	 1.9188523987e+00
 2.2927068022e+00	 3.7717463691e-01	 1.8828703334e+00
 2.2892806513e+00	 3.9744105410e-01	 1.8450000768e+00
 2.3240088651e+00	 1.9706391539e-01	 2.1263896103e+00
 2.3222255493e+00	 2.1707086751e-01	 2.1059602455e+00
 2.3202636376e+00	 2.3712402272e-01	 2.0832217519e+00
 2.3181217137e+00	 2.5722126199e-01	 2.0584987667e+00
 2.3157983894e+00	 2.7736042873e-01	 2.0320348682e+00
 2.3132923059e+00	 2.9753932915e-01	 2.0039863796e+00
 2.3106021349e+00	 3.1775573262e-01	 1.9744155466e+00
 2.3077265793e+00	 3.3800737207e-01	 1.9432830510e+00
 2.3046643743e+00	 3.5829194440e-01	 1.9104398235e+00
 2.3014142887e+00	 3.7860711100e-01	 1.8756544817e+00
 2.2979751257e+00	 3.9895049815e-01	 1.8391902221e+00
 2.3328018366e+00	 1.9780951384e-01	 2.1133568901e+00
 2.3310117736e+00	 2.1789216298e-01	 2.0931547686e+00
 2.3290424389e+00	 2.3802119003e-01	 2.0706935956e+00
 2.3268924109e+00	 2.5819446793e-01	 2.0463058230e+00
 2.3245602962e+00	 2.7840983194e-01	 2.0202451571e+00
 2.3220447310e+00	 2.9866507996e-01	 1.9926804300e+00
 2.3193443816e+00	 3.1895797292e-01	 1.9636888348e+00
 2.3164579462e+00	 3.3928623517e-01	 1.9332484881e+00
 2.3133841553e+00	 3.5964755492e-01	 1.9012302796e+00
 2.3101217729e+00	 3.8003958468e-01	 1.8674313139e+00
 2.3066695976e+00	 4.0045994178e-01	 1.8321100523e+00
 2.3415948031e+00	 1.9855511186e-01	 2.1001686628e+00
 2.3397979929e+00	 2.1871345799e-01	 2.0801798291e+00
 2.3378212353e+00	 2.3891835683e-01	 2.0579770771e+00
 2.3356631032e+00	 2.5916767332e-01	 2.0338953162e+00
 2.3333221982e+00	 2.7945923455e-01	 2.0081931358e+00
 2.3307971510e+00	 2.9979083012e-01	 1.9810467546e+00
 2.3280866233e+00	 3.2016021254e-01	 1.9525433273e+00
 2.3251893082e+00	 3.4056509756e-01	 1.9226735658e+00
 2.3221039313e+00	 3.6100316467e-01	 1.8913236395e+00
 2.3188292521e+00	 3.8147205756e-01	 1.8583124068e+00
 2.3153640646e+00	 4.0196938455e-01	 1.8238856467e+00
 2.3503877622e+00	 1.9930070925e-01	 2.0868760744e+00
 2.3485842047e+00	 2.1953475230e-01	 2.0670880867e+00
 2.3466000241e+00	 2.3981552287e-01	 2.0451275240e+00
 2.3444337881e+00	 2.6014087788e-01	 2.0213264461e+00
 2.3420840926e+00	 2.8050863627e-01	 1.9959431296e+00
 2.3395495637e+00	 3.0091657933e-01	 1.9691561087e+00
 2.3368288576e+00	 3.2136245113e-01	 1.9410575624e+00
 2.3339206627e+00	 3.4184395885e-01	 1.9116460096e+00
 2.3308236998e+00	 3.6235877327e-01	 1.8808182690e+00
 2.3275367238e+00	 3.8290452922e-01	 1.8484076773e+00
 2.3240585242e+00	 4.0347882604e-01	 1.8146411424e+00
 2.3591807113e+00	 2.0004630580e-01	 2.0735298374e+00
 2.3573704066e+00	 2.2035604567e-01	 2.0539317170e+00
 2.3553788031e+00	 2.4071268789e-01	 2.0321997081e+00
 2.3532044630e+00	 2.6111408134e-01	 2.0086577628e+00
 2.3508459772e+00	 2.8155803680e-01	 1.9835586984e+00
 2.3483019664e+00	 3.0204232727e-01	 1.9570783409e+00
 2.3455710820e+00	 3.2256468836e-01	 1.9293090066e+00
 2.3426520073e+00	 3.4312281870e-01	 1.9002522801e+00
 2.3395434585e+00	 3.6371438034e-01	 1.8698110488e+00
 2.3362441858e+00	 3.8433699925e-01	 1.8378254040e+00
 2.3327529740e+00	 4.0498826582e-01	 1.8044987614e+00
 2.3679736479e+00	 2.0079190129e-01	 2.0601802331e+00
 2.3661565960e+00	 2.2117733789e-01	 2.0407624137e+00
 2.3641575696e+00	 2.4160985164e-01	 2.0192478492e+00
 2.3619751254e+00	 2.6208728342e-01	 1.9959471728e+00
 2.3596078493e+00	 2.8260743584e-01	 1.9711026437e+00
 2.3570543567e+00	 3.0316807361e-01	 1.9448824043e+00
 2.3543132940e+00	 3.2376692389e-01	 1.9173740674e+00
 2.3513833396e+00	 3.4440167673e-01	 1.8885775906e+00
 2.3482632049e+00	 3.6506998548e-01	 1.8583973956e+00
 2.3449516353e+00	 3.8576946725e-01	 1.8266722493e+00
 2.3414474114e+00	 4.0649770346e-01	 1.7935788381e+00
 2.3767665696e+00	 2.0153749551e-01	 2.0468771129e+00
 2.3749427705e+00	 2.2199862871e-01	 2.0276313916e+00
 2.3729363211e+00	 2.4250701387e-01	 2.0063256186e+00
 2.3707457730e+00	 2.6306048385e-01	 1.9832519442e+00
 2.3683697065e+00	 2.8365683310e-01	 1.9586370168e+00
 2.3658067321e+00	 3.0429381804e-01	 1.9326363658e+00
 2.3630554911e+00	 3.2496915738e-01	 1.9053281066e+00
 2.3601146570e+00	 3.4568053260e-01	 1.8767059229e+00
 2.3569829364e+00	 3.6642558832e-01	 1.8466712835e+00
 2.3536590701e+00	 3.8720193283e-01	 1.8150532807e+00
 2.3501418341e+00	 4.0800713853e-01	 1.7819998452e+00
 2.3855594738e+00	 2.0228308825e-01	 2.0336699007e+00
 2.3837289275e+00	 2.2281991790e-01	 2.0145893891e+00
 2.3817150553e+00	 2.4340417432e-01	 1.9934861434e+00
 2.3795164032e+00	 2.6403368235e-01	 1.9706287122e+00
 2.3771315464e+00	 2.8470622828e-01	 1.9462231258e+00
 2.3745590902e+00	 3.0541956023e-01	 1.9204074166e+00
 2.3717976709e+00	 3.2617138848e-01	 1.8932454535e+00
 2.3688459571e+00	 3.4695938592e-01	 1.8647200448e+00
 2.3657026506e+00	 3.6778118847e-01	 1.8347252640e+00
 2.3623664876e+00	 3.8863439555e-01	 1.8030719914e+00
 2.3588362395e+00	 4.0951657061e-01	 1.7698784198e+00
 2.3943523582e+00	 2.0302867931e-01	 2.0206075944e+00
 2.3925150647e+00	 2.2364120523e-01	 2.0016866707e+00
 2.3904937695e+00	 2.4430133273e-01	 1.9807820098e+00
 2.3882870135e+00	 2.6500687864e-01	 1.9581334844e+00
 2.3858933664e+00	 2.8575562108e-01	 1.9339215435e+00
 2.3833114284e+00	 3.0654529987e-01	 1.9082618821e+00
 2.3805398309e+00	 3.2737361686e-01	 1.8811994181e+00
 2.3775772374e+00	 3.4823823635e-01	 1.8527015263e+00
 2.3744223451e+00	 3.6913678555e-01	 1.8226504866e+00
 2.3710738854e+00	 3.9006685504e-01	 1.7908303218e+00
 2.3675306252e+00	 4.1102599927e-01	 1.7573293894e+00
 2.4031452201e+00	 2.0377426846e-01	 2.0077387684e+00
 2.4013011794e+00	 2.2446249046e-01	 1.9889730297e+00
 2.3992724614e+00	 2.4519848886e-01	 1.9682652674e+00
 2.3970576014e+00	 2.6598007245e-01	 1.9458216465e+00
 2.3946551640e+00	 2.8680501121e-01	 1.9217921142e+00
 2.3920637443e+00	 3.0767103664e-01	 1.8962652317e+00
 2.3892819685e+00	 3.2857584217e-01	 1.8692623032e+00
 2.3863084955e+00	 3.4951708351e-01	 1.8407307555e+00
 2.3831420173e+00	 3.7049237917e-01	 1.8105367169e+00
 2.3797812609e+00	 3.9149931087e-01	 1.7784286789e+00
 2.3762249887e+00	 4.1253542408e-01	 1.7444657961e+00
 2.2892806513e+00	 3.9744105410e-01	 1.8450000768e+00
 2.2856656119e+00	 4.1772973553e-01	 1.8052851446e+00
 2.2818599959e+00	 4.3804169659e-01	 1.7635098843e+00
 2.2778627189e+00	 4.5837447783e-01	 1.7198876862e+00
 2.2736727345e+00	 4.7872558728e-01	 1.6746158041e+00
 2.2692890356e+00	 4.9909250109e-01	 1.6278810140e+00
 2.2647106553e+00	 5.1947266420e-01	 1.5798656710e+00
 2.2599366679e+00	 5.3986349106e-01	 1.5307541996e+00
 2.2549661899e+00	 5.6026236637e-01	 1.4807400515e+00
 2.2497983806e+00	 5.8066664583e-01	 1.4300331641e+00
 2.2444324436e+00	 6.0107365699e-01	 1.3788679497e+00
 2.2979751257e+00	 3.9895049815e-01	 1.8391902221e+00
 2.2943463567e+00	 4.1931623410e-01	 1.8010865617e+00
 2.2905262874e+00	 4.3970533810e-01	 1.7610660503e+00
 2.2865138291e+00	 4.6011534134e-01	 1.7192176467e+00
 2.2823079315e+00	 4.8054374241e-01	 1.6756159977e+00
 2.2779075837e+00	 5.0098800786e-01	 1.6303271930e+00
 2.2733118151e+00	 5.2144557292e-01	 1.5834149262e+00
 2.2685196966e+00	 5.4191384224e-01	 1.5349470983e+00
 2.2635303412e+00	 5.6239019058e-01	 1.4850029006e+00
 2.2583429051e+00	 5.8287196359e-01	 1.4336804082e+00
 2.2529565887e+00	 6.0335647868e-01	 1.3811047198e+00
 2.3066695976e+00	 4.0045994178e-01	 1.8321100523e+00
 2.3030270990e+00	 4.2090273223e-01	 1.7953203015e+00
 2.2991925764e+00	 4.4136897913e-01	 1.7567536301e+00
 2.2951649368e+00	 4.6185620436e-01	 1.7163976397e+00
 2.2909431260e+00	 4.8236189702e-01	 1.6742271882e+00
 2.2865261293e+00	 5.0288351409e-01	 1.6302102012e+00
 2.2819129725e+00	 5.2341848109e-01	 1.5843138985e+00
 2.2771027228e+00	 5.4396419285e-01	 1.5365114714e+00
 2.2720944900e+00	 5.6451801418e-01	 1.4867892502e+00
 2.2668874270e+00	 5.8507728073e-01	 1.4351543947e+00
 2.2614807314e+00	 6.0563929971e-01	 1.3816431432e+00
 2.3153640646e+00	 4.0196938455e-01	 1.8238856467e+00
 2.3117078365e+00	 4.2248922945e-01	 1.7881249607e+00
 2.3078588604e+00	 4.4303261922e-01	 1.7507178536e+00
 2.3038160396e+00	 4.6359706640e-01	 1.7115734054e+00
 2.2995783156e+00	 4.8418005061e-01	 1.6705892653e+00
 2.2951446701e+00	 5.0477901924e-01	 1.6276574803e+00
 2.2905141251e+00	 5.2539138814e-01	 1.5826707477e+00
 2.2856857442e+00	 5.4601454229e-01	 1.5355291271e+00
 2.2806586340e+00	 5.6664583658e-01	 1.4861472532e+00
 2.2754319442e+00	 5.8728259661e-01	 1.4344620834e+00
 2.2700048692e+00	 6.0792211946e-01	 1.3804412172e+00
 2.3240585242e+00	 4.0347882604e-01	 1.8146411424e+00
 2.3203885665e+00	 4.2407572533e-01	 1.7796369414e+00
 2.3165251371e+00	 4.4469625790e-01	 1.7431015920e+00
 2.3124671350e+00	 4.6533792695e-01	 1.7048882547e+00
 2.3082134979e+00	 4.8599820264e-01	 1.6648397165e+00
 2.3037632036e+00	 5.0667452279e-01	 1.6227941986e+00
 2.2991152703e+00	 5.2736429351e-01	 1.5785915950e+00
 2.2942687583e+00	 5.4806488999e-01	 1.5320801806e+00
 2.2892227707e+00	 5.6877365718e-01	 1.4831238293e+00
 2.2839764541e+00	 5.8948791062e-01	 1.4316097801e+00
 2.2785289998e+00	 6.1020493726e-01	 1.3774569866e+00
 2.3327529740e+00	 4.0498826582e-01	 1.8044987614e+00
 2.3290692867e+00	 4.2566221941e-01	 1.7699904829e+00
 2.3251914040e+00	 4.4635989470e-01	 1.7340453935e+00
 2.3211182206e+00	 4.6707878553e-01	 1.6964831066e+00
 2.3168486704e+00	 4.8781635262e-01	 1.6571136645e+00
 2.3123817272e+00	 5.0857002419e-01	 1.6157432868e+00
 2.3077164057e+00	 5.2933719665e-01	 1.5721805557e+00
 2.3028517627e+00	 5.5011523536e-01	 1.5262430813e+00
 2.2977868977e+00	 5.7090147536e-01	 1.4777646856e+00
 2.2925209543e+00	 5.9169322214e-01	 1.4266031471e+00
 2.2870531207e+00	 6.1248775248e-01	 1.3726485431e+00
 2.3414474114e+00	 4.0649770346e-01	 1.7935788381e+00
 2.3377499946e+00	 4.2724871124e-01	 1.7593176938e+00
 2.3338576586e+00	 4.4802352914e-01	 1.7236875185e+00
 2.3297692940e+00	 4.6881964165e-01	 1.6864965251e+00
 2.3254838307e+00	 4.8963450003e-01	 1.6475439041e+00
 2.3210002387e+00	 5.1046552290e-01	 1.6066254732e+00
 2.3163175290e+00	 5.3131009699e-01	 1.5635397712e+00
 2.3114347549e+00	 5.5216557783e-01	 1.5180946398e+00
 2.3063510126e+00	 5.7302929053e-01	 1.4701143357e+00
 2.3010654424e+00	 5.9389853053e-01	 1.4194472143e+00
 2.2955772296e+00	 6.1477056446e-01	 1.3659740252e+00
 2.3501418341e+00	 4.0800713853e-01	 1.7819998452e+00
 2.3464306878e+00	 4.2883520038e-01	 1.7477485831e+00
 2.3425238984e+00	 4.4968716075e-01	 1.7121639735e+00
 2.3384203527e+00	 4.7056049481e-01	 1.6750647549e+00
 2.3341189763e+00	 4.9145264434e-01	 1.6362609382e+00
 2.3296187355e+00	 5.1236101839e-01	 1.5955593189e+00
 2.3249186377e+00	 5.3328299398e-01	 1.5527694405e+00
 2.3200177325e+00	 5.5421591682e-01	 1.5077100544e+00
 2.3149151129e+00	 5.7515710208e-01	 1.4602161203e+00
 2.3096099159e+00	 5.9610383517e-01	 1.4101463904e+00
 2.3041013239e+00	 6.1705337257e-01	 1.3573916185e+00
 2.3588362395e+00	 4.0951657061e-01	 1.7698784198e+00
 2.3551113637e+00	 4.3042168637e-01	 1.7354110902e+00
 2.3511901211e+00	 4.5135078906e-01	 1.6996085451e+00
 2.3470713942e+00	 4.7230134451e-01	 1.6623217574e+00
 2.3427541048e+00	 4.9327078505e-01	 1.6233930138e+00
 2.3382372152e+00	 5.1425651012e-01	 1.5826612513e+00
 2.3335197293e+00	 5.3525588706e-01	 1.5399678511e+00
 2.3286006931e+00	 5.5626625174e-01	 1.4951629371e+00
 2.3234791962e+00	 5.7728490941e-01	 1.4481122262e+00
 2.3181543725e+00	 5.9830913543e-01	 1.3987044734e+00
 2.3126254014e+00	 6.1933617614e-01	 1.3468595566e+00
 2.3675306252e+00	 4.1102599927e-01	 1.7573293894e+00
 2.3637920200e+00	 4.3200816876e-01	 1.7224311160e+00
 2.3598563242e+00	 4.5301441360e-01	 1.6861528336e+00
 2.3557224161e+00	 4.7404219027e-01	 1.6483992453e+00
 2.3513892137e+00	 4.9508892163e-01	 1.6090661570e+00
 2.3468556754e+00	 5.1615199756e-01	 1.5680455987e+00
 2.3421208014e+00	 5.3722877566e-01	 1.5252314102e+00
 2.3371836342e+00	 5.5831658201e-01	 1.4805253402e+00
 2.3320432601e+00	 5.7941271192e-01	 1.4338437062e+00
 2.3266988098e+00	 6.0051443070e-01	 1.3851246627e+00
 2.3211494595e+00	 6.2161897455e-01	 1.3343361217e+00
 2.3762249887e+00	 4.1253542408e-01	 1.7444657961e+00
 2.3724726541e+00	 4.3359464711e-01	 1.7089325513e+00
 2.3685225051e+00	 4.5467803390e-01	 1.6719262847e+00
 2.3643734159e+00	 4.7578303159e-01	 1.6334267170e+00
 2.3600243005e+00	 4.9690705358e-01	 1.5934042076e+00
 2.3554741136e+00	 5.1804748016e-01	 1.5518246228e+00
 2.3507218515e+00	 5.3920165923e-01	 1.5086546748e+00
 2.3457665534e+00	 5.6036690706e-01	 1.4638677815e+00
 2.3406073021e+00	 5.8154050900e-01	 1.4174504984e+00
 2.3352432252e+00	 6.0271972034e-01	 1.3694095694e+00
 2.3296734959e+00	 6.2390176713e-01	 1.3197796464e+00
 2.2444324436e+00	 6.0107365699e-01	 1.3788679497e+00
 2.2388676277e+00	 6.2148070031e-01	 1.3280239690e+00
 2.2331032293e+00	 6.4188505094e-01	 1.2782882561e+00
 2.2271385922e+00	 6.6228395880e-01	 1.2299632661e+00
 2.2209731076e+00	 6.8267464922e-01	 1.1832683936e+00
 2.2146062150e+00	 7.0305432391e-01	 1.1339448693e+00
 2.2080374030e+00	 7.2342016191e-01	 1.0803416114e+00
 2.2012662103e+00	 7.4376932065e-01	 1.0233390983e+00
 2.1942922261e+00	 7.6409893695e-01	 9.6371353564e-01
 2.1871150913e+00	 7.8440612811e-01	 9.0175625229e-01
 2.1797344988e+00	 8.0468799300e-01	 8.3775894319e-01
 2.2529565887e+00	 6.0335647868e-01	 1.3811047198e+00
 2.2473706381e+00	 6.2384102604e-01	 1.3279253051e+00
 2.2415843471e+00	 6.4432287049e-01	 1.2749574964e+00
 2.2355970569e+00	 6.6479925150e-01	 1.2226342245e+00
 2.2294081563e+00	 6.8526738386e-01	 1.1714414458e+00
 2.2230170828e+00	 7.0572445865e-01	 1.1219289870e+00
 2.2164233231e+00	 7.2616764421e-01	 1.0719171996e+00
 2.2096264140e+00	 7.4659408716e-01	 1.0177814130e+00
 2.2026259434e+00	 7.6700091344e-01	 9.6023352970e-01
 2.1954215505e+00	 7.8738522942e-01	 8.9964548999e-01
 2.1880129271e+00	 8.0774412295e-01	 8.3643326253e-01
 2.2614807314e+00	 6.0563929971e-01	 1.3816431432e+00
 2.2558736461e+00	 6.2620135111e-01	 1.3267628360e+00
 2.2500654625e+00	 6.4676068935e-01	 1.2713108038e+00
 2.2440555191e+00	 6.6731454349e-01	 1.2158192892e+00
 2.2378432026e+00	 6.8786011777e-01	 1.1608739611e+00
 2.2314279483e+00	 7.0839459264e-01	 1.1071246690e+00
 2.2248092408e+00	 7.2891512573e-01	 1.0552969110e+00
 2.2179866154e+00	 7.4941885286e-01	 1.0047643494e+00
 2.2109596582e+00	 7.6990288911e-01	 9.5052043306e-01
 2.2037280072e+00	 7.9036432989e-01	 8.9242932179e-01
 2.1962913531e+00	 8.1080025202e-01	 8.3100216073e-01
 2.2700048692e+00	 6.0792211946e-01	 1.3804412172e+00
 2.2643766493e+00	 6.2856167483e-01	 1.3244447975e+00
 2.2585465730e+00	 6.4919850683e-01	 1.2672132305e+00
 2.2525139766e+00	 6.6982983405e-01	 1.2093472790e+00
 2.2462782442e+00	 6.9045285021e-01	 1.1515017848e+00
 2.2398388090e+00	 7.1106472512e-01	 1.0943963736e+00
 2.2331951538e+00	 7.3166260569e-01	 1.0388268923e+00
 2.2263468121e+00	 7.5224361697e-01	 9.8562938774e-01
 2.2192933683e+00	 7.7280486314e-01	 9.3454203831e-01
 2.2120344593e+00	 7.9334342867e-01	 8.8009030329e-01
 2.2045697743e+00	 8.1385637937e-01	 8.2147219079e-01
 2.2785289998e+00	 6.1020493726e-01	 1.3774569866e+00
 2.2728796453e+00	 6.3092199655e-01	 1.3208801936e+00
 2.2670276764e+00	 6.5163632224e-01	 1.2625312257e+00
 2.2609724268e+00	 6.7234512248e-01	 1.2030489436e+00
 2.2547132785e+00	 6.9304558044e-01	 1.1431271861e+00
 2.2482496625e+00	 7.1373485532e-01	 1.0835254691e+00
 2.2415810597e+00	 7.3441008332e-01	 1.0250804354e+00
 2.2347070016e+00	 7.5506837867e-01	 9.6862984328e-01
 2.2276270714e+00	 7.7570683470e-01	 9.1450525133e-01
 2.2203409043e+00	 7.9632252491e-01	 8.6261081107e-01
 2.2128481886e+00	 8.1691250411e-01	 8.0784932507e-01
 2.2870531207e+00	 6.1248775248e-01	 1.3726485431e+00
 2.2813826316e+00	 6.3328231559e-01	 1.3159787844e+00
 2.2755087702e+00	 6.5407413489e-01	 1.2571326150e+00
 2.2694308675e+00	 6.7486040805e-01	 1.1967569342e+00
 2.2631483033e+00	 6.9563830774e-01	 1.1355547621e+00
 2.2566605065e+00	 7.1640498251e-01	 1.0742959736e+00
 2.2499669560e+00	 7.3715755784e-01	 1.0138288046e+00
 2.2430671817e+00	 7.5789313717e-01	 9.5494796402e-01
 2.2359607650e+00	 7.7860880297e-01	 8.9793128055e-01
 2.2286473399e+00	 7.9930161779e-01	 8.4296163436e-01
 2.2211265934e+00	 8.1996862540e-01	 7.9013894473e-01
 2.2955772296e+00	 6.1477056446e-01	 1.3659740252e+00
 2.2898856059e+00	 6.3564263130e-01	 1.3096510745e+00
 2.2839898519e+00	 6.5651194408e-01	 1.2508865792e+00
 2.2778892962e+00	 6.7737569007e-01	 1.1903057764e+00
 2.2715833162e+00	 6.9823103136e-01	 1.1285914053e+00
 2.2650713386e+00	 7.1907510590e-01	 1.0664945189e+00
 2.2583528405e+00	 7.3990502846e-01	 1.0048460890e+00
 2.2514273499e+00	 7.6071789168e-01	 9.4435178930e-01
 2.2442944468e+00	 7.8151076713e-01	 8.8523283888e-01
 2.2369537637e+00	 8.0228070644e-01	 8.2767738205e-01
 2.2294049866e+00	 8.2302474235e-01	 7.7186709742e-01
 2.3041013239e+00	 6.1705337257e-01	 1.3573916185e+00
 2.2983885658e+00	 6.3800294299e-01	 1.3018083031e+00
 2.2924709192e+00	 6.5894974913e-01	 1.2436636354e+00
 2.2863477105e+00	 6.7989096780e-01	 1.1835318428e+00
 2.2800183147e+00	 7.0082375058e-01	 1.1220462711e+00
 2.2734821564e+00	 7.2174522476e-01	 1.0599103156e+00
 2.2667387107e+00	 7.4265249441e-01	 9.9790804926e-01
 2.2597875039e+00	 7.6354264138e-01	 9.3661266511e-01
 2.2526281144e+00	 7.8441272636e-01	 8.7618712934e-01
 2.2452601734e+00	 8.0525979002e-01	 8.1679590733e-01
 2.2376833656e+00	 8.2608085411e-01	 7.5859902652e-01
 2.3126254014e+00	 6.1933617614e-01	 1.3468595566e+00
 2.3068915087e+00	 6.4036324999e-01	 1.2923624337e+00
 2.3009519697e+00	 6.6138754934e-01	 1.2353356180e+00
 2.2948061081e+00	 6.8240624055e-01	 1.1762733281e+00
 2.2884532965e+00	 7.0341646466e-01	 1.1157307483e+00
 2.2818929575e+00	 7.2441533833e-01	 1.0543351203e+00
 2.2751245643e+00	 7.4539995492e-01	 9.9278991668e-01
 2.2681476413e+00	 7.6636738547e-01	 9.3150518494e-01
 2.2609617655e+00	 7.8731467983e-01	 8.7057451582e-01
 2.2535665666e+00	 8.0823886770e-01	 8.1011172815e-01
 2.2459617283e+00	 8.2913695981e-01	 7.5022893619e-01
 2.3211494595e+00	 6.2161897455e-01	 1.3343361217e+00
 2.3153944324e+00	 6.4272355165e-01	 1.2812261446e+00
 2.3094330010e+00	 6.6382534403e-01	 1.2257756607e+00
 2.3032644864e+00	 6.8492150760e-01	 1.1683702240e+00
 2.2968882592e+00	 7.0600917285e-01	 1.1094584290e+00
 2.2903037396e+00	 7.2708544584e-01	 1.0495632034e+00
 2.2835103988e+00	 7.4814740919e-01	 9.8927158396e-01
 2.2765077598e+00	 7.6919212317e-01	 9.2880713197e-01
 2.2692953977e+00	 7.9021662672e-01	 8.6817846721e-01
 2.2618729410e+00	 8.1121793862e-01	 8.0742226050e-01
 2.2542400721e+00	 8.3219305857e-01	 7.4657676272e-01
 2.3296734959e+00	 6.2390176713e-01	 1.3197796464e+00
 2.3238973344e+00	 6.4508384729e-01	 1.2683128210e+00
 2.3179140106e+00	 6.6626313250e-01	 1.2148581800e+00
 2.3117228432e+00	 6.8743676824e-01	 1.1596642964e+00
 2.3053232003e+00	 7.0860187444e-01	 1.1030450811e+00
 2.2987145002e+00	 7.2975554654e-01	 1.0453913184e+00
 2.2918962120e+00	 7.5089485646e-01	 9.8713619491e-01
 2.2848678569e+00	 7.7201685366e-01	 9.2829942266e-01
 2.2776290086e+00	 7.9311856621e-01	 8.6878550296e-01
 2.2701792942e+00	 8.1419700195e-01	 8.0852776807e-01
 2.2625183949e+00	 8.3524914955e-01	 7.4746496265e-01
 2.1797344988e+00	 8.0468799300e-01	 8.3775894319e-01
 2.1721488872e+00	 8.2494505378e-01	 7.7223169269e-01
 2.1643592920e+00	 8.4517092319e-01	 7.0558152799e-01
 2.1563655651e+00	 8.6536264914e-01	 6.3802077307e-01
 2.1481676131e+00	 8.8551726570e-01	 5.6982945682e-01
 2.1397653980e+00	 9.0563179433e-01	 5.0134596961e-01
 2.1311589378e+00	 9.2570324514e-01	 4.3295612261e-01
 2.1223483067e+00	 9.4572861812e-01	 3.6508057885e-01
 2.1133336360e+00	 9.6570490446e-01	 2.9816063363e-01
 2.1041151143e+00	 9.8562908784e-01	 2.3264233121e-01
 2.0946929879e+00	 1.0054981458e+00	 1.6895891418e-01
 2.1880129271e+00	 8.0774412295e-01	 8.3643326253e-01
 2.1803985061e+00	 8.2807811815e-01	 7.7133254146e-01
 2.1725793267e+00	 8.4838080353e-01	 7.0490747691e-01
 2.1645552404e+00	 8.6864921577e-01	 6.3739651370e-01
 2.1563261533e+00	 8.8888037768e-01	 5.6910866042e-01
 2.1478920274e+00	 9.0907129942e-01	 5.0041406764e-01
 2.1392528806e+00	 9.2921897972e-01	 4.3173297073e-01
 2.1304087876e+00	 9.4932040720e-01	 3.6352296510e-01
 2.1213598801e+00	 9.6937256161e-01	 2.9626459013e-01
 2.1121063473e+00	 9.8937241519e-01	 2.3044520764e-01
 2.1026484365e+00	 1.0093169340e+00	 1.6654117061e-01
 2.1962913531e+00	 8.1080025202e-01	 8.3100216073e-01
 2.1886481226e+00	 8.3121118164e-01	 7.6718164263e-01
 2.1807993591e+00	 8.5159068295e-01	 7.0169623187e-01
 2.1727449133e+00	 8.7193578146e-01	 6.3482119985e-01
 2.1644846912e+00	 8.9224348871e-01	 5.6690533003e-01
 2.1560186545e+00	 9.1251080353e-01	 4.9836140579e-01
 2.1473468212e+00	 9.3273471331e-01	 4.2965502408e-01
 2.1384692662e+00	 9.5291219527e-01	 3.6129170114e-01
 2.1293861218e+00	 9.7304021773e-01	 2.9380224536e-01
 2.1200975780e+00	 9.9311574147e-01	 2.2772638203e-01
 2.1106038828e+00	 1.0131357210e+00	 1.6359462497e-01
 2.2045697743e+00	 8.1385637937e-01	 8.2147219079e-01
 2.1968977345e+00	 8.3434424334e-01	 7.5981356570e-01
 2.1890193868e+00	 8.5480056056e-01	 6.9600886918e-01
 2.1809345817e+00	 8.7522234530e-01	 6.3038076484e-01
 2.1726432245e+00	 8.9560659783e-01	 5.6332846881e-01
 2.1641452770e+00	 9.1595030569e-01	 4.9531813564e-01
 2.1554407572e+00	 9.3625044490e-01	 4.2687153026e-01
 2.1465297403e+00	 9.5650398129e-01	 3.5855295062e-01
 2.1374123590e+00	 9.7670787176e-01	 2.9095437512e-01
 2.1280888041e+00	 9.9685906563e-01	 2.2467881833e-01
 2.1185593247e+00	 1.0169545060e+00	 1.6032188913e-01
 2.2128481886e+00	 8.1691250411e-01	 8.0784932507e-01
 2.2051473393e+00	 8.3747730239e-01	 7.4926183074e-01
 2.1972394076e+00	 8.5801043544e-01	 6.8790496167e-01
 2.1891242430e+00	 8.7850890634e-01	 6.2415920064e-01
 2.1808017509e+00	 8.9896970409e-01	 5.5848471841e-01
 2.1722718926e+00	 9.1938980493e-01	 4.9141164631e-01
 2.1635346863e+00	 9.3976617351e-01	 4.2352859407e-01
 2.1545902075e+00	 9.6009576427e-01	 3.5546937622e-01
 2.1454385894e+00	 9.8037552268e-01	 2.8789791983e-01
 2.1360800235e+00	 1.0006023866e+00	 2.2149133597e-01
 2.1265147597e+00	 1.0207732877e+00	 1.5692114828e-01
 2.2211265934e+00	 8.1996862540e-01	 7.9013894473e-01
 2.2133969348e+00	 8.4061035788e-01	 7.3555890698e-01
 2.2054594190e+00	 8.6122030668e-01	 6.7744258611e-01
 2.1973138951e+00	 8.8179546365e-01	 6.1623857364e-01
 2.1889602680e+00	 9.0233280655e-01	 5.5247838255e-01
 2.1803984990e+00	 9.2282930027e-01	 4.8676659519e-01
 2.1716286062e+00	 9.4328189813e-01	 4.1976921489e-01
 2.1626506656e+00	 9.6368754317e-01	 3.5220018311e-01
 2.1534648107e+00	 9.8404316944e-01	 2.8480603334e-01
 2.1440712338e+00	 1.0043457033e+00	 2.1834866339e-01
 2.1344701858e+00	 1.0245920650e+00	 1.5358621840e-01
 2.2294049866e+00	 8.2302474235e-01	 7.7186709742e-01
 2.2216465186e+00	 8.4374340893e-01	 7.1873621250e-01
 2.2136794188e+00	 8.6443017337e-01	 6.6467833140e-01
 2.2055035356e+00	 8.8508201631e-01	 6.0669904103e-01
 2.1971187736e+00	 9.0569590423e-01	 5.4541145103e-01
 2.1885250938e+00	 9.2626879073e-01	 4.8150493909e-01
 2.1797225147e+00	 9.4679761777e-01	 4.1573332437e-01
 2.1707111122e+00	 9.6727931699e-01	 3.4890116248e-01
 2.1614910207e+00	 9.8771081101e-01	 2.8184813177e-01
 2.1520624328e+00	 1.0080890148e+00	 2.1543149153e-01
 2.1424256006e+00	 1.0284108369e+00	 1.5050660364e-01
 2.2376833656e+00	 8.2608085411e-01	 7.5859902652e-01
 2.2298960884e+00	 8.4687645466e-01	 7.0260437830e-01
 2.2218994046e+00	 8.6764003461e-01	 6.4966730779e-01
 2.2136931621e+00	 8.8836856338e-01	 5.9561886789e-01
 2.2052772652e+00	 9.0905899620e-01	 5.3738362431e-01
 2.1966516749e+00	 9.2970827535e-01	 4.7574596579e-01
 2.1878164094e+00	 9.5031333143e-01	 4.1155782437e-01
 2.1787715452e+00	 9.7087108470e-01	 3.4572473535e-01
 2.1695172169e+00	 9.9137844633e-01	 2.7918994243e-01
 2.1600536182e+00	 1.0118323198e+00	 2.1291652716e-01
 2.1503810018e+00	 1.0322296024e+00	 1.4786755344e-01
 2.2459617283e+00	 8.2913695981e-01	 7.5022893619e-01
 2.2381456418e+00	 8.5000949417e-01	 6.9194088631e-01
 2.2301193741e+00	 8.7084988948e-01	 6.3621851925e-01
 2.2218827725e+00	 8.9165510393e-01	 5.8307444492e-01
 2.2134357407e+00	 9.1242208150e-01	 5.2849233856e-01
 2.2047782398e+00	 9.3314775314e-01	 4.6960632593e-01
 2.1959102881e+00	 9.5382903812e-01	 4.0737662509e-01
 2.1868319622e+00	 9.7446284528e-01	 3.4281999636e-01
 2.1775433973e+00	 9.9504607439e-01	 2.7699355276e-01
 2.1680447877e+00	 1.0155756175e+00	 2.1097654626e-01
 2.1583363873e+00	 1.0360483603e+00	 1.4585011965e-01
 2.2542400721e+00	 8.3219305857e-01	 7.4657676272e-01
 2.2463951765e+00	 8.5314252659e-01	 6.8661087448e-01
 2.2383393250e+00	 8.7405973707e-01	 6.2857709562e-01
 2.2300723642e+00	 8.9494163704e-01	 5.7261111005e-01
 2.2215941978e+00	 9.1578515917e-01	 5.1883279127e-01
 2.2129047863e+00	 9.3658722314e-01	 4.6320006528e-01
 2.2040041484e+00	 9.5734473684e-01	 4.0332068352e-01
 2.1948923609e+00	 9.7805459772e-01	 3.4033275777e-01
 2.1855695595e+00	 9.9871369413e-01	 2.7541745923e-01
 2.1760359392e+00	 1.0193189067e+00	 2.0978044728e-01
 2.1662917548e+00	 1.0398671095e+00	 1.4463121343e-01
 2.2625183949e+00	 8.3524914955e-01	 7.4746496265e-01
 2.2546446902e+00	 8.5627555101e-01	 6.8646276382e-01
 2.2465592549e+00	 8.7726957648e-01	 6.2662127363e-01
 2.2382619351e+00	 8.9822816176e-01	 5.6820423766e-01
 2.2297526340e+00	 9.1914822827e-01	 5.1147619729e-01
 2.2210313121e+00	 9.4002668437e-01	 4.5663865734e-01
 2.2120979880e+00	 9.6086042659e-01	 3.9951804213e-01
 2.2029527390e+00	 9.8164634100e-01	 3.3840559365e-01
 2.1935957011e+00	 1.0023813045e+00	 2.7461661639e-01
 2.1840270702e+00	 1.0230621863e+00	 2.0949330441e-01
 2.1742471019e+00	 1.0436858490e+00	 1.4438366208e-01
 2.0946929879e+00	 1.0054981458e+00	 1.6895891418e-01
 2.0850692143e+00	 1.0253056884e+00	 1.0564362809e-01
 2.0752425708e+00	 1.0450520678e+00	 4.1332967084e-02
 2.0652134774e+00	 1.0647342514e+00	-2.3429437047e-02
 2.0549824128e+00	 1.0843492062e+00	-8.8193610549e-02
 2.0445499154e+00	 1.1038938996e+00	-1.5262915296e-01
 2.0339165827e+00	 1.1233653013e+00	-2.1652572685e-01
 2.0230830718e+00	 1.1427603843e+00	-2.7969839453e-01
 2.0120500994e+00	 1.1620761269e+00	-3.4207217096e-01
 2.0008184419e+00	 1.1813095133e+00	-4.0363759311e-01
 1.9893889355e+00	 1.2004575360e+00	-4.6444611202e-01
 2.1026484365e+00	 1.0093169340e+00	 1.6654117061e-01
 2.0929881127e+00	 1.0291997038e+00	 1.0314382260e-01
 2.0831241486e+00	 1.0490210780e+00	 3.8905602012e-02
 2.0730569655e+00	 1.0687780128e+00	-2.5646323092e-02
 2.0627870444e+00	 1.0884674633e+00	-9.0075494904e-02
 2.0523149253e+00	 1.1080863857e+00	-1.5406246308e-01
 2.0416412082e+00	 1.1276317379e+00	-2.1740137530e-01
 2.0307665526e+00	 1.1471004817e+00	-2.7995140594e-01
 2.0196916780e+00	 1.1664895836e+00	-3.4166098249e-01
 2.0084173637e+00	 1.1857960167e+00	-4.0253813687e-01
 1.9969444491e+00	 1.2050167618e+00	-4.6265203030e-01
 2.1106038828e+00	 1.0131357210e+00	 1.6359462497e-01
 2.1009070089e+00	 1.0330937181e+00	 1.0008179686e-01
 2.0910057241e+00	 1.0529900872e+00	 3.5877299070e-02
 2.0809004515e+00	 1.0728217730e+00	-2.8503683561e-02
 2.0705916737e+00	 1.0925857193e+00	-9.2633782880e-02
 2.0600799330e+00	 1.1122788705e+00	-1.5620010150e-01
 2.0493658315e+00	 1.1318981733e+00	-2.1901041582e-01
 2.0384500312e+00	 1.1514405778e+00	-2.8096161129e-01
 2.0273332544e+00	 1.1709030391e+00	-3.4201665420e-01
 2.0160162834e+00	 1.1902825187e+00	-4.0219789991e-01
 2.0044999606e+00	 1.2095759862e+00	-4.6158930409e-01
 2.1185593247e+00	 1.0169545060e+00	 1.6032188913e-01
 2.1088259006e+00	 1.0369877301e+00	 9.6667322041e-02
 2.0988872951e+00	 1.0569590941e+00	 3.2462608178e-02
 2.0887439330e+00	 1.0768655310e+00	-3.1784599573e-02
 2.0783962986e+00	 1.0967039729e+00	-9.5651621153e-02
 2.0678449363e+00	 1.1164713531e+00	-1.5882854474e-01
 2.0570904504e+00	 1.1361646064e+00	-2.2114948583e-01
 2.0461335055e+00	 1.1557806715e+00	-2.8253332791e-01
 2.0349748265e+00	 1.1753164921e+00	-3.4295346733e-01
 2.0236151987e+00	 1.1947690183e+00	-4.0244344335e-01
 2.0120554678e+00	 1.2141352081e+00	-4.6109912153e-01
 2.1265147597e+00	 1.0207732877e+00	 1.5692114828e-01
 2.1167447855e+00	 1.0408817389e+00	 9.3105486597e-02
 2.1067688594e+00	 1.0609280976e+00	 2.8871165055e-02
 2.0965874078e+00	 1.0809092855e+00	-3.5277272863e-02
 2.0862009169e+00	 1.1008222231e+00	-9.8917457758e-02
 2.0756099330e+00	 1.1206638320e+00	-1.6174342646e-01
 2.0648150627e+00	 1.1404310357e+00	-2.2362033632e-01
 2.0538169733e+00	 1.1601207615e+00	-2.8447592070e-01
 2.0426163921e+00	 1.1797299413e+00	-3.4429064775e-01
 2.0312141076e+00	 1.1992555140e+00	-4.0310613312e-01
 2.0196109686e+00	 1.2186944261e+00	-4.6102729872e-01
 2.1344701858e+00	 1.0245920650e+00	 1.5358621840e-01
 2.1246636615e+00	 1.0447757432e+00	 8.9596757009e-02
 2.1146504148e+00	 1.0648970967e+00	 2.5307754480e-02
 2.1044308737e+00	 1.0849530354e+00	-3.8774960673e-02
 2.0940055263e+00	 1.1049404686e+00	-1.0222497586e-01
 2.0833749208e+00	 1.1248563062e+00	-1.6474614157e-01
 2.0725396663e+00	 1.1446974603e+00	-2.2622972968e-01
 2.0615004323e+00	 1.1644608465e+00	-2.8660369790e-01
 2.0502579491e+00	 1.1841433856e+00	-3.4585226051e-01
 2.0388130079e+00	 1.2037420046e+00	-4.0402203378e-01
 2.0271664608e+00	 1.2232536390e+00	-4.6122417365e-01
 2.1424256006e+00	 1.0284108369e+00	 1.5050660364e-01
 2.1325825262e+00	 1.0486697420e+00	 8.6337038269e-02
 2.1225319590e+00	 1.0688660901e+00	 2.1972373290e-02
 2.1122743285e+00	 1.0889967796e+00	-4.2075910955e-02
 2.1018101246e+00	 1.1090587082e+00	-1.0537302786e-01
 2.0911398977e+00	 1.1290487744e+00	-1.6764302920e-01
 2.0802642590e+00	 1.1489638788e+00	-2.2878933789e-01
 2.0691838805e+00	 1.1688009254e+00	-2.8873580733e-01
 2.0578994952e+00	 1.1885568235e+00	-3.4746710460e-01
 2.0464118975e+00	 1.2082284889e+00	-4.0503180270e-01
 2.0347219423e+00	 1.2278128453e+00	-4.6154450027e-01
 2.1503810018e+00	 1.0322296024e+00	 1.4786755344e-01
 2.1405013775e+00	 1.0525637342e+00	 8.3517734189e-02
 2.1304134899e+00	 1.0728350767e+00	 1.9060293132e-02
 2.1201177700e+00	 1.0930405169e+00	-4.4983297846e-02
 2.1096147097e+00	 1.1131769409e+00	-1.0816629710e-01
 2.0989048614e+00	 1.1332412356e+00	-1.7024527389e-01
 2.0879888385e+00	 1.1532302900e+00	-2.3111564106e-01
 2.0768673155e+00	 1.1731409969e+00	-2.9069613281e-01
 2.0655410284e+00	 1.1929702540e+00	-3.4896860805e-01
 2.0540107741e+00	 1.2127149656e+00	-4.0598058437e-01
 2.0422774110e+00	 1.2323720440e+00	-4.6184734280e-01
 2.1583363873e+00	 1.0360483603e+00	 1.4585011965e-01
 2.1484202131e+00	 1.0564577187e+00	 8.1325807506e-02
 2.1382950050e+00	 1.0768040555e+00	 1.6762122956e-02
 2.1279611960e+00	 1.0970842462e+00	-4.7305157445e-02
 2.1174192793e+00	 1.1172951653e+00	-1.1041943513e-01
 2.1066698097e+00	 1.1374336884e+00	-1.7236880710e-01
 2.0957134027e+00	 1.1574966928e+00	-2.3302982625e-01
 2.0845507354e+00	 1.1774810599e+00	-2.9231319094e-01
 2.0731825464e+00	 1.1973836758e+00	-3.5019472328e-01
 2.0616096356e+00	 1.2172014333e+00	-4.0671790499e-01
 2.0498328647e+00	 1.2369312335e+00	-4.6199597017e-01
 2.1662917548e+00	 1.0398671095e+00	 1.4463121343e-01
 2.1563390307e+00	 1.0603516944e+00	 7.9943839801e-02
 2.1461765024e+00	 1.0807730253e+00	 1.5263871289e-02
 2.1358046041e+00	 1.1011279663e+00	-4.8854323855e-02
 2.1252238313e+00	 1.1214133805e+00	-1.1195037370e-01
 2.1144347404e+00	 1.1416261317e+00	-1.7383420902e-01
 2.1034379494e+00	 1.1617630859e+00	-2.3435768660e-01
 2.0922341378e+00	 1.1818211130e+00	-2.9342002824e-01
 2.0808240470e+00	 1.2017970875e+00	-3.5098782276e-01
 2.0692084799e+00	 1.2216878909e+00	-4.0709756727e-01
 2.0573883012e+00	 1.2414904128e+00	-4.6185775067e-01
 2.1742471019e+00	 1.0436858490e+00	 1.4438366208e-01
 2.1642578281e+00	 1.0642456601e+00	 7.9550091231e-02
 2.1540579796e+00	 1.0847419850e+00	 1.4747008254e-02
 2.1436479923e+00	 1.1051716761e+00	-4.9448365494e-02
 2.1330283633e+00	 1.1255315851e+00	-1.1258105103e-01
 2.1221996512e+00	 1.1458185643e+00	-1.7446661067e-01
 2.1111624763e+00	 1.1660294682e+00	-2.3492952080e-01
 2.0999175207e+00	 1.1861611550e+00	-2.9385411843e-01
 2.0884655282e+00	 1.2062104879e+00	-3.5119459486e-01
 2.0768073048e+00	 1.2261743371e+00	-4.0697754545e-01
 2.0649437185e+00	 1.2460495804e+00	-4.6130404673e-01
 1.9893889355e+00	 1.2004575360e+00	-4.6444611202e-01
 1.9777624767e+00	 1.2195171970e+00	-5.2431370698e-01
 1.9659400232e+00	 1.2384855106e+00	-5.8292241298e-01
 1.9539225930e+00	 1.2573595038e+00	-6.4023480995e-01
 1.9417112635e+00	 1.2761362175e+00	-6.9630150027e-01
 1.9293071710e+00	 1.2948127076e+00	-7.5126225123e-01
 1.9167115110e+00	 1.3133860468e+00	-8.0534681802e-01
 1.9039255374e+00	 1.3318533261e+00	-8.5887546343e-01
 1.8909505627e+00	 1.3502116560e+00	-9.1225919225e-01
 1.8777879572e+00	 1.3684581680e+00	-9.6599972010e-01
 1.8644391488e+00	 1.3865900162e+00	-1.0206891978e+00
 1.9969444491e+00	 1.2050167618e+00	-4.6265203030e-01
 1.9852738341e+00	 1.2241488096e+00	-5.2193927743e-01
 1.9734064800e+00	 1.2431891631e+00	-5.8016395387e-01
 1.9613434088e+00	 1.2621348379e+00	-6.3724897356e-01
 1.9490857018e+00	 1.2809828638e+00	-6.9320579344e-01
 1.9366344997e+00	 1.2997302855e+00	-7.4813556692e-01
 1.9239910025e+00	 1.3183741645e+00	-8.0222997184e-01
 1.9111564690e+00	 1.3369115809e+00	-8.5577172967e-01
 1.8981322166e+00	 1.3553396340e+00	-9.0913483498e-01
 1.8849196207e+00	 1.3736554445e+00	-9.6278451547e-01
 1.8715201148e+00	 1.3918561558e+00	-1.0172769450e+00
 2.0044999606e+00	 1.2095759862e+00	-4.6158930409e-01
 1.9927851894e+00	 1.2287804208e+00	-5.2024894870e-01
 1.9808729348e+00	 1.2478928142e+00	-5.7802832896e-01
 1.9687642225e+00	 1.2669101707e+00	-6.3481474558e-01
 1.9564601380e+00	 1.2858295088e+00	-6.9058449421e-01
 1.9439618263e+00	 1.3046478620e+00	-7.4540402049e-01
 1.9312704920e+00	 1.3233622808e+00	-7.9943074317e-01
 1.9183873986e+00	 1.3419698341e+00	-8.5291356329e-01
 1.9053138684e+00	 1.3604676104e+00	-9.0619307895e-01
 1.8920512822e+00	 1.3788527195e+00	-9.5970152713e-01
 1.8786010788e+00	 1.3971222939e+00	-1.0139624756e+00
 2.0120554678e+00	 1.2141352081e+00	-4.6109912153e-01
 2.0002965404e+00	 1.2334120295e+00	-5.1909915069e-01
 1.9883393853e+00	 1.2525964626e+00	-5.7638603946e-01
 1.9761850319e+00	 1.2716855008e+00	-6.3281548030e-01
 1.9638345700e+00	 1.2906761510e+00	-6.8833254516e-01
 1.9512891488e+00	 1.3095654357e+00	-7.4297283229e-01
 1.9385499774e+00	 1.3283503943e+00	-7.9686327505e-01
 1.9256183241e+00	 1.3470280845e+00	-8.5022263115e-01
 1.9124955162e+00	 1.3655955840e+00	-9.0336167314e-01
 1.8991829397e+00	 1.3840499916e+00	-9.5668310232e-01
 1.8856820388e+00	 1.4023884289e+00	-1.0106812102e+00
 2.0196109686e+00	 1.2186944261e+00	-4.6102729872e-01
 2.0078078850e+00	 1.2380436342e+00	-5.1835075375e-01
 1.9958058294e+00	 1.2573001071e+00	-5.7511185603e-01
 1.9836058351e+00	 1.2764608268e+00	-6.3113864820e-01
 1.9712089957e+00	 1.2955227890e+00	-6.8634887055e-01
 1.9586164650e+00	 1.3144830052e+00	-7.4075108996e-01
 1.9458294565e+00	 1.3333385035e+00	-7.9444548449e-01
 1.9328492434e+00	 1.3520863306e+00	-8.4762430305e-01
 1.9196771578e+00	 1.3707235532e+00	-9.0057202182e-01
 1.9063145911e+00	 1.3892472592e+00	-9.5366522046e-01
 1.8927629927e+00	 1.4076545595e+00	-1.0073722035e+00
 2.0271664608e+00	 1.2232536390e+00	-4.6122417365e-01
 2.0153192212e+00	 1.2426752336e+00	-5.1786896288e-01
 2.0032722651e+00	 1.2620037462e+00	-5.7408471298e-01
 1.9910266298e+00	 1.2812361474e+00	-6.2967572981e-01
 1.9785834131e+00	 1.3003694216e+00	-6.8453626972e-01
 1.9659437729e+00	 1.3194005692e+00	-7.3865164084e-01
 1.9531089275e+00	 1.3383266071e+00	-7.9209895370e-01
 1.9400801545e+00	 1.3571445710e+00	-8.4504754150e-01
 1.9268587914e+00	 1.3758515166e+00	-8.9775907247e-01
 1.9134462344e+00	 1.3944445210e+00	-9.5058737885e-01
 1.8998439386e+00	 1.4129206842e+00	-1.0039780284e+00
 2.0347219423e+00	 1.2278128453e+00	-4.6154450027e-01
 2.0228305467e+00	 1.2473068265e+00	-5.1752321204e-01
 2.0107386902e+00	 1.2667073787e+00	-5.7318760255e-01
 1.9984474140e+00	 1.2860114612e+00	-6.2832210968e-01
 1.9859578200e+00	 1.3052160474e+00	-6.8280131033e-01
 1.9732710705e+00	 1.3243181262e+00	-7.3659098437e-01
 1.9603883881e+00	 1.3433147036e+00	-7.8974882135e-01
 1.9473110554e+00	 1.3622028042e+00	-8.4242479137e-01
 1.9340404147e+00	 1.3809794728e+00	-8.9486120367e-01
 1.9205778676e+00	 1.3996417754e+00	-9.4739247836e-01
 1.9069248745e+00	 1.4181868013e+00	-1.0004446584e+00
 2.0422774110e+00	 1.2323720440e+00	-4.6184734280e-01
 2.0303418594e+00	 1.2519384115e+00	-5.1718705858e-01
 2.0182051026e+00	 1.2714110031e+00	-5.7230746922e-01
 2.0058681856e+00	 1.2907867669e+00	-6.2697697025e-01
 1.9933322144e+00	 1.3100626649e+00	-6.8105422166e-01
 1.9805983556e+00	 1.3292356748e+00	-7.3448916446e-01
 1.9676678363e+00	 1.3483027916e+00	-7.8732367359e-01
 1.9545419440e+00	 1.3672610288e+00	-8.3969186946e-01
 1.9412220258e+00	 1.3861074202e+00	-8.9182011274e-01
 1.9277094887e+00	 1.4048390209e+00	-9.4402670894e-01
 1.9140057984e+00	 1.4234529095e+00	-9.9672135115e-01
 2.0498328647e+00	 1.2369312335e+00	-4.6199597017e-01
 2.0378531572e+00	 1.2565699873e+00	-5.1673807779e-01
 2.0256715002e+00	 1.2761146183e+00	-5.7133510405e-01
 2.0132889425e+00	 1.2955620631e+00	-6.2554318587e-01
 2.0007065942e+00	 1.3149092727e+00	-6.7920878788e-01
 1.9879256261e+00	 1.3341532137e+00	-7.3226966171e-01
 1.9749472701e+00	 1.3532908697e+00	-7.8475543509e-01
 1.9617728182e+00	 1.3723192434e+00	-8.3678785392e-01
 1.9484036227e+00	 1.3912353574e+00	-8.8858070332e-01
 1.9348410956e+00	 1.4100362562e+00	-9.4043943504e-01
 1.9210867082e+00	 1.4287190073e+00	-9.9276053097e-01
 2.0573883012e+00	 1.2414904128e+00	-4.6185775067e-01
 2.0453644380e+00	 1.2612015526e+00	-5.1605775756e-01
 2.0331378809e+00	 1.2808182228e+00	-5.7016503915e-01
 2.0207096826e+00	 1.3003373485e+00	-6.2392721669e-01
 2.0080809572e+00	 1.3197558696e+00	-6.7718224121e-01
 1.9952528801e+00	 1.3390707414e+00	-7.2985928565e-01
 1.9822266874e+00	 1.3582789366e+00	-7.8197925993e-01
 1.9690036761e+00	 1.3773774465e+00	-8.3365497361e-01
 1.9555852033e+00	 1.3963632831e+00	-8.8509097287e-01
 1.9419726864e+00	 1.4152334797e+00	-9.3658308087e-01
 1.9281676020e+00	 1.4339850932e+00	-9.8851767200e-01
 2.0649437185e+00	 1.2460495804e+00	-4.6130404673e-01
 2.0528756997e+00	 1.2658331062e+00	-5.1503139308e-01
 2.0406042425e+00	 1.2855218152e+00	-5.6869544216e-01
 2.0281304037e+00	 1.3051126218e+00	-6.2203900266e-01
 2.0154553015e+00	 1.3246024542e+00	-6.7489515516e-01
 2.0025801153e+00	 1.3439882566e+00	-7.2718806684e-01
 1.9895060861e+00	 1.3632669907e+00	-7.7893342245e-01
 1.9762345155e+00	 1.3824356367e+00	-8.3023849728e-01
 1.9627667656e+00	 1.4014911956e+00	-8.8130189998e-01
 1.9491042590e+00	 1.4204306899e+00	-9.3241301562e-01
 1.9352484777e+00	 1.4392511656e+00	-9.8395118069e-01
 1.8644391488e+00	 1.3865900162e+00	-1.0206891978e+00
 1.8509033073e+00	 1.4046074294e+00	-1.0727292048e+00
 1.8371842352e+00	 1.4225045086e+00	-1.1183323012e+00
 1.8232835386e+00	 1.4402784720e+00	-1.1591337915e+00
 1.8092028793e+00	 1.4579265664e+00	-1.1972131314e+00
 1.7949439741e+00	 1.4754460677e+00	-1.2344320808e+00
 1.7805085939e+00	 1.4928342830e+00	-1.2714118360e+00
 1.7658985635e+00	 1.5100885515e+00	-1.3055699108e+00
 1.7511157601e+00	 1.5272062460e+00	-1.3368540931e+00
 1.7361621134e+00	 1.5441847742e+00	-1.3652789588e+00
 1.7210396040e+00	 1.5610215801e+00	-1.3906748159e+00
 1.8715201148e+00	 1.3918561558e+00	-1.0172769450e+00
 1.8579328654e+00	 1.4099419974e+00	-1.0691191720e+00
 1.8441616895e+00	 1.4279070480e+00	-1.1149172308e+00
 1.8302081994e+00	 1.4457485153e+00	-1.1558520326e+00
 1.8160740631e+00	 1.4634636355e+00	-1.1940165541e+00
 1.8017610039e+00	 1.4810496743e+00	-1.2313670825e+00
 1.7872707995e+00	 1.4985039284e+00	-1.2673910678e+00
 1.7726052815e+00	 1.5158237270e+00	-1.3004672961e+00
 1.7577663345e+00	 1.5330064329e+00	-1.3308898521e+00
 1.7427558952e+00	 1.5500494440e+00	-1.3587381929e+00
 1.7275759519e+00	 1.5669501944e+00	-1.3839019388e+00
 1.8786010788e+00	 1.3971222939e+00	-1.0139624756e+00
 1.8649624216e+00	 1.4152765639e+00	-1.0655910925e+00
 1.8511391419e+00	 1.4333095859e+00	-1.1114041610e+00
 1.8371328582e+00	 1.4512185571e+00	-1.1524794422e+00
 1.8229452449e+00	 1.4690007031e+00	-1.1907458720e+00
 1.8085780317e+00	 1.4866532792e+00	-1.2280630411e+00
 1.7940330032e+00	 1.5041735722e+00	-1.2629561818e+00
 1.7793119977e+00	 1.5215589008e+00	-1.2950437542e+00
 1.7644169069e+00	 1.5388066181e+00	-1.3246860784e+00
 1.7493496751e+00	 1.5559141120e+00	-1.3520211598e+00
 1.7341122980e+00	 1.5728788071e+00	-1.3769915330e+00
 1.8856820388e+00	 1.4023884289e+00	-1.0106812102e+00
 1.8719919737e+00	 1.4206111274e+00	-1.0620854377e+00
 1.8581165904e+00	 1.4387121208e+00	-1.1078559851e+00
 1.8440575132e+00	 1.4566885957e+00	-1.1490571810e+00
 1.8298164229e+00	 1.4745377675e+00	-1.1874376824e+00
 1.8153950557e+00	 1.4922568810e+00	-1.2243404688e+00
 1.8007952030e+00	 1.5098432127e+00	-1.2581950759e+00
 1.7860187100e+00	 1.5272940714e+00	-1.2893829564e+00
 1.7710674756e+00	 1.5446068001e+00	-1.3183230733e+00
 1.7559434513e+00	 1.5617787768e+00	-1.3452056802e+00
 1.7406486403e+00	 1.5788074164e+00	-1.3700198575e+00
 1.8927629927e+00	 1.4076545595e+00	-1.0073722035e+00
 1.8790215199e+00	 1.4259456863e+00	-1.0585435841e+00
 1.8650940329e+00	 1.4441146510e+00	-1.1042829093e+00
 1.8509821622e+00	 1.4621586297e+00	-1.1456258623e+00
 1.8366875950e+00	 1.4800748272e+00	-1.1841282523e+00
 1.8222120739e+00	 1.4978604780e+00	-1.2202866529e+00
 1.8075573971e+00	 1.5155128484e+00	-1.2531915077e+00
 1.7927254166e+00	 1.5330292371e+00	-1.2835645654e+00
 1.7777180386e+00	 1.5504069771e+00	-1.3118772576e+00
 1.7625372218e+00	 1.5676434366e+00	-1.3383658163e+00
 1.7471849771e+00	 1.5847360207e+00	-1.3630595285e+00
 1.8998439386e+00	 1.4129206842e+00	-1.0039780284e+00
 1.8860510581e+00	 1.4312802392e+00	-1.0549104401e+00
 1.8720714675e+00	 1.4495171752e+00	-1.1006326776e+00
 1.8579068034e+00	 1.4676286575e+00	-1.1421811919e+00
 1.8435587593e+00	 1.4856118806e+00	-1.1807601043e+00
 1.8290290844e+00	 1.5034640687e+00	-1.2159860342e+00
 1.8143195835e+00	 1.5211824777e+00	-1.2480251389e+00
 1.7994321157e+00	 1.5387643964e+00	-1.2776642824e+00
 1.7843685941e+00	 1.5562071475e+00	-1.3054212217e+00
 1.7691309849e+00	 1.5735080897e+00	-1.3315719262e+00
 1.7537213064e+00	 1.5906646183e+00	-1.3561795768e+00
 1.9069248745e+00	 1.4181868013e+00	-1.0004446584e+00
 1.8930805864e+00	 1.4366147846e+00	-1.0511343269e+00
 1.8790488922e+00	 1.4549196916e+00	-1.0968560294e+00
 1.8648314348e+00	 1.4730986776e+00	-1.1386412440e+00
 1.8504299139e+00	 1.4911489262e+00	-1.1771612486e+00
 1.8358460853e+00	 1.5090676514e+00	-1.2115188634e+00
 1.8210817603e+00	 1.5268520990e+00	-1.2427715799e+00
 1.8061388052e+00	 1.5444995475e+00	-1.2717538947e+00
 1.7910191401e+00	 1.5620073097e+00	-1.2990237765e+00
 1.7757247387e+00	 1.5793727345e+00	-1.3248907175e+00
 1.7602576265e+00	 1.5965932074e+00	-1.3494455052e+00
 1.9140057984e+00	 1.4234529095e+00	-9.9672135115e-01
 1.9001101027e+00	 1.4419493208e+00	-1.0471668589e+00
 1.8860263050e+00	 1.4603221989e+00	-1.0929070091e+00
 1.8717560544e+00	 1.4785686883e+00	-1.1349618852e+00
 1.8573010568e+00	 1.4966859623e+00	-1.1733273395e+00
 1.8426630745e+00	 1.5146712247e+00	-1.2069612423e+00
 1.8278439256e+00	 1.5325217106e+00	-1.2375024339e+00
 1.8128454833e+00	 1.5502346888e+00	-1.2659013231e+00
 1.7976696749e+00	 1.5678074621e+00	-1.2927500035e+00
 1.7823184812e+00	 1.5852373694e+00	-1.3183853012e+00
 1.7667939355e+00	 1.6025217865e+00	-1.3429193452e+00
 1.9210867082e+00	 1.4287190073e+00	-9.9276053097e-01
 1.9071396050e+00	 1.4472838465e+00	-1.0429628237e+00
 1.8930037041e+00	 1.4657246955e+00	-1.0887428441e+00
 1.8786806603e+00	 1.4840386882e+00	-1.1310750832e+00
 1.8641721861e+00	 1.5022229875e+00	-1.1691384995e+00
 1.8494800502e+00	 1.5202747867e+00	-1.2023851654e+00
 1.8346060775e+00	 1.5381913110e+00	-1.2322853416e+00
 1.8195521481e+00	 1.5559698188e+00	-1.2601706690e+00
 1.8043201965e+00	 1.5736076030e+00	-1.2866613055e+00
 1.7889122106e+00	 1.5911019926e+00	-1.3121152450e+00
 1.7733302316e+00	 1.6084503539e+00	-1.3366597143e+00
 1.9281676020e+00	 1.4339850932e+00	-9.8851767200e-01
 1.9141690914e+00	 1.4526183601e+00	-1.0384800625e+00
 1.8999810872e+00	 1.4711271799e+00	-1.0843238225e+00
 1.8856052505e+00	 1.4895086757e+00	-1.1267662398e+00
 1.8710432998e+00	 1.5077600002e+00	-1.1645946282e+00
 1.8562970105e+00	 1.5258783361e+00	-1.1977898487e+00
 1.8413682141e+00	 1.5438608986e+00	-1.2271840251e+00
 1.8262587978e+00	 1.5617049357e+00	-1.2546222622e+00
 1.8109707030e+00	 1.5794077307e+00	-1.2808154573e+00
 1.7955059252e+00	 1.5969666025e+00	-1.3061366276e+00
 1.7798665128e+00	 1.6143789077e+00	-1.3307218734e+00
 1.9352484777e+00	 1.4392511656e+00	-9.8395118069e-01
 1.9211985599e+00	 1.4579528601e+00	-1.0336793505e+00
 1.9069584527e+00	 1.4765296504e+00	-1.0796131706e+00
 1.8925298230e+00	 1.4949786493e+00	-1.1220007049e+00
 1.8779143959e+00	 1.5132969987e+00	-1.1596999641e+00
 1.8631139533e+00	 1.5314818712e+00	-1.1929742824e+00
 1.8481303335e+00	 1.5495304716e+00	-1.2222583329e+00
 1.8329654303e+00	 1.5674400381e+00	-1.2493127078e+00
 1.8176211925e+00	 1.5852078436e+00	-1.2752666555e+00
 1.8020996229e+00	 1.6028311975e+00	-1.3005020918e+00
 1.7864027773e+00	 1.6203074465e+00	-1.3251577834e+00
 1.7210396040e+00	 1.5610215801e+00	-1.3906748159e+00
 1.7057528715e+00	 1.5777113245e+00	-1.4155629021e+00
 1.6903014164e+00	 1.5942544255e+00	-1.4421647788e+00
 1.6746873394e+00	 1.6106484717e+00	-1.4696325421e+00
 1.6589127890e+00	 1.6268910925e+00	-1.4970164579e+00
 1.6429799599e+00	 1.6429799599e+00	-1.5232953546e+00
 1.6268910925e+00	 1.6589127890e+00	-1.5474073383e+00
 1.6106484717e+00	 1.6746873394e+00	-1.5682806160e+00
 1.5942544255e+00	 1.6903014164e+00	-1.5848642132e+00
 1.5777113245e+00	 1.7057528715e+00	-1.5961583751e+00
 1.5610215801e+00	 1.7210396040e+00	-1.6012444404e+00
 1.7275759519e+00	 1.5669501944e+00	-1.3839019388e+00
 1.7122311618e+00	 1.5837033249e+00	-1.4088016068e+00
 1.6967210235e+00	 1.6003092551e+00	-1.4355095712e+00
 1.6810476457e+00	 1.6167655644e+00	-1.4631587407e+00
 1.6652131850e+00	 1.6330698732e+00	-1.4907781349e+00
 1.6492198446e+00	 1.6492198446e+00	-1.5173241201e+00
 1.6330698732e+00	 1.6652131850e+00	-1.5417119731e+00
 1.6167655644e+00	 1.6810476457e+00	-1.5628475525e+00
 1.6003092551e+00	 1.6967210235e+00	-1.5796588586e+00
 1.5837033249e+00	 1.7122311618e+00	-1.5911272658e+00
 1.5669501944e+00	 1.7275759519e+00	-1.5963182118e+00
 1.7341122980e+00	 1.5728788071e+00	-1.3769915330e+00
 1.7187094503e+00	 1.5896953237e+00	-1.4019150714e+00
 1.7031406288e+00	 1.6063640830e+00	-1.4287210843e+00
 1.6874079503e+00	 1.6228826553e+00	-1.4565288497e+00
 1.6715135793e+00	 1.6392486520e+00	-1.4843516159e+00
 1.6554597274e+00	 1.6554597274e+00	-1.5111286920e+00
 1.6392486520e+00	 1.6715135793e+00	-1.5357578698e+00
 1.6228826553e+00	 1.6874079503e+00	-1.5571279536e+00
 1.6063640830e+00	 1.7031406288e+00	-1.5741511729e+00
 1.5896953237e+00	 1.7187094503e+00	-1.5857952564e+00
 1.5728788071e+00	 1.7341122980e+00	-1.5911149454e+00
 1.7406486403e+00	 1.5788074164e+00	-1.3700198575e+00
 1.7251877351e+00	 1.5956873191e+00	-1.3949784187e+00
 1.7095602304e+00	 1.6124189075e+00	-1.4218731440e+00
 1.6937682512e+00	 1.6289997428e+00	-1.4498151267e+00
 1.6778139700e+00	 1.6454274274e+00	-1.4778072095e+00
 1.6616996068e+00	 1.6616996068e+00	-1.5047769393e+00
 1.6454274274e+00	 1.6778139700e+00	-1.5296098583e+00
 1.6289997428e+00	 1.6937682512e+00	-1.5511829032e+00
 1.6124189075e+00	 1.7095602304e+00	-1.5683976812e+00
 1.5956873191e+00	 1.7251877351e+00	-1.5802133956e+00
 1.5788074164e+00	 1.7406486403e+00	-1.5856791946e+00
 1.7471849771e+00	 1.5847360207e+00	-1.3630595285e+00
 1.7316660144e+00	 1.6016793093e+00	-1.3880632433e+00
 1.7159798267e+00	 1.6184737268e+00	-1.4150361677e+00
 1.7001285467e+00	 1.6351168250e+00	-1.4430865473e+00
 1.6841143553e+00	 1.6516061975e+00	-1.4712120749e+00
 1.6679394808e+00	 1.6679394808e+00	-1.4983337205e+00
 1.6516061975e+00	 1.6841143553e+00	-1.5233299040e+00
 1.6351168250e+00	 1.7001285467e+00	-1.5450707735e+00
 1.6184737268e+00	 1.7159798267e+00	-1.5624523563e+00
 1.6016793093e+00	 1.7316660144e+00	-1.5744303469e+00
 1.5847360207e+00	 1.7471849771e+00	-1.5800533019e+00
 1.7537213064e+00	 1.5906646183e+00	-1.3561795768e+00
 1.7381442863e+00	 1.6076712928e+00	-1.3812376716e+00
 1.7223994156e+00	 1.6245285393e+00	-1.4082772285e+00
 1.7064888350e+00	 1.6412339004e+00	-1.4364088720e+00
 1.6904147335e+00	 1.6577849607e+00	-1.4646302914e+00
 1.6741793478e+00	 1.6741793478e+00	-1.4918609566e+00
 1.6577849607e+00	 1.6904147335e+00	-1.5169771830e+00
 1.6412339004e+00	 1.7064888350e+00	-1.5388473023e+00
 1.6245285393e+00	 1.7223994156e+00	-1.5563666984e+00
 1.6076712928e+00	 1.7381442863e+00	-1.5684924700e+00
 1.5906646183e+00	 1.7537213064e+00	-1.5742774815e+00
 1.7602576265e+00	 1.5965932074e+00	-1.3494455052e+00
 1.7446225491e+00	 1.6136632678e+00	-1.3745664231e+00
 1.7288189954e+00	 1.6305833431e+00	-1.4016601187e+00
 1.7128491142e+00	 1.6473509670e+00	-1.4298447135e+00
 1.6967151028e+00	 1.6639637150e+00	-1.4581229293e+00
 1.6804192059e+00	 1.6804192059e+00	-1.4854177036e+00
 1.6639637150e+00	 1.6967151028e+00	-1.5106081575e+00
 1.6473509670e+00	 1.7128491142e+00	-1.5325656706e+00
 1.6305833431e+00	 1.7288189954e+00	-1.5501898147e+00
 1.6136632678e+00	 1.7446225491e+00	-1.5624439016e+00
 1.5965932074e+00	 1.7602576265e+00	-1.5683899023e+00
 1.7667939355e+00	 1.6025217865e+00	-1.3429193452e+00
 1.7511008008e+00	 1.6196552326e+00	-1.3681108704e+00
 1.7352385643e+00	 1.6366381367e+00	-1.3952454141e+00
 1.7192093827e+00	 1.6534680233e+00	-1.4234536032e+00
 1.7030154613e+00	 1.6701424589e+00	-1.4517481194e+00
 1.6866590534e+00	 1.6866590534e+00	-1.4790602257e+00
 1.6701424589e+00	 1.7030154613e+00	-1.5042766509e+00
 1.6534680233e+00	 1.7192093827e+00	-1.5262765802e+00
 1.6366381367e+00	 1.7352385643e+00	-1.5439684988e+00
 1.6196552326e+00	 1.7511008008e+00	-1.5563266371e+00
 1.6025217865e+00	 1.7667939355e+00	-1.5624267697e+00
 1.7733302316e+00	 1.6084503539e+00	-1.3366597143e+00
 1.7575790397e+00	 1.6256471855e+00	-1.3619291000e+00
 1.7416581205e+00	 1.6426929183e+00	-1.3890905378e+00
 1.7255696386e+00	 1.6595850674e+00	-1.4172920588e+00
 1.7093158074e+00	 1.6763211905e+00	-1.4455611228e+00
 1.6928988885e+00	 1.6928988885e+00	-1.4728420677e+00
 1.6763211905e+00	 1.7093158074e+00	-1.4980339234e+00
 1.6595850674e+00	 1.7255696386e+00	-1.5200283314e+00
 1.6426929183e+00	 1.7416581205e+00	-1.5377473103e+00
 1.6256471855e+00	 1.7575790397e+00	-1.5501806115e+00
 1.6084503539e+00	 1.7733302316e+00	-1.5564224093e+00
 1.7798665128e+00	 1.6143789077e+00	-1.3307218734e+00
 1.7640572640e+00	 1.6316391248e+00	-1.3560759728e+00
 1.7480776622e+00	 1.6487476861e+00	-1.3832498237e+00
 1.7319298800e+00	 1.6657020977e+00	-1.4114136511e+00
 1.7156161392e+00	 1.6824999081e+00	-1.4396144012e+00
 1.6991387095e+00	 1.6991387095e+00	-1.4668141275e+00
 1.6824999081e+00	 1.7156161392e+00	-1.4919287468e+00
 1.6657020977e+00	 1.7319298800e+00	-1.5138669001e+00
 1.6487476861e+00	 1.7480776622e+00	-1.5315686545e+00
 1.6316391248e+00	 1.7640572640e+00	-1.5440437808e+00
 1.6143789077e+00	 1.7798665128e+00	-1.5504093485e+00
 1.7864027773e+00	 1.6203074465e+00	-1.3251577834e+00
 1.7705354717e+00	 1.6376310489e+00	-1.3506031847e+00
 1.7544971874e+00	 1.6548024385e+00	-1.3777745804e+00
 1.7382901052e+00	 1.6718191124e+00	-1.4058690703e+00
 1.7219164549e+00	 1.6886786099e+00	-1.4339576864e+00
 1.7053785146e+00	 1.7053785146e+00	-1.4610247293e+00
 1.6886786099e+00	 1.7219164549e+00	-1.4860074798e+00
 1.6718191124e+00	 1.7382901052e+00	-1.5078360155e+00
 1.6548024385e+00	 1.7544971874e+00	-1.5254728614e+00
 1.6376310489e+00	 1.7705354717e+00	-1.5379522032e+00
 1.6203074465e+00	 1.7864027773e+00	-1.5444183998e+00
 1.5610215801e+00	 1.7210396040e+00	-1.6012444404e+00
 1.5441847742e+00	 1.7361621134e+00	-1.6031010985e+00
 1.5272062460e+00	 1.7511157601e+00	-1.6051710543e+00
 1.5100885515e+00	 1.7658985635e+00	-1.6074101112e+00
 1.4928342830e+00	 1.7805085939e+00	-1.6099263335e+00
 1.4754460677e+00	 1.7949439741e+00	-1.6124475410e+00
 1.4579265664e+00	 1.8092028793e+00	-1.6092336624e+00
 1.4402784720e+00	 1.8232835386e+00	-1.6005055011e+00
 1.4225045086e+00	 1.8371842352e+00	-1.5886970824e+00
 1.4046074294e+00	 1.8509033073e+00	-1.5763875156e+00
 1.3865900162e+00	 1.8644391488e+00	-1.5670534210e+00
 1.5669501944e+00	 1.7275759519e+00	-1.5963182118e+00
 1.5500494440e+00	 1.7427558952e+00	-1.5980259987e+00
 1.5330064329e+00	 1.7577663345e+00	-1.5995285321e+00
 1.5158237270e+00	 1.7726052815e+00	-1.6008012899e+00
 1.4985039284e+00	 1.7872707995e+00	-1.6019771466e+00
 1.4810496743e+00	 1.8017610039e+00	-1.6033679908e+00
 1.4634636355e+00	 1.8160740631e+00	-1.6010529148e+00
 1.4457485153e+00	 1.8302081994e+00	-1.5928489484e+00
 1.4279070480e+00	 1.8441616895e+00	-1.5812534367e+00
 1.4099419974e+00	 1.8579328654e+00	-1.5691212080e+00
 1.3918561558e+00	 1.8715201148e+00	-1.5604558890e+00
 1.5728788071e+00	 1.7341122980e+00	-1.5911149454e+00
 1.5559141120e+00	 1.7493496751e+00	-1.5927205304e+00
 1.5388066181e+00	 1.7644169069e+00	-1.5937195179e+00
 1.5215589008e+00	 1.7793119977e+00	-1.5941034529e+00
 1.5041735722e+00	 1.7940330032e+00	-1.5940266145e+00
 1.4866532792e+00	 1.8085780317e+00	-1.5938310939e+00
 1.4690007031e+00	 1.8229452449e+00	-1.5920149286e+00
 1.4512185571e+00	 1.8371328582e+00	-1.5843168653e+00
 1.4333095859e+00	 1.8511391419e+00	-1.5729149292e+00
 1.4152765639e+00	 1.8649624216e+00	-1.5615157378e+00
 1.3971222939e+00	 1.8786010788e+00	-1.5534475004e+00
 1.5788074164e+00	 1.7406486403e+00	-1.5856791946e+00
 1.5617787768e+00	 1.7559434513e+00	-1.5872224200e+00
 1.5446068001e+00	 1.7710674756e+00	-1.5877753412e+00
 1.5272940714e+00	 1.7860187100e+00	-1.5873419694e+00
 1.5098432127e+00	 1.8007952030e+00	-1.5860945910e+00
 1.4922568810e+00	 1.8153950557e+00	-1.5843995131e+00
 1.4745377675e+00	 1.8298164229e+00	-1.5822287109e+00
 1.4566885957e+00	 1.8440575132e+00	-1.5750150869e+00
 1.4387121208e+00	 1.8581165904e+00	-1.5640474637e+00
 1.4206111274e+00	 1.8719919737e+00	-1.5537042777e+00
 1.4023884289e+00	 1.8856820388e+00	-1.5461633859e+00
 1.5847360207e+00	 1.7471849771e+00	-1.5800533019e+00
 1.5676434366e+00	 1.7625372218e+00	-1.5815673540e+00
 1.5504069771e+00	 1.7777180386e+00	-1.5817254451e+00
 1.5330292371e+00	 1.7927254166e+00	-1.5805404576e+00
 1.5155128484e+00	 1.8075573971e+00	-1.5781992961e+00
 1.4978604780e+00	 1.8222120739e+00	-1.5750893201e+00
 1.4800748272e+00	 1.8366875950e+00	-1.5717986765e+00
 1.4621586297e+00	 1.8509821622e+00	-1.5650453453e+00
 1.4441146510e+00	 1.8650940329e+00	-1.5551507457e+00
 1.4259456863e+00	 1.8790215199e+00	-1.5458081222e+00
 1.4076545595e+00	 1.8927629927e+00	-1.5387322301e+00
 1.5906646183e+00	 1.7537213064e+00	-1.5742774815e+00
 1.5735080897e+00	 1.7691309849e+00	-1.5757890621e+00
 1.5562071475e+00	 1.7843685941e+00	-1.5755974712e+00
 1.5387643964e+00	 1.7994321157e+00	-1.5737208714e+00
 1.5211824777e+00	 1.8143195835e+00	-1.5703574036e+00
 1.5034640687e+00	 1.8290290844e+00	-1.5659123251e+00
 1.4856118806e+00	 1.8435587593e+00	-1.5610233110e+00
 1.4676286575e+00	 1.8579068034e+00	-1.5547732491e+00
 1.4495171752e+00	 1.8720714675e+00	-1.5463371343e+00
 1.4312802392e+00	 1.8860510581e+00	-1.5379423188e+00
 1.4129206842e+00	 1.8998439386e+00	-1.5312764340e+00
 1.5965932074e+00	 1.7602576265e+00	-1.5683899023e+00
 1.5793727345e+00	 1.7757247387e+00	-1.5699194011e+00
 1.5620073097e+00	 1.7910191401e+00	-1.5694173444e+00
 1.5444995475e+00	 1.8061388052e+00	-1.5669035870e+00
 1.5268520990e+00	 1.8210817603e+00	-1.5625841289e+00
 1.5090676514e+00	 1.8358460853e+00	-1.5568789796e+00
 1.4911489262e+00	 1.8504299139e+00	-1.5504481364e+00
 1.4730986776e+00	 1.8648314348e+00	-1.5447292666e+00
 1.4549196916e+00	 1.8790488922e+00	-1.5377091997e+00
 1.4366147846e+00	 1.8930805864e+00	-1.5302158321e+00
 1.4181868013e+00	 1.9069248745e+00	-1.5239122775e+00
 1.6025217865e+00	 1.7667939355e+00	-1.5624267697e+00
 1.5852373694e+00	 1.7823184812e+00	-1.5639884390e+00
 1.5678074621e+00	 1.7976696749e+00	-1.5632093583e+00
 1.5502346888e+00	 1.8128454833e+00	-1.5601074887e+00
 1.5325217106e+00	 1.8278439256e+00	-1.5548933170e+00
 1.5146712247e+00	 1.8426630745e+00	-1.5479984655e+00
 1.4966859623e+00	 1.8573010568e+00	-1.5403317725e+00
 1.4785686883e+00	 1.8717560544e+00	-1.5350105952e+00
 1.4603221989e+00	 1.8860263050e+00	-1.5293636156e+00
 1.4419493208e+00	 1.9001101027e+00	-1.5227317082e+00
 1.4234529095e+00	 1.9140057984e+00	-1.5167500816e+00
 1.6084503539e+00	 1.7733302316e+00	-1.5564224093e+00
 1.5911019926e+00	 1.7889122106e+00	-1.5580245385e+00
 1.5736076030e+00	 1.8043201965e+00	-1.5569962599e+00
 1.5559698188e+00	 1.8195521481e+00	-1.5533500559e+00
 1.5381913110e+00	 1.8346060775e+00	-1.5472975303e+00
 1.5202747867e+00	 1.8494800502e+00	-1.5392787853e+00
 1.5022229875e+00	 1.8641721861e+00	-1.5311706121e+00
 1.4840386882e+00	 1.8786806603e+00	-1.5257647873e+00
 1.4657246955e+00	 1.8930037041e+00	-1.5213913256e+00
 1.4472838465e+00	 1.9071396050e+00	-1.5155872392e+00
 1.4287190073e+00	 1.9210867082e+00	-1.5098943710e+00
 1.6143789077e+00	 1.7798665128e+00	-1.5504093485e+00
 1.5969666025e+00	 1.7955059252e+00	-1.5520544412e+00
 1.5794077307e+00	 1.8109707030e+00	-1.5507993356e+00
 1.5617049357e+00	 1.8262587978e+00	-1.5466474497e+00
 1.5438608986e+00	 1.8413682141e+00	-1.5398081369e+00
 1.5258783361e+00	 1.8562970105e+00	-1.5308831449e+00
 1.5077600002e+00	 1.8710432998e+00	-1.5229844091e+00
 1.4895086757e+00	 1.8856052505e+00	-1.5174733706e+00
 1.4711271799e+00	 1.8999810872e+00	-1.5138777095e+00
 1.4526183601e+00	 1.9141690914e+00	-1.5088741274e+00
 1.4339850932e+00	 1.9281676020e+00	-1.5034440372e+00
 1.6203074465e+00	 1.7864027773e+00	-1.5444183998e+00
 1.6028311975e+00	 1.8020996229e+00	-1.5461033513e+00
 1.5852078436e+00	 1.8176211925e+00	-1.5446384959e+00
 1.5674400381e+00	 1.8329654303e+00	-1.5400145994e+00
 1.5495304716e+00	 1.8481303335e+00	-1.5324353986e+00
 1.5314818712e+00	 1.8631139533e+00	-1.5233590102e+00
 1.5132969987e+00	 1.8779143959e+00	-1.5157758420e+00
 1.4949786493e+00	 1.8925298230e+00	-1.5102259033e+00
 1.4765296504e+00	 1.9069584527e+00	-1.5069027499e+00
 1.4579528601e+00	 1.9211985599e+00	-1.5026786503e+00
 1.4392511656e+00	 1.9352484777e+00	-1.4974925012e+00
 1.3865900162e+00	 1.8644391488e+00	-1.5670534210e+00
 1.3684581680e+00	 1.8777879572e+00	-1.5584748048e+00
 1.3502116560e+00	 1.8909505627e+00	-1.5464590752e+00
 1.3318533261e+00	 1.9039255374e+00	-1.5316704189e+00
 1.3133860468e+00	 1.9167115110e+00	-1.5146446101e+00
 1.2948127076e+00	 1.9293071710e+00	-1.4957925142e+00
 1.2761362175e+00	 1.9417112635e+00	-1.4754037546e+00
 1.2573595038e+00	 1.9539225930e+00	-1.4536505482e+00
 1.2384855106e+00	 1.9659400232e+00	-1.4305917184e+00
 1.2195171970e+00	 1.9777624767e+00	-1.4061768905e+00
 1.2004575360e+00	 1.9893889355e+00	-1.3802508760e+00
 1.3918561558e+00	 1.8715201148e+00	-1.5604558890e+00
 1.3736554445e+00	 1.8849196207e+00	-1.5522409316e+00
 1.3553396340e+00	 1.8981322166e+00	-1.5405027156e+00
 1.3369115809e+00	 1.9111564690e+00	-1.5259136103e+00
 1.3183741645e+00	 1.9239910025e+00	-1.5090163432e+00
 1.2997302855e+00	 1.9366344997e+00	-1.4902275124e+00
 1.2809828638e+00	 1.9490857018e+00	-1.4698412611e+00
 1.2621348379e+00	 1.9613434088e+00	-1.4480331228e+00
 1.2431891631e+00	 1.9734064800e+00	-1.4248640428e+00
 1.2241488096e+00	 1.9852738341e+00	-1.4002845860e+00
 1.2050167618e+00	 1.9969444491e+00	-1.3741393353e+00
 1.3971222939e+00	 1.8786010788e+00	-1.5534475004e+00
 1.3788527195e+00	 1.8920512822e+00	-1.5455142650e+00
 1.3604676104e+00	 1.9053138684e+00	-1.5339710917e+00
 1.3419698341e+00	 1.9183873986e+00	-1.5195009451e+00
 1.3233622808e+00	 1.9312704920e+00	-1.5026558909e+00
 1.3046478620e+00	 1.9439618263e+00	-1.4838606104e+00
 1.2858295088e+00	 1.9564601380e+00	-1.4634160774e+00
 1.2669101707e+00	 1.9687642225e+00	-1.4415034045e+00
 1.2478928142e+00	 1.9808729348e+00	-1.4181878687e+00
 1.2287804208e+00	 1.9927851894e+00	-1.3934231241e+00
 1.2095759862e+00	 2.0044999606e+00	-1.3670556085e+00
 1.4023884289e+00	 1.8856820388e+00	-1.5461633859e+00
 1.3840499916e+00	 1.8991829397e+00	-1.5384378649e+00
 1.3655955840e+00	 1.9124955162e+00	-1.5270151846e+00
 1.3470280845e+00	 1.9256183241e+00	-1.5125912856e+00
 1.3283503943e+00	 1.9385499774e+00	-1.4957299254e+00
 1.3095654357e+00	 1.9512891488e+00	-1.4768661892e+00
 1.2906761510e+00	 1.9638345700e+00	-1.4563101615e+00
 1.2716855008e+00	 1.9761850319e+00	-1.4342507681e+00
 1.2525964626e+00	 1.9883393853e+00	-1.4107597989e+00
 1.2334120295e+00	 2.0002965404e+00	-1.3857961183e+00
 1.2141352081e+00	 2.0120554678e+00	-1.3592100744e+00
 1.4076545595e+00	 1.8927629927e+00	-1.5387322301e+00
 1.3892472592e+00	 1.9063145911e+00	-1.5311482990e+00
 1.3707235532e+00	 1.9196771578e+00	-1.5197794343e+00
 1.3520863306e+00	 1.9328492434e+00	-1.5053369017e+00
 1.3333385035e+00	 1.9458294565e+00	-1.4883984744e+00
 1.3144830052e+00	 1.9586164650e+00	-1.4694119323e+00
 1.2955227890e+00	 1.9712089957e+00	-1.4486987223e+00
 1.2764608268e+00	 1.9836058351e+00	-1.4264577897e+00
 1.2573001071e+00	 1.9958058294e+00	-1.4027695898e+00
 1.2380436342e+00	 2.0078078850e+00	-1.3776002920e+00
 1.2186944261e+00	 2.0196109686e+00	-1.3508061831e+00
 1.4129206842e+00	 1.8998439386e+00	-1.5312764340e+00
 1.3944445210e+00	 1.9134462344e+00	-1.5237758039e+00
 1.3758515166e+00	 1.9268587914e+00	-1.5124018982e+00
 1.3571445710e+00	 1.9400801545e+00	-1.4978836276e+00
 1.3383266071e+00	 1.9531089275e+00	-1.4808150750e+00
 1.3194005692e+00	 1.9659437729e+00	-1.4616589778e+00
 1.3003694216e+00	 1.9785834131e+00	-1.4407503695e+00
 1.2812361474e+00	 1.9910266298e+00	-1.4183003929e+00
 1.2620037462e+00	 2.0032722651e+00	-1.3944002958e+00
 1.2426752336e+00	 2.0153192212e+00	-1.3690256199e+00
 1.2232536390e+00	 2.0271664608e+00	-1.3420405935e+00
 1.4181868013e+00	 1.9069248745e+00	-1.5239122775e+00
 1.3996417754e+00	 1.9205778676e+00	-1.5164444451e+00
 1.3809794728e+00	 1.9340404147e+00	-1.5050144101e+00
 1.3622028042e+00	 1.9473110554e+00	-1.4903710183e+00
 1.3433147036e+00	 1.9603883881e+00	-1.4731269287e+00
 1.3243181262e+00	 1.9732710705e+00	-1.4537620711e+00
 1.3052160474e+00	 1.9859578200e+00	-1.4326272626e+00
 1.2860114612e+00	 1.9984474140e+00	-1.4099479962e+00
 1.2667073787e+00	 2.0107386902e+00	-1.3858284126e+00
 1.2473068265e+00	 2.0228305467e+00	-1.3602554686e+00
 1.2278128453e+00	 2.0347219423e+00	-1.3331033114e+00
 1.4234529095e+00	 1.9140057984e+00	-1.5167500816e+00
 1.4048390209e+00	 1.9277094887e+00	-1.5092722779e+00
 1.3861074202e+00	 1.9412220258e+00	-1.4977427386e+00
 1.3672610288e+00	 1.9545419440e+00	-1.4829325066e+00
 1.3483027916e+00	 1.9676678363e+00	-1.4654750557e+00
 1.3292356748e+00	 1.9805983556e+00	-1.4458697166e+00
 1.3100626649e+00	 1.9933322144e+00	-1.4244852612e+00
 1.2907867669e+00	 2.0058681856e+00	-1.4015636596e+00
 1.2714110031e+00	 2.0182051026e+00	-1.3772240219e+00
 1.2519384115e+00	 2.0303418594e+00	-1.3514667380e+00
 1.2323720440e+00	 2.0422774110e+00	-1.3241778274e+00
 1.4287190073e+00	 1.9210867082e+00	-1.5098943710e+00
 1.4100362562e+00	 1.9348410956e+00	-1.5023715085e+00
 1.3912353574e+00	 1.9484036227e+00	-1.4907067464e+00
 1.3723192434e+00	 1.9617728182e+00	-1.4756955598e+00
 1.3532908697e+00	 1.9749472701e+00	-1.4579944495e+00
 1.3341532137e+00	 1.9879256261e+00	-1.4381243298e+00
 1.3149092727e+00	 2.0007065942e+00	-1.4164740739e+00
 1.2955620631e+00	 2.0132889425e+00	-1.3933042321e+00
 1.2761146183e+00	 2.0256715002e+00	-1.3687509357e+00
 1.2565699873e+00	 2.0378531572e+00	-1.3428300025e+00
 1.2369312335e+00	 2.0498328647e+00	-1.3154412549e+00
 1.4339850932e+00	 1.9281676020e+00	-1.5034440372e+00
 1.4152334797e+00	 1.9419726864e+00	-1.4958486544e+00
 1.3963632831e+00	 1.9555852033e+00	-1.4840205490e+00
 1.3773774465e+00	 1.9690036761e+00	-1.4687818365e+00
 1.3582789366e+00	 1.9822266874e+00	-1.4508142314e+00
 1.3390707414e+00	 1.9952528801e+00	-1.4306623900e+00
 1.3197558696e+00	 2.0080809572e+00	-1.4087374090e+00
 1.3003373485e+00	 2.0207096826e+00	-1.3853204982e+00
 1.2808182228e+00	 2.0331378809e+00	-1.3605668399e+00
 1.2612015526e+00	 2.0453644380e+00	-1.3345096520e+00
 1.2414904128e+00	 2.0573883012e+00	-1.3070644681e+00
 1.4392511656e+00	 1.9352484777e+00	-1.4974925012e+00
 1.4204306899e+00	 1.9491042590e+00	-1.4898047061e+00
 1.4014911956e+00	 1.9627667656e+00	-1.4777926740e+00
 1.3824356367e+00	 1.9762345155e+00	-1.4623073437e+00
 1.3632669907e+00	 1.9895060861e+00	-1.4440578056e+00
 1.3439882566e+00	 2.0025801153e+00	-1.4236145922e+00
 1.3246024542e+00	 2.0154553015e+00	-1.4014131233e+00
 1.3051126218e+00	 2.0281304037e+00	-1.3777573253e+00
 1.2855218152e+00	 2.0406042425e+00	-1.3528234389e+00
 1.2658331062e+00	 2.0528756997e+00	-1.3266640331e+00
 1.2460495804e+00	 2.0649437185e+00	-1.2992122401e+00
 1.2004575360e+00	 1.9893889355e+00	-1.3802508760e+00
 1.1813095133e+00	 2.0008184419e+00	-1.3524224714e+00
 1.1620761269e+00	 2.0120500994e+00	-1.3226090789e+00
 1.1427603843e+00	 2.0230830718e+00	-1.2909797043e+00
 1.1233653013e+00	 2.0339165827e+00	-1.2576230677e+00
 1.1038938996e+00	 2.0445499154e+00	-1.2226974257e+00
 1.0843492062e+00	 2.0549824128e+00	-1.1876199236e+00
 1.0647342514e+00	 2.0652134774e+00	-1.1524107023e+00
 1.0450520678e+00	 2.0752425708e+00	-1.1165321306e+00
 1.0253056884e+00	 2.0850692143e+00	-1.0793504731e+00
 1.0054981458e+00	 2.0946929879e+00	-1.0401604185e+00
 1.2050167618e+00	 1.9969444491e+00	-1.3741393353e+00
 1.1857960167e+00	 2.0084173637e+00	-1.3460890428e+00
 1.1664895836e+00	 2.0196916780e+00	-1.3161218355e+00
 1.1471004817e+00	 2.0307665526e+00	-1.2844329702e+00
 1.1276317379e+00	 2.0416412082e+00	-1.2511363273e+00
 1.1080863857e+00	 2.0523149253e+00	-1.2162930956e+00
 1.0884674633e+00	 2.0627870444e+00	-1.1810901518e+00
 1.0687780128e+00	 2.0730569655e+00	-1.1458914085e+00
 1.0490210780e+00	 2.0831241486e+00	-1.1101859414e+00
 1.0291997038e+00	 2.0929881127e+00	-1.0733676285e+00
 1.0093169340e+00	 2.1026484365e+00	-1.0347601381e+00
 1.2095759862e+00	 2.0044999606e+00	-1.3670556085e+00
 1.1902825187e+00	 2.0160162834e+00	-1.3387997995e+00
 1.1709030391e+00	 2.0273332544e+00	-1.3087100925e+00
 1.1514405778e+00	 2.0384500312e+00	-1.2770007210e+00
 1.1318981733e+00	 2.0493658315e+00	-1.2438035058e+00
 1.1122788705e+00	 2.0600799330e+00	-1.2091723784e+00
 1.0925857193e+00	 2.0705916737e+00	-1.1739087442e+00
 1.0728217730e+00	 2.0809004515e+00	-1.1387674248e+00
 1.0529900872e+00	 2.0910057241e+00	-1.1032605437e+00
 1.0330937181e+00	 2.1009070089e+00	-1.0668026913e+00
 1.0131357210e+00	 2.1106038828e+00	-1.0287398565e+00
 1.2141352081e+00	 2.0120554678e+00	-1.3592100744e+00
 1.1947690183e+00	 2.0236151987e+00	-1.3307720171e+00
 1.1753164921e+00	 2.0349748265e+00	-1.3005985984e+00
 1.1557806715e+00	 2.0461335055e+00	-1.2689158293e+00
 1.1361646064e+00	 2.0570904504e+00	-1.2358663255e+00
 1.1164713531e+00	 2.0678449363e+00	-1.2015138341e+00
 1.0967039729e+00	 2.0783962986e+00	-1.1663186394e+00
 1.0768655310e+00	 2.0887439330e+00	-1.1312881803e+00
 1.0569590941e+00	 2.0988872951e+00	-1.0960125519e+00
 1.0369877301e+00	 2.1088259006e+00	-1.0599201888e+00
 1.0169545060e+00	 2.1185593247e+00	-1.0223727750e+00
 1.2186944261e+00	 2.0196109686e+00	-1.3508061831e+00
 1.1992555140e+00	 2.0312141076e+00	-1.3222160028e+00
 1.1797299413e+00	 2.0426163921e+00	-1.2920050874e+00
 1.1601207615e+00	 2.0538169733e+00	-1.2604041013e+00
 1.1404310357e+00	 2.0648150627e+00	-1.2275593812e+00
 1.1206638320e+00	 2.0756099330e+00	-1.1935374748e+00
 1.1008222231e+00	 2.0862009169e+00	-1.1585578221e+00
 1.0809092855e+00	 2.0965874078e+00	-1.1236983323e+00
 1.0609280976e+00	 2.1067688594e+00	-1.0886939727e+00
 1.0408817389e+00	 2.1167447855e+00	-1.0529801843e+00
 1.0207732877e+00	 2.1265147597e+00	-1.0159277537e+00
 1.2232536390e+00	 2.0271664608e+00	-1.3420405935e+00
 1.2037420046e+00	 2.0388130079e+00	-1.3133352303e+00
 1.1841433856e+00	 2.0502579491e+00	-1.2831404115e+00
 1.1644608465e+00	 2.0615004323e+00	-1.2516844041e+00
 1.1446974603e+00	 2.0725396663e+00	-1.2191102660e+00
 1.1248563062e+00	 2.0833749208e+00	-1.1854804002e+00
 1.1049404686e+00	 2.0940055263e+00	-1.1508592719e+00
 1.0849530354e+00	 2.1044308737e+00	-1.1162377192e+00
 1.0648970967e+00	 2.1146504148e+00	-1.0815521620e+00
 1.0447757432e+00	 2.1246636615e+00	-1.0462382388e+00
 1.0245920650e+00	 2.1344701858e+00	-1.0096692775e+00
 1.2278128453e+00	 2.0347219423e+00	-1.3331033114e+00
 1.2082284889e+00	 2.0464118975e+00	-1.3043264742e+00
 1.1885568235e+00	 2.0578994952e+00	-1.2742086716e+00
 1.1688009254e+00	 2.0691838805e+00	-1.2429687953e+00
 1.1489638788e+00	 2.0802642590e+00	-1.2107396962e+00
 1.1290487744e+00	 2.0911398977e+00	-1.1775727594e+00
 1.1090587082e+00	 2.1018101246e+00	-1.1434509115e+00
 1.0889967796e+00	 2.1122743285e+00	-1.1091413131e+00
 1.0688660901e+00	 2.1225319590e+00	-1.0748297816e+00
 1.0486697420e+00	 2.1325825262e+00	-1.0399453721e+00
 1.0284108369e+00	 2.1424256006e+00	-1.0038574221e+00
 1.2323720440e+00	 2.0422774110e+00	-1.3241778274e+00
 1.2127149656e+00	 2.0540107741e+00	-1.2953799452e+00
 1.1929702540e+00	 2.0655410284e+00	-1.2654073489e+00
 1.1731409969e+00	 2.0768673155e+00	-1.2344626505e+00
 1.1532302900e+00	 2.0879888385e+00	-1.2026616375e+00
 1.1332412356e+00	 2.0989048614e+00	-1.1700378733e+00
 1.1131769409e+00	 2.1096147097e+00	-1.1365475552e+00
 1.0930405169e+00	 2.1201177700e+00	-1.1026391717e+00
 1.0728350767e+00	 2.1304134899e+00	-1.0687647562e+00
 1.0525637342e+00	 2.1405013775e+00	-1.0343480241e+00
 1.0322296024e+00	 2.1503810018e+00	-9.9874781977e-01
 1.2369312335e+00	 2.0498328647e+00	-1.3154412549e+00
 1.2172014333e+00	 2.0616096356e+00	-1.2866794243e+00
 1.1973836758e+00	 2.0731825464e+00	-1.2569274368e+00
 1.1774810599e+00	 2.0845507354e+00	-1.2263647927e+00
 1.1574966928e+00	 2.0957134027e+00	-1.1950834300e+00
 1.1374336884e+00	 2.1066698097e+00	-1.1630923577e+00
 1.1172951653e+00	 2.1174192793e+00	-1.1303225505e+00
 1.0970842462e+00	 2.1279611960e+00	-1.0969563911e+00
 1.0768040555e+00	 2.1382950050e+00	-1.0635902292e+00
 1.0564577187e+00	 2.1484202131e+00	-1.0296880158e+00
 1.0360483603e+00	 2.1583363873e+00	-9.9459162524e-01
 1.2414904128e+00	 2.0573883012e+00	-1.3070644681e+00
 1.2216878909e+00	 2.0692084799e+00	-1.2784023979e+00
 1.2017970875e+00	 2.0808240470e+00	-1.2489535726e+00
 1.1818211130e+00	 2.0922341378e+00	-1.2188676198e+00
 1.1617630859e+00	 2.1034379494e+00	-1.1882059141e+00
 1.1416261317e+00	 2.1144347404e+00	-1.1569462453e+00
 1.1214133805e+00	 2.1252238313e+00	-1.1249877576e+00
 1.1011279663e+00	 2.1358046041e+00	-1.0923130579e+00
 1.0807730253e+00	 2.1461765024e+00	-1.0595345202e+00
 1.0603516944e+00	 2.1563390307e+00	-1.0262025100e+00
 1.0398671095e+00	 2.1662917548e+00	-9.9163548081e-01
 1.2460495804e+00	 2.0649437185e+00	-1.2992122401e+00
 1.2261743371e+00	 2.0768073048e+00	-1.2707201926e+00
 1.2062104879e+00	 2.0884655282e+00	-1.2416641687e+00
 1.1861611550e+00	 2.0999175207e+00	-1.2121572341e+00
 1.1660294682e+00	 2.1111624763e+00	-1.1822235555e+00
 1.1458185643e+00	 2.1221996512e+00	-1.1518031090e+00
 1.1255315851e+00	 2.1330283633e+00	-1.1207566669e+00
 1.1051716761e+00	 2.1436479923e+00	-1.0889242013e+00
 1.0847419850e+00	 2.1540579796e+00	-1.0568210807e+00
 1.0642456601e+00	 2.1642578281e+00	-1.0241239722e+00
 1.0436858490e+00	 2.1742471019e+00	-9.9012148180e-01
 1.0054981458e+00	 2.0946929879e+00	-1.0401604185e+00
 9.8562908784e-01	 2.1041151143e+00	-1.0007615526e+00
 9.6570490446e-01	 2.1133336360e+00	-9.6318706897e-01
 9.4572861812e-01	 2.1223483067e+00	-9.2701397056e-01
 9.2570324514e-01	 2.1311589378e+00	-8.9182326896e-01
 9.0563179433e-01	 2.1397653980e+00	-8.5721676544e-01
 8.8551726570e-01	 2.1481676131e+00	-8.2283224049e-01
 8.6536264914e-01	 2.1563655651e+00	-7.8835703205e-01
 8.4517092319e-01	 2.1643592920e+00	-7.5353999401e-01
 8.2494505378e-01	 2.1721488872e+00	-7.1820183731e-01
 8.0468799300e-01	 2.1797344988e+00	-6.8224386637e-01
 1.0093169340e+00	 2.1026484365e+00	-1.0347601381e+00
 9.8937241519e-01	 2.1121063473e+00	-9.9615824336e-01
 9.6937256161e-01	 2.1213598801e+00	-9.5952521474e-01
 9.4932040720e-01	 2.1304087876e+00	-9.2437298416e-01
 9.2921897972e-01	 2.1392528806e+00	-8.9022045772e-01
 9.0907129942e-01	 2.1478920274e+00	-8.5661067179e-01
 8.8888037768e-01	 2.1563261533e+00	-8.2312630979e-01
 8.6864921577e-01	 2.1645552404e+00	-7.8940356008e-01
 8.4838080353e-01	 2.1725793267e+00	-7.5514430671e-01
 8.2807811815e-01	 2.1803985061e+00	-7.2012665594e-01
 8.0774412295e-01	 2.1880129271e+00	-6.8421381187e-01
 1.0131357210e+00	 2.1106038828e+00	-1.0287398565e+00
 9.9311574147e-01	 2.1200975780e+00	-9.9085005055e-01
 9.7304021773e-01	 2.1293861218e+00	-9.5501545148e-01
 9.5291219527e-01	 2.1384692662e+00	-9.2067728030e-01
 9.3273471331e-01	 2.1473468212e+00	-8.8728630084e-01
 9.1251080353e-01	 2.1560186545e+00	-8.5432037006e-01
 8.9224348871e-01	 2.1644846912e+00	-8.2130030096e-01
 8.7193578146e-01	 2.1727449133e+00	-7.8780401843e-01
 8.5159068295e-01	 2.1807993591e+00	-7.5347899996e-01
 8.3121118164e-01	 2.1886481226e+00	-7.1805300458e-01
 8.1080025202e-01	 2.1962913531e+00	-6.8134310431e-01
 1.0169545060e+00	 2.1185593247e+00	-1.0223727750e+00
 9.9685906563e-01	 2.1280888041e+00	-9.8511600394e-01
 9.7670787176e-01	 2.1374123590e+00	-9.4993618428e-01
 9.5650398129e-01	 2.1465297403e+00	-9.1619823290e-01
 9.3625044490e-01	 2.1554407572e+00	-8.8327878852e-01
 9.1595030569e-01	 2.1641452770e+00	-8.5058417557e-01
 8.9560659783e-01	 2.1726432245e+00	-8.1756663209e-01
 8.7522234530e-01	 2.1809345817e+00	-7.8373878168e-01
 8.5480056056e-01	 2.1890193868e+00	-7.4868634181e-01
 8.3434424334e-01	 2.1968977345e+00	-7.1207907223e-01
 8.1385637937e-01	 2.2045697743e+00	-6.7367997840e-01
 1.0207732877e+00	 2.1265147597e+00	-1.0159277537e+00
 1.0006023866e+00	 2.1360800235e+00	-9.7923094611e-01
 9.8037552268e-01	 2.1454385894e+00	-9.4456187011e-01
 9.6009576427e-01	 2.1545902075e+00	-9.1120359030e-01
 9.3976617351e-01	 2.1635346863e+00	-8.7845268989e-01
 9.1938980493e-01	 2.1722718926e+00	-8.4563766765e-01
 8.9896970409e-01	 2.1808017509e+00	-8.1213554945e-01
 8.7850890634e-01	 2.1891242430e+00	-7.7738669447e-01
 8.5801043544e-01	 2.1972394076e+00	-7.4090778855e-01
 8.3747730239e-01	 2.2051473393e+00	-7.0230302894e-01
 8.1691250411e-01	 2.2128481886e+00	-6.6127351599e-01
 1.0245920650e+00	 2.1344701858e+00	-1.0096692775e+00
 1.0043457033e+00	 2.1440712338e+00	-9.7346550261e-01
 9.8404316944e-01	 2.1534648107e+00	-9.3916299018e-01
 9.6368754317e-01	 2.1626506656e+00	-9.0595744787e-01
 9.4328189813e-01	 2.1716286062e+00	-8.7305952422e-01
 9.2282930027e-01	 2.1803984990e+00	-8.3971365774e-01
 9.0233280655e-01	 2.1889602680e+00	-8.0521509079e-01
 8.8179546365e-01	 2.1973138951e+00	-7.6892502819e-01
 8.6122030668e-01	 2.2054594190e+00	-7.3028393299e-01
 8.4061035788e-01	 2.2133969348e+00	-6.8882296420e-01
 8.1996862540e-01	 2.2211265934e+00	-6.4417357292e-01
 1.0284108369e+00	 2.1424256006e+00	-1.0038574221e+00
 1.0080890148e+00	 2.1520624328e+00	-9.6808605194e-01
 9.8771081101e-01	 2.1614910207e+00	-9.3400602195e-01
 9.6727931699e-01	 2.1707111122e+00	-9.0072022059e-01
 9.4679761777e-01	 2.1797225147e+00	-8.6734753217e-01
 9.2626879073e-01	 2.1885250938e+00	-8.3304215749e-01
 9.0569590423e-01	 2.1971187736e+00	-7.9701104866e-01
 8.8508201631e-01	 2.2055035356e+00	-7.5852943798e-01
 8.6443017337e-01	 2.2136794188e+00	-7.1695445346e-01
 8.4374340893e-01	 2.2216465186e+00	-6.7173682626e-01
 8.2302474235e-01	 2.2294049866e+00	-6.2627937935e-01
 1.0322296024e+00	 2.1503810018e+00	-9.9874781977e-01
 1.0118323198e+00	 2.1600536182e+00	-9.6335469519e-01
 9.9137844633e-01	 2.1695172169e+00	-9.2935341106e-01
 9.7087108470e-01	 2.1787715452e+00	-8.9574861526e-01
 9.5031333143e-01	 2.1878164094e+00	-8.6156164677e-01
 9.2970827535e-01	 2.1966516749e+00	-8.2585034698e-01
 9.0905899620e-01	 2.2052772652e+00	-7.8772693408e-01
 8.8836856338e-01	 2.2136931621e+00	-7.4637392008e-01
 8.6764003461e-01	 2.2218994046e+00	-7.0105806338e-01
 8.4687645466e-01	 2.2298960884e+00	-6.5528596448e-01
 8.2608085411e-01	 2.2376833656e+00	-6.1370759573e-01
 1.0360483603e+00	 2.1583363873e+00	-9.9459162524e-01
 1.0155756175e+00	 2.1680447877e+00	-9.5952922560e-01
 9.9504607439e-01	 2.1775433973e+00	-9.2546354296e-01
 9.7446284528e-01	 2.1868319622e+00	-8.9129560277e-01
 9.5382903812e-01	 2.1959102881e+00	-8.5594346452e-01
 9.3314775314e-01	 2.2047782398e+00	-8.1836254289e-01
 9.1242208150e-01	 2.2134357407e+00	-7.7756394025e-01
 8.9165510393e-01	 2.2218827725e+00	-7.3263076964e-01
 8.7084988948e-01	 2.2301193741e+00	-6.8685972325e-01
 8.5000949417e-01	 2.2381456418e+00	-6.4475737154e-01
 8.2913695981e-01	 2.2459617283e+00	-6.0636792424e-01
 1.0398671095e+00	 2.1662917548e+00	-9.9163548081e-01
 1.0193189067e+00	 2.1760359392e+00	-9.5686309778e-01
 9.9871369413e-01	 2.1855695595e+00	-9.2259071438e-01
 9.7805459772e-01	 2.1948923609e+00	-8.8761039004e-01
 9.5734473684e-01	 2.2040041484e+00	-8.5073121625e-01
 9.3658722314e-01	 2.2129047863e+00	-8.1080016676e-01
 9.1578515917e-01	 2.2215941978e+00	-7.6672090659e-01
 8.9494163704e-01	 2.2300723642e+00	-7.2129443053e-01
 8.7405973707e-01	 2.2383393250e+00	-6.7908741891e-01
 8.5314252659e-01	 2.2463951765e+00	-6.4004449553e-01
 8.3219305857e-01	 2.2542400721e+00	-6.0408874640e-01
 1.0436858490e+00	 2.1742471019e+00	-9.9012148180e-01
 1.0230621863e+00	 2.1840270702e+00	-9.5560539681e-01
 1.0023813045e+00	 2.1935957011e+00	-9.2098510460e-01
 9.8164634100e-01	 2.2029527390e+00	-8.8493839190e-01
 9.6086042659e-01	 2.2120979880e+00	-8.4615973799e-01
 9.4002668437e-01	 2.2210313121e+00	-8.0338171322e-01
 9.1914822827e-01	 2.2297526340e+00	-7.5868288554e-01
 8.9822816176e-01	 2.2382619351e+00	-7.1681548260e-01
 8.7726957648e-01	 2.2465592549e+00	-6.7766021235e-01
 8.5627555101e-01	 2.2546446902e+00	-6.4102210464e-01
 8.3524914955e-01	 2.2625183949e+00	-6.0670110322e-01
 8.0468799300e-01	 2.1797344988e+00	-6.8224386637e-01
 7.8440612811e-01	 2.1871150913e+00	-6.4497546327e-01
 7.6409893695e-01	 2.1942922261e+00	-6.0547913428e-01
 7.4376932065e-01	 2.2012662103e+00	-5.6346082982e-01
 7.2342016191e-01	 2.2080374030e+00	-5.1933409627e-01
 7.0305432391e-01	 2.2146062150e+00	-4.7357548823e-01
 6.8267464922e-01	 2.2209731076e+00	-4.2539053147e-01
 6.6228395880e-01	 2.2271385922e+00	-3.7664850030e-01
 6.4188505094e-01	 2.2331032293e+00	-3.3193399447e-01
 6.2148070031e-01	 2.2388676277e+00	-2.9100754669e-01
 6.0107365699e-01	 2.2444324436e+00	-2.5353125770e-01
 8.0774412295e-01	 2.1880129271e+00	-6.8421381187e-01
 7.8738522942e-01	 2.1954215505e+00	-6.4654163428e-01
 7.6700091344e-01	 2.2026259434e+00	-6.0597150499e-01
 7.4659408716e-01	 2.2096264140e+00	-5.6210468994e-01
 7.2616764421e-01	 2.2164233231e+00	-5.1508782968e-01
 7.0572445865e-01	 2.2230170828e+00	-4.6563490735e-01
 6.8526738386e-01	 2.2294081563e+00	-4.1784581011e-01
 6.6479925150e-01	 2.2355970569e+00	-3.7410925871e-01
 6.4432287049e-01	 2.2415843471e+00	-3.3385583010e-01
 6.2384102604e-01	 2.2473706381e+00	-2.9657220817e-01
 6.0335647868e-01	 2.2529565887e+00	-2.6179115945e-01
 8.1080025202e-01	 2.1962913531e+00	-6.8134310431e-01
 7.9036432989e-01	 2.2037280072e+00	-6.4229365797e-01
 7.6990288911e-01	 2.2109596582e+00	-5.9954881763e-01
 7.4941885286e-01	 2.2179866154e+00	-5.5263110182e-01
 7.2891512573e-01	 2.2248092408e+00	-5.0208664533e-01
 7.0839459264e-01	 2.2314279483e+00	-4.5485285105e-01
 6.8786011777e-01	 2.2378432026e+00	-4.1185002894e-01
 6.6731454349e-01	 2.2440555191e+00	-3.7234453390e-01
 6.4676068935e-01	 2.2500654625e+00	-3.3566906430e-01
 6.2620135111e-01	 2.2558736461e+00	-3.0121207660e-01
 6.0563929971e-01	 2.2614807314e+00	-2.6840785994e-01
 8.1385637937e-01	 2.2045697743e+00	-6.7367997840e-01
 7.9334342867e-01	 2.2120344593e+00	-6.3223378397e-01
 7.7280486314e-01	 2.2192933683e+00	-5.8618086327e-01
 7.5224361697e-01	 2.2263468121e+00	-5.3648361146e-01
 7.3166260569e-01	 2.2331951538e+00	-4.8930905855e-01
 7.1106472512e-01	 2.2398388090e+00	-4.4642591698e-01
 6.9045285021e-01	 2.2462782442e+00	-4.0730712184e-01
 6.6982983405e-01	 2.2525139766e+00	-3.7114994486e-01
 6.4919850683e-01	 2.2585465730e+00	-3.3721832716e-01
 6.2856167483e-01	 2.2643766493e+00	-3.0483232553e-01
 6.0792211946e-01	 2.2700048692e+00	-2.7335823653e-01
 8.1691250411e-01	 2.2128481886e+00	-6.6127351599e-01
 7.9632252491e-01	 2.2203409043e+00	-6.1636590119e-01
 7.7570683470e-01	 2.2276270714e+00	-5.6827134612e-01
 7.5506837867e-01	 2.2347070016e+00	-5.2258375597e-01
 7.3441008332e-01	 2.2415810597e+00	-4.7950504569e-01
 7.1373485532e-01	 2.2482496625e+00	-4.4009120904e-01
 6.9304558044e-01	 2.2547132785e+00	-4.0397866165e-01
 6.7234512248e-01	 2.2609724268e+00	-3.7032361292e-01
 6.5163632224e-01	 2.2670276764e+00	-3.3835001583e-01
 6.3092199655e-01	 2.2728796453e+00	-3.0733899555e-01
 6.1020493726e-01	 2.2785289998e+00	-2.7661897439e-01
 8.1996862540e-01	 2.2211265934e+00	-6.4417357292e-01
 7.9930161779e-01	 2.2286473399e+00	-5.9795191761e-01
 7.7860880297e-01	 2.2359607650e+00	-5.5399038930e-01
 7.5789313717e-01	 2.2430671817e+00	-5.1219454933e-01
 7.3715755784e-01	 2.2499669560e+00	-4.7240328669e-01
 7.1640498251e-01	 2.2566605065e+00	-4.3558924255e-01
 6.9563830774e-01	 2.2631483033e+00	-4.0162924641e-01
 6.7486040805e-01	 2.2694308675e+00	-3.6966612676e-01
 6.5407413489e-01	 2.2755087702e+00	-3.3891227036e-01
 6.3328231559e-01	 2.2813826316e+00	-3.0863898441e-01
 6.1248775248e-01	 2.2870531207e+00	-2.7816657389e-01
 8.2302474235e-01	 2.2294049866e+00	-6.2627937935e-01
 8.0228070644e-01	 2.2369537637e+00	-5.8412869435e-01
 7.8151076713e-01	 2.2442944468e+00	-5.4378069140e-01
 7.6071789168e-01	 2.2514273499e+00	-5.0504856338e-01
 7.3990502846e-01	 2.2583528405e+00	-4.6773603724e-01
 7.1907510590e-01	 2.2650713386e+00	-4.3266389947e-01
 6.9823103136e-01	 2.2715833162e+00	-4.0002645845e-01
 6.7737569007e-01	 2.2778892962e+00	-3.6898050871e-01
 6.5651194408e-01	 2.2839898519e+00	-3.3875495065e-01
 6.3564263130e-01	 2.2898856059e+00	-3.0864003778e-01
 6.1477056446e-01	 2.2955772296e+00	-2.7797735839e-01
 8.2608085411e-01	 2.2376833656e+00	-6.1370759573e-01
 8.0525979002e-01	 2.2452601734e+00	-5.7494596648e-01
 7.8441272636e-01	 2.2526281144e+00	-5.3739484807e-01
 7.6354264138e-01	 2.2597875039e+00	-5.0088250334e-01
 7.4265249441e-01	 2.2667387107e+00	-4.6522947846e-01
 7.2174522476e-01	 2.2734821564e+00	-4.3106238523e-01
 7.0082375058e-01	 2.2800183147e+00	-3.9894082495e-01
 6.7989096780e-01	 2.2863477105e+00	-3.6807218246e-01
 6.5894974913e-01	 2.2924709192e+00	-3.3772961448e-01
 6.3800294299e-01	 2.2983885658e+00	-3.0725074070e-01
 6.1705337257e-01	 2.3041013239e+00	-2.7602748218e-01
 8.2913695981e-01	 2.2459617283e+00	-6.0636792424e-01
 8.0823886770e-01	 2.2535665666e+00	-5.7018834801e-01
 7.8731467983e-01	 2.2609617655e+00	-5.3458926990e-01
 7.6636738547e-01	 2.2681476413e+00	-4.9943712924e-01
 7.4539995492e-01	 2.2751245643e+00	-4.6459497704e-01
 7.2441533833e-01	 2.2818929575e+00	-4.3053518719e-01
 7.0341646466e-01	 2.2884532965e+00	-3.9814578004e-01
 6.8240624055e-01	 2.2948061081e+00	-3.6674894198e-01
 6.6138754934e-01	 2.3009519697e+00	-3.3568949645e-01
 6.4036324999e-01	 2.3068915087e+00	-3.0438050972e-01
 6.1933617614e-01	 2.3126254014e+00	-2.7229293882e-01
 8.3219305857e-01	 2.2542400721e+00	-6.0408874640e-01
 8.1121793862e-01	 2.2618729410e+00	-5.6964377474e-01
 7.9021662672e-01	 2.2692953977e+00	-5.3512410954e-01
 7.6919212317e-01	 2.2765077598e+00	-5.0045717899e-01
 7.4814740919e-01	 2.2835103988e+00	-4.6557231704e-01
 7.2708544584e-01	 2.2903037396e+00	-4.3083603471e-01
 7.0600917285e-01	 2.2968882592e+00	-3.9741762828e-01
 6.8492150760e-01	 2.3032644864e+00	-3.6482092170e-01
 6.6382534403e-01	 2.3094330010e+00	-3.3248948799e-01
 6.4272355165e-01	 2.3153944324e+00	-2.9993958573e-01
 6.2161897455e-01	 2.3211494595e+00	-2.6674956963e-01
 8.3524914955e-01	 2.2625183949e+00	-6.0670110322e-01
 8.1419700195e-01	 2.2701792942e+00	-5.7310344016e-01
 7.9311856621e-01	 2.2776290086e+00	-5.3876319029e-01
 7.7201685366e-01	 2.2848678569e+00	-5.0369129298e-01
 7.5089485646e-01	 2.2918962120e+00	-4.6790684670e-01
 7.2975554654e-01	 2.2987145002e+00	-4.3172186070e-01
 7.0860187444e-01	 2.3053232003e+00	-3.9653550961e-01
 6.8743676824e-01	 2.3117228432e+00	-3.6210056796e-01
 6.6626313250e-01	 2.3179140106e+00	-3.2798611832e-01
 6.4508384729e-01	 2.3238973344e+00	-2.9383902735e-01
 6.2390176713e-01	 2.3296734959e+00	-2.5937307253e-01
 6.0107365699e-01	 2.2444324436e+00	-2.5353125770e-01
 5.8066664583e-01	 2.2497983806e+00	-2.1886663289e-01
 5.6026236637e-01	 2.2549661899e+00	-1.8637140868e-01
 5.3986349106e-01	 2.2599366679e+00	-1.5575584831e-01
 5.1947266420e-01	 2.2647106553e+00	-1.2675635799e-01
 4.9909250109e-01	 2.2692890356e+00	-9.9127983877e-02
 4.7872558728e-01	 2.2736727345e+00	-7.2637396578e-02
 4.5837447783e-01	 2.2778627189e+00	-4.7056334463e-02
 4.3804169659e-01	 2.2818599959e+00	-2.2155475541e-02
 4.1772973553e-01	 2.2856656119e+00	 2.3012935224e-03
 3.9744105410e-01	 2.2892806513e+00	 2.6562243460e-02
 6.0335647868e-01	 2.2529565887e+00	-2.6179115945e-01
 5.8287196359e-01	 2.2583429051e+00	-2.2888051621e-01
 5.6239019058e-01	 2.2635303412e+00	-1.9736068394e-01
 5.4191384224e-01	 2.2685196966e+00	-1.6704934663e-01
 5.2144557292e-01	 2.2733118151e+00	-1.3779395755e-01
 5.0098800786e-01	 2.2779075837e+00	-1.0946406256e-01
 4.8054374241e-01	 2.2823079315e+00	-8.1944122865e-02
 4.6011534134e-01	 2.2865138291e+00	-5.5126807450e-02
 4.3970533810e-01	 2.2905262874e+00	-2.8906723895e-02
 4.1931623410e-01	 2.2943463567e+00	-3.1745550165e-03
 3.9895049815e-01	 2.2979751257e+00	 2.2188431910e-02
 6.0563929971e-01	 2.2614807314e+00	-2.6840785994e-01
 5.8507728073e-01	 2.2668874270e+00	-2.3668729667e-01
 5.6451801418e-01	 2.2720944900e+00	-2.0575782947e-01
 5.4396419285e-01	 2.2771027228e+00	-1.7552664245e-01
 5.2341848109e-01	 2.2819129725e+00	-1.4593339941e-01
 5.0288351409e-01	 2.2865261293e+00	-1.1694243804e-01
 4.8236189702e-01	 2.2909431260e+00	-8.8535476147e-02
 4.6185620436e-01	 2.2951649368e+00	-6.0704798705e-02
 4.4136897913e-01	 2.2991925764e+00	-3.3446893501e-02
 4.2090273223e-01	 2.3030270990e+00	-6.7565015424e-03
 4.0045994178e-01	 2.3066695976e+00	 1.9378952199e-02
 6.0792211946e-01	 2.2700048692e+00	-2.7335823653e-01
 5.8728259661e-01	 2.2754319442e+00	-2.4233475996e-01
 5.6664583658e-01	 2.2806586340e+00	-2.1166918600e-01
 5.4601454229e-01	 2.2856857442e+00	-1.8134050186e-01
 5.2539138814e-01	 2.2905141251e+00	-1.5136197320e-01
 5.0477901924e-01	 2.2951446701e+00	-1.2177325374e-01
 4.8418005061e-01	 2.2995783156e+00	-9.2633019804e-02
 4.6359706640e-01	 2.3038160396e+00	-6.4012097516e-02
 4.4303261922e-01	 2.3078588604e+00	-3.5987048953e-02
 4.2248922945e-01	 2.3117078365e+00	-8.6341823219e-03
 4.0196938455e-01	 2.3153640646e+00	 1.7976049657e-02
 6.1020493726e-01	 2.2785289998e+00	-2.7661897439e-01
 5.8948791062e-01	 2.2839764541e+00	-2.4586945953e-01
 5.6877365718e-01	 2.2892227707e+00	-2.1519901379e-01
 5.4806488999e-01	 2.2942687583e+00	-1.8464095021e-01
 5.2736429351e-01	 2.2991152703e+00	-1.5426375157e-01
 5.0667452279e-01	 2.3037632036e+00	-1.2416313973e-01
 4.8599820264e-01	 2.3082134979e+00	-9.4454683293e-02
 4.6533792695e-01	 2.3124671350e+00	-6.5266910147e-02
 4.4469625790e-01	 2.3165251371e+00	-3.6734889828e-02
 4.2407572533e-01	 2.3203885665e+00	-8.9942492560e-03
 4.0347882604e-01	 2.3240585242e+00	 1.7824415236e-02
 6.1248775248e-01	 2.2870531207e+00	-2.7816657389e-01
 5.9169322214e-01	 2.2925209543e+00	-2.4733674129e-01
 5.7090147536e-01	 2.2977868977e+00	-2.1644953121e-01
 5.5011523536e-01	 2.3028517627e+00	-1.8557532127e-01
 5.2933719665e-01	 2.3077164057e+00	-1.5481964672e-01
 5.0857002419e-01	 2.3123817272e+00	-1.2431527357e-01
 4.8781635262e-01	 2.3168486704e+00	-9.4214824115e-02
 4.6707878553e-01	 2.3211182206e+00	-6.4683919961e-02
 4.4635989470e-01	 2.3251914040e+00	-3.5894806023e-02
 4.2566221941e-01	 2.3290692867e+00	-8.0204175693e-03
 4.0498826582e-01	 2.3327529740e+00	 1.8771148253e-02
 6.1477056446e-01	 2.2955772296e+00	-2.7797735839e-01
 5.9389853053e-01	 2.3010654424e+00	-2.4678076814e-01
 5.7302929053e-01	 2.3063510126e+00	-2.1552095284e-01
 5.5216557783e-01	 2.3114347549e+00	-1.8428830572e-01
 5.3131009699e-01	 2.3163175290e+00	-1.5320746605e-01
 5.1046552290e-01	 2.3210002387e+00	-1.2242944002e-01
 4.8963450003e-01	 2.3254838307e+00	-9.2124288672e-02
 4.6881964165e-01	 2.3297692940e+00	-6.2474346435e-02
 4.4802352914e-01	 2.3338576586e+00	-3.3667932065e-02
 4.2724871124e-01	 2.3377499946e+00	-5.8935126181e-03
 4.0649770346e-01	 2.3414474114e+00	 2.0665719806e-02
 6.1705337257e-01	 2.3041013239e+00	-2.7602748218e-01
 5.9610383517e-01	 2.3096099159e+00	-2.4424454440e-01
 5.7515710208e-01	 2.3149151129e+00	-2.1251152711e-01
 5.5421591682e-01	 2.3200177325e+00	-1.8092199884e-01
 5.3328299398e-01	 2.3249186377e+00	-1.4960196688e-01
 5.1236101839e-01	 2.3296187355e+00	-1.1870208976e-01
 4.9145264434e-01	 2.3341189763e+00	-8.8390472020e-02
 4.7056049481e-01	 2.3384203527e+00	-5.8846003089e-02
 4.4968716075e-01	 2.3425238984e+00	-3.0252200420e-02
 4.2883520038e-01	 2.3464306878e+00	-2.7915158413e-03
 4.0800713853e-01	 2.3501418341e+00	 2.3359936841e-02
 6.1933617614e-01	 2.3126254014e+00	-2.7229293882e-01
 5.9830913543e-01	 2.3181543725e+00	-2.3976994014e-01
 5.7728490941e-01	 2.3234791962e+00	-2.0751757352e-01
 5.5626625174e-01	 2.3286006931e+00	-1.7561594753e-01
 5.3525588706e-01	 2.3335197293e+00	-1.4417491026e-01
 5.1425651012e-01	 2.3382372152e+00	-1.1332639708e-01
 4.9327078505e-01	 2.3427541048e+00	-8.3217376556e-02
 4.7230134451e-01	 2.3470713942e+00	-5.4003354374e-02
 4.5135078906e-01	 2.3511901211e+00	-2.5842393825e-02
 4.3042168637e-01	 2.3551113637e+00	 1.1103901250e-03
 4.0951657061e-01	 2.3588362395e+00	 2.6707906861e-02
 6.2161897455e-01	 2.3211494595e+00	-2.6674956963e-01
 6.0051443070e-01	 2.3266988098e+00	-2.3339771531e-01
 5.7941271192e-01	 2.3320432601e+00	-2.0063351930e-01
 5.5831658201e-01	 2.3371836342e+00	-1.6850719658e-01
 5.3722877566e-01	 2.3421208014e+00	-1.3709511390e-01
 5.1615199756e-01	 2.3468556754e+00	-1.0649231659e-01
 4.9508892163e-01	 2.3513892137e+00	-7.6805669673e-02
 4.7404219027e-01	 2.3557224161e+00	-4.8147571522e-02
 4.5301441360e-01	 2.3598563242e+00	-2.0630196670e-02
 4.3200816876e-01	 2.3637920200e+00	 5.6397771477e-03
 4.1102599927e-01	 2.3675306252e+00	 3.0566003242e-02
 6.2390176713e-01	 2.3296734959e+00	-2.5937307253e-01
 6.0271972034e-01	 2.3352432252e+00	-2.2516754379e-01
 5.8154050900e-01	 2.3406073021e+00	-1.9195193581e-01
 5.6036690706e-01	 2.3457665534e+00	-1.5973033434e-01
 5.3920165923e-01	 2.3507218515e+00	-1.2852850429e-01
 5.1804748016e-01	 2.3554741136e+00	-9.8386638954e-02
 4.9690705358e-01	 2.3600243005e+00	-6.9352740393e-02
 4.7578303159e-01	 2.3643734159e+00	-4.1476587402e-02
 4.5467803390e-01	 2.3685225051e+00	-1.4804245457e-02
 4.3359464711e-01	 2.3724726541e+00	 1.0626928089e-02
 4.1253542408e-01	 2.3762249887e+00	 3.4792831167e-02
 3.9744105410e-01	 2.2892806513e+00	 2.6562243460e-02
 3.7717463691e-01	 2.2927068022e+00	 5.0848011849e-02
 3.5693633350e-01	 2.2959445909e+00	 7.5105362341e-02
 3.3672850860e-01	 2.2989952099e+00	 9.8014081227e-02
 3.1655349199e-01	 2.3018598858e+00	 1.1927282625e-01
 2.9641357803e-01	 2.3045398784e+00	 1.3878697302e-01
 2.7631102523e-01	 2.3070364800e+00	 1.5656052832e-01
 2.5624805578e-01	 2.3093510139e+00	 1.7268802512e-01
 2.3622685516e-01	 2.3114848338e+00	 1.8734707224e-01
 2.1624957181e-01	 2.3134393225e+00	 2.0079152324e-01
 1.9631831674e-01	 2.3152158911e+00	 2.1334522910e-01
 3.9895049815e-01	 2.2979751257e+00	 2.2188431910e-02
 3.7860711100e-01	 2.3014142887e+00	 4.7350536745e-02
 3.5829194440e-01	 2.3046643743e+00	 7.2377317877e-02
 3.3800737207e-01	 2.3077265793e+00	 9.5961252873e-02
 3.1775573262e-01	 2.3106021349e+00	 1.1777962896e-01
 2.9753932915e-01	 2.3132923059e+00	 1.3775983866e-01
 2.7736042873e-01	 2.3157983894e+00	 1.5592646916e-01
 2.5722126199e-01	 2.3181217137e+00	 1.7239321072e-01
 2.3712402272e-01	 2.3202636376e+00	 1.8735543067e-01
 2.1707086751e-01	 2.3222255493e+00	 2.0108337664e-01
 1.9706391539e-01	 2.3240088651e+00	 2.1391597226e-01
 4.0045994178e-01	 2.3066695976e+00	 1.9378952199e-02
 3.8003958468e-01	 2.3101217729e+00	 4.5114292199e-02
 3.5964755492e-01	 2.3133841553e+00	 7.0643474117e-02
 3.3928623517e-01	 2.3164579462e+00	 9.4684483721e-02
 3.1895797292e-01	 2.3193443816e+00	 1.1688249279e-01
 2.9866507996e-01	 2.3220447310e+00	 1.3718345114e-01
 2.7840983194e-01	 2.3245602962e+00	 1.5562864263e-01
 2.5819446793e-01	 2.3268924109e+00	 1.7234662371e-01
 2.3802119003e-01	 2.3290424389e+00	 1.8754583881e-01
 2.1789216298e-01	 2.3310117736e+00	 2.0150787505e-01
 1.9780951384e-01	 2.3328018366e+00	 2.1458131836e-01
 4.0196938455e-01	 2.3153640646e+00	 1.7976049657e-02
 3.8147205756e-01	 2.3188292521e+00	 4.4016137520e-02
 3.6100316467e-01	 2.3221039313e+00	 6.9811119642e-02
 3.4056509756e-01	 2.3251893082e+00	 9.4116676062e-02
 3.2016021254e-01	 2.3280866233e+00	 1.1653540079e-01
 2.9979083012e-01	 2.3307971510e+00	 1.3702838959e-01
 2.7945923455e-01	 2.3333221982e+00	 1.5564978912e-01
 2.5916767332e-01	 2.3356631032e+00	 1.7253878233e-01
 2.3891835683e-01	 2.3378212353e+00	 1.8791226239e-01
 2.1871345799e-01	 2.3397979929e+00	 2.0205815597e-01
 1.9855511186e-01	 2.3415948031e+00	 2.1532935712e-01
 4.0347882604e-01	 2.3240585242e+00	 1.7824415236e-02
 3.8290452922e-01	 2.3275367238e+00	 4.3934797153e-02
 3.6235877327e-01	 2.3308236998e+00	 6.9788867755e-02
 3.4184395885e-01	 2.3339206627e+00	 9.4191604892e-02
 3.2136245113e-01	 2.3368288576e+00	 1.1669283324e-01
 3.0091657933e-01	 2.3395495637e+00	 1.3726543031e-01
 2.8050863627e-01	 2.3420840926e+00	 1.5597262023e-01
 2.6014087788e-01	 2.3444337881e+00	 1.7296002306e-01
 2.3981552287e-01	 2.3466000241e+00	 1.8844840402e-01
 2.1953475230e-01	 2.3485842047e+00	 2.0272708274e-01
 1.9930070925e-01	 2.3503877622e+00	 2.1614796206e-01
 4.0498826582e-01	 2.3327529740e+00	 1.8771148253e-02
 3.8433699925e-01	 2.3362441858e+00	 4.4750834485e-02
 3.6371438034e-01	 2.3395434585e+00	 7.0486641614e-02
 3.4312281870e-01	 2.3426520073e+00	 9.4843910741e-02
 3.2256468836e-01	 2.3455710820e+00	 1.1730976685e-01
 3.0204232727e-01	 2.3483019664e+00	 1.3786555087e-01
 2.8155803680e-01	 2.3508459772e+00	 1.5657982661e-01
 2.6111408134e-01	 2.3532044630e+00	 1.7360051071e-01
 2.4071268789e-01	 2.3553788031e+00	 1.8914771430e-01
 2.2035604567e-01	 2.3573704066e+00	 2.0350725534e-01
 2.0004630580e-01	 2.3591807113e+00	 2.1702479973e-01
 4.0649770346e-01	 2.3414474114e+00	 2.0665719806e-02
 3.8576946725e-01	 2.3449516353e+00	 4.6346626096e-02
 3.6506998548e-01	 2.3482632049e+00	 7.1815659610e-02
 3.4440167673e-01	 2.3513833396e+00	 9.6009092592e-02
 3.2376692389e-01	 2.3543132940e+00	 1.1834167382e-01
 3.0316807361e-01	 2.3570543567e+00	 1.3879993412e-01
 2.8260743584e-01	 2.3596078493e+00	 1.5745408545e-01
 2.6208728342e-01	 2.3619751254e+00	 1.7445024823e-01
 2.4160985164e-01	 2.3641575696e+00	 1.9000340260e-01
 2.2117733789e-01	 2.3661565960e+00	 2.0439102092e-01
 2.0079190129e-01	 2.3679736479e+00	 2.1794733865e-01
 4.0800713853e-01	 2.3501418341e+00	 2.3359936841e-02
 3.8720193283e-01	 2.3536590701e+00	 4.8606336442e-02
 3.6642558832e-01	 2.3569829364e+00	 7.3688420987e-02
 3.4568053260e-01	 2.3601146570e+00	 9.7623500871e-02
 3.2496915738e-01	 2.3630554911e+00	 1.1974452092e-01
 3.0429381804e-01	 2.3658067321e+00	 1.4003997204e-01
 2.8365683310e-01	 2.3683697065e+00	 1.5857806782e-01
 2.6306048385e-01	 2.3707457730e+00	 1.7549908626e-01
 2.4250701387e-01	 2.3729363211e+00	 1.9100844756e-01
 2.2199862871e-01	 2.3749427705e+00	 2.0537048408e-01
 2.0153749551e-01	 2.3767665696e+00	 2.1890285818e-01
 4.0951657061e-01	 2.3588362395e+00	 2.6707906861e-02
 3.8863439555e-01	 2.3623664876e+00	 5.1415892961e-02
 3.6778118847e-01	 2.3657026506e+00	 7.6018691704e-02
 3.4695938592e-01	 2.3688459571e+00	 9.9624330532e-02
 3.2617138848e-01	 2.3717976709e+00	 1.2147476854e-01
 3.0541956023e-01	 2.3745590902e+00	 1.4155726938e-01
 2.8470622828e-01	 2.3771315464e+00	 1.5993444578e-01
 2.6403368235e-01	 2.3795164032e+00	 1.7673673242e-01
 2.4340417432e-01	 2.3817150553e+00	 1.9215560738e-01
 2.2281991790e-01	 2.3837289275e+00	 2.0643751680e-01
 2.0228308825e-01	 2.3855594738e+00	 2.1987845701e-01
 4.1102599927e-01	 2.3675306252e+00	 3.0566003242e-02
 3.9006685504e-01	 2.3710738854e+00	 5.4662961592e-02
 3.6913678555e-01	 2.3744223451e+00	 7.8721490523e-02
 3.4823823635e-01	 2.3775772374e+00	 1.0194961421e-01
 3.2737361686e-01	 2.3805398309e+00	 1.2348936961e-01
 3.0654529987e-01	 2.3833114284e+00	 1.4332364726e-01
 2.8575562108e-01	 2.3858933664e+00	 1.6150589929e-01
 2.6500687864e-01	 2.3882870135e+00	 1.7815276034e-01
 2.4430133273e-01	 2.3904937695e+00	 1.9343742977e-01
 2.2364120523e-01	 2.3925150647e+00	 2.0758376824e-01
 2.0302867931e-01	 2.3943523582e+00	 2.2086106149e-01
 4.1253542408e-01	 2.3762249887e+00	 3.4792831167e-02
 3.9149931087e-01	 2.3797812609e+00	 5.8236922687e-02
 3.7049237917e-01	 2.3831420173e+00	 8.1713093206e-02
 3.4951708351e-01	 2.3863084955e+00	 1.0453821547e-01
 3.2857584217e-01	 2.3892819685e+00	 1.2574576858e-01
 3.0767103664e-01	 2.3920637443e+00	 1.4531114657e-01
 2.8680501121e-01	 2.3946551640e+00	 1.6327512288e-01
 2.6598007245e-01	 2.3970576014e+00	 1.7973661844e-01
 2.4519848886e-01	 2.3992724614e+00	 1.9484626167e-01
 2.2446249046e-01	 2.4013011794e+00	 2.0880067421e-01
 2.0377426846e-01	 2.4031452201e+00	 2.2183743382e-01
 1.9631831674e-01	 2.3152158911e+00	 2.1334522910e-01
 1.7643853104e-01	 2.3168157204e+00	 2.2523561922e-01
 1.5660881852e-01	 2.3182405908e+00	 2.3626944622e-01
 1.3683113004e-01	 2.3194919904e+00	 2.4622447142e-01
 1.1710737926e-01	 2.3205714314e+00	 2.5493190595e-01
 9.7439442445e-02	 2.3214804490e+00	 2.6227331188e-01
 7.7829158300e-02	 2.3222206007e+00	 2.6817785555e-01
 5.8278327803e-02	 2.3227934648e+00	 2.7261988048e-01
 3.8788714106e-02	 2.3232006399e+00	 2.7561676798e-01
 1.9362042431e-02	 2.3234437436e+00	 2.7722705529e-01
 0.0000000000e+00	 2.3235244118e+00	 2.7754878237e-01
 1.9706391539e-01	 2.3240088651e+00	 2.1391597226e-01
 1.7710862812e-01	 2.3256147704e+00	 2.2604548247e-01
 1.5720360420e-01	 2.3270450523e+00	 2.3723311146e-01
 1.3735080190e-01	 2.3283012046e+00	 2.4725427825e-01
 1.1755214216e-01	 2.3293847452e+00	 2.5593694183e-01
 9.7809508360e-02	 2.3302972153e+00	 2.6315859138e-01
 7.8124746184e-02	 2.3310401780e+00	 2.6884359106e-01
 5.8499663457e-02	 2.3316152178e+00	 2.7296084568e-01
 3.8936030025e-02	 2.3320239393e+00	 2.7552175494e-01
 1.9435577662e-02	 2.3322679662e+00	 2.7657842496e-01
 0.0000000000e+00	 2.3323489408e+00	 2.7622210782e-01
 1.9780951384e-01	 2.3328018366e+00	 2.1458131836e-01
 1.7777872501e-01	 2.3344138179e+00	 2.2691990760e-01
 1.5779838972e-01	 2.3358495114e+00	 2.3824118466e-01
 1.3787047363e-01	 2.3371104164e+00	 2.4832045218e-01
 1.1799690494e-01	 2.3381980566e+00	 2.5698464761e-01
 9.8179574170e-02	 2.3391139790e+00	 2.6410942217e-01
 7.8420333985e-02	 2.3398597527e+00	 2.6961657665e-01
 5.8720999048e-02	 2.3404369682e+00	 2.7347181956e-01
 3.9083345902e-02	 2.3408472361e+00	 2.7568281440e-01
 1.9509112873e-02	 2.3410921864e+00	 2.7629748430e-01
 0.0000000000e+00	 2.3411734673e+00	 2.7540254371e-01
 1.9855511186e-01	 2.3415948031e+00	 2.1532935712e-01
 1.7844882153e-01	 2.3432128605e+00	 2.2784047437e-01
 1.5839317490e-01	 2.3446539654e+00	 2.3926995638e-01
 1.3839014506e-01	 2.3459196231e+00	 2.4939516465e-01
 1.1844166747e-01	 2.3470113629e+00	 2.5804419461e-01
 9.8549639771e-02	 2.3479307377e+00	 2.6509304309e-01
 7.8715921619e-02	 2.3486793225e+00	 2.7046313488e-01
 5.8942334515e-02	 2.3492587136e+00	 2.7411917302e-01
 3.9230661696e-02	 2.3496705279e+00	 2.7606727883e-01
 1.9582648042e-02	 2.3499164015e+00	 2.7635338913e-01
 0.0000000000e+00	 2.3499979888e+00	 2.7506187986e-01
 1.9930070925e-01	 2.3503877622e+00	 2.1614796206e-01
 1.7911891748e-01	 2.3520118955e+00	 2.2878863145e-01
 1.5898795958e-01	 2.3534584120e+00	 2.4029565783e-01
 1.3890981604e-01	 2.3547288224e+00	 2.5045058623e-01
 1.1888642962e-01	 2.3558246618e+00	 2.5908479880e-01
 9.8919705058e-02	 2.3567474889e+00	 2.6607677055e-01
 7.9011509003e-02	 2.3574988847e+00	 2.7134968645e-01
 5.9163669793e-02	 2.3580804516e+00	 2.7486938365e-01
 3.9377977365e-02	 2.3584938123e+00	 2.7664258406e-01
 1.9656183149e-02	 2.3587406091e+00	 2.7671538391e-01
 0.0000000000e+00	 2.3588225028e+00	 2.7517196886e-01
 2.0004630580e-01	 2.3591807113e+00	 2.1702479973e-01
 1.7978901266e-01	 2.3608109206e+00	 2.2974570362e-01
 1.5958274358e-01	 2.3622628486e+00	 2.4129446610e-01
 1.3942948644e-01	 2.3635380116e+00	 2.5145889031e-01
 1.1933119126e-01	 2.3646379507e+00	 2.6007572324e-01
 9.9289769926e-02	 2.3655642302e+00	 2.6702799985e-01
 7.9307096051e-02	 2.3663184370e+00	 2.7224275056e-01
 5.9385004822e-02	 2.3669021795e+00	 2.7568903527e-01
 3.9525292868e-02	 2.3673170866e+00	 2.7737626837e-01
 1.9729718173e-02	 2.3675648068e+00	 2.7735280044e-01
 0.0000000000e+00	 2.3676470068e+00	 2.7570472455e-01
 2.0079190129e-01	 2.3679736479e+00	 2.1794733865e-01
 1.8045910690e-01	 2.3696099332e+00	 2.3069289870e-01
 1.6017752674e-01	 2.3710672727e+00	 2.4224250953e-01
 1.3994915611e-01	 2.3723471884e+00	 2.5239225686e-01
 1.1977595228e-01	 2.3734512271e+00	 2.6098628046e-01
 9.9659834270e-02	 2.3743809589e+00	 2.6791420645e-01
 7.9602682682e-02	 2.3751379767e+00	 2.7310894527e-01
 5.9606339536e-02	 2.3757238949e+00	 2.7654481760e-01
 3.9672608162e-02	 2.3761403485e+00	 2.7823597155e-01
 1.9803253093e-02	 2.3763889919e+00	 2.7823505650e-01
 0.0000000000e+00	 2.3764714982e+00	 2.7663212044e-01
 2.0153749551e-01	 2.3767665696e+00	 2.1890285818e-01
 1.8112920000e-01	 2.3784089309e+00	 2.3161131444e-01
 1.6077230889e-01	 2.3798716818e+00	 2.4311587268e-01
 1.4046882489e-01	 2.3811563502e+00	 2.5322287601e-01
 1.2022071254e-01	 2.3822644885e+00	 2.6178583476e-01
 1.0002989798e-01	 2.3831976727e+00	 2.6870294715e-01
 7.9898268809e-02	 2.3839575015e+00	 2.7391498789e-01
 5.9827673875e-02	 2.3845455954e+00	 2.7740352593e-01
 3.9819923205e-02	 2.3849635953e+00	 2.7918943404e-01
 1.9876787888e-02	 2.3852131620e+00	 2.7933165466e-01
 0.0000000000e+00	 2.3852959747e+00	 2.7792618826e-01
 2.0228308825e-01	 2.3855594738e+00	 2.1987845701e-01
 1.8179929177e-01	 2.3872079111e+00	 2.3248194511e-01
 1.6136708986e-01	 2.3886760735e+00	 2.4389060136e-01
 1.4098849264e-01	 2.3899654946e+00	 2.5392295154e-01
 1.2066547192e-01	 2.3910777324e+00	 2.6244380446e-01
 1.0039996097e-01	 2.3920143689e+00	 2.6936186136e-01
 8.0193854351e-02	 2.3927770088e+00	 2.7462769525e-01
 6.0049007775e-02	 2.3933672783e+00	 2.7823206072e-01
 3.9967237957e-02	 2.3937868247e+00	 2.8020449602e-01
 1.9950322536e-02	 2.3940373146e+00	 2.8061218099e-01
 0.0000000000e+00	 2.3941204337e+00	 2.7955901646e-01
 2.0302867931e-01	 2.3943523582e+00	 2.2086106149e-01
 1.8246938203e-01	 2.3960068713e+00	 2.3328568797e-01
 1.6196186948e-01	 2.3974804453e+00	 2.4454270745e-01
 1.4150815921e-01	 2.3987746190e+00	 2.5446470428e-01
 1.2111023029e-01	 2.3998909564e+00	 2.6292966411e-01
 1.0077002311e-01	 2.4008310452e+00	 2.6985867224e-01
 8.0489439222e-02	 2.4015964960e+00	 2.7521398407e-01
 6.0270341172e-02	 2.4021889412e+00	 2.7899742729e-01
 4.0114552374e-02	 2.4026100340e+00	 2.8124909658e-01
 2.0023857018e-02	 2.4028614472e+00	 2.8204630389e-01
 0.0000000000e+00	 2.4029448727e+00	 2.8150274884e-01
 2.0377426846e-01	 2.4031452201e+00	 2.2183743382e-01
 1.8313947057e-01	 2.4048058091e+00	 2.3400334959e-01
 1.6255664758e-01	 2.4062847945e+00	 2.4504817357e-01
 1.4202782445e-01	 2.4075837209e+00	 2.5482037545e-01
 1.2155498752e-01	 2.4087041578e+00	 2.6321294660e-01
 1.0114008431e-01	 2.4096476990e+00	 2.7016118780e-01
 8.0785023340e-02	 2.4104159608e+00	 2.7564087126e-01
 6.0491674005e-02	 2.4110105817e+00	 2.7966673545e-01
 4.0261866415e-02	 2.4114332208e+00	 2.8229127289e-01
 2.0097391313e-02	 2.4116855573e+00	 2.8360377285e-01
 0.0000000000e+00	 2.4117692892e+00	 2.8372958310e-01
 2.4117692892e+00	 0.0000000000e+00	 2.0972892556e+00
 2.4116855573e+00	 2.0097391313e-02	 2.0961113803e+00
 2.4114332208e+00	 4.0261866415e-02	 2.0929806175e+00
 2.4110105817e+00	 6.0491674005e-02	 2.0880595008e+00
 2.4104159608e+00	 8.0785023340e-02	 2.0814664495e+00
 2.4096476990e+00	 1.0114008431e-01	 2.0732754770e+00
 2.4087041578e+00	 1.2155498752e-01	 2.0635156429e+00
 2.4075837209e+00	 1.4202782445e-01	 2.0521702109e+00
 2.4062847945e+00	 1.6255664758e-01	 2.0391754761e+00
 2.4048058091e+00	 1.8313947057e-01	 2.0244192224e+00
 2.4031452201e+00	 2.0377426846e-01	 2.0077387684e+00
 2.4205921840e+00	 0.0000000000e+00	 2.0833656969e+00
 2.4205081459e+00	 2.0170912927e-02	 2.0824528130e+00
 2.4202548862e+00	 4.0409155054e-02	 2.0795379654e+00
 2.4198307010e+00	 6.0712968673e-02	 2.0747864584e+00
 2.4192339048e+00	 8.1080556488e-02	 2.0683212395e+00
 2.4184628325e+00	 1.0151008169e-01	 2.0602227286e+00
 2.4175158396e+00	 1.2199966806e-01	 2.0505283911e+00
 2.4163913038e+00	 1.4254740009e-01	 2.0392320163e+00
 2.4150876256e+00	 1.6315132313e-01	 2.0262826638e+00
 2.4136032297e+00	 1.8380944356e-01	 2.0115832376e+00
 2.4119365657e+00	 2.0451972904e-01	 1.9949886464e+00
 2.4294150713e+00	 0.0000000000e+00	 2.0699583177e+00
 2.4293307269e+00	 2.0244434479e-02	 2.0690900440e+00
 2.4290765441e+00	 4.0556443568e-02	 2.0662381962e+00
 2.4286508127e+00	 6.0934263151e-02	 2.0615600659e+00
 2.4280518413e+00	 8.1376089384e-02	 2.0551723117e+00
 2.4272779585e+00	 1.0188007876e-01	 2.0471509246e+00
 2.4263275139e+00	 1.2244434823e-01	 2.0375309371e+00
 2.4251988792e+00	 1.4306697529e-01	 2.0263058378e+00
 2.4238904492e+00	 1.6374599816e-01	 2.0134266541e+00
 2.4224006428e+00	 1.8447941599e-01	 1.9988006598e+00
 2.4207279040e+00	 2.0526518900e-01	 1.9822896664e+00
 2.4382379687e+00	 0.0000000000e+00	 2.0570834728e+00
 2.4381533179e+00	 2.0317956114e-02	 2.0560386791e+00
 2.4378982120e+00	 4.0703732248e-02	 2.0530971336e+00
 2.4374709345e+00	 6.1155557880e-02	 2.0483974375e+00
 2.4368697878e+00	 8.1671622614e-02	 2.0420392486e+00
 2.4360930945e+00	 1.0225007625e-01	 2.0340833983e+00
 2.4351391981e+00	 1.2288902890e-01	 2.0245517521e+00
 2.4340064646e+00	 1.4358655107e-01	 2.0134267773e+00
 2.4326932828e+00	 1.6434067388e-01	 2.0006507773e+00
 2.4311980659e+00	 1.8514938917e-01	 1.9861247499e+00
 2.4295192521e+00	 2.0601064979e-01	 1.9697068279e+00
 2.4470608935e+00	 0.0000000000e+00	 2.0447575882e+00
 2.4469759364e+00	 2.0391477977e-02	 2.0433143925e+00
 2.4467199074e+00	 4.0851021386e-02	 2.0401306546e+00
 2.4462910838e+00	 6.1376853298e-02	 2.0353157097e+00
 2.4456877618e+00	 8.1967156765e-02	 2.0289416066e+00
 2.4449082579e+00	 1.0262007490e-01	 2.0210433894e+00
 2.4439509099e+00	 1.2333371095e-01	 2.0116191264e+00
 2.4428140775e+00	 1.4410612847e-01	 2.0006296459e+00
 2.4414961438e+00	 1.6493535144e-01	 1.9879979385e+00
 2.4399955163e+00	 1.8581936445e-01	 1.9736081836e+00
 2.4383106277e+00	 2.0675611291e-01	 1.9573043564e+00
 2.4558838633e+00	 0.0000000000e+00	 2.0329971569e+00
 2.4557985999e+00	 2.0465000216e-02	 2.0309329226e+00
 2.4555416478e+00	 4.0998311275e-02	 2.0273546835e+00
 2.4551112780e+00	 6.1598149844e-02	 2.0223320354e+00
 2.4545057808e+00	 8.2262692423e-02	 2.0158989106e+00
 2.4537234664e+00	 1.0299007542e-01	 2.0080540404e+00
 2.4527626665e+00	 1.2377839527e-01	 1.9987611670e+00
 2.4516217353e+00	 1.4462570852e-01	 1.9879489629e+00
 2.4502990498e+00	 1.6553003204e-01	 1.9755106190e+00
 2.4487930117e+00	 1.8648934314e-01	 1.9613030556e+00
 2.4471020481e+00	 2.0750157984e-01	 1.9451457120e+00
 2.4647068957e+00	 0.0000000000e+00	 2.0218187350e+00
 2.4646213259e+00	 2.0538522974e-02	 2.0189100674e+00
 2.4643634507e+00	 4.1145602207e-02	 2.0147851878e+00
 2.4639315348e+00	 6.1819447957e-02	 2.0094635791e+00
 2.4633238622e+00	 8.2558230173e-02	 2.0029306498e+00
 2.4625387372e+00	 1.0336007857e-01	 1.9951383927e+00
 2.4615744856e+00	 1.2422308274e-01	 1.9860057941e+00
 2.4604294554e+00	 1.4514529225e-01	 1.9754189547e+00
 2.4591020180e+00	 1.6612471684e-01	 1.9632308779e+00
 2.4575905694e+00	 1.8715932657e-01	 1.9492608832e+00
 2.4558935309e+00	 2.0824705204e-01	 1.9332935958e+00
 2.4735300080e+00	 0.0000000000e+00	 2.0112389382e+00
 2.4734441320e+00	 2.0612046399e-02	 2.0072616794e+00
 2.4731853336e+00	 4.1292894474e-02	 2.0024381726e+00
 2.4727518715e+00	 6.2040748075e-02	 1.9967275120e+00
 2.4721420236e+00	 8.2853770602e-02	 1.9900562733e+00
 2.4713540880e+00	 1.0373008508e-01	 1.9823193825e+00
 2.4703863846e+00	 1.2466777424e-01	 1.9733807395e+00
 2.4692372555e+00	 1.4566488070e-01	 1.9630735542e+00
 2.4679050661e+00	 1.6671940704e-01	 1.9512003532e+00
 2.4663882068e+00	 1.8782931608e-01	 1.9375326109e+00
 2.4646850933e+00	 2.0899253100e-01	 1.9218099582e+00
 2.4823532178e+00	 0.0000000000e+00	 2.0012744372e+00
 2.4822670355e+00	 2.0685570636e-02	 1.9960036618e+00
 2.4820073140e+00	 4.1440188367e-02	 1.9903296762e+00
 2.4815723057e+00	 6.2262050637e-02	 1.9841410072e+00
 2.4809602824e+00	 8.3149314295e-02	 1.9772951850e+00
 2.4801695363e+00	 1.0410009566e-01	 1.9696198378e+00
 2.4791983810e+00	 1.2511247065e-01	 1.9609135438e+00
 2.4780451528e+00	 1.4618447488e-01	 1.9509464001e+00
 2.4767082115e+00	 1.6731410382e-01	 1.9394602630e+00
 2.4751859415e+00	 1.8849931299e-01	 1.9261686143e+00
 2.4734767528e+00	 2.0973801820e-01	 1.9107560055e+00
 2.4911765427e+00	 0.0000000000e+00	 1.9919419551e+00
 2.4910900540e+00	 2.0759095830e-02	 1.9851519638e+00
 2.4908294093e+00	 4.1587484179e-02	 1.9784757653e+00
 2.4903928548e+00	 6.2483356083e-02	 1.9717212350e+00
 2.4897786561e+00	 8.3444861838e-02	 1.9646667399e+00
 2.4889850994e+00	 1.0447011108e-01	 1.9570624739e+00
 2.4880104922e+00	 1.2555717286e-01	 1.9486315537e+00
 2.4868531650e+00	 1.4670407583e-01	 1.9390708359e+00
 2.4855114716e+00	 1.6790880834e-01	 1.9280514073e+00
 2.4839837908e+00	 1.8916931864e-01	 1.9152187039e+00
 2.4822685270e+00	 2.1048351511e-01	 1.9001922070e+00
 2.5000000000e+00	 0.0000000000e+00	 1.9832582629e+00
 2.4999132050e+00	 2.0832622128e-02	 1.9747225763e+00
 2.4996516371e+00	 4.1734782201e-02	 1.9668925303e+00
 2.4992135364e+00	 6.2704664850e-02	 1.9594853582e+00
 2.4985971623e+00	 8.3740413818e-02	 1.9521902398e+00
 2.4978007949e+00	 1.0484013204e-01	 1.9446698910e+00
 2.4968227358e+00	 1.2600188175e-01	 1.9365619204e+00
 2.4956613094e+00	 1.4722368459e-01	 1.9274799092e+00
 2.4943148639e+00	 1.6850352179e-01	 1.9170141690e+00
 2.4927817722e+00	 1.8983933434e-01	 1.9047321291e+00
 2.4910604332e+00	 2.1122902322e-01	 1.8901783026e+00
 2.4031452201e+00	 2.0377426846e-01	 2.0077387684e+00
 2.4013011794e+00	 2.2446249046e-01	 1.9889730297e+00
 2.3992724614e+00	 2.4519848886e-01	 1.9682652674e+00
 2.3970576014e+00	 2.6598007245e-01	 1.9458216465e+00
 2.3946551640e+00	 2.8680501121e-01	 1.9217921142e+00
 2.3920637443e+00	 3.0767103664e-01	 1.8962652317e+00
 2.3892819685e+00	 3.2857584217e-01	 1.8692623032e+00
 2.3863084955e+00	 3.4951708351e-01	 1.8407307555e+00
 2.3831420173e+00	 3.7049237917e-01	 1.8105367169e+00
 2.3797812609e+00	 3.9149931087e-01	 1.7784286789e+00
 2.3762249887e+00	 4.1253542408e-01	 1.7444657961e+00
 2.4119365657e+00	 2.0451972904e-01	 1.9949886464e+00
 2.4100857791e+00	 2.2528363408e-01	 1.9763604745e+00
 2.4080496395e+00	 2.4609549028e-01	 1.9558290497e+00
 2.4058266769e+00	 2.6695309844e-01	 1.9335690158e+00
 2.4034154508e+00	 2.8785422038e-01	 1.9097020238e+00
 2.4008145510e+00	 3.0879657930e-01	 1.8842917261e+00
 2.3980225988e+00	 3.2977786017e-01	 1.8573380602e+00
 2.3950382479e+00	 3.5079571016e-01	 1.8287707731e+00
 2.3918601860e+00	 3.7184773904e-01	 1.7984414881e+00
 2.3884871350e+00	 3.9293151969e-01	 1.7660629118e+00
 2.3849178530e+00	 4.1404458862e-01	 1.7316705962e+00
 2.4207279040e+00	 2.0526518900e-01	 1.9822896664e+00
 2.4188703713e+00	 2.2610477700e-01	 1.9637750179e+00
 2.4168268101e+00	 2.4699249095e-01	 1.9433845070e+00
 2.4145957450e+00	 2.6792612361e-01	 1.9212705343e+00
 2.4121757302e+00	 2.8890342866e-01	 1.8975356627e+00
 2.4095653503e+00	 3.0992212099e-01	 1.8722277632e+00
 2.4067632215e+00	 3.3097987716e-01	 1.8453344426e+00
 2.4037679930e+00	 3.5207433572e-01	 1.8167767020e+00
 2.4005783472e+00	 3.7320309775e-01	 1.7863991230e+00
 2.3971930017e+00	 3.9436372730e-01	 1.7538869595e+00
 2.3936107099e+00	 4.1555375187e-01	 1.7192622600e+00
 2.4295192521e+00	 2.0601064979e-01	 1.9697068279e+00
 2.4276549735e+00	 2.2692592085e-01	 1.9512928128e+00
 2.4256039907e+00	 2.4788949262e-01	 1.9310158100e+00
 2.4233648231e+00	 2.6889914988e-01	 1.9090151302e+00
 2.4209360195e+00	 2.8995263813e-01	 1.8853833310e+00
 2.4183161594e+00	 3.1104766397e-01	 1.8601615055e+00
 2.4155038542e+00	 3.3218189550e-01	 1.8333338427e+00
 2.4124977479e+00	 3.5335296273e-01	 1.8048214109e+00
 2.4092965183e+00	 3.7455845801e-01	 1.7744688346e+00
 2.4058988783e+00	 3.9579593653e-01	 1.7419430266e+00
 2.4023035767e+00	 4.1706291683e-01	 1.7072620376e+00
 2.4383106277e+00	 2.0675611291e-01	 1.9573043564e+00
 2.4364396031e+00	 2.2774706725e-01	 1.9389890562e+00
 2.4343811987e+00	 2.4878649710e-01	 1.9188060348e+00
 2.4321339285e+00	 2.6987217919e-01	 1.8968905411e+00
 2.4296963361e+00	 2.9100185087e-01	 1.8733340872e+00
 2.4270669959e+00	 3.1217321045e-01	 1.8481798687e+00
 2.4242445142e+00	 3.3338391759e-01	 1.8214174488e+00
 2.4212275301e+00	 3.5463159372e-01	 1.7929766551e+00
 2.4180147166e+00	 3.7591382248e-01	 1.7627089233e+00
 2.4146047820e+00	 3.9722815022e-01	 1.7302725934e+00
 2.4109964706e+00	 4.1857208649e-01	 1.6956906980e+00
 2.4471020481e+00	 2.0750157984e-01	 1.9451457120e+00
 2.4452242775e+00	 2.2856821785e-01	 1.9269380011e+00
 2.4431584514e+00	 2.4968350615e-01	 1.9068371759e+00
 2.4409030786e+00	 2.7084521345e-01	 1.8849833292e+00
 2.4384566973e+00	 2.9205106896e-01	 1.8614757645e+00
 2.4358178770e+00	 3.1329876267e-01	 1.8363685390e+00
 2.4329852187e+00	 3.3458594582e-01	 1.8096652610e+00
 2.4299573567e+00	 3.5591023124e-01	 1.7813130908e+00
 2.4267329594e+00	 3.7726919388e-01	 1.7511767864e+00
 2.4233107301e+00	 3.9866037122e-01	 1.7189164212e+00
 2.4196894088e+00	 4.2008126385e-01	 1.6845685314e+00
 2.4558935309e+00	 2.0824705204e-01	 1.9332935958e+00
 2.4540090141e+00	 2.2938937426e-01	 1.9152129662e+00
 2.4519357663e+00	 2.5058052155e-01	 1.8951901601e+00
 2.4496722908e+00	 2.7181825461e-01	 1.8733788969e+00
 2.4472171207e+00	 2.9310029448e-01	 1.8498949875e+00
 2.4445688201e+00	 3.1442432287e-01	 1.8248119893e+00
 2.4417259852e+00	 3.3578798255e-01	 1.7981561079e+00
 2.4386872453e+00	 3.5718887781e-01	 1.7699002911e+00
 2.4354512639e+00	 3.7862457487e-01	 1.7399289266e+00
 2.4320167399e+00	 4.0009260236e-01	 1.7079145578e+00
 2.4283824086e+00	 4.2159045190e-01	 1.6739153499e+00
 2.4646850933e+00	 2.0899253100e-01	 1.9218099582e+00
 2.4627938304e+00	 2.3021053812e-01	 1.9038863475e+00
 2.4607131608e+00	 2.5147754509e-01	 1.8839448589e+00
 2.4584415825e+00	 2.7279130460e-01	 1.8621615011e+00
 2.4559776234e+00	 2.9414952952e-01	 1.8386771881e+00
 2.4533198425e+00	 3.1554989327e-01	 1.8135934964e+00
 2.4504668309e+00	 3.3699003019e-01	 1.7869676624e+00
 2.4474172129e+00	 3.5846753598e-01	 1.7588067598e+00
 2.4441696475e+00	 3.7997996815e-01	 1.7290209607e+00
 2.4407228286e+00	 4.0152484649e-01	 1.6973063432e+00
 2.4370754872e+00	 4.2309965364e-01	 1.6637504899e+00
 2.4734767528e+00	 2.0973801820e-01	 1.9107560055e+00
 2.4715787437e+00	 2.3103171105e-01	 1.8930296277e+00
 2.4694906523e+00	 2.5237457853e-01	 1.8731801020e+00
 2.4672109712e+00	 2.7376436533e-01	 1.8514142688e+00
 2.4647382230e+00	 2.9519877615e-01	 1.8279066212e+00
 2.4620709616e+00	 3.1667547611e-01	 1.8027951565e+00
 2.4592077732e+00	 3.3819209111e-01	 1.7761764579e+00
 2.4561472771e+00	 3.5974620828e-01	 1.7480999470e+00
 2.4528881274e+00	 3.8133537641e-01	 1.7185076282e+00
 2.4494290136e+00	 4.0295710645e-01	 1.6871304153e+00
 2.4457686619e+00	 4.2460887205e-01	 1.6540928132e+00
 2.4822685270e+00	 2.1048351511e-01	 1.9001922070e+00
 2.4803637715e+00	 2.3185289468e-01	 1.8827133871e+00
 2.4782682582e+00	 2.5327162367e-01	 1.8629736898e+00
 2.4759804741e+00	 2.7473743875e-01	 1.8412192109e+00
 2.4734989368e+00	 2.9624803646e-01	 1.8176663809e+00
 2.4708221948e+00	 3.1780107362e-01	 1.7924979017e+00
 2.4679488294e+00	 3.3939416770e-01	 1.7658579035e+00
 2.4648774550e+00	 3.6102489724e-01	 1.7378462628e+00
 2.4616067209e+00	 3.8269080233e-01	 1.7084427999e+00
 2.4581353120e+00	 4.0438938508e-01	 1.6774247152e+00
 2.4544619498e+00	 4.2611811014e-01	 1.6449607089e+00
 2.4910604332e+00	 2.1122902322e-01	 1.8901783026e+00
 2.4891489313e+00	 2.3267409065e-01	 1.8730073137e+00
 2.4870459959e+00	 2.5416868228e-01	 1.8534024059e+00
 2.4847501087e+00	 2.7571052678e-01	 1.8316572367e+00
 2.4822597821e+00	 2.9729731252e-01	 1.8080384153e+00
 2.4795735594e+00	 3.1892668803e-01	 1.7827815155e+00
 2.4766900169e+00	 3.4059626234e-01	 1.7560862997e+00
 2.4736077640e+00	 3.6230360541e-01	 1.7281110922e+00
 2.4703254454e+00	 3.8404624861e-01	 1.6988794860e+00
 2.4668417411e+00	 4.0582168521e-01	 1.6682264926e+00
 2.4631553684e+00	 4.2762737088e-01	 1.6363720956e+00
 2.3762249887e+00	 4.1253542408e-01	 1.7444657961e+00
 2.3724726541e+00	 4.3359464711e-01	 1.7089325513e+00
 2.3685225051e+00	 4.5467803390e-01	 1.6719262847e+00
 2.3643734159e+00	 4.7578303159e-01	 1.6334267170e+00
 2.3600243005e+00	 4.9690705358e-01	 1.5934042076e+00
 2.3554741136e+00	 5.1804748016e-01	 1.5518246228e+00
 2.3507218515e+00	 5.3920165923e-01	 1.5086546748e+00
 2.3457665534e+00	 5.6036690706e-01	 1.4638677815e+00
 2.3406073021e+00	 5.8154050900e-01	 1.4174504984e+00
 2.3352432252e+00	 6.0271972034e-01	 1.3694095694e+00
 2.3296734959e+00	 6.2390176713e-01	 1.3197796464e+00
 2.3849178530e+00	 4.1404458862e-01	 1.7316705962e+00
 2.3811517914e+00	 4.3518085189e-01	 1.6955341247e+00
 2.3771871917e+00	 4.5634136733e-01	 1.6578134831e+00
 2.3730229240e+00	 4.7752357273e-01	 1.6185637044e+00
 2.3686578984e+00	 4.9872487202e-01	 1.5778299975e+00
 2.3640910657e+00	 5.1994263591e-01	 1.5356523552e+00
 2.3593214186e+00	 5.4117420261e-01	 1.4920706400e+00
 2.3543479926e+00	 5.6241687855e-01	 1.4471301996e+00
 2.3491698675e+00	 5.8366793917e-01	 1.4008880635e+00
 2.3437861673e+00	 6.0492462972e-01	 1.3534197730e+00
 2.3381960624e+00	 6.2618416607e-01	 1.3048268917e+00
 2.3936107099e+00	 4.1555375187e-01	 1.7192622600e+00
 2.3898309212e+00	 4.3676705532e-01	 1.6827690113e+00
 2.3858518709e+00	 4.5800469934e-01	 1.6445994447e+00
 2.3816724248e+00	 4.7926411239e-01	 1.6048635590e+00
 2.3772914890e+00	 5.0054268891e-01	 1.5636613173e+00
 2.3727080104e+00	 5.2183779006e-01	 1.5210870212e+00
 2.3679209783e+00	 5.4314674432e-01	 1.4772341695e+00
 2.3629294246e+00	 5.6446684831e-01	 1.4322008548e+00
 2.3577324255e+00	 5.8579536754e-01	 1.3860957532e+00
 2.3523291022e+00	 6.0712953722e-01	 1.3390447591e+00
 2.3467186217e+00	 6.2846656308e-01	 1.2911983167e+00
 2.4023035767e+00	 4.1706291683e-01	 1.7072620376e+00
 2.3985100610e+00	 4.3835326056e-01	 1.6706380953e+00
 2.3945165599e+00	 4.5966803325e-01	 1.6322700359e+00
 2.3903219353e+00	 4.8100465402e-01	 1.5923027504e+00
 2.3859250893e+00	 5.0236050787e-01	 1.5508711322e+00
 2.3813249650e+00	 5.2373294635e-01	 1.5081042420e+00
 2.3765205478e+00	 5.4511928825e-01	 1.4641299654e+00
 2.3715108663e+00	 5.6651682039e-01	 1.4190802169e+00
 2.3662949932e+00	 5.8792279832e-01	 1.3730967486e+00
 2.3608720467e+00	 6.0933444722e-01	 1.3263376179e+00
 2.3552411907e+00	 6.3074896268e-01	 1.2789843658e+00
 2.4109964706e+00	 4.1857208649e-01	 1.6956906980e+00
 2.4071892278e+00	 4.3993947073e-01	 1.6591420160e+00
 2.4031812759e+00	 4.6133137233e-01	 1.6208110382e+00
 2.3989714728e+00	 4.8274520107e-01	 1.5808577451e+00
 2.3945587165e+00	 5.0417833249e-01	 1.5394324043e+00
 2.3899419463e+00	 5.2562810855e-01	 1.4966795518e+00
 2.3851201440e+00	 5.4709183834e-01	 1.4527424722e+00
 2.3800923347e+00	 5.6856679885e-01	 1.4077682374e+00
 2.3748575877e+00	 5.9005023573e-01	 1.3619133599e+00
 2.3694150178e+00	 6.1153936410e-01	 1.3153501195e+00
 2.3637637862e+00	 6.3303136939e-01	 1.2682736171e+00
 2.4196894088e+00	 4.2008126385e-01	 1.6845685314e+00
 2.4158684388e+00	 4.4152568900e-01	 1.6482811653e+00
 2.4118460362e+00	 4.6299471990e-01	 1.6102081432e+00
 2.4076210544e+00	 4.8448575701e-01	 1.5705050004e+00
 2.4031923878e+00	 5.0599616639e-01	 1.5293180881e+00
 2.3985589717e+00	 5.2752328041e-01	 1.4867883955e+00
 2.3937197842e+00	 5.4906439849e-01	 1.4430558786e+00
 2.3886738469e+00	 5.7061678778e-01	 1.3982643576e+00
 2.3834202258e+00	 5.9217768399e-01	 1.3525670415e+00
 2.3779580325e+00	 6.1374429222e-01	 1.3061327400e+00
 2.3722864252e+00	 6.3531378774e-01	 1.2591528195e+00
 2.4283824086e+00	 4.2159045190e-01	 1.6739153499e+00
 2.4245477113e+00	 4.4311191851e-01	 1.6380556855e+00
 2.4205108578e+00	 4.6465807926e-01	 1.6004469485e+00
 2.4162706973e+00	 4.8622632527e-01	 1.5612209593e+00
 2.4118261202e+00	 5.0781401316e-01	 1.5205011251e+00
 2.4071760580e+00	 5.2941846571e-01	 1.4784061265e+00
 2.4023194852e+00	 5.5103697261e-01	 1.4350541193e+00
 2.3972554198e+00	 5.7266679123e-01	 1.3905675162e+00
 2.3919829245e+00	 5.9430514733e-01	 1.3450784080e+00
 2.3865011078e+00	 6.1594923596e-01	 1.2987346869e+00
 2.3808091246e+00	 6.3759622226e-01	 1.2517069305e+00
 2.4370754872e+00	 4.2309965364e-01	 1.6637504899e+00
 2.4332270626e+00	 4.4469816239e-01	 1.6284654672e+00
 2.4291757579e+00	 4.6632145369e-01	 1.5915129529e+00
 2.4249204187e+00	 4.8796690932e-01	 1.5529820455e+00
 2.4204599309e+00	 5.0963187641e-01	 1.5129544403e+00
 2.4157932225e+00	 5.3131366818e-01	 1.4715080047e+00
 2.4109192643e+00	 5.5300956462e-01	 1.4287208771e+00
 2.4058370706e+00	 5.7471681326e-01	 1.3846761573e+00
 2.4005457009e+00	 5.9643262995e-01	 1.3394672497e+00
 2.3950442605e+00	 6.1815419969e-01	 1.2932039237e+00
 2.3893319012e+00	 6.3987867747e-01	 1.2460191520e+00
 2.4457686619e+00	 4.2460887205e-01	 1.6540928132e+00
 2.4419065097e+00	 4.4628442381e-01	 1.6195101473e+00
 2.4378407539e+00	 4.6798484651e-01	 1.5833915524e+00
 2.4335702356e+00	 4.8970751260e-01	 1.5457646579e+00
 2.4290938370e+00	 5.1144975975e-01	 1.5066509374e+00
 2.4244104823e+00	 5.3320889160e-01	 1.4660691948e+00
 2.4195191383e+00	 5.5498217842e-01	 1.4240395853e+00
 2.4144188162e+00	 5.7676685794e-01	 1.3805882385e+00
 2.4091085720e+00	 5.9856013608e-01	 1.3357525482e+00
 2.4035875076e+00	 6.2035918778e-01	 1.2895871953e+00
 2.3978547720e+00	 6.4216115791e-01	 1.2421709666e+00
 2.4544619498e+00	 4.2611811014e-01	 1.6449607089e+00
 2.4505860700e+00	 4.4787070589e-01	 1.6111891074e+00
 2.4465058627e+00	 4.6964826100e-01	 1.5760680362e+00
 2.4422201652e+00	 4.9144813856e-01	 1.5395451666e+00
 2.4377278557e+00	 5.1326766678e-01	 1.5015634953e+00
 2.4330278543e+00	 5.3510413971e-01	 1.4620647648e+00
 2.4281191245e+00	 5.5695481794e-01	 1.4209934305e+00
 2.4230006737e+00	 5.7881692935e-01	 1.3783012392e+00
 2.4176715546e+00	 6.0068766994e-01	 1.3339524917e+00
 2.4121308660e+00	 6.2256420462e-01	 1.2879300524e+00
 2.4063777539e+00	 6.4444366809e-01	 1.2402421737e+00
 2.4631553684e+00	 4.2762737088e-01	 1.6363720956e+00
 2.4592657606e+00	 4.4945701180e-01	 1.6035014720e+00
 2.4551711017e+00	 4.7131170048e-01	 1.5695275833e+00
 2.4508702248e+00	 4.9318879066e-01	 1.5342999085e+00
 2.4463620040e+00	 5.1508560111e-01	 1.4976649645e+00
 2.4416453558e+00	 5.3699941629e-01	 1.4594696851e+00
 2.4367192398e+00	 5.5892748707e-01	 1.4195653545e+00
 2.4315826600e+00	 5.8086703153e-01	 1.3778121685e+00
 2.4262346658e+00	 6.0281523574e-01	 1.3340844910e+00
 2.4206743528e+00	 6.2476925456e-01	 1.2882768762e+00
 2.4149008638e+00	 6.4672621255e-01	 1.2403109240e+00
 2.3296734959e+00	 6.2390176713e-01	 1.3197796464e+00
 2.3238973344e+00	 6.4508384729e-01	 1.2683128210e+00
 2.3179140106e+00	 6.6626313250e-01	 1.2148581800e+00
 2.3117228432e+00	 6.8743676824e-01	 1.1596642964e+00
 2.3053232003e+00	 7.0860187444e-01	 1.1030450811e+00
 2.2987145002e+00	 7.2975554654e-01	 1.0453913184e+00
 2.2918962120e+00	 7.5089485646e-01	 9.8713619491e-01
 2.2848678569e+00	 7.7201685366e-01	 9.2829942266e-01
 2.2776290086e+00	 7.9311856621e-01	 8.6878550296e-01
 2.2701792942e+00	 8.1419700195e-01	 8.0852776807e-01
 2.2625183949e+00	 8.3524914955e-01	 7.4746496265e-01
 2.3381960624e+00	 6.2618416607e-01	 1.3048268917e+00
 2.3323987702e+00	 6.4744373593e-01	 1.2549004568e+00
 2.3263935578e+00	 6.6870050062e-01	 1.2033945822e+00
 2.3201797415e+00	 6.8995159515e-01	 1.1504237620e+00
 2.3137566870e+00	 7.1119412895e-01	 1.0961698883e+00
 2.3071238104e+00	 7.3242518682e-01	 1.0408940190e+00
 2.3002805792e+00	 7.5364182997e-01	 9.8486625031e-01
 2.2932265125e+00	 7.7484109706e-01	 9.2791898437e-01
 2.2859611825e+00	 7.9602000531e-01	 8.6985845510e-01
 2.2784842151e+00	 8.1717555158e-01	 8.1051617548e-01
 2.2707952902e+00	 8.3830471354e-01	 7.4973269553e-01
 2.3467186217e+00	 6.2846656308e-01	 1.2911983167e+00
 2.3409001988e+00	 6.4980362257e-01	 1.2424054875e+00
 2.3348730978e+00	 6.7113786665e-01	 1.1923790224e+00
 2.3286366326e+00	 6.9246641992e-01	 1.1411329412e+00
 2.3221901665e+00	 7.1378638126e-01	 1.0887500264e+00
 2.3155331136e+00	 7.3509482484e-01	 1.0353937670e+00
 2.3086649392e+00	 7.5638880115e-01	 9.8118994899e-01
 2.3015851609e+00	 7.7766533807e-01	 9.2583279150e-01
 2.2942933494e+00	 7.9892144194e-01	 8.6906105785e-01
 2.2867891289e+00	 8.2015409868e-01	 8.1063319445e-01
 2.2790721784e+00	 8.4136027494e-01	 7.5031935423e-01
 2.3552411907e+00	 6.3074896268e-01	 1.2789843658e+00
 2.3494016370e+00	 6.5216351188e-01	 1.2309547161e+00
 2.3433526474e+00	 6.7357523546e-01	 1.1819648220e+00
 2.3370935332e+00	 6.9498124755e-01	 1.1319614737e+00
 2.3306236555e+00	 7.1637863651e-01	 1.0809608952e+00
 2.3239424262e+00	 7.3776446588e-01	 1.0290608085e+00
 2.3170493087e+00	 7.5913577544e-01	 9.7626028782e-01
 2.3099438189e+00	 7.8048958228e-01	 9.2216741932e-01
 2.3026255257e+00	 8.0182288185e-01	 8.6648136074e-01
 2.2950940522e+00	 8.2313264915e-01	 8.0891590062e-01
 2.2873490761e+00	 8.4441583981e-01	 7.4919825412e-01
 2.3637637862e+00	 6.3303136939e-01	 1.2682736171e+00
 2.3579031017e+00	 6.5452340855e-01	 1.2206725572e+00
 2.3518322235e+00	 6.7601261186e-01	 1.1723025435e+00
 2.3455504602e+00	 6.9749608302e-01	 1.1230760266e+00
 2.3390571709e+00	 7.1897089984e-01	 1.0729748712e+00
 2.3323517651e+00	 7.4043411524e-01	 1.0220624825e+00
 2.3254337044e+00	 7.6188275830e-01	 9.7022795356e-01
 2.3183025029e+00	 7.8331383529e-01	 9.1704751880e-01
 2.3109577280e+00	 8.0472433082e-01	 8.6220604933e-01
 2.3033990013e+00	 8.2611120891e-01	 8.0540074516e-01
 2.2956259995e+00	 8.4747141419e-01	 7.4634300922e-01
 2.3722864252e+00	 6.3531378774e-01	 1.2591528195e+00
 2.3664046098e+00	 6.5688331725e-01	 1.2116810857e+00
 2.3603118427e+00	 6.7845000069e-01	 1.1635400484e+00
 2.3540074304e+00	 7.0001093131e-01	 1.1146403597e+00
 2.3474907292e+00	 7.2156317639e-01	 1.0649613761e+00
 2.3407611469e+00	 7.4310377822e-01	 1.0145608133e+00
 2.3338181429e+00	 7.6462975516e-01	 9.6324136630e-01
 2.3266612295e+00	 7.8613810271e-01	 9.1059585364e-01
 2.3192899727e+00	 8.0762579458e-01	 8.5632047259e-01
 2.3117039928e+00	 8.2908978386e-01	 8.0012356924e-01
 2.3039029651e+00	 8.5052700417e-01	 7.4172753072e-01
 2.3808091246e+00	 6.3759622226e-01	 1.2517069305e+00
 2.3749061781e+00	 6.5924324268e-01	 1.2041000854e+00
 2.3687915221e+00	 6.8088740679e-01	 1.1558225550e+00
 2.3624644605e+00	 7.0252579742e-01	 1.1068153894e+00
 2.3559243474e+00	 7.2415547130e-01	 1.0570869453e+00
 2.3491705882e+00	 7.4577346011e-01	 1.0067130481e+00
 2.3422026407e+00	 7.6737677149e-01	 9.5544672202e-01
 2.3350200153e+00	 7.8896239013e-01	 9.0293333642e-01
 2.3276222765e+00	 8.1052727889e-01	 8.4890866972e-01
 2.3200090431e+00	 8.3206837992e-01	 7.9311961840e-01
 2.3121799894e+00	 8.5358261579e-01	 7.3532602537e-01
 2.3893319012e+00	 6.3987867747e-01	 1.2460191520e+00
 2.3834078235e+00	 6.6160318950e-01	 1.1980470968e+00
 2.3772712784e+00	 6.8332483499e-01	 1.1492926949e+00
 2.3709215672e+00	 7.0504068633e-01	 1.0997592518e+00
 2.3643580419e+00	 7.2674778972e-01	 1.0495152944e+00
 2.3575801058e+00	 7.4844316621e-01	 9.9867699352e-01
 2.3505872146e+00	 7.7012381272e-01	 9.4698803432e-01
 2.3433788770e+00	 7.9178670316e-01	 8.9417906419e-01
 2.3359546559e+00	 8.1342878952e-01	 8.4005339646e-01
 2.3283141687e+00	 8.3504700298e-01	 7.8442355653e-01
 2.3204570887e+00	 8.5663825511e-01	 7.2711299424e-01
 2.3978547720e+00	 6.4216115791e-01	 1.2421709666e+00
 2.3919095628e+00	 6.6396316239e-01	 1.1936374643e+00
 2.3857511283e+00	 6.8576229012e-01	 1.1440905691e+00
 2.3793787674e+00	 7.0755560303e-01	 1.0936273646e+00
 2.3727918297e+00	 7.2934013679e-01	 1.0424073854e+00
 2.3659897163e+00	 7.5111290181e-01	 9.9060814176e-01
 2.3589718811e+00	 7.7287088431e-01	 9.3800717523e-01
 2.3517378310e+00	 7.9461104741e-01	 8.8445035318e-01
 2.3442871273e+00	 8.1633033221e-01	 8.2983615095e-01
 2.3366193862e+00	 8.3802565895e-01	 7.7406947978e-01
 2.3287342795e+00	 8.5969392821e-01	 7.1706323139e-01
 2.4063777539e+00	 6.4444366809e-01	 1.2402421737e+00
 2.4004114129e+00	 6.6632316605e-01	 1.1909843825e+00
 2.3942310888e+00	 6.8819977702e-01	 1.1403538028e+00
 2.3878360779e+00	 7.1007055251e-01	 1.0885724890e+00
 2.3812257274e+00	 7.3193251764e-01	 1.0359214919e+00
 2.3743994365e+00	 7.5378267220e-01	 9.8265968366e-01
 2.3673566569e+00	 7.7561799170e-01	 9.2864391524e-01
 2.3600968939e+00	 7.9743542846e-01	 8.7386277298e-01
 2.3526197073e+00	 8.1923191271e-01	 8.1833719902e-01
 2.3449247118e+00	 8.4100435376e-01	 7.6209093013e-01
 2.3370115782e+00	 8.6274964113e-01	 7.0515182282e-01
 2.4149008638e+00	 6.4672621255e-01	 1.2403109240e+00
 2.4089133907e+00	 6.6868320514e-01	 1.1901989424e+00
 2.4027111766e+00	 6.9063730053e-01	 1.1382175998e+00
 2.3962935153e+00	 7.1258553976e-01	 1.0847447895e+00
 2.3896597517e+00	 7.3452493742e-01	 1.0302132628e+00
 2.3828092829e+00	 7.5645248269e-01	 9.7498255116e-01
 2.3757415586e+00	 7.7836514035e-01	 9.1903596257e-01
 2.3684560824e+00	 8.0025985193e-01	 8.6253017994e-01
 2.3609524125e+00	 8.2213353680e-01	 8.0563559909e-01
 2.3532301622e+00	 8.4398309329e-01	 7.4852090882e-01
 2.3452890012e+00	 8.6580539994e-01	 6.9135414541e-01
 2.2625183949e+00	 8.3524914955e-01	 7.4746496265e-01
 2.2546446902e+00	 8.5627555101e-01	 6.8646276382e-01
 2.2465592549e+00	 8.7726957648e-01	 6.2662127363e-01
 2.2382619351e+00	 8.9822816176e-01	 5.6820423766e-01
 2.2297526340e+00	 9.1914822827e-01	 5.1147619729e-01
 2.2210313121e+00	 9.4002668437e-01	 4.5663865734e-01
 2.2120979880e+00	 9.6086042659e-01	 3.9951804213e-01
 2.2029527390e+00	 9.8164634100e-01	 3.3840559365e-01
 2.1935957011e+00	 1.0023813045e+00	 2.7461661639e-01
 2.1840270702e+00	 1.0230621863e+00	 2.0949330441e-01
 2.1742471019e+00	 1.0436858490e+00	 1.4438366208e-01
 2.2707952902e+00	 8.3830471354e-01	 7.4973269553e-01
 2.2628927814e+00	 8.5940803518e-01	 6.8822914057e-01
 2.2547777674e+00	 8.8047886239e-01	 6.2710268800e-01
 2.2464500938e+00	 9.0151411976e-01	 5.6673303575e-01
 2.2379096633e+00	 9.2251071746e-01	 5.0749908671e-01
 2.2291564366e+00	 9.4346555251e-01	 4.4978031952e-01
 2.2201904320e+00	 9.6437551011e-01	 3.9377793219e-01
 2.2110117272e+00	 9.8523746494e-01	 3.3516436805e-01
 2.2016204588e+00	 1.0060482825e+00	 2.7303164963e-01
 2.1920168233e+00	 1.0268048204e+00	 2.0884927236e-01
 2.1822010773e+00	 1.0475039300e+00	 1.4409518501e-01
 2.2790721784e+00	 8.4136027494e-01	 7.5031935423e-01
 2.2711408655e+00	 8.6254051669e-01	 6.8868162952e-01
 2.2629962729e+00	 8.8368814558e-01	 6.2675855330e-01
 2.2546382455e+00	 9.0480007497e-01	 5.6501166545e-01
 2.2460666858e+00	 9.2587320378e-01	 5.0390089512e-01
 2.2372815541e+00	 9.4690441773e-01	 4.4388583244e-01
 2.2282828691e+00	 9.6789059065e-01	 3.8542714295e-01
 2.2190707086e+00	 9.8882858582e-01	 3.2858308890e-01
 2.2096452097e+00	 1.0097152573e+00	 2.6895355034e-01
 2.2000065696e+00	 1.0305474514e+00	 2.0644506643e-01
 2.1901550459e+00	 1.0513220077e+00	 1.4263856954e-01
 2.2873490761e+00	 8.4441583981e-01	 7.4919825412e-01
 2.2793889591e+00	 8.6567300176e-01	 6.8772851192e-01
 2.2712147877e+00	 8.8689743241e-01	 6.2544285489e-01
 2.2628264065e+00	 9.0808603391e-01	 5.6285092981e-01
 2.2542237175e+00	 9.2923569392e-01	 5.0046072635e-01
 2.2454066809e+00	 9.5034328684e-01	 4.3877980522e-01
 2.2363753154e+00	 9.7140567517e-01	 3.7831667273e-01
 2.2271296991e+00	 9.9241971078e-01	 3.1958230018e-01
 2.2176699697e+00	 1.0133822363e+00	 2.6231016960e-01
 2.2079963250e+00	 1.0342900865e+00	 2.0223603970e-01
 2.1981090235e+00	 1.0551400898e+00	 1.4000989633e-01
 2.2956259995e+00	 8.4747141419e-01	 7.4634300922e-01
 2.2876370783e+00	 8.6880549659e-01	 6.8527930843e-01
 2.2794333281e+00	 8.9010672924e-01	 6.2301160287e-01
 2.2710145930e+00	 9.1137200309e-01	 5.6006428146e-01
 2.2623807746e+00	 9.3259819454e-01	 4.9696079318e-01
 2.2535318330e+00	 9.5378216668e-01	 4.3422488693e-01
 2.2444677870e+00	 9.7492077064e-01	 3.7238200100e-01
 2.2351887148e+00	 9.9601084693e-01	 3.1196080090e-01
 2.2256947547e+00	 1.0170492267e+00	 2.5349486308e-01
 2.2159861053e+00	 1.0380327334e+00	 1.9617673112e-01
 2.2060630259e+00	 1.0589581837e+00	 1.3620369945e-01
 2.3039029651e+00	 8.5052700417e-01	 7.4172753072e-01
 2.2958852396e+00	 8.7193800740e-01	 6.8124476111e-01
 2.2876519105e+00	 8.9331604244e-01	 6.1932280033e-01
 2.2792028213e+00	 9.1465798904e-01	 5.5646778006e-01
 2.2705378734e+00	 9.3596071231e-01	 4.9318636708e-01
 2.2616570266e+00	 9.5722106406e-01	 4.2998706964e-01
 2.2525602997e+00	 9.7843588405e-01	 3.6738169651e-01
 2.2432477715e+00	 9.9960200140e-01	 3.0588696764e-01
 2.2337195806e+00	 1.0207162359e+00	 2.4602627356e-01
 2.2239759263e+00	 1.0417753994e+00	 1.8833157967e-01
 2.2140170689e+00	 1.0627762972e+00	 1.3121298265e-01
 2.3121799894e+00	 8.5358261579e-01	 7.3532602537e-01
 2.3041334593e+00	 8.7507054039e-01	 6.7553681580e-01
 2.2958705511e+00	 8.9652537837e-01	 6.1423641246e-01
 2.2873911076e+00	 9.1794399826e-01	 5.5188005090e-01
 2.2786950299e+00	 9.3932325391e-01	 4.8892572910e-01
 2.2697822777e+00	 9.6065998580e-01	 4.2583563472e-01
 2.2606528699e+00	 9.8195102236e-01	 3.6307772818e-01
 2.2513068854e+00	 1.0031931813e+00	 3.0112748003e-01
 2.2417444634e+00	 1.0243832710e+00	 2.4046975976e-01
 2.2319658039e+00	 1.0455180918e+00	 1.8160087187e-01
 2.2219711682e+00	 1.0665944377e+00	 1.2502923630e-01
 2.3204570887e+00	 8.5663825511e-01	 7.2711299424e-01
 2.3123817538e+00	 8.7820310180e-01	 6.6806860509e-01
 2.3040892662e+00	 8.9973474341e-01	 6.0761433638e-01
 2.2955794682e+00	 9.2123003728e-01	 5.4612224446e-01
 2.2868522604e+00	 9.4268582599e-01	 4.8397012202e-01
 2.2779076024e+00	 9.6409893872e-01	 4.2154310054e-01
 2.2687455134e+00	 9.8546619255e-01	 3.5923541127e-01
 2.2593660723e+00	 1.0067843938e+00	 2.9745230303e-01
 2.2497694189e+00	 1.0280503394e+00	 2.3661211379e-01
 2.2399557540e+00	 1.0492608182e+00	 1.7714849135e-01
 2.2299253397e+00	 1.0704126128e+00	 1.1951275742e-01
 2.3287342795e+00	 8.5969392821e-01	 7.1706323139e-01
 2.3206301395e+00	 8.8133569782e-01	 6.5875443168e-01
 2.3123080721e+00	 9.0294414392e-01	 5.9932037181e-01
 2.3037679192e+00	 9.2451611261e-01	 5.3901799693e-01
 2.2950095810e+00	 9.4604843524e-01	 4.7811370362e-01
 2.2860330170e+00	 9.6753792965e-01	 4.1688517129e-01
 2.2768382463e+00	 9.8898140158e-01	 3.5562335479e-01
 2.2674253482e+00	 1.0103756459e+00	 2.9463463602e-01
 2.2577944631e+00	 1.0317174483e+00	 2.3424313122e-01
 2.2479457923e+00	 1.0530035860e+00	 1.7479314888e-01
 2.2378795990e+00	 1.0742308301e+00	 1.1665179203e-01
 2.3370115782e+00	 8.6274964113e-01	 7.0515182282e-01
 2.3288786326e+00	 8.8446833467e-01	 6.4750975223e-01
 2.3205269851e+00	 9.0615358625e-01	 5.8922019240e-01
 2.3119564770e+00	 9.2780223078e-01	 5.3039339181e-01
 2.3031670080e+00	 9.4941108831e-01	 4.7115350115e-01
 2.2941585375e+00	 9.7097696541e-01	 4.1164068719e-01
 2.2849310847e+00	 9.9249665643e-01	 3.5201341033e-01
 2.2754847292e+00	 1.0139669449e+00	 2.9245086314e-01
 2.2658196119e+00	 1.0353846049e+00	 2.3315556602e-01
 2.2559359348e+00	 1.0567464026e+00	 1.7435611456e-01
 2.2458339620e+00	 1.0780490972e+00	 1.1631007178e-01
 2.3452890012e+00	 8.6580539994e-01	 6.9135414541e-01
 2.3371272496e+00	 8.8760101857e-01	 6.3425116167e-01
 2.3287460216e+00	 9.0936307679e-01	 5.7718131782e-01
 2.3201451577e+00	 9.3108839829e-01	 5.2007692233e-01
 2.3113245574e+00	 9.5277379189e-01	 4.6288936683e-01
 2.3022841800e+00	 9.7441605281e-01	 4.0559157579e-01
 2.2930240446e+00	 9.9601196407e-01	 3.4818062203e-01
 2.2835442313e+00	 1.0175582978e+00	 2.9068050491e-01
 2.2738448812e+00	 1.0390518167e+00	 2.3314508676e-01
 2.2639261973e+00	 1.0604892753e+00	 1.7566118167e-01
 2.2537884445e+00	 1.0818674217e+00	 1.1835178899e-01
 2.1742471019e+00	 1.0436858490e+00	 1.4438366208e-01
 2.1642578281e+00	 1.0642456601e+00	 7.9550091231e-02
 2.1540579796e+00	 1.0847419850e+00	 1.4747008254e-02
 2.1436479923e+00	 1.1051716761e+00	-4.9448365494e-02
 2.1330283633e+00	 1.1255315851e+00	-1.1258105103e-01
 2.1221996512e+00	 1.1458185643e+00	-1.7446661067e-01
 2.1111624763e+00	 1.1660294682e+00	-2.3492952080e-01
 2.0999175207e+00	 1.1861611550e+00	-2.9385411843e-01
 2.0884655282e+00	 1.2062104879e+00	-3.5119459486e-01
 2.0768073048e+00	 1.2261743371e+00	-4.0697754545e-01
 2.0649437185e+00	 1.2460495804e+00	-4.6130404673e-01
 2.1822010773e+00	 1.0475039300e+00	 1.4409518501e-01
 2.1721752601e+00	 1.0681389543e+00	 7.9330451377e-02
 2.1619380978e+00	 1.0887102603e+00	 1.4542375812e-02
 2.1514900279e+00	 1.1092146886e+00	-4.9656775072e-02
 2.1408315495e+00	 1.1296490796e+00	-1.1282150043e-01
 2.1299632231e+00	 1.1500102740e+00	-1.7474327672e-01
 2.1188856713e+00	 1.1702951147e+00	-2.3521206043e-01
 2.1075995786e+00	 1.1905004486e+00	-2.9408675272e-01
 2.0961056917e+00	 1.2106231274e+00	-3.5129906555e-01
 2.0844048195e+00	 1.2306600096e+00	-4.0685609495e-01
 2.0724978330e+00	 1.2506079619e+00	-4.6084240588e-01
 2.1901550459e+00	 1.0513220077e+00	 1.4263856954e-01
 2.1800926853e+00	 1.0720322453e+00	 7.8382206410e-02
 2.1698182093e+00	 1.0926785322e+00	 1.3915585770e-02
 2.1593320570e+00	 1.1132576977e+00	-5.0095109873e-02
 2.1486347291e+00	 1.1337665706e+00	-1.1320912431e-01
 2.1377267885e+00	 1.1542019801e+00	-1.7515481011e-01
 2.1266088598e+00	 1.1745607577e+00	-2.3567471154e-01
 2.1152816300e+00	 1.1948397385e+00	-2.9458469946e-01
 2.1037458487e+00	 1.2150357631e+00	-3.5177710522e-01
 2.0920023276e+00	 1.2351456783e+00	-4.0722334424e-01
 2.0800519410e+00	 1.2551663394e+00	-4.6097603438e-01
 2.1981090235e+00	 1.0551400898e+00	 1.4000989633e-01
 2.1880101195e+00	 1.0759255406e+00	 7.6745652042e-02
 2.1776983297e+00	 1.0966468086e+00	 1.2944565854e-02
 2.1671740948e+00	 1.1173007114e+00	-5.0661533727e-02
 2.1564379176e+00	 1.1378840663e+00	-1.1361308410e-01
 2.1454903626e+00	 1.1583936909e+00	-1.7555269739e-01
 2.1343320569e+00	 1.1788264054e+00	-2.3615823671e-01
 2.1229636902e+00	 1.1991790334e+00	-2.9518513652e-01
 2.1113860144e+00	 1.2194484037e+00	-3.5246963135e-01
 2.0995998444e+00	 1.2396313521e+00	-4.0793145598e-01
 2.0876060576e+00	 1.2597247222e+00	-4.6157602284e-01
 2.2060630259e+00	 1.0589581837e+00	 1.3620369945e-01
 2.1959275783e+00	 1.0798188481e+00	 7.4458742828e-02
 2.1855784746e+00	 1.1006150974e+00	 1.1704190992e-02
 2.1750161572e+00	 1.1213437377e+00	-5.1253820985e-02
 2.1642411303e+00	 1.1420015748e+00	-1.1390629333e-01
 2.1532539609e+00	 1.1625854149e+00	-1.7579244820e-01
 2.1420552782e+00	 1.1830920665e+00	-2.3650758851e-01
 2.1306457742e+00	 1.2035183418e+00	-2.9572949258e-01
 2.1190262039e+00	 1.2238610582e+00	-3.5322176483e-01
 2.1071973849e+00	 1.2441170398e+00	-4.0883663874e-01
 2.0951601978e+00	 1.2642831191e+00	-4.6251723834e-01
 2.2140170689e+00	 1.0627762972e+00	 1.3121298265e-01
 2.2038450776e+00	 1.0837121755e+00	 7.1557121175e-02
 2.1934586598e+00	 1.1045834064e+00	 1.0266323353e-02
 2.1828582595e+00	 1.1253867846e+00	-5.1772249285e-02
 2.1720443829e+00	 1.1461191043e+00	-1.1396533106e-01
 2.1610175988e+00	 1.1667771602e+00	-1.7573350020e-01
 2.1497785389e+00	 1.1873577493e+00	-2.3657180775e-01
 2.1383278975e+00	 1.2078576723e+00	-2.9606334055e-01
 2.1266664324e+00	 1.2282737351e+00	-3.5388272060e-01
 2.1147949641e+00	 1.2486027505e+00	-4.0979903678e-01
 2.1027143765e+00	 1.2688415393e+00	-4.6367821537e-01
 2.2219711682e+00	 1.0665944377e+00	 1.2502923630e-01
 2.2117626329e+00	 1.0876055305e+00	 6.8074146735e-02
 2.2013389008e+00	 1.1085517435e+00	 8.6998525259e-03
 2.1907004174e+00	 1.1294298602e+00	-5.2120322818e-02
 2.1798476908e+00	 1.1502366630e+00	-1.1367035543e-01
 2.1687812918e+00	 1.1709689352e+00	-1.7523912428e-01
 2.1575018542e+00	 1.1916234624e+00	-2.3620392224e-01
 2.1460100752e+00	 1.2121970336e+00	-2.9603629158e-01
 2.1343067149e+00	 1.2326864433e+00	-3.5430569873e-01
 2.1223925971e+00	 1.2530884929e+00	-4.1068262026e-01
 2.1102686087e+00	 1.2733999918e+00	-4.6494104709e-01
 2.2299253397e+00	 1.0704126128e+00	 1.1951275742e-01
 2.2196802600e+00	 1.0914989207e+00	 6.4040926203e-02
 2.2092192132e+00	 1.1125201166e+00	 7.0702217402e-03
 2.1985426464e+00	 1.1334729724e+00	-5.2204696048e-02
 2.1876510694e+00	 1.1543542590e+00	-1.1290501746e-01
 2.1765450551e+00	 1.1751607482e+00	-1.7417633014e-01
 2.1652252396e+00	 1.1958892141e+00	-2.3526084577e-01
 2.1536923225e+00	 1.2165364342e+00	-2.9550188945e-01
 2.1419470668e+00	 1.2370991916e+00	-3.5434777605e-01
 2.1299902990e+00	 1.2575742760e+00	-4.1135507590e-01
 2.1178229093e+00	 1.2779584857e+00	-4.6619127703e-01
 2.2378795990e+00	 1.0742308301e+00	 1.1665179203e-01
 2.2275979746e+00	 1.0953923540e+00	 6.0315974997e-02
 2.2170996128e+00	 1.1164885336e+00	 5.4341648500e-03
 2.2063849620e+00	 1.1375161293e+00	-5.1935097481e-02
 2.1954545342e+00	 1.1584719005e+00	-1.1155637511e-01
 2.1843089042e+00	 1.1793526076e+00	-1.7241577220e-01
 2.1729487103e+00	 1.2001550129e+00	-2.3360327769e-01
 2.1613746547e+00	 1.2208758827e+00	-2.9431750541e-01
 2.1495875031e+00	 1.2415119885e+00	-3.5386979809e-01
 2.1375880849e+00	 1.2620601087e+00	-4.1168769796e-01
 2.1253772935e+00	 1.2825170299e+00	-4.6731779100e-01
 2.2458339620e+00	 1.0780490972e+00	 1.1631007178e-01
 2.2355157924e+00	 1.0992858380e+00	 5.9417170693e-02
 2.2249801150e+00	 1.1204570023e+00	 4.0488347079e-03
 2.2142273799e+00	 1.1415593388e+00	-5.1224253462e-02
 2.2032581007e+00	 1.1625895957e+00	-1.0951480740e-01
 2.1920728544e+00	 1.1835445216e+00	-1.6983165579e-01
 2.1806722817e+00	 1.2044208674e+00	-2.3109560275e-01
 2.1690570871e+00	 1.2252153879e+00	-2.9234423344e-01
 2.1572280389e+00	 1.2459248430e+00	-3.5273627159e-01
 2.1451859698e+00	 1.2665459998e+00	-4.1155527971e-01
 2.1329317761e+00	 1.2870756335e+00	-4.6821270933e-01
 2.2537884445e+00	 1.0818674217e+00	 1.1835178899e-01
 2.2434337292e+00	 1.1031793805e+00	 6.1433030318e-02
 2.2328607355e+00	 1.1244255306e+00	 5.2583829875e-03
 2.2220699155e+00	 1.1456026092e+00	-4.9987812006e-02
 2.2110617844e+00	 1.1667073527e+00	-1.0667392879e-01
 2.1998369213e+00	 1.1877364985e+00	-1.6630164359e-01
 2.1883959691e+00	 1.2086867859e+00	-2.2760579130e-01
 2.1767396348e+00	 1.2295549582e+00	-2.8944678593e-01
 2.1648686895e+00	 1.2503377638e+00	-3.5081525726e-01
 2.1527839688e+00	 1.2710319583e+00	-4.1083600517e-01
 2.1404863722e+00	 1.2916343056e+00	-4.6877127948e-01
 2.0649437185e+00	 1.2460495804e+00	-4.6130404673e-01
 2.0528756997e+00	 1.2658331062e+00	-5.1503139308e-01
 2.0406042425e+00	 1.2855218152e+00	-5.6869544216e-01
 2.0281304037e+00	 1.3051126218e+00	-6.2203900266e-01
 2.0154553015e+00	 1.3246024542e+00	-6.7489515516e-01
 2.0025801153e+00	 1.3439882566e+00	-7.2718806684e-01
 1.9895060861e+00	 1.3632669907e+00	-7.7893342245e-01
 1.9762345155e+00	 1.3824356367e+00	-8.3023849728e-01
 1.9627667656e+00	 1.4014911956e+00	-8.8130189998e-01
 1.9491042590e+00	 1.4204306899e+00	-9.3241301562e-01
 1.9352484777e+00	 1.4392511656e+00	-9.8395118069e-01
 2.0724978330e+00	 1.2506079619e+00	-4.6084240588e-01
 2.0603856661e+00	 1.2704638610e+00	-5.1416390134e-01
 2.0480693167e+00	 1.2902245966e+00	-5.6741525153e-01
 2.0355498453e+00	 1.3098870716e+00	-6.2034021546e-01
 2.0228283741e+00	 1.3294482030e+00	-6.7277264719e-01
 2.0099060871e+00	 1.3489049238e+00	-7.2463721977e-01
 1.9967842296e+00	 1.3682541846e+00	-7.7594975868e-01
 1.9834641080e+00	 1.3874929547e+00	-8.2681721170e-01
 1.9699470896e+00	 1.4066182239e+00	-8.7743728425e-01
 1.9562346018e+00	 1.4256270039e+00	-9.2809777198e-01
 1.9423281324e+00	 1.4445163299e+00	-9.7917562354e-01
 2.0800519410e+00	 1.2551663394e+00	-4.6097603438e-01
 2.0678956261e+00	 1.2750946119e+00	-5.1396113279e-01
 2.0555343845e+00	 1.2949273741e+00	-5.6681875245e-01
 2.0429692805e+00	 1.3146615173e+00	-6.1930139533e-01
 2.0302014405e+00	 1.3342939476e+00	-6.7125130451e-01
 2.0172320527e+00	 1.3538215869e+00	-7.2260108055e-01
 2.0040623669e+00	 1.3732413744e+00	-7.7337390072e-01
 1.9906936944e+00	 1.3925502684e+00	-8.2368336908e-01
 1.9771274074e+00	 1.4117452479e+00	-8.7373302805e-01
 1.9633649386e+00	 1.4308233135e+00	-9.2381556411e-01
 1.9494077810e+00	 1.4497814898e+00	-9.7431174249e-01
 2.0876060576e+00	 1.2597247222e+00	-4.6157602284e-01
 2.0754055947e+00	 1.2797253681e+00	-5.1431587030e-01
 2.0629994608e+00	 1.2996301568e+00	-5.6681809478e-01
 2.0503887242e+00	 1.3194359685e+00	-6.1885165311e-01
 2.0375745152e+00	 1.3391396978e+00	-6.7027471395e-01
 2.0245580265e+00	 1.3587382555e+00	-7.2103514995e-01
 2.0113405125e+00	 1.3782285698e+00	-7.7117062594e-01
 1.9979232890e+00	 1.3976075879e+00	-8.2080831264e-01
 1.9843077334e+00	 1.4168722776e+00	-8.7016425784e-01
 1.9704952835e+00	 1.4360196290e+00	-9.1954244912e-01
 1.9564874378e+00	 1.4550466556e+00	-9.6933360422e-01
 2.0951601978e+00	 1.2642831191e+00	-4.6251723834e-01
 2.0829155867e+00	 1.2843561387e+00	-5.1512436331e-01
 2.0704645604e+00	 1.3043329542e+00	-5.6732861864e-01
 2.0578081910e+00	 1.3242104345e+00	-6.1892304860e-01
 2.0449476129e+00	 1.3439854631e+00	-6.6978920672e-01
 2.0318840232e+00	 1.3636549395e+00	-7.1989750679e-01
 2.0186186807e+00	 1.3832157807e+00	-7.6930716327e-01
 2.0051529062e+00	 1.4026649231e+00	-8.1816575197e-01
 1.9914880817e+00	 1.4219993234e+00	-8.6670842422e-01
 1.9776256506e+00	 1.4412159607e+00	-9.1525681025e-01
 1.9635671165e+00	 1.4603118379e+00	-9.6421764932e-01
 2.1027143765e+00	 1.2688415393e+00	-4.6367821537e-01
 2.0904256169e+00	 1.2889869330e+00	-5.1628622075e-01
 2.0779296980e+00	 1.3090357756e+00	-5.6826874862e-01
 2.0652276956e+00	 1.3289849249e+00	-6.1945048564e-01
 2.0523207483e+00	 1.3488312531e+00	-6.6974375370e-01
 2.0392100573e+00	 1.3685716485e+00	-7.1914870286e-01
 2.0258968861e+00	 1.3882030171e+00	-7.6775308715e-01
 2.0123825602e+00	 1.4077222841e+00	-8.1573165540e-01
 1.9986684667e+00	 1.4271263953e+00	-8.6334519187e-01
 1.9847560540e+00	 1.4464123189e+00	-9.1093924394e-01
 1.9706468314e+00	 1.4655770470e+00	-9.5894257571e-01
 2.1102686087e+00	 1.2733999918e+00	-4.6494104709e-01
 2.0979357004e+00	 1.2936177600e+00	-5.1770430418e-01
 2.0853948885e+00	 1.3137386303e+00	-5.6955988822e-01
 2.0726472528e+00	 1.3337594491e+00	-6.2037160723e-01
 2.0596939358e+00	 1.3536770774e+00	-6.7008986075e-01
 2.0465361432e+00	 1.3734883924e+00	-7.1875165784e-01
 2.0331751430e+00	 1.3931902888e+00	-7.6648021135e-01
 2.0196122654e+00	 1.4127796809e+00	-8.1348414215e-01
 2.0058489026e+00	 1.4322535035e+00	-8.6005632957e-01
 1.9918865080e+00	 1.4516087140e+00	-9.0657244681e-01
 1.9777265965e+00	 1.4708422934e+00	-9.5348922204e-01
 2.1178229093e+00	 1.2779584857e+00	-4.6619127703e-01
 2.1054458520e+00	 1.2982486290e+00	-5.1928462112e-01
 2.0928601467e+00	 1.3184415276e+00	-5.7112631445e-01
 2.0800668772e+00	 1.3385340166e+00	-6.2162669084e-01
 2.0670671902e+00	 1.3585229457e+00	-6.7078146410e-01
 2.0538622956e+00	 1.3784051808e+00	-7.1867155415e-01
 2.0404534659e+00	 1.3981776057e+00	-7.6546248281e-01
 2.0268420362e+00	 1.4178371236e+00	-8.1140337454e-01
 2.0130294035e+00	 1.4373806582e+00	-8.5682559998e-01
 1.9990170267e+00	 1.4568051561e+00	-9.0214110261e-01
 1.9848064257e+00	 1.4761075875e+00	-9.4784045102e-01
 2.1253772935e+00	 1.2825170299e+00	-4.6731779100e-01
 2.1129560865e+00	 1.3028795492e+00	-5.2093621864e-01
 2.1003254874e+00	 1.3231444770e+00	-5.7289507250e-01
 2.0874865836e+00	 1.3433086369e+00	-6.2315854364e-01
 2.0744405261e+00	 1.3633688675e+00	-6.7177482567e-01
 2.0611885290e+00	 1.3833220236e+00	-7.1887573184e-01
 2.0477318693e+00	 1.4031649778e+00	-7.6467587543e-01
 2.0340718869e+00	 1.4228946221e+00	-8.0947145005e-01
 2.0202099838e+00	 1.4425078696e+00	-8.5363864949e-01
 2.0061476241e+00	 1.4620016556e+00	-8.9763176909e-01
 1.9918863332e+00	 1.4813729399e+00	-9.4198103282e-01
 2.1329317761e+00	 1.2870756335e+00	-4.6821270933e-01
 2.1204664190e+00	 1.3075105298e+00	-5.2257107722e-01
 2.1077909254e+00	 1.3278474876e+00	-5.7479587061e-01
 2.0949063868e+00	 1.3480833194e+00	-6.2491239792e-01
 2.0818139581e+00	 1.3682148525e+00	-6.7302842840e-01
 2.0685148578e+00	 1.3882389304e+00	-7.1933358330e-01
 2.0550103675e+00	 1.4081524148e+00	-7.6409828367e-01
 2.0413018318e+00	 1.4279521866e+00	-8.0767229326e-01
 2.0273906577e+00	 1.4476351478e+00	-8.5048289788e-01
 2.0132783144e+00	 1.4671982229e+00	-8.9303276480e-01
 1.9989663329e+00	 1.4866383608e+00	-9.3585639872e-01
 2.1404863722e+00	 1.2916343056e+00	-4.6877127948e-01
 2.1279768642e+00	 1.3121415799e+00	-5.2410400465e-01
 2.1152564755e+00	 1.3325505688e+00	-5.7676097501e-01
 2.1023263013e+00	 1.3528580736e+00	-6.2683580644e-01
 2.0891875008e+00	 1.3730609102e+00	-6.7450287165e-01
 2.0758412966e+00	 1.3931559111e+00	-7.2001644811e-01
 2.0622889750e+00	 1.4131399268e+00	-7.6370941620e-01
 2.0485318853e+00	 1.4330098270e+00	-8.0599154775e-01
 2.0345714394e+00	 1.4527625030e+00	-8.4734742789e-01
 2.0204091119e+00	 1.4723948682e+00	-8.8833405580e-01
 2.0060464390e+00	 1.4919038608e+00	-9.2942059281e-01
 1.9352484777e+00	 1.4392511656e+00	-9.8395118069e-01
 1.9211985599e+00	 1.4579528601e+00	-1.0336793505e+00
 1.9069584527e+00	 1.4765296504e+00	-1.0796131706e+00
 1.8925298230e+00	 1.4949786493e+00	-1.1220007049e+00
 1.8779143959e+00	 1.5132969987e+00	-1.1596999641e+00
 1.8631139533e+00	 1.5314818712e+00	-1.1929742824e+00
 1.8481303335e+00	 1.5495304716e+00	-1.2222583329e+00
 1.8329654303e+00	 1.5674400381e+00	-1.2493127078e+00
 1.8176211925e+00	 1.5852078436e+00	-1.2752666555e+00
 1.8020996229e+00	 1.6028311975e+00	-1.3005020918e+00
 1.7864027773e+00	 1.6203074465e+00	-1.3251577834e+00
 1.9423281324e+00	 1.4445163299e+00	-9.7917562354e-01
 1.9282268163e+00	 1.4632864402e+00	-1.0286247057e+00
 1.9139346149e+00	 1.4819311894e+00	-1.0746283504e+00
 1.8994532015e+00	 1.5004476796e+00	-1.1167901801e+00
 1.8847843073e+00	 1.5188330424e+00	-1.1544279160e+00
 1.8699297207e+00	 1.5370844401e+00	-1.1878595885e+00
 1.8548912868e+00	 1.5551990671e+00	-1.2174328599e+00
 1.8396709063e+00	 1.5731741515e+00	-1.2441785437e+00
 1.8242705352e+00	 1.5910069564e+00	-1.2699314076e+00
 1.8086921836e+00	 1.6086947811e+00	-1.2951147653e+00
 1.7929379148e+00	 1.6262349630e+00	-1.3198641405e+00
 1.9494077810e+00	 1.4497814898e+00	-9.7431174249e-01
 1.9352550667e+00	 1.4686200158e+00	-1.0233825070e+00
 1.9209107712e+00	 1.4873327238e+00	-1.0692830238e+00
 1.9063765741e+00	 1.5059167053e+00	-1.1111391480e+00
 1.8916542128e+00	 1.5243690814e+00	-1.1487420096e+00
 1.8767454823e+00	 1.5426870042e+00	-1.1823739542e+00
 1.8616522344e+00	 1.5608676577e+00	-1.2123476182e+00
 1.8463763767e+00	 1.5789082600e+00	-1.2391373081e+00
 1.8309198723e+00	 1.5968060642e+00	-1.2647060258e+00
 1.8152847387e+00	 1.6145583599e+00	-1.2898567686e+00
 1.7994730467e+00	 1.6321624744e+00	-1.3147161986e+00
 1.9564874378e+00	 1.4550466556e+00	-9.6933360422e-01
 1.9422833250e+00	 1.4739535975e+00	-1.0179236388e+00
 1.9278869355e+00	 1.4927342643e+00	-1.0634912650e+00
 1.9132999545e+00	 1.5113857372e+00	-1.1050424341e+00
 1.8985241261e+00	 1.5299051268e+00	-1.1426336985e+00
 1.8835612516e+00	 1.5482895746e+00	-1.1765062408e+00
 1.8684131896e+00	 1.5665362547e+00	-1.2069322847e+00
 1.8530818547e+00	 1.5846423750e+00	-1.2342078018e+00
 1.8375692170e+00	 1.6026051786e+00	-1.2596121919e+00
 1.8218773012e+00	 1.6204219452e+00	-1.2847472792e+00
 1.8060081860e+00	 1.6380899926e+00	-1.3097319796e+00
 1.9635671165e+00	 1.4603118379e+00	-9.6421764932e-01
 1.9493116053e+00	 1.4792871957e+00	-1.0122214286e+00
 1.9348631214e+00	 1.4981358216e+00	-1.0572515788e+00
 1.9202233566e+00	 1.5168547861e+00	-1.0984945373e+00
 1.9053940608e+00	 1.5354411893e+00	-1.1360941860e+00
 1.8903770422e+00	 1.5538921625e+00	-1.1702451236e+00
 1.8751741659e+00	 1.5722048695e+00	-1.2011738306e+00
 1.8597873535e+00	 1.5903765079e+00	-1.2291312618e+00
 1.8442185823e+00	 1.6084043111e+00	-1.2546685380e+00
 1.8284698844e+00	 1.6262855489e+00	-1.2798025980e+00
 1.8125433457e+00	 1.6440175292e+00	-1.3049267877e+00
 1.9706468314e+00	 1.4655770470e+00	-9.5894257571e-01
 1.9563399214e+00	 1.4846208212e+00	-1.0062290412e+00
 1.9418393430e+00	 1.5035374065e+00	-1.0505620688e+00
 1.9271467939e+00	 1.5223238629e+00	-1.0914896419e+00
 1.9122640306e+00	 1.5409772801e+00	-1.1291144355e+00
 1.8971928675e+00	 1.5594947790e+00	-1.1635790997e+00
 1.8819351767e+00	 1.5778735131e+00	-1.1950590974e+00
 1.8664928866e+00	 1.5961106701e+00	-1.2237551869e+00
 1.8508679816e+00	 1.6142034732e+00	-1.2498906922e+00
 1.8350625011e+00	 1.6321491824e+00	-1.2750361965e+00
 1.8190785387e+00	 1.6499450961e+00	-1.3003132613e+00
 1.9777265965e+00	 1.4708422934e+00	-9.5348922204e-01
 1.9633682873e+00	 1.4899544845e+00	-9.9983734642e-01
 1.9488156140e+00	 1.5089390297e+00	-1.0434204511e+00
 1.9340702803e+00	 1.5277929785e+00	-1.0840216294e+00
 1.9191340490e+00	 1.5465134101e+00	-1.1216851803e+00
 1.9040087412e+00	 1.5650974351e+00	-1.1564964962e+00
 1.8886962354e+00	 1.5835421969e+00	-1.1885748037e+00
 1.8731984671e+00	 1.6018448729e+00	-1.2180655408e+00
 1.8575174280e+00	 1.6200026763e+00	-1.2451324225e+00
 1.8416551646e+00	 1.6380128575e+00	-1.2704587651e+00
 1.8256137780e+00	 1.6558727049e+00	-1.2959014234e+00
 1.9848064257e+00	 1.4761075875e+00	-9.4784045102e-01
 1.9703967169e+00	 1.4952881961e+00	-9.9303628628e-01
 1.9557919482e+00	 1.5143407018e+00	-1.0358240682e+00
 1.9409938295e+00	 1.5332621437e+00	-1.0760840900e+00
 1.9260041297e+00	 1.5520495904e+00	-1.1137969334e+00
 1.9108246766e+00	 1.5707001421e+00	-1.1489854782e+00
 1.8954573554e+00	 1.5892109321e+00	-1.1817075518e+00
 1.8799041085e+00	 1.6075791276e+00	-1.2120482028e+00
 1.8641669346e+00	 1.6258019321e+00	-1.2401116553e+00
 1.8482478878e+00	 1.6438765857e+00	-1.2660782614e+00
 1.8321490766e+00	 1.6618003675e+00	-1.2916987332e+00
 1.9918863332e+00	 1.4813729399e+00	-9.4198103282e-01
 1.9774252242e+00	 1.5006219666e+00	-9.8582712407e-01
 1.9627683595e+00	 1.5197424337e+00	-1.0277699030e+00
 1.9479174551e+00	 1.5387313693e+00	-1.0676703350e+00
 1.9328742864e+00	 1.5575858317e+00	-1.1054399974e+00
 1.9176406873e+00	 1.5763029110e+00	-1.1410340573e+00
 1.9022185501e+00	 1.5948797299e+00	-1.1744438340e+00
 1.8866098240e+00	 1.6133134458e+00	-1.2056889732e+00
 1.8708165148e+00	 1.6316012519e+00	-1.2348092917e+00
 1.8548406839e+00	 1.6497403788e+00	-1.2618563501e+00
 1.8386844474e+00	 1.6677280956e+00	-1.2877101366e+00
 1.9989663329e+00	 1.4866383608e+00	-9.3585639872e-01
 1.9844538231e+00	 1.5059558067e+00	-9.7821068786e-01
 1.9697448618e+00	 1.5251442359e+00	-1.0192545924e+00
 1.9548411710e+00	 1.5442006662e+00	-1.0587734085e+00
 1.9397445325e+00	 1.5631221453e+00	-1.0966044744e+00
 1.9244567869e+00	 1.5819057529e+00	-1.1326300993e+00
 1.9089798329e+00	 1.6005486016e+00	-1.1667700398e+00
 1.8933156268e+00	 1.6190478386e+00	-1.1989735786e+00
 1.8774661816e+00	 1.6374006473e+00	-1.2292112634e+00
 1.8614335659e+00	 1.6556042483e+00	-1.2574663643e+00
 1.8452199034e+00	 1.6736559010e+00	-1.2839381182e+00
 2.0060464390e+00	 1.4919038608e+00	-9.2942059281e-01
 1.9914825276e+00	 1.5112897269e+00	-9.7018738641e-01
 1.9767214688e+00	 1.5305461193e+00	-1.0102744416e+00
 1.9617649909e+00	 1.5496700452e+00	-1.0493860985e+00
 1.9466148819e+00	 1.5686585420e+00	-1.0872802762e+00
 1.9312729888e+00	 1.5875086789e+00	-1.1237613329e+00
 1.9157412173e+00	 1.6062175584e+00	-1.1586724618e+00
 1.9000215304e+00	 1.6247823176e+00	-1.1918876769e+00
 1.8841159483e+00	 1.6432001298e+00	-1.2233034487e+00
 1.8680265469e+00	 1.6614682058e+00	-1.2528300489e+00
 1.8517554575e+00	 1.6795837954e+00	-1.2803827512e+00
 1.7864027773e+00	 1.6203074465e+00	-1.3251577834e+00
 1.7705354717e+00	 1.6376310489e+00	-1.3506031847e+00
 1.7544971874e+00	 1.6548024385e+00	-1.3777745804e+00
 1.7382901052e+00	 1.6718191124e+00	-1.4058690703e+00
 1.7219164549e+00	 1.6886786099e+00	-1.4339576864e+00
 1.7053785146e+00	 1.7053785146e+00	-1.4610247293e+00
 1.6886786099e+00	 1.7219164549e+00	-1.4860074798e+00
 1.6718191124e+00	 1.7382901052e+00	-1.5078360155e+00
 1.6548024385e+00	 1.7544971874e+00	-1.5254728614e+00
 1.6376310489e+00	 1.7705354717e+00	-1.5379522032e+00
 1.6203074465e+00	 1.7864027773e+00	-1.5444183998e+00
 1.7929379148e+00	 1.6262349630e+00	-1.3198641405e+00
 1.7770125623e+00	 1.6436219397e+00	-1.3454074883e+00
 1.7609156057e+00	 1.6608561469e+00	-1.3725660363e+00
 1.7446492337e+00	 1.6779350722e+00	-1.4005663865e+00
 1.7282156842e+00	 1.6948562463e+00	-1.4285062634e+00
 1.7116172437e+00	 1.7116172437e+00	-1.4553948159e+00
 1.6948562463e+00	 1.7282156842e+00	-1.4801933020e+00
 1.6779350722e+00	 1.7446492337e+00	-1.5018558768e+00
 1.6608561469e+00	 1.7609156057e+00	-1.5193702079e+00
 1.6436219397e+00	 1.7770125623e+00	-1.5317976410e+00
 1.6262349630e+00	 1.7929379148e+00	-1.5383126444e+00
 1.7994730467e+00	 1.6321624744e+00	-1.3147161986e+00
 1.7834896474e+00	 1.6496128254e+00	-1.3403642885e+00
 1.7673340186e+00	 1.6669098501e+00	-1.3675048790e+00
 1.7510083568e+00	 1.6840510269e+00	-1.3953946881e+00
 1.7345149081e+00	 1.7010338775e+00	-1.4231587825e+00
 1.7178559675e+00	 1.7178559675e+00	-1.4498318668e+00
 1.7010338775e+00	 1.7345149081e+00	-1.4743999590e+00
 1.6840510269e+00	 1.7510083568e+00	-1.4958421708e+00
 1.6669098501e+00	 1.7673340186e+00	-1.5131723065e+00
 1.6496128254e+00	 1.7834896474e+00	-1.5254799999e+00
 1.6321624744e+00	 1.7994730467e+00	-1.5319711088e+00
 1.8060081860e+00	 1.6380899926e+00	-1.3097319796e+00
 1.7899667399e+00	 1.6556037180e+00	-1.3354916469e+00
 1.7737524387e+00	 1.6729635601e+00	-1.3626102069e+00
 1.7573674870e+00	 1.6901669885e+00	-1.3903750394e+00
 1.7408141392e+00	 1.7072115157e+00	-1.4179391361e+00
 1.7240946984e+00	 1.7240946984e+00	-1.4443633950e+00
 1.7072115157e+00	 1.7408141392e+00	-1.4686593089e+00
 1.6901669885e+00	 1.7573674870e+00	-1.4898317565e+00
 1.6729635601e+00	 1.7737524387e+00	-1.5069216055e+00
 1.6556037180e+00	 1.7899667399e+00	-1.5190478385e+00
 1.6380899926e+00	 1.8060081860e+00	-1.5254489177e+00
 1.8125433457e+00	 1.6440175292e+00	-1.3049267877e+00
 1.7964438525e+00	 1.6615946292e+00	-1.3308050556e+00
 1.7801708789e+00	 1.6790172891e+00	-1.3578986855e+00
 1.7637266372e+00	 1.6962829692e+00	-1.3855261978e+00
 1.7471133899e+00	 1.7133891731e+00	-1.4128690224e+00
 1.7303334488e+00	 1.7303334488e+00	-1.4390148197e+00
 1.7133891731e+00	 1.7471133899e+00	-1.4630012024e+00
 1.6962829692e+00	 1.7637266372e+00	-1.4838595579e+00
 1.6790172891e+00	 1.7801708789e+00	-1.5006586749e+00
 1.6615946292e+00	 1.7964438525e+00	-1.5125478790e+00
 1.6440175292e+00	 1.8125433457e+00	-1.5187993855e+00
 1.8190785387e+00	 1.6499450961e+00	-1.3003132613e+00
 1.8029209982e+00	 1.6675855709e+00	-1.3263174915e+00
 1.7865893517e+00	 1.6850710489e+00	-1.3533846057e+00
 1.7700858197e+00	 1.7023989811e+00	-1.3808646749e+00
 1.7534126728e+00	 1.7195668620e+00	-1.4079680107e+00
 1.7365722309e+00	 1.7365722309e+00	-1.4338095353e+00
 1.7195668620e+00	 1.7534126728e+00	-1.4574535563e+00
 1.7023989811e+00	 1.7700858197e+00	-1.4779586413e+00
 1.6850710489e+00	 1.7865893517e+00	-1.4944222890e+00
 1.6675855709e+00	 1.8029209982e+00	-1.5060250939e+00
 1.6499450961e+00	 1.8190785387e+00	-1.5120741064e+00
 1.8256137780e+00	 1.6558727049e+00	-1.2959014234e+00
 1.8093981898e+00	 1.6735765551e+00	-1.3220394707e+00
 1.7930078701e+00	 1.6911248516e+00	-1.3490799416e+00
 1.7764450473e+00	 1.7085150363e+00	-1.3764047980e+00
 1.7597120003e+00	 1.7257445947e+00	-1.4032536071e+00
 1.7428110573e+00	 1.7428110573e+00	-1.4287689811e+00
 1.7257445947e+00	 1.7597120003e+00	-1.4520424266e+00
 1.7085150363e+00	 1.7764450473e+00	-1.4721602929e+00
 1.6911248516e+00	 1.7930078701e+00	-1.4882495076e+00
 1.6735765551e+00	 1.8093981898e+00	-1.4995227915e+00
 1.6558727049e+00	 1.8256137780e+00	-1.5053230453e+00
 1.8321490766e+00	 1.6618003675e+00	-1.2916987332e+00
 1.8158754401e+00	 1.6795675937e+00	-1.3179791032e+00
 1.7994264466e+00	 1.6971787092e+00	-1.3449944084e+00
 1.7828043326e+00	 1.7146311469e+00	-1.3721587719e+00
 1.7660113849e+00	 1.7319223834e+00	-1.3987413195e+00
 1.7490499402e+00	 1.7490499402e+00	-1.4239127101e+00
 1.7319223834e+00	 1.7660113849e+00	-1.4467920819e+00
 1.7146311469e+00	 1.7828043326e+00	-1.4664940960e+00
 1.6971787092e+00	 1.7994264466e+00	-1.4821757579e+00
 1.6795675937e+00	 1.8158754401e+00	-1.4930827022e+00
 1.6618003675e+00	 1.8321490766e+00	-1.4985946277e+00
 1.8386844474e+00	 1.6677280956e+00	-1.2877101366e+00
 1.8223527620e+00	 1.6855586984e+00	-1.3141421467e+00
 1.8058450941e+00	 1.7032326337e+00	-1.3411355200e+00
 1.7891636881e+00	 1.7207473252e+00	-1.3681367404e+00
 1.7723108391e+00	 1.7381002404e+00	-1.3944447231e+00
 1.7552888920e+00	 1.7552888920e+00	-1.4192584583e+00
 1.7381002404e+00	 1.7723108391e+00	-1.4417250764e+00
 1.7207473252e+00	 1.7891636881e+00	-1.4609880085e+00
 1.7032326337e+00	 1.8058450941e+00	-1.4762349155e+00
 1.6855586984e+00	 1.8223527620e+00	-1.4867450641e+00
 1.6677280956e+00	 1.8386844474e+00	-1.4919358301e+00
 1.8452199034e+00	 1.6736559010e+00	-1.2839381182e+00
 1.8288301683e+00	 1.6915498812e+00	-1.3105320617e+00
 1.8122638252e+00	 1.7092866371e+00	-1.3375086473e+00
 1.7955231265e+00	 1.7268635831e+00	-1.3643468475e+00
 1.7786103754e+00	 1.7442781779e+00	-1.3903755253e+00
 1.7615279252e+00	 1.7615279252e+00	-1.4148222138e+00
 1.7442781779e+00	 1.7786103754e+00	-1.4368623232e+00
 1.7268635831e+00	 1.7955231265e+00	-1.4556684400e+00
 1.7092866371e+00	 1.8122638252e+00	-1.4704593863e+00
 1.6915498812e+00	 1.8288301683e+00	-1.4805487087e+00
 1.6736559010e+00	 1.8452199034e+00	-1.4853922697e+00
 1.8517554575e+00	 1.6795837954e+00	-1.2803827512e+00
 1.8353076719e+00	 1.6975411540e+00	-1.3071500652e+00
 1.8186826527e+00	 1.7153407314e+00	-1.3341170757e+00
 1.8018826604e+00	 1.7329799329e+00	-1.3607952992e+00
 1.7849100063e+00	 1.7504562081e+00	-1.3865436313e+00
 1.7677670521e+00	 1.7677670521e+00	-1.4106182862e+00
 1.7504562081e+00	 1.7849100063e+00	-1.4322231673e+00
 1.7329799329e+00	 1.8018826604e+00	-1.4505603289e+00
 1.7153407314e+00	 1.8186826527e+00	-1.4648801877e+00
 1.6975411540e+00	 1.8353076719e+00	-1.4745311460e+00
 1.6795837954e+00	 1.8517554575e+00	-1.4790082941e+00
 1.6203074465e+00	 1.7864027773e+00	-1.5444183998e+00
 1.6028311975e+00	 1.8020996229e+00	-1.5461033513e+00
 1.5852078436e+00	 1.8176211925e+00	-1.5446384959e+00
 1.5674400381e+00	 1.8329654303e+00	-1.5400145994e+00
 1.5495304716e+00	 1.8481303335e+00	-1.5324353986e+00
 1.5314818712e+00	 1.8631139533e+00	-1.5233590102e+00
 1.5132969987e+00	 1.8779143959e+00	-1.5157758420e+00
 1.4949786493e+00	 1.8925298230e+00	-1.5102259033e+00
 1.4765296504e+00	 1.9069584527e+00	-1.5069027499e+00
 1.4579528601e+00	 1.9211985599e+00	-1.5026786503e+00
 1.4392511656e+00	 1.9352484777e+00	-1.4974925012e+00
 1.6262349630e+00	 1.7929379148e+00	-1.5383126444e+00
 1.6086947811e+00	 1.8086921836e+00	-1.5399950726e+00
 1.5910069564e+00	 1.8242705352e+00	-1.5382902389e+00
 1.5731741515e+00	 1.8396709063e+00	-1.5331755068e+00
 1.5551990671e+00	 1.8548912868e+00	-1.5249210375e+00
 1.5370844401e+00	 1.8699297207e+00	-1.5163622743e+00
 1.5188330424e+00	 1.8847843073e+00	-1.5091065350e+00
 1.5004476796e+00	 1.8994532015e+00	-1.5035410875e+00
 1.4819311894e+00	 1.9139346149e+00	-1.5000181288e+00
 1.4632864402e+00	 1.9282268163e+00	-1.4965257695e+00
 1.4445163299e+00	 1.9423281324e+00	-1.4915497001e+00
 1.6321624744e+00	 1.7994730467e+00	-1.5319711088e+00
 1.6145583599e+00	 1.8152847387e+00	-1.5335765544e+00
 1.5968060642e+00	 1.8309198723e+00	-1.5315591558e+00
 1.5789082600e+00	 1.8463763767e+00	-1.5258849161e+00
 1.5608676577e+00	 1.8616522344e+00	-1.5175117937e+00
 1.5426870042e+00	 1.8767454823e+00	-1.5095320209e+00
 1.5243690814e+00	 1.8916542128e+00	-1.5025638456e+00
 1.5059167053e+00	 1.9063765741e+00	-1.4969568977e+00
 1.4873327238e+00	 1.9209107712e+00	-1.4930257007e+00
 1.4686200158e+00	 1.9352550667e+00	-1.4899353420e+00
 1.4497814898e+00	 1.9494077810e+00	-1.4851068813e+00
 1.6380899926e+00	 1.8060081860e+00	-1.5254489177e+00
 1.6204219452e+00	 1.8218773012e+00	-1.5269082514e+00
 1.6026051786e+00	 1.8375692170e+00	-1.5245080989e+00
 1.5846423750e+00	 1.8530818547e+00	-1.5182163958e+00
 1.5665362547e+00	 1.8684131896e+00	-1.5103717630e+00
 1.5482895746e+00	 1.8835612516e+00	-1.5029164513e+00
 1.5299051268e+00	 1.8985241261e+00	-1.4961912721e+00
 1.5113857372e+00	 1.9132999545e+00	-1.4905093601e+00
 1.4927342643e+00	 1.9278869355e+00	-1.4861484007e+00
 1.4739535975e+00	 1.9422833250e+00	-1.4829813151e+00
 1.4550466556e+00	 1.9564874378e+00	-1.4782247826e+00
 1.6440175292e+00	 1.8125433457e+00	-1.5187993855e+00
 1.6262855489e+00	 1.8284698844e+00	-1.5200488401e+00
 1.6084043111e+00	 1.8442185823e+00	-1.5171982046e+00
 1.5903765079e+00	 1.8597873535e+00	-1.5106870871e+00
 1.5722048695e+00	 1.8751741659e+00	-1.5035498511e+00
 1.5538921625e+00	 1.8903770422e+00	-1.4965625810e+00
 1.5354411893e+00	 1.9053940608e+00	-1.4900312237e+00
 1.5168547861e+00	 1.9202233566e+00	-1.4842335490e+00
 1.4981358216e+00	 1.9348631214e+00	-1.4794112289e+00
 1.4792871957e+00	 1.9493116053e+00	-1.4757328141e+00
 1.4603118379e+00	 1.9635671165e+00	-1.4709595556e+00
 1.6499450961e+00	 1.8190785387e+00	-1.5120741064e+00
 1.6321491824e+00	 1.8350625011e+00	-1.5130553137e+00
 1.6142034732e+00	 1.8508679816e+00	-1.5096889916e+00
 1.5961106701e+00	 1.8664928866e+00	-1.5035849948e+00
 1.5778735131e+00	 1.8819351767e+00	-1.4970937480e+00
 1.5594947790e+00	 1.8971928675e+00	-1.4905162641e+00
 1.5409772801e+00	 1.9122640306e+00	-1.4841250421e+00
 1.5223238629e+00	 1.9271467939e+00	-1.4781636048e+00
 1.5035374065e+00	 1.9418393430e+00	-1.4728384251e+00
 1.4846208212e+00	 1.9563399214e+00	-1.4683111664e+00
 1.4655770470e+00	 1.9706468314e+00	-1.4633629259e+00
 1.6558727049e+00	 1.8256137780e+00	-1.5053230453e+00
 1.6380128575e+00	 1.8416551646e+00	-1.5059830764e+00
 1.6200026763e+00	 1.8575174280e+00	-1.5022776546e+00
 1.6018448729e+00	 1.8731984671e+00	-1.4969557782e+00
 1.5835421969e+00	 1.8886962354e+00	-1.4910499541e+00
 1.5650974351e+00	 1.9040087412e+00	-1.4848222174e+00
 1.5465134101e+00	 1.9191340490e+00	-1.4785130227e+00
 1.5277929785e+00	 1.9340702803e+00	-1.4723327520e+00
 1.5089390297e+00	 1.9488156140e+00	-1.4664534835e+00
 1.4899544845e+00	 1.9633682873e+00	-1.4610010822e+00
 1.4708422934e+00	 1.9777265965e+00	-1.4554823541e+00
 1.6618003675e+00	 1.8321490766e+00	-1.4985946277e+00
 1.6438765857e+00	 1.8482478878e+00	-1.4988860377e+00
 1.6258019321e+00	 1.8641669346e+00	-1.4954317870e+00
 1.6075791276e+00	 1.8799041085e+00	-1.4908439197e+00
 1.5892109321e+00	 1.8954573554e+00	-1.4854638057e+00
 1.5707001421e+00	 1.9108246766e+00	-1.4795240445e+00
 1.5520495904e+00	 1.9260041297e+00	-1.4732344361e+00
 1.5332621437e+00	 1.9409938295e+00	-1.4667733172e+00
 1.5143407018e+00	 1.9557919482e+00	-1.4602791658e+00
 1.4952881961e+00	 1.9703967169e+00	-1.4538425376e+00
 1.4761075875e+00	 1.9848064257e+00	-1.4473611957e+00
 1.6677280956e+00	 1.8386844474e+00	-1.4919358301e+00
 1.6497403788e+00	 1.8548406839e+00	-1.4918787129e+00
 1.6316012519e+00	 1.8708165148e+00	-1.4891991830e+00
 1.6133134458e+00	 1.8866098240e+00	-1.4852927525e+00
 1.5948797299e+00	 1.9022185501e+00	-1.4803795016e+00
 1.5763029110e+00	 1.9176406873e+00	-1.4746642592e+00
 1.5575858317e+00	 1.9328742864e+00	-1.4683275490e+00
 1.5387313693e+00	 1.9479174551e+00	-1.4615167468e+00
 1.5197424337e+00	 1.9627683595e+00	-1.4543375158e+00
 1.5006219666e+00	 1.9774252242e+00	-1.4468455832e+00
 1.4813729399e+00	 1.9918863332e+00	-1.4390388617e+00
 1.6736559010e+00	 1.8452199034e+00	-1.4853922697e+00
 1.6556042483e+00	 1.8614335659e+00	-1.4854671378e+00
 1.6374006473e+00	 1.8774661816e+00	-1.4836186770e+00
 1.6190478386e+00	 1.8933156268e+00	-1.4803444868e+00
 1.6005486016e+00	 1.9089798329e+00	-1.4758401275e+00
 1.5819057529e+00	 1.9244567869e+00	-1.4702843093e+00
 1.5631221453e+00	 1.9397445325e+00	-1.4638296454e+00
 1.5442006662e+00	 1.9548411710e+00	-1.4565936249e+00
 1.5251442359e+00	 1.9697448618e+00	-1.4486498723e+00
 1.5059558067e+00	 1.9844538231e+00	-1.4400197604e+00
 1.4866383608e+00	 1.9989663329e+00	-1.4306644379e+00
 1.6795837954e+00	 1.8517554575e+00	-1.4790082941e+00
 1.6614682058e+00	 1.8680265469e+00	-1.4797781160e+00
 1.6432001298e+00	 1.8841159483e+00	-1.4787280333e+00
 1.6247823176e+00	 1.9000215304e+00	-1.4760402367e+00
 1.6062175584e+00	 1.9157412173e+00	-1.4718876823e+00
 1.5875086789e+00	 1.9312729888e+00	-1.4664246000e+00
 1.5686585420e+00	 1.9466148819e+00	-1.4597770472e+00
 1.5496700452e+00	 1.9617649909e+00	-1.4520336903e+00
 1.5305461193e+00	 1.9767214688e+00	-1.4432368835e+00
 1.5112897269e+00	 1.9914825276e+00	-1.4333741117e+00
 1.4919038608e+00	 2.0060464390e+00	-1.4223698611e+00
 1.4392511656e+00	 1.9352484777e+00	-1.4974925012e+00
 1.4204306899e+00	 1.9491042590e+00	-1.4898047061e+00
 1.4014911956e+00	 1.9627667656e+00	-1.4777926740e+00
 1.3824356367e+00	 1.9762345155e+00	-1.4623073437e+00
 1.3632669907e+00	 1.9895060861e+00	-1.4440578056e+00
 1.3439882566e+00	 2.0025801153e+00	-1.4236145922e+00
 1.3246024542e+00	 2.0154553015e+00	-1.4014131233e+00
 1.3051126218e+00	 2.0281304037e+00	-1.3777573253e+00
 1.2855218152e+00	 2.0406042425e+00	-1.3528234389e+00
 1.2658331062e+00	 2.0528756997e+00	-1.3266640331e+00
 1.2460495804e+00	 2.0649437185e+00	-1.2992122401e+00
 1.4445163299e+00	 1.9423281324e+00	-1.4915497001e+00
 1.4256270039e+00	 1.9562346018e+00	-1.4837456238e+00
 1.4066182239e+00	 1.9699470896e+00	-1.4715337299e+00
 1.3874929547e+00	 1.9834641080e+00	-1.4557927030e+00
 1.3682541846e+00	 1.9967842296e+00	-1.4372582036e+00
 1.3489049238e+00	 2.0099060871e+00	-1.4165261005e+00
 1.3294482030e+00	 2.0228283741e+00	-1.3940558574e+00
 1.3098870716e+00	 2.0355498453e+00	-1.3701740925e+00
 1.2902245966e+00	 2.0480693167e+00	-1.3450783291e+00
 1.2704638610e+00	 2.0603856661e+00	-1.3188409525e+00
 1.2506079619e+00	 2.0724978330e+00	-1.2914133930e+00
 1.4497814898e+00	 1.9494077810e+00	-1.4851068813e+00
 1.4308233135e+00	 1.9633649386e+00	-1.4771455346e+00
 1.4117452479e+00	 1.9771274074e+00	-1.4647129000e+00
 1.3925502684e+00	 1.9906936944e+00	-1.4487111212e+00
 1.3732413744e+00	 2.0040623669e+00	-1.4298987019e+00
 1.3538215869e+00	 2.0172320527e+00	-1.4088936771e+00
 1.3342939476e+00	 2.0302014405e+00	-1.3861769373e+00
 1.3146615173e+00	 2.0429692805e+00	-1.3620957243e+00
 1.2949273741e+00	 2.0555343845e+00	-1.3368673172e+00
 1.2750946119e+00	 2.0678956261e+00	-1.3105829281e+00
 1.2551663394e+00	 2.0800519410e+00	-1.2832118245e+00
 1.4550466556e+00	 1.9564874378e+00	-1.4782247826e+00
 1.4360196290e+00	 1.9704952835e+00	-1.4700532017e+00
 1.4168722776e+00	 1.9843077334e+00	-1.4573722496e+00
 1.3976075879e+00	 1.9979232890e+00	-1.4411032785e+00
 1.3782285698e+00	 2.0113405125e+00	-1.4220239412e+00
 1.3587382555e+00	 2.0245580265e+00	-1.4007712987e+00
 1.3391396978e+00	 2.0375745152e+00	-1.3778450776e+00
 1.3194359685e+00	 2.0503887242e+00	-1.3536110966e+00
 1.2996301568e+00	 2.0629994608e+00	-1.3283048834e+00
 1.2797253681e+00	 2.0754055947e+00	-1.3020355019e+00
 1.2597247222e+00	 2.0876060576e+00	-1.2747896069e+00
 1.4603118379e+00	 1.9635671165e+00	-1.4709595556e+00
 1.4412159607e+00	 1.9776256506e+00	-1.4625130142e+00
 1.4219993234e+00	 1.9914880817e+00	-1.4495496008e+00
 1.4026649231e+00	 2.0051529062e+00	-1.4330056617e+00
 1.3832157807e+00	 2.0186186807e+00	-1.4136743380e+00
 1.3636549395e+00	 2.0318840232e+00	-1.3922086060e+00
 1.3439854631e+00	 2.0449476129e+00	-1.3691244637e+00
 1.3242104345e+00	 2.0578081910e+00	-1.3448042833e+00
 1.3043329542e+00	 2.0704645604e+00	-1.3195003531e+00
 1.2843561387e+00	 2.0829155867e+00	-1.2933386286e+00
 1.2642831191e+00	 2.0951601978e+00	-1.2663227139e+00
 1.4655770470e+00	 1.9706468314e+00	-1.4633629259e+00
 1.4464123189e+00	 1.9847560540e+00	-1.4545651409e+00
 1.4271263953e+00	 1.9986684667e+00	-1.4412786809e+00
 1.4077222841e+00	 2.0123825602e+00	-1.4244507084e+00
 1.3882030171e+00	 2.0258968861e+00	-1.4048862250e+00
 1.3685716485e+00	 2.0392100573e+00	-1.3832510419e+00
 1.3488312531e+00	 2.0523207483e+00	-1.3600748902e+00
 1.3289849249e+00	 2.0652276956e+00	-1.3357546955e+00
 1.3090357756e+00	 2.0779296980e+00	-1.3105580378e+00
 1.2889869330e+00	 2.0904256169e+00	-1.2846268206e+00
 1.2688415393e+00	 2.1027143765e+00	-1.2579811706e+00
 1.4708422934e+00	 1.9777265965e+00	-1.4554823541e+00
 1.4516087140e+00	 1.9918865080e+00	-1.4462456840e+00
 1.4322535035e+00	 2.0058489026e+00	-1.4325892707e+00
 1.4127796809e+00	 2.0196122654e+00	-1.4154669509e+00
 1.3931902888e+00	 2.0331751430e+00	-1.3956919926e+00
 1.3734883924e+00	 2.0465361432e+00	-1.3739399910e+00
 1.3536770774e+00	 2.0596939358e+00	-1.3507518999e+00
 1.3337594491e+00	 2.0726472528e+00	-1.3265372210e+00
 1.3137386303e+00	 2.0853948885e+00	-1.3015773772e+00
 1.2936177600e+00	 2.0979357004e+00	-1.2760292926e+00
 1.2733999918e+00	 2.1102686087e+00	-1.2499292026e+00
 1.4761075875e+00	 1.9848064257e+00	-1.4473611957e+00
 1.4568051561e+00	 1.9990170267e+00	-1.4375868333e+00
 1.4373806582e+00	 2.0130294035e+00	-1.4235073529e+00
 1.4178371236e+00	 2.0268420362e+00	-1.4060791605e+00
 1.3981776057e+00	 2.0404534659e+00	-1.3861202295e+00
 1.3784051808e+00	 2.0538622956e+00	-1.3643129192e+00
 1.3585229457e+00	 2.0670671902e+00	-1.3412069221e+00
 1.3385340166e+00	 2.0800668772e+00	-1.3172223632e+00
 1.3184415276e+00	 2.0928601467e+00	-1.2926530801e+00
 1.2982486290e+00	 2.1054458520e+00	-1.2676701063e+00
 1.2779584857e+00	 2.1178229093e+00	-1.2423253850e+00
 1.4813729399e+00	 1.9918863332e+00	-1.4390388617e+00
 1.4620016556e+00	 2.0061476241e+00	-1.4286170195e+00
 1.4425078696e+00	 2.0202099838e+00	-1.4140552605e+00
 1.4228946221e+00	 2.0340718869e+00	-1.3963084915e+00
 1.4031649778e+00	 2.0477318693e+00	-1.3761958642e+00
 1.3833220236e+00	 2.0611885290e+00	-1.3544035128e+00
 1.3633688675e+00	 2.0744405261e+00	-1.3314874120e+00
 1.3433086369e+00	 2.0874865836e+00	-1.3078763816e+00
 1.3231444770e+00	 2.1003254874e+00	-1.2838752659e+00
 1.3028795492e+00	 2.1129560865e+00	-1.2596683146e+00
 1.2825170299e+00	 2.1253772935e+00	-1.2353227913e+00
 1.4866383608e+00	 1.9989663329e+00	-1.4306644379e+00
 1.4671982229e+00	 2.0132783144e+00	-1.4193610685e+00
 1.4476351478e+00	 2.0273906577e+00	-1.4042518256e+00
 1.4279521866e+00	 2.0413018318e+00	-1.3861726261e+00
 1.4081524148e+00	 2.0550103675e+00	-1.3659403068e+00
 1.3882389304e+00	 2.0685148578e+00	-1.3442418184e+00
 1.3682148525e+00	 2.0818139581e+00	-1.3216369894e+00
 1.3480833194e+00	 2.0949063868e+00	-1.2985614302e+00
 1.3278474876e+00	 2.1077909254e+00	-1.2753296057e+00
 1.3075105298e+00	 2.1204664190e+00	-1.2521381057e+00
 1.2870756335e+00	 2.1329317761e+00	-1.2290691409e+00
 1.4919038608e+00	 2.0060464390e+00	-1.4223698611e+00
 1.4723948682e+00	 2.0204091119e+00	-1.4098403558e+00
 1.4527625030e+00	 2.0345714394e+00	-1.3941125284e+00
 1.4330098270e+00	 2.0485318853e+00	-1.3756859189e+00
 1.4131399268e+00	 2.0622889750e+00	-1.3553715904e+00
 1.3931559111e+00	 2.0758412966e+00	-1.3338543827e+00
 1.3730609102e+00	 2.0891875008e+00	-1.3116955780e+00
 1.3528580736e+00	 2.1023263013e+00	-1.2893356980e+00
 1.3325505688e+00	 2.1152564755e+00	-1.2670974634e+00
 1.3121415799e+00	 2.1279768642e+00	-1.2451889469e+00
 1.2916343056e+00	 2.1404863722e+00	-1.2237069477e+00
 1.2460495804e+00	 2.0649437185e+00	-1.2992122401e+00
 1.2261743371e+00	 2.0768073048e+00	-1.2707201926e+00
 1.2062104879e+00	 2.0884655282e+00	-1.2416641687e+00
 1.1861611550e+00	 2.0999175207e+00	-1.2121572341e+00
 1.1660294682e+00	 2.1111624763e+00	-1.1822235555e+00
 1.1458185643e+00	 2.1221996512e+00	-1.1518031090e+00
 1.1255315851e+00	 2.1330283633e+00	-1.1207566669e+00
 1.1051716761e+00	 2.1436479923e+00	-1.0889242013e+00
 1.0847419850e+00	 2.1540579796e+00	-1.0568210807e+00
 1.0642456601e+00	 2.1642578281e+00	-1.0241239722e+00
 1.0436858490e+00	 2.1742471019e+00	-9.9012148180e-01
 1.2506079619e+00	 2.0724978330e+00	-1.2914133930e+00
 1.2306600096e+00	 2.0844048195e+00	-1.2631316279e+00
 1.2106231274e+00	 2.0961056917e+00	-1.2345159067e+00
 1.1905004486e+00	 2.1075995786e+00	-1.2056357099e+00
 1.1702951147e+00	 2.1188856713e+00	-1.1764704471e+00
 1.1500102740e+00	 2.1299632231e+00	-1.1469142177e+00
 1.1296490796e+00	 2.1408315495e+00	-1.1167808574e+00
 1.1092146886e+00	 2.1514900279e+00	-1.0858144538e+00
 1.0887102603e+00	 2.1619380978e+00	-1.0543299017e+00
 1.0681389543e+00	 2.1721752601e+00	-1.0221611425e+00
 1.0475039300e+00	 2.1822010773e+00	-9.8855630946e-01
 1.2551663394e+00	 2.0800519410e+00	-1.2832118245e+00
 1.2351456783e+00	 2.0920023276e+00	-1.2551691511e+00
 1.2150357631e+00	 2.1037458487e+00	-1.2270101479e+00
 1.1948397385e+00	 2.1152816300e+00	-1.1987533581e+00
 1.1745607577e+00	 2.1266088598e+00	-1.1703249923e+00
 1.1542019801e+00	 2.1377267885e+00	-1.1415637592e+00
 1.1337665706e+00	 2.1486347291e+00	-1.1122259914e+00
 1.1132576977e+00	 2.1593320570e+00	-1.0819910738e+00
 1.0926785322e+00	 2.1698182093e+00	-1.0508966399e+00
 1.0720322453e+00	 2.1800926853e+00	-1.0189376612e+00
 1.0513220077e+00	 2.1901550459e+00	-9.8531347059e-01
 1.2597247222e+00	 2.0876060576e+00	-1.2747896069e+00
 1.2396313521e+00	 2.0995998444e+00	-1.2470487082e+00
 1.2194484037e+00	 2.1113860144e+00	-1.2193859885e+00
 1.1991790334e+00	 2.1229636902e+00	-1.1917618025e+00
 1.1788264054e+00	 2.1343320569e+00	-1.1640408272e+00
 1.1583936909e+00	 2.1454903626e+00	-1.1359969809e+00
 1.1378840663e+00	 2.1564379176e+00	-1.1073186477e+00
 1.1173007114e+00	 2.1671740948e+00	-1.0776142164e+00
 1.0966468086e+00	 2.1776983297e+00	-1.0466723878e+00
 1.0759255406e+00	 2.1880101195e+00	-1.0145530838e+00
 1.0551400898e+00	 2.1981090235e+00	-9.8043076634e-01
 1.2642831191e+00	 2.0951601978e+00	-1.2663227139e+00
 1.2441170398e+00	 2.1071973849e+00	-1.2389796744e+00
 1.2238610582e+00	 2.1190262039e+00	-1.2118756381e+00
 1.2035183418e+00	 2.1306457742e+00	-1.1849056192e+00
 1.1830920665e+00	 2.1420552782e+00	-1.1578645339e+00
 1.1625854149e+00	 2.1532539609e+00	-1.1304522239e+00
 1.1420015748e+00	 2.1642411303e+00	-1.1022787990e+00
 1.1213437377e+00	 2.1750161572e+00	-1.0728703072e+00
 1.1006150974e+00	 2.1855784746e+00	-1.0418039484e+00
 1.0798188481e+00	 2.1959275783e+00	-1.0091037433e+00
 1.0589581837e+00	 2.2060630259e+00	-9.7394397921e-01
 1.2688415393e+00	 2.1027143765e+00	-1.2579811706e+00
 1.2486027505e+00	 2.1147949641e+00	-1.2311650081e+00
 1.2282737351e+00	 2.1266664324e+00	-1.2047045741e+00
 1.2078576723e+00	 2.1383278975e+00	-1.1784224901e+00
 1.1873577493e+00	 2.1497785389e+00	-1.1520357897e+00
 1.1667771602e+00	 2.1610175988e+00	-1.1251610643e+00
 1.1461191043e+00	 2.1720443829e+00	-1.0973199432e+00
 1.1253867846e+00	 2.1828582595e+00	-1.0679449138e+00
 1.1045834064e+00	 2.1934586598e+00	-1.0364337803e+00
 1.0837121755e+00	 2.2038450776e+00	-1.0026826837e+00
 1.0627762972e+00	 2.2140170689e+00	-9.6588679225e-01
 1.2733999918e+00	 2.1102686087e+00	-1.2499292026e+00
 1.2530884929e+00	 2.1223925971e+00	-1.2238014040e+00
 1.2326864433e+00	 2.1343067149e+00	-1.1980916963e+00
 1.2121970336e+00	 2.1460100752e+00	-1.1725433550e+00
 1.1916234624e+00	 2.1575018542e+00	-1.1467875144e+00
 1.1709689352e+00	 2.1687812918e+00	-1.1203484543e+00
 1.1502366630e+00	 2.1798476908e+00	-1.0926492345e+00
 1.1294298602e+00	 2.1907004174e+00	-1.0630176865e+00
 1.1085517435e+00	 2.2013389008e+00	-1.0306999420e+00
 1.0876055305e+00	 2.2117626329e+00	-9.9537959375e-01
 1.0665944377e+00	 2.2219711682e+00	-9.5629070907e-01
 1.2779584857e+00	 2.1178229093e+00	-1.2423253850e+00
 1.2575742760e+00	 2.1299902990e+00	-1.2170794454e+00
 1.2370991916e+00	 2.1419470668e+00	-1.1922494804e+00
 1.2165364342e+00	 2.1536923225e+00	-1.1674925635e+00
 1.1958892141e+00	 2.1652252396e+00	-1.1423460183e+00
 1.1751607482e+00	 2.1765450551e+00	-1.1162328620e+00
 1.1543542590e+00	 2.1876510694e+00	-1.0884676138e+00
 1.1334729724e+00	 2.1985426464e+00	-1.0582624766e+00
 1.1125201166e+00	 2.2092192132e+00	-1.0247339009e+00
 1.0914989207e+00	 2.2196802600e+00	-9.8728074090e-01
 1.0704126128e+00	 2.2299253397e+00	-9.4726477421e-01
 1.2825170299e+00	 2.1253772935e+00	-1.2353227913e+00
 1.2620601087e+00	 2.1375880849e+00	-1.2111837568e+00
 1.2415119885e+00	 2.1495875031e+00	-1.1873841309e+00
 1.2208758827e+00	 2.1613746547e+00	-1.1634880263e+00
 1.2001550129e+00	 2.1729487103e+00	-1.1389311484e+00
 1.1793526076e+00	 2.1843089042e+00	-1.1130264116e+00
 1.1584719005e+00	 2.1954545342e+00	-1.0849699389e+00
 1.1375161293e+00	 2.2063849620e+00	-1.0538474548e+00
 1.1164885336e+00	 2.2170996128e+00	-1.0186410774e+00
 1.0953923540e+00	 2.2275979746e+00	-9.7939209853e-01
 1.0742308301e+00	 2.2378795990e+00	-9.4104046240e-01
 1.2870756335e+00	 2.1329317761e+00	-1.2290691409e+00
 1.2665459998e+00	 2.1451859698e+00	-1.2062931551e+00
 1.2459248430e+00	 2.1572280389e+00	-1.1836957331e+00
 1.2252153879e+00	 2.1690570871e+00	-1.1607413655e+00
 1.2044208674e+00	 2.1806722817e+00	-1.1367564348e+00
 1.1835445216e+00	 2.1920728544e+00	-1.1109350219e+00
 1.1625895957e+00	 2.2032581007e+00	-1.0823451144e+00
 1.1415593388e+00	 2.2142273799e+00	-1.0499352287e+00
 1.1204570023e+00	 2.2249801150e+00	-1.0127638820e+00
 1.0992858380e+00	 2.2355157924e+00	-9.7455172041e-01
 1.0780490972e+00	 2.2458339620e+00	-9.3747608809e-01
 1.2916343056e+00	 2.1404863722e+00	-1.2237069477e+00
 1.2710319583e+00	 2.1527839688e+00	-1.2025808008e+00
 1.2503377638e+00	 2.1648686895e+00	-1.1813784053e+00
 1.2295549582e+00	 2.1767396348e+00	-1.1594580643e+00
 1.2086867859e+00	 2.1883959691e+00	-1.1360292360e+00
 1.1877364985e+00	 2.1998369213e+00	-1.1101585456e+00
 1.1667073527e+00	 2.2110617844e+00	-1.0807762204e+00
 1.1456026092e+00	 2.2220699155e+00	-1.0466829602e+00
 1.1244255306e+00	 2.2328607355e+00	-1.0097634375e+00
 1.1031793805e+00	 2.2434337292e+00	-9.7287926488e-01
 1.0818674217e+00	 2.2537884445e+00	-9.3643032255e-01
 1.0436858490e+00	 2.1742471019e+00	-9.9012148180e-01
 1.0230621863e+00	 2.1840270702e+00	-9.5560539681e-01
 1.0023813045e+00	 2.1935957011e+00	-9.2098510460e-01
 9.8164634100e-01	 2.2029527390e+00	-8.8493839190e-01
 9.6086042659e-01	 2.2120979880e+00	-8.4615973799e-01
 9.4002668437e-01	 2.2210313121e+00	-8.0338171322e-01
 9.1914822827e-01	 2.2297526340e+00	-7.5868288554e-01
 8.9822816176e-01	 2.2382619351e+00	-7.1681548260e-01
 8.7726957648e-01	 2.2465592549e+00	-6.7766021235e-01
 8.5627555101e-01	 2.2546446902e+00	-6.4102210464e-01
 8.3524914955e-01	 2.2625183949e+00	-6.0670110322e-01
 1.0475039300e+00	 2.1822010773e+00	-9.8855630946e-01
 1.0268048204e+00	 2.1920168233e+00	-9.5402773177e-01
 1.0060482825e+00	 2.2016204588e+00	-9.1865922073e-01
 9.8523746494e-01	 2.2110117272e+00	-8.8102191720e-01
 9.6437551011e-01	 2.2201904320e+00	-8.3970406922e-01
 9.4346555251e-01	 2.2291564366e+00	-7.9593046638e-01
 9.2251071746e-01	 2.2379096633e+00	-7.5466695381e-01
 9.0151411976e-01	 2.2464500938e+00	-7.1582359921e-01
 8.8047886239e-01	 2.2547777674e+00	-6.7910498978e-01
 8.5940803518e-01	 2.2628927814e+00	-6.4420864043e-01
 8.3830471354e-01	 2.2707952902e+00	-6.1082335300e-01
 1.0513220077e+00	 2.1901550459e+00	-9.8531347059e-01
 1.0305474514e+00	 2.2000065696e+00	-9.5022489207e-01
 1.0097152573e+00	 2.2096452097e+00	-9.1342108793e-01
 9.8882858582e-01	 2.2190707086e+00	-8.7338684894e-01
 9.6789059065e-01	 2.2282828691e+00	-8.3046870693e-01
 9.4690441773e-01	 2.2372815541e+00	-7.8975136930e-01
 9.2587320378e-01	 2.2460666858e+00	-7.5132871558e-01
 9.0480007497e-01	 2.2546382455e+00	-7.1483825711e-01
 8.8368814558e-01	 2.2629962729e+00	-6.7990970821e-01
 8.6254051669e-01	 2.2711408655e+00	-6.4616326438e-01
 8.4136027494e-01	 2.2790721784e+00	-6.1320808942e-01
 1.0551400898e+00	 2.1981090235e+00	-9.8043076634e-01
 1.0342900865e+00	 2.2079963250e+00	-9.4417707010e-01
 1.0133822363e+00	 2.2176699697e+00	-9.0521155045e-01
 9.9241971078e-01	 2.2271296991e+00	-8.6307110590e-01
 9.7140567517e-01	 2.2363753154e+00	-8.2272098073e-01
 9.5034328684e-01	 2.2454066809e+00	-7.8463629508e-01
 9.2923569392e-01	 2.2542237175e+00	-7.4841642072e-01
 9.0808603391e-01	 2.2628264065e+00	-7.1365365076e-01
 8.8689743241e-01	 2.2712147877e+00	-6.7993132537e-01
 8.6567300176e-01	 2.2793889591e+00	-6.4682217557e-01
 8.4441583981e-01	 2.2873490761e+00	-6.1388688075e-01
 1.0589581837e+00	 2.2060630259e+00	-9.7394397921e-01
 1.0380327334e+00	 2.2159861053e+00	-9.3586357204e-01
 1.0170492267e+00	 2.2256947547e+00	-8.9448936335e-01
 9.9601084693e-01	 2.2351887148e+00	-8.5429554072e-01
 9.7492077064e-01	 2.2444677870e+00	-8.1637355401e-01
 9.5378216668e-01	 2.2535318330e+00	-7.8030882794e-01
 9.3259819454e-01	 2.2623807746e+00	-7.4568204473e-01
 9.1137200309e-01	 2.2710145930e+00	-7.1206704927e-01
 8.9010672924e-01	 2.2794333281e+00	-6.7902898007e-01
 8.6880549659e-01	 2.2876370783e+00	-6.4612262248e-01
 8.4747141419e-01	 2.2956259995e+00	-6.1289097939e-01
 1.0627762972e+00	 2.2140170689e+00	-9.6588679225e-01
 1.0417753994e+00	 2.2239759263e+00	-9.2538598225e-01
 1.0207162359e+00	 2.2337195806e+00	-8.8517804369e-01
 9.9960200140e-01	 2.2432477715e+00	-8.4723351973e-01
 9.7843588405e-01	 2.2525602997e+00	-8.1114303745e-01
 9.5722106406e-01	 2.2616570266e+00	-7.7649660178e-01
 9.3596071231e-01	 2.2705378734e+00	-7.4288121638e-01
 9.1465798904e-01	 2.2792028213e+00	-7.0987873607e-01
 8.9331604244e-01	 2.2876519105e+00	-6.7706394829e-01
 8.7193800740e-01	 2.2958852396e+00	-6.4400287978e-01
 8.5052700417e-01	 2.3039029651e+00	-6.1025132364e-01
 1.0665944377e+00	 2.2219711682e+00	-9.5629070907e-01
 1.0455180918e+00	 2.2319658039e+00	-9.1599540249e-01
 1.0243832710e+00	 2.2417444634e+00	-8.7789869999e-01
 1.0031931813e+00	 2.2513068854e+00	-8.4161192211e-01
 9.8195102236e-01	 2.2606528699e+00	-8.0675015991e-01
 9.6065998580e-01	 2.2697822777e+00	-7.7293122187e-01
 9.3932325391e-01	 2.2786950299e+00	-7.3977314676e-01
 9.1794399826e-01	 2.2873911076e+00	-7.0689194982e-01
 8.9652537837e-01	 2.2958705511e+00	-6.7389960019e-01
 8.7507054039e-01	 2.3041334593e+00	-6.4040222556e-01
 8.5358261579e-01	 2.3121799894e+00	-6.0599853919e-01
 1.0704126128e+00	 2.2299253397e+00	-9.4726477421e-01
 1.0492608182e+00	 2.2399557540e+00	-9.0898983895e-01
 1.0280503394e+00	 2.2497694189e+00	-8.7240527253e-01
 1.0067843938e+00	 2.2593660723e+00	-8.3716156775e-01
 9.8546619255e-01	 2.2687455134e+00	-8.0291968867e-01
 9.6409893872e-01	 2.2779076024e+00	-7.6934818800e-01
 9.4268582599e-01	 2.2868522604e+00	-7.3612055977e-01
 9.2123003728e-01	 2.2955794682e+00	-7.0291282639e-01
 8.9973474341e-01	 2.3040892662e+00	-6.6940135779e-01
 8.7820310180e-01	 2.3123817538e+00	-6.3526091892e-01
 8.5663825511e-01	 2.3204570887e+00	-6.0016294062e-01
 1.0742308301e+00	 2.2378795990e+00	-9.4104046240e-01
 1.0530035860e+00	 2.2479457923e+00	-9.0416663679e-01
 1.0317174483e+00	 2.2577944631e+00	-8.6845522818e-01
 1.0103756459e+00	 2.2674253482e+00	-8.3361714037e-01
 9.8898140158e-01	 2.2768382463e+00	-7.9938035126e-01
 9.6753792965e-01	 2.2860330170e+00	-7.6548681919e-01
 9.4604843524e-01	 2.2950095810e+00	-7.3168962397e-01
 9.2451611261e-01	 2.3037679192e+00	-6.9775034205e-01
 9.0294414392e-01	 2.3123080721e+00	-6.6343665358e-01
 8.8133569782e-01	 2.3206301395e+00	-6.2852017788e-01
 8.5969392821e-01	 2.3287342795e+00	-5.9277453254e-01
 1.0780490972e+00	 2.2458339620e+00	-9.3747608809e-01
 1.0567464026e+00	 2.2559359348e+00	-9.0132602631e-01
 1.0353846049e+00	 2.2658196119e+00	-8.6580949078e-01
 1.0139669449e+00	 2.2754847292e+00	-8.3071711239e-01
 9.9249665643e-01	 2.2849310847e+00	-7.9586475884e-01
 9.7097696541e-01	 2.2941585375e+00	-7.6109017991e-01
 9.4941108831e-01	 2.3031670080e+00	-7.2624988577e-01
 9.2780223078e-01	 2.3119564770e+00	-6.9121625773e-01
 9.0615358625e-01	 2.3205269851e+00	-6.5587488979e-01
 8.8446833467e-01	 2.3288786326e+00	-6.2012215767e-01
 8.6274964113e-01	 2.3370115782e+00	-5.8386301072e-01
 1.0818674217e+00	 2.2537884445e+00	-9.3643032255e-01
 1.0604892753e+00	 2.2639261973e+00	-9.0027106463e-01
 1.0390518167e+00	 2.2738448812e+00	-8.6423237297e-01
 1.0175582978e+00	 2.2835442313e+00	-8.2820367112e-01
 9.9601196407e-01	 2.2930240446e+00	-7.9210933103e-01
 9.7441605281e-01	 2.3022841800e+00	-7.5590500774e-01
 9.5277379189e-01	 2.3113245574e+00	-7.1957420393e-01
 9.3108839829e-01	 2.3201451577e+00	-6.8312506429e-01
 9.0936307679e-01	 2.3287460216e+00	-6.4658739845e-01
 8.8760101857e-01	 2.3371272496e+00	-6.1000992933e-01
 8.6580539994e-01	 2.3452890012e+00	-5.7345776304e-01
 8.3524914955e-01	 2.2625183949e+00	-6.0670110322e-01
 8.1419700195e-01	 2.2701792942e+00	-5.7310344016e-01
 7.9311856621e-01	 2.2776290086e+00	-5.3876319029e-01
 7.7201685366e-01	 2.2848678569e+00	-5.0369129298e-01
 7.5089485646e-01	 2.2918962120e+00	-4.6790684670e-01
 7.2975554654e-01	 2.2987145002e+00	-4.3172186070e-01
 7.0860187444e-01	 2.3053232003e+00	-3.9653550961e-01
 6.8743676824e-01	 2.3117228432e+00	-3.6210056796e-01
 6.6626313250e-01	 2.3179140106e+00	-3.2798611832e-01
 6.4508384729e-01	 2.3238973344e+00	-2.9383902735e-01
 6.2390176713e-01	 2.3296734959e+00	-2.5937307253e-01
 8.3830471354e-01	 2.2707952902e+00	-6.1082335300e-01
 8.1717555158e-01	 2.2784842151e+00	-5.7741190549e-01
 7.9602000531e-01	 2.2859611825e+00	-5.4269442712e-01
 7.7484109706e-01	 2.2932265125e+00	-5.0676661738e-01
 7.5364182997e-01	 2.3002805792e+00	-4.6973816280e-01
 7.3242518682e-01	 2.3071238104e+00	-4.3189664695e-01
 7.1119412895e-01	 2.3137566870e+00	-3.9479162775e-01
 6.8995159515e-01	 2.3201797415e+00	-3.5846589987e-01
 6.6870050062e-01	 2.3263935578e+00	-3.2261314974e-01
 6.4744373593e-01	 2.3323987702e+00	-2.8700948731e-01
 6.2618416607e-01	 2.3381960624e+00	-2.5150229875e-01
 8.4136027494e-01	 2.2790721784e+00	-6.1320808942e-01
 8.2015409868e-01	 2.2867891289e+00	-5.7963685533e-01
 7.9892144194e-01	 2.2942933494e+00	-5.4439514904e-01
 7.7766533807e-01	 2.3015851609e+00	-5.0764381246e-01
 7.5638880115e-01	 2.3086649392e+00	-4.6956170676e-01
 7.3509482484e-01	 2.3155331136e+00	-4.3042060309e-01
 7.1378638126e-01	 2.3221901665e+00	-3.9181437486e-01
 6.9246641992e-01	 2.3286366326e+00	-3.5409071035e-01
 6.7113786665e-01	 2.3348730978e+00	-3.1703980753e-01
 6.4980362257e-01	 2.3409001988e+00	-2.8053736538e-01
 6.2846656308e-01	 2.3467186217e+00	-2.4453322800e-01
 8.4441583981e-01	 2.2873490761e+00	-6.1388688075e-01
 8.2313264915e-01	 2.2950940522e+00	-5.7990257457e-01
 8.0182288185e-01	 2.3026255257e+00	-5.4406137296e-01
 7.8048958228e-01	 2.3099438189e+00	-5.0656991428e-01
 7.5913577544e-01	 2.3170493087e+00	-4.6765510482e-01
 7.3776446588e-01	 2.3239424262e+00	-4.2758340071e-01
 7.1637863651e-01	 2.3306236555e+00	-3.8788641947e-01
 6.9498124755e-01	 2.3370935332e+00	-3.4923131461e-01
 6.7357523546e-01	 2.3433526474e+00	-3.1147702840e-01
 6.5216351188e-01	 2.3494016370e+00	-2.7456952756e-01
 6.3074896268e-01	 2.3552411907e+00	-2.3853030404e-01
 8.4747141419e-01	 2.2956259995e+00	-6.1289097939e-01
 8.2611120891e-01	 2.3033990013e+00	-5.7833170387e-01
 8.0472433082e-01	 2.3109577280e+00	-5.4188644446e-01
 7.8331383529e-01	 2.3183025029e+00	-5.0378855795e-01
 7.6188275830e-01	 2.3254337044e+00	-4.6429214592e-01
 7.4043411524e-01	 2.3323517651e+00	-4.2367023138e-01
 7.1897089984e-01	 2.3390571709e+00	-3.8328599574e-01
 6.9749608302e-01	 2.3455504602e+00	-3.4413992790e-01
 6.7601261186e-01	 2.3518322235e+00	-3.0613226775e-01
 6.5452340855e-01	 2.3579031017e+00	-2.6925025675e-01
 6.3303136939e-01	 2.3637637862e+00	-2.3355656042e-01
 8.5052700417e-01	 2.3039029651e+00	-6.1025132364e-01
 8.2908978386e-01	 2.3117039928e+00	-5.7504526569e-01
 8.0762579458e-01	 2.3192899727e+00	-5.3806108261e-01
 7.8613810271e-01	 2.3266612295e+00	-4.9954003576e-01
 7.6462975516e-01	 2.3338181429e+00	-4.5974284807e-01
 7.4310377822e-01	 2.3407611469e+00	-4.1894771556e-01
 7.2156317639e-01	 2.3474907292e+00	-3.7828700328e-01
 7.0001093131e-01	 2.3540074304e+00	-3.3906475596e-01
 6.7845000069e-01	 2.3603118427e+00	-3.0120957583e-01
 6.5688331725e-01	 2.3664046098e+00	-2.6472130986e-01
 6.3531378774e-01	 2.3722864252e+00	-2.2967365376e-01
 8.5358261579e-01	 2.3121799894e+00	-6.0599853919e-01
 8.3206837992e-01	 2.3200090431e+00	-5.7016268946e-01
 8.1052727889e-01	 2.3276222765e+00	-5.3277342355e-01
 7.8896239013e-01	 2.3350200153e+00	-4.9406135396e-01
 7.6737677149e-01	 2.3422026407e+00	-4.5427352307e-01
 7.4577346011e-01	 2.3491705882e+00	-4.1367149045e-01
 7.2415547130e-01	 2.3559243474e+00	-3.7315910545e-01
 7.0252579742e-01	 2.3624644605e+00	-3.3425008396e-01
 6.8088740679e-01	 2.3687915221e+00	-2.9690967271e-01
 6.5924324268e-01	 2.3749061781e+00	-2.6112197403e-01
 6.3759622226e-01	 2.3808091246e+00	-2.2694189683e-01
 8.5663825511e-01	 2.3204570887e+00	-6.0016294062e-01
 8.3504700298e-01	 2.3283141687e+00	-5.6380183620e-01
 8.1342878952e-01	 2.3359546559e+00	-5.2620906304e-01
 7.9178670316e-01	 2.3433788770e+00	-4.8758628820e-01
 7.7012381272e-01	 2.3505872146e+00	-4.4814683977e-01
 7.4844316621e-01	 2.3575801058e+00	-4.0811392655e-01
 7.2674778972e-01	 2.3643580419e+00	-3.6816782602e-01
 7.0504068633e-01	 2.3709215672e+00	-3.2993636415e-01
 6.8332483499e-01	 2.3772712784e+00	-2.9343002215e-01
 6.6160318950e-01	 2.3834078235e+00	-2.5858912224e-01
 6.3987867747e-01	 2.3893319012e+00	-2.2542029120e-01
 8.5969392821e-01	 2.3287342795e+00	-5.9277453254e-01
 8.3802565895e-01	 2.3366193862e+00	-5.5607902242e-01
 8.1633033221e-01	 2.3442871273e+00	-5.1855109802e-01
 7.9461104741e-01	 2.3517378310e+00	-4.8034543759e-01
 7.7287088431e-01	 2.3589718811e+00	-4.4162188572e-01
 7.5111290181e-01	 2.3659897163e+00	-4.0254386163e-01
 7.2934013679e-01	 2.3727918297e+00	-3.6357464434e-01
 7.0755560303e-01	 2.3793787674e+00	-3.2636030205e-01
 6.8576229012e-01	 2.3857511283e+00	-2.9096490426e-01
 6.6396316239e-01	 2.3919095628e+00	-2.5725726799e-01
 6.4216115791e-01	 2.3978547720e+00	-2.2516655974e-01
 8.6274964113e-01	 2.3370115782e+00	-5.8386301072e-01
 8.4100435376e-01	 2.3449247118e+00	-5.4710904338e-01
 8.1923191271e-01	 2.3526197073e+00	-5.0998016702e-01
 7.9743542846e-01	 2.3600968939e+00	-4.7256627748e-01
 7.7561799170e-01	 2.3673566569e+00	-4.3495422753e-01
 7.5378267220e-01	 2.3743994365e+00	-3.9722647957e-01
 7.3193251764e-01	 2.3812257274e+00	-3.5963708908e-01
 7.1007055251e-01	 2.3878360779e+00	-3.2375494138e-01
 6.8819977702e-01	 2.3942310888e+00	-2.8970548723e-01
 6.6632316605e-01	 2.4004114129e+00	-2.5725861940e-01
 6.4444366809e-01	 2.4063777539e+00	-2.2623717868e-01
 8.6580539994e-01	 2.3452890012e+00	-5.7345776304e-01
 8.4398309329e-01	 2.3532301622e+00	-5.3700519571e-01
 8.2213353680e-01	 2.3609524125e+00	-5.0067448966e-01
 8.0025985193e-01	 2.3684560824e+00	-4.6447321103e-01
 7.7836514035e-01	 2.3757415586e+00	-4.2839596964e-01
 7.5645248269e-01	 2.3828092829e+00	-3.9242337184e-01
 7.3452493742e-01	 2.3896597517e+00	-3.5660883046e-01
 7.1258553976e-01	 2.3962935153e+00	-3.2234974762e-01
 6.9063730053e-01	 2.4027111766e+00	-2.8983989788e-01
 6.6868320514e-01	 2.4089133907e+00	-2.5872313249e-01
 6.4672621255e-01	 2.4149008638e+00	-2.2868740954e-01
 6.2390176713e-01	 2.3296734959e+00	-2.5937307253e-01
 6.0271972034e-01	 2.3352432252e+00	-2.2516754379e-01
 5.8154050900e-01	 2.3406073021e+00	-1.9195193581e-01
 5.6036690706e-01	 2.3457665534e+00	-1.5973033434e-01
 5.3920165923e-01	 2.3507218515e+00	-1.2852850429e-01
 5.1804748016e-01	 2.3554741136e+00	-9.8386638954e-02
 4.9690705358e-01	 2.3600243005e+00	-6.9352740393e-02
 4.7578303159e-01	 2.3643734159e+00	-4.1476587402e-02
 4.5467803390e-01	 2.3685225051e+00	-1.4804245457e-02
 4.3359464711e-01	 2.3724726541e+00	 1.0626928089e-02
 4.1253542408e-01	 2.3762249887e+00	 3.4792831167e-02
 6.2618416607e-01	 2.3381960624e+00	-2.5150229875e-01
 6.0492462972e-01	 2.3437861673e+00	-2.1670842534e-01
 5.8366793917e-01	 2.3491698675e+00	-1.8327283835e-01
 5.6241687855e-01	 2.3543479926e+00	-1.5114994724e-01
 5.4117420261e-01	 2.3593214186e+00	-1.2031161813e-01
 5.1994263591e-01	 2.3640910657e+00	-9.0740148781e-02
 4.9872487202e-01	 2.3686578984e+00	-6.2421891630e-02
 4.7752357273e-01	 2.3730229240e+00	-3.5341479319e-02
 4.5634136733e-01	 2.3771871917e+00	-9.4766050472e-03
 4.3518085189e-01	 2.3811517914e+00	 1.5206690982e-02
 4.1404458862e-01	 2.3849178530e+00	 3.8758278655e-02
 6.2846656308e-01	 2.3467186217e+00	-2.4453322800e-01
 6.0712953722e-01	 2.3523291022e+00	-2.0960815994e-01
 5.8579536754e-01	 2.3577324255e+00	-1.7627568153e-01
 5.6446684831e-01	 2.3629294246e+00	-1.4444939526e-01
 5.4314674432e-01	 2.3679209783e+00	-1.1405751115e-01
 5.2183779006e-01	 2.3727080104e+00	-8.5036011198e-02
 5.0054268891e-01	 2.3772914890e+00	-5.7322478209e-02
 4.7926411239e-01	 2.3816724248e+00	-3.0850541335e-02
 4.5800469934e-01	 2.3858518709e+00	-5.5448888834e-03
 4.3676705532e-01	 2.3898309212e+00	 1.8683202460e-02
 4.1555375187e-01	 2.3936107099e+00	 4.1939873569e-02
 6.3074896268e-01	 2.3552411907e+00	-2.3853030404e-01
 6.0933444722e-01	 2.3608720467e+00	-2.0384831436e-01
 5.8792279832e-01	 2.3662949932e+00	-1.7087624993e-01
 5.6651682039e-01	 2.3715108663e+00	-1.3949559195e-01
 5.4511928825e-01	 2.3765205478e+00	-1.0960094185e-01
 5.2373294635e-01	 2.3813249650e+00	-8.1093339274e-02
 5.0236050787e-01	 2.3859250893e+00	-5.3874260125e-02
 4.8100465402e-01	 2.3903219353e+00	-2.7840245140e-02
 4.5966803325e-01	 2.3945165599e+00	-2.8781075292e-03
 4.3835326056e-01	 2.3985100610e+00	 2.1139333057e-02
 4.1706291683e-01	 2.4023035767e+00	 4.4357043770e-02
 6.3303136939e-01	 2.3637637862e+00	-2.3355656042e-01
 6.1153936410e-01	 2.3694150178e+00	-1.9941023448e-01
 5.9005023573e-01	 2.3748575877e+00	-1.6699105950e-01
 5.6856679885e-01	 2.3800923347e+00	-1.3615689950e-01
 5.4709183834e-01	 2.3851201440e+00	-1.0677860179e-01
 5.2562810855e-01	 2.3899419463e+00	-7.8733432861e-02
 5.0417833249e-01	 2.3945587165e+00	-5.1899209595e-02
 4.8274520107e-01	 2.3989714728e+00	-2.6149074174e-02
 4.6133137233e-01	 2.4031812759e+00	-1.3468594067e-03
 4.3993947073e-01	 2.4071892278e+00	 2.2657010168e-02
 4.1857208649e-01	 2.4109964706e+00	 4.6029136888e-02
 6.3531378774e-01	 2.3722864252e+00	-2.2967365376e-01
 6.1374429222e-01	 2.3779580325e+00	-1.9627505484e-01
 5.9217768399e-01	 2.3834202258e+00	-1.6453734781e-01
 5.7061678778e-01	 2.3886738469e+00	-1.3430310415e-01
 5.4906439849e-01	 2.3937197842e+00	-1.0542908051e-01
 5.2752328041e-01	 2.3985589717e+00	-7.7779737488e-02
 5.0599616639e-01	 2.4031923878e+00	-5.1221468187e-02
 4.8448575701e-01	 2.4076210544e+00	-2.5617483249e-02
 4.6299471990e-01	 2.4118460362e+00	-8.2329712765e-04
 4.4152568900e-01	 2.4158684388e+00	 2.3317240887e-02
 4.2008126385e-01	 2.4196894088e+00	 4.6975428234e-02
 6.3759622226e-01	 2.3808091246e+00	-2.2694189683e-01
 6.1594923596e-01	 2.3865011078e+00	-1.9442370831e-01
 5.9430514733e-01	 2.3919829245e+00	-1.6343306485e-01
 5.7266679123e-01	 2.3972554198e+00	-1.3380539240e-01
 5.5103697261e-01	 2.4023194852e+00	-1.0539283156e-01
 5.2941846571e-01	 2.4071760580e+00	-7.8057804410e-02
 5.0781401316e-01	 2.4118261202e+00	-5.1667305127e-02
 4.8622632527e-01	 2.4162706973e+00	-2.6087859285e-02
 4.6465807926e-01	 2.4205108578e+00	-1.1810947464e-03
 4.4311191851e-01	 2.4245477113e+00	 2.3200134170e-02
 4.2159045190e-01	 2.4283824086e+00	 4.7215128400e-02
 6.3987867747e-01	 2.3893319012e+00	-2.2542029120e-01
 6.1815419969e-01	 2.3950442605e+00	-1.9383693597e-01
 5.9643262995e-01	 2.4005457009e+00	-1.6359686435e-01
 5.7471681326e-01	 2.4058370706e+00	-1.3453632813e-01
 5.5300956462e-01	 2.4109192643e+00	-1.0651213955e-01
 5.3131366818e-01	 2.4157932225e+00	-7.9395251791e-02
 5.0963187641e-01	 2.4204599309e+00	-5.3065076747e-02
 4.8796690932e-01	 2.4249204187e+00	-2.7404483095e-02
 4.6632145369e-01	 2.4291757579e+00	-2.2954159144e-03
 4.4469816239e-01	 2.4332270626e+00	 2.2384922356e-02
 4.2309965364e-01	 2.4370754872e+00	 4.6767390548e-02
 6.4216115791e-01	 2.3978547720e+00	-2.2516655974e-01
 6.2035918778e-01	 2.4035875076e+00	-1.9449529718e-01
 5.9856013608e-01	 2.4091085720e+00	-1.6494809567e-01
 5.7676685794e-01	 2.4144188162e+00	-1.3636983046e-01
 5.5498217842e-01	 2.4195191383e+00	-1.0863108816e-01
 5.3320889160e-01	 2.4244104823e+00	-8.1621726992e-02
 5.1144975975e-01	 2.4290938370e+00	-5.5245187053e-02
 4.8970751260e-01	 2.4335702356e+00	-2.9413492216e-02
 4.6798484651e-01	 2.4378407539e+00	-4.0428829105e-03
 4.4628442381e-01	 2.4419065097e+00	 2.0949982058e-02
 4.2460887205e-01	 2.4457686619e+00	 4.5651317398e-02
 6.4444366809e-01	 2.4063777539e+00	-2.2623717868e-01
 6.2256420462e-01	 2.4121308660e+00	-1.9637917976e-01
 6.0068766994e-01	 2.4176715546e+00	-1.6740679624e-01
 5.7881692935e-01	 2.4230006737e+00	-1.3918115247e-01
 5.5695481794e-01	 2.4281191245e+00	-1.1159552923e-01
 5.3510413971e-01	 2.4330278543e+00	-8.4568869931e-02
 5.1326766678e-01	 2.4377278557e+00	-5.8040049376e-02
 4.9144813856e-01	 2.4422201652e+00	-3.1962844754e-02
 4.6964826100e-01	 2.4465058627e+00	-6.3015465262e-03
 4.4787070589e-01	 2.4505860700e+00	 1.8972854440e-02
 4.2611811014e-01	 2.4544619498e+00	 4.3885967926e-02
 6.4672621255e-01	 2.4149008638e+00	-2.2868740954e-01
 6.2476925456e-01	 2.4206743528e+00	-1.9946881038e-01
 6.0281523574e-01	 2.4262346658e+00	-1.7089368441e-01
 5.8086703153e-01	 2.4315826600e+00	-1.4284686067e-01
 5.5892748707e-01	 2.4367192398e+00	-1.1525305269e-01
 5.3699941629e-01	 2.4416453558e+00	-8.8070277498e-02
 5.1508560111e-01	 2.4463620040e+00	-6.1284049075e-02
 4.9318879066e-01	 2.4508702248e+00	-3.4902284212e-02
 4.7131170048e-01	 2.4551711017e+00	-8.9508567841e-03
 4.4945701180e-01	 2.4592657606e+00	 1.6530264887e-02
 4.2762737088e-01	 2.4631553684e+00	 4.1490363772e-02
 4.1253542408e-01	 2.3762249887e+00	 3.4792831167e-02
 3.9149931087e-01	 2.3797812609e+00	 5.8236922687e-02
 3.7049237917e-01	 2.3831420173e+00	 8.1713093206e-02
 3.4951708351e-01	 2.3863084955e+00	 1.0453821547e-01
 3.2857584217e-01	 2.3892819685e+00	 1.2574576858e-01
 3.0767103664e-01	 2.3920637443e+00	 1.4531114657e-01
 2.8680501121e-01	 2.3946551640e+00	 1.6327512288e-01
 2.6598007245e-01	 2.3970576014e+00	 1.7973661844e-01
 2.4519848886e-01	 2.3992724614e+00	 1.9484626167e-01
 2.2446249046e-01	 2.4013011794e+00	 2.0880067421e-01
 2.0377426846e-01	 2.4031452201e+00	 2.2183743382e-01
 4.1404458862e-01	 2.3849178530e+00	 3.8758278655e-02
 3.9293151969e-01	 2.3884871350e+00	 6.1710730585e-02
 3.7184773904e-01	 2.3918601860e+00	 8.4736808165e-02
 3.5079571016e-01	 2.3950382479e+00	 1.0725972193e-01
 3.2977786017e-01	 2.3980225988e+00	 1.2821181574e-01
 3.0879657930e-01	 2.4008145510e+00	 1.4755694583e-01
 2.8785422038e-01	 2.4034154508e+00	 1.6532375992e-01
 2.6695309844e-01	 2.4058266769e+00	 1.8159424173e-01
 2.4609549028e-01	 2.4080496395e+00	 1.9649744629e-01
 2.2528363408e-01	 2.4100857791e+00	 2.1020397223e-01
 2.0451972904e-01	 2.4119365657e+00	 2.2292112078e-01
 4.1555375187e-01	 2.3936107099e+00	 4.1939873569e-02
 3.9436372730e-01	 2.3971930017e+00	 6.4700706594e-02
 3.7320309775e-01	 2.4005783472e+00	 8.7524738818e-02
 3.5207433572e-01	 2.4037679930e+00	 1.0993138093e-01
 3.3097987716e-01	 2.4067632215e+00	 1.3077144914e-01
 3.0992212099e-01	 2.4095653503e+00	 1.4999346160e-01
 2.8890342866e-01	 2.4121757302e+00	 1.6761846308e-01
 2.6792612361e-01	 2.4145957450e+00	 1.8371685837e-01
 2.4699249095e-01	 2.4168268101e+00	 1.9840230092e-01
 2.2610477700e-01	 2.4188703713e+00	 2.1182632921e-01
 2.0526518900e-01	 2.4207279040e+00	 2.2417369928e-01
 4.1706291683e-01	 2.4023035767e+00	 4.4357043770e-02
 3.9579593653e-01	 2.4058988783e+00	 6.7161272898e-02
 3.7455845801e-01	 2.4092965183e+00	 8.9978327304e-02
 3.5335296273e-01	 2.4124977479e+00	 1.1241431749e-01
 3.3218189550e-01	 2.4155038542e+00	 1.3325720642e-01
 3.1104766397e-01	 2.4183161594e+00	 1.5243663638e-01
 2.8995263813e-01	 2.4209360195e+00	 1.6997046916e-01
 2.6889914988e-01	 2.4233648231e+00	 1.8592277908e-01
 2.4788949262e-01	 2.4256039907e+00	 2.0039787328e-01
 2.2692592085e-01	 2.4276549735e+00	 2.1353507010e-01
 2.0601064979e-01	 2.4295192521e+00	 2.2550418257e-01
 4.1857208649e-01	 2.4109964706e+00	 4.6029136888e-02
 3.9722815022e-01	 2.4146047820e+00	 6.9047655113e-02
 3.7591382248e-01	 2.4180147166e+00	 9.2000528585e-02
 3.5463159372e-01	 2.4212275301e+00	 1.1457167336e-01
 3.3338391759e-01	 2.4242445142e+00	 1.3550399516e-01
 3.1217321045e-01	 2.4270669959e+00	 1.5470497182e-01
 2.9100185087e-01	 2.4296963361e+00	 1.7219360022e-01
 2.6987217919e-01	 2.4321339285e+00	 1.8803276386e-01
 2.4878649710e-01	 2.4343811987e+00	 2.0232336342e-01
 2.2774706725e-01	 2.4364396031e+00	 2.1519921529e-01
 2.0675611291e-01	 2.4383106277e+00	 2.2682266384e-01
 4.2008126385e-01	 2.4196894088e+00	 4.6975428234e-02
 3.9866037122e-01	 2.4233107301e+00	 7.0315874769e-02
 3.7726919388e-01	 2.4267329594e+00	 9.3495790485e-02
 3.5591023124e-01	 2.4299573567e+00	 1.1626857890e-01
 3.3458594582e-01	 2.4329852187e+00	 1.3734905786e-01
 3.1329876267e-01	 2.4358178770e+00	 1.5661948989e-01
 2.9205106896e-01	 2.4384566973e+00	 1.7410422392e-01
 2.7084521345e-01	 2.4409030786e+00	 1.8986998448e-01
 2.4968350615e-01	 2.4431584514e+00	 2.0402009121e-01
 2.2856821785e-01	 2.4452242775e+00	 2.1668945609e-01
 2.0750157984e-01	 2.4471020481e+00	 2.2804030245e-01
 4.2159045190e-01	 2.4283824086e+00	 4.7215128400e-02
 4.0009260236e-01	 2.4320167399e+00	 7.0922741826e-02
 3.7862457487e-01	 2.4354512639e+00	 9.4370034066e-02
 3.5718887781e-01	 2.4386872453e+00	 1.1737212552e-01
 3.3578798255e-01	 2.4417259852e+00	 1.3863193775e-01
 3.1442432287e-01	 2.4445688201e+00	 1.5800369486e-01
 2.9310029448e-01	 2.4472171207e+00	 1.7552121470e-01
 2.7181825461e-01	 2.4496722908e+00	 1.9125998767e-01
 2.5058052155e-01	 2.4519357663e+00	 2.0533146449e-01
 2.2938937426e-01	 2.4540090141e+00	 2.1787813061e-01
 2.0824705204e-01	 2.4558935309e+00	 2.2906931046e-01
 4.2309965364e-01	 2.4370754872e+00	 4.6767390548e-02
 4.0152484649e-01	 2.4407228286e+00	 7.0825847235e-02
 3.7997996815e-01	 2.4441696475e+00	 9.4530634310e-02
 3.5846753598e-01	 2.4474172129e+00	 1.1775133866e-01
 3.3699003019e-01	 2.4504668309e+00	 1.3919444522e-01
 3.1554989327e-01	 2.4533198425e+00	 1.5868353614e-01
 2.9414952952e-01	 2.4559776234e+00	 1.7626591571e-01
 2.7279130460e-01	 2.4584415825e+00	 1.9203065917e-01
 2.5147754509e-01	 2.4607131608e+00	 2.0610294790e-01
 2.3021053812e-01	 2.4627938304e+00	 2.1863920024e-01
 2.0899253100e-01	 2.4646850933e+00	 2.2982293937e-01
 4.2460887205e-01	 2.4457686619e+00	 4.5651317398e-02
 4.0295710645e-01	 2.4494290136e+00	 6.9983555538e-02
 3.8133537641e-01	 2.4528881274e+00	 9.3886401134e-02
 3.5974620828e-01	 2.4561472771e+00	 1.1727715131e-01
 3.3819209111e-01	 2.4592077732e+00	 1.3888062487e-01
 3.1667547611e-01	 2.4620709616e+00	 1.5848737172e-01
 2.9519877615e-01	 2.4647382230e+00	 1.7616210162e-01
 2.7376436533e-01	 2.4672109712e+00	 1.9201218840e-01
 2.5237457853e-01	 2.4694906523e+00	 2.0618203234e-01
 2.3103171105e-01	 2.4715787437e+00	 2.1884822650e-01
 2.0973801820e-01	 2.4734767528e+00	 2.3021546720e-01
 4.2611811014e-01	 2.4544619498e+00	 4.3885967926e-02
 4.0438938508e-01	 2.4581353120e+00	 6.8354997496e-02
 3.8269080233e-01	 2.4616067209e+00	 9.2347560690e-02
 3.6102489724e-01	 2.4648774550e+00	 1.1582237800e-01
 3.3939416770e-01	 2.4679488294e+00	 1.3753672333e-01
 3.1780107362e-01	 2.4708221948e+00	 1.5724593252e-01
 2.9624803646e-01	 2.4734989368e+00	 1.7503594206e-01
 2.7473743875e-01	 2.4759804741e+00	 1.9103703395e-01
 2.5327162367e-01	 2.4782682582e+00	 2.0541820502e-01
 2.3185289468e-01	 2.4803637715e+00	 2.1838234841e-01
 2.1048351511e-01	 2.4822685270e+00	 2.3016218568e-01
 4.2762737088e-01	 2.4631553684e+00	 4.1490363772e-02
 4.0582168521e-01	 2.4668417411e+00	 6.5900062769e-02
 3.8404624861e-01	 2.4703254454e+00	 8.9825736978e-02
 3.6230360541e-01	 2.4736077640e+00	 1.1326168932e-01
 3.4059626234e-01	 2.4766900169e+00	 1.3501115763e-01
 3.1892668803e-01	 2.4795735594e+00	 1.5479228728e-01
 2.9729731252e-01	 2.4822597821e+00	 1.7271596589e-01
 2.7571052678e-01	 2.4847501087e+00	 1.8893988969e-01
 2.5416868228e-01	 2.4870459959e+00	 2.0366292018e-01
 2.3267409065e-01	 2.4891489313e+00	 2.1712026033e-01
 2.1122902322e-01	 2.4910604332e+00	 2.2957938783e-01
 2.0377426846e-01	 2.4031452201e+00	 2.2183743382e-01
 1.8313947057e-01	 2.4048058091e+00	 2.3400334959e-01
 1.6255664758e-01	 2.4062847945e+00	 2.4504817357e-01
 1.4202782445e-01	 2.4075837209e+00	 2.5482037545e-01
 1.2155498752e-01	 2.4087041578e+00	 2.6321294660e-01
 1.0114008431e-01	 2.4096476990e+00	 2.7016118780e-01
 8.0785023340e-02	 2.4104159608e+00	 2.7564087126e-01
 6.0491674005e-02	 2.4110105817e+00	 2.7966673545e-01
 4.0261866415e-02	 2.4114332208e+00	 2.8229127289e-01
 2.0097391313e-02	 2.4116855573e+00	 2.8360377285e-01
 0.0000000000e+00	 2.4117692892e+00	 2.8372958310e-01
 2.0451972904e-01	 2.4119365657e+00	 2.2292112078e-01
 1.8380944356e-01	 2.4136032297e+00	 2.3474909573e-01
 1.6315132313e-01	 2.4150876256e+00	 2.4552313942e-01
 1.4254740009e-01	 2.4163913038e+00	 2.5510569118e-01
 1.2199966806e-01	 2.4175158396e+00	 2.6340243919e-01
 1.0151008169e-01	 2.4184628325e+00	 2.7036021287e-01
 8.1080556488e-02	 2.4192339048e+00	 2.7596525186e-01
 6.0712968673e-02	 2.4198307010e+00	 2.8024180887e-01
 4.0409155054e-02	 2.4202548862e+00	 2.8325104587e-01
 2.0170912927e-02	 2.4205081459e+00	 2.8509018468e-01
 0.0000000000e+00	 2.4205921840e+00	 2.8589187521e-01
 2.0526518900e-01	 2.4207279040e+00	 2.2417369928e-01
 1.8447941599e-01	 2.4224006428e+00	 2.3561750356e-01
 1.6374599816e-01	 2.4238904492e+00	 2.4608911399e-01
 1.4306697529e-01	 2.4251988792e+00	 2.5545937267e-01
 1.2244434823e-01	 2.4263275139e+00	 2.6364031244e-01
 1.0188007876e-01	 2.4272779585e+00	 2.7058318407e-01
 8.1376089384e-02	 2.4280518413e+00	 2.7627686226e-01
 6.0934263151e-02	 2.4286508127e+00	 2.8074658695e-01
 4.0556443568e-02	 2.4290765441e+00	 2.8405299820e-01
 2.0244434479e-02	 2.4293307269e+00	 2.8629142498e-01
 0.0000000000e+00	 2.4294150713e+00	 2.8759139028e-01
 2.0601064979e-01	 2.4295192521e+00	 2.2550418257e-01
 1.8514938917e-01	 2.4311980659e+00	 2.3655993851e-01
 1.6434067388e-01	 2.4326932828e+00	 2.4672988624e-01
 1.4358655107e-01	 2.4340064646e+00	 2.5588778194e-01
 1.2288902890e-01	 2.4351391981e+00	 2.6394573417e-01
 1.0225007625e-01	 2.4360930945e+00	 2.7085239585e-01
 8.1671622614e-02	 2.4368697878e+00	 2.7659153739e-01
 6.1155557880e-02	 2.4374709345e+00	 2.8118095663e-01
 4.0703732248e-02	 2.4378982120e+00	 2.8467168275e-01
 2.0317956114e-02	 2.4381533179e+00	 2.8714743346e-01
 0.0000000000e+00	 2.4382379687e+00	 2.8872428705e-01
 2.0675611291e-01	 2.4383106277e+00	 2.2682266384e-01
 1.8581936445e-01	 2.4399955163e+00	 2.3752822611e-01
 1.6493535144e-01	 2.4414961438e+00	 2.4742923333e-01
 1.4410612847e-01	 2.4428140775e+00	 2.5639694360e-01
 1.2333371095e-01	 2.4439509099e+00	 2.6433735378e-01
 1.0262007490e-01	 2.4449082579e+00	 2.7118958607e-01
 8.1967156765e-02	 2.4456877618e+00	 2.7692465844e-01
 6.1376853298e-02	 2.4462910838e+00	 2.8154459320e-01
 4.0851021386e-02	 2.4467199074e+00	 2.8508182013e-01
 2.0391477977e-02	 2.4469759364e+00	 2.8759883223e-01
 0.0000000000e+00	 2.4470608935e+00	 2.8918805482e-01
 2.0750157984e-01	 2.4471020481e+00	 2.2804030245e-01
 1.8648934314e-01	 2.4487930117e+00	 2.3847464915e-01
 1.6553003204e-01	 2.4502990498e+00	 2.4817092601e-01
 1.4462570852e-01	 2.4516217353e+00	 2.5699255584e-01
 1.2377839527e-01	 2.4527626665e+00	 2.6483331620e-01
 1.0299007542e-01	 2.4537234664e+00	 2.7161595043e-01
 8.2262692423e-02	 2.4545057808e+00	 2.7729116521e-01
 6.1598149844e-02	 2.4551112780e+00	 2.8183696798e-01
 4.0998311275e-02	 2.4555416478e+00	 2.8525829920e-01
 2.0465000216e-02	 2.4557985999e+00	 2.8758691679e-01
 0.0000000000e+00	 2.4558838633e+00	 2.8888149224e-01
 2.0824705204e-01	 2.4558935309e+00	 2.2906931046e-01
 1.8715932657e-01	 2.4575905694e+00	 2.3935194483e-01
 1.6612471684e-01	 2.4591020180e+00	 2.4893873387e-01
 1.4514529225e-01	 2.4604294554e+00	 2.5768000118e-01
 1.2422308274e-01	 2.4615744856e+00	 2.6545127566e-01
 1.0336007857e-01	 2.4625387372e+00	 2.7215215655e-01
 8.2558230173e-02	 2.4633238622e+00	 2.7770556812e-01
 6.1819447957e-02	 2.4639315348e+00	 2.8205735578e-01
 4.1145602207e-02	 2.4643634507e+00	 2.8517617757e-01
 2.0538522974e-02	 2.4646213259e+00	 2.8705364712e-01
 0.0000000000e+00	 2.4647068957e+00	 2.8770468674e-01
 2.0899253100e-01	 2.4646850933e+00	 2.2982293937e-01
 1.8782931608e-01	 2.4663882068e+00	 2.4011330199e-01
 1.6671940704e-01	 2.4679050661e+00	 2.4971643039e-01
 1.4566488070e-01	 2.4692372555e+00	 2.5846435693e-01
 1.2466777424e-01	 2.4703863846e+00	 2.6620840899e-01
 1.0373008508e-01	 2.4713540880e+00	 2.7281835780e-01
 8.2853770602e-02	 2.4721420236e+00	 2.7818196000e-01
 6.2040748075e-02	 2.4727518715e+00	 2.8220484230e-01
 4.1292894474e-02	 2.4731853336e+00	 2.8481068212e-01
 2.0612046399e-02	 2.4734441320e+00	 2.8594163898e-01
 0.0000000000e+00	 2.4735300080e+00	 2.8555899425e-01
 2.0973801820e-01	 2.4734767528e+00	 2.3021546720e-01
 1.8849931299e-01	 2.4751859415e+00	 2.4071235831e-01
 1.6731410382e-01	 2.4767082115e+00	 2.5048779796e-01
 1.4618447488e-01	 2.4780451528e+00	 2.5935040543e-01
 1.2511247065e-01	 2.4791983810e+00	 2.6712142870e-01
 1.0410009566e-01	 2.4801695363e+00	 2.7363420675e-01
 8.3149314295e-02	 2.4809602824e+00	 2.7873402754e-01
 6.2262050637e-02	 2.4815723057e+00	 2.8227833118e-01
 4.1440188367e-02	 2.4820073140e+00	 2.8413720945e-01
 2.0685570636e-02	 2.4822670355e+00	 2.8419415540e-01
 0.0000000000e+00	 2.4823532178e+00	 2.8234701947e-01
 2.1048351511e-01	 2.4822685270e+00	 2.3016218568e-01
 1.8916931864e-01	 2.4839837908e+00	 2.4110319761e-01
 1.6790880834e-01	 2.4855114716e+00	 2.5123663269e-01
 1.4670407583e-01	 2.4868531650e+00	 2.6034264401e-01
 1.2555717286e-01	 2.4880104922e+00	 2.6820659575e-01
 1.0447011108e-01	 2.4889850994e+00	 2.7461886830e-01
 8.3444861838e-02	 2.4897786561e+00	 2.7937506254e-01
 6.2483356083e-02	 2.4903928548e+00	 2.8227655106e-01
 4.1587484179e-02	 2.4908294093e+00	 2.8313132634e-01
 2.0759095830e-02	 2.4910900540e+00	 2.8175509833e-01
 0.0000000000e+00	 2.4911765427e+00	 2.7797259644e-01
 2.1122902322e-01	 2.4910604332e+00	 2.2957938783e-01
 1.8983933434e-01	 2.4927817722e+00	 2.4124034710e-01
 1.6850352179e-01	 2.4943148639e+00	 2.5194674906e-01
 1.4722368459e-01	 2.4956613094e+00	 2.6144529475e-01
 1.2600188175e-01	 2.4968227358e+00	 2.6947973193e-01
 1.0484013204e-01	 2.4978007949e+00	 2.7579103256e-01
 8.3740413818e-02	 2.4985971623e+00	 2.8011797286e-01
 6.2704664850e-02	 2.4992135364e+00	 2.8219806231e-01
 4.1734782201e-02	 2.4996516371e+00	 2.8176877014e-01
 2.0832622128e-02	 2.4999132050e+00	 2.7856900044e-01
 0.0000000000e+00	 2.5000000000e+00	 2.7234076963e-01
