x	y	stress_yy
 1.000000000000000e+00	 0.000000000000000e+00	 3.085457170310215e+01
 9.999652819873316e-01	 8.333048840547298e-03	 3.084977529757973e+01
 9.998606548526504e-01	 1.669391286202172e-02	 3.083474029003654e+01
 9.996854145678035e-01	 2.508186591579744e-02	 3.080938256495578e+01
 9.994388649236412e-01	 3.349616549931930e-02	 3.077362614000538e+01
 9.991203179452327e-01	 4.193605278629495e-02	 3.072740346667424e+01
 9.987290943103193e-01	 5.040075266753075e-02	 3.067065574374455e+01
 9.982645237707195e-01	 5.888947380262372e-02	 3.060333324375302e+01
 9.977259455763865e-01	 6.740140868271496e-02	 3.052539565250146e+01
 9.971127089018138e-01	 7.593573370450242e-02	 3.043681242157797e+01
 9.964241732744672e-01	 8.449160925570288e-02	 3.033756313373855e+01
 1.008823457328410e+00	 0.000000000000000e+00	 3.023050545631489e+01
 1.008788432982907e+00	 8.406575145132409e-03	 3.022593061384466e+01
 1.008682882675344e+00	 1.684121089620530e-02	 3.021162032062217e+01
 1.008506096165558e+00	 2.530317469758155e-02	 3.018749789091116e+01
 1.008257371101382e+00	 3.379171749539848e-02	 3.015349323999176e+01
 1.007936013437521e+00	 4.230607376802643e-02	 3.010954314483238e+01
 1.007541337857695e+00	 5.084546156726499e-02	 3.005559151962213e+01
 1.007072668199768e+00	 5.940908257049081e-02	 2.999158970645326e+01
 1.006529337883544e+00	 6.799612214396498e-02	 2.991749678135205e+01
 1.005910690340937e+00	 7.660574941749865e-02	 2.983327987574839e+01
 1.005216079448178e+00	 8.523711737066911e-02	 2.973891451336553e+01
 1.017646782159778e+00	 0.000000000000000e+00	 2.963248800935489e+01
 1.017611451486040e+00	 8.480100344912849e-03	 2.962816041674961e+01
 1.017504978019459e+00	 1.698850671730691e-02	 2.961456262893054e+01
 1.017326645307965e+00	 2.552448015460338e-02	 2.959162581922092e+01
 1.017075744856467e+00	 3.408726505170349e-02	 2.955928628828370e+01
 1.016751576549402e+00	 4.267608919171342e-02	 2.951748568556748e+01
 1.016353449076568e+00	 5.129016378750074e-02	 2.946617124764489e+01
 1.015880680361970e+00	 5.992868353429856e-02	 2.940529605387579e+01
 1.015332597995354e+00	 6.859082667356628e-02	 2.933481929972597e+01
 1.014708539666144e+00	 7.727575506830839e-02	 2.925470658796796e+01
 1.014007853599432e+00	 8.598261429004454e-02	 2.916493023787084e+01
 1.026469991993312e+00	 0.000000000000000e+00	 2.905880364118040e+01
 1.026434354995330e+00	 8.553624585774041e-03	 2.905473955873256e+01
 1.026326958381762e+00	 1.713580061756481e-02	 2.904183563728291e+01
 1.026147079488713e+00	 2.574578272591117e-02	 2.902003133446086e+01
 1.025894003678258e+00	 3.438280875453906e-02	 2.898926981734183e+01
 1.025567024764651e+00	 4.304609979135286e-02	 2.894949814535124e+01
 1.025165445443851e+00	 5.173486021035203e-02	 2.890066747210912e+01
 1.024688577726083e+00	 6.044827772469145e-02	 2.884273326678536e+01
 1.024135743371121e+00	 6.918552345109567e-02	 2.877565555543641e+01
 1.023506274325981e+00	 7.794575198583098e-02	 2.869939918268165e+01
 1.022799513164692e+00	 8.672810149242928e-02	 2.861393409395543e+01
 1.035293104328222e+00	 0.000000000000000e+00	 2.850779524655986e+01
 1.035257161009377e+00	 8.627148013601409e-03	 2.850400167842988e+01
 1.035148841259015e+00	 1.728309288921725e-02	 2.849176665272735e+01
 1.034967416201492e+00	 2.596708285055307e-02	 2.847103833291159e+01
 1.034712165056120e+00	 3.467834919020986e-02	 2.844176722708874e+01
 1.034382375567044e+00	 4.341610630094170e-02	 2.840390633300618e+01
 1.033977344436454e+00	 5.217955171793285e-02	 2.835741130405263e+01
 1.033496377760867e+00	 6.096786617231392e-02	 2.830224063697474e+01
 1.032938791470156e+00	 6.978021365613013e-02	 2.823835588191958e+01
 1.032303911768995e+00	 7.861574149896601e-02	 2.816572187529603e+01
 1.031591075580421e+00	 8.747358045642353e-02	 2.808430699582052e+01
 1.044116136663715e+00	 0.000000000000000e+00	 2.797786185789971e+01
 1.044079887026780e+00	 8.700670774280397e-03	 2.797433671303508e+01
 1.043970644147982e+00	 1.743038382450248e-02	 2.796273937391688e+01
 1.043787672939991e+00	 2.618838096757728e-02	 2.794302712793725e+01
 1.043530246479419e+00	 3.497388694502057e-02	 2.791515829275992e+01
 1.043197646440357e+00	 4.378610945447693e-02	 2.787909232398439e+01
 1.042789163531287e+00	 5.262423919235713e-02	 2.783478994590316e+01
 1.042304097935081e+00	 6.148744990781047e-02	 2.778221330620301e+01
 1.041741759751765e+00	 7.037489846824647e-02	 2.772132615536189e+01
 1.041101469443733e+00	 7.928572493661279e-02	 2.765209405136938e+01
 1.040382558283081e+00	 8.821905266062735e-02	 2.757448459026567e+01
 1.052939106499000e+00	 0.000000000000000e+00	 2.746745629228489e+01
 1.052902550546137e+00	 8.774193013696412e-03	 2.746418853634938e+01
 1.052792384545428e+00	 1.757767371565877e-02	 2.745319152397252e+01
 1.052607867197901e+00	 2.640967751603199e-02	 2.743443208145557e+01
 1.052348265437516e+00	 3.526942260527586e-02	 2.740787679876436e+01
 1.052012854868362e+00	 4.415610998595550e-02	 2.737349210039074e+01
 1.051600920205261e+00	 5.306892351573896e-02	 2.733124434141887e+01
 1.051111755717485e+00	 6.200702996182560e-02	 2.728109992979124e+01
 1.050544665675257e+00	 7.096957906702162e-02	 2.722302547566756e+01
 1.049898964798739e+00	 7.995570362767086e-02	 2.715698796864276e+01
 1.049173978709136e+00	 8.896451958364097e-02	 2.708295498344882e+01
 1.061762031333285e+00	 0.000000000000000e+00	 2.697508291641140e+01
 1.061725169066050e+00	 8.847714877734898e-03	 2.697205271517682e+01
 1.061614079948116e+00	 1.772496285492436e-02	 2.696161260196632e+01
 1.061428016468911e+00	 2.663097293496538e-02	 2.694373935412690e+01
 1.061166239419777e+00	 3.556495675728044e-02	 2.691840829118864e+01
 1.060828018334836e+00	 4.452610862937438e-02	 2.688559330939822e+01
 1.060412631935287e+00	 5.351360557019224e-02	 2.684526694359763e+01
 1.059919368576834e+00	 6.252660736500375e-02	 2.679740045758977e+01
 1.059347526699940e+00	 7.156425663203250e-02	 2.674196396402764e+01
 1.058696415282561e+00	 8.062567890103969e-02	 2.667892657473230e+01
 1.057965354295047e+00	 8.970998270406452e-02	 2.660825658219768e+01
 1.070584928665779e+00	 0.000000000000000e+00	 2.649929552257733e+01
 1.070547760085116e+00	 8.921236512281286e-03	 2.649647437720304e+01
 1.070435747852810e+00	 1.787225153453750e-02	 2.648654174614733e+01
 1.070248138246710e+00	 2.685226766342562e-02	 2.646948476738016e+01
 1.069984185915565e+00	 3.586048998733898e-02	 2.644528794206666e+01
 1.069643154323555e+00	 4.489610611873055e-02	 2.641393313319375e+01
 1.069224316198276e+00	 5.395828623783099e-02	 2.637539959371630e+01
 1.068726953981891e+00	 6.304618314798940e-02	 2.632966402551238e+01
 1.068150360285121e+00	 7.215893234285592e-02	 2.627670067033118e+01
 1.067493838343746e+00	 8.129565208561870e-02	 2.621648143377816e+01
 1.066756702477279e+00	 9.045544350049813e-02	 2.614897604323189e+01
 1.079407815995689e+00	 0.000000000000000e+00	 2.603869530934609e+01
 1.079370341101936e+00	 8.994758063220995e-03	 2.603604618394738e+01
 1.079257405756275e+00	 1.801954004673646e-02	 2.602656570248534e+01
 1.079068250024988e+00	 2.707356214046092e-02	 2.601025177084516e+01
 1.078802122414245e+00	 3.615602288175620e-02	 2.598709851898818e+01
 1.078458280318292e+00	 4.526610318802097e-02	 2.595709626403995e+01
 1.078035990471137e+00	 5.440296640076923e-02	 2.592023150510949e+01
 1.077534529401413e+00	 6.356575834142703e-02	 2.587648695128031e+01
 1.076953183890108e+00	 7.275360737906882e-02	 2.582584158410415e+01
 1.076291251430838e+00	 8.196562451030735e-02	 2.576827075578652e+01
 1.075548040692293e+00	 9.120090345154196e-02	 2.570374632409380e+01
 1.088230710822225e+00	 0.000000000000000e+00	 2.559192896091294e+01
 1.088192929615107e+00	 9.068279676439462e-03	 2.558940640279619e+01
 1.088079071155274e+00	 1.816682868375948e-02	 2.558031689252645e+01
 1.087888369297435e+00	 2.729485680511945e-02	 2.556466950917965e+01
 1.087620066405180e+00	 3.645155602683674e-02	 2.554246845403895e+01
 1.087273413802824e+00	 4.563610057124259e-02	 2.551371297845924e+01
 1.086847672230783e+00	 5.484764694112092e-02	 2.547839734571631e+01
 1.086342112304158e+00	 6.408533397596111e-02	 2.543651082843399e+01
 1.085756014974210e+00	 7.334828292024807e-02	 2.538803774307213e+01
 1.085088671992387e+00	 8.263559750400509e-02	 2.533295752280913e+01
 1.084339386376554e+00	 9.194636403579613e-02	 2.527124482998791e+01
 9.964241732744672e-01	 8.449160925570288e-02	 3.033756313373855e+01
 9.956595725195881e-01	 9.306963622590368e-02	 3.022773974440163e+01
 9.948183983547721e-01	 1.016674728801871e-01	 3.010746792307950e+01
 9.939000435131441e-01	 1.102842106753847e-01	 2.997673830528590e+01
 9.929039128517897e-01	 1.189189249707242e-01	 2.983554982169813e+01
 9.918294237927018e-01	 1.275706751727545e-01	 2.968391007855158e+01
 9.906760067638285e-01	 1.362385048931707e-01	 2.952183575108148e+01
 9.894431056398209e-01	 1.449214421196757e-01	 2.934935298905779e+01
 9.881301781820826e-01	 1.536184993999990e-01	 2.916649783329620e+01
 9.867366964777042e-01	 1.623286740391850e-01	 2.897331664185996e+01
 9.852621473768629e-01	 1.710509483102449e-01	 2.876986652449278e+01
 1.005216079448178e+00	 8.523711737066911e-02	 2.973891451336554e+01
 1.004444732270168e+00	 9.389083219510361e-02	 2.963445465474599e+01
 1.003596136039742e+00	 1.025645314936881e-01	 2.951998324228106e+01
 1.002669678131902e+00	 1.112572987067345e-01	 2.939548073622318e+01
 1.001664758152585e+00	 1.199682010349142e-01	 2.926093547888944e+01
 1.000580788383504e+00	 1.286962895854614e-01	 2.911634409373553e+01
 9.994171942270832e-01	 1.374405995313911e-01	 2.896171189960170e+01
 9.981734146511001e-01	 1.462001502838679e-01	 2.879705333917230e+01
 9.968489026326105e-01	 1.549739456778490e-01	 2.862239242052057e+01
 9.954431256007640e-01	 1.637609741711127e-01	 2.843776317042654e+01
 9.939555658780577e-01	 1.725602090567694e-01	 2.824321009797692e+01
 1.014007853599432e+00	 8.598261429004454e-02	 2.916493023787085e+01
 1.013229760099880e+00	 9.471201583233832e-02	 2.906552572894409e+01
 1.012373741915620e+00	 1.034615766361879e-01	 2.895655296856518e+01
 1.011439181063595e+00	 1.122303721255099e-01	 2.883798312725676e+01
 1.010425471898656e+00	 1.210174613425458e-01	 2.870979467363432e+01
 1.009332021562298e+00	 1.298218870953440e-01	 2.857197378807816e+01
 1.008158250431481e+00	 1.386426761183703e-01	 2.842451479389127e+01
 1.006903592567163e+00	 1.474788392463839e-01	 2.826742060499749e+01
 1.005567496162113e+00	 1.563293716017047e-01	 2.810070318904397e+01
 1.004149423987590e+00	 1.651932527949823e-01	 2.792438404458399e+01
 1.002648853838463e+00	 1.740694471395653e-01	 2.773849469082071e+01
 1.022799513164692e+00	 8.672810149242928e-02	 2.861393409395543e+01
 1.022014673431769e+00	 9.553318876629954e-02	 2.851929330407039e+01
 1.021151233390689e+00	 1.043586100868197e-01	 2.841552985705357e+01
 1.020208569700392e+00	 1.132034328616197e-01	 2.830260646888322e+01
 1.019186071464699e+00	 1.220667079746211e-01	 2.818049239987591e+01
 1.018083140684936e+00	 1.309474699347983e-01	 2.804916387895005e+01
 1.016899192712655e+00	 1.398447370381818e-01	 2.790860454788919e+01
 1.015633656702043e+00	 1.487575115432413e-01	 2.775880592467492e+01
 1.014285976061628e+00	 1.576847798597771e-01	 2.759976788476180e+01
 1.012855608904825e+00	 1.666255127514291e-01	 2.743149915896492e+01
 1.011342028498917e+00	 1.755786655519053e-01	 2.725401784642185e+01
 1.031591075580421e+00	 8.747358045642353e-02	 2.808430699582052e+01
 1.030799489688879e+00	 9.635435262567885e-02	 2.799415443126449e+01
 1.029928627873231e+00	 1.052556336247170e-01	 2.789532313300755e+01
 1.028977861434461e+00	 1.141764828449729e-01	 2.778776814844051e+01
 1.027946574225408e+00	 1.231159430121420e-01	 2.767145014672741e+01
 1.026834163107274e+00	 1.320730403362202e-01	 2.754633584973238e+01
 1.025640038406241e+00	 1.410467846748993e-01	 2.741239848565871e+01
 1.024363624369772e+00	 1.500361697104582e-01	 2.726961826449830e+01
 1.023004359622191e+00	 1.590401731402770e-01	 2.711798287417993e+01
 1.021561697619110e+00	 1.680577568810879e-01	 2.695748799609170e+01
 1.020035107100263e+00	 1.770878672870617e-01	 2.678813783843047e+01
 1.040382558283081e+00	 8.821905266062735e-02	 2.757448459026566e+01
 1.039584226294253e+00	 9.717550903916800e-02	 2.748856050554727e+01
 1.038705942771529e+00	 1.061526490290131e-01	 2.739439614010364e+01
 1.037747073657973e+00	 1.151495240054783e-01	 2.729193961052109e+01
 1.036706997555479e+00	 1.241651685361106e-01	 2.718114356464354e+01
 1.035585106185164e+00	 1.331986005320056e-01	 2.706196561530782e+01
 1.034380804847875e+00	 1.422488214125964e-01	 2.693436879970751e+01
 1.033093512884382e+00	 1.513148162840521e-01	 2.679832206352125e+01
 1.031722664134840e+00	 1.603955541314154e-01	 2.665380076872096e+01
 1.030267707397086e+00	 1.694899880245941e-01	 2.650078722374857e+01
 1.028728106883340e+00	 1.785970553383068e-01	 2.633927123451475e+01
 1.049173978709136e+00	 8.896451958364097e-02	 2.708295498344881e+01
 1.048368900670936e+00	 9.799665963545866e-02	 2.700101501619363e+01
 1.047483195493863e+00	 1.070496580788411e-01	 2.691126410849014e+01
 1.046516223763096e+00	 1.161225582730450e-01	 2.681364413672446e+01
 1.045467358829610e+00	 1.252143866275290e-01	 2.670810025082333e+01
 1.044335987274461e+00	 1.343241527545505e-01	 2.659458130701539e+01
 1.043121509373192e+00	 1.434508496353468e-01	 2.647304032934390e+01
 1.041823339559904e+00	 1.525934538000410e-01	 2.634343499911636e+01
 1.040440906890610e+00	 1.617509255214033e-01	 2.620572817124295e+01
 1.038973655505396e+00	 1.709222090225831e-01	 2.605988841617424e+01
 1.037421045088988e+00	 1.801062326989132e-01	 2.590589058590243e+01
 1.057965354295047e+00	 8.970998270406452e-02	 2.660825658219768e+01
 1.057153530241971e+00	 9.881780604324247e-02	 2.653007141061590e+01
 1.056260403448518e+00	 1.079466625533347e-01	 2.644449203562490e+01
 1.055285329142001e+00	 1.170955875775819e-01	 2.635145473777438e+01
 1.054227675422494e+00	 1.262635993673991e-01	 2.625089764687844e+01
 1.053086823731018e+00	 1.354496992362507e-01	 2.614276117008915e+01
 1.051862169317826e+00	 1.446528717272240e-01	 2.602698845205664e+01
 1.050553121710371e+00	 1.538720847944426e-01	 2.590352586642086e+01
 1.049159105180538e+00	 1.631062899984514e-01	 2.577232353763175e+01
 1.047679559210682e+00	 1.723544227156898e-01	 2.563333589184192e+01
 1.046113938958048e+00	 1.816154023621531e-01	 2.548652223535311e+01
 1.066756702477279e+00	 9.045544350049813e-02	 2.614897604323189e+01
 1.065938132430403e+00	 9.963894989121116e-02	 2.607433106517897e+01
 1.065037584043776e+00	 1.088436642316269e-01	 2.599269267335800e+01
 1.064054407186855e+00	 1.180686138489978e-01	 2.590399215149018e+01
 1.062987964708828e+00	 1.273128088367230e-01	 2.580816104226168e+01
 1.061837632910689e+00	 1.365752422095023e-01	 2.570513156706362e+01
 1.060602802017413e+00	 1.458548900723017e-01	 2.559483708137066e+01
 1.059282876649815e+00	 1.551507118032747e-01	 2.547721256507118e+01
 1.057877276295661e+00	 1.644616502507708e-01	 2.535219514680255e+01
 1.056385435779585e+00	 1.737866319445492e-01	 2.521972466107648e+01
 1.054806805731360e+00	 1.831245673212992e-01	 2.507974423670341e+01
 1.075548040692293e+00	 9.120090345154196e-02	 2.570374632409380e+01
 1.074722724659275e+00	 1.004600928080565e-01	 2.563244135680062e+01
 1.073814754687918e+00	 1.097406648928512e-01	 2.555452461515268e+01
 1.072823475289827e+00	 1.190416390172018e-01	 2.546992294052767e+01
 1.071748244063308e+00	 1.283620171165029e-01	 2.537856167737787e+01
 1.070588432169329e+00	 1.377007839067012e-01	 2.528036508105764e+01
 1.069343424807589e+00	 1.470569070546535e-01	 2.517525676506138e+01
 1.068012621692267e+00	 1.564293373625551e-01	 2.506316018706392e+01
 1.066595437527016e+00	 1.658170089665724e-01	 2.494399917288293e+01
 1.065091302478747e+00	 1.752188395497967e-01	 2.481769847719911e+01
 1.063499662649765e+00	 1.846337305696236e-01	 2.468418437957806e+01
 1.084339386376554e+00	 9.194636403579613e-02	 2.527124482998791e+01
 1.083507324351631e+00	 1.012812364224699e-01	 2.520309382959142e+01
 1.082591932789227e+00	 1.106376663161409e-01	 2.512869047773685e+01
 1.081592550843088e+00	 1.200146650121027e-01	 2.504795768420361e+01
 1.080508530860630e+00	 1.294112262877406e-01	 2.496081494069604e+01
 1.079339238862790e+00	 1.388263265602434e-01	 2.486717871324388e+01
 1.078084055023988e+00	 1.482589250583530e-01	 2.476696287800881e+01
 1.076742374151761e+00	 1.577079640083017e-01	 2.466007919998080e+01
 1.075313606165639e+00	 1.671723688340671e-01	 2.454643785375747e+01
 1.073797176574809e+00	 1.766510483720674e-01	 2.442594798530337e+01
 1.072192526954103e+00	 1.861428951003989e-01	 2.429851831327713e+01
 9.852621473768629e-01	 1.710509483102449e-01	 2.876986652449278e+01
 9.837063042735066e-01	 1.797828046792139e-01	 2.855639894170401e+01
 9.820684407268566e-01	 1.885246801511627e-01	 2.833306049333209e+01
 9.803480899544126e-01	 1.972755162273639e-01	 2.809987892903064e+01
 9.785448016382446e-01	 2.060342404108244e-01	 2.785690018447839e+01
 9.766581423474189e-01	 2.147997664840680e-01	 2.760418903015458e+01
 9.746876959562029e-01	 2.235709948004863e-01	 2.734182971262637e+01
 9.726330640575948e-01	 2.323468125892456e-01	 2.706992658529409e+01
 9.704938663716977e-01	 2.411260942737208e-01	 2.678860472536744e+01
 9.682697411484724e-01	 2.499077018034106e-01	 2.649801053369610e+01
 9.659603455643851e-01	 2.586904849992691e-01	 2.619831231392391e+01
 9.939555658780577e-01	 1.725602090567694e-01	 2.824321009797692e+01
 9.923859948590488e-01	 1.813691105874806e-01	 2.803904735200585e+01
 9.907336796932259e-01	 1.901881196242338e-01	 2.782548687974059e+01
 9.889981494794223e-01	 1.990161683287150e-01	 2.760254189161691e+01
 9.871789499263163e-01	 2.078521747408316e-01	 2.737024229965056e+01
 9.852756437785816e-01	 2.166950430589465e-01	 2.712863538108875e+01
 9.832878112387866e-01	 2.255436639337991e-01	 2.687778643742297e+01
 9.812150503845686e-01	 2.343969147761029e-01	 2.661777944564549e+01
 9.790569775806152e-01	 2.432536600777888e-01	 2.634871769845640e+01
 9.768132278849667e-01	 2.521127517468493e-01	 2.607072442995581e+01
 9.744834554491673e-01	 2.609730294557169e-01	 2.578394342319255e+01
 1.002648853838463e+00	 1.740694471395653e-01	 2.773849469082071e+01
 1.001065555109914e+00	 1.829553926750787e-01	 2.754339558998367e+01
 9.993987885418061e-01	 1.918515341183668e-01	 2.733934794783757e+01
 9.976480791143788e-01	 2.007567942916664e-01	 2.712635054281894e+01
 9.958129685629900e-01	 2.096700817719251e-01	 2.690441750165614e+01
 9.938930158079936e-01	 2.185902911734854e-01	 2.667357898126414e+01
 9.918877973803253e-01	 2.275163034445774e-01	 2.643388184879549e+01
 9.897969078423287e-01	 2.364469861776063e-01	 2.618539035666382e+01
 9.876199602033381e-01	 2.453811939332054e-01	 2.592818680916340e+01
 9.853565863295357e-01	 2.543177685780086e-01	 2.566237221712177e+01
 9.830064373476020e-01	 2.632555396360757e-01	 2.538806693684879e+01
 1.011342028498917e+00	 1.755786655519053e-01	 2.725401784642184e+01
 1.009745002239733e+00	 1.845416540880865e-01	 2.706771876130108e+01
 1.008063784457593e+00	 1.935149269326224e-01	 2.687290068802179e+01
 1.006297896014211e+00	 2.024973975684194e-01	 2.666954804353007e+01
 1.004446874671686e+00	 2.114879651095853e-01	 2.645765936719348e+01
 1.002510275526112e+00	 2.204855145865648e-01	 2.623724802432862e+01
 1.000487671436852e+00	 2.294889172452022e-01	 2.600834291063681e+01
 9.983786534510133e-01	 2.384970308597194e-01	 2.577098915428562e+01
 9.961828312226307e-01	 2.475087000595783e-01	 2.552524881216597e+01
 9.938998334260826e-01	 2.565227566701822e-01	 2.527120155665652e+01
 9.915293081632356e-01	 2.655380200673481e-01	 2.500894534903399e+01
 1.020035107100263e+00	 1.770878672870617e-01	 2.678813783843047e+01
 1.018424353462134e+00	 1.861278979725826e-01	 2.661035386758049e+01
 1.016728684625583e+00	 1.951783013660614e-01	 2.642446502417353e+01
 1.014947617333847e+00	 2.042379816111748e-01	 2.623044139736754e+01
 1.013080685375823e+00	 2.133058283592927e-01	 2.602826609661195e+01
 1.011127440023394e+00	 2.223807170570650e-01	 2.581793598022385e+01
 1.009087450464400e+00	 2.314615092480545e-01	 2.559946238758765e+01
 1.006960304230760e+00	 2.405470528884052e-01	 2.537287187162452e+01
 1.004745607621257e+00	 2.496361826765149e-01	 2.513820692796038e+01
 1.002442986118509e+00	 2.587277203966641e-01	 2.489552671700374e+01
 1.000052084799612e+00	 2.678204752765360e-01	 2.464490777494018e+01
 1.028728106883340e+00	 1.785970553383068e-01	 2.633927123451476e+01
 1.027103625990749e+00	 1.877141274746451e-01	 2.616969733627240e+01
 1.025393506230771e+00	 1.968416607177445e-01	 2.599242131571442e+01
 1.023597260228217e+00	 2.059785498721337e-01	 2.580739893097917e+01
 1.021714417798819e+00	 2.151236751265281e-01	 2.561459797848614e+01
 1.019744526390295e+00	 2.242759023438662e-01	 2.541399905000651e+01
 1.017687151519001e+00	 2.334340833655150e-01	 2.520559629603893e+01
 1.015541877201707e+00	 2.425970563296270e-01	 2.498939819204108e+01
 1.013308306381981e+00	 2.517636460036226e-01	 2.476542830382883e+01
 1.010986061350717e+00	 2.609326641307482e-01	 2.453372604822596e+01
 1.008574784160278e+00	 2.701029097906421e-01	 2.429434744482592e+01
 1.037421045088988e+00	 1.801062326989132e-01	 2.590589058590242e+01
 1.035782837039206e+00	 1.893003457403527e-01	 2.574420267828177e+01
 1.034058266458154e+00	 1.985050082867326e-01	 2.557520798910932e+01
 1.032246841852249e+00	 2.077191058034972e-01	 2.539884790518068e+01
 1.030348089064095e+00	 2.169415090167715e-01	 2.521507498611506e+01
 1.028361551717273e+00	 2.261710742058484e-01	 2.502385375339490e+01
 1.026286791656689e+00	 2.354066435099647e-01	 2.482516148837025e+01
 1.024123389383992e+00	 2.446470452493479e-01	 2.461898903566831e+01
 1.021870944487567e+00	 2.538910942605090e-01	 2.440534160819651e+01
 1.019529076066611e+00	 2.631375922457283e-01	 2.418423958967949e+01
 1.017097423148778e+00	 2.723853281366685e-01	 2.395571933043643e+01
 1.046113938958048e+00	 1.816154023621531e-01	 2.548652223535311e+01
 1.044462003821135e+00	 1.908865559157836e-01	 2.533237826589208e+01
 1.042722982492728e+00	 2.001683473720864e-01	 2.517131929125308e+01
 1.040896379360873e+00	 2.094596528574664e-01	 2.500327224928708e+01
 1.038981716295068e+00	 2.187593336355037e-01	 2.482817449824521e+01
 1.036978533094784e+00	 2.280662364018920e-01	 2.464597464129612e+01
 1.034886387933496e+00	 2.373791935937844e-01	 2.445663336264942e+01
 1.032704857797753e+00	 2.466970237135312e-01	 2.426012427160720e+01
 1.030433538920778e+00	 2.560185316667817e-01	 2.405643475059598e+01
 1.028072047210091e+00	 2.653425091148985e-01	 2.384556680296761e+01
 1.025620018668658e+00	 2.746677348416176e-01	 2.362753789610505e+01
 1.054806805731360e+00	 1.831245673212992e-01	 2.507974423670341e+01
 1.053141143550166e+00	 1.924727611470166e-01	 2.493278522402169e+01
 1.051387671519489e+00	 2.018316812728667e-01	 2.477930315768563e+01
 1.049545889909018e+00	 2.112001944862422e-01	 2.461921041150536e+01
 1.047615316615159e+00	 2.205771525882051e-01	 2.445242913682893e+01
 1.045595487613285e+00	 2.299613926908770e-01	 2.427889212607993e+01
 1.043485957405453e+00	 2.393517375293550e-01	 2.409854369053329e+01
 1.041286299463128e+00	 2.487469957881400e-01	 2.391134054852088e+01
 1.038996106664379e+00	 2.581459624420481e-01	 2.371725271997390e+01
 1.036614991725062e+00	 2.675474191115525e-01	 2.351626442292498e+01
 1.034142587623462e+00	 2.769501344324914e-01	 2.330837496732723e+01
 1.063499662649765e+00	 1.846337305696236e-01	 2.468418437957805e+01
 1.061820273439929e+00	 1.940589645801295e-01	 2.454403542830548e+01
 1.060052350723433e+00	 2.034950132881345e-01	 2.439775918904299e+01
 1.058195390651612e+00	 2.129407341420258e-01	 2.424525331872746e+01
 1.056248907147787e+00	 2.223949694803564e-01	 2.408642471509956e+01
 1.054212432363233e+00	 2.318565468316837e-01	 2.392119042284278e+01
 1.052085517128595e+00	 2.413242792290574e-01	 2.374947855658768e+01
 1.049867731400256e+00	 2.507969655391378e-01	 2.357122923683596e+01
 1.047558664701134e+00	 2.602733908059156e-01	 2.338639553455123e+01
 1.045157926555424e+00	 2.697523266089842e-01	 2.319494441986657e+01
 1.042665146916736e+00	 2.792325314362925e-01	 2.299685771007104e+01
 1.072192526954103e+00	 1.861428951003989e-01	 2.429851831327713e+01
 1.070499410704053e+00	 1.956451693612012e-01	 2.416478960391793e+01
 1.068717037289555e+00	 2.051583467169502e-01	 2.402533672958205e+01
 1.066844898743585e+00	 2.146812752770183e-01	 2.388004243949477e+01
 1.064882505016370e+00	 2.242127879174378e-01	 2.372879828968518e+01
 1.062829384435084e+00	 2.337517025831922e-01	 2.357150559534537e+01
 1.060685084158954e+00	 2.432968226052727e-01	 2.340807640268706e+01
 1.058449170629273e+00	 2.528469370324876e-01	 2.323843447620031e+01
 1.056121230013807e+00	 2.624008209779921e-01	 2.306251629689270e+01
 1.053700868645081e+00	 2.719572359804877e-01	 2.288027206677178e+01
 1.051187713452026e+00	 2.815149303800232e-01	 2.269166671452822e+01
 9.659603455643851e-01	 2.586904849992691e-01	 2.619831231392391e+01
 9.635653563227460e-01	 2.674732820350743e-01	 2.589018797791302e+01
 9.610844706690255e-01	 2.762549201886375e-01	 2.557428284287640e+01
 9.585174061376137e-01	 2.850342158783321e-01	 2.525074999394766e+01
 9.558639007082445e-01	 2.938099749412080e-01	 2.491976550618185e+01
 9.531237131637238e-01	 3.025809930437929e-01	 2.458152896589240e+01
 9.502966234386567e-01	 3.113460561054973e-01	 2.423626395061931e+01
 9.473824329586863e-01	 3.201039407344277e-01	 2.388421846341863e+01
 9.443809649697816e-01	 3.288534146753910e-01	 2.352566531714015e+01
 9.412920648570995e-01	 3.375932372698591e-01	 2.316090246434123e+01
 9.381156004529616e-01	 3.463221599276365e-01	 2.279025326850252e+01
 9.744834554491673e-01	 2.609730294557169e-01	 2.578394342319254e+01
 9.720673341239003e-01	 2.698333211268695e-01	 2.548903277009616e+01
 9.695645584832749e-01	 2.786924436906383e-01	 2.518663952882795e+01
 9.669748435693406e-01	 2.875492031220878e-01	 2.487692290034739e+01
 9.642979250498880e-01	 2.964023947215949e-01	 2.456006413019355e+01
 9.615335595793364e-01	 3.052508035292754e-01	 2.423626702835690e+01
 9.586815251505340e-01	 3.140932047521239e-01	 2.390575844837073e+01
 9.557416214369939e-01	 3.229283642036727e-01	 2.356878872117678e+01
 9.527136701250852e-01	 3.317550387559495e-01	 2.322563203927966e+01
 9.495975152357088e-01	 3.405719768035005e-01	 2.287658678668622e+01
 9.463930234349912e-01	 3.493779187392194e-01	 2.252197581013640e+01
 9.830064373476020e-01	 2.632555396360757e-01	 2.538806693684879e+01
 9.805691842556489e-01	 2.721933247787372e-01	 2.510590953874984e+01
 9.780445189564625e-01	 2.811299305890004e-01	 2.481654366274926e+01
 9.754321539997879e-01	 2.900641525987808e-01	 2.452012773514121e+01
 9.727318227415056e-01	 2.989947755719440e-01	 2.421684140822507e+01
 9.699432797076762e-01	 3.079205739223554e-01	 2.390688609138509e+01
 9.670663009494203e-01	 3.168403121447574e-01	 2.359048544203595e+01
 9.641006843881437e-01	 3.257527452582738e-01	 2.326788581182381e+01
 9.610462501506362e-01	 3.346566192623189e-01	 2.293935664342188e+01
 9.579028408935608e-01	 3.435506716046804e-01	 2.260519081323653e+01
 9.546703221168643e-01	 3.524336316615091e-01	 2.226570491533952e+01
 9.915293081632356e-01	 2.655380200673481e-01	 2.500894534903399e+01
 9.890709235796760e-01	 2.745532976713896e-01	 2.473909984195249e+01
 9.865243689069056e-01	 2.835673857181275e-01	 2.446230054549845e+01
 9.838893542023931e-01	 2.925790692964668e-01	 2.417869836781130e+01
 9.811656105101376e-01	 3.015871226339011e-01	 2.388846474905081e+01
 9.783528902278685e-01	 3.105903095181872e-01	 2.359179221629566e+01
 9.754509674650010e-01	 3.195873837319579e-01	 2.328889489901391e+01
 9.724596383908544e-01	 3.285770895000708e-01	 2.298000900030134e+01
 9.693787215726591e-01	 3.375581619494725e-01	 2.266539321902539e+01
 9.662080583028561e-01	 3.465293275813365e-01	 2.234532911798314e+01
 9.629475129152258e-01	 3.554893047552184e-01	 2.202012143317408e+01
 1.000052084799612e+00	 2.678204752765360e-01	 2.464490777494018e+01
 9.975725689576675e-01	 2.769132444855391e-01	 2.438695173363959e+01
 9.950041251529212e-01	 2.860048139124229e-01	 2.412228169233242e+01
 9.923464609505925e-01	 2.950939582032003e-01	 2.385103443774502e+01
 9.895993050828242e-01	 3.041794410491115e-01	 2.357336671710127e+01
 9.867624078190368e-01	 3.132600156119249e-01	 2.328945582939829e+01
 9.838355413269591e-01	 3.223344249622841e-01	 2.299950017801857e+01
 9.808185000238453e-01	 3.314014025309032e-01	 2.270371977965655e+01
 9.777111009173797e-01	 3.404596725723824e-01	 2.240235672447110e+01
 9.745131839357962e-01	 3.495079506414066e-01	 2.209567558233448e+01
 9.712246122467209e-01	 3.585449440810584e-01	 2.178396375003655e+01
 1.008574784160278e+00	 2.701029097906421e-01	 2.429434744482592e+01
 1.006074137251309e+00	 2.792731699018982e-01	 2.404787728317348e+01
 1.003483804512826e+00	 2.884422200062909e-01	 2.379492238487840e+01
 1.000803491017823e+00	 2.976088243070368e-01	 2.353559894569452e+01
 9.980329231866059e-01	 3.067717359592214e-01	 2.327004267073491e+01
 9.951718491603041e-01	 3.159296974987229e-01	 2.299840941463342e+01
 9.922200391649797e-01	 3.250814412842958e-01	 2.272087578387118e+01
 9.891772858658344e-01	 3.342256899526103e-01	 2.243763969599991e+01
 9.860434047110226e-01	 3.433611568860221e-01	 2.214892089042020e+01
 9.828182342645817e-01	 3.524865466928280e-01	 2.185496138532299e+01
 9.795016365279939e-01	 3.616005556997415e-01	 2.155602587537839e+01
 1.017097423148778e+00	 2.723853281366685e-01	 2.395571933043643e+01
 1.014575645322286e+00	 2.816330786011796e-01	 2.372035022637679e+01
 1.011963423804938e+00	 2.908796088341344e-01	 2.347871935328670e+01
 1.009260461177522e+00	 3.001236725960307e-01	 2.323091597378295e+01
 1.006466481548522e+00	 3.093640125058759e-01	 2.297704852705339e+01
 1.003581230930795e+00	 3.185993604737352e-01	 2.271724533037448e+01
 1.000604477608747e+00	 3.278284381465518e-01	 2.245165524368472e+01
 9.975360124955410e-01	 3.370499573670315e-01	 2.218044829167815e+01
 9.943756494798129e-01	 3.462626206453642e-01	 2.190381623779352e+01
 9.911232257614139e-01	 3.554651216435385e-01	 2.162197310441549e+01
 9.877786021756902e-01	 3.646561456719794e-01	 2.133515563357396e+01
 1.025620018668658e+00	 2.746677348416176e-01	 2.362753789610505e+01
 1.023077110032282e+00	 2.839929752640952e-01	 2.340290374036316e+01
 1.020442999847574e+00	 2.933169852303574e-01	 2.317222858097574e+01
 1.017717388203125e+00	 3.026385080582376e-01	 2.293556852656284e+01
 1.014899996895614e+00	 3.119562758307208e-01	 2.269299864588623e+01
 1.011990569809631e+00	 3.212690098321160e-01	 2.244461374315808e+01
 1.008988873287944e+00	 3.305754209976118e-01	 2.219052909736530e+01
 1.005894696491684e+00	 3.398742103760061e-01	 2.193088115977660e+01
 1.002707851749976e+00	 3.491640696053813e-01	 2.166582820370051e+01
 9.994281748984939e-01	 3.584436814014762e-01	 2.139555092049087e+01
 9.960555256064552e-01	 3.677117200584841e-01	 2.112025295575812e+01
 1.034142587623462e+00	 2.769501344324914e-01	 2.330837496732723e+01
 1.031578548242984e+00	 2.863528645713577e-01	 2.309412833500809e+01
 1.028922549459051e+00	 2.957543540293634e-01	 2.287406322488312e+01
 1.026174288868070e+00	 3.051533356817125e-01	 2.264819648613339e+01
 1.023333485954921e+00	 3.145485310754019e-01	 2.241656382605941e+01
 1.020399882475940e+00	 3.239386508690197e-01	 2.217922067158945e+01
 1.017373242832256e+00	 3.333223952860350e-01	 2.193624299583307e+01
 1.014253354432981e+00	 3.426984545813739e-01	 2.168772810352456e+01
 1.011040028047737e+00	 3.520655095210467e-01	 2.143379536908817e+01
 1.007733098148022e+00	 3.614222318745779e-01	 2.117458692097522e+01
 1.004332423236933e+00	 3.707672849199675e-01	 2.091027270412416e+01
 1.042665146916736e+00	 2.792325314362925e-01	 2.299685771007104e+01
 1.040079976816076e+00	 2.887127512036795e-01	 2.279266985437388e+01
 1.037402089457687e+00	 2.981917200655562e-01	 2.258289164460178e+01
 1.034631179945794e+00	 3.076681604545102e-01	 2.236749467477847e+01
 1.031766965453483e+00	 3.171407833815649e-01	 2.214646940751623e+01
 1.028809185608841e+00	 3.266082888796002e-01	 2.191982613411228e+01
 1.025757602871366e+00	 3.360693664603806e-01	 2.168759590079285e+01
 1.022612002898152e+00	 3.455226955849741e-01	 2.144983139460006e+01
 1.019372194899320e+00	 3.549669461473329e-01	 2.120660778229090e+01
 1.016038011982201e+00	 3.644007789707822e-01	 2.095802349552146e+01
 1.012609311483770e+00	 3.738228463171415e-01	 2.070459128664270e+01
 1.051187713452026e+00	 2.815149303800232e-01	 2.269166671452822e+01
 1.048581412613244e+00	 2.910726398417731e-01	 2.249722758183825e+01
 1.045881636661798e+00	 3.006290881733392e-01	 2.229743553421501e+01
 1.043088078209732e+00	 3.101829873646860e-01	 2.209221101901870e+01
 1.040200452118341e+00	 3.197330378908551e-01	 2.188149347327723e+01
 1.037218495887461e+00	 3.292779291590120e-01	 2.166524239474563e+01
 1.034141970034960e+00	 3.388163399692082e-01	 2.144343838029091e+01
 1.030970658465916e+00	 3.483469389886462e-01	 2.121608412472163e+01
 1.027704368830951e+00	 3.578683852392130e-01	 2.098320537303987e+01
 1.024342932873230e+00	 3.673793285980262e-01	 2.074485181898635e+01
 1.020886206763610e+00	 3.768784103107179e-01	 2.050250524798259e+01
 9.381156004529616e-01	 3.463221599276365e-01	 2.279025326850251e+01
 9.348508998318095e-01	 3.550404073758257e-01	 2.241233095740717e+01
 9.314984086111489e-01	 3.637452306608892e-01	 2.202584806750095e+01
 9.280580630371016e-01	 3.724353592601340e-01	 2.163123203399723e+01
 9.245298229341035e-01	 3.811095166967163e-01	 2.123168080684309e+01
 9.209136719525729e-01	 3.897664210659201e-01	 2.082864826112958e+01
 9.172096178030529e-01	 3.984047855712462e-01	 2.042230993648953e+01
 9.134176924764241e-01	 4.070233190699295e-01	 2.001283233683140e+01
 9.095379524497916e-01	 4.156207266274775e-01	 1.960037267257962e+01
 9.055704788776667e-01	 4.241957100808110e-01	 1.918507867935296e+01
 9.015153777680721e-01	 4.327469686095653e-01	 1.876708851817108e+01
 9.463930234349912e-01	 3.493779187392194e-01	 2.252197581013640e+01
 9.430995168686512e-01	 3.581730912730492e-01	 2.216023535721709e+01
 9.397174450860709e-01	 3.669547211961475e-01	 2.178986773542124e+01
 9.362467437708336e-01	 3.757215267753867e-01	 2.141196553962928e+01
 9.326873723928802e-01	 3.844722202709525e-01	 2.103005631964174e+01
 9.290393144583593e-01	 3.932055084672652e-01	 2.064463496496901e+01
 9.253025777458402e-01	 4.019200932137996e-01	 2.025583913645783e+01
 9.214771945284640e-01	 4.106146719754152e-01	 1.986379758167159e+01
 9.175632217816512e-01	 4.192879383917875e-01	 1.946862989299927e+01
 9.135607413759673e-01	 4.279385828455182e-01	 1.907044634566466e+01
 9.094698602547836e-01	 4.365652930384773e-01	 1.866934782101372e+01
 9.546703221168643e-01	 3.524336316615091e-01	 2.226570491533952e+01
 9.513480100376310e-01	 3.613057281255642e-01	 2.191918176297186e+01
 9.479363581370631e-01	 3.701641635330709e-01	 2.156394504740766e+01
 9.444353015362197e-01	 3.790076449406455e-01	 2.120243531213884e+01
 9.408447993505555e-01	 3.878348733456836e-01	 2.083726832136083e+01
 9.371648349419601e-01	 3.966445442219223e-01	 2.046856091963507e+01
 9.333954161570299e-01	 4.054353480649910e-01	 2.009641973548606e+01
 9.295365755511700e-01	 4.142059709475558e-01	 1.972094254889974e+01
 9.255883705981118e-01	 4.229550950836430e-01	 1.934221805377968e+01
 9.215508838844715e-01	 4.316813994017183e-01	 1.896032570385429e+01
 9.174242232889597e-01	 4.403835601260684e-01	 1.857533564772050e+01
 9.629475129152258e-01	 3.554893047552184e-01	 2.202012143317409e+01
 9.595963956982929e-01	 3.644383241466699e-01	 2.168791937703057e+01
 9.561551640650344e-01	 3.733735640373091e-01	 2.134716641283099e+01
 9.526237525739953e-01	 3.822937202736523e-01	 2.100156066029538e+01
 9.490021199861547e-01	 3.911974825904597e-01	 2.065229569772715e+01
 9.452902495191458e-01	 4.000835351509420e-01	 2.029946236957122e+01
 9.414881490875990e-01	 4.089505570970414e-01	 1.994314300378589e+01
 9.375958515291822e-01	 4.177972231093881e-01	 1.958341108633811e+01
 9.336134148159376e-01	 4.266222039765179e-01	 1.922033101644706e+01
 9.295409222505252e-01	 4.354241671729183e-01	 1.885395794891370e+01
 9.253784826469882e-01	 4.442017774454529e-01	 1.848433772956739e+01
 9.712246122467209e-01	 3.585449440810584e-01	 2.178396375003655e+01
 9.678446902101844e-01	 3.675708855496655e-01	 2.146525308528014e+01
 9.643738791708958e-01	 3.765829290745127e-01	 2.113878228366952e+01
 9.608121131248981e-01	 3.855797592921484e-01	 2.080830778502965e+01
 9.571593504787009e-01	 3.945600546748302e-01	 2.047416194519675e+01
 9.534155743056878e-01	 4.035224880753752e-01	 2.013641796176907e+01
 9.495807925885241e-01	 4.124657272821720e-01	 1.979514048581807e+01
 9.456550384471418e-01	 4.213884355839487e-01	 1.945038527422233e+01
 9.416383703518920e-01	 4.302892723438851e-01	 1.910219892608422e+01
 9.375308723214741e-01	 4.391668935826254e-01	 1.875061870996020e+01
 9.333326541052582e-01	 4.480199525697459e-01	 1.839567248831776e+01
 9.795016365279939e-01	 3.616005556997415e-01	 2.155602587537837e+01
 9.760929099328501e-01	 3.707034185478503e-01	 2.125004455637897e+01
 9.725925197555580e-01	 3.797922650103322e-01	 2.093774818339892e+01
 9.690003994296654e-01	 3.888657685138760e-01	 2.062168758761495e+01
 9.653165070072187e-01	 3.979225962683448e-01	 2.030193305199426e+01
 9.615408254173563e-01	 4.069614098162727e-01	 1.997854669694548e+01
 9.576733627107815e-01	 4.159808655926035e-01	 1.965158201869424e+01
 9.537141522896891e-01	 4.249796154942740e-01	 1.932108350771772e+01
 9.496632531227387e-01	 4.339563074592176e-01	 1.898708635466024e+01
 9.455207499446650e-01	 4.429095860543472e-01	 1.864961625088602e+01
 9.412867534401580e-01	 4.518380930720615e-01	 1.830868929050074e+01
 9.877786021756902e-01	 3.646561456719794e-01	 2.133515563357396e+01
 9.843410712258356e-01	 3.738359293545230e-01	 2.104157726546975e+01
 9.808111021199305e-01	 3.830015782104174e-01	 2.074306275561460e+01
 9.771886277290335e-01	 3.921517544565758e-01	 2.044075357031348e+01
 9.734736057507323e-01	 4.012851140405534e-01	 2.013471546734865e+01
 9.696660189699228e-01	 4.104003071946854e-01	 1.982500596479546e+01
 9.657658755053475e-01	 4.194959790005573e-01	 1.951167383069189e+01
 9.617732090414657e-01	 4.285707699634006e-01	 1.919475865576077e+01
 9.576880790452408e-01	 4.376233165959891e-01	 1.887429051707881e+01
 9.535105709674433e-01	 4.466522520115910e-01	 1.855028974030994e+01
 9.492407964280759e-01	 4.556562065255140e-01	 1.822276676778660e+01
 9.960555256064552e-01	 3.677117200584841e-01	 2.112025295575812e+01
 9.925891904486867e-01	 3.769684241829833e-01	 2.083908912811838e+01
 9.890296425649242e-01	 3.862108750404191e-01	 2.055376736741789e+01
 9.853768142637397e-01	 3.954377236379905e-01	 2.026459982407239e+01
 9.816306628882662e-01	 4.046476146610058e-01	 1.997165415375435e+01
 9.777911710791584e-01	 4.138391870316641e-01	 1.967498965838858e+01
 9.738583470231990e-01	 4.230110744782542e-01	 1.937465671518335e+01
 9.698322246871114e-01	 4.321619061143651e-01	 1.907069629174410e+01
 9.657128640361627e-01	 4.412903070276732e-01	 1.876313955567192e+01
 9.615003512371543e-01	 4.503948988778640e-01	 1.845200758676133e+01
 9.571947988454013e-01	 4.594743005032184e-01	 1.813731119956963e+01
 1.004332423236933e+00	 3.707672849199675e-01	 2.091027270412415e+01
 1.000837283960950e+00	 3.801009092465300e-01	 2.064160987686810e+01
 9.972481573914492e-01	 3.894201618659871e-01	 2.036894411618361e+01
 9.935649752745213e-01	 3.987236825758612e-01	 2.009235909820236e+01
 9.897876945988443e-01	 4.080101047992519e-01	 1.981193071742579e+01
 9.859162978608341e-01	 4.172780561482596e-01	 1.952772636310079e+01
 9.819507933153128e-01	 4.265261589979156e-01	 1.923980427558337e+01
 9.778912152112671e-01	 4.357530310702037e-01	 1.894821299185691e+01
 9.737376240122680e-01	 4.449572860277427e-01	 1.865299088914711e+01
 9.694901066011445e-01	 4.541375340766737e-01	 1.835416583528703e+01
 9.651487764685219e-01	 4.632923825782889e-01	 1.805175495412682e+01
 1.012609311483770e+00	 3.738228463171415e-01	 2.070459128664270e+01
 1.009085368122169e+00	 3.832333907584627e-01	 2.044821012433439e+01
 1.005466662900416e+00	 3.926294450527717e-01	 2.018771391726972e+01
 1.001753127002115e+00	 4.020096377879295e-01	 1.992320094730906e+01
 9.979447170614915e-01	 4.113725911248411e-01	 1.965476161243047e+01
 9.940414154307206e-01	 4.207169213655227e-01	 1.938247761577477e+01
 9.900432304326650e-01	 4.300412395317623e-01	 1.910642123721068e+01
 9.859501965985736e-01	 4.393441519539534e-01	 1.882665469716699e+01
 9.817623748903193e-01	 4.486242608696710e-01	 1.854322962225762e+01
 9.774798529067596e-01	 4.578801650315273e-01	 1.825618662192468e+01
 9.731027450738268e-01	 4.671104603238400e-01	 1.796555498495573e+01
 1.020886206763610e+00	 3.768784103107179e-01	 2.050250524798259e+01
 1.017333459291891e+00	 3.863658749320800e-01	 2.025799946971394e+01
 1.013685175392733e+00	 3.958387309664232e-01	 2.000923466803420e+01
 1.009941285687257e+00	 4.052955957919373e-01	 1.975632995105157e+01
 1.006101746455231e+00	 4.147350803073234e-01	 1.949939641427644e+01
 1.002166539904589e+00	 4.241557895045043e-01	 1.923853623008187e+01
 9.981356744262321e-01	 4.335563230520150e-01	 1.897384182222260e+01
 9.940091848336720e-01	 4.429352758886505e-01	 1.870539513578429e+01
 9.897871325870814e-01	 4.522912388269316e-01	 1.843326701270582e+01
 9.854696060013458e-01	 4.616227991659320e-01	 1.815751668271217e+01
 9.810567204377049e-01	 4.709285413129863e-01	 1.787819137911580e+01
 9.015153777680721e-01	 4.327469686095653e-01	 1.876708851817108e+01
 8.973734916289077e-01	 4.412717521407645e-01	 1.834690250734631e+01
 8.931442941867405e-01	 4.497702121745721e-01	 1.792491007705022e+01
 8.888279661850488e-01	 4.582410436156898e-01	 1.750128895035844e+01
 8.844247137540192e-01	 4.666829410531057e-01	 1.707621611033369e+01
 8.799347685068711e-01	 4.750945993647693e-01	 1.664986815734174e+01
 8.753583876192406e-01	 4.834747143274810e-01	 1.622242175828205e+01
 8.706958538913733e-01	 4.918219832314509e-01	 1.579405418962988e+01
 8.659474757928984e-01	 5.001351054989742e-01	 1.536494397562471e+01
 8.611135874899662e-01	 5.084127833066525e-01	 1.493527162233715e+01
 8.561945488545586e-01	 5.166537222105835e-01	 1.450522044772177e+01
 9.094698602547836e-01	 4.365652930384773e-01	 1.866934782101373e+01
 9.052914283598296e-01	 4.451652946325164e-01	 1.826589896231278e+01
 9.010249147741403e-01	 4.537387404645846e-01	 1.786058753913682e+01
 8.966705018359983e-01	 4.622843139239722e-01	 1.745359659669054e+01
 8.922283974943962e-01	 4.708006980814723e-01	 1.704510839680853e+01
 8.876988354062080e-01	 4.792865762993890e-01	 1.663530475749468e+01
 8.830820750162708e-01	 4.877406328468080e-01	 1.622436748919719e+01
 8.783784016201311e-01	 4.961615535195786e-01	 1.581247892994704e+01
 8.735881264092127e-01	 5.045480262644485e-01	 1.539982258090739e+01
 8.687115864981905e-01	 5.128987418067736e-01	 1.498658384324105e+01
 8.637491449343864e-01	 5.212123942812260e-01	 1.457295085655398e+01
 9.174242232889597e-01	 4.403835601260684e-01	 1.857533564772049e+01
 9.132092461870271e-01	 4.490587786537446e-01	 1.818787518175215e+01
 9.089054170182405e-01	 4.577072091584488e-01	 1.779852204852892e+01
 9.045129197156632e-01	 4.663275235142201e-01	 1.740746124523279e+01
 9.000319640470583e-01	 4.749183932738121e-01	 1.701487669137979e+01
 8.954627857129170e-01	 4.834784902840402e-01	 1.662095155178030e+01
 8.908056464272401e-01	 4.920064873064326e-01	 1.622586866163371e+01
 8.860608339808328e-01	 5.005010586426355e-01	 1.582981105615123e+01
 8.812286622868647e-01	 5.089608807640041e-01	 1.543296260646369e+01
 8.763094714084870e-01	 5.173846329448051e-01	 1.503550876291899e+01
 8.713036275683089e-01	 5.257709978984395e-01	 1.463763740617544e+01
 9.253784826469882e-01	 4.442017774454529e-01	 1.848433772956739e+01
 9.211269608144043e-01	 4.529522119266949e-01	 1.811215767248220e+01
 9.167858165489323e-01	 4.616756261270721e-01	 1.773807633716901e+01
 9.123552353783855e-01	 4.703706804055071e-01	 1.736227742532080e+01
 9.078354288892730e-01	 4.790360347968520e-01	 1.698494301728375e+01
 9.032266348256714e-01	 4.876703496325702e-01	 1.660625387945836e+01
 8.985291171707118e-01	 4.962722861667687e-01	 1.622638987984089e+01
 8.937431662104189e-01	 5.048405072070253e-01	 1.584553051435834e+01
 8.888690985796693e-01	 5.133736777494393e-01	 1.546385554599280e+01
 8.839072572900483e-01	 5.218704656173233e-01	 1.508154575799385e+01
 8.788580117394046e-01	 5.303295421029417e-01	 1.469878382175160e+01
 9.333326541052582e-01	 4.480199525697459e-01	 1.839567248831776e+01
 9.290445879458680e-01	 4.568456021736130e-01	 1.803810402911488e+01
 9.246661289961033e-01	 4.656439992413594e-01	 1.767864279212767e+01
 9.201974643785068e-01	 4.744137926169062e-01	 1.731746805670301e+01
 9.156388074983086e-01	 4.831536308173199e-01	 1.695475668912961e+01
 9.109903981431454e-01	 4.918621626588275e-01	 1.659068343534059e+01
 9.062525025652485e-01	 5.005380378882299e-01	 1.622542132836129e+01
 9.014254135458306e-01	 5.091799078191523e-01	 1.585914221343563e+01
 8.965094504414431e-01	 5.177864259725528e-01	 1.549201739307287e+01
 8.915049592120664e-01	 5.263562487209043e-01	 1.512421839352392e+01
 8.864123124307511e-01	 5.348880359354498e-01	 1.475591785343205e+01
 9.412867534401580e-01	 4.518380930720615e-01	 1.830868929050075e+01
 9.369621432853240e-01	 4.607389571167452e-01	 1.796510123687010e+01
 9.325463699896418e-01	 4.696123363722164e-01	 1.761964180070397e+01
 9.280396222703682e-01	 4.784568681674906e-01	 1.727248283083181e+01
 9.234421153514332e-01	 4.872711895019432e-01	 1.692379272445699e+01
 9.187540910640122e-01	 4.960539376766596e-01	 1.657373670585126e+01
 9.139758179294120e-01	 5.048037509312295e-01	 1.622247722700795e+01
 9.091075912240104e-01	 5.135192690854202e-01	 1.587017449348101e+01
 9.041497330260017e-01	 5.221991341851426e-01	 1.551698711791271e+01
 8.991025922437338e-01	 5.308419911521246e-01	 1.516307290298112e+01
 8.939665446254272e-01	 5.394464884366806e-01	 1.480858975469324e+01
 9.492407964280759e-01	 4.556562065255140e-01	 1.822276676778660e+01
 9.448796425366777e-01	 4.646322844783374e-01	 1.789256403755602e+01
 9.404265551594381e-01	 4.735806453905491e-01	 1.756052015609480e+01
 9.358817246083116e-01	 4.824999150763336e-01	 1.722679665045996e+01
 9.312453679259155e-01	 4.913887190174496e-01	 1.689155031165115e+01
 9.265177289869452e-01	 5.002456829999145e-01	 1.655493345981749e+01
 9.216990785817664e-01	 5.090694337561815e-01	 1.621709433924850e+01
 9.167897144818992e-01	 5.178585996122334e-01	 1.587817764668977e+01
 9.117899614871610e-01	 5.266118111390078e-01	 1.553832519575939e+01
 9.067001714542431e-01	 5.353277018075605e-01	 1.519767671943216e+01
 9.015207233065106e-01	 5.440049086473518e-01	 1.485637081170832e+01
 9.571947988454013e-01	 4.594743005032184e-01	 1.813731119956963e+01
 9.527971014038353e-01	 4.685255919806352e-01	 1.781993335499532e+01
 9.483067001353794e-01	 4.775489341672630e-01	 1.750074952006526e+01
 9.437237869466789e-01	 4.865429413625085e-01	 1.717990812410215e+01
 9.390485806990231e-01	 4.955062275305661e-01	 1.685755133089470e+01
 9.342813273106181e-01	 5.044374069424400e-01	 1.653381529076171e+01
 9.294222998408734e-01	 5.133350948234994e-01	 1.620883053084668e+01
 9.244717985564375e-01	 5.221979080059954e-01	 1.588272248751318e+01
 9.194301509787368e-01	 5.310244655859463e-01	 1.555561218390709e+01
 9.142977119127867e-01	 5.398133895837890e-01	 1.522761705489905e+01
 9.090748634570801e-01	 5.485633056081808e-01	 1.489885192072724e+01
 9.651487764685219e-01	 4.632923825782889e-01	 1.805175495412682e+01
 9.607145355907024e-01	 4.724188873458850e-01	 1.774667477642361e+01
 9.561868205473563e-01	 4.815172105732643e-01	 1.743982493928727e+01
 9.515658248398112e-01	 4.905859550450882e-01	 1.713133811215454e+01
 9.468517691480248e-01	 4.996237232080208e-01	 1.682133892505041e+01
 9.420449014337045e-01	 5.086291178180842e-01	 1.650994420767819e+01
 9.371454970252964e-01	 5.176007425935968e-01	 1.619726337581312e+01
 9.321538586845686e-01	 5.265372028731108e-01	 1.588339896921887e+01
 9.270703166545445e-01	 5.354371062777572e-01	 1.556844734445766e+01
 9.218952286885570e-01	 5.442990633773857e-01	 1.525249952506922e+01
 9.166289800602130e-01	 5.531216883598840e-01	 1.493564221065146e+01
 9.731027450738268e-01	 4.671104603238400e-01	 1.796555498495573e+01
 9.686319608011851e-01	 4.763121782963325e-01	 1.767227708661364e+01
 9.640669320252565e-01	 4.854854824794586e-01	 1.737726341223144e+01
 9.594078538420502e-01	 4.946289641431463e-01	 1.708062832166883e+01
 9.546549487501882e-01	 5.037412142165409e-01	 1.678247611757140e+01
 9.498084667548776e-01	 5.128208239406948e-01	 1.648290127147304e+01
 9.448686854535973e-01	 5.218663855268871e-01	 1.618198880691299e+01
 9.398359101032321e-01	 5.308764928199834e-01	 1.587981484414961e+01
 9.347104736684004e-01	 5.398497419662385e-01	 1.557644731016510e+01
 9.294927368507461e-01	 5.487847320849273e-01	 1.527194681671311e+01
 9.241830880989882e-01	 5.576800659431796e-01	 1.496636770816549e+01
 9.810567204377049e-01	 4.709285413129863e-01	 1.787819137911580e+01
 9.765493927391889e-01	 4.802054725542235e-01	 1.759625085168671e+01
 9.719470501989695e-01	 4.894537577567515e-01	 1.731260250369516e+01
 9.672498895077370e-01	 4.986719766757557e-01	 1.702733994697386e+01
 9.624581349827819e-01	 5.078587087228539e-01	 1.674054447472242e+01
 9.575720386728110e-01	 5.170125336241197e-01	 1.645228527442785e+01
 9.525918804443397e-01	 5.261320320837842e-01	 1.616261980815187e+01
 9.475179680493709e-01	 5.352157864530170e-01	 1.587159436515179e+01
 9.423506371741205e-01	 5.442623814031888e-01	 1.557924479087048e+01
 9.370902514685465e-01	 5.532704046029900e-01	 1.528559739533453e+01
 9.317372025564836e-01	 5.622384473987843e-01	 1.499067004295999e+01
 8.561945488545586e-01	 5.166537222105835e-01	 1.450522044772177e+01
 8.511907456626934e-01	 5.248566319374305e-01	 1.407643826998180e+01
 8.461025901846804e-01	 5.330202275143922e-01	 1.365050454812770e+01
 8.409305205124762e-01	 5.411432294266815e-01	 1.322750031248461e+01
 8.356750002871786e-01	 5.492243640870376e-01	 1.280750441223685e+01
 8.303365186157974e-01	 5.572623644660746e-01	 1.239059487716331e+01
 8.249155899695261e-01	 5.652559707219061e-01	 1.197685037448737e+01
 8.194127540634818e-01	 5.732039308284176e-01	 1.156635175605712e+01
 8.138285757179111e-01	 5.811050012015556e-01	 1.115918369036991e+01
 8.081636447008754e-01	 5.889579473229990e-01	 1.075543637321046e+01
 8.024185755524645e-01	 5.967615443605806e-01	 1.035520730998088e+01
 8.637491449343864e-01	 5.212123942812260e-01	 1.457295085655399e+01
 8.587011908977178e-01	 5.294876820298390e-01	 1.416046602235969e+01
 8.535681402961494e-01	 5.377233087419441e-01	 1.375057466331867e+01
 8.483504350871245e-01	 5.459179836130426e-01	 1.334331823591650e+01
 8.430485430026597e-01	 5.540704218184632e-01	 1.293873438920037e+01
 8.376629574653811e-01	 5.621793451492738e-01	 1.253685841546547e+01
 8.321941974858973e-01	 5.702434826474593e-01	 1.213772480451892e+01
 8.266428075414806e-01	 5.782615712397395e-01	 1.174136889656870e+01
 8.210093574360455e-01	 5.862323563693832e-01	 1.134782862801233e+01
 8.152944421414487e-01	 5.941545926253828e-01	 1.095714636363011e+01
 8.094986816201494e-01	 6.020270443683502e-01	 1.056937080793173e+01
 8.713036275683089e-01	 5.257709978984395e-01	 1.463763740617544e+01
 8.662115233500910e-01	 5.341186625824692e-01	 1.424076759117307e+01
 8.610335782993952e-01	 5.424263193485215e-01	 1.384620143835468e+01
 8.557702382390909e-01	 5.506926661025537e-01	 1.345394918047777e+01
 8.504219749920489e-01	 5.589164067826506e-01	 1.306401602136293e+01
 8.449892862964444e-01	 5.670962520004978e-01	 1.267640366819870e+01
 8.394726957022308e-01	 5.752309196821163e-01	 1.229111197555495e+01
 8.338727524487609e-01	 5.833191357072233e-01	 1.190814069598161e+01
 8.281900313235401e-01	 5.913596345465710e-01	 1.152749133124448e+01
 8.224251325021389e-01	 5.993511598966268e-01	 1.114916907743725e+01
 8.165786813693012e-01	 6.072924653109393e-01	 1.077318485640703e+01
 8.788580117394046e-01	 5.303295421029417e-01	 1.469878382175160e+01
 8.737217579152943e-01	 5.387495827795208e-01	 1.431685449975067e+01
 8.684989190008251e-01	 5.471292686611281e-01	 1.393691440757623e+01
 8.631899446842412e-01	 5.554672863643203e-01	 1.355895069569421e+01
 8.577953108792116e-01	 5.637623285900818e-01	 1.318294465808031e+01
 8.523155196394018e-01	 5.720130947708595e-01	 1.280887333893319e+01
 8.467510990540494e-01	 5.802182917168527e-01	 1.243671125891399e+01
 8.411026031245225e-01	 5.883766342609167e-01	 1.206643225562424e+01
 8.353706116218506e-01	 5.964868459014283e-01	 1.169801143216267e+01
 8.295557299252466e-01	 6.045476594424677e-01	 1.133142720673465e+01
 8.236585888416686e-01	 6.125578176306615e-01	 1.096666345545114e+01
 8.864123124307511e-01	 5.348880359354498e-01	 1.475591785343205e+01
 8.812319094888068e-01	 5.433804518051942e-01	 1.438826204366974e+01
 8.759641772068461e-01	 5.518321660067671e-01	 1.402226630553074e+01
 8.706095691384411e-01	 5.602418538674465e-01	 1.365790264739344e+01
 8.651685652880142e-01	 5.686081968512386e-01	 1.329513677685920e+01
 8.596416720246698e-01	 5.769298832114717e-01	 1.293392977478059e+01
 8.540294219768775e-01	 5.852056086426440e-01	 1.257423989634314e+01
 8.483323739079661e-01	 5.934340769308681e-01	 1.221602449375611e+01
 8.425511125724330e-01	 6.016140006022647e-01	 1.185924205418608e+01
 8.366862485530752e-01	 6.097441015686451e-01	 1.150385434565586e+01
 8.307384180790003e-01	 6.178231117698287e-01	 1.114982866273882e+01
 8.939665446254272e-01	 5.394464884366806e-01	 1.480858975469324e+01
 8.887419929661107e-01	 5.480112788436901e-01	 1.445454777267050e+01
 8.834293677238655e-01	 5.565350207124422e-01	 1.410183156742311e+01
 8.780291263175578e-01	 5.650163780810377e-01	 1.375040575135749e+01
 8.725417528423216e-01	 5.734540211766025e-01	 1.340022856456922e+01
 8.669677579826620e-01	 5.818466270734466e-01	 1.305125360920426e+01
 8.613076789062371e-01	 5.901928803504651e-01	 1.270343171813372e+01
 8.555620791382921e-01	 5.984914737471259e-01	 1.235671295234787e+01
 8.497315484167444e-01	 6.067411088173905e-01	 1.201104872050588e+01
 8.438167025279261e-01	 6.149404965808971e-01	 1.166639401311562e+01
 8.378181831230445e-01	 6.230883581707538e-01	 1.132270974287870e+01
 9.015207233065106e-01	 5.440049086473518e-01	 1.485637081170832e+01
 8.962520232426849e-01	 5.526420730792081e-01	 1.451529002318699e+01
 8.908945053582911e-01	 5.612378421051567e-01	 1.417520487904175e+01
 8.854486309374568e-01	 5.697908684741977e-01	 1.383608015459955e+01
 8.799148881660003e-01	 5.782998111766552e-01	 1.349787454373438e+01
 8.742937920437945e-01	 5.867633361078972e-01	 1.316054244668550e+01
 8.685858842776520e-01	 5.951801167312915e-01	 1.282403589920539e+01
 8.627917331547008e-01	 6.035488347397386e-01	 1.248830663730074e+01
 8.569119333962408e-01	 6.118681807151147e-01	 1.215330829081359e+01
 8.509471059921021e-01	 6.201368547849615e-01	 1.181899869807489e+01
 8.448978980155512e-01	 6.283535672757500e-01	 1.148534233287438e+01
 9.090748634570801e-01	 5.485633056081808e-01	 1.489885192072724e+01
 9.037620152140117e-01	 5.572728436959491e-01	 1.457008649850227e+01
 8.983596049165294e-01	 5.659406395119149e-01	 1.424199977323705e+01
 8.928680977140043e-01	 5.745653345160320e-01	 1.391456406145114e+01
 8.872879858829165e-01	 5.831455764618790e-01	 1.358774624123765e+01
 8.816197887384816e-01	 5.916800200659359e-01	 1.326150958676587e+01
 8.758640525266459e-01	 6.001673276760989e-01	 1.293581575090649e+01
 8.700213502963929e-01	 6.086061699387545e-01	 1.261062689011356e+01
 8.640922817523794e-01	 6.169952264637478e-01	 1.228590792462262e+01
 8.580774730879046e-01	 6.253331864865770e-01	 1.196162892596725e+01
 8.519775767982680e-01	 6.336187495271290e-01	 1.163776762276764e+01
 9.166289800602130e-01	 5.531216883598840e-01	 1.493564221065146e+01
 9.112719837755705e-01	 5.619035998781131e-01	 1.461855289373037e+01
 9.058246812049882e-01	 5.706434222597192e-01	 1.430184727021697e+01
 9.002875413630671e-01	 5.793397856756451e-01	 1.398551240182466e+01
 8.946610606169344e-01	 5.879913266427550e-01	 1.366953089694257e+01
 8.889457625971390e-01	 5.965966886986754e-01	 1.335388278514563e+01
 8.831421980887418e-01	 6.051545230758629e-01	 1.303854754642354e+01
 8.772509449025682e-01	 6.136634893742215e-01	 1.272350628913980e+01
 8.712726077266154e-01	 6.221222562315994e-01	 1.240874406960420e+01
 8.652078179576365e-01	 6.305295019914821e-01	 1.209425234502926e+01
 8.590572335129438e-01	 6.388839153672046e-01	 1.178003155054744e+01
 9.241830880989882e-01	 5.576800659431796e-01	 1.496636770816549e+01
 9.187819438228425e-01	 5.665343508099006e-01	 1.466032156301093e+01
 9.132897490300741e-01	 5.753461996755740e-01	 1.435439455910211e+01
 9.077069766005101e-01	 5.841142314221418e-01	 1.404859553918910e+01
 9.020341269919213e-01	 5.928370713297655e-01	 1.374293020989931e+01
 8.962717281501817e-01	 6.015133517572285e-01	 1.343740304967052e+01
 8.904203353994636e-01	 6.101417128215584e-01	 1.313201937782745e+01
 8.844805313124273e-01	 6.187208030761884e-01	 1.282678757869474e+01
 8.784529255604061e-01	 6.272492801869793e-01	 1.252172147346186e+01
 8.723381547435993e-01	 6.357258116054149e-01	 1.221684283134808e+01
 8.661368822013277e-01	 6.441490752382886e-01	 1.191218401046675e+01
 9.317372025564836e-01	 5.622384473987843e-01	 1.499067004296000e+01
 9.262919102513079e-01	 5.711651056755117e-01	 1.469504022646966e+01
 9.207548231981949e-01	 5.800489810864823e-01	 1.439930371834791e+01
 9.151264181422006e-01	 5.888886812246268e-01	 1.410349801595247e+01
 9.094071996317424e-01	 5.976828201333920e-01	 1.380765911994958e+01
 9.035976999280246e-01	 6.064300189927078e-01	 1.351182346917547e+01
 8.976984788943334e-01	 6.151289068041607e-01	 1.321603004291516e+01
 8.917101238651709e-01	 6.237781210747034e-01	 1.292032262438331e+01
 8.856332494952078e-01	 6.323763084981971e-01	 1.262475221796144e+01
 8.794684975880961e-01	 6.409221256341138e-01	 1.232937961152125e+01
 8.732165369051681e-01	 6.494142395826942e-01	 1.203427807396354e+01
 8.024185755524645e-01	 5.967615443605806e-01	 1.035520730998089e+01
 7.965930109800831e-01	 6.045158907765116e-01	 9.959110872441755e+00
 7.906885874742027e-01	 6.122184477348452e-01	 9.567972148426801e+00
 7.847059963145351e-01	 6.198680180939394e-01	 9.182024056602014e+00
 7.786459526990358e-01	 6.274634168227140e-01	 8.801522326065594e+00
 7.725091954758022e-01	 6.350034715981188e-01	 8.426747405863962e+00
 7.662964868572391e-01	 6.424870233956012e-01	 8.058006379398165e+00
 7.600086121167052e-01	 6.499129270719646e-01	 7.695634872812815e+00
 7.536463792678838e-01	 6.572800519400025e-01	 7.339998946058264e+00
 7.472106187271417e-01	 6.645872823343153e-01	 6.991496955017402e+00
 7.407021829591638e-01	 6.718335181677186e-01	 6.650561373163985e+00
 8.094986816201494e-01	 6.020270443683502e-01	 1.056937080793172e+01
 8.036217154269951e-01	 6.098498109292910e-01	 1.018519550228531e+01
 7.976651944919537e-01	 6.176203310709076e-01	 9.805580179221941e+00
 7.916298161942060e-01	 6.253373970885747e-01	 9.430799385635417e+00
 7.855163020422161e-01	 6.329998134950842e-01	 9.061152742018935e+00
 7.793253974032675e-01	 6.406063976233868e-01	 8.696966888861244e+00
 7.730578712151039e-01	 6.481559802222706e-01	 8.338597438309485e+00
 7.667145156799011e-01	 6.556474060443600e-01	 7.986430919762157e+00
 7.602961459408082e-01	 6.630795344258220e-01	 7.640886707645878e+00
 7.538035997413250e-01	 6.704512398571739e-01	 7.302418919287013e+00
 7.472377370678133e-01	 6.777614125446016e-01	 6.971518270514617e+00
 8.165786813693012e-01	 6.072924653109393e-01	 1.077318485640702e+01
 8.106503143273643e-01	 6.151836509892984e-01	 1.040034224641411e+01
 8.046416967455776e-01	 6.230221332934016e-01	 1.003174748027357e+01
 7.985535321025004e-01	 6.308066939558101e-01	 9.667698584687216e+00
 7.923865482170144e-01	 6.385361270333599e-01	 9.308520162985678e+00
 7.861414969754934e-01	 6.462092395151721e-01	 8.954565405474876e+00
 7.798191540409224e-01	 6.538248519235408e-01	 8.606218106788276e+00
 7.734203185441926e-01	 6.613817989070782e-01	 8.263894678425144e+00
 7.669458127578129e-01	 6.688789298254855e-01	 7.928046144228540e+00
 7.603964817523109e-01	 6.763151093253599e-01	 7.599160106183392e+00
 7.537731930356146e-01	 6.836892179064176e-01	 7.277762667617032e+00
 8.236585888416686e-01	 6.125578176306615e-01	 1.096666345545114e+01
 8.176788216209810e-01	 6.205174215345686e-01	 1.060465209146921e+01
 8.116181080715288e-01	 6.284238651151836e-01	 1.024664558047754e+01
 8.054771577711725e-01	 6.362759195424054e-01	 9.892947718222592e+00
 7.992567048491315e-01	 6.440723684172610e-01	 9.543889630615128e+00
 7.929575077107871e-01	 6.518120083851870e-01	 9.199831874908853e+00
 7.865803487442807e-01	 6.594936497421310e-01	 8.861166550974708e+00
 7.801260340091297e-01	 6.671161170328332e-01	 8.528319410330644e+00
 7.735953929071139e-01	 6.746782496406746e-01	 8.201751950108511e+00
 7.669892778356941e-01	 6.821789023684698e-01	 7.881963478753730e+00
 7.603085638242696e-01	 6.896169460096039e-01	 7.569493139919256e+00
 8.307384180790003e-01	 6.178231117698287e-01	 1.114982866273882e+01
 8.247072512476353e-01	 6.258511331431356e-01	 1.079823140959892e+01
 8.185944423062617e-01	 6.338255372491119e-01	 1.045044930646778e+01
 8.124007069319761e-01	 6.417450846951208e-01	 1.010677462884470e+01
 8.061267855642680e-01	 6.496085486265063e-01	 9.767526996564705e+00
 7.997734431274555e-01	 6.574147153451445e-01	 9.433055592506069e+00
 7.933414687347635e-01	 6.651623849207586e-01	 9.103741395846319e+00
 7.868316753742628e-01	 6.728503717943410e-01	 8.779999416941166e+00
 7.802448995769263e-01	 6.804775053730707e-01	 8.462280920387508e+00
 7.735820010670694e-01	 6.880426306160995e-01	 8.151075622412856e+00
 7.668438623954803e-01	 6.955446086105990e-01	 7.846913848370482e+00
 8.378181831230445e-01	 6.230883581707538e-01	 1.132270974287870e+01
 8.317356171471174e-01	 6.311847963930338e-01	 1.098119122847186e+01
 8.255707132862306e-01	 6.392271604080448e-01	 1.064333615005473e+01
 8.193241933166653e-01	 6.472142002607169e-01	 1.030940837953833e+01
 8.129968039881240e-01	 6.551446786408139e-01	 9.979698417603245e+00
 8.065893167438050e-01	 6.630173715067564e-01	 9.654525756468621e+00
 8.001025274219574e-01	 6.708310687021428e-01	 9.334241263021887e+00
 7.935372559391436e-01	 6.785845745643170e-01	 9.019229568737982e+00
 7.868943459554661e-01	 6.862767085243553e-01	 8.709911452275861e+00
 7.801746645220309e-01	 6.939063056978452e-01	 8.406746200177627e+00
 7.733791017109483e-01	 7.014722174658394e-01	 8.110233930696277e+00
 8.448978980155512e-01	 6.283535672757500e-01	 1.148534233287438e+01
 8.387639332592167e-01	 6.365184218622979e-01	 1.115364651141972e+01
 8.325469348478910e-01	 6.446287453048386e-01	 1.082548564097191e+01
 8.262476306569944e-01	 6.526832770859530e-01	 1.050107869757016e+01
 8.198667737464004e-01	 6.606807694399038e-01	 1.018066984986248e+01
 8.134051420781427e-01	 6.686199879817359e-01	 9.864530992317540e+00
 8.068635382154477e-01	 6.764997123290019e-01	 9.552964305964291e+00
 8.002427890033217e-01	 6.843187367154759e-01	 9.246304832391621e+00
 7.935437452309484e-01	 6.920758705962095e-01	 8.944923046162559e+00
 7.867672812761725e-01	 6.997699392433018e-01	 8.649227410284498e+00
 7.799142947323758e-01	 7.073997843317636e-01	 8.359666898951838e+00
 8.519775767982680e-01	 6.336187495271290e-01	 1.163776762276763e+01
 8.457922135237235e-01	 6.418520201289618e-01	 1.131571544708644e+01
 8.395231208276964e-01	 6.500303026523526e-01	 1.099707872458902e+01
 8.331710326847167e-01	 6.581523260175891e-01	 1.068201541992085e+01
 8.267367084647974e-01	 6.662168320034949e-01	 1.037070654225628e+01
 8.202209326487752e-01	 6.742225758817946e-01	 1.006335887519386e+01
 8.136245145248202e-01	 6.821683270440537e-01	 9.760207742701306e+00
 8.069482878663485e-01	 6.900528696205332e-01	 9.461519796098024e+00
 8.001931105915888e-01	 6.978750030903157e-01	 9.167595806428400e+00
 7.933598644050892e-01	 7.056335428820665e-01	 8.878773446030049e+00
 7.864494544214645e-01	 7.133273209648090e-01	 8.595430042629271e+00
 8.590572335129438e-01	 6.388839153672046e-01	 1.178003155054744e+01
 8.528204718804285e-01	 6.471856017710603e-01	 1.146751874799699e+01
 8.464992850621017e-01	 6.554318431634429e-01	 1.115829714426781e+01
 8.400944131315864e-01	 6.636213579023855e-01	 1.085244794012421e+01
 8.336066217690161e-01	 6.717528773113061e-01	 1.055007252908141e+01
 8.270367019740094e-01	 6.798251463186452e-01	 1.025129545009447e+01
 8.203854697596604e-01	 6.878369240900172e-01	 9.956267386180784e+00
 8.136537658277739e-01	 6.957869846522043e-01	 9.665168193156926e+00
 8.068424552256028e-01	 7.036741175083541e-01	 9.378209941991942e+00
 7.999524269843750e-01	 7.114971282437339e-01	 9.095639957672452e+00
 7.929845937399159e-01	 7.192548391214126e-01	 8.817743836966381e+00
 8.661368822013277e-01	 6.441490752382886e-01	 1.191218401046675e+01
 8.598487222691207e-01	 6.525191773666280e-01	 1.160917895749507e+01
 8.534754413875616e-01	 6.608333775509690e-01	 1.130932282805878e+01
 8.470177857293582e-01	 6.690903835871029e-01	 1.101260465639898e+01
 8.404765272847562e-01	 6.772889163430560e-01	 1.071903012181201e+01
 8.338524635721513e-01	 6.854277104040002e-01	 1.042862475012683e+01
 8.271464173295543e-01	 6.935055147096107e-01	 1.014143717235823e+01
 8.203592361871495e-01	 7.015210931832043e-01	 9.857542423860888e+00
 8.134917923212063e-01	 7.094732253520071e-01	 9.577045266568554e+00
 8.065449820896243e-01	 7.173607069579004e-01	 9.300083516247275e+00
 7.995197256494324e-01	 7.251823505580131e-01	 9.026831356132266e+00
 8.732165369051681e-01	 6.494142395826942e-01	 1.203427807396354e+01
 8.668769786295907e-01	 6.578527574936988e-01	 1.174081976453371e+01
 8.604516036405305e-01	 6.662349165277870e-01	 1.145033727945069e+01
 8.539411642097845e-01	 6.745594139185001e-01	 1.116271242095858e+01
 8.473464386377192e-01	 6.828249600784643e-01	 1.087783940009803e+01
 8.406682309615092e-01	 6.910302792495726e-01	 1.059562831285851e+01
 8.339073706440876e-01	 6.991741101455530e-01	 1.031600868611453e+01
 8.270647122440257e-01	 7.072552065862484e-01	 1.003893307575696e+01
 8.201411350666138e-01	 7.152723381229559e-01	 9.764380698627853e+00
 8.131375427964318e-01	 7.232242906541624e-01	 9.492361079155749e+00
 8.060548631117155e-01	 7.311098670310472e-01	 9.222917690976878e+00
 7.407021829591638e-01	 6.718335181677186e-01	 6.650561373163985e+00
 7.341230687229586e-01	 6.790164615925394e-01	 6.316971728354791e+00
 7.274730610723107e-01	 6.861362925476358e-01	 5.990170010880648e+00
 7.207530641401294e-01	 6.931919731627650e-01	 5.670281130517965e+00
 7.139640025157525e-01	 7.001824832538673e-01	 5.357426212580363e+00
 7.071068208180253e-01	 7.071068208180252e-01	 5.051721862659347e+00
 7.001824832538673e-01	 7.139640025157528e-01	 4.753279389002488e+00
 6.931919731627649e-01	 7.207530641401293e-01	 4.462203986999647e+00
 6.861362925476358e-01	 7.274730610723109e-01	 4.178593890519565e+00
 6.790164615925391e-01	 7.341230687229588e-01	 3.902539495090930e+00
 6.718335181677186e-01	 7.407021829591638e-01	 3.634122458136601e+00
 7.472377370678133e-01	 6.777614125446016e-01	 6.971518270514617e+00
 7.406005722975900e-01	 6.850077343654265e-01	 6.647174050410127e+00
 7.338918885878577e-01	 6.921903868461908e-01	 6.328509318349591e+00
 7.271125980490919e-01	 6.993083229590611e-01	 6.016104387949625e+00
 7.202636334286914e-01	 7.063605135184399e-01	 5.709974918780011e+00
 7.133459476802922e-01	 7.133459476802920e-01	 5.410130075855765e+00
 7.063605135184399e-01	 7.202636334286913e-01	 5.116571861970710e+00
 6.993083229590610e-01	 7.271125980490921e-01	 4.829294412633454e+00
 6.921903868461905e-01	 7.338918885878579e-01	 4.548283258326983e+00
 6.850077343654261e-01	 7.406005722975902e-01	 4.273514559075812e+00
 6.777614125446015e-01	 7.472377370678134e-01	 4.008537063455763e+00
 7.537731930356146e-01	 6.836892179064176e-01	 7.277762667617033e+00
 7.470779786030873e-01	 6.909989171712875e-01	 6.962560845736671e+00
 7.403106197153839e-01	 6.982443902341711e-01	 6.651703116421208e+00
 7.334720364604299e-01	 7.054245809097757e-01	 6.345772939375520e+00
 7.265631697435692e-01	 7.125384510110958e-01	 6.045248055625180e+00
 7.195849808531080e-01	 7.195849808531080e-01	 5.750057202375109e+00
 7.125384510110958e-01	 7.265631697435693e-01	 5.460120845003450e+00
 7.054245809097756e-01	 7.334720364604301e-01	 5.175350543139202e+00
 6.982443902341712e-01	 7.403106197153843e-01	 4.895648283422201e+00
 6.909989171712871e-01	 7.470779786030874e-01	 4.624392726958026e+00
 6.836892179064176e-01	 7.537731930356144e-01	 4.365506963610636e+00
 7.603085638242696e-01	 6.896169460096039e-01	 7.569493139919262e+00
 7.535553004860229e-01	 6.969900218922882e-01	 7.262724075296901e+00
 7.467292671850901e-01	 7.042983147183586e-01	 6.959428264913298e+00
 7.398313919867479e-01	 7.115407591451790e-01	 6.659441002796844e+00
 7.328626239541822e-01	 7.187163079844499e-01	 6.363403054709411e+00
 7.258239327102680e-01	 7.258239327102679e-01	 6.071679808743196e+00
 7.187163079844500e-01	 7.328626239541822e-01	 5.784137285511409e+00
 7.115407591451791e-01	 7.398313919867480e-01	 5.500632266771725e+00
 7.042983147183586e-01	 7.467292671850901e-01	 5.224187051257313e+00
 6.969900218922880e-01	 7.535553004860231e-01	 4.959432603741030e+00
 6.896169460096039e-01	 7.603085638242696e-01	 4.705742213125450e+00
 7.668438623954803e-01	 6.955446086105990e-01	 7.846913848370484e+00
 7.600325507929693e-01	 7.029810604105929e-01	 7.547828409188508e+00
 7.531478437271784e-01	 7.103521723055354e-01	 7.251219960844272e+00
 7.461906772406504e-01	 7.176568697955423e-01	 6.956870271795698e+00
 7.391620085543288e-01	 7.248940966911156e-01	 6.664615696997199e+00
 7.320628156255664e-01	 7.320628156255664e-01	 6.375191816937456e+00
 7.248940966911156e-01	 7.391620085543289e-01	 6.088847941531361e+00
 7.176568697955424e-01	 7.461906772406506e-01	 5.808087012260650e+00
 7.103521723055352e-01	 7.531478437271785e-01	 5.538370894368319e+00
 7.029810604105927e-01	 7.600325507929695e-01	 5.279232875418700e+00
 6.955446086105990e-01	 7.668438623954806e-01	 5.029931873000561e+00
 7.733791017109483e-01	 7.014722174658394e-01	 8.110233930696278e+00
 7.665097423704988e-01	 7.089720446083670e-01	 7.818045448078487e+00
 7.595663620718501e-01	 7.164059750024827e-01	 7.527227168114681e+00
 7.525499048347427e-01	 7.237729249911359e-01	 7.237540021395180e+00
 7.454613360378058e-01	 7.310718293837064e-01	 6.948768885240924e+00
 7.383016419727988e-01	 7.383016419727987e-01	 6.660804569110715e+00
 7.310718293837067e-01	 7.454613360378060e-01	 6.376529181030136e+00
 7.237729249911358e-01	 7.525499048347428e-01	 6.102535788781714e+00
 7.164059750024824e-01	 7.595663620718502e-01	 5.838716050202439e+00
 7.089720446083670e-01	 7.665097423704992e-01	 5.584372027651582e+00
 7.014722174658394e-01	 7.733791017109484e-01	 5.338743071095066e+00
 7.799142947323758e-01	 7.073997843317636e-01	 8.359666898951833e+00
 7.729868880651846e-01	 7.149629863677764e-01	 8.073552915296698e+00
 7.659848349493077e-01	 7.224597348159835e-01	 7.787608262903382e+00
 7.589090873816301e-01	 7.298889368622302e-01	 7.501594724658436e+00
 7.517606188984109e-01	 7.372495183148371e-01	 7.215300599712224e+00
 7.445404241257600e-01	 7.445404241257600e-01	 6.929876784913465e+00
 7.372495183148372e-01	 7.517606188984112e-01	 6.652387358930984e+00
 7.298889368622299e-01	 7.589090873816300e-01	 6.384470154952139e+00
 7.224597348159834e-01	 7.659848349493079e-01	 6.125706952016222e+00
 7.149629863677766e-01	 7.729868880651850e-01	 5.875408207807784e+00
 7.073997843317635e-01	 7.799142947323758e-01	 5.632820043911559e+00
 7.864494544214645e-01	 7.133273209648090e-01	 8.595430042629268e+00
 7.794640007235981e-01	 7.209538975709855e-01	 8.314534008081438e+00
 7.724032750897520e-01	 7.285134637528188e-01	 8.032528252924671e+00
 7.652682374939169e-01	 7.360049175390959e-01	 7.749196484946644e+00
 7.580598696299415e-01	 7.434271757371210e-01	 7.465026020017541e+00
 7.507791744582448e-01	 7.507791744582448e-01	 7.187073765875370e+00
 7.434271757371208e-01	 7.580598696299413e-01	 6.916894975402334e+00
 7.360049175390958e-01	 7.652682374939170e-01	 6.654296256772948e+00
 7.285134637528189e-01	 7.724032750897525e-01	 6.399808649633225e+00
 7.209538975709853e-01	 7.794640007235986e-01	 6.152878107589419e+00
 7.133273209648087e-01	 7.864494544214645e-01	 5.912783162888932e+00
 7.929845937399159e-01	 7.192548391214126e-01	 8.817743836966383e+00
 7.859410931923126e-01	 7.269447901001596e-01	 8.541176756952529e+00
 7.788216952233861e-01	 7.345671738197718e-01	 8.262158111110750e+00
 7.716273677842082e-01	 7.421208791520038e-01	 7.980696056167458e+00
 7.643591007261943e-01	 7.496048139031718e-01	 7.703326040463205e+00
 7.570179053440483e-01	 7.570179053440486e-01	 7.433095726622259e+00
 7.496048139031719e-01	 7.643591007261945e-01	 7.169592860374120e+00
 7.421208791520038e-01	 7.716273677842083e-01	 6.912373926355588e+00
 7.345671738197715e-01	 7.788216952233864e-01	 6.661465562950885e+00
 7.269447901001591e-01	 7.859410931923128e-01	 6.417295837146282e+00
 7.192548391214126e-01	 7.929845937399160e-01	 6.179227945986520e+00
 7.995197256494324e-01	 7.251823505580131e-01	 9.026831356132266e+00
 7.924181783178998e-01	 7.329356758374636e-01	 8.753673392713477e+00
 7.852401080804104e-01	 7.406208770236232e-01	 8.476674118559467e+00
 7.779864908651088e-01	 7.482368338312242e-01	 8.200886992022829e+00
 7.706583246809673e-01	 7.557824450656035e-01	 7.931490641419258e+00
 7.632566291569655e-01	 7.632566291569653e-01	 7.668172138213170e+00
 7.557824450656037e-01	 7.706583246809673e-01	 7.410587850187365e+00
 7.482368338312242e-01	 7.779864908651088e-01	 7.158364579676823e+00
 7.406208770236232e-01	 7.852401080804107e-01	 6.911100232357488e+00
 7.329356758374633e-01	 7.924181783179000e-01	 6.669151791039746e+00
 7.251823505580127e-01	 7.995197256494323e-01	 6.432724055280228e+00
 8.060548631117155e-01	 7.311098670310472e-01	 9.222917690976880e+00
 7.988952689469325e-01	 7.389265666650634e-01	 8.952219720621887e+00
 7.916585263910276e-01	 7.466745853711559e-01	 8.679485517798827e+00
 7.843456193492238e-01	 7.543527937070280e-01	 8.411948572011170e+00
 7.769575539880575e-01	 7.619600814770303e-01	 8.149697248263562e+00
 7.694953582707912e-01	 7.694953582707911e-01	 7.892505962256123e+00
 7.619600814770304e-01	 7.769575539880578e-01	 7.640121495369556e+00
 7.543527937070278e-01	 7.843456193492236e-01	 7.392263300163441e+00
 7.466745853711558e-01	 7.916585263910276e-01	 7.148623915379898e+00
 7.389265666650633e-01	 7.988952689469326e-01	 6.908911506391822e+00
 7.311098670310470e-01	 8.060548631117156e-01	 6.673814281241916e+00
 6.718335181677186e-01	 7.407021829591638e-01	 3.634122458136601e+00
 6.645872823343156e-01	 7.472106187271413e-01	 3.375013471790467e+00
 6.572800519400028e-01	 7.536463792678837e-01	 3.126669262231729e+00
 6.499129270719648e-01	 7.600086121167050e-01	 2.888659343131069e+00
 6.424870233956014e-01	 7.662964868572387e-01	 2.660513062532586e+00
 6.350034715981191e-01	 7.725091954758020e-01	 2.441723057269597e+00
 6.274634168227144e-01	 7.786459526990355e-01	 2.231748809074615e+00
 6.198680180939397e-01	 7.847059963145349e-01	 2.030020283594154e+00
 6.122184477348455e-01	 7.906885874742023e-01	 1.835941631020247e+00
 6.045158907765119e-01	 7.965930109800829e-01	 1.648894926933108e+00
 5.967615443605807e-01	 8.024185755524647e-01	 1.468243931962202e+00
 6.777614125446015e-01	 7.472377370678134e-01	 4.008537063455763e+00
 6.704512398571738e-01	 7.538035997413243e-01	 3.754931018354305e+00
 6.630795344258222e-01	 7.602961459408076e-01	 3.510563391522666e+00
 6.556474060443600e-01	 7.667145156799008e-01	 3.275132080657666e+00
 6.481559802222708e-01	 7.730578712151039e-01	 3.048298008801004e+00
 6.406063976233870e-01	 7.793253974032672e-01	 2.829688545802674e+00
 6.329998134950845e-01	 7.855163020422160e-01	 2.618901033533374e+00
 6.253373970885753e-01	 7.916298161942056e-01	 2.415506392980489e+00
 6.176203310709081e-01	 7.976651944919537e-01	 2.219052791129136e+00
 6.098498109292915e-01	 8.036217154269948e-01	 2.029069345402448e+00
 6.020270443683503e-01	 8.094986816201495e-01	 1.845069843477674e+00
 6.836892179064176e-01	 7.537731930356144e-01	 4.365506963610640e+00
 6.763151093253604e-01	 7.603964817523108e-01	 4.116569430042135e+00
 6.688789298254858e-01	 7.669458127578128e-01	 3.875560229931001e+00
 6.613817989070783e-01	 7.734203185441922e-01	 3.642286140742080e+00
 6.538248519235411e-01	 7.798191540409223e-01	 3.416519601998532e+00
 6.462092395151726e-01	 7.861414969754933e-01	 3.198002143204836e+00
 6.385361270333604e-01	 7.923865482170143e-01	 2.986447916068935e+00
 6.308066939558106e-01	 7.985535321025001e-01	 2.781547308252810e+00
 6.230221332934019e-01	 8.046416967455774e-01	 2.582970615624859e+00
 6.151836509892988e-01	 8.106503143273640e-01	 2.390371749882029e+00
 6.072924653109394e-01	 8.165786813693011e-01	 2.203391958441504e+00
 6.896169460096039e-01	 7.603085638242696e-01	 4.705742213125446e+00
 6.821789023684701e-01	 7.669892778356936e-01	 4.460733243293166e+00
 6.746782496406749e-01	 7.735953929071133e-01	 4.222546656902337e+00
 6.671161170328336e-01	 7.801260340091294e-01	 3.991079062409675e+00
 6.594936497421313e-01	 7.865803487442801e-01	 3.766194820014034e+00
 6.518120083851873e-01	 7.929575077107869e-01	 3.547729513168357e+00
 6.440723684172615e-01	 7.992567048491314e-01	 3.335493525709073e+00
 6.362759195424057e-01	 8.054771577711719e-01	 3.129275700816385e+00
 6.284238651151838e-01	 8.116181080715283e-01	 2.928847057757937e+00
 6.205174215345687e-01	 8.176788216209809e-01	 2.733964542254959e+00
 6.125578176306614e-01	 8.236585888416685e-01	 2.544374786355093e+00
 6.955446086105990e-01	 7.668438623954806e-01	 5.029931873000565e+00
 6.880426306160998e-01	 7.735820010670689e-01	 4.788203196317356e+00
 6.804775053730712e-01	 7.802448995769261e-01	 4.552383419398037e+00
 6.728503717943414e-01	 7.868316753742626e-01	 4.322440370681662e+00
 6.651623849207594e-01	 7.933414687347632e-01	 4.098311177587272e+00
 6.574147153451448e-01	 7.997734431274558e-01	 3.879905818753779e+00
 6.496085486265061e-01	 8.061267855642678e-01	 3.667110783986624e+00
 6.417450846951215e-01	 8.124007069319756e-01	 3.459792817003816e+00
 6.338255372491125e-01	 8.185944423062615e-01	 3.257802715798376e+00
 6.258511331431357e-01	 8.247072512476352e-01	 3.060979165328224e+00
 6.178231117698285e-01	 8.307384180790000e-01	 2.869152577288248e+00
 7.014722174658394e-01	 7.733791017109484e-01	 5.338743071095065e+00
 6.939063056978454e-01	 7.801746645220303e-01	 5.099735444917048e+00
 6.862767085243556e-01	 7.868943459554656e-01	 4.865904488010035e+00
 6.785845745643173e-01	 7.935372559391431e-01	 4.637271056266356e+00
 6.708310687021432e-01	 8.001025274219570e-01	 4.413826313565933e+00
 6.630173715067569e-01	 8.065893167438052e-01	 4.195535401919113e+00
 6.551446786408142e-01	 8.129968039881238e-01	 3.982341222180448e+00
 6.472142002607170e-01	 8.193241933166648e-01	 3.774168299193714e+00
 6.392271604080451e-01	 8.255707132862308e-01	 3.570926704947764e+00
 6.311847963930342e-01	 8.317356171471170e-01	 3.372516013207292e+00
 6.230883581707538e-01	 8.378181831230447e-01	 3.178829259136809e+00
 7.073997843317635e-01	 7.799142947323758e-01	 5.632820043911559e+00
 6.997699392433021e-01	 7.867672812761722e-01	 5.396060755012678e+00
 6.920758705962100e-01	 7.935437452309481e-01	 5.163916383742823e+00
 6.843187367154763e-01	 8.002427890033215e-01	 4.936443020771971e+00
 6.764997123290020e-01	 8.068635382154474e-01	 4.713667539393590e+00
 6.686199879817362e-01	 8.134051420781426e-01	 4.495591420804606e+00
 6.606807694399039e-01	 8.198667737464003e-01	 4.282194693600929e+00
 6.526832770859533e-01	 8.262476306569940e-01	 4.073439960003944e+00
 6.446287453048393e-01	 8.325469348478909e-01	 3.869276481047976e+00
 6.365184218622980e-01	 8.387639332592164e-01	 3.669644292835168e+00
 6.283535672757499e-01	 8.448978980155509e-01	 3.474478326032450e+00
 7.133273209648087e-01	 7.864494544214645e-01	 5.912783162888935e+00
 7.056335428820666e-01	 7.933598644050885e-01	 5.677883673125182e+00
 6.978750030903159e-01	 8.001931105915884e-01	 5.447197477072531e+00
 6.900528696205338e-01	 8.069482878663481e-01	 5.220798489354532e+00
 6.821683270440539e-01	 8.136245145248197e-01	 4.998731350989916e+00
 6.742225758817945e-01	 8.202209326487746e-01	 4.781015447132829e+00
 6.662168320034951e-01	 8.267367084647972e-01	 4.567649043450693e+00
 6.581523260175896e-01	 8.331710326847167e-01	 4.358613512206209e+00
 6.500303026523528e-01	 8.395231208276961e-01	 4.153877618807988e+00
 6.418520201289624e-01	 8.457922135237235e-01	 3.953401839467719e+00
 6.336187495271294e-01	 8.519775767982681e-01	 3.757142680676079e+00
 7.192548391214126e-01	 7.929845937399160e-01	 6.179227945986518e+00
 7.114971282437339e-01	 7.999524269843745e-01	 5.945881675973870e+00
 7.036741175083546e-01	 8.068424552256025e-01	 5.716497260772683e+00
 6.957869846522046e-01	 8.136537658277735e-01	 5.491149392573564e+00
 6.878369240900176e-01	 8.203854697596602e-01	 5.269882906040683e+00
 6.798251463186454e-01	 8.270367019740091e-01	 5.052717025940211e+00
 6.717528773113062e-01	 8.336066217690158e-01	 4.839649738618522e+00
 6.636213579023863e-01	 8.400944131315866e-01	 4.630662256828703e+00
 6.554318431634435e-01	 8.464992850621015e-01	 4.425723547093391e+00
 6.471856017710610e-01	 8.528204718804281e-01	 4.224794888659580e+00
 6.388839153672043e-01	 8.590572335129436e-01	 4.027834433175423e+00
 7.251823505580127e-01	 7.995197256494323e-01	 6.432724055280228e+00
 7.173607069579006e-01	 8.065449820896240e-01	 6.200704300274964e+00
 7.094732253520075e-01	 8.134917923212057e-01	 5.972535597902405e+00
 7.015210931832044e-01	 8.203592361871491e-01	 5.748276719117735e+00
 6.935055147096113e-01	 8.271464173295542e-01	 5.527955468571801e+00
 6.854277104040010e-01	 8.338524635721513e-01	 5.311573199690188e+00
 6.772889163430563e-01	 8.404765272847563e-01	 5.099109459603759e+00
 6.690903835871032e-01	 8.470177857293578e-01	 4.890526731751005e+00
 6.608333775509692e-01	 8.534754413875614e-01	 4.685775243646342e+00
 6.525191773666283e-01	 8.598487222691203e-01	 4.484797807167347e+00
 6.441490752382885e-01	 8.661368822013278e-01	 4.287534658796742e+00
 7.311098670310470e-01	 8.060548631117156e-01	 6.673814281241918e+00
 7.232242906541625e-01	 8.131375427964316e-01	 6.442972253740660e+00
 7.152723381229562e-01	 8.201411350666139e-01	 6.216001946246396e+00
 7.072552065862487e-01	 8.270647122440252e-01	 5.992929840935282e+00
 6.991741101455531e-01	 8.339073706440872e-01	 5.773749822558392e+00
 6.910302792495729e-01	 8.406682309615087e-01	 5.558427998689248e+00
 6.828249600784644e-01	 8.473464386377187e-01	 5.346907656619319e+00
 6.745594139185006e-01	 8.539411642097847e-01	 5.139114322934569e+00
 6.662349165277873e-01	 8.604516036405299e-01	 4.934960891445112e+00
 6.578527574936991e-01	 8.668769786295902e-01	 4.734352785010838e+00
 6.494142395826941e-01	 8.732165369051680e-01	 4.537193116876153e+00
 5.967615443605807e-01	 8.024185755524647e-01	 1.468243931962201e+00
 5.889579473229991e-01	 8.081636447008754e-01	 1.295095389042219e+00
 5.811050012015555e-01	 8.138285757179110e-01	 1.130750243186152e+00
 5.732039308284177e-01	 8.194127540634818e-01	 9.749427171504660e-01
 5.652559707219063e-01	 8.249155899695259e-01	 8.274094140136651e-01
 5.572623644660748e-01	 8.303365186157972e-01	 6.878921541933641e-01
 5.492243640870379e-01	 8.356750002871786e-01	 5.561407073659382e-01
 5.411432294266819e-01	 8.409305205124760e-01	 4.319154027894647e-01
 5.330202275143926e-01	 8.461025901846800e-01	 3.149896024702873e-01
 5.248566319374309e-01	 8.511907456626929e-01	 2.051520226534733e-01
 5.166537222105835e-01	 8.561945488545585e-01	 1.022088902158837e-01
 6.020270443683503e-01	 8.094986816201495e-01	 1.845069843477674e+00
 5.941545926253828e-01	 8.152944421414487e-01	 1.668376705552670e+00
 5.862323563693834e-01	 8.210093574360454e-01	 1.500380702805998e+00
 5.782615712397398e-01	 8.266428075414807e-01	 1.340781530626211e+00
 5.702434826474595e-01	 8.321941974858972e-01	 1.189281735419039e+00
 5.621793451492739e-01	 8.376629574653810e-01	 1.045589764107697e+00
 5.540704218184637e-01	 8.430485430026596e-01	 9.094229018093637e-01
 5.459179836130430e-01	 8.483504350871243e-01	 7.805100801360052e-01
 5.377233087419445e-01	 8.535681402961492e-01	 6.585945395680652e-01
 5.294876820298395e-01	 8.587011908977176e-01	 5.434363304490925e-01
 5.212123942812260e-01	 8.637491449343863e-01	 4.348146382982528e-01
 6.072924653109394e-01	 8.165786813693011e-01	 2.203391958441506e+00
 5.993511598966267e-01	 8.224251325021388e-01	 2.023514219564319e+00
 5.913596345465711e-01	 8.281900313235401e-01	 1.852183598950166e+00
 5.833191357072233e-01	 8.338727524487605e-01	 1.689071732924106e+00
 5.752309196821165e-01	 8.394726957022305e-01	 1.533853667037505e+00
 5.670962520004982e-01	 8.449892862964444e-01	 1.386211117445386e+00
 5.589164067826511e-01	 8.504219749920485e-01	 1.245835613432111e+00
 5.506926661025542e-01	 8.557702382390908e-01	 1.112431502458435e+00
 5.424263193485221e-01	 8.610335782993951e-01	 9.857188001511986e-01
 5.341186625824696e-01	 8.662115233500908e-01	 8.654358688170396e-01
 5.257709978984394e-01	 8.713036275683087e-01	 7.513419092926213e-01
 6.125578176306614e-01	 8.236585888416685e-01	 2.544374786355092e+00
 6.045476594424680e-01	 8.295557299252467e-01	 2.361671567254478e+00
 5.964868459014281e-01	 8.353706116218506e-01	 2.187323568597616e+00
 5.883766342609166e-01	 8.411026031245220e-01	 2.020980575176761e+00
 5.802182917168530e-01	 8.467510990540494e-01	 1.862296427069615e+00
 5.720130947708599e-01	 8.523155196394021e-01	 1.710932492852732e+00
 5.637623285900822e-01	 8.577953108792116e-01	 1.566561016633516e+00
 5.554672863643207e-01	 8.631899446842410e-01	 1.428868319153585e+00
 5.471292686611287e-01	 8.684989190008250e-01	 1.297557834332110e+00
 5.387495827795215e-01	 8.737217579152938e-01	 1.172352963837390e+00
 5.303295421029417e-01	 8.788580117394046e-01	 1.052999733579242e+00
 6.178231117698285e-01	 8.307384180790000e-01	 2.869152577288248e+00
 6.097441015686452e-01	 8.366862485530753e-01	 2.683982940506425e+00
 6.016140006022648e-01	 8.425511125724326e-01	 2.506936564157674e+00
 5.934340769308682e-01	 8.483323739079662e-01	 2.337647331628836e+00
 5.852056086426443e-01	 8.540294219768771e-01	 2.175753915874674e+00
 5.769298832114720e-01	 8.596416720246697e-01	 2.020903465008605e+00
 5.686081968512389e-01	 8.651685652880139e-01	 1.872755154056487e+00
 5.602418538674470e-01	 8.706095691384411e-01	 1.730983581978890e+00
 5.518321660067675e-01	 8.759641772068457e-01	 1.595281994245559e+00
 5.433804518051949e-01	 8.812319094888067e-01	 1.465365312519062e+00
 5.348880359354498e-01	 8.864123124307511e-01	 1.340972954398932e+00
 6.230883581707538e-01	 8.378181831230447e-01	 3.178829259136811e+00
 6.149404965808971e-01	 8.438167025279262e-01	 2.991553047254852e+00
 6.067411088173906e-01	 8.497315484167444e-01	 2.812129840157378e+00
 5.984914737471259e-01	 8.555620791382919e-01	 2.640183315588435e+00
 5.901928803504652e-01	 8.613076789062367e-01	 2.475342763783884e+00
 5.818466270734469e-01	 8.669677579826620e-01	 2.317246986557283e+00
 5.734540211766028e-01	 8.725417528423215e-01	 2.165548054565387e+00
 5.650163780810380e-01	 8.780291263175577e-01	 2.019914900671769e+00
 5.565350207124428e-01	 8.834293677238656e-01	 1.880036728566205e+00
 5.480112788436906e-01	 8.887419929661101e-01	 1.745626217146538e+00
 5.394464884366807e-01	 8.939665446254271e-01	 1.616422502627019e+00
 6.283535672757499e-01	 8.448978980155509e-01	 3.474478326032449e+00
 6.201368547849613e-01	 8.509471059921022e-01	 3.285457023182332e+00
 6.118681807151147e-01	 8.569119333962407e-01	 3.103981891336610e+00
 6.035488347397386e-01	 8.627917331547008e-01	 2.929671846717640e+00
 5.951801167312919e-01	 8.685858842776515e-01	 2.762152330058559e+00
 5.867633361078975e-01	 8.742937920437943e-01	 2.601059420892706e+00
 5.782998111766555e-01	 8.799148881659999e-01	 2.446043801697029e+00
 5.697908684741982e-01	 8.854486309374567e-01	 2.296774548582342e+00
 5.612378421051575e-01	 8.908945053582910e-01	 2.152942726525882e+00
 5.526420730792088e-01	 8.962520232426846e-01	 2.014264768563271e+00
 5.440049086473521e-01	 9.015207233065108e-01	 1.880485619891801e+00
 6.336187495271294e-01	 8.519775767982681e-01	 3.757142680676079e+00
 6.253331864865769e-01	 8.580774730879045e-01	 3.566740297530799e+00
 6.169952264637479e-01	 8.640922817523790e-01	 3.383542344913774e+00
 6.086061699387543e-01	 8.700213502963925e-01	 3.207168172424175e+00
 6.001673276760995e-01	 8.758640525266457e-01	 3.037244655777138e+00
 5.916800200659360e-01	 8.816197887384813e-01	 2.873410528600601e+00
 5.831455764618791e-01	 8.872879858829158e-01	 2.715320555409958e+00
 5.745653345160326e-01	 8.928680977140044e-01	 2.562649521182410e+00
 5.659406395119152e-01	 8.983596049165290e-01	 2.415096014323815e+00
 5.572728436959498e-01	 9.037620152140113e-01	 2.272385981323732e+00
 5.485633056081808e-01	 9.090748634570800e-01	 2.134276033001247e+00
 6.388839153672043e-01	 8.590572335129436e-01	 4.027834433175427e+00
 6.305295019914822e-01	 8.652078179576365e-01	 3.836418415601454e+00
 6.221222562315996e-01	 8.712726077266152e-01	 3.651831809598073e+00
 6.136634893742217e-01	 8.772509449025678e-01	 3.473699345942779e+00
 6.051545230758633e-01	 8.831421980887416e-01	 3.301654373246865e+00
 5.965966886986757e-01	 8.889457625971390e-01	 3.135343410171688e+00
 5.879913266427554e-01	 8.946610606169341e-01	 2.974430529777993e+00
 5.793397856756455e-01	 9.002875413630667e-01	 2.818601550119197e+00
 5.706434222597198e-01	 9.058246812049876e-01	 2.667568006631431e+00
 5.619035998781138e-01	 9.112719837755702e-01	 2.521070883445958e+00
 5.531216883598842e-01	 9.166289800602131e-01	 2.378884082450478e+00
 6.441490752382885e-01	 8.661368822013278e-01	 4.287534658796742e+00
 6.357258116054149e-01	 8.723381547435994e-01	 4.095476820346365e+00
 6.272492801869796e-01	 8.784529255604061e-01	 3.909841683749187e+00
 6.187208030761885e-01	 8.844805313124271e-01	 3.730264063510055e+00
 6.101417128215585e-01	 8.904203353994633e-01	 3.556388574363240e+00
 6.015133517572289e-01	 8.962717281501813e-01	 3.387874407429383e+00
 5.928370713297658e-01	 9.020341269919210e-01	 3.224399929086137e+00
 5.841142314221424e-01	 9.077069766005100e-01	 3.065667075302851e+00
 5.753461996755745e-01	 9.132897490300738e-01	 2.911405515709553e+00
 5.665343508099012e-01	 9.187819438228424e-01	 2.761376563316796e+00
 5.576800659431796e-01	 9.241830880989883e-01	 2.615376807595698e+00
 6.494142395826941e-01	 8.732165369051680e-01	 4.537193116876153e+00
 6.409221256341137e-01	 8.794684975880961e-01	 4.344870595289327e+00
 6.323763084981971e-01	 8.856332494952077e-01	 4.158533924923827e+00
 6.237781210747034e-01	 8.917101238651706e-01	 3.977832462884182e+00
 6.151289068041612e-01	 8.976984788943336e-01	 3.802426640175765e+00
 6.064300189927078e-01	 9.035976999280244e-01	 3.631992965945844e+00
 5.976828201333925e-01	 9.094071996317421e-01	 3.466228844630895e+00
 5.888886812246272e-01	 9.151264181422003e-01	 3.304857177351009e+00
 5.800489810864830e-01	 9.207548231981942e-01	 3.147630720490096e+00
 5.711651056755123e-01	 9.262919102513077e-01	 2.994336176132465e+00
 5.622384473987841e-01	 9.317372025564835e-01	 2.844797990905730e+00
 5.166537222105835e-01	 8.561945488545585e-01	 1.022088902158837e-01
 5.084127833066525e-01	 8.611135874899662e-01	 6.636635161259106e-03
 5.001351054989744e-01	 8.659474757928982e-01	-8.126887955424958e-02
 4.918219832314512e-01	 8.706958538913729e-01	-1.619445417892550e-01
 4.834747143274812e-01	 8.753583876192402e-01	-2.358079421281838e-01
 4.750945993647698e-01	 8.799347685068711e-01	-3.032557570444487e-01
 4.666829410531063e-01	 8.844247137540189e-01	-3.646623492631157e-01
 4.582410436156905e-01	 8.888279661850482e-01	-4.203785901925424e-01
 4.497702121745728e-01	 8.931442941867402e-01	-4.707309078648635e-01
 4.412717521407651e-01	 8.973734916289072e-01	-5.160205623833432e-01
 4.327469686095653e-01	 9.015153777680721e-01	-5.565231494799711e-01
 5.212123942812260e-01	 8.637491449343863e-01	 4.348146382982528e-01
 5.128987418067739e-01	 8.687115864981905e-01	 3.331210371372134e-01
 5.045480262644486e-01	 8.735881264092124e-01	 2.386187349528990e-01
 4.961615535195790e-01	 8.783784016201314e-01	 1.509255802293928e-01
 4.877406328468082e-01	 8.830820750162707e-01	 6.968160768169585e-02
 4.792865762993894e-01	 8.876988354062075e-01	-5.449348623736583e-03
 4.708006980814730e-01	 8.922283974943961e-01	-7.477827335020737e-02
 4.622843139239729e-01	 8.966705018359983e-01	-1.385898241856740e-01
 4.537387404645851e-01	 9.010249147741397e-01	-1.971414258813903e-01
 4.451652946325172e-01	 9.052914283598297e-01	-2.506626060364013e-01
 4.365652930384774e-01	 9.094698602547839e-01	-2.993545731316013e-01
 5.257709978984394e-01	 8.713036275683087e-01	 7.513419092926213e-01
 5.173846329448053e-01	 8.763094714084868e-01	 6.437627870081963e-01
 5.089608807640044e-01	 8.812286622868644e-01	 5.429399552704759e-01
 5.005010586426358e-01	 8.860608339808327e-01	 4.485407241434956e-01
 4.920064873064329e-01	 8.908056464272397e-01	 3.602574648913830e-01
 4.834784902840406e-01	 8.954627857129168e-01	 2.778092318175395e-01
 4.749183932738125e-01	 9.000319640470580e-01	 2.009431383327526e-01
 4.663275235142208e-01	 9.045129197156628e-01	 1.294354820356012e-01
 4.577072091584498e-01	 9.089054170182405e-01	 6.309261517473130e-02
 4.490587786537454e-01	 9.132092461870266e-01	 1.751558471278614e-03
 4.403835601260683e-01	 9.174242232889595e-01	-5.471964214655456e-02
 5.303295421029417e-01	 8.788580117394046e-01	 1.052999733579242e+00
 5.218704656173233e-01	 8.839072572900480e-01	 9.397751590170141e-01
 5.133736777494395e-01	 8.888690985796693e-01	 8.329077710481276e-01
 5.048405072070256e-01	 8.937431662104185e-01	 7.321091586094283e-01
 4.962722861667690e-01	 8.985291171707114e-01	 6.371188394473645e-01
 4.876703496325708e-01	 9.032266348256713e-01	 5.477059032456009e-01
 4.790360347968526e-01	 9.078354288892727e-01	 4.636703937946764e-01
 4.703706804055078e-01	 9.123552353783850e-01	 3.848444247649746e-01
 4.616756261270729e-01	 9.167858165489321e-01	 3.110930253181421e-01
 4.529522119266955e-01	 9.211269608144040e-01	 2.423147134920469e-01
 4.442017774454530e-01	 9.253784826469883e-01	 1.784417969520609e-01
 5.348880359354498e-01	 8.864123124307511e-01	 1.340972954398932e+00
 5.263562487209041e-01	 8.915049592120662e-01	 1.222347728853823e+00
 5.177864259725530e-01	 8.965094504414431e-01	 1.109712075034388e+00
 5.091799078191525e-01	 9.014254135458308e-01	 1.002816763128127e+00
 5.005380378882303e-01	 9.062525025652480e-01	 9.014433590617769e-01
 4.918621626588278e-01	 9.109903981431452e-01	 8.054059016210827e-01
 4.831536308173205e-01	 9.156388074983082e-01	 7.145523027855574e-01
 4.744137926169066e-01	 9.201974643785064e-01	 6.287654655904622e-01
 4.656439992413601e-01	 9.246661289961029e-01	 5.479641155926254e-01
 4.568456021736138e-01	 9.290445879458676e-01	 4.721033438026887e-01
 4.480199525697461e-01	 9.333326541052582e-01	 4.011748607039911e-01
 5.394464884366807e-01	 8.939665446254271e-01	 1.616422502627019e+00
 5.308419911521247e-01	 8.991025922437338e-01	 1.492646686178765e+00
 5.221991341851430e-01	 9.041497330260017e-01	 1.374520007701430e+00
 5.135192690854204e-01	 9.091075912240101e-01	 1.261827399270548e+00
 5.048037509312301e-01	 9.139758179294122e-01	 1.154387461687777e+00
 4.960539376766600e-01	 9.187540910640118e-01	 1.052054188433247e+00
 4.872711895019438e-01	 9.234421153514331e-01	 9.547183963526247e-01
 4.784568681674912e-01	 9.280396222703680e-01	 8.623088570989381e-01
 4.696123363722171e-01	 9.325463699896414e-01	 7.747931252194515e-01
 4.607389571167459e-01	 9.369621432853233e-01	 6.921780606632746e-01
 4.518380930720615e-01	 9.412867534401579e-01	 6.145100453282986e-01
 5.440049086473521e-01	 9.015207233065108e-01	 1.880485619891801e+00
 5.353277018075605e-01	 9.067001714542431e-01	 1.751815095022347e+00
 5.266118111390080e-01	 9.117899614871613e-01	 1.628476249557133e+00
 5.178585996122335e-01	 9.167897144818986e-01	 1.510283229673864e+00
 5.090694337561820e-01	 9.216990785817660e-01	 1.397086736104551e+00
 5.002456829999148e-01	 9.265177289869448e-01	 1.288775807926203e+00
 4.913887190174501e-01	 9.312453679259152e-01	 1.185279295911668e+00
 4.824999150763343e-01	 9.358817246083114e-01	 1.086567019144538e+00
 4.735806453905497e-01	 9.404265551594374e-01	 9.926506005770861e-01
 4.646322844783382e-01	 9.448796425366773e-01	 9.035839791804015e-01
 4.556562065255141e-01	 9.492407964280762e-01	 8.194635983047209e-01
 5.485633056081808e-01	 9.090748634570800e-01	 2.134276033001247e+00
 5.398133895837890e-01	 9.142977119127865e-01	 2.000973105060814e+00
 5.310244655859467e-01	 9.194301509787366e-01	 1.872703264162885e+00
 5.221979080059957e-01	 9.244717985564375e-01	 1.749304987817299e+00
 5.133350948234998e-01	 9.294222998408733e-01	 1.630656213606880e+00
 5.044374069424405e-01	 9.342813273106180e-01	 1.516676195986216e+00
 4.955062275305668e-01	 9.390485806990229e-01	 1.407327034753465e+00
 4.865429413625088e-01	 9.437237869466782e-01	 1.302614868547032e+00
 4.775489341672636e-01	 9.483067001353793e-01	 1.202590728801876e+00
 4.685255919806359e-01	 9.527971014038344e-01	 1.107351051678146e+00
 4.594743005032186e-01	 9.571947988454016e-01	 1.017037847538247e+00
 5.531216883598842e-01	 9.166289800602131e-01	 2.378884082450478e+00
 5.442990633773858e-01	 9.218952286885570e-01	 2.241218116566184e+00
 5.354371062777575e-01	 9.270703166545445e-01	 2.108301494666295e+00
 5.265372028731111e-01	 9.321538586845679e-01	 1.979992201395869e+00
 5.176007425935969e-01	 9.371454970252960e-01	 1.856190613594428e+00
 5.086291178180846e-01	 9.420449014337039e-01	 1.736841443453094e+00
 4.996237232080215e-01	 9.468517691480246e-01	 1.621935334715052e+00
 4.905859550450887e-01	 9.515658248398107e-01	 1.511510104886703e+00
 4.815172105732649e-01	 9.561868205473558e-01	 1.405651628619158e+00
 4.724188873458858e-01	 9.607145355907017e-01	 1.304494359609384e+00
 4.632923825782890e-01	 9.651487764685223e-01	 1.208221490543964e+00
 5.576800659431796e-01	 9.241830880989883e-01	 2.615376807595698e+00
 5.487847320849274e-01	 9.294927368507458e-01	 2.473624901644897e+00
 5.398497419662388e-01	 9.347104736684007e-01	 2.336349516474126e+00
 5.308764928199836e-01	 9.398359101032322e-01	 2.203423371908849e+00
 5.218663855268874e-01	 9.448686854535971e-01	 2.074764545671917e+00
 5.128208239406953e-01	 9.498084667548771e-01	 1.950338516442458e+00
 5.037412142165415e-01	 9.546549487501877e-01	 1.830159840555990e+00
 4.946289641431469e-01	 9.594078538420494e-01	 1.714293454895755e+00
 4.854854824794593e-01	 9.640669320252562e-01	 1.602855600831030e+00
 4.763121782963332e-01	 9.686319608011845e-01	 1.496014366364317e+00
 4.671104603238401e-01	 9.731027450738271e-01	 1.393989845930179e+00
 5.622384473987841e-01	 9.317372025564835e-01	 2.844797990905730e+00
 5.532704046029903e-01	 9.370902514685463e-01	 2.699245684201281e+00
 5.442623814031892e-01	 9.423506371741205e-01	 2.557904148517971e+00
 5.352157864530174e-01	 9.475179680493709e-01	 2.420656112917636e+00
 5.261320320837845e-01	 9.525918804443393e-01	 2.287432670696401e+00
 5.170125336241201e-01	 9.575720386728107e-01	 2.158215436089728e+00
 5.078587087228544e-01	 9.624581349827813e-01	 2.033038314417653e+00
 4.986719766757564e-01	 9.672498895077365e-01	 1.911988877767630e+00
 4.894537577567521e-01	 9.719470501989690e-01	 1.795209340737206e+00
 4.802054725542244e-01	 9.765493927391885e-01	 1.682897133179612e+00
 4.709285413129862e-01	 9.810567204377044e-01	 1.575305069306989e+00
 4.327469686095653e-01	 9.015153777680721e-01	-5.565231494799702e-01
 4.241957100808111e-01	 9.055704788776667e-01	-5.925662036191492e-01
 4.156207266274777e-01	 9.095379524497916e-01	-6.243039996431806e-01
 4.070233190699297e-01	 9.134176924764242e-01	-6.517299335391127e-01
 3.984047855712466e-01	 9.172096178030530e-01	-6.748081843861071e-01
 3.897664210659204e-01	 9.209136719525728e-01	-6.934746329096939e-01
 3.811095166967166e-01	 9.245298229341032e-01	-7.076379843549572e-01
 3.724353592601342e-01	 9.280580630371011e-01	-7.171810868219837e-01
 3.637452306608896e-01	 9.314984086111489e-01	-7.217770969181576e-01
 3.550404073758262e-01	 9.348508998318095e-01	-7.208472083515429e-01
 3.463221599276364e-01	 9.381156004529614e-01	-7.142374581455713e-01
 4.365652930384774e-01	 9.094698602547839e-01	-2.993545731316034e-01
 4.279385828455186e-01	 9.135607413759669e-01	-3.434569976035325e-01
 4.192879383917877e-01	 9.175632217816508e-01	-3.831505675966280e-01
 4.106146719754153e-01	 9.214771945284639e-01	-4.185282591874817e-01
 4.019200932138001e-01	 9.253025777458400e-01	-4.496541611057538e-01
 3.932055084672654e-01	 9.290393144583587e-01	-4.765642533173979e-01
 3.844722202709527e-01	 9.326873723928797e-01	-4.992674027315080e-01
 3.757215267753868e-01	 9.362467437708336e-01	-5.177465670140642e-01
 3.669547211961480e-01	 9.397174450860710e-01	-5.319098070328037e-01
 3.581730912730496e-01	 9.430995168686511e-01	-5.412256333679255e-01
 3.493779187392193e-01	 9.463930234349912e-01	-5.455484769936874e-01
 4.403835601260683e-01	 9.174242232889595e-01	-5.471964214655411e-02
 4.316813994017186e-01	 9.215508838844714e-01	-1.065209952313593e-01
 4.229550950836435e-01	 9.255883705981116e-01	-1.538897404989414e-01
 4.142059709475561e-01	 9.295365755511696e-01	-1.969958117695585e-01
 4.054353480649912e-01	 9.333954161570298e-01	-2.359800690113718e-01
 3.966445442219227e-01	 9.371648349419602e-01	-2.709549720413198e-01
 3.878348733456837e-01	 9.408447993505553e-01	-3.020054848440099e-01
 3.790076449406457e-01	 9.444353015362192e-01	-3.291902012847971e-01
 3.701641635330711e-01	 9.479363581370627e-01	-3.525424390688465e-01
 3.613057281255647e-01	 9.513480100376308e-01	-3.717270904189853e-01
 3.524336316615091e-01	 9.546703221168643e-01	-3.864801644918434e-01
 4.442017774454530e-01	 9.253784826469883e-01	 1.784417969520589e-01
 4.354241671729185e-01	 9.295409222505252e-01	 1.192743562617651e-01
 4.266222039765180e-01	 9.336134148159371e-01	 6.449662973551185e-02
 4.177972231093883e-01	 9.375958515291819e-01	 1.388378301653792e-02
 4.089505570970417e-01	 9.414881490875989e-01	-3.275924239752781e-02
 4.000835351509423e-01	 9.452902495191456e-01	-7.559833256292947e-02
 3.911974825904601e-01	 9.490021199861547e-01	-1.147710493401384e-01
 3.822937202736527e-01	 9.526237525739951e-01	-1.503877139770611e-01
 3.733735640373093e-01	 9.561551640650339e-01	-1.825327152610803e-01
 3.644383241466703e-01	 9.595963956982930e-01	-2.111146825677674e-01
 3.554893047552183e-01	 9.629475129152257e-01	-2.357302162322759e-01
 4.480199525697461e-01	 9.333326541052582e-01	 4.011748607039911e-01
 4.391668935826256e-01	 9.375308723214744e-01	 3.349475970814557e-01
 4.302892723438853e-01	 9.416383703518919e-01	 2.730131871621708e-01
 4.213884355839490e-01	 9.456550384471414e-01	 2.151134066177973e-01
 4.124657272821722e-01	 9.495807925885241e-01	 1.610210242891179e-01
 4.035224880753754e-01	 9.534155743056876e-01	 1.105392349588457e-01
 3.945600546748304e-01	 9.571593504787007e-01	 6.350083230170456e-02
 3.855797592921488e-01	 9.608121131248982e-01	 1.976713188254609e-02
 3.765829290745132e-01	 9.643738791708957e-01	-2.077334460224334e-02
 3.675708855496659e-01	 9.678446902101842e-01	-5.817146315704180e-02
 3.585449440810582e-01	 9.712246122467207e-01	-9.202010304023744e-02
 4.518380930720615e-01	 9.412867534401579e-01	 6.145100453282977e-01
 4.429095860543477e-01	 9.455207499446651e-01	 5.415036721084561e-01
 4.339563074592180e-01	 9.496632531227386e-01	 4.726515094490515e-01
 4.249796154942742e-01	 9.537141522896891e-01	 4.076829246088889e-01
 4.159808655926037e-01	 9.576733627107813e-01	 3.463600108342322e-01
 4.069614098162730e-01	 9.615408254173561e-01	 2.884770226609654e-01
 3.979225962683451e-01	 9.653165070072187e-01	 2.338595356351287e-01
 3.888657685138760e-01	 9.690003994296651e-01	 1.823633407507570e-01
 3.797922650103325e-01	 9.725925197555580e-01	 1.338730853110297e-01
 3.707034185478507e-01	 9.760929099328496e-01	 8.830067321512436e-02
 3.616005556997414e-01	 9.795016365279939e-01	 4.590656717015618e-02
 4.556562065255141e-01	 9.492407964280762e-01	 8.194635983047209e-01
 4.466522520115913e-01	 9.535105709674431e-01	 7.399343043284730e-01
 4.376233165959894e-01	 9.576880790452408e-01	 6.643905019195258e-01
 4.285707699634009e-01	 9.617732090414655e-01	 5.925696192919330e-01
 4.194959790005576e-01	 9.657658755053471e-01	 5.242440595273652e-01
 4.104003071946858e-01	 9.696660189699224e-01	 4.592206052032435e-01
 4.012851140405538e-01	 9.734736057507321e-01	 3.973395308729524e-01
 3.921517544565761e-01	 9.771886277290334e-01	 3.384734342000768e-01
 3.830015782104179e-01	 9.808111021199305e-01	 2.825257980247828e-01
 3.738359293545235e-01	 9.843410712258351e-01	 2.294292970248009e-01
 3.646561456719793e-01	 9.877786021756902e-01	 1.792856136825804e-01
 4.594743005032186e-01	 9.571947988454016e-01	 1.017037847538246e+00
 4.503948988778645e-01	 9.615003512371543e-01	 9.312183270061407e-01
 4.412903070276735e-01	 9.657128640361626e-01	 8.491967505314426e-01
 4.321619061143654e-01	 9.698322246871109e-01	 7.707385804951332e-01
 4.230110744782546e-01	 9.738583470231991e-01	 6.956470200079481e-01
 4.138391870316644e-01	 9.777911710791585e-01	 6.237623540945842e-01
 4.046476146610062e-01	 9.816306628882663e-01	 5.549609813336009e-01
 3.954377236379908e-01	 9.853768142637400e-01	 4.891541473179304e-01
 3.862108750404194e-01	 9.890296425649238e-01	 4.262863928682057e-01
 3.769684241829837e-01	 9.925891904486867e-01	 3.663337313905282e-01
 3.677117200584841e-01	 9.960555256064554e-01	 3.093337777667844e-01
 4.632923825782890e-01	 9.651487764685223e-01	 1.208221490543965e+00
 4.541375340766741e-01	 9.694901066011445e-01	 1.116321976976992e+00
 4.449572860277429e-01	 9.737376240122678e-01	 1.028024836158909e+00
 4.357530310702041e-01	 9.778912152112670e-01	 9.431430569837873e-01
 4.265261589979158e-01	 9.819507933153125e-01	 8.615306531933449e-01
 4.172780561482598e-01	 9.859162978608338e-01	 7.830819087747913e-01
 4.080101047992523e-01	 9.897876945988444e-01	 7.077302955493643e-01
 3.987236825758614e-01	 9.935649752745210e-01	 6.354470749566454e-01
 3.894201618659873e-01	 9.972481573914486e-01	 5.662395976914909e-01
 3.801009092465304e-01	 1.000837283960949e+00	 5.001493163892765e-01
 3.707672849199675e-01	 1.004332423236934e+00	 4.372495279729165e-01
 4.671104603238401e-01	 9.731027450738271e-01	 1.393989845930182e+00
 4.578801650315275e-01	 9.774798529067594e-01	 1.296199151275486e+00
 4.486242608696714e-01	 9.817623748903196e-01	 1.201817612387492e+00
 4.393441519539537e-01	 9.859501965985737e-01	 1.110724770733921e+00
 4.300412395317624e-01	 9.900432304326646e-01	 1.022844996632304e+00
 4.207169213655230e-01	 9.940414154307203e-01	 9.381466069265965e-01
 4.113725911248414e-01	 9.979447170614913e-01	 8.566406356963088e-01
 4.020096377879298e-01	 1.001753127002114e+00	 7.783792707132191e-01
 3.926294450527720e-01	 1.005466662900415e+00	 7.034539700997091e-01
 3.832333907584631e-01	 1.009085368122169e+00	 6.319932752651694e-01
 3.738228463171416e-01	 1.012609311483770e+00	 5.641603376907023e-01
 4.709285413129862e-01	 9.810567204377044e-01	 1.575305069306988e+00
 4.616227991659323e-01	 9.854696060013456e-01	 1.471791629168715e+00
 4.522912388269320e-01	 9.897871325870814e-01	 1.371506448882254e+00
 4.429352758886508e-01	 9.940091848336716e-01	 1.274414196171431e+00
 4.335563230520154e-01	 9.981356744262322e-01	 1.180528693468621e+00
 4.241557895045047e-01	 1.002166539904589e+00	 1.089911876334446e+00
 4.147350803073237e-01	 1.006101746455231e+00	 1.002672384829593e+00
 4.052955957919376e-01	 1.009941285687257e+00	 9.189638013296437e-01
 3.958387309664236e-01	 1.013685175392733e+00	 8.389825501136108e-01
 3.863658749320805e-01	 1.017333459291891e+00	 7.629654757512356e-01
 3.768784103107179e-01	 1.020886206763610e+00	 6.911871189041263e-01
 3.463221599276364e-01	 9.381156004529614e-01	-7.142374581455713e-01
 3.375932372698592e-01	 9.412920648570996e-01	-7.028312155869432e-01
 3.288534146753911e-01	 9.443809649697815e-01	-6.878155789707256e-01
 3.201039407344279e-01	 9.473824329586862e-01	-6.695394158863408e-01
 3.113460561054977e-01	 9.502966234386565e-01	-6.483731400154267e-01
 3.025809930437933e-01	 9.531237131637239e-01	-6.247090250366503e-01
 2.938099749412085e-01	 9.558639007082442e-01	-5.989613531219855e-01
 2.850342158783328e-01	 9.585174061376137e-01	-5.715664016823911e-01
 2.762549201886382e-01	 9.610844706690251e-01	-5.429822727575071e-01
 2.674732820350750e-01	 9.635653563227456e-01	-5.136885701444793e-01
 2.586904849992691e-01	 9.659603455643853e-01	-4.841859299888260e-01
 3.493779187392193e-01	 9.463930234349912e-01	-5.455484769936865e-01
 3.405719768035007e-01	 9.495975152357088e-01	-5.459318680004137e-01
 3.317550387559495e-01	 9.527136701250852e-01	-5.435503341110768e-01
 3.229283642036728e-01	 9.557416214369937e-01	-5.385877270920529e-01
 3.140932047521242e-01	 9.586815251505340e-01	-5.312494740769709e-01
 3.052508035292757e-01	 9.615335595793360e-01	-5.217631472047466e-01
 2.964023947215954e-01	 9.642979250498879e-01	-5.103788558069113e-01
 2.875492031220883e-01	 9.669748435693404e-01	-4.973694647226177e-01
 2.786924436906389e-01	 9.695645584832749e-01	-4.830306431357125e-01
 2.698333211268703e-01	 9.720673341238998e-01	-4.676807490345074e-01
 2.609730294557168e-01	 9.744834554491671e-01	-4.516605551107036e-01
 3.524336316615091e-01	 9.546703221168643e-01	-3.864801644918425e-01
 3.435506716046804e-01	 9.579028408935608e-01	-3.979512488870287e-01
 3.346566192623192e-01	 9.610462501506360e-01	-4.072671455985826e-01
 3.257527452582740e-01	 9.641006843881436e-01	-4.144809881730902e-01
 3.168403121447577e-01	 9.670663009494199e-01	-4.196679641464476e-01
 3.079205739223558e-01	 9.699432797076759e-01	-4.229260901208574e-01
 2.989947755719446e-01	 9.727318227415055e-01	-4.243767973799160e-01
 2.900641525987814e-01	 9.754321539997876e-01	-4.241653316411060e-01
 2.811299305890010e-01	 9.780445189564622e-01	-4.224609713853198e-01
 2.721933247787379e-01	 9.805691842556483e-01	-4.194570699892686e-01
 2.632555396360758e-01	 9.830064373476023e-01	-4.153709276118209e-01
 3.554893047552183e-01	 9.629475129152257e-01	-2.357302162322759e-01
 3.465293275813366e-01	 9.662080583028563e-01	-2.575252937014665e-01
 3.375581619494726e-01	 9.693787215726594e-01	-2.775565283017594e-01
 3.285770895000711e-01	 9.724596383908545e-01	-2.957796589305426e-01
 3.195873837319583e-01	 9.754509674650006e-01	-3.121734063961985e-01
 3.105903095181876e-01	 9.783528902278685e-01	-3.267404043932487e-01
 3.015871226339016e-01	 9.811656105101376e-01	-3.395079290133083e-01
 2.925790692964674e-01	 9.838893542023929e-01	-3.505284304919574e-01
 2.835673857181281e-01	 9.865243689069053e-01	-3.598798717700884e-01
 2.745532976713903e-01	 9.890709235796759e-01	-3.676658792819230e-01
 2.655380200673480e-01	 9.915293081632356e-01	-3.740157121534544e-01
 3.585449440810582e-01	 9.712246122467207e-01	-9.202010304023656e-02
 3.495079506414066e-01	 9.745131839357960e-01	-1.233173622481867e-01
 3.404596725723826e-01	 9.777111009173797e-01	-1.530394601185434e-01
 3.314014025309034e-01	 9.808185000238452e-01	-1.810771216189755e-01
 3.223344249622846e-01	 9.838355413269591e-01	-2.073454310540619e-01
 3.132600156119253e-01	 9.867624078190367e-01	-2.317848701106282e-01
 3.041794410491121e-01	 9.895993050828240e-01	-2.543621424342897e-01
 2.950939582032009e-01	 9.923464609505922e-01	-2.750707886073767e-01
 2.860048139124236e-01	 9.950041251529208e-01	-2.939315963298532e-01
 2.769132444855399e-01	 9.975725689576678e-01	-3.109928114814893e-01
 2.678204752765360e-01	 1.000052084799612e+00	-3.263301565556538e-01
 3.616005556997414e-01	 9.795016365279939e-01	 4.590656717015573e-02
 3.524865466928280e-01	 9.828182342645816e-01	 5.983510456476271e-03
 3.433611568860222e-01	 9.860434047110223e-01	-3.236554623410148e-02
 3.342256899526104e-01	 9.891772858658342e-01	-6.899778163256087e-02
 3.250814412842961e-01	 9.922200391649798e-01	-1.037965611686933e-01
 3.159296974987232e-01	 9.951718491603040e-01	-1.366725339609833e-01
 3.067717359592219e-01	 9.980329231866057e-01	-1.675645042992726e-01
 2.976088243070373e-01	 1.000803491017823e+00	-1.964400817415974e-01
 2.884422200062915e-01	 1.003483804512826e+00	-2.232961149319559e-01
 2.792731699018992e-01	 1.006074137251309e+00	-2.481589151605563e-01
 2.701029097906421e-01	 1.008574784160278e+00	-2.710842765386379e-01
 3.646561456719793e-01	 9.877786021756902e-01	 1.792856136825800e-01
 3.554651216435386e-01	 9.911232257614135e-01	 1.316642832817800e-01
 3.462626206453643e-01	 9.943756494798131e-01	 8.578873164289247e-02
 3.370499573670317e-01	 9.975360124955408e-01	 4.180474308420257e-02
 3.278284381465522e-01	 1.000604477608747e+00	-1.703627372582339e-04
 3.185993604737355e-01	 1.003581230930795e+00	-4.004883930808179e-02
 3.093640125058764e-01	 1.006466481548522e+00	-7.777338413760182e-02
 3.001236725960315e-01	 1.009260461177522e+00	-1.133177764919973e-01
 2.908796088341351e-01	 1.011963423804938e+00	-1.466872874684428e-01
 2.816330786011804e-01	 1.014575645322285e+00	-1.779188688561182e-01
 2.723853281366685e-01	 1.017097423148778e+00	-2.070811281196874e-01
 3.677117200584841e-01	 9.960555256064554e-01	 3.093337777667848e-01
 3.584436814014762e-01	 9.994281748984939e-01	 2.549895027496425e-01
 3.491640696053815e-01	 1.002707851749976e+00	 2.027216860634540e-01
 3.398742103760065e-01	 1.005894696491684e+00	 1.526493491089704e-01
 3.305754209976122e-01	 1.008988873287944e+00	 1.048603191699011e-01
 3.212690098321165e-01	 1.011990569809632e+00	 5.941015624084889e-02
 3.119562758307214e-01	 1.014899996895614e+00	 1.632132963216693e-02
 3.026385080582383e-01	 1.017717388203125e+00	-2.441736052049182e-02
 2.933169852303582e-01	 1.020442999847574e+00	-6.285112278967375e-02
 2.839929752640960e-01	 1.023077110032282e+00	-9.905928198106784e-02
 2.746677348416175e-01	 1.025620018668658e+00	-1.331551625243148e-01
 3.707672849199675e-01	 1.004332423236934e+00	 4.372495279729165e-01
 3.614222318745780e-01	 1.007733098148022e+00	 3.772028258738835e-01
 3.520655095210469e-01	 1.011040028047737e+00	 3.197080193145472e-01
 3.426984545813742e-01	 1.014253354432981e+00	 2.648290959771273e-01
 3.333223952860354e-01	 1.017373242832256e+00	 2.125950433032373e-01
 3.239386508690201e-01	 1.020399882475939e+00	 1.629994808669664e-01
 3.145485310754026e-01	 1.023333485954921e+00	 1.159999307389432e-01
 3.051533356817132e-01	 1.026174288868070e+00	 7.151734453669967e-02
 2.957543540293642e-01	 1.028922549459051e+00	 2.943588066893810e-02
 2.863528645713586e-01	 1.031578548242984e+00	-1.039707575010995e-02
 2.769501344324914e-01	 1.034142587623462e+00	-4.817065881155669e-02
 3.738228463171416e-01	 1.012609311483770e+00	 5.641603376907027e-01
 3.644007789707822e-01	 1.016038011982201e+00	 4.995284761853331e-01
 3.549669461473333e-01	 1.019372194899320e+00	 4.380003479481975e-01
 3.455226955849744e-01	 1.022612002898152e+00	 3.796127805263283e-01
 3.360693664603810e-01	 1.025757602871367e+00	 3.243073788281108e-01
 3.266082888796006e-01	 1.028809185608841e+00	 2.719868709405593e-01
 3.171407833815654e-01	 1.031766965453483e+00	 2.225145179457977e-01
 3.076681604545108e-01	 1.034631179945793e+00	 1.757137922461132e-01
 2.981917200655569e-01	 1.037402089457687e+00	 1.313683172882016e-01
 2.887127512036804e-01	 1.040079976816076e+00	 8.922206050327031e-02
 2.792325314362926e-01	 1.042665146916737e+00	 4.897977027084099e-02
 3.768784103107179e-01	 1.020886206763610e+00	 6.911871189041263e-01
 3.673793285980262e-01	 1.024342932873229e+00	 6.231726367883241e-01
 3.578683852392132e-01	 1.027704368830951e+00	 5.588306604410369e-01
 3.483469389886465e-01	 1.030970658465916e+00	 4.982464414085865e-01
 3.388163399692086e-01	 1.034141970034960e+00	 4.412464400009650e-01
 3.292779291590125e-01	 1.037218495887461e+00	 3.876143202414970e-01
 3.197330378908556e-01	 1.040200452118341e+00	 3.370905442642100e-01
 3.101829873646866e-01	 1.043088078209732e+00	 2.893722471077216e-01
 3.006290881733399e-01	 1.045881636661798e+00	 2.441133841034544e-01
 2.910726398417740e-01	 1.048581412613244e+00	 2.009251419336473e-01
 2.815149303800232e-01	 1.051187713452026e+00	 1.593766033959683e-01
 2.586904849992691e-01	 9.659603455643853e-01	-4.841859299888260e-01
 2.499077018034105e-01	 9.682697411484725e-01	-4.544990715221604e-01
 2.411260942737208e-01	 9.704938663716978e-01	-4.243973171667004e-01
 2.323468125892457e-01	 9.726330640575948e-01	-3.940306163695833e-01
 2.235709948004865e-01	 9.746876959562027e-01	-3.635711600622935e-01
 2.147997664840682e-01	 9.766581423474187e-01	-3.332127677155525e-01
 2.060342404108247e-01	 9.785448016382445e-01	-3.031701565122651e-01
 1.972755162273643e-01	 9.803480899544124e-01	-2.736781009373441e-01
 1.885246801511632e-01	 9.820684407268568e-01	-2.449904913286396e-01
 1.797828046792145e-01	 9.837063042735065e-01	-2.173793001026398e-01
 1.710509483102450e-01	 9.852621473768629e-01	-1.911334645019505e-01
 2.609730294557168e-01	 9.744834554491671e-01	-4.516605551107036e-01
 2.521127517468493e-01	 9.768132278849668e-01	-4.348553435000437e-01
 2.432536600777888e-01	 9.790569775806152e-01	-4.170013598014579e-01
 2.343969147761029e-01	 9.812150503845687e-01	-3.982501858570080e-01
 2.255436639337993e-01	 9.832878112387866e-01	-3.787766915344251e-01
 2.166950430589468e-01	 9.852756437785815e-01	-3.587783790825774e-01
 2.078521747408320e-01	 9.871789499263158e-01	-3.384746038757873e-01
 1.990161683287154e-01	 9.889981494794224e-01	-3.181056803117119e-01
 1.901881196242343e-01	 9.907336796932259e-01	-2.979318818733576e-01
 1.813691105874812e-01	 9.923859948590483e-01	-2.782323445558026e-01
 1.725602090567694e-01	 9.939555658780580e-01	-2.593038829846810e-01
 2.632555396360758e-01	 9.830064373476023e-01	-4.153709276118209e-01
 2.543177685780085e-01	 9.853565863295358e-01	-4.099880463822876e-01
 2.453811939332054e-01	 9.876199602033382e-01	-4.030250430686730e-01
 2.364469861776064e-01	 9.897969078423287e-01	-3.946323808936376e-01
 2.275163034445776e-01	 9.918877973803252e-01	-3.849849763120123e-01
 2.185902911734856e-01	 9.938930158079935e-01	-3.742815006750275e-01
 2.096700817719254e-01	 9.958129685629901e-01	-3.627435521571578e-01
 2.007567942916670e-01	 9.976480791143790e-01	-3.506147071958714e-01
 1.918515341183674e-01	 9.993987885418061e-01	-3.381594609521046e-01
 1.829553926750793e-01	 1.001065555109914e+00	-3.256620664947887e-01
 1.740694471395654e-01	 1.002648853838462e+00	-3.134252825419344e-01
 2.655380200673480e-01	 9.915293081632356e-01	-3.740157121534544e-01
 2.565227566701820e-01	 9.938998334260823e-01	-3.786498088875012e-01
 2.475087000595783e-01	 9.961828312226307e-01	-3.812743580968045e-01
 2.384970308597195e-01	 9.983786534510133e-01	-3.820360391826427e-01
 2.294889172452025e-01	 1.000487671436852e+00	-3.811072707951388e-01
 2.204855145865652e-01	 1.002510275526112e+00	-3.786854696485107e-01
 2.114879651095856e-01	 1.004446874671686e+00	-3.749921730677310e-01
 2.024973975684198e-01	 1.006297896014210e+00	-3.702720350320488e-01
 1.935149269326229e-01	 1.008063784457593e+00	-3.647917057393104e-01
 1.845416540880871e-01	 1.009745002239733e+00	-3.588386049178918e-01
 1.755786655519054e-01	 1.011342028498917e+00	-3.527195992505878e-01
 2.678204752765360e-01	 1.000052084799612e+00	-3.263301565556538e-01
 2.587277203966640e-01	 1.002442986118508e+00	-3.396289504308267e-01
 2.496361826765149e-01	 1.004745607621257e+00	-3.505900520637861e-01
 2.405470528884053e-01	 1.006960304230760e+00	-3.593537753285903e-01
 2.314615092480548e-01	 1.009087450464400e+00	-3.660875824497709e-01
 2.223807170570653e-01	 1.011127440023394e+00	-3.709852996358940e-01
 2.133058283592931e-01	 1.013080685375822e+00	-3.742661895172987e-01
 2.042379816111752e-01	 1.014947617333847e+00	-3.761738906729852e-01
 1.951783013660619e-01	 1.016728684625583e+00	-3.769752348191617e-01
 1.861278979725831e-01	 1.018424353462134e+00	-3.769589524310470e-01
 1.770878672870617e-01	 1.020035107100263e+00	-3.764342777186900e-01
 2.701029097906421e-01	 1.008574784160278e+00	-2.710842765386379e-01
 2.609326641307481e-01	 1.010986061350717e+00	-2.917477311482726e-01
 2.517636460036225e-01	 1.013308306381981e+00	-3.098459436267396e-01
 2.425970563296270e-01	 1.015541877201707e+00	-3.255103619174222e-01
 2.334340833655153e-01	 1.017687151519002e+00	-3.389011168920772e-01
 2.242759023438665e-01	 1.019744526390295e+00	-3.502061943130093e-01
 2.151236751265283e-01	 1.021714417798819e+00	-3.596404562479725e-01
 2.059785498721341e-01	 1.023597260228216e+00	-3.674445227828720e-01
 1.968416607177450e-01	 1.025393506230771e+00	-3.738835251656254e-01
 1.877141274746457e-01	 1.027103625990749e+00	-3.792457417302906e-01
 1.785970553383068e-01	 1.028728106883340e+00	-3.838411281006988e-01
 2.723853281366685e-01	 1.017097423148778e+00	-2.070811281196874e-01
 2.631375922457282e-01	 1.019529076066611e+00	-2.338606866443844e-01
 2.538910942605090e-01	 1.021870944487567e+00	-2.579473201198859e-01
 2.446470452493480e-01	 1.024123389383992e+00	-2.794611893682482e-01
 2.354066435099648e-01	 1.026286791656689e+00	-2.985528007203224e-01
 2.261710742058487e-01	 1.028361551717272e+00	-3.154021336376367e-01
 2.169415090167718e-01	 1.030348089064095e+00	-3.302176100182468e-01
 2.077191058034977e-01	 1.032246841852249e+00	-3.432349166111135e-01
 1.985050082867332e-01	 1.034058266458155e+00	-3.547156922585621e-01
 1.893003457403533e-01	 1.035782837039205e+00	-3.649460919201233e-01
 1.801062326989132e-01	 1.037421045088988e+00	-3.742352395771888e-01
 2.746677348416175e-01	 1.025620018668658e+00	-1.331551625243148e-01
 2.653425091148984e-01	 1.028072047210091e+00	-1.648530424973620e-01
 2.560185316667817e-01	 1.030433538920778e+00	-1.938294117236392e-01
 2.466970237135312e-01	 1.032704857797753e+00	-2.201907999492416e-01
 2.373791935937846e-01	 1.034886387933496e+00	-2.440758756556169e-01
 2.280662364018922e-01	 1.036978533094784e+00	-2.656545285037057e-01
 2.187593336355040e-01	 1.038981716295068e+00	-2.851267852627388e-01
 2.094596528574669e-01	 1.040896379360873e+00	-3.027215712538691e-01
 2.001683473720871e-01	 1.042722982492729e+00	-3.186953296430417e-01
 1.908865559157843e-01	 1.044462003821135e+00	-3.333305111631226e-01
 1.816154023621532e-01	 1.046113938958048e+00	-3.469339469933064e-01
 2.769501344324914e-01	 1.034142587623462e+00	-4.817065881155669e-02
 2.675474191115524e-01	 1.036614991725062e+00	-8.363920388205459e-02
 2.581459624420481e-01	 1.038996106664379e+00	-1.164559381331696e-01
 2.487469957881402e-01	 1.041286299463128e+00	-1.467114916366117e-01
 2.393517375293552e-01	 1.043485957405453e+00	-1.745305598432219e-01
 2.299613926908773e-01	 1.045595487613285e+00	-2.000709398346401e-01
 2.205771525882055e-01	 1.047615316615159e+00	-2.235223914252411e-01
 2.112001944862428e-01	 1.049545889909018e+00	-2.451053357716657e-01
 2.018316812728673e-01	 1.051387671519489e+00	-2.650694044740352e-01
 1.924727611470172e-01	 1.053141143550166e+00	-2.836918523917396e-01
 1.831245673212992e-01	 1.054806805731360e+00	-3.012758475692126e-01
 2.792325314362926e-01	 1.042665146916737e+00	 4.897977027084099e-02
 2.697523266089842e-01	 1.045157926555424e+00	 1.083868402380839e-02
 2.602733908059157e-01	 1.047558664701134e+00	-2.481772354067058e-02
 2.507969655391379e-01	 1.049867731400256e+00	-5.806198779528815e-02
 2.413242792290576e-01	 1.052085517128595e+00	-8.900277244734101e-02
 2.318565468316840e-01	 1.054212432363233e+00	-1.177838584036204e-01
 2.223949694803567e-01	 1.056248907147787e+00	-1.445829484092984e-01
 2.129407341420264e-01	 1.058195390651612e+00	-1.696103007714971e-01
 2.034950132881350e-01	 1.060052350723433e+00	-1.931072058217489e-01
 1.940589645801301e-01	 1.061820273439928e+00	-2.153443190228592e-01
 1.846337305696236e-01	 1.063499662649765e+00	-2.366198647996969e-01
 2.815149303800232e-01	 1.051187713452026e+00	 1.593766033959683e-01
 2.719572359804875e-01	 1.053700868645081e+00	 1.196121089003377e-01
 2.624008209779921e-01	 1.056121230013807e+00	 8.206862397608017e-02
 2.528469370324877e-01	 1.058449170629273e+00	 4.669383108841574e-02
 2.432968226052729e-01	 1.060685084158954e+00	 1.339708208686075e-02
 2.337517025831925e-01	 1.062829384435084e+00	-1.794954190176545e-02
 2.242127879174382e-01	 1.064882505016369e+00	-4.750997682260261e-02
 2.146812752770187e-01	 1.066844898743585e+00	-7.548274228203544e-02
 2.051583467169507e-01	 1.068717037289555e+00	-1.020993427249985e-01
 1.956451693612018e-01	 1.070499410704053e+00	-1.276225178200265e-01
 1.861428951003990e-01	 1.072192526954103e+00	-1.523443568443783e-01
 1.710509483102450e-01	 9.852621473768629e-01	-1.911334645019505e-01
 1.623286740391851e-01	 9.867366964777040e-01	-1.664320303335547e-01
 1.536184993999991e-01	 9.881301781820826e-01	-1.432207328757809e-01
 1.449214421196758e-01	 9.894431056398207e-01	-1.214461198598054e-01
 1.362385048931709e-01	 9.906760067638284e-01	-1.010654747515582e-01
 1.275706751727547e-01	 9.918294237927018e-01	-8.204594926363118e-02
 1.189189249707245e-01	 9.929039128517897e-01	-6.436365373828856e-02
 1.102842106753850e-01	 9.939000435131441e-01	-4.800271332885053e-02
 1.016674728801875e-01	 9.948183983547720e-01	-3.295429773794112e-02
 9.306963622590408e-02	 9.956595725195880e-01	-1.921563201770482e-02
 8.449160925570287e-02	 9.964241732744671e-01	-6.788995724733127e-03
 1.725602090567694e-01	 9.939555658780580e-01	-2.593038829846810e-01
 1.637609741711128e-01	 9.954431256007639e-01	-2.412586362313203e-01
 1.549739456778491e-01	 9.968489026326103e-01	-2.239927286207433e-01
 1.462001502838681e-01	 9.981734146511001e-01	-2.074919095242436e-01
 1.374405995313913e-01	 9.994171942270833e-01	-1.917542954777565e-01
 1.286962895854617e-01	 1.000580788383504e+00	-1.767893657103645e-01
 1.199682010349145e-01	 1.001664758152585e+00	-1.626169143840333e-01
 1.112572987067349e-01	 1.002669678131902e+00	-1.492659680142463e-01
 1.025645314936885e-01	 1.003596136039742e+00	-1.367736763393754e-01
 9.389083219510402e-02	 1.004444732270168e+00	-1.251841846572308e-01
 8.523711737066909e-02	 1.005216079448178e+00	-1.145474953813475e-01
 1.740694471395654e-01	 1.002648853838462e+00	-3.134252825419352e-01
 1.651932527949823e-01	 1.004149423987590e+00	-3.015118776745842e-01
 1.563293716017048e-01	 1.005567496162113e+00	-2.897814160802508e-01
 1.474788392463840e-01	 1.006903592567163e+00	-2.782499171916442e-01
 1.386426761183705e-01	 1.008158250431481e+00	-2.669473325598135e-01
 1.298218870953443e-01	 1.009332021562298e+00	-2.559164140673209e-01
 1.210174613425461e-01	 1.010425471898656e+00	-2.452115374420369e-01
 1.122303721255102e-01	 1.011439181063595e+00	-2.348974900712113e-01
 1.034615766361883e-01	 1.012373741915620e+00	-2.250482319128837e-01
 9.471201583233875e-02	 1.013229760099880e+00	-2.157456380283547e-01
 8.598261429004453e-02	 1.014007853599432e+00	-2.070782309714145e-01
 1.755786655519054e-01	 1.011342028498917e+00	-3.527195992505887e-01
 1.666255127514291e-01	 1.012855608904825e+00	-3.464618462426419e-01
 1.576847798597771e-01	 1.014285976061628e+00	-3.398977421416740e-01
 1.487575115432415e-01	 1.015633656702043e+00	-3.330649489962312e-01
 1.398447370381820e-01	 1.016899192712655e+00	-3.260165624602811e-01
 1.309474699347986e-01	 1.018083140684936e+00	-3.188198619840881e-01
 1.220667079746213e-01	 1.019186071464699e+00	-3.115550146246999e-01
 1.132034328616200e-01	 1.020208569700392e+00	-3.043137420358422e-01
 1.043586100868202e-01	 1.021151233390689e+00	-2.971979599494423e-01
 9.553318876629997e-02	 1.022014673431769e+00	-2.903183991969884e-01
 8.672810149242925e-02	 1.022799513164692e+00	-2.837932169962398e-01
 1.770878672870617e-01	 1.020035107100263e+00	-3.764342777186904e-01
 1.680577568810880e-01	 1.021561697619110e+00	-3.754028705080872e-01
 1.590401731402771e-01	 1.023004359622191e+00	-3.736758195040668e-01
 1.500361697104583e-01	 1.024363624369772e+00	-3.713040979798010e-01
 1.410467846748995e-01	 1.025640038406241e+00	-3.683555538585770e-01
 1.320730403362205e-01	 1.026834163107274e+00	-3.649135507844457e-01
 1.231159430121423e-01	 1.027946574225408e+00	-3.610755608812828e-01
 1.141764828449732e-01	 1.028977861434461e+00	-3.569517193135461e-01
 1.052556336247174e-01	 1.029928627873231e+00	-3.526633504995393e-01
 9.635435262567926e-02	 1.030799489688879e+00	-3.483414755441219e-01
 8.747358045642349e-02	 1.031591075580421e+00	-3.441253101198365e-01
 1.785970553383068e-01	 1.028728106883340e+00	-3.838411281006984e-01
 1.694899880245943e-01	 1.030267707397086e+00	-3.876524391318106e-01
 1.603955541314155e-01	 1.031722664134840e+00	-3.904719060909376e-01
 1.513148162840523e-01	 1.033093512884382e+00	-3.923557704626375e-01
 1.422488214125966e-01	 1.034380804847875e+00	-3.933785320133909e-01
 1.331986005320059e-01	 1.035585106185164e+00	-3.936314892662600e-01
 1.241651685361109e-01	 1.036706997555479e+00	-3.932212294782218e-01
 1.151495240054787e-01	 1.037747073657973e+00	-3.922680787962496e-01
 1.061526490290135e-01	 1.038705942771529e+00	-3.909045229876731e-01
 9.717550903916843e-02	 1.039584226294253e+00	-3.892736088414575e-01
 8.821905266062734e-02	 1.040382558283081e+00	-3.875273359811722e-01
 1.801062326989132e-01	 1.037421045088988e+00	-3.742352395771888e-01
 1.709222090225832e-01	 1.038973655505397e+00	-3.825501772615896e-01
 1.617509255214035e-01	 1.040440906890610e+00	-3.896634350816108e-01
 1.525934538000412e-01	 1.041823339559904e+00	-3.956287608008879e-01
 1.434508496353470e-01	 1.043121509373191e+00	-4.005194897245801e-01
 1.343241527545507e-01	 1.044335987274461e+00	-4.044269927251762e-01
 1.252143866275292e-01	 1.045467358829610e+00	-4.074590713333253e-01
 1.161225582730454e-01	 1.046516223763096e+00	-4.097383111362065e-01
 1.070496580788416e-01	 1.047483195493863e+00	-4.114004044436239e-01
 9.799665963545907e-02	 1.048368900670936e+00	-4.125924528495788e-01
 8.896451958364093e-02	 1.049173978709135e+00	-4.134712599503603e-01
 1.816154023621532e-01	 1.046113938958048e+00	-3.469339469933064e-01
 1.723544227156898e-01	 1.047679559210682e+00	-3.594568731111658e-01
 1.631062899984516e-01	 1.049159105180538e+00	-3.706480925953763e-01
 1.538720847944427e-01	 1.050553121710371e+00	-3.805513716991213e-01
 1.446528717272242e-01	 1.051862169317825e+00	-3.892313421619251e-01
 1.354496992362510e-01	 1.053086823731018e+00	-3.967718645559848e-01
 1.262635993673994e-01	 1.054227675422494e+00	-4.032743360076583e-01
 1.170955875775823e-01	 1.055285329142001e+00	-4.088559541185011e-01
 1.079466625533351e-01	 1.056260403448518e+00	-4.136479486130304e-01
 9.881780604324290e-02	 1.057153530241971e+00	-4.177937918886170e-01
 8.970998270406449e-02	 1.057965354295048e+00	-4.214473992592618e-01
 1.831245673212992e-01	 1.054806805731360e+00	-3.012758475692134e-01
 1.737866319445493e-01	 1.056385435779585e+00	-3.177535518089583e-01
 1.644616502507710e-01	 1.057877276295661e+00	-3.328429402618118e-01
 1.551507118032748e-01	 1.059282876649815e+00	-3.465705774342256e-01
 1.458548900723019e-01	 1.060602802017413e+00	-3.589851230201511e-01
 1.365752422095026e-01	 1.061837632910689e+00	-3.701556179612391e-01
 1.273128088367234e-01	 1.062987964708828e+00	-3.801697119439296e-01
 1.180686138489982e-01	 1.064054407186855e+00	-3.891318447520593e-01
 1.088436642316273e-01	 1.065037584043776e+00	-3.971613935749070e-01
 9.963894989121164e-02	 1.065938132430402e+00	-4.043907980129848e-01
 9.045544350049811e-02	 1.066756702477279e+00	-4.109636741045026e-01
 1.846337305696236e-01	 1.063499662649765e+00	-2.366198647996969e-01
 1.752188395497968e-01	 1.065091302478747e+00	-2.568405937907525e-01
 1.658170089665726e-01	 1.066595437527016e+00	-2.756835800935380e-01
 1.564293373625553e-01	 1.068012621692268e+00	-2.931512275209069e-01
 1.470569070546537e-01	 1.069343424807588e+00	-3.092692196184812e-01
 1.377007839067015e-01	 1.070588432169328e+00	-3.240847354594067e-01
 1.283620171165032e-01	 1.071748244063308e+00	-3.376646036896016e-01
 1.190416390172021e-01	 1.072823475289827e+00	-3.500934078480444e-01
 1.097406648928516e-01	 1.073814754687917e+00	-3.614715556522050e-01
 1.004600928080569e-01	 1.074722724659275e+00	-3.719133245598587e-01
 9.120090345154194e-02	 1.075548040692294e+00	-3.815448954845935e-01
 1.861428951003990e-01	 1.072192526954103e+00	-1.523443568443792e-01
 1.766510483720675e-01	 1.073797176574809e+00	-1.761368951949551e-01
 1.671723688340672e-01	 1.075313606165639e+00	-1.986233592447975e-01
 1.577079640083019e-01	 1.076742374151761e+00	-2.197752885062734e-01
 1.482589250583532e-01	 1.078084055023988e+00	-2.395886447203690e-01
 1.388263265602436e-01	 1.079339238862790e+00	-2.580819640341772e-01
 1.294112262877410e-01	 1.080508530860630e+00	-2.752944439948348e-01
 1.200146650121030e-01	 1.081592550843088e+00	-2.912839790070505e-01
 1.106376663161413e-01	 1.082591932789227e+00	-3.061251575438182e-01
 1.012812364224704e-01	 1.083507324351631e+00	-3.199072340055853e-01
 9.194636403579609e-02	 1.084339386376554e+00	-3.327320876732354e-01
 8.449160925570287e-02	 9.964241732744671e-01	-6.788995724733127e-03
 7.593573370450234e-02	 9.971127089018138e-01	 4.395939263161175e-03
 6.740140868271495e-02	 9.977259455763865e-01	 1.439815629630203e-02
 5.888947380262378e-02	 9.982645237707195e-01	 2.318523752416901e-02
 5.040075266753091e-02	 9.987290943103193e-01	 3.072037724332599e-02
 4.193605278629518e-02	 9.991203179452326e-01	 3.696343492533227e-02
 3.349616549931961e-02	 9.994388649236411e-01	 4.187196474267640e-02
 2.508186591579783e-02	 9.996854145678036e-01	 4.540221655402465e-02
 1.669391286202219e-02	 9.998606548526503e-01	 4.751010370261799e-02
 8.333048840547847e-03	 9.999652819873316e-01	 4.815213337839008e-02
 0.000000000000000e+00	 1.000000000000000e+00	 4.728629568827980e-02
 8.523711737066909e-02	 1.005216079448178e+00	-1.145474953813475e-01
 7.660574941749855e-02	 1.005910690340937e+00	-1.048758964698893e-01
 6.799612214396497e-02	 1.006529337883544e+00	-9.616057138624079e-02
 5.940908257049088e-02	 1.007072668199767e+00	-8.843255023960239e-02
 5.084546156726515e-02	 1.007541337857695e+00	-8.172703842475393e-02
 4.230607376802668e-02	 1.007936013437521e+00	-7.608231153745049e-02
 3.379171749539878e-02	 1.008257371101382e+00	-7.153863569062402e-02
 2.530317469758193e-02	 1.008506096165558e+00	-6.813721850565546e-02
 1.684121089620578e-02	 1.008682882675343e+00	-6.591919565115312e-02
 8.406575145132969e-03	 1.008788432982907e+00	-6.492465738174591e-02
 0.000000000000000e+00	 1.008823457328410e+00	-6.519171911071187e-02
 8.598261429004453e-02	 1.014007853599432e+00	-2.070782309714154e-01
 7.727575506830826e-02	 1.014708539666144e+00	-1.991157083121751e-01
 6.859082667356629e-02	 1.015332597995354e+00	-1.918794291800241e-01
 5.992868353429864e-02	 1.015880680361969e+00	-1.853976222728457e-01
 5.129016378750089e-02	 1.016353449076568e+00	-1.797025708048912e-01
 4.267608919171366e-02	 1.016751576549402e+00	-1.748294521048308e-01
 3.408726505170382e-02	 1.017075744856466e+00	-1.708152044923841e-01
 2.552448015460378e-02	 1.017326645307965e+00	-1.676974269691964e-01
 1.698850671730739e-02	 1.017504978019459e+00	-1.655133168334428e-01
 8.480100344913409e-03	 1.017611451486040e+00	-1.642986498820127e-01
 0.000000000000000e+00	 1.017646782159778e+00	-1.640868074246322e-01
 8.672810149242925e-02	 1.022799513164692e+00	-2.837932169962416e-01
 7.794575198583088e-02	 1.023506274325981e+00	-2.777274658650510e-01
 6.918552345109566e-02	 1.024135743371121e+00	-2.721556964457443e-01
 6.044827772469152e-02	 1.024688577726083e+00	-2.671020260826609e-01
 5.173486021035217e-02	 1.025165445443851e+00	-2.625945961030807e-01
 4.304609979135309e-02	 1.025567024764651e+00	-2.586643526660239e-01
 3.438280875453938e-02	 1.025894003678258e+00	-2.553438567630915e-01
 2.574578272591156e-02	 1.026147079488713e+00	-2.526661291793575e-01
 1.713580061756530e-02	 1.026326958381762e+00	-2.506635357711993e-01
 8.553624585774605e-03	 1.026434354995330e+00	-2.493667179615535e-01
 0.000000000000000e+00	 1.026469991993312e+00	-2.488035728681810e-01
 8.747358045642349e-02	 1.031591075580421e+00	-3.441253101198356e-01
 7.861574149896590e-02	 1.032303911768995e+00	-3.401362542506510e-01
 6.978021365613014e-02	 1.032938791470156e+00	-3.364079732792860e-01
 6.096786617231400e-02	 1.033496377760868e+00	-3.329592663161565e-01
 5.217955171793299e-02	 1.033977344436454e+00	-3.298130146509397e-01
 4.341610630094193e-02	 1.034382375567044e+00	-3.269949002563557e-01
 3.467834919021018e-02	 1.034712165056121e+00	-3.245321553086260e-01
 2.596708285055348e-02	 1.034967416201492e+00	-3.224523488342346e-01
 1.728309288921774e-02	 1.035148841259015e+00	-3.207822160966307e-01
 8.627148013601984e-03	 1.035257161009377e+00	-3.195465358661735e-01
 0.000000000000000e+00	 1.035293104328222e+00	-3.187670601982457e-01
 8.821905266062734e-02	 1.040382558283081e+00	-3.875273359811726e-01
 7.928572493661271e-02	 1.041101469443732e+00	-3.857873916294472e-01
 7.037489846824646e-02	 1.041741759751765e+00	-3.840752909903169e-01
 6.148744990781054e-02	 1.042304097935081e+00	-3.824034105484460e-01
 5.262423919235730e-02	 1.042789163531287e+00	-3.807883544523953e-01
 4.378610945447717e-02	 1.043197646440356e+00	-3.792496068950371e-01
 3.497388694502088e-02	 1.043530246479419e+00	-3.778082173947270e-01
 2.618838096757769e-02	 1.043787672939991e+00	-3.764855253797998e-01
 1.743038382450298e-02	 1.043970644147982e+00	-3.753019299743174e-01
 8.700670774280966e-03	 1.044079887026780e+00	-3.742757103825687e-01
 0.000000000000000e+00	 1.044116136663715e+00	-3.734219017209277e-01
 8.896451958364093e-02	 1.049173978709135e+00	-4.134712599503607e-01
 7.995570362767078e-02	 1.049898964798739e+00	-4.141455911778582e-01
 7.096957906702160e-02	 1.050544665675257e+00	-4.146162674311613e-01
 6.200702996182567e-02	 1.051111755717484e+00	-4.148882401903347e-01
 5.306892351573909e-02	 1.051600920205261e+00	-4.149709199786877e-01
 4.415610998595575e-02	 1.052012854868362e+00	-4.148767586766833e-01
 3.526942260527619e-02	 1.052348265437516e+00	-4.146198666251717e-01
 2.640967751603239e-02	 1.052607867197901e+00	-4.142146712411128e-01
 1.757767371565926e-02	 1.052792384545428e+00	-4.136746233389665e-01
 8.774193013696993e-03	 1.052902550546138e+00	-4.130109568200391e-01
 0.000000000000000e+00	 1.052939106499000e+00	-4.122315068206399e-01
 8.970998270406449e-02	 1.057965354295048e+00	-4.214473992592618e-01
 8.062567890103961e-02	 1.058696415282561e+00	-4.246941649241993e-01
 7.156425663203246e-02	 1.059347526699940e+00	-4.275083045561630e-01
 6.252660736500382e-02	 1.059919368576835e+00	-4.298864438721552e-01
 5.351360557019239e-02	 1.060412631935287e+00	-4.318299835748993e-01
 4.452610862937462e-02	 1.060828018334836e+00	-4.333436074722838e-01
 3.556495675728077e-02	 1.061166239419777e+00	-4.344338272953743e-01
 2.663097293496578e-02	 1.061428016468911e+00	-4.351075712710886e-01
 1.772496285492486e-02	 1.061614079948116e+00	-4.353708229560356e-01
 8.847714877735490e-03	 1.061725169066050e+00	-4.352273162725924e-01
 0.000000000000000e+00	 1.061762031333285e+00	-4.346772920896051e-01
 9.045544350049811e-02	 1.066756702477279e+00	-4.109636741045035e-01
 8.129565208561859e-02	 1.067493838343746e+00	-4.169342670173788e-01
 7.215893234285591e-02	 1.068150360285121e+00	-4.222468257609280e-01
 6.304618314798945e-02	 1.068726953981891e+00	-4.268888508485604e-01
 5.395828623783116e-02	 1.069224316198276e+00	-4.308530170027338e-01
 4.489610611873081e-02	 1.069643154323555e+00	-4.341356027697723e-01
 3.586048998733932e-02	 1.069984185915565e+00	-4.367349587671518e-01
 2.685226766342604e-02	 1.070248138246710e+00	-4.386500219715668e-01
 1.787225153453801e-02	 1.070435747852810e+00	-4.398788828779869e-01
 8.921236512281874e-03	 1.070547760085116e+00	-4.404174117703907e-01
 0.000000000000000e+00	 1.070584928665779e+00	-4.402579497047303e-01
 9.120090345154194e-02	 1.075548040692294e+00	-3.815448954845939e-01
 8.196562451030721e-02	 1.076291251430839e+00	-3.903841741582403e-01
 7.275360737906883e-02	 1.076953183890108e+00	-3.983445507133356e-01
 6.356575834142709e-02	 1.077534529401412e+00	-4.054037021156933e-01
 5.440296640076939e-02	 1.078035990471137e+00	-4.115449608118751e-01
 4.526610318802121e-02	 1.078458280318292e+00	-4.167556613433696e-01
 3.615602288175654e-02	 1.078802122414245e+00	-4.210255275582977e-01
 2.707356214046134e-02	 1.079068250024988e+00	-4.243451081974419e-01
 1.801954004673697e-02	 1.079257405756275e+00	-4.267042680293271e-01
 8.994758063221591e-03	 1.079370341101936e+00	-4.280907410821184e-01
 0.000000000000000e+00	 1.079407815995689e+00	-4.284887518521332e-01
 9.194636403579609e-02	 1.084339386376554e+00	-3.327320876732349e-01
 8.263559750400498e-02	 1.085088671992387e+00	-3.445786010745904e-01
 7.334828292024807e-02	 1.085756014974210e+00	-3.553308055397388e-01
 6.408533397596120e-02	 1.086342112304158e+00	-3.649559570940255e-01
 5.484764694112109e-02	 1.086847672230783e+00	-3.734275293832869e-01
 4.563610057124283e-02	 1.087273413802824e+00	-3.807234725971922e-01
 3.645155602683708e-02	 1.087620066405180e+00	-3.868245149966674e-01
 2.729485680511988e-02	 1.087888369297435e+00	-3.917125152062431e-01
 1.816682868375999e-02	 1.088079071155274e+00	-3.953688728034708e-01
 9.068279676440062e-03	 1.088192929615108e+00	-3.977730040791645e-01
 0.000000000000000e+00	 1.088230710822225e+00	-3.989008891416801e-01
 1.088230710822225e+00	 0.000000000000000e+00	 2.559192896091295e+01
 1.088192929615107e+00	 9.068279676439462e-03	 2.558940640279619e+01
 1.088079071155274e+00	 1.816682868375948e-02	 2.558031689252645e+01
 1.087888369297435e+00	 2.729485680511945e-02	 2.556466950917965e+01
 1.087620066405180e+00	 3.645155602683674e-02	 2.554246845403895e+01
 1.087273413802824e+00	 4.563610057124259e-02	 2.551371297845925e+01
 1.086847672230783e+00	 5.484764694112092e-02	 2.547839734571631e+01
 1.086342112304158e+00	 6.408533397596111e-02	 2.543651082843399e+01
 1.085756014974210e+00	 7.334828292024807e-02	 2.538803774307213e+01
 1.085088671992387e+00	 8.263559750400509e-02	 2.533295752280913e+01
 1.084339386376554e+00	 9.194636403579613e-02	 2.527124482998791e+01
 1.097055127299335e+00	 0.000000000000000e+00	 2.516345539531051e+01
 1.097017039726013e+00	 9.141813969514469e-03	 2.516109218753561e+01
 1.096902257992762e+00	 1.831414272286017e-02	 2.515240925033372e+01
 1.096710009741660e+00	 2.751618963533152e-02	 2.513742654043272e+01
 1.096439531192658e+00	 3.674714014106653e-02	 2.511615803626258e+01
 1.096090067599097e+00	 4.600616176616928e-02	 2.508861163086693e+01
 1.095660873706773e+00	 5.529240417350908e-02	 2.505478906114207e+01
 1.095151214216240e+00	 6.460499921942921e-02	 2.501468587515221e+01
 1.094560364248029e+00	 7.394306102259096e-02	 2.496829143916014e+01
 1.093887609810434e+00	 8.330568604516959e-02	 2.491558898585636e+01
 1.093132248269526e+00	 9.269195318661062e-02	 2.485655570509710e+01
 1.105879566280446e+00	 0.000000000000000e+00	 2.475798335413491e+01
 1.105841172340124e+00	 9.215348450025041e-03	 2.475589011098257e+01
 1.105725467331068e+00	 1.846145713748255e-02	 2.474770467815465e+01
 1.105531672682705e+00	 2.773752302978262e-02	 2.473345690789459e+01
 1.105259018471340e+00	 3.704272500886424e-02	 2.471316954023820e+01
 1.104906743879326e+00	 4.637622390458419e-02	 2.468685806121328e+01
 1.104474097657828e+00	 5.573716253987651e-02	 2.465453059984228e+01
 1.103960338592844e+00	 6.512466578791759e-02	 2.461618786586014e+01
 1.103364735974160e+00	 7.453784064152361e-02	 2.457182312994628e+01
 1.102686570066909e+00	 8.397577629500011e-02	 2.452142224810923e+01
 1.101925132585359e+00	 9.343754423865204e-02	 2.446496373168062e+01
 1.114704025265223e+00	 0.000000000000000e+00	 2.437375025631297e+01
 1.114665324957197e+00	 9.288883097171774e-03	 2.437202833432901e+01
 1.114548696670210e+00	 1.860877188594414e-02	 2.436445101741645e+01
 1.114353355621034e+00	 2.795885692582726e-02	 2.435105626116803e+01
 1.114078525742313e+00	 3.733831054654514e-02	 2.433187147914817e+01
 1.113723440145404e+00	 4.674628688169091e-02	 2.430691311426523e+01
 1.113287341586830e+00	 5.618192191424676e-02	 2.427618625900412e+01
 1.112769482938021e+00	 6.564433353420504e-02	 2.423968432970321e+01
 1.112169127658013e+00	 7.513262160851973e-02	 2.419738880040333e+01
 1.111485550268765e+00	 8.464586806360869e-02	 2.414926900210848e+01
 1.110718036832733e+00	 9.418313698061842e-02	 2.409529066524384e+01
 1.123528501753334e+00	 0.000000000000000e+00	 2.400415314120344e+01
 1.123489495076986e+00	 9.362417890155253e-03	 2.400277944955367e+01
 1.123371943510211e+00	 1.875608692656248e-02	 2.399581472415820e+01
 1.123175056057113e+00	 2.818019126081997e-02	 2.398330999533441e+01
 1.122898050506667e+00	 3.763389667042450e-02	 2.396530443106480e+01
 1.122540153899225e+00	 4.711635059269311e-02	 2.394182484937571e+01
 1.122100602996660e+00	 5.662668217064334e-02	 2.391288527868746e+01
 1.121578644755825e+00	 6.616400231107049e-02	 2.387848657143105e+01
 1.120973536804998e+00	 7.572740375505296e-02	 2.383861607659663e+01
 1.120284547922956e+00	 8.531596116110746e-02	 2.379324737721216e+01
 1.119510958520333e+00	 9.492873120120816e-02	 2.374234009908633e+01
 1.132352993244445e+00	 0.000000000000000e+00	 2.364691102044632e+01
 1.132313680199246e+00	 9.435952808176076e-03	 2.364581297522415e+01
 1.132195205351089e+00	 1.890340221765512e-02	 2.363937413890669e+01
 1.131996771491405e+00	 2.840152597211526e-02	 2.362765782242334e+01
 1.131717590265489e+00	 3.792948329681762e-02	 2.361071415944052e+01
 1.131356882642683e+00	 4.748641493279446e-02	 2.358857955994056e+01
 1.130913879390200e+00	 5.707144318308978e-02	 2.356127621072951e+01
 1.130387821550311e+00	 6.668367197129281e-02	 2.352881162827353e+01
 1.129777960920524e+00	 7.632218691259703e-02	 2.349117826966160e+01
 1.129083560536432e+00	 8.598605539760849e-02	 2.344835320784722e+01
 1.128303895156839e+00	 9.567432668911932e-02	 2.340029787768218e+01
 1.141177497238223e+00	 0.000000000000000e+00	 2.330109032334864e+01
 1.141137877823732e+00	 9.509487830434836e-03	 2.330019626592195e+01
 1.141018479692866e+00	 1.905071771753957e-02	 2.329419782893294e+01
 1.140818499424374e+00	 2.862286099706764e-02	 2.328316982976440e+01
 1.140537142519870e+00	 3.822507034203977e-02	 2.326717260111133e+01
 1.140173623877672e+00	 4.785647979719859e-02	 2.324625138596507e+01
 1.139727168270332e+00	 5.751620482560961e-02	 2.322043577832001e+01
 1.139197010825530e+00	 6.720334236765083e-02	 2.318973921510147e+01
 1.138582397510003e+00	 7.691697091262552e-02	 2.315415852523859e+01
 1.137882585616146e+00	 8.665615058322386e-02	 2.311367354218545e+01
 1.137096844250934e+00	 9.641992323305025e-02	 2.306824678657776e+01
 1.150002011234334e+00	 0.000000000000000e+00	 2.296578935850744e+01
 1.149962085450197e+00	 9.583022936132122e-03	 2.296502904178411e+01
 1.149841764035561e+00	 1.919803338453339e-02	 2.295938716266215e+01
 1.149640237356486e+00	 2.884419627303163e-02	 2.294894929009833e+01
 1.149356704770895e+00	 3.852065772240622e-02	 2.293378521066307e+01
 1.148990375106086e+00	 4.822654508110917e-02	 2.291394826514701e+01
 1.148540467139938e+00	 5.796096697222636e-02	 2.288947472951219e+01
 1.148006210085537e+00	 6.772301335292341e-02	 2.286038324577608e+01
 1.147386844078842e+00	 7.751175558661223e-02	 2.282667430887371e+01
 1.146681620669051e+00	 8.732624652806566e-02	 2.278832981594612e+01
 1.145889803311299e+00	 9.716552062169910e-02	 2.274531268491355e+01
 1.158826532732445e+00	 0.000000000000000e+00	 2.264013710074762e+01
 1.158786300578399e+00	 9.656558104468534e-03	 2.263944216922905e+01
 1.158665055879196e+00	 1.934534917695411e-02	 2.263407508384919e+01
 1.158461982788203e+00	 2.906553173736174e-02	 2.262413142888584e+01
 1.158176274519656e+00	 3.881624535423227e-02	 2.260968972057928e+01
 1.157807133829818e+00	 4.859661067972984e-02	 2.259081068559478e+01
 1.157353773501899e+00	 5.840572949696354e-02	 2.256753658226818e+01
 1.156815416834384e+00	 6.824268477988943e-02	 2.253989057030635e+01
 1.156191298132452e+00	 7.810654076603075e-02	 2.250787613510160e+01
 1.155480663202100e+00	 8.799634304224592e-02	 2.247147657324883e+01
 1.154682769846619e+00	 9.791111864376412e-02	 2.243065454628993e+01
 1.167651059232224e+00	 0.000000000000000e+00	 2.232329203300126e+01
 1.167610520708092e+00	 9.730093314644661e-03	 2.232259649688257e+01
 1.167488352723790e+00	 1.949266505311926e-02	 2.231742494118896e+01
 1.167283733219993e+00	 2.928686732741249e-02	 2.230788224726007e+01
 1.166995849267240e+00	 3.911183315383319e-02	 2.229405495721659e+01
 1.166623897550763e+00	 4.896667648826426e-02	 2.227601049452913e+01
 1.166167084859096e+00	 5.885049227384472e-02	 2.225379642561599e+01
 1.165624628576125e+00	 6.876235650132773e-02	 2.222743976821658e+01
 1.164995757176244e+00	 7.870132628235484e-02	 2.219694635280734e+01
 1.164279710722243e+00	 8.866643993587678e-02	 2.216230024378256e+01
 1.163475741365573e+00	 9.865671708794350e-02	 2.212346322758775e+01
 1.176475588233336e+00	 0.000000000000000e+00	 2.201444104024632e+01
 1.176434743339030e+00	 9.803628545861098e-03	 2.201368174380828e+01
 1.176311652069365e+00	 1.963998097134639e-02	 2.200862937045297e+01
 1.176105486152319e+00	 2.950820298053838e-02	 2.199939739770409e+01
 1.175815426514735e+00	 3.940742103752425e-02	 2.198607970967827e+01
 1.175440663770814e+00	 4.933674240191608e-02	 2.196874976003104e+01
 1.174980398714412e+00	 5.929525517689338e-02	 2.194745977397384e+01
 1.174433842814813e+00	 6.928202837001721e-02	 2.192223999517531e+01
 1.173800218715625e+00	 7.929611196705813e-02	 2.189309798391440e+01
 1.173078760736435e+00	 8.933653701907034e-02	 2.186001797333645e+01
 1.172268715376846e+00	 9.940231574293547e-02	 2.182296029115583e+01
 1.084339386376554e+00	 9.194636403579613e-02	 2.527124482998791e+01
 1.083507324351631e+00	 1.012812364224699e-01	 2.520309382959143e+01
 1.082591932789227e+00	 1.106376663161409e-01	 2.512869047773685e+01
 1.081592550843088e+00	 1.200146650121027e-01	 2.504795768420360e+01
 1.080508530860630e+00	 1.294112262877406e-01	 2.496081494069604e+01
 1.079339238862790e+00	 1.388263265602434e-01	 2.486717871324388e+01
 1.078084055023988e+00	 1.482589250583530e-01	 2.476696287800881e+01
 1.076742374151761e+00	 1.577079640083017e-01	 2.466007919998079e+01
 1.075313606165639e+00	 1.671723688340671e-01	 2.454643785375747e+01
 1.073797176574809e+00	 1.766510483720674e-01	 2.442594798530337e+01
 1.072192526954103e+00	 1.861428951003989e-01	 2.429851831327713e+01
 1.093132248269526e+00	 9.269195318661062e-02	 2.485655570509710e+01
 1.092293439089185e+00	 1.021025216562378e-01	 2.479139859496625e+01
 1.091370624655715e+00	 1.115348224417167e-01	 2.472031278417078e+01
 1.090363138764083e+00	 1.209878588209781e-01	 2.464321724643378e+01
 1.089270328509909e+00	 1.304606164119928e-01	 2.456002558768480e+01
 1.088091554773214e+00	 1.399520633317617e-01	 2.447064642315445e+01
 1.086826192702272e+00	 1.494611503694586e-01	 2.437498380201242e+01
 1.085473632197129e+00	 1.589868111738753e-01	 2.427293767912390e+01
 1.084033278392373e+00	 1.685279624553000e-01	 2.416440443319705e+01
 1.082504552138659e+00	 1.780835042019535e-01	 2.404927743027876e+01
 1.080886890482565e+00	 1.876523199110862e-01	 2.392744763123196e+01
 1.101925132585359e+00	 9.343754423865204e-02	 2.446496373168062e+01
 1.101079576232330e+00	 1.029238089842890e-01	 2.440265921206311e+01
 1.100149338908817e+00	 1.124319808550753e-01	 2.433470527191768e+01
 1.099133749050991e+00	 1.219610551115601e-01	 2.426101645932346e+01
 1.098032148502666e+00	 1.315100092122798e-01	 2.418150011082307e+01
 1.096843893002933e+00	 1.410778029740275e-01	 2.409605671690630e+01
 1.095568352673903e+00	 1.506633787463890e-01	 2.400458033923036e+01
 1.094204912508127e+00	 1.602656616006945e-01	 2.390695907923936e+01
 1.092752972855232e+00	 1.698835595335220e-01	 2.380307559752787e+01
 1.091211949907333e+00	 1.795159636848740e-01	 2.369280768296172e+01
 1.089581276182744e+00	 1.891617485711329e-01	 2.357602887022745e+01
 1.110718036832733e+00	 9.418313698061842e-02	 2.409529066524384e+01
 1.109865733291667e+00	 1.037450981738555e-01	 2.403570219701239e+01
 1.108928073061242e+00	 1.133291413019369e-01	 2.397070377962678e+01
 1.107904379218823e+00	 1.229342536080121e-01	 2.390020504547365e+01
 1.106793988356403e+00	 1.325594043911656e-01	 2.382410667367479e+01
 1.105596251072132e+00	 1.422035451679651e-01	 2.374230074761667e+01
 1.104310532461951e+00	 1.518656098483895e-01	 2.365467116847197e+01
 1.102936212610899e+00	 1.615445149262890e-01	 2.356109412446000e+01
 1.101472687083637e+00	 1.712391596845126e-01	 2.346143861525702e+01
 1.099919367413728e+00	 1.809484264148249e-01	 2.335556703062009e+01
 1.098275681591209e+00	 1.906711806527213e-01	 2.324333578192725e+01
 1.119510958520333e+00	 9.492873120120816e-02	 2.374234009908634e+01
 1.118651907777798e+00	 1.045663889921698e-01	 2.368607517610608e+01
 1.117706824625701e+00	 1.142263035280213e-01	 2.362460901331882e+01
 1.116675026782588e+00	 1.239074540344973e-01	 2.355781505498641e+01
 1.115555845588620e+00	 1.336088016512145e-01	 2.348555164373531e+01
 1.114348626500999e+00	 1.433292895944985e-01	 2.340766233459576e+01
 1.113052729589483e+00	 1.530678433347055e-01	 2.332397632796461e+01
 1.111667530031593e+00	 1.628233707881889e-01	 2.323430903002197e+01
 1.110192418607010e+00	 1.725947625240513e-01	 2.313851525378356e+01
 1.108626802190737e+00	 1.823808919858028e-01	 2.303661744012351e+01
 1.106970104244528e+00	 1.921806157280337e-01	 2.292847486592924e+01
 1.128303895156839e+00	 9.567432668911932e-02	 2.340029787768218e+01
 1.127438097201324e+00	 1.053876812064641e-01	 2.334718682046821e+01
 1.126485591114902e+00	 1.151234672790487e-01	 2.328916767478033e+01
 1.125445689257293e+00	 1.248806561151792e-01	 2.322611087211393e+01
 1.124317717716819e+00	 1.346582006949903e-01	 2.315786969584630e+01
 1.123101016809721e+00	 1.444550359345519e-01	 2.308428053101033e+01
 1.121794941579570e+00	 1.542700788645822e-01	 2.300516323423360e+01
 1.120398862296355e+00	 1.641022288239236e-01	 2.292032163274894e+01
 1.118912164954772e+00	 1.739503676679175e-01	 2.282954416165833e+01
 1.117334251771257e+00	 1.838133599918037e-01	 2.273260464888667e+01
 1.115664541679271e+00	 1.936900533692525e-01	 2.262926325748068e+01
 1.137096844250934e+00	 9.641992323305025e-02	 2.306824678657776e+01
 1.136224299072845e+00	 1.062089745839706e-01	 2.301804498968633e+01
 1.135264370041556e+00	 1.160206323007391e-01	 2.296320614111255e+01
 1.134216364157948e+00	 1.258538595742210e-01	 2.290359771644168e+01
 1.133079602258502e+00	 1.357076012250574e-01	 2.283906812055030e+01
 1.131853419518487e+00	 1.455807838690494e-01	 2.276944687328594e+01
 1.130537165955278e+00	 1.554723160972651e-01	 2.269454491626155e+01
 1.129130206931329e+00	 1.653810886710231e-01	 2.261415505004467e+01
 1.127631923656345e+00	 1.753059747318906e-01	 2.252805251132958e+01
 1.126041713688183e+00	 1.852458300268237e-01	 2.243599569996206e+01
 1.124358991432006e+00	 1.951994931485598e-01	 2.233772706593841e+01
 1.145889803311299e+00	 9.716552062169910e-02	 2.274531268491355e+01
 1.145010510902963e+00	 1.070302688919216e-01	 2.269778190854763e+01
 1.144043158918370e+00	 1.169177983388124e-01	 2.264586643046377e+01
 1.142987048999564e+00	 1.268270641357863e-01	 2.258943086076969e+01
 1.141841496731169e+00	 1.367570029439797e-01	 2.252831894019259e+01
 1.140605832147483e+00	 1.467065330789150e-01	 2.246235366171092e+01
 1.139279400239678e+00	 1.566745546919998e-01	 2.239133751394551e+01
 1.137861561462665e+00	 1.666599499670174e-01	 2.231505285596523e+01
 1.136351692241150e+00	 1.766615833317499e-01	 2.223326243350176e+01
 1.134749185474410e+00	 1.866783016848592e-01	 2.214571004688166e+01
 1.133053451039304e+00	 1.967089346381378e-01	 2.205212138126695e+01
 1.154682769846619e+00	 9.791111864376412e-02	 2.243065454628993e+01
 1.153796730202278e+00	 1.078515638975493e-01	 2.238556282497488e+01
 1.152821955258055e+00	 1.178149651389887e-01	 2.233632335161500e+01
 1.151757741297147e+00	 1.278002695240381e-01	 2.228279799547684e+01
 1.150603398652322e+00	 1.378064055543212e-01	 2.222482608188582e+01
 1.149358252216897e+00	 1.478322832450730e-01	 2.216222444973002e+01
 1.148021641955836e+00	 1.578767943080314e-01	 2.209478763105248e+01
 1.146592923416506e+00	 1.679388123494360e-01	 2.202228816276174e+01
 1.145071468238608e+00	 1.780171930832749e-01	 2.194447704086422e+01
 1.143456664662833e+00	 1.881107745599064e-01	 2.186108432796797e+01
 1.141747918037733e+00	 1.982183774101689e-01	 2.177181992512428e+01
 1.163475741365573e+00	 9.865671708794350e-02	 2.212346322758775e+01
 1.162582954481391e+00	 1.086728593680860e-01	 2.208058477204432e+01
 1.161600756573321e+00	 1.187121324469881e-01	 2.203378326244215e+01
 1.160528438565709e+00	 1.287734754631399e-01	 2.198291798670190e+01
 1.159365305539462e+00	 1.388558087586461e-01	 2.192782413871049e+01
 1.158110677246916e+00	 1.489580340484473e-01	 2.186831281149136e+01
 1.156763888626824e+00	 1.590790346046053e-01	 2.180417111246419e+01
 1.155324290319000e+00	 1.692176754558090e-01	 2.173516241119957e+01
 1.153791249178141e+00	 1.793728036022450e-01	 2.166102673048230e+01
 1.152164148786348e+00	 1.895432482459615e-01	 2.158148129187829e+01
 1.150442389963861e+00	 1.997278210368353e-01	 2.149622122735232e+01
 1.172268715376846e+00	 9.940231574293547e-02	 2.182296029115583e+01
 1.171369181250904e+00	 1.094941550707639e-01	 2.178207538326886e+01
 1.170379560376876e+00	 1.196093000085306e-01	 2.173748288135960e+01
 1.169299138320258e+00	 1.297466816772552e-01	 2.168903968703881e+01
 1.168127214910092e+00	 1.399052122595186e-01	 2.163657718277972e+01
 1.166863104757728e+00	 1.500837851699623e-01	 2.157990116042347e+01
 1.165506137775708e+00	 1.602812752409670e-01	 2.151879187143441e+01
 1.164055659696292e+00	 1.704965389236660e-01	 2.145300420968775e+01
 1.162511032589170e+00	 1.807284145044398e-01	 2.138226803801414e+01
 1.160871635377850e+00	 1.909757223370206e-01	 2.130628867014671e+01
 1.159136864354258e+00	 2.012372650903192e-01	 2.122474752010353e+01
 1.072192526954103e+00	 1.861428951003989e-01	 2.429851831327713e+01
 1.070499410704053e+00	 1.956451693612012e-01	 2.416478960391793e+01
 1.068717037289555e+00	 2.051583467169502e-01	 2.402533672958205e+01
 1.066844898743585e+00	 2.146812752770183e-01	 2.388004243949476e+01
 1.064882505016370e+00	 2.242127879174378e-01	 2.372879828968519e+01
 1.062829384435084e+00	 2.337517025831922e-01	 2.357150559534537e+01
 1.060685084158954e+00	 2.432968226052727e-01	 2.340807640268706e+01
 1.058449170629273e+00	 2.528469370324876e-01	 2.323843447620032e+01
 1.056121230013807e+00	 2.624008209779921e-01	 2.306251629689270e+01
 1.053700868645081e+00	 2.719572359804877e-01	 2.288027206677178e+01
 1.051187713452026e+00	 2.815149303800232e-01	 2.269166671452822e+01
 1.080886890482565e+00	 1.876523199110862e-01	 2.392744763123196e+01
 1.079180044824954e+00	 1.972316477090707e-01	 2.379963591101803e+01
 1.077383218220314e+00	 2.068219670147026e-01	 2.366650243159856e+01
 1.075495898582547e+00	 2.164221165967264e-01	 2.352791519515710e+01
 1.073517591888097e+00	 2.260309198670193e-01	 2.338375055283958e+01
 1.071447822639375e+00	 2.356471851853353e-01	 2.323389420435681e+01
 1.069286134323551e+00	 2.452697061789316e-01	 2.307824221984184e+01
 1.067032089866219e+00	 2.548972620770691e-01	 2.291670207971025e+01
 1.064685272079408e+00	 2.645286180603516e-01	 2.274919372793158e+01
 1.062245284103420e+00	 2.741625256248553e-01	 2.257565063378106e+01
 1.059711749841981e+00	 2.837977229609758e-01	 2.239602085681745e+01
 1.089581276182744e+00	 1.891617485711329e-01	 2.357602887022745e+01
 1.087860701082651e+00	 1.988181301028490e-01	 2.345355607416023e+01
 1.086049421251115e+00	 2.084855915551455e-01	 2.332615060554648e+01
 1.084146920482950e+00	 2.181629623561129e-01	 2.319366622397343e+01
 1.082152700780804e+00	 2.278490564534478e-01	 2.305596443258247e+01
 1.080066282822310e+00	 2.375426726216475e-01	 2.291291552337918e+01
 1.077887206422568e+00	 2.472425947842087e-01	 2.276439964779499e+01
 1.075615030991461e+00	 2.569475923508174e-01	 2.261030790809996e+01
 1.073249335985267e+00	 2.666564205694989e-01	 2.245054346490134e+01
 1.070789721352055e+00	 2.763678208936757e-01	 2.228502265560730e+01
 1.068235807970332e+00	 2.860805213640624e-01	 2.211367611838995e+01
 1.098275681591209e+00	 1.906711806527213e-01	 2.324333578192725e+01
 1.096541377017587e+00	 2.004046160928794e-01	 2.312567002429485e+01
 1.094715643926478e+00	 2.101492198667576e-01	 2.300344434476285e+01
 1.092797961993595e+00	 2.199038120617696e-01	 2.287649870748137e+01
 1.090787829247780e+00	 2.296671971614080e-01	 2.274468006781704e+01
 1.088684762541872e+00	 2.394381643548901e-01	 2.260784346195202e+01
 1.086488298018892e+00	 2.492154878619281e-01	 2.246585312497886e+01
 1.084197991573000e+00	 2.589979272726092e-01	 2.231858363294239e+01
 1.081813419304712e+00	 2.687842279023556e-01	 2.216592106389363e+01
 1.079334177969853e+00	 2.785731211619117e-01	 2.200776417264434e+01
 1.076759885421701e+00	 2.883633249422864e-01	 2.184402557354547e+01
 1.106970104244528e+00	 1.921806157280337e-01	 2.292847486592924e+01
 1.105222070170204e+00	 2.019911052295054e-01	 2.281512951196324e+01
 1.103381883790923e+00	 2.118128514780181e-01	 2.269757775298404e+01
 1.101449020663285e+00	 2.216446652202883e-01	 2.257564614780011e+01
 1.099422974842311e+00	 2.314853414755846e-01	 2.244916734770866e+01
 1.097303259356043e+00	 2.413336598478243e-01	 2.231798122908353e+01
 1.095089406675410e+00	 2.511883848529137e-01	 2.218193605795488e+01
 1.092780969178836e+00	 2.610482662613206e-01	 2.204088968188531e+01
 1.090377519611071e+00	 2.709120394558432e-01	 2.189471074403922e+01
 1.087878651535683e+00	 2.807784258045261e-01	 2.174327991394386e+01
 1.085283979780712e+00	 2.906461330486506e-01	 2.158649112905358e+01
 1.115664541679271e+00	 1.936900533692525e-01	 2.262926325748068e+01
 1.113902778080947e+00	 2.035775970630707e-01	 2.252061675421880e+01
 1.112048138388968e+00	 2.134764859174058e-01	 2.240771782513049e+01
 1.110100094040817e+00	 2.233855213382608e-01	 2.229037138173824e+01
 1.108058135117686e+00	 2.333034888806627e-01	 2.216872496640557e+01
 1.105921770822807e+00	 2.432291585632111e-01	 2.204266042451540e+01
 1.103690529955006e+00	 2.531612851979896e-01	 2.191200994511642e+01
 1.101363961376972e+00	 2.630986087358285e-01	 2.177661439064897e+01
 1.098941634477672e+00	 2.730398546268836e-01	 2.163632456362295e+01
 1.096423139628413e+00	 2.829837341964819e-01	 2.149100249323797e+01
 1.093808088631989e+00	 2.929289450361586e-01	 2.134052273584527e+01
 1.124358991432006e+00	 1.951994931485598e-01	 2.233772706593842e+01
 1.122583498290258e+00	 2.051640911439185e-01	 2.223446431775768e+01
 1.120714405265136e+00	 2.151401227133998e-01	 2.212738544506872e+01
 1.118751179674995e+00	 2.251263799222787e-01	 2.201621279965103e+01
 1.116693307627193e+00	 2.351216388613269e-01	 2.190066902655254e+01
 1.114540294500143e+00	 2.451246599638118e-01	 2.178047912660697e+01
 1.112291665420569e+00	 2.551341883379800e-01	 2.165537273236982e+01
 1.109946965735407e+00	 2.651489541150091e-01	 2.152517319852213e+01
 1.107505761477841e+00	 2.751676728123982e-01	 2.139020163886711e+01
 1.104967639826910e+00	 2.851890457127417e-01	 2.125039164700201e+01
 1.102332209560157e+00	 2.952117602578134e-01	 2.110559764231785e+01
 1.133053451039304e+00	 1.967089346381378e-01	 2.205212138126696e+01
 1.131264228338580e+00	 2.067505870223924e-01	 2.195383425475190e+01
 1.129380681963944e+00	 2.168037613944789e-01	 2.185215103178057e+01
 1.127402275114619e+00	 2.268672404789337e-01	 2.174677769966047e+01
 1.125328489924120e+00	 2.369397909022619e-01	 2.163741794552079e+01
 1.123158827946038e+00	 2.470201635123877e-01	 2.152377516905789e+01
 1.120892810634984e+00	 2.571070937137088e-01	 2.140555471445188e+01
 1.118529979822143e+00	 2.671993018177391e-01	 2.128246633220142e+01
 1.116069898184907e+00	 2.772954934093091e-01	 2.115422688148958e+01
 1.113512149710043e+00	 2.873943597282683e-01	 2.102056328348655e+01
 1.110856340149837e+00	 2.974945780666181e-01	 2.088121968701708e+01
 1.141747918037733e+00	 1.982183774101689e-01	 2.177181992512428e+01
 1.139944965766357e+00	 2.083370842488358e-01	 2.167813779957640e+01
 1.138046966029914e+00	 2.184674014891222e-01	 2.158146063421530e+01
 1.136053377908490e+00	 2.286081025148177e-01	 2.148147904792594e+01
 1.133963679561754e+00	 2.387579444881526e-01	 2.137787860902771e+01
 1.131777368718472e+00	 2.489156686717000e-01	 2.127034179019593e+01
 1.129493963161138e+00	 2.590800007660000e-01	 2.115855014832046e+01
 1.127113001205179e+00	 2.692496512628949e-01	 2.104218674075770e+01
 1.124634042172197e+00	 2.794233158145375e-01	 2.092093878932218e+01
 1.122056666856679e+00	 2.895996756180249e-01	 2.079450060317344e+01
 1.119380477985655e+00	 2.997773978155760e-01	 2.066257677148492e+01
 1.150442389963861e+00	 1.997278210368353e-01	 2.149622122735233e+01
 1.148625708114031e+00	 2.099235823735922e-01	 2.140680966203936e+01
 1.146713255007565e+00	 2.201310425258087e-01	 2.131478251094406e+01
 1.144704485605409e+00	 2.303489655365222e-01	 2.121981603836637e+01
 1.142598874093383e+00	 2.405760991036838e-01	 2.112157855315078e+01
 1.140395914375427e+00	 2.508111749045097e-01	 2.101973229756528e+01
 1.138095120561916e+00	 2.610529089356778e-01	 2.091393556688477e+01
 1.135696027452518e+00	 2.713000018693528e-01	 2.080384507187819e+01
 1.133198191013039e+00	 2.815511394250055e-01	 2.068911855631137e+01
 1.130601188845688e+00	 2.918049927569740e-01	 2.056941768140912e+01
 1.127904620652233e+00	 3.020602188576901e-01	 2.044441118896823e+01
 1.159136864354258e+00	 2.012372650903192e-01	 2.122474752010354e+01
 1.157306452922046e+00	 2.115100809470052e-01	 2.113930694279452e+01
 1.155379546441417e+00	 2.217946840330171e-01	 2.105160606299445e+01
 1.153355595754176e+00	 2.320898290506393e-01	 2.096130782472040e+01
 1.151234071072297e+00	 2.423942542335403e-01	 2.086806415960800e+01
 1.149014462474888e+00	 2.527066816735781e-01	 2.077151780135627e+01
 1.146696280400205e+00	 2.630258176635662e-01	 2.067130433663473e+01
 1.144279056132160e+00	 2.733503530559895e-01	 2.056705450542736e+01
 1.141762342280760e+00	 2.836789636376347e-01	 2.045839676372749e+01
 1.139145713255937e+00	 2.940103105200784e-01	 2.034496012135060e+01
 1.136428765734195e+00	 3.043430405459637e-01	 2.022637726740005e+01
 1.051187713452026e+00	 2.815149303800232e-01	 2.269166671452822e+01
 1.048581412613244e+00	 2.910726398417731e-01	 2.249722758183825e+01
 1.045881636661798e+00	 3.006290881733392e-01	 2.229743553421501e+01
 1.043088078209732e+00	 3.101829873646860e-01	 2.209221101901871e+01
 1.040200452118341e+00	 3.197330378908551e-01	 2.188149347327723e+01
 1.037218495887461e+00	 3.292779291590120e-01	 2.166524239474564e+01
 1.034141970034960e+00	 3.388163399692082e-01	 2.144343838029092e+01
 1.030970658465916e+00	 3.483469389886462e-01	 2.121608412472163e+01
 1.027704368830951e+00	 3.578683852392130e-01	 2.098320537303987e+01
 1.024342932873230e+00	 3.673793285980262e-01	 2.074485181898635e+01
 1.020886206763610e+00	 3.768784103107179e-01	 2.050250524798260e+01
 1.059711749841981e+00	 2.837977229609758e-01	 2.239602085681745e+01
 1.057084314620796e+00	 2.934329354814531e-01	 2.221082764410916e+01
 1.054362646301285e+00	 3.030668766452962e-01	 2.202052431191962e+01
 1.051546435002888e+00	 3.126982479980471e-01	 2.182497923246589e+01
 1.048635393274711e+00	 3.223257394769500e-01	 2.162407991453241e+01
 1.045629256487975e+00	 3.319480298616244e-01	 2.141773418984875e+01
 1.042527783218591e+00	 3.415637872385635e-01	 2.120587136802054e+01
 1.039330755619318e+00	 3.511716694792438e-01	 2.098844335274182e+01
 1.036037979781014e+00	 3.607703247316135e-01	 2.076542571186107e+01
 1.032649286082447e+00	 3.703583919246967e-01	 2.053681869374936e+01
 1.029164529528158e+00	 3.799345012860394e-01	 2.030570971027093e+01
 1.068235807970332e+00	 2.860805213640624e-01	 2.211367611838996e+01
 1.065587238312894e+00	 2.957932371409369e-01	 2.193702686848588e+01
 1.062843677569518e+00	 3.055046713346897e-01	 2.175550759463149e+01
 1.060004813367034e+00	 3.152135150464138e-01	 2.156893847415609e+01
 1.057070355942356e+00	 3.249184476755314e-01	 2.137715891031849e+01
 1.054040038538092e+00	 3.346181373740901e-01	 2.118002883044923e+01
 1.050913617788186e+00	 3.443112415149979e-01	 2.097742995389847e+01
 1.047690874093082e+00	 3.539964071739803e-01	 2.076926702212397e+01
 1.044371611983876e+00	 3.636722716250192e-01	 2.055546898308217e+01
 1.040955660474934e+00	 3.733374628490190e-01	 2.033627950402526e+01
 1.037442873404483e+00	 3.829906000554127e-01	 2.011616231876407e+01
 1.076759885421701e+00	 2.883633249422864e-01	 2.184402557354547e+01
 1.074090181280135e+00	 2.981535441512704e-01	 2.167523250884237e+01
 1.071324728063283e+00	 3.079424715506127e-01	 2.150180448569337e+01
 1.068463210905362e+00	 3.177287877969357e-01	 2.132351721014051e+01
 1.065505337731094e+00	 3.275111617518153e-01	 2.114016564633026e+01
 1.062450839654468e+00	 3.372882509397047e-01	 2.095156542308083e+01
 1.059299471367465e+00	 3.470587020199035e-01	 2.075755421153760e+01
 1.056051011518212e+00	 3.568211512723621e-01	 2.055799306585311e+01
 1.052705263078036e+00	 3.665742250970736e-01	 2.035276771863961e+01
 1.049262053696909e+00	 3.763165405267977e-01	 2.014296289052743e+01
 1.045721236046741e+00	 3.860467057528314e-01	 1.993326468717289e+01
 1.085283979780712e+00	 2.906461330486506e-01	 2.158649112905358e+01
 1.082593141113114e+00	 3.005138558434994e-01	 2.142488089271720e+01
 1.079805795379363e+00	 3.103802766021593e-01	 2.125886348209837e+01
 1.076921625221063e+00	 3.202440655367617e-01	 2.108817370166276e+01
 1.073940336250740e+00	 3.301038809710174e-01	 2.091256558927635e+01
 1.070861657453763e+00	 3.399583698017635e-01	 2.073181392807462e+01
 1.067685341580148e+00	 3.498061679746717e-01	 2.054571573073462e+01
 1.064411165525704e+00	 3.596459009738958e-01	 2.035409168768507e+01
 1.061038930701994e+00	 3.694761843254195e-01	 2.015678757058455e+01
 1.057568463394589e+00	 3.792956241138375e-01	 1.995631890740692e+01
 1.053999615109085e+00	 3.891028175122886e-01	 1.975644498984704e+01
 1.093808088631989e+00	 2.929289450361586e-01	 2.134052273584526e+01
 1.091096115402428e+00	 3.028741715486697e-01	 2.118543664519741e+01
 1.088286877114546e+00	 3.128180857984232e-01	 2.102616170776412e+01
 1.085380053917330e+00	 3.227593475530421e-01	 2.086239524486137e+01
 1.082375349111109e+00	 3.326966045983535e-01	 2.069385372989167e+01
 1.079272489552634e+00	 3.426284932035625e-01	 2.052027440260530e+01
 1.076071226049955e+00	 3.525536386006939e-01	 2.034141685711707e+01
 1.072771333746560e+00	 3.624706554780879e-01	 2.015706459480766e+01
 1.069372612494248e+00	 3.723781484877003e-01	 1.996715497462639e+01
 1.065874887214190e+00	 3.822747127659428e-01	 1.977582257861178e+01
 1.062278008245671e+00	 3.921589344677780e-01	 1.958515663795562e+01
 1.102332209560157e+00	 2.952117602578134e-01	 2.110559764231786e+01
 1.099599101738671e+00	 3.052344905978273e-01	 2.095639195415441e+01
 1.096767970865613e+00	 3.152558984484984e-01	 2.080320418803147e+01
 1.093838494597351e+00	 3.252746331329259e-01	 2.064569745171217e+01
 1.090810373922018e+00	 3.352893318990401e-01	 2.048355386735191e+01
 1.087683333567742e+00	 3.452986203883973e-01	 2.031647628545619e+01
 1.084457122400605e+00	 3.553011131193616e-01	 2.014418997398809e+01
 1.081131513811779e+00	 3.652954139844449e-01	 1.996644427334370e+01
 1.077706306093297e+00	 3.752801167615593e-01	 1.978378877272782e+01
 1.074181322801931e+00	 3.852538056389181e-01	 1.960097271723149e+01
 1.070556413110653e+00	 3.952150557532932e-01	 1.941887700153612e+01
 1.110856340149837e+00	 2.974945780666181e-01	 2.088121968701708e+01
 1.108102097712440e+00	 3.075948123220183e-01	 2.073726587461094e+01
 1.105249074229351e+00	 3.176937138614783e-01	 2.058952316317490e+01
 1.102296944864320e+00	 3.277899215635631e-01	 2.043762356999521e+01
 1.099245408293281e+00	 3.378820621382923e-01	 2.028121793286609e+01
 1.096094187115743e+00	 3.479687505995634e-01	 2.011997772126180e+01
 1.092843028255819e+00	 3.580485907520670e-01	 1.995359682409967e+01
 1.089491703352362e+00	 3.681201756924732e-01	 1.978179330439498e+01
 1.086040009137640e+00	 3.781820883246395e-01	 1.960625664339534e+01
 1.082487767804028e+00	 3.882329018885685e-01	 1.943129072646897e+01
 1.078834827358186e+00	 3.982711805028277e-01	 1.925710617495128e+01
 1.119380477985655e+00	 2.997773978155760e-01	 2.066257677148492e+01
 1.116605100914329e+00	 3.099551360522884e-01	 2.052569775753211e+01
 1.113730184802543e+00	 3.201315313464569e-01	 2.038424678221213e+01
 1.110755402321427e+00	 3.303052121321027e-01	 2.023774384020478e+01
 1.107680449834716e+00	 3.404747945813266e-01	 2.008642535035709e+01
 1.104505047813296e+00	 3.506388830803566e-01	 1.993036492212181e+01
 1.101228941239316e+00	 3.607960707202009e-01	 1.976922786922602e+01
 1.097851899999308e+00	 3.709449398016796e-01	 1.960271291875002e+01
 1.094373719265776e+00	 3.810840623545844e-01	 1.943411938381354e+01
 1.090794219866699e+00	 3.912120006706980e-01	 1.926631944064466e+01
 1.087113248642424e+00	 4.013273078503746e-01	 1.909936578344438e+01
 1.127904620652233e+00	 3.020602188576901e-01	 2.044441118896823e+01
 1.125108108934936e+00	 3.123154611196834e-01	 2.031465684112873e+01
 1.122211300181975e+00	 3.225693502125279e-01	 2.018056224588060e+01
 1.119213864571863e+00	 3.328205041256945e-01	 2.004159530807263e+01
 1.116115496156136e+00	 3.430675284933584e-01	 1.989725055460252e+01
 1.112915913277059e+00	 3.533090170740725e-01	 1.974705428739103e+01
 1.109614858974815e+00	 3.635435522451554e-01	 1.959070168553529e+01
 1.106212101383617e+00	 3.737697055115701e-01	 1.942914192897808e+01
 1.102707434116205e+00	 3.839860380290369e-01	 1.926695811723149e+01
 1.099100676636162e+00	 3.941911011411116e-01	 1.910562200411792e+01
 1.095391674617524e+00	 4.043834369299280e-01	 1.894519782862340e+01
 1.136428765734195e+00	 3.043430405459637e-01	 2.022637726740005e+01
 1.133611119364855e+00	 3.146757868552493e-01	 2.010324204815122e+01
 1.130692417964432e+00	 3.250071697687851e-01	 1.997599771012328e+01
 1.127672329218821e+00	 3.353357968314881e-01	 1.984407089057426e+01
 1.124550544867360e+00	 3.456602631396041e-01	 1.970691222904785e+01
 1.121326781123693e+00	 3.559791518240068e-01	 1.956400155250302e+01
 1.118000779086037e+00	 3.662910345483221e-01	 1.941485341410587e+01
 1.114572305136289e+00	 3.765944720216516e-01	 1.926016279466269e+01
 1.111041151327425e+00	 3.868880145256406e-01	 1.910437323720229e+01
 1.107407135758632e+00	 3.971702024556138e-01	 1.894878078613894e+01
 1.103670102937638e+00	 4.074395668754809e-01	 1.879416357083321e+01
 1.020886206763610e+00	 3.768784103107179e-01	 2.050250524798259e+01
 1.017333459291891e+00	 3.863658749320800e-01	 2.025799946971394e+01
 1.013685175392733e+00	 3.958387309664232e-01	 2.000923466803420e+01
 1.009941285687257e+00	 4.052955957919373e-01	 1.975632995105156e+01
 1.006101746455231e+00	 4.147350803073234e-01	 1.949939641427644e+01
 1.002166539904589e+00	 4.241557895045043e-01	 1.923853623008187e+01
 9.981356744262321e-01	 4.335563230520150e-01	 1.897384182222260e+01
 9.940091848336720e-01	 4.429352758886505e-01	 1.870539513578429e+01
 9.897871325870814e-01	 4.522912388269316e-01	 1.843326701270582e+01
 9.854696060013458e-01	 4.616227991659320e-01	 1.815751668271217e+01
 9.810567204377049e-01	 4.709285413129863e-01	 1.787819137911580e+01
 1.029164529528158e+00	 3.799345012860394e-01	 2.030570971027094e+01
 1.025582972978587e+00	 3.894988993535164e-01	 2.007264101769436e+01
 1.021905105300711e+00	 3.990485703735404e-01	 1.983516552111148e+01
 1.018130856553068e+00	 4.085821205126956e-01	 1.959342401000705e+01
 1.014260182660907e+00	 4.180981494055361e-01	 1.934754920227384e+01
 1.010293065687895e+00	 4.275952507319402e-01	 1.909766472998313e+01
 1.006229514092981e+00	 4.370720128052312e-01	 1.884388421274406e+01
 1.002069562971986e+00	 4.465270191706388e-01	 1.858631042967159e+01
 9.978132742834664e-01	 4.559588492136598e-01	 1.832503460074909e+01
 9.934607370584578e-01	 4.653660787778533e-01	 1.806013578806141e+01
 9.890120675936659e-01	 4.747472807915894e-01	 1.779168042698142e+01
 1.037442873404483e+00	 3.829906000554127e-01	 2.011616231876407e+01
 1.033832507703591e+00	 3.926319317651642e-01	 1.989400961083476e+01
 1.030125056171560e+00	 4.022584179667251e-01	 1.966733081624620e+01
 1.026320448304341e+00	 4.118686536150448e-01	 1.943628405760192e+01
 1.022418639672665e+00	 4.214612270805012e-01	 1.920101949083006e+01
 1.018419612195926e+00	 4.310347207308974e-01	 1.896167819119142e+01
 1.014323374401121e+00	 4.405877115243154e-01	 1.871839112937718e+01
 1.010129961666376e+00	 4.501187716123899e-01	 1.847127824937667e+01
 1.005839436448636e+00	 4.596264689535636e-01	 1.822044765955813e+01
 1.001451888495083e+00	 4.691093679358495e-01	 1.796599494808802e+01
 9.969674350378889e-01	 4.785660300086246e-01	 1.770800263340966e+01
 1.045721236046741e+00	 3.860467057528314e-01	 1.993326468717289e+01
 1.042082061129215e+00	 3.957649712792321e-01	 1.972148517660556e+01
 1.038345025675969e+00	 4.054682728364353e-01	 1.950509342945719e+01
 1.034510058620366e+00	 4.151551941677294e-01	 1.928426074070662e+01
 1.030577115178610e+00	 4.248243123792884e-01	 1.905915070392808e+01
 1.026546177125825e+00	 4.344741985268150e-01	 1.882991800110757e+01
 1.022417253057053e+00	 4.441034182131226e-01	 1.859670728502374e+01
 1.018190378632725e+00	 4.537105321962240e-01	 1.835965216654887e+01
 1.013865616808171e+00	 4.632940970074801e-01	 1.811887431898284e+01
 1.009443058046719e+00	 4.728526655793323e-01	 1.787448271120910e+01
 1.004922820516011e+00	 4.823847878821361e-01	 1.762657298104517e+01
 1.053999615109085e+00	 3.891028175122886e-01	 1.975644498984704e+01
 1.050331630917773e+00	 3.988980170079295e-01	 1.955447442273632e+01
 1.046565011484631e+00	 4.086781340731296e-01	 1.934784308200425e+01
 1.042699685180430e+00	 4.184417412394937e-01	 1.913673145948252e+01
 1.038735606866850e+00	 4.281874043489683e-01	 1.892131276773382e+01
 1.034672758174738e+00	 4.379136831451326e-01	 1.870175163688814e+01
 1.030511147767179e+00	 4.476191318755069e-01	 1.847820290649811e+01
 1.026250811586913e+00	 4.573022999044600e-01	 1.825081052545568e+01
 1.021891813087648e+00	 4.669617323362465e-01	 1.801970657277055e+01
 1.017434243448865e+00	 4.765959706477123e-01	 1.778501041167604e+01
 1.012878221773671e+00	 4.862035533301683e-01	 1.754682798910252e+01
 1.062278008245671e+00	 3.921589344677780e-01	 1.958515663795563e+01
 1.058581214731576e+00	 4.020310680634651e-01	 1.939240947658835e+01
 1.054785011268236e+00	 4.118880007672663e-01	 1.919499494914652e+01
 1.050889325663823e+00	 4.217282938990814e-01	 1.899309895190716e+01
 1.046894112425490e+00	 4.315505020366112e-01	 1.878690067745137e+01
 1.042799353039807e+00	 4.413531736112888e-01	 1.857657122137394e+01
 1.038605056237903e+00	 4.511348515153236e-01	 1.836227228644604e+01
 1.034311258244820e+00	 4.608940737194175e-01	 1.814415499797961e+01
 1.029918023012649e+00	 4.706293739006999e-01	 1.792235884389416e+01
 1.025425442437019e+00	 4.803392820804009e-01	 1.769701075264829e+01
 1.020833636556505e+00	 4.900223252707657e-01	 1.746822432175549e+01
 1.070556413110653e+00	 3.952150557532932e-01	 1.941887700153612e+01
 1.066830810232940e+00	 4.051641235580484e-01	 1.923474657154395e+01
 1.063005022697474e+00	 4.150978720093037e-01	 1.904598831678687e+01
 1.059078977749833e+00	 4.250148512152375e-01	 1.885278992676667e+01
 1.055052629542636e+00	 4.349136044892867e-01	 1.865533311293335e+01
 1.050925959418177e+00	 4.447926689507231e-01	 1.845379212775828e+01
 1.046698976175627e+00	 4.546505761364262e-01	 1.824833238367980e+01
 1.042371716322328e+00	 4.644858526234160e-01	 1.803910918639172e+01
 1.037944244308755e+00	 4.742970206616781e-01	 1.782626659669636e+01
 1.033416652746681e+00	 4.840825988168092e-01	 1.760993643479391e+01
 1.028789062610151e+00	 4.938411026219722e-01	 1.739023744042959e+01
 1.078834827358186e+00	 3.982711805028277e-01	 1.925710617495128e+01
 1.075080415084176e+00	 4.082971826038884e-01	 1.908096477789095e+01
 1.071225043443037e+00	 4.183077468896999e-01	 1.890028528343355e+01
 1.067268639117747e+00	 4.283014122567055e-01	 1.871525374251657e+01
 1.063211155906394e+00	 4.382767107540651e-01	 1.852605110043041e+01
 1.059052575006993e+00	 4.482321681888744e-01	 1.833285163038125e+01
 1.054792905286752e+00	 4.581663047426702e-01	 1.813582146933314e+01
 1.050432183535317e+00	 4.680776355987747e-01	 1.793511727134189e+01
 1.045970474701542e+00	 4.779646715800179e-01	 1.773088499334036e+01
 1.041407872113348e+00	 4.878259197963483e-01	 1.752325882797661e+01
 1.036744497680246e+00	 4.976598843018319e-01	 1.731236029764470e+01
 1.087113248642424e+00	 4.013273078503746e-01	 1.909936578344438e+01
 1.083330026947597e+00	 4.114302443131942e-01	 1.893056477583609e+01
 1.079445071175615e+00	 4.215176244989133e-01	 1.875736950506990e+01
 1.075458307446855e+00	 4.315879760922303e-01	 1.857996112957164e+01
 1.071369689204871e+00	 4.416398198780166e-01	 1.839851671802793e+01
 1.067179197503398e+00	 4.516716703511819e-01	 1.821320759919729e+01
 1.062886841277681e+00	 4.616820363379091e-01	 1.802419781640020e+01
 1.058492657599668e+00	 4.716694216278132e-01	 1.783164270265974e+01
 1.053996711916591e+00	 4.816323256165564e-01	 1.763568759221222e+01
 1.049399098272520e+00	 4.915692439584290e-01	 1.743646668373963e+01
 1.044699939512429e+00	 5.014786692283897e-01	 1.723410207019945e+01
 1.095391674617524e+00	 4.043834369299280e-01	 1.894519782862340e+01
 1.091579643485516e+00	 4.145633077981749e-01	 1.878306766842165e+01
 1.087665103565899e+00	 4.247275039274023e-01	 1.861674498066516e+01
 1.083647980416445e+00	 4.348745417905558e-01	 1.844640295373137e+01
 1.079528227126172e+00	 4.450029309082112e-01	 1.827221184246162e+01
 1.075305824604536e+00	 4.551111744630849e-01	 1.809433723561089e+01
 1.070980781854817e+00	 4.651977699259983e-01	 1.791293843036897e+01
 1.066553136231262e+00	 4.752612096928513e-01	 1.772816693070880e+01
 1.062022953679483e+00	 4.852999817321313e-01	 1.754016508606032e+01
 1.057390328959694e+00	 4.953125702424627e-01	 1.734906488643324e+01
 1.052655385852337e+00	 5.052974563196895e-01	 1.715498692962261e+01
 1.103670102937638e+00	 4.074395668754809e-01	 1.879416357083321e+01
 1.099829262360247e+00	 4.176963721710397e-01	 1.863801383225574e+01
 1.095885138284579e+00	 4.279373842656255e-01	 1.847793487619860e+01
 1.091837655705804e+00	 4.381611084204264e-01	 1.831408901858649e+01
 1.087686767358405e+00	 4.483660428917192e-01	 1.814663693514666e+01
 1.083432454007551e+00	 4.585506795500225e-01	 1.797573584751350e+01
 1.079074724724561e+00	 4.687135045107917e-01	 1.780153781879589e+01
 1.074613617145979e+00	 4.788529987762081e-01	 1.762418817616932e+01
 1.070049197715797e+00	 4.889676388875796e-01	 1.744382407779196e+01
 1.065381561910370e+00	 4.990558975878605e-01	 1.726057324096363e+01
 1.060610834445606e+00	 5.091162444937753e-01	 1.707455284794046e+01
 9.810567204377049e-01	 4.709285413129863e-01	 1.787819137911579e+01
 9.765493927391889e-01	 4.802054725542235e-01	 1.759625085168671e+01
 9.719470501989695e-01	 4.894537577567515e-01	 1.731260250369516e+01
 9.672498895077370e-01	 4.986719766757557e-01	 1.702733994697387e+01
 9.624581349827819e-01	 5.078587087228539e-01	 1.674054447472243e+01
 9.575720386728110e-01	 5.170125336241197e-01	 1.645228527442785e+01
 9.525918804443397e-01	 5.261320320837842e-01	 1.616261980815187e+01
 9.475179680493709e-01	 5.352157864530170e-01	 1.587159436515179e+01
 9.423506371741205e-01	 5.442623814031888e-01	 1.557924479087048e+01
 9.370902514685465e-01	 5.532704046029900e-01	 1.528559739533453e+01
 9.317372025564836e-01	 5.622384473987843e-01	 1.499067004295999e+01
 9.890120675936659e-01	 4.747472807915894e-01	 1.779168042698142e+01
 9.844681901667695e-01	 4.840994382732193e-01	 1.752063323091501e+01
 9.798285274268862e-01	 4.934227174267359e-01	 1.724788584204397e+01
 9.750932776596671e-01	 5.027156864906005e-01	 1.697351217452315e+01
 9.702626670013819e-01	 5.119769133569180e-01	 1.669757148234469e+01
 9.653369495445935e-01	 5.212049662348005e-01	 1.642010855570128e+01
 9.603164074252435e-01	 5.303984143194491e-01	 1.614115409545967e+01
 9.552013508908868e-01	 5.395558284663584e-01	 1.586072527112260e+01
 9.499921183498045e-01	 5.486757818700373e-01	 1.557882646667121e+01
 9.446890764007800e-01	 5.577568507466210e-01	 1.529545021764030e+01
 9.392926198433109e-01	 5.667976150197382e-01	 1.501057834167816e+01
 9.969674350378889e-01	 4.785660300086246e-01	 1.770800263340965e+01
 9.923870077893991e-01	 4.879934139223986e-01	 1.744742357196839e+01
 9.877100247546671e-01	 4.973916872180565e-01	 1.718512159072457e+01
 9.829366858143073e-01	 5.067594066173066e-01	 1.692115535243289e+01
 9.780672189235764e-01	 5.160951284927164e-01	 1.665556659869623e+01
 9.731018802188975e-01	 5.253974095364095e-01	 1.638838032326173e+01
 9.680409541056478e-01	 5.346648074345296e-01	 1.611960513431903e+01
 9.628847533269373e-01	 5.438958815468701e-01	 1.584923381160875e+01
 9.576336190131246e-01	 5.530891935910521e-01	 1.557724406311937e+01
 9.522879207118242e-01	 5.622433083306284e-01	 1.530359948505650e+01
 9.468480563982066e-01	 5.713567942664680e-01	 1.502825072761119e+01
 1.004922820516011e+00	 4.823847878821361e-01	 1.762657298104517e+01
 1.000305843363073e+00	 4.918873983985056e-01	 1.737606792213575e+01
 9.955915399488828e-01	 5.013606660062216e-01	 1.712378999406800e+01
 9.907801117490235e-01	 5.108031359102169e-01	 1.686978701726000e+01
 9.858717885377440e-01	 5.202133529634974e-01	 1.661408770521859e+01
 9.808668284953328e-01	 5.295898623411743e-01	 1.635670180813954e+01
 9.757655182966073e-01	 5.389312102203117e-01	 1.609762045655968e+01
 9.705681731802422e-01	 5.482359444649770e-01	 1.583681671132816e+01
 9.652751369986770e-01	 5.575026153158812e-01	 1.557424632508387e+01
 9.598867822483672e-01	 5.667297760839710e-01	 1.530984871927696e+01
 9.544035100801627e-01	 5.759159838473319e-01	 1.504354817956194e+01
 1.012878221773671e+00	 4.862035533301683e-01	 1.754682798910252e+01
 1.008224694643785e+00	 4.957813905982835e-01	 1.730603249128745e+01
 1.003473070776104e+00	 5.053296526667397e-01	 1.706339001001993e+01
 9.986235532411808e-01	 5.148468732236733e-01	 1.681894189900040e+01
 9.936763736322627e-01	 5.243315856025080e-01	 1.657270828918354e+01
 9.886317921735073e-01	 5.337823234613228e-01	 1.632468819592582e+01
 9.834900978091781e-01	 5.431976214680809e-01	 1.607485983740880e+01
 9.782516082735184e-01	 5.525760159911044e-01	 1.582318117109214e+01
 9.729166701410578e-01	 5.619160457941728e-01	 1.556959065381717e+01
 9.674856588570963e-01	 5.712162527356066e-01	 1.531400822997779e+01
 9.619589787481722e-01	 5.804751824706879e-01	 1.505633655090712e+01
 1.020833636556505e+00	 4.900223252707657e-01	 1.746822432175549e+01
 1.016143559387530e+00	 4.996753894184763e-01	 1.723680229142394e+01
 1.011354615002900e+00	 5.092986460751195e-01	 1.700343798482609e+01
 1.006467008068146e+00	 5.188906174120183e-01	 1.676817063481657e+01
 1.001480971995511e+00	 5.284498252429963e-01	 1.653101620029079e+01
 9.963967690530297e-01	 5.379747917090832e-01	 1.629196742998786e+01
 9.912146904544151e-01	 5.474640399691240e-01	 1.605099414898543e+01
 9.859350564294850e-01	 5.569160948956771e-01	 1.580804377515155e+01
 9.805582162748619e-01	 5.663294837755743e-01	 1.556304207163447e+01
 9.750845483846996e-01	 5.757027370144935e-01	 1.531589414021154e+01
 9.695144602612272e-01	 5.850343888448946e-01	 1.506648565898998e+01
 1.028789062610151e+00	 4.938411026219722e-01	 1.739023744042959e+01
 1.024062435350302e+00	 5.035693937558273e-01	 1.716787981824995e+01
 1.019236170395844e+00	 5.132676451068693e-01	 1.694346636769963e+01
 1.014310474007282e+00	 5.229343673295935e-01	 1.671703852054260e+01
 1.009285581415867e+00	 5.325680707182097e-01	 1.648861244268058e+01
 1.004161756933508e+00	 5.421672658966828e-01	 1.625817904758379e+01
 9.989392940433742e-01	 5.517304645147258e-01	 1.602570424403217e+01
 9.936185154708608e-01	 5.612561799491205e-01	 1.579112942597581e+01
 9.881997732346863e-01	 5.707429280097348e-01	 1.555437221108122e+01
 9.826834486778641e-01	 5.801892276495898e-01	 1.531532743321454e+01
 9.770699524783206e-01	 5.895936016783100e-01	 1.507386839272129e+01
 1.036744497680246e+00	 4.976598843018319e-01	 1.731236029764470e+01
 1.031981320288096e+00	 5.074634025070800e-01	 1.709878377252231e+01
 1.027117734721504e+00	 5.172366486374980e-01	 1.688302246333028e+01
 1.022153948835957e+00	 5.269781218307419e-01	 1.666512429794325e+01
 1.017090199681709e+00	 5.366863208613959e-01	 1.644511000046642e+01
 1.011926753614553e+00	 5.463597448363501e-01	 1.622297304711842e+01
 1.006663906387111e+00	 5.559968938961732e-01	 1.599867986826762e+01
 1.001301983220362e+00	 5.655962699218591e-01	 1.577217030499686e+01
 9.958413388551272e-01	 5.751563772463020e-01	 1.554335832728092e+01
 9.902823575832775e-01	 5.846757233698533e-01	 1.531213301948245e+01
 9.846254532584435e-01	 5.941528196792929e-01	 1.507835983741755e+01
 1.044699939512429e+00	 5.014786692283897e-01	 1.723410207019945e+01
 1.039900211956906e+00	 5.113574145689785e-01	 1.702904781905852e+01
 1.034999305746452e+00	 5.212056555425141e-01	 1.682166722022222e+01
 1.029997430331535e+00	 5.310218797698053e-01	 1.661201897582859e+01
 1.024894824581416e+00	 5.408045745058023e-01	 1.640013269500548e+01
 1.019691756895771e+00	 5.505522273403123e-01	 1.618600878488384e+01
 1.014388525296681e+00	 5.602633269047520e-01	 1.596961859983924e+01
 1.008985457500709e+00	 5.699363635843182e-01	 1.575090485794079e+01
 1.003482910970780e+00	 5.795698302349235e-01	 1.552978233223324e+01
 9.978812729476279e-01	 5.891622229042426e-01	 1.530613882304106e+01
 9.921809604605897e-01	 5.987120415562009e-01	 1.507983641596345e+01
 1.052655385852337e+00	 5.052974563196895e-01	 1.715498692962261e+01
 1.047819108112727e+00	 5.152514288382660e-01	 1.695821938141942e+01
 1.042880881237259e+00	 5.251746646974262e-01	 1.675897405297435e+01
 1.037840916271382e+00	 5.350656400011260e-01	 1.655732468323814e+01
 1.032699453903367e+00	 5.449228304846773e-01	 1.635331407223682e+01
 1.027456764576772e+00	 5.547447122207979e-01	 1.614695389973399e+01
 1.022113148583140e+00	 5.645297623317480e-01	 1.593822481445085e+01
 1.016668936134619e+00	 5.742764597069229e-01	 1.572707680345378e+01
 1.011124487416240e+00	 5.839832857252477e-01	 1.551342984990881e+01
 1.005480192617603e+00	 5.936487249817158e-01	 1.529717488590290e+01
 9.997364719437505e-01	 6.032712660173928e-01	 1.507817504544231e+01
 1.060610834445606e+00	 5.091162444937753e-01	 1.707455284794045e+01
 1.055738006511554e+00	 5.191454442116863e-01	 1.688585847039973e+01
 1.050762458960495e+00	 5.291436749777426e-01	 1.669452769672487e+01
 1.045684404432864e+00	 5.391094013790461e-01	 1.650065355301931e+01
 1.040504085435939e+00	 5.490410876312676e-01	 1.630429631851305e+01
 1.035221774457164e+00	 5.589371982900342e-01	 1.610548326423186e+01
 1.029837774057543e+00	 5.687961989684474e-01	 1.590420867482239e+01
 1.024352416944811e+00	 5.786165570600982e-01	 1.570043416380439e+01
 1.018766066026104e+00	 5.883967424669228e-01	 1.549408929105479e+01
 1.013079114439890e+00	 5.981352283312306e-01	 1.528507248976158e+01
 1.007291985566919e+00	 6.078304917712264e-01	 1.507325230842836e+01
 9.317372025564836e-01	 5.622384473987843e-01	 1.499067004296000e+01
 9.262919102513079e-01	 5.711651056755117e-01	 1.469504022646966e+01
 9.207548231981949e-01	 5.800489810864823e-01	 1.439930371834790e+01
 9.151264181422006e-01	 5.888886812246268e-01	 1.410349801595248e+01
 9.094071996317424e-01	 5.976828201333920e-01	 1.380765911994957e+01
 9.035976999280246e-01	 6.064300189927078e-01	 1.351182346917547e+01
 8.976984788943334e-01	 6.151289068041607e-01	 1.321603004291516e+01
 8.917101238651709e-01	 6.237781210747034e-01	 1.292032262438331e+01
 8.856332494952078e-01	 6.323763084981971e-01	 1.262475221796144e+01
 8.794684975880961e-01	 6.409221256341138e-01	 1.232937961152125e+01
 8.732165369051681e-01	 6.494142395826942e-01	 1.203427807396353e+01
 9.392926198433109e-01	 5.667976150197382e-01	 1.501057834167816e+01
 9.338031718950223e-01	 5.757966591884043e-01	 1.472479199368486e+01
 9.282211848391264e-01	 5.847525735667986e-01	 1.443873362877144e+01
 9.225471392865777e-01	 5.936639544568921e-01	 1.415246864498874e+01
 9.167815438771442e-01	 6.025294046634778e-01	 1.386606241542327e+01
 9.109249351881055e-01	 6.113475341857021e-01	 1.357958225113831e+01
 9.049778776226468e-01	 6.201169609077936e-01	 1.329309953841135e+01
 8.989409632779298e-01	 6.288363112883151e-01	 1.300669204394946e+01
 8.928148117928265e-01	 6.375042210472364e-01	 1.272044638046932e+01
 8.866000701753368e-01	 6.461193358501363e-01	 1.243446062375486e+01
 8.802974126097415e-01	 6.546803119888378e-01	 1.214884707103960e+01
 9.468480563982066e-01	 5.713567942664680e-01	 1.502825072761120e+01
 9.413144526941549e-01	 5.804282245116329e-01	 1.475181780698551e+01
 9.356875655209295e-01	 5.894561780411436e-01	 1.447501667859023e+01
 9.299678793553906e-01	 5.984392398659800e-01	 1.419793248782246e+01
 9.241559069286706e-01	 6.073760015522522e-01	 1.392065117901257e+01
 9.182521891341346e-01	 6.162650619182919e-01	 1.364326149509990e+01
 9.122572949148786e-01	 6.251050277309402e-01	 1.336585715983598e+01
 9.061718211307390e-01	 6.338945144003422e-01	 1.308853923608303e+01
 8.999963924047992e-01	 6.426321466725445e-01	 1.281141865242326e+01
 8.937316609494236e-01	 6.513165593192054e-01	 1.253461888895397e+01
 8.873783063718548e-01	 6.599463978237008e-01	 1.225827881181844e+01
 9.544035100801627e-01	 5.759159838473319e-01	 1.504354817956194e+01
 9.488257505202146e-01	 5.850598003330492e-01	 1.477603163054478e+01
 9.431539631278391e-01	 5.941597931769582e-01	 1.450810837536090e+01
 9.373886362458128e-01	 6.032145360990208e-01	 1.423987534952782e+01
 9.315302866966412e-01	 6.122226094266370e-01	 1.397143046909027e+01
 9.255794596897862e-01	 6.211826007972977e-01	 1.370287467557639e+01
 9.195367287082652e-01	 6.300931058604298e-01	 1.343431417306797e+01
 9.134026953745993e-01	 6.389527289777324e-01	 1.316586285083710e+01
 9.071779892960974e-01	 6.477600839213058e-01	 1.289764488357971e+01
 9.008632678894988e-01	 6.565137945688587e-01	 1.262979749987113e+01
 8.944592161850218e-01	 6.652124955952957e-01	 1.236247390807785e+01
 9.619589787481722e-01	 5.804751824706879e-01	 1.505633655090712e+01
 9.563370632447112e-01	 5.896913853405049e-01	 1.479735057045538e+01
 9.506203755440933e-01	 5.988634176416837e-01	 1.453796603648066e+01
 9.448094078550190e-01	 6.079898418031447e-01	 1.427828390796666e+01
 9.389046810913775e-01	 6.170692269135547e-01	 1.401840566884290e+01
 9.329067447787349e-01	 6.261001494295396e-01	 1.375843542665574e+01
 9.268161769400405e-01	 6.350811938830888e-01	 1.349848221430858e+01
 9.206335839605109e-01	 6.440109535874334e-01	 1.323866248819616e+01
 9.143596004316896e-01	 6.528880313407018e-01	 1.297910281457351e+01
 9.079948889747038e-01	 6.617110401266333e-01	 1.271994273451898e+01
 9.015401400427564e-01	 6.704786038116352e-01	 1.246133779638974e+01
 9.695144602612272e-01	 5.850343888448946e-01	 1.506648565898998e+01
 9.638483887391534e-01	 5.943229782218515e-01	 1.481569402264527e+01
 9.580868006539277e-01	 6.035670501027610e-01	 1.456454798161776e+01
 9.522301920801836e-01	 6.127651556254826e-01	 1.431314493696983e+01
 9.462790880231997e-01	 6.219158526399278e-01	 1.406158172668893e+01
 9.402340423246559e-01	 6.310177064218385e-01	 1.380995678640404e+01
 9.340956375474405e-01	 6.400692903857459e-01	 1.355837252549645e+01
 9.278644848394750e-01	 6.490691867963930e-01	 1.330693791180340e+01
 9.215412237765471e-01	 6.580159874779166e-01	 1.305577125655210e+01
 9.151265221841793e-01	 6.669082945200655e-01	 1.280500318960538e+01
 9.086210759385727e-01	 6.757447209807316e-01	 1.255477981356101e+01
 9.770699524783206e-01	 5.895936016783100e-01	 1.507386839272129e+01
 9.713597248750498e-01	 5.989545776649403e-01	 1.483098283607643e+01
 9.655532363415797e-01	 6.082706892276318e-01	 1.458781273817620e+01
 9.596509868184813e-01	 6.175404762131644e-01	 1.434444454096545e+01
 9.536535054024289e-01	 6.267624852326784e-01	 1.410096240721258e+01
 9.475613502512236e-01	 6.359352703810148e-01	 1.385745045149391e+01
 9.413751084677006e-01	 6.450573939552287e-01	 1.361399520028095e+01
 9.350953959624921e-01	 6.541274271715577e-01	 1.337068827419803e+01
 9.287228572956394e-01	 6.631439508801323e-01	 1.312762928387372e+01
 9.222581654970682e-01	 6.721055562766924e-01	 1.288492892917542e+01
 9.157020218659846e-01	 6.810108456105990e-01	 1.264271228999771e+01
 9.846254532584435e-01	 5.941528196792929e-01	 1.507835983741755e+01
 9.788710695239099e-01	 6.035861823576232e-01	 1.484313849041277e+01
 9.730196804912862e-01	 6.129743336837368e-01	 1.460771825909941e+01
 9.670717899670859e-01	 6.223158022133204e-01	 1.437216740044729e+01
 9.610279311393856e-01	 6.316091233187291e-01	 1.413654955205307e+01
 9.548886664821129e-01	 6.408528399138887e-01	 1.390092604151211e+01
 9.486545876380552e-01	 6.500455031783643e-01	 1.366535843999377e+01
 9.423263152805632e-01	 6.591856732798763e-01	 1.342991135295249e+01
 9.359044989539360e-01	 6.682719200945320e-01	 1.319465543917553e+01
 9.293898168925112e-01	 6.773028239240513e-01	 1.295967064765147e+01
 9.227829758185061e-01	 6.862769762092492e-01	 1.272504966003693e+01
 9.921809604605897e-01	 5.987120415562009e-01	 1.507983641596344e+01
 9.863824205572431e-01	 6.082177909877514e-01	 1.485208228739237e+01
 9.804861309872833e-01	 6.176779821385172e-01	 1.462422115236321e+01
 9.744925994231712e-01	 6.270911322730811e-01	 1.439629602771010e+01
 9.684023631443909e-01	 6.364557655250026e-01	 1.416834235022602e+01
 9.622159889409980e-01	 6.457704136272805e-01	 1.394039037243842e+01
 9.559340729957395e-01	 6.550336166419815e-01	 1.371246781909234e+01
 9.495572407446884e-01	 6.642439236882957e-01	 1.348460279713296e+01
 9.430861467164074e-01	 6.733998936682984e-01	 1.325682695015860e+01
 9.365214743496496e-01	 6.825000959896784e-01	 1.302917884650806e+01
 9.298639357896512e-01	 6.915431112846954e-01	 1.280170758834858e+01
 9.997364719437505e-01	 6.032712660173928e-01	 1.507817504544231e+01
 9.938937758465578e-01	 6.128494022431766e-01	 1.485773455518540e+01
 9.879525857138084e-01	 6.223816332594143e-01	 1.463727592154535e+01
 9.819134130839129e-01	 6.318664650395769e-01	 1.441681003231695e+01
 9.757767993277645e-01	 6.413024104784206e-01	 1.419633661738466e+01
 9.695433155515549e-01	 6.506879901280113e-01	 1.397584673881563e+01
 9.632135624779894e-01	 6.600217329329074e-01	 1.375532555958044e+01
 9.567881703058686e-01	 6.693021769637632e-01	 1.353475538354630e+01
 9.502677985480233e-01	 6.785278701486148e-01	 1.331411895747763e+01
 9.436531358476259e-01	 6.876973710011113e-01	 1.309340302387082e+01
 9.369448997729339e-01	 6.968092493449503e-01	 1.287260211156473e+01
 1.007291985566919e+00	 6.078304917712264e-01	 1.507325230842836e+01
 1.001405133263364e+00	 6.174810148117503e-01	 1.486001386506321e+01
 9.954190425550976e-01	 6.270852857138690e-01	 1.464683421689694e+01
 9.893342288464844e-01	 6.366417991599383e-01	 1.443368539579361e+01
 9.831512375998286e-01	 6.461490568059063e-01	 1.422052408355816e+01
 9.768706442374566e-01	 6.556055680229007e-01	 1.400729420416227e+01
 9.704930540220390e-01	 6.650098506379701e-01	 1.379392981394180e+01
 9.640191019151049e-01	 6.743604316732268e-01	 1.358035828226510e+01
 9.574494524137537e-01	 6.836558480826636e-01	 1.336650375315752e+01
 9.507847993655814e-01	 6.928946474858871e-01	 1.315229087636453e+01
 9.440258657618684e-01	 7.020753888980267e-01	 1.293764879434306e+01
 8.732165369051681e-01	 6.494142395826942e-01	 1.203427807396354e+01
 8.668769786295907e-01	 6.578527574936988e-01	 1.174081976453370e+01
 8.604516036405305e-01	 6.662349165277870e-01	 1.145033727945069e+01
 8.539411642097845e-01	 6.745594139185001e-01	 1.116271242095858e+01
 8.473464386377192e-01	 6.828249600784643e-01	 1.087783940009803e+01
 8.406682309615092e-01	 6.910302792495726e-01	 1.059562831285851e+01
 8.339073706440876e-01	 6.991741101455530e-01	 1.031600868611453e+01
 8.270647122440257e-01	 7.072552065862484e-01	 1.003893307575696e+01
 8.201411350666138e-01	 7.152723381229559e-01	 9.764380698627855e+00
 8.131375427964318e-01	 7.232242906541624e-01	 9.492361079155742e+00
 8.060548631117155e-01	 7.311098670310472e-01	 9.222917690976882e+00
 8.802974126097415e-01	 6.546803119888378e-01	 1.214884707103960e+01
 8.739064471263016e-01	 6.631872574819838e-01	 1.186484425379992e+01
 8.674289690452558e-01	 6.716373870864926e-01	 1.158355057697757e+01
 8.608657367385442e-01	 6.800293874718312e-01	 1.130473888007203e+01
 8.542175348177374e-01	 6.883619585934222e-01	 1.102819014576861e+01
 8.474851738399164e-01	 6.966338143480947e-01	 1.075369725949257e+01
 8.406694899940959e-01	 7.048436832218645e-01	 1.048106885175417e+01
 8.337713447684271e-01	 7.129903089293578e-01	 1.021013320474683e+01
 8.267916245984525e-01	 7.210724510442200e-01	 9.940742203799402e+00
 8.197312404966919e-01	 7.290888856198445e-01	 9.672775313513682e+00
 8.125911276638866e-01	 7.370384057997872e-01	 9.406143557749065e+00
 8.873783063718548e-01	 6.599463978237008e-01	 1.225827881181844e+01
 8.809359335494392e-01	 6.685217710735557e-01	 1.198343320194711e+01
 8.744063522435255e-01	 6.770398714218879e-01	 1.171089197109522e+01
 8.677903269262099e-01	 6.854993749740654e-01	 1.144033019834827e+01
 8.610886485202849e-01	 6.938989712282767e-01	 1.117142745759132e+01
 8.543021341027531e-01	 7.022373637362607e-01	 1.090387185224906e+01
 8.474316265887262e-01	 7.105132707562937e-01	 1.063736414526069e+01
 8.404779943959537e-01	 7.187254258977580e-01	 1.037162196480109e+01
 8.334421310902458e-01	 7.268725787566198e-01	 1.010638406533551e+01
 8.263249550120824e-01	 7.349534955411549e-01	 9.841414622763438e+00
 8.191274088847291e-01	 7.429669596872678e-01	 9.576961149138604e+00
 8.944592161850218e-01	 6.652124955952957e-01	 1.236247390807785e+01
 8.879654359070920e-01	 6.738562967570239e-01	 1.209644730944293e+01
 8.813837512581991e-01	 6.824423680033102e-01	 1.183219676237386e+01
 8.747149328106094e-01	 6.909693748753963e-01	 1.156931046161092e+01
 8.679597777983509e-01	 6.994359964142149e-01	 1.130737805148123e+01
 8.611191098183604e-01	 7.078409258263885e-01	 1.104599492797168e+01
 8.541937785118618e-01	 7.161828711424306e-01	 1.078476664794935e+01
 8.471846592262180e-01	 7.244605558664553e-01	 1.052331342508414e+01
 8.400926526575229e-01	 7.326727196167279e-01	 1.026127469103489e+01
 8.329186844742319e-01	 7.408181187563810e-01	 9.998314772000837e+00
 8.256637049221497e-01	 7.488955270136476e-01	 9.740043944772196e+00
 9.015401400427564e-01	 6.704786038116352e-01	 1.246133779638974e+01
 8.949949522073473e-01	 6.791908330209985e-01	 1.220375369889122e+01
 8.883611641121361e-01	 6.878448753000952e-01	 1.194730785207242e+01
 8.816395524295698e-01	 6.964393856260184e-01	 1.169151212481026e+01
 8.748309207049226e-01	 7.049730325824228e-01	 1.143587737971789e+01
 8.679360990550784e-01	 7.134444990307952e-01	 1.117991803506200e+01
 8.609559438473861e-01	 7.218524827738645e-01	 1.092315674523568e+01
 8.538913373588338e-01	 7.301956972104570e-01	 1.066512917837472e+01
 8.467431874158123e-01	 7.384728719811159e-01	 1.040538886865073e+01
 8.395124270147665e-01	 7.466827536038118e-01	 1.014661255334202e+01
 8.322000139240548e-01	 7.548241060990848e-01	 9.896588154436627e+00
 9.086210759385727e-01	 6.757447209807316e-01	 1.255477981356101e+01
 9.020244804582942e-01	 6.845253783540910e-01	 1.230522493575425e+01
 8.953385888281969e-01	 6.932473917815792e-01	 1.205607472606897e+01
 8.885641838209184e-01	 7.019094056761254e-01	 1.180677497671779e+01
 8.817020752929885e-01	 7.105100781640873e-01	 1.155676859358154e+01
 8.747530998812489e-01	 7.190480817617987e-01	 1.130550041084030e+01
 8.677181206791826e-01	 7.275221040441857e-01	 1.105242213509106e+01
 8.605980268934147e-01	 7.359308483047705e-01	 1.079699739656683e+01
 8.533937334806440e-01	 7.442730342063565e-01	 1.053978847031448e+01
 8.461061807653150e-01	 7.525473984217358e-01	 1.028912550256303e+01
 8.387363340383519e-01	 7.607526952637379e-01	 1.004656376669131e+01
 9.157020218659846e-01	 6.810108456105990e-01	 1.264271228999771e+01
 9.090540186680200e-01	 6.898599312449109e-01	 1.240073806959154e+01
 9.023160234292411e-01	 6.986499159170990e-01	 1.215835246109275e+01
 8.954888250224818e-01	 7.073794334759109e-01	 1.191494512792353e+01
 8.885732396155370e-01	 7.160471315903951e-01	 1.166990152952293e+01
 8.815701103652125e-01	 7.246516724317157e-01	 1.142260798191645e+01
 8.744803070911354e-01	 7.331917333469848e-01	 1.117245685825528e+01
 8.673047259295744e-01	 7.416660075244027e-01	 1.091892822301413e+01
 8.600442889675458e-01	 7.500732046490217e-01	 1.066860115270894e+01
 8.526999438575039e-01	 7.584120515484403e-01	 1.042573271166013e+01
 8.452726634129473e-01	 7.666812928277663e-01	 1.018991673376753e+01
 9.227829758185061e-01	 6.862769762092492e-01	 1.272504966003693e+01
 9.160835648446138e-01	 6.951944901820696e-01	 1.249017369471812e+01
 9.092934659381288e-01	 7.040524461759905e-01	 1.225400075206820e+01
 9.024134740720878e-01	 7.128494674755695e-01	 1.201587402089123e+01
 8.954444117255564e-01	 7.215841912925324e-01	 1.177513171760803e+01
 8.883871285753105e-01	 7.302552694528643e-01	 1.153111238634254e+01
 8.812425011671274e-01	 7.388613690758504e-01	 1.128316034904054e+01
 8.740114325669264e-01	 7.474011732443607e-01	 1.103430850132478e+01
 8.666948519920474e-01	 7.558733816656835e-01	 1.079205870966115e+01
 8.592937144229610e-01	 7.642767113222140e-01	 1.055629126182970e+01
 8.518090001957481e-01	 7.726098971113272e-01	 1.032656903447822e+01
 9.298639357896512e-01	 6.915431112846954e-01	 1.280170758834858e+01
 9.231131169961629e-01	 7.005290536541761e-01	 1.257341502925404e+01
 9.162709143777190e-01	 7.094549810275903e-01	 1.234288295945173e+01
 9.093381290075637e-01	 7.183195061252947e-01	 1.210941746090221e+01
 9.023155896760346e-01	 7.271212557016860e-01	 1.187231941105778e+01
 8.952041525798842e-01	 7.358588712375621e-01	 1.163089001639312e+01
 8.880047009910419e-01	 7.445310096243730e-01	 1.138560142879423e+01
 8.807181449050837e-01	 7.531363438396513e-01	 1.114479523897965e+01
 8.733454206696770e-01	 7.616735636129135e-01	 1.090994377279751e+01
 8.658874905933135e-01	 7.701413760813454e-01	 1.068063622411104e+01
 8.583453425346611e-01	 7.785385064345802e-01	 1.045641874604477e+01
 9.369448997729339e-01	 6.968092493449503e-01	 1.287260211156473e+01
 9.301426731307558e-01	 7.058636201498422e-01	 1.265034701160109e+01
 9.232483667708727e-01	 7.148575189412348e-01	 1.242486517551164e+01
 9.162627878667365e-01	 7.237895478752813e-01	 1.219543466679102e+01
 9.091867715199606e-01	 7.326583232490428e-01	 1.196132863577430e+01
 9.020211804472744e-01	 7.414624761981263e-01	 1.172186502014840e+01
 8.947669046467629e-01	 7.502006533861424e-01	 1.148326908180468e+01
 8.874248610436600e-01	 7.588715176852815e-01	 1.125011027590009e+01
 8.799959931159638e-01	 7.674737488472848e-01	 1.102201851042182e+01
 8.724812705001891e-01	 7.760060441641221e-01	 1.079858067186512e+01
 8.648816885775930e-01	 7.844671191176835e-01	 1.057934012437361e+01
 9.440258657618684e-01	 7.020753888980267e-01	 1.293764879434306e+01
 9.371722312564811e-01	 7.111981881576777e-01	 1.272085541343695e+01
 9.302258211404490e-01	 7.202600583862604e-01	 1.249981530856279e+01
 9.231874486874327e-01	 7.292595911757217e-01	 1.227378734043959e+01
 9.160579553103223e-01	 7.381953923657890e-01	 1.204202625881080e+01
 9.088382102458218e-01	 7.470660827468745e-01	 1.180685315559534e+01
 9.015291102181738e-01	 7.558702987547489e-01	 1.157611259006087e+01
 8.941315790822691e-01	 7.646066931562584e-01	 1.134995615140113e+01
 8.866465674464368e-01	 7.732739357253688e-01	 1.112802459752066e+01
 8.790750522752150e-01	 7.818707139088330e-01	 1.090991570447421e+01
 8.714180364724508e-01	 7.903957334807954e-01	 1.069518369234537e+01
 8.060548631117155e-01	 7.311098670310472e-01	 9.222917690976882e+00
 7.988952689469325e-01	 7.389265666650634e-01	 8.952219720621887e+00
 7.916585263910276e-01	 7.466745853711559e-01	 8.679485517798827e+00
 7.843456193492238e-01	 7.543527937070280e-01	 8.411948572011170e+00
 7.769575539880575e-01	 7.619600814770303e-01	 8.149697248263566e+00
 7.694953582707912e-01	 7.694953582707911e-01	 7.892505962256120e+00
 7.619600814770304e-01	 7.769575539880578e-01	 7.640121495369554e+00
 7.543527937070278e-01	 7.843456193492236e-01	 7.392263300163436e+00
 7.466745853711558e-01	 7.916585263910276e-01	 7.148623915379893e+00
 7.389265666650633e-01	 7.988952689469326e-01	 6.908911506391819e+00
 7.311098670310470e-01	 8.060548631117156e-01	 6.673814281241914e+00
 8.125911276638866e-01	 7.370384057997872e-01	 9.406143557749065e+00
 8.053734766547415e-01	 7.449184907183373e-01	 9.138471147476352e+00
 7.980780516614322e-01	 7.527293377782888e-01	 8.874040719645388e+00
 7.907058445676367e-01	 7.604698083787359e-01	 8.613973023946791e+00
 7.832578696988616e-01	 7.681387833214931e-01	 8.358161555017578e+00
 7.757351633540875e-01	 7.757351633540879e-01	 8.106474616227990e+00
 7.681387833214931e-01	 7.832578696988619e-01	 7.858755354692117e+00
 7.604698083787358e-01	 7.907058445676368e-01	 7.614821902451891e+00
 7.527293377782883e-01	 7.980780516614322e-01	 7.374467626967826e+00
 7.449184907183369e-01	 8.053734766547417e-01	 7.137461493610239e+00
 7.370384057997871e-01	 8.125911276638867e-01	 6.903722772609999e+00
 8.191274088847291e-01	 7.429669596872678e-01	 9.576961149138603e+00
 8.118517008831698e-01	 7.509104300520323e-01	 9.316955629227230e+00
 8.044975933028083e-01	 7.587841056260951e-01	 9.060318381654833e+00
 7.970660860057953e-01	 7.665868386499206e-01	 8.807048249924511e+00
 7.895582014766284e-01	 7.743175009227624e-01	 8.557121351250514e+00
 7.819749843500270e-01	 7.819749843500269e-01	 8.310490855598191e+00
 7.743175009227623e-01	 7.895582014766283e-01	 8.067086866781020e+00
 7.665868386499205e-01	 7.970660860057954e-01	 7.826816409640662e+00
 7.587841056260950e-01	 8.044975933028085e-01	 7.589563526920577e+00
 7.509104300520321e-01	 8.118517008831699e-01	 7.355189488996696e+00
 7.429669596872678e-01	 8.191274088847291e-01	 7.123533119146756e+00
 8.256637049221497e-01	 7.488955270136476e-01	 9.740043944772198e+00
 8.183299397965803e-01	 7.569023829683370e-01	 9.488052888607221e+00
 8.109171494961495e-01	 7.648388871989545e-01	 9.238480085184497e+00
 8.034263418614996e-01	 7.727038827873124e-01	 8.991396594556964e+00
 7.958585475361363e-01	 7.804962325300847e-01	 8.746852745907784e+00
 7.882148194905371e-01	 7.882148194905371e-01	 8.504877772119325e+00
 7.804962325300848e-01	 7.958585475361365e-01	 8.265479546419277e+00
 7.727038827873124e-01	 8.034263418614997e-01	 8.028644425609821e+00
 7.648388871989543e-01	 8.109171494961497e-01	 7.794337203959753e+00
 7.569023829683370e-01	 8.183299397965804e-01	 7.562501181382773e+00
 7.488955270136475e-01	 8.256637049221496e-01	 7.333058349036916e+00
 8.322000139240548e-01	 7.548241060990848e-01	 9.896588154436630e+00
 8.248081915593343e-01	 7.628943477694412e-01	 9.651830162939582e+00
 8.173367184224497e-01	 7.708936807812456e-01	 9.408659071698002e+00
 8.097866103325501e-01	 7.788209390576423e-01	 9.167210350437102e+00
 8.021589060921652e-01	 7.866749763927070e-01	 8.927600336158708e+00
 7.944546670075465e-01	 7.944546670075465e-01	 8.689925731864427e+00
 7.866749763927070e-01	 8.021589060921653e-01	 8.454263207967891e+00
 7.788209390576420e-01	 8.097866103325502e-01	 8.220669111371407e+00
 7.708936807812454e-01	 8.173367184224500e-01	 7.989179286751927e+00
 7.628943477694410e-01	 8.248081915593346e-01	 7.759809014136576e+00
 7.548241060990847e-01	 8.322000139240550e-01	 7.532553066341477e+00
 8.387363340383519e-01	 7.607526952637379e-01	 1.004656376669132e+01
 8.312864543357945e-01	 7.688863227575329e-01	 9.808328448152162e+00
 8.237562982627029e-01	 7.769484846573474e-01	 9.570960444389005e+00
 8.161468896167464e-01	 7.849380057276407e-01	 9.334652023823114e+00
 8.084592753594937e-01	 7.928537307598756e-01	 9.099577527518376e+00
 8.006945251329849e-01	 8.006945251329849e-01	 8.865892740445457e+00
 7.928537307598753e-01	 8.084592753594936e-01	 8.633734366627930e+00
 7.849380057276407e-01	 8.161468896167464e-01	 8.403219613614262e+00
 7.769484846573469e-01	 8.237562982627030e-01	 8.174445891278811e+00
 7.688863227575328e-01	 8.312864543357947e-01	 7.947490629484260e+00
 7.607526952637380e-01	 8.387363340383518e-01	 7.722411218611263e+00
 8.452726634129473e-01	 7.666812928277663e-01	 1.018991673376753e+01
 8.377647262903229e-01	 7.748783062348019e-01	 9.957562632311408e+00
 8.301758871979027e-01	 7.830032971116390e-01	 9.725461372053424e+00
 8.225071779118891e-01	 7.910550810640383e-01	 9.493854599400407e+00
 8.147596535529009e-01	 7.990324938808365e-01	 9.262966850314781e+00
 8.069343920987798e-01	 8.069343920987799e-01	 9.033004802266522e+00
 7.990324938808367e-01	 8.147596535529011e-01	 8.804156631836110e+00
 7.910550810640383e-01	 8.225071779118890e-01	 8.576591483880611e+00
 7.830032971116386e-01	 8.301758871979027e-01	 8.350459057720094e+00
 7.748783062348014e-01	 8.377647262903228e-01	 8.125889315320151e+00
 7.666812928277663e-01	 8.452726634129474e-01	 7.902992315906771e+00
 8.518090001957481e-01	 7.726098971113272e-01	 1.032656903447822e+01
 8.442430055872812e-01	 7.808702965034366e-01	 1.009952163471219e+01
 8.365954834090430e-01	 7.890581164284990e-01	 9.872211295093084e+00
 8.288674734157780e-01	 7.971721633335661e-01	 9.644921804177041e+00
 8.210600388871664e-01	 8.052112640048374e-01	 9.417920272702753e+00
 8.131742661368601e-01	 8.131742661368601e-01	 9.191456274137897e+00
 8.052112640048373e-01	 8.210600388871666e-01	 8.965761093223581e+00
 7.971721633335662e-01	 8.288674734157782e-01	 8.741047088883773e+00
 7.890581164284987e-01	 8.365954834090429e-01	 8.517507177419176e+00
 7.808702965034362e-01	 8.442430055872814e-01	 8.295314441390001e+00
 7.726098971113273e-01	 8.518090001957482e-01	 8.074621869056713e+00
 8.583453425346611e-01	 7.785385064345802e-01	 1.045641874604477e+01
 8.507212903910316e-01	 7.868622918656261e-01	 1.023416855023137e+01
 8.430150850771172e-01	 7.951129408923064e-01	 1.001123213354348e+01
 8.352277743262138e-01	 8.032892508029551e-01	 9.787928370564799e+00
 8.273604295770690e-01	 8.113900393811238e-01	 9.564559510412940e+00
 8.194141454791547e-01	 8.194141454791545e-01	 9.341410213556234e+00
 8.113900393811235e-01	 8.273604295770690e-01	 9.118746699538425e+00
 8.032892508029549e-01	 8.352277743262141e-01	 8.896816012443148e+00
 7.951129408923062e-01	 8.430150850771174e-01	 8.675845410462921e+00
 7.868622918656258e-01	 8.507212903910317e-01	 8.456041885418319e+00
 7.785385064345803e-01	 8.583453425346611e-01	 8.237591817509108e+00
 8.648816885775930e-01	 7.844671191176835e-01	 1.057934012437361e+01
 8.571995788659357e-01	 7.928542906235593e-01	 1.036144079867278e+01
 8.494346903831198e-01	 8.011677687874404e-01	 1.014251849702499e+01
 8.415880788409963e-01	 8.094063417389350e-01	 9.922920298693448e+00
 8.336608238373878e-01	 8.175688182589426e-01	 9.702976333417222e+00
 8.256540283575917e-01	 8.256540283575919e-01	 9.482998721938646e+00
 8.175688182589423e-01	 8.336608238373877e-01	 9.263280630911716e+00
 8.094063417389347e-01	 8.415880788409962e-01	 9.044095449486138e+00
 8.011677687874402e-01	 8.494346903831200e-01	 8.825696094380167e+00
 7.928542906235592e-01	 8.571995788659362e-01	 8.608314449718144e+00
 7.844671191176832e-01	 8.648816885775930e-01	 8.392160947331066e+00
 8.714180364724508e-01	 7.903957334807954e-01	 1.069518369234536e+01
 8.636778691763565e-01	 7.988462910794256e-01	 1.048125027884724e+01
 8.558542975080441e-01	 8.072225983982798e-01	 1.026603789652000e+01
 8.479483851579257e-01	 8.155234344082373e-01	 1.004991511800415e+01
 8.399612198829021e-01	 8.237475988875402e-01	 9.833232869673871e+00
 8.318939130041005e-01	 8.318939130041005e-01	 9.616323283081677e+00
 8.237475988875400e-01	 8.399612198829022e-01	 9.399498664817829e+00
 8.155234344082370e-01	 8.479483851579258e-01	 9.183050592539452e+00
 8.072225983982796e-01	 8.558542975080441e-01	 8.967249144428335e+00
 7.988462910794255e-01	 8.636778691763568e-01	 8.752342268787446e+00
 7.903957334807953e-01	 8.714180364724509e-01	 8.538555299879908e+00
 7.311098670310470e-01	 8.060548631117156e-01	 6.673814281241915e+00
 7.232242906541625e-01	 8.131375427964316e-01	 6.442972253740660e+00
 7.152723381229562e-01	 8.201411350666139e-01	 6.216001946246399e+00
 7.072552065862487e-01	 8.270647122440252e-01	 5.992929840935279e+00
 6.991741101455531e-01	 8.339073706440872e-01	 5.773749822558392e+00
 6.910302792495729e-01	 8.406682309615087e-01	 5.558427998689255e+00
 6.828249600784644e-01	 8.473464386377187e-01	 5.346907656619318e+00
 6.745594139185006e-01	 8.539411642097847e-01	 5.139114322934567e+00
 6.662349165277873e-01	 8.604516036405299e-01	 4.934960891445115e+00
 6.578527574936991e-01	 8.668769786295902e-01	 4.734352785010838e+00
 6.494142395826941e-01	 8.732165369051680e-01	 4.537193116876153e+00
 7.370384057997871e-01	 8.125911276638867e-01	 6.903722772609999e+00
 7.290888856198445e-01	 8.197312404966914e-01	 6.673942763833745e+00
 7.210724510442204e-01	 8.267916245984521e-01	 6.448117948501931e+00
 7.129903089293581e-01	 8.337713447684270e-01	 6.226235594682276e+00
 7.048436832218647e-01	 8.406694899940956e-01	 6.008248429273741e+00
 6.966338143480950e-01	 8.474851738399161e-01	 5.794079787138107e+00
 6.883619585934224e-01	 8.542175348177372e-01	 5.583628904263980e+00
 6.800293874718317e-01	 8.608657367385442e-01	 5.376776319105789e+00
 6.716373870864928e-01	 8.674289690452557e-01	 5.173389345864469e+00
 6.631872574819845e-01	 8.739064471263016e-01	 4.973327583331812e+00
 6.546803119888379e-01	 8.802974126097414e-01	 4.776448423006631e+00
 7.429669596872678e-01	 8.191274088847291e-01	 7.123533119146756e+00
 7.349534955411552e-01	 8.263249550120821e-01	 6.894753385805194e+00
 7.268725787566203e-01	 8.334421310902453e-01	 6.669945975686034e+00
 7.187254258977582e-01	 8.404779943959533e-01	 6.449128287025196e+00
 7.105132707562940e-01	 8.474316265887258e-01	 6.232213988848669e+00
 7.022373637362609e-01	 8.543021341027530e-01	 6.019085646605357e+00
 6.938989712282770e-01	 8.610886485202850e-01	 5.809600361855830e+00
 6.854993749740658e-01	 8.677903269262097e-01	 5.603595525929617e+00
 6.770398714218884e-01	 8.744063522435251e-01	 5.400894649338307e+00
 6.685217710735558e-01	 8.809359335494390e-01	 5.201313228579021e+00
 6.599463978237010e-01	 8.873783063718549e-01	 5.004664612048457e+00
 7.488955270136475e-01	 8.256637049221496e-01	 7.333058349036916e+00
 7.408181187563816e-01	 8.329186844742316e-01	 7.105919589818599e+00
 7.326727196167282e-01	 8.400926526575224e-01	 6.882010922053875e+00
 7.244605558664557e-01	 8.471846592262179e-01	 6.662143076794235e+00
 7.161828711424310e-01	 8.541937785118615e-01	 6.446192750441723e+00
 7.078409258263892e-01	 8.611191098183603e-01	 6.234003567362958e+00
 6.994359964142151e-01	 8.679597777983505e-01	 6.025392233530492e+00
 6.909693748753966e-01	 8.747149328106090e-01	 5.820154653671826e+00
 6.824423680033107e-01	 8.813837512581987e-01	 5.618072128220429e+00
 6.738562967570241e-01	 8.879654359070915e-01	 5.418917589642759e+00
 6.652124955952956e-01	 8.944592161850218e-01	 5.222461837798018e+00
 7.548241060990847e-01	 8.322000139240550e-01	 7.532553066341482e+00
 7.466827536038124e-01	 8.395124270147665e-01	 7.307461649937643e+00
 7.384728719811161e-01	 8.467431874158121e-01	 7.084805639705309e+00
 7.301956972104575e-01	 8.538913373588336e-01	 6.865783699047102e+00
 7.218524827738650e-01	 8.609559438473855e-01	 6.650700201978078e+00
 7.134444990307955e-01	 8.679360990550783e-01	 6.439361484466435e+00
 7.049730325824233e-01	 8.748309207049224e-01	 6.231545416929495e+00
 6.964393856260189e-01	 8.816395524295694e-01	 6.027007896672224e+00
 6.878448753000955e-01	 8.883611641121356e-01	 5.825489424418281e+00
 6.791908330209988e-01	 8.949949522073469e-01	 5.626721722362138e+00
 6.704786038116349e-01	 9.015401400427563e-01	 5.430434351262589e+00
 7.607526952637380e-01	 8.387363340383518e-01	 7.722411218611262e+00
 7.525473984217361e-01	 8.461061807653149e-01	 7.499371324141420e+00
 7.442730342063568e-01	 8.533937334806437e-01	 7.278630757713555e+00
 7.359308483047710e-01	 8.605980268934145e-01	 7.060521524937064e+00
 7.275221040441863e-01	 8.677181206791824e-01	 6.846220157401574e+00
 7.190480817617986e-01	 8.747530998812484e-01	 6.635656393053193e+00
 7.105100781640874e-01	 8.817020752929882e-01	 6.428570647053692e+00
 7.019094056761256e-01	 8.885641838209178e-01	 6.224680106112229e+00
 6.932473917815797e-01	 8.953385888281963e-01	 6.023685697281532e+00
 6.845253783540911e-01	 9.020244804582935e-01	 5.825279100589288e+00
 6.757447209807317e-01	 9.086210759385727e-01	 5.629149760803513e+00
 7.666812928277663e-01	 8.452726634129474e-01	 7.902992315906767e+00
 7.584120515484405e-01	 8.526999438575036e-01	 7.682022337437959e+00
 7.500732046490222e-01	 8.600442889675458e-01	 7.463275218418294e+00
 7.416660075244033e-01	 8.673047259295743e-01	 7.246783566013490e+00
 7.331917333469850e-01	 8.744803070911350e-01	 7.033203831306526e+00
 7.246516724317160e-01	 8.815701103652124e-01	 6.823353450783690e+00
 7.160471315903953e-01	 8.885732396155367e-01	 6.616947627034675e+00
 7.073794334759114e-01	 8.954888250224813e-01	 6.413665949488472e+00
 6.986499159170994e-01	 9.023160234292408e-01	 6.213170812004474e+00
 6.898599312449114e-01	 9.090540186680197e-01	 6.015114833598329e+00
 6.810108456105990e-01	 9.157020218659847e-01	 5.819148278480851e+00
 7.726098971113273e-01	 8.518090001957482e-01	 8.074621869056715e+00
 7.642767113222145e-01	 8.592937144229608e-01	 7.855754430268979e+00
 7.558733816656837e-01	 8.666948519920472e-01	 7.639032197556006e+00
 7.474011732443611e-01	 8.740114325669259e-01	 7.424460913582617e+00
 7.388613690758508e-01	 8.812425011671269e-01	 7.212068901641540e+00
 7.302552694528648e-01	 8.883871285753102e-01	 7.002885068131363e+00
 7.215841912925328e-01	 8.954444117255559e-01	 6.797124146538815e+00
 7.128494674755699e-01	 9.024134740720874e-01	 6.594429057518047e+00
 7.040524461759912e-01	 9.092934659381283e-01	 6.394424515275898e+00
 6.951944901820696e-01	 9.160835648446135e-01	 6.196724870580162e+00
 6.862769762092491e-01	 9.227829758185060e-01	 6.000941953352825e+00
 7.785385064345803e-01	 8.583453425346611e-01	 8.237591817509108e+00
 7.701413760813457e-01	 8.658874905933132e-01	 8.020873784808790e+00
 7.616735636129139e-01	 8.733454206696766e-01	 7.806222942306270e+00
 7.531363438396516e-01	 8.807181449050833e-01	 7.593620265784040e+00
 7.445310096243735e-01	 8.880047009910416e-01	 7.383028868453120e+00
 7.358588712375627e-01	 8.952041525798839e-01	 7.174649987182828e+00
 7.271212557016866e-01	 9.023155896760349e-01	 6.969515188478850e+00
 7.183195061252952e-01	 9.093381290075632e-01	 6.767401159160475e+00
 7.094549810275907e-01	 9.162709143777187e-01	 6.567895598871532e+00
 7.005290536541765e-01	 9.231131169961628e-01	 6.370575192929108e+00
 6.915431112846953e-01	 9.298639357896511e-01	 6.175013892436430e+00
 7.844671191176832e-01	 8.648816885775930e-01	 8.392160947331067e+00
 7.760060441641224e-01	 8.724812705001884e-01	 8.177653441222494e+00
 7.674737488472851e-01	 8.799959931159634e-01	 7.965135578718378e+00
 7.588715176852819e-01	 8.874248610436598e-01	 7.754565585520912e+00
 7.502006533861428e-01	 8.947669046467623e-01	 7.545882374615879e+00
 7.414624761981264e-01	 9.020211804472739e-01	 7.339006083988606e+00
 7.326583232490430e-01	 9.091867715199604e-01	 7.134502024665095e+00
 7.237895478752813e-01	 9.162627878667361e-01	 6.932981205398301e+00
 7.148575189412353e-01	 9.232483667708724e-01	 6.734001051840864e+00
 7.058636201498424e-01	 9.301426731307557e-01	 6.537100994975029e+00
 6.968092493449500e-01	 9.369448997729340e-01	 6.341817469994454e+00
 7.903957334807953e-01	 8.714180364724509e-01	 8.538555299879910e+00
 7.818707139088333e-01	 8.790750522752145e-01	 8.326333704412509e+00
 7.732739357253692e-01	 8.866465674464368e-01	 8.116025516559398e+00
 7.646066931562587e-01	 8.941315790822688e-01	 7.907568150389499e+00
 7.558702987547491e-01	 9.015291102181732e-01	 7.700878182850950e+00
 7.470660827468745e-01	 9.088382102458219e-01	 7.495851909263067e+00
 7.381953923657893e-01	 9.160579553103224e-01	 7.292431300993642e+00
 7.292595911757221e-01	 9.231874486874327e-01	 7.091534482380572e+00
 7.202600583862604e-01	 9.302258211404485e-01	 6.893125201899840e+00
 7.111981881576781e-01	 9.371722312564811e-01	 6.696705853787203e+00
 7.020753888980266e-01	 9.440258657618683e-01	 6.501775525776135e+00
 6.494142395826941e-01	 8.732165369051680e-01	 4.537193116876155e+00
 6.409221256341137e-01	 8.794684975880961e-01	 4.344870595289327e+00
 6.323763084981971e-01	 8.856332494952077e-01	 4.158533924923827e+00
 6.237781210747034e-01	 8.917101238651706e-01	 3.977832462884181e+00
 6.151289068041612e-01	 8.976984788943336e-01	 3.802426640175765e+00
 6.064300189927078e-01	 9.035976999280244e-01	 3.631992965945842e+00
 5.976828201333925e-01	 9.094071996317421e-01	 3.466228844630897e+00
 5.888886812246272e-01	 9.151264181422003e-01	 3.304857177351006e+00
 5.800489810864830e-01	 9.207548231981942e-01	 3.147630720490097e+00
 5.711651056755123e-01	 9.262919102513077e-01	 2.994336176132461e+00
 5.622384473987841e-01	 9.317372025564835e-01	 2.844797990905732e+00
 6.546803119888379e-01	 8.802974126097414e-01	 4.776448423006629e+00
 6.461193358501361e-01	 8.866000701753367e-01	 4.584033107313017e+00
 6.375042210472364e-01	 8.928148117928264e-01	 4.397163518195661e+00
 6.288363112883149e-01	 8.989409632779295e-01	 4.215505374808752e+00
 6.201169609077938e-01	 9.049778776226468e-01	 4.038736868822637e+00
 6.113475341857024e-01	 9.109249351881052e-01	 3.866553904759613e+00
 6.025294046634784e-01	 9.167815438771442e-01	 3.698675142945100e+00
 5.936639544568926e-01	 9.225471392865776e-01	 3.534846814956499e+00
 5.847525735667993e-01	 9.282211848391264e-01	 3.374847283120936e+00
 5.757966591884045e-01	 9.338031718950218e-01	 3.218491317437734e+00
 5.667976150197382e-01	 9.392926198433107e-01	 3.065634065269644e+00
 6.599463978237010e-01	 8.873783063718549e-01	 5.004664612048459e+00
 6.513165593192055e-01	 8.937316609494235e-01	 4.812127604744080e+00
 6.426321466725446e-01	 8.999963924047993e-01	 4.624720606709944e+00
 6.338945144003423e-01	 9.061718211307391e-01	 4.442124952506637e+00
 6.251050277309407e-01	 9.122572949148787e-01	 4.264036005146057e+00
 6.162650619182922e-01	 9.182521891341345e-01	 4.090168644268810e+00
 6.073760015522525e-01	 9.241559069286699e-01	 3.920262546082769e+00
 5.984392398659804e-01	 9.299678793553903e-01	 3.754087223419493e+00
 5.894561780411440e-01	 9.356875655209290e-01	 3.591446796016673e+00
 5.804282245116336e-01	 9.413144526941547e-01	 3.432184463051231e+00
 5.713567942664680e-01	 9.468480563982064e-01	 3.276186652012250e+00
 6.652124955952956e-01	 8.944592161850218e-01	 5.222461837798018e+00
 6.565137945688587e-01	 9.008632678894991e-01	 5.029787609325111e+00
 6.477600839213060e-01	 9.071779892960974e-01	 4.841854547084413e+00
 6.389527289777324e-01	 9.134026953745989e-01	 4.658358728145178e+00
 6.300931058604299e-01	 9.195367287082650e-01	 4.479011970694772e+00
 6.211826007972980e-01	 9.255794596897858e-01	 4.303547582371213e+00
 6.122226094266374e-01	 9.315302866966412e-01	 4.131725888926485e+00
 6.032145360990211e-01	 9.373886362458119e-01	 3.963339509985843e+00
 5.941597931769588e-01	 9.431539631278388e-01	 3.798218350508420e+00
 5.850598003330498e-01	 9.488257505202145e-01	 3.636234278564995e+00
 5.759159838473318e-01	 9.544035100801623e-01	 3.477305462212185e+00
 6.704786038116349e-01	 9.015401400427563e-01	 5.430434351262589e+00
 6.617110401266332e-01	 9.079948889747035e-01	 5.237621639922424e+00
 6.528880313407022e-01	 9.143596004316898e-01	 5.049190532491695e+00
 6.440109535874335e-01	 9.206335839605108e-01	 4.864850846514794e+00
 6.350811938830891e-01	 9.268161769400405e-01	 4.684330009537035e+00
 6.261001494295401e-01	 9.329067447787348e-01	 4.507379080485903e+00
 6.170692269135550e-01	 9.389046810913773e-01	 4.333778539361282e+00
 6.079898418031454e-01	 9.448094078550191e-01	 4.163343810346642e+00
 5.988634176416842e-01	 9.506203755440931e-01	 3.995930485379329e+00
 5.896913853405055e-01	 9.563370632447107e-01	 3.831439217323789e+00
 5.804751824706880e-01	 9.619589787481722e-01	 3.669820254171246e+00
 6.757447209807317e-01	 9.086210759385727e-01	 5.629149760803514e+00
 6.669082945200654e-01	 9.151265221841794e-01	 5.436212503362322e+00
 6.580159874779168e-01	 9.215412237765472e-01	 5.247328917572462e+00
 6.490691867963929e-01	 9.278644848394750e-01	 5.062221427318902e+00
 6.400692903857462e-01	 9.340956375474406e-01	 4.880632091144544e+00
 6.310177064218390e-01	 9.402340423246556e-01	 4.702328910159717e+00
 6.219158526399281e-01	 9.462790880231998e-01	 4.527111891643162e+00
 6.127651556254828e-01	 9.522301920801834e-01	 4.354818831718905e+00
 6.035670501027616e-01	 9.580868006539273e-01	 4.185330782513341e+00
 5.943229782218520e-01	 9.638483887391527e-01	 4.018577171410179e+00
 5.850343888448946e-01	 9.695144602612272e-01	 3.854540542402410e+00
 6.810108456105990e-01	 9.157020218659847e-01	 5.819148278480850e+00
 6.721055562766927e-01	 9.222581654970681e-01	 5.626116571273965e+00
 6.631439508801326e-01	 9.287228572956394e-01	 5.436844529020925e+00
 6.541274271715580e-01	 9.350953959624919e-01	 5.251065912667802e+00
 6.450573939552288e-01	 9.413751084677004e-01	 5.068536297872823e+00
 6.359352703810152e-01	 9.475613502512236e-01	 4.889039683529754e+00
 6.267624852326787e-01	 9.536535054024289e-01	 4.712394842752639e+00
 6.175404762131650e-01	 9.596509868184810e-01	 4.538461377907439e+00
 6.082706892276323e-01	 9.655532363415797e-01	 4.367145443396902e+00
 5.989545776649410e-01	 9.713597248750493e-01	 4.198405102220130e+00
 5.895936016783102e-01	 9.770699524783206e-01	 4.032255284828721e+00
 6.862769762092491e-01	 9.227829758185060e-01	 6.000941953352825e+00
 6.773028239240513e-01	 9.293898168925111e-01	 5.807863043700843e+00
 6.682719200945323e-01	 9.359044989539361e-01	 5.618285962623801e+00
 6.591856732798765e-01	 9.423263152805633e-01	 5.431954400578231e+00
 6.500455031783646e-01	 9.486545876380549e-01	 5.248636197875205e+00
 6.408528399138891e-01	 9.548886664821129e-01	 5.068130268519874e+00
 6.316091233187295e-01	 9.610279311393857e-01	 4.890273252654648e+00
 6.223158022133211e-01	 9.670717899670854e-01	 4.714945857326052e+00
 6.129743336837374e-01	 9.730196804912860e-01	 4.542078847506573e+00
 6.035861823576238e-01	 9.788710695239099e-01	 4.371658651736836e+00
 5.941528196792930e-01	 9.846254532584438e-01	 4.203732549367480e+00
 6.915431112846953e-01	 9.298639357896511e-01	 6.175013892436430e+00
 6.825000959896785e-01	 9.365214743496496e-01	 5.981953200197675e+00
 6.733998936682988e-01	 9.430861467164073e-01	 5.792174867484785e+00
 6.642439236882958e-01	 9.495572407446882e-01	 5.605430965236979e+00
 6.550336166419817e-01	 9.559340729957396e-01	 5.421500204236674e+00
 6.457704136272808e-01	 9.622159889409981e-01	 5.240195189592091e+00
 6.364557655250028e-01	 9.684023631443908e-01	 5.061369389333402e+00
 6.270911322730816e-01	 9.744925994231711e-01	 4.884923774892344e+00
 6.176779821385179e-01	 9.804861309872830e-01	 4.710813093556471e+00
 6.082177909877524e-01	 9.863824205572429e-01	 4.539051735534307e+00
 5.987120415562011e-01	 9.921809604605897e-01	 4.369719161007005e+00
 6.968092493449500e-01	 9.369448997729340e-01	 6.341817469994454e+00
 6.876973710011114e-01	 9.436531358476259e-01	 6.148859639087698e+00
 6.785278701486148e-01	 9.502677985480235e-01	 5.959005218124402e+00
 6.693021769637635e-01	 9.567881703058687e-01	 5.772012964739702e+00
 6.600217329329079e-01	 9.632135624779891e-01	 5.587670921066127e+00
 6.506879901280118e-01	 9.695433155515548e-01	 5.405804014828671e+00
 6.413024104784212e-01	 9.757767993277645e-01	 5.226281359414533e+00
 6.318664650395774e-01	 9.819134130839124e-01	 5.049023208658760e+00
 6.223816332594149e-01	 9.879525857138078e-01	 4.874007524520646e+00
 6.128494022431772e-01	 9.938937758465576e-01	 4.701276118487780e+00
 6.032712660173928e-01	 9.997364719437507e-01	 4.530940330414428e+00
 7.020753888980266e-01	 9.440258657618683e-01	 6.501775525776136e+00
 6.928946474858869e-01	 9.507847993655812e-01	 6.309025505512833e+00
 6.836558480826637e-01	 9.574494524137538e-01	 6.119242575103033e+00
 6.743604316732270e-01	 9.640191019151049e-01	 5.932190336972376e+00
 6.650098506379702e-01	 9.704930540220392e-01	 5.747664477244273e+00
 6.556055680229015e-01	 9.768706442374568e-01	 5.565500730071833e+00
 6.461490568059066e-01	 9.831512375998281e-01	 5.385582525143056e+00
 6.366417991599389e-01	 9.893342288464843e-01	 5.207848271991343e+00
 6.270852857138696e-01	 9.954190425550969e-01	 5.032298237291156e+00
 6.174810148117510e-01	 1.001405133263363e+00	 4.859000974105011e+00
 6.078304917712264e-01	 1.007291985566919e+00	 4.688099265049591e+00
 5.622384473987841e-01	 9.317372025564835e-01	 2.844797990905732e+00
 5.532704046029903e-01	 9.370902514685463e-01	 2.699245684201282e+00
 5.442623814031892e-01	 9.423506371741205e-01	 2.557904148517971e+00
 5.352157864530174e-01	 9.475179680493709e-01	 2.420656112917636e+00
 5.261320320837845e-01	 9.525918804443393e-01	 2.287432670696401e+00
 5.170125336241201e-01	 9.575720386728107e-01	 2.158215436089728e+00
 5.078587087228544e-01	 9.624581349827813e-01	 2.033038314417653e+00
 4.986719766757564e-01	 9.672498895077365e-01	 1.911988877767628e+00
 4.894537577567521e-01	 9.719470501989690e-01	 1.795209340737206e+00
 4.802054725542244e-01	 9.765493927391885e-01	 1.682897133179611e+00
 4.709285413129862e-01	 9.810567204377044e-01	 1.575305069306989e+00
 5.667976150197382e-01	 9.392926198433107e-01	 3.065634065269644e+00
 5.577568507466210e-01	 9.446890764007799e-01	 2.916515895416130e+00
 5.486757818700376e-01	 9.499921183498042e-01	 2.771355077899585e+00
 5.395558284663587e-01	 9.552013508908862e-01	 2.630043164599009e+00
 5.303984143194497e-01	 9.603164074252436e-01	 2.492523197834042e+00
 5.212049662348012e-01	 9.653369495445931e-01	 2.358791989225092e+00
 5.119769133569183e-01	 9.702626670013813e-01	 2.228901990922623e+00
 5.027156864906011e-01	 9.750932776596664e-01	 2.102962750821873e+00
 4.934227174267368e-01	 9.798285274268859e-01	 1.981141945927205e+00
 4.840994382732201e-01	 9.844681901667690e-01	 1.863665990583755e+00
 4.747472807915894e-01	 9.890120675936659e-01	 1.750820218815601e+00
 5.713567942664680e-01	 9.468480563982064e-01	 3.276186652012250e+00
 5.622433083306285e-01	 9.522879207118241e-01	 3.123702652847824e+00
 5.530891935910524e-01	 9.576336190131246e-01	 2.974943080589088e+00
 5.438958815468704e-01	 9.628847533269371e-01	 2.829810546126015e+00
 5.346648074345299e-01	 9.680409541056474e-01	 2.688262473627267e+00
 5.253974095364100e-01	 9.731018802188972e-01	 2.550313504896223e+00
 5.160951284927170e-01	 9.780672189235762e-01	 2.416037474087421e+00
 5.067594066173073e-01	 9.829366858143070e-01	 2.285568943901973e+00
 4.973916872180574e-01	 9.877100247546671e-01	 2.159104297058125e+00
 4.879934139223994e-01	 9.923870077893987e-01	 2.036902379510700e+00
 4.785660300086246e-01	 9.969674350378890e-01	 1.919284694554533e+00
 5.759159838473318e-01	 9.544035100801623e-01	 3.477305462212185e+00
 5.667297760839711e-01	 9.598867822483672e-01	 3.321687650253943e+00
 5.575026153158813e-01	 9.652751369986767e-01	 3.169582224488984e+00
 5.482359444649775e-01	 9.705681731802419e-01	 3.020904960310953e+00
 5.389312102203119e-01	 9.757655182966071e-01	 2.875629970917573e+00
 5.295898623411749e-01	 9.808668284953329e-01	 2.733792240880774e+00
 5.202133529634978e-01	 9.858717885377437e-01	 2.595489707103018e+00
 5.108031359102176e-01	 9.907801117490229e-01	 2.460884877761234e+00
 5.013606660062222e-01	 9.955915399488822e-01	 2.330205982649788e+00
 4.918873983985063e-01	 1.000305843363072e+00	 2.203747651150446e+00
 4.823847878821362e-01	 1.004922820516011e+00	 2.081871116846747e+00
 5.804751824706880e-01	 9.619589787481722e-01	 3.669820254171246e+00
 5.712162527356068e-01	 9.674856588570964e-01	 3.511332818412404e+00
 5.619160457941728e-01	 9.729166701410574e-01	 3.356166946444034e+00
 5.525760159911045e-01	 9.782516082735183e-01	 3.204253552002463e+00
 5.431976214680816e-01	 9.834900978091780e-01	 3.055585618050348e+00
 5.337823234613233e-01	 9.886317921735067e-01	 2.910220863663225e+00
 5.243315856025086e-01	 9.936763736322622e-01	 2.768283934333424e+00
 5.148468732236742e-01	 9.986235532411809e-01	 2.629968105752465e+00
 5.053296526667403e-01	 1.003473070776103e+00	 2.495536494087765e+00
 4.957813905982844e-01	 1.008224694643784e+00	 2.365322768719599e+00
 4.862035533301683e-01	 1.012878221773671e+00	 2.239731366341939e+00
 5.850343888448946e-01	 9.695144602612272e-01	 3.854540542402410e+00
 5.757027370144936e-01	 9.750845483846995e-01	 3.693480094178100e+00
 5.663294837755748e-01	 9.805582162748622e-01	 3.535571882801943e+00
 5.569160948956775e-01	 9.859350564294853e-01	 3.380763801463619e+00
 5.474640399691242e-01	 9.912146904544148e-01	 3.229069756260567e+00
 5.379747917090835e-01	 9.963967690530293e-01	 3.080572470895345e+00
 5.284498252429969e-01	 1.001480971995510e+00	 2.935425789795185e+00
 5.188906174120189e-01	 1.006467008068145e+00	 2.793856469154193e+00
 5.092986460751201e-01	 1.011354615002900e+00	 2.656165448498734e+00
 4.996753894184770e-01	 1.016143559387529e+00	 2.522728598474793e+00
 4.900223252707658e-01	 1.020833636556505e+00	 2.393996943637032e+00
 5.895936016783102e-01	 9.770699524783206e-01	 4.032255284828721e+00
 5.801892276495898e-01	 9.826834486778639e-01	 3.868951166266129e+00
 5.707429280097351e-01	 9.881997732346868e-01	 3.708651675146355e+00
 5.612561799491207e-01	 9.936185154708602e-01	 3.551323391300156e+00
 5.517304645147261e-01	 9.989392940433741e-01	 3.397003068920989e+00
 5.421672658966834e-01	 1.004161756933508e+00	 3.245800583969445e+00
 5.325680707182103e-01	 1.009285581415867e+00	 3.097901353944204e+00
 5.229343673295942e-01	 1.014310474007282e+00	 2.953568218939702e+00
 5.132676451068702e-01	 1.019236170395843e+00	 2.813142776158040e+00
 5.035693937558281e-01	 1.024062435350301e+00	 2.677046163298183e+00
 4.938411026219721e-01	 1.028789062610151e+00	 2.545779289467632e+00
 5.941528196792930e-01	 9.846254532584438e-01	 4.203732549367480e+00
 5.846757233698534e-01	 9.902823575832775e-01	 4.038547199020091e+00
 5.751563772463021e-01	 9.958413388551269e-01	 3.876240752545151e+00
 5.655962699218595e-01	 1.001301983220362e+00	 3.716800048365649e+00
 5.559968938961736e-01	 1.006663906387111e+00	 3.560286484167631e+00
 5.463597448363504e-01	 1.011926753614553e+00	 3.406839112312886e+00
 5.366863208613966e-01	 1.017090199681709e+00	 3.256677180471991e+00
 5.269781218307426e-01	 1.022153948835957e+00	 3.110102105794956e+00
 5.172366486374987e-01	 1.027117734721504e+00	 2.967498874336894e+00
 5.074634025070810e-01	 1.031981320288095e+00	 2.829336860869397e+00
 4.976598843018319e-01	 1.036744497680246e+00	 2.696170067590578e+00
 5.987120415562011e-01	 9.921809604605897e-01	 4.369719161007005e+00
 5.891622229042429e-01	 9.978812729476279e-01	 4.203048535341673e+00
 5.795698302349237e-01	 1.003482910970779e+00	 4.039153091564788e+00
 5.699363635843187e-01	 1.008985457500709e+00	 3.878041361980653e+00
 5.602633269047524e-01	 1.014388525296681e+00	 3.719801052328315e+00
 5.505522273403126e-01	 1.019691756895771e+00	 3.564602290917169e+00
 5.408045745058032e-01	 1.024894824581416e+00	 3.412700294716129e+00
 5.310218797698059e-01	 1.029997430331535e+00	 3.264437440082061e+00
 5.212056555425149e-01	 1.034999305746452e+00	 3.120244729378497e+00
 5.113574145689793e-01	 1.039900211956906e+00	 2.980642648309579e+00
 5.014786692283897e-01	 1.044699939512429e+00	 2.846241412343739e+00
 6.032712660173928e-01	 9.997364719437507e-01	 4.530940330414428e+00
 5.936487249817157e-01	 1.005480192617603e+00	 4.363214379894110e+00
 5.839832857252478e-01	 1.011124487416240e+00	 4.198181955239035e+00
 5.742764597069232e-01	 1.016668936134619e+00	 4.035874579725534e+00
 5.645297623317486e-01	 1.022113148583140e+00	 3.876407799488709e+00
 5.547447122207984e-01	 1.027456764576772e+00	 3.719984592518607e+00
 5.449228304846778e-01	 1.032699453903367e+00	 3.566898165188144e+00
 5.350656400011267e-01	 1.037840916271382e+00	 3.417534123338330e+00
 5.251746646974269e-01	 1.042880881237259e+00	 3.272372008688448e+00
 5.152514288382668e-01	 1.047819108112727e+00	 3.131986195077172e+00
 5.052974563196894e-01	 1.052655385852336e+00	 2.997046142758738e+00
 6.078304917712264e-01	 1.007291985566919e+00	 4.688099265049591e+00
 5.981352283312307e-01	 1.013079114439890e+00	 4.519782463617696e+00
 5.883967424669230e-01	 1.018766066026104e+00	 4.354099612098477e+00
 5.786165570600984e-01	 1.024352416944811e+00	 4.191106381988562e+00
 5.687961989684477e-01	 1.029837774057543e+00	 4.030947558456525e+00
 5.589371982900345e-01	 1.035221774457163e+00	 3.873860615769381e+00
 5.490410876312684e-01	 1.040504085435938e+00	 3.720178649635910e+00
 5.391094013790468e-01	 1.045684404432863e+00	 3.570332652811366e+00
 5.291436749777435e-01	 1.050762458960495e+00	 3.424853124221773e+00
 5.191454442116871e-01	 1.055738006511553e+00	 3.284371005782559e+00
 5.091162444937753e-01	 1.060610834445606e+00	 3.149617944979646e+00
 4.709285413129862e-01	 9.810567204377044e-01	 1.575305069306988e+00
 4.616227991659323e-01	 9.854696060013456e-01	 1.471791629168715e+00
 4.522912388269320e-01	 9.897871325870814e-01	 1.371506448882255e+00
 4.429352758886508e-01	 9.940091848336716e-01	 1.274414196171430e+00
 4.335563230520154e-01	 9.981356744262322e-01	 1.180528693468619e+00
 4.241557895045047e-01	 1.002166539904589e+00	 1.089911876334446e+00
 4.147350803073237e-01	 1.006101746455231e+00	 1.002672384829594e+00
 4.052955957919376e-01	 1.009941285687257e+00	 9.189638013296442e-01
 3.958387309664236e-01	 1.013685175392733e+00	 8.389825501136099e-01
 3.863658749320805e-01	 1.017333459291891e+00	 7.629654757512370e-01
 3.768784103107179e-01	 1.020886206763610e+00	 6.911871189041268e-01
 4.747472807915894e-01	 9.890120675936659e-01	 1.750820218815600e+00
 4.653660787778535e-01	 9.934607370584575e-01	 1.641921130950728e+00
 4.559588492136603e-01	 9.978132742834666e-01	 1.536105651015234e+00
 4.465270191706391e-01	 1.002069562971986e+00	 1.433418224342208e+00
 4.370720128052314e-01	 1.006229514092981e+00	 1.333956883027497e+00
 4.275952507319404e-01	 1.010293065687895e+00	 1.237872052122699e+00
 4.180981494055364e-01	 1.014260182660907e+00	 1.145364967737051e+00
 4.085821205126959e-01	 1.018130856553068e+00	 1.056685721329677e+00
 3.990485703735407e-01	 1.021905105300711e+00	 9.721309464058550e-01
 3.894988993535169e-01	 1.025582972978587e+00	 8.920411656200975e-01
 3.799345012860394e-01	 1.029164529528158e+00	 8.167978179521516e-01
 4.785660300086246e-01	 9.969674350378890e-01	 1.919284694554535e+00
 4.691093679358498e-01	 1.001451888495082e+00	 1.805535418213506e+00
 4.596264689535641e-01	 1.005839436448636e+00	 1.694766877198186e+00
 4.501187716123904e-01	 1.010129961666376e+00	 1.587074786429211e+00
 4.405877115243157e-01	 1.014323374401120e+00	 1.482612576915149e+00
 4.310347207308977e-01	 1.018419612195926e+00	 1.381590094681277e+00
 4.214612270805013e-01	 1.022418639672665e+00	 1.284271889574105e+00
 4.118686536150452e-01	 1.026320448304341e+00	 1.190975108962683e+00
 4.022584179667253e-01	 1.030125056171559e+00	 1.102067013386828e+00
 3.926319317651646e-01	 1.033832507703590e+00	 1.017962133093576e+00
 3.829906000554127e-01	 1.037442873404484e+00	 9.391190861496961e-01
 4.823847878821362e-01	 1.004922820516011e+00	 2.081871116846745e+00
 4.728526655793324e-01	 1.009443058046719e+00	 1.963829054261073e+00
 4.632940970074804e-01	 1.013865616808170e+00	 1.848688999892973e+00
 4.537105321962244e-01	 1.018190378632725e+00	 1.736570161622299e+00
 4.441034182131228e-01	 1.022417253057053e+00	 1.627653304654441e+00
 4.344741985268155e-01	 1.026546177125825e+00	 1.522179387520117e+00
 4.248243123792888e-01	 1.030577115178610e+00	 1.420447764894236e+00
 4.151551941677298e-01	 1.034510058620366e+00	 1.322813972946326e+00
 4.054682728364357e-01	 1.038345025675969e+00	 1.229687115067700e+00
 3.957649712792327e-01	 1.042082061129215e+00	 1.141526867814547e+00
 3.860467057528313e-01	 1.045721236046741e+00	 1.058840128743554e+00
 4.862035533301683e-01	 1.012878221773671e+00	 2.239731366341938e+00
 4.765959706477127e-01	 1.017434243448864e+00	 2.117975725607715e+00
 4.669617323362469e-01	 1.021891813087648e+00	 1.999050351377088e+00
 4.573022999044603e-01	 1.026250811586913e+00	 1.883070874939258e+00
 4.476191318755074e-01	 1.030511147767179e+00	 1.770218052667792e+00
 4.379136831451330e-01	 1.034672758174737e+00	 1.660736382818141e+00
 4.281874043489687e-01	 1.038735606866850e+00	 1.554932265033286e+00
 4.184417412394940e-01	 1.042699685180430e+00	 1.453171718914369e+00
 4.086781340731299e-01	 1.046565011484631e+00	 1.355877680253412e+00
 3.988980170079298e-01	 1.050331630917772e+00	 1.263526895628966e+00
 3.891028175122886e-01	 1.053999615109086e+00	 1.176646438003034e+00
 4.900223252707658e-01	 1.020833636556505e+00	 2.393996943637033e+00
 4.803392820804012e-01	 1.025425442437019e+00	 2.269128659855656e+00
 4.706293739007002e-01	 1.029918023012649e+00	 2.147009179329616e+00
 4.608940737194178e-01	 1.034311258244820e+00	 2.027724170837408e+00
 4.511348515153240e-01	 1.038605056237903e+00	 1.911427737107545e+00
 4.413531736112893e-01	 1.042799353039807e+00	 1.798341055550773e+00
 4.315505020366115e-01	 1.046894112425490e+00	 1.688750536509337e+00
 4.217282938990817e-01	 1.050889325663823e+00	 1.583005515965574e+00
 4.118880007672668e-01	 1.054785011268236e+00	 1.481515502028569e+00
 4.020310680634656e-01	 1.058581214731576e+00	 1.384746996719810e+00
 3.921589344677779e-01	 1.062278008245671e+00	 1.293219916631064e+00
 4.938411026219721e-01	 1.028789062610151e+00	 2.545779289467631e+00
 4.840825988168095e-01	 1.033416652746681e+00	 2.418421002597809e+00
 4.742970206616783e-01	 1.037944244308754e+00	 2.293704060825748e+00
 4.644858526234161e-01	 1.042371716322328e+00	 2.171658445505400e+00
 4.546505761364266e-01	 1.046698976175627e+00	 2.052385636480722e+00
 4.447926689507233e-01	 1.050925959418177e+00	 1.936057319330302e+00
 4.349136044892870e-01	 1.055052629542636e+00	 1.822913583810867e+00
 4.250148512152379e-01	 1.059078977749833e+00	 1.713260630996044e+00
 4.150978720093040e-01	 1.063005022697474e+00	 1.607468009097919e+00
 4.051641235580489e-01	 1.066830810232940e+00	 1.505965400291287e+00
 3.952150557532931e-01	 1.070556413110653e+00	 1.409238983013943e+00
 4.976598843018319e-01	 1.036744497680246e+00	 2.696170067590577e+00
 4.878259197963485e-01	 1.041407872113348e+00	 2.566966155549320e+00
 4.779646715800181e-01	 1.045970474701542e+00	 2.440254276976745e+00
 4.680776355987750e-01	 1.050432183535317e+00	 2.315983640051947e+00
 4.581663047426705e-01	 1.054792905286752e+00	 2.194177786227075e+00
 4.482321681888748e-01	 1.059052575006993e+00	 2.074933406012174e+00
 4.382767107540655e-01	 1.063211155906394e+00	 1.958418618487316e+00
 4.283014122567060e-01	 1.067268639117747e+00	 1.844870732545075e+00
 4.183077468897003e-01	 1.071225043443037e+00	 1.734593510488598e+00
 4.082971826038889e-01	 1.075080415084176e+00	 1.627953957064117e+00
 3.982711805028276e-01	 1.078834827358185e+00	 1.525378659284076e+00
 5.014786692283897e-01	 1.044699939512429e+00	 2.846241412343740e+00
 4.915692439584294e-01	 1.049399098272520e+00	 2.715858077972516e+00
 4.816323256165569e-01	 1.053996711916592e+00	 2.587760150309710e+00
 4.716694216278137e-01	 1.058492657599668e+00	 2.461791596679409e+00
 4.616820363379095e-01	 1.062886841277681e+00	 2.337873337278764e+00
 4.516716703511823e-01	 1.067179197503398e+00	 2.216002211002334e+00
 4.416398198780169e-01	 1.071369689204871e+00	 2.096249376335335e+00
 4.315879760922307e-01	 1.075458307446854e+00	 1.978758165779065e+00
 4.215176244989138e-01	 1.079445071175615e+00	 1.863741415035614e+00
 4.114302443131947e-01	 1.083330026947597e+00	 1.751478290762984e+00
 4.013273078503746e-01	 1.087113248642424e+00	 1.642310643110165e+00
 5.052974563196894e-01	 1.052655385852336e+00	 2.997046142758738e+00
 4.953125702424631e-01	 1.057390328959694e+00	 2.866171553341611e+00
 4.852999817321316e-01	 1.062022953679483e+00	 2.737303346862511e+00
 4.752612096928517e-01	 1.066553136231262e+00	 2.610156379799300e+00
 4.651977699259986e-01	 1.070980781854817e+00	 2.484524880507325e+00
 4.551111744630852e-01	 1.075305824604536e+00	 2.360281606076604e+00
 4.450029309082117e-01	 1.079528227126172e+00	 2.237376404371362e+00
 4.348745417905561e-01	 1.083647980416444e+00	 2.115834200139759e+00
 4.247275039274028e-01	 1.087665103565898e+00	 1.995752426984073e+00
 4.145633077981754e-01	 1.091579643485516e+00	 1.877297929706668e+00
 4.043834369299279e-01	 1.095391674617524e+00	 1.760703364076071e+00
 5.091162444937753e-01	 1.060610834445606e+00	 3.149617944979646e+00
 4.990558975878610e-01	 1.065381561910370e+00	 3.018962423070835e+00
 4.889676388875799e-01	 1.070049197715796e+00	 2.889947144845696e+00
 4.788529987762085e-01	 1.074613617145979e+00	 2.762134563930160e+00
 4.687135045107921e-01	 1.079074724724561e+00	 2.635168738849635e+00
 4.585506795500227e-01	 1.083432454007551e+00	 2.508774721419799e+00
 4.483660428917197e-01	 1.087686767358405e+00	 2.382757319173967e+00
 4.381611084204268e-01	 1.091837655705804e+00	 2.256999251092288e+00
 4.279373842656258e-01	 1.095885138284579e+00	 2.131458718960319e+00
 4.176963721710401e-01	 1.099829262360247e+00	 2.006166419546831e+00
 4.074395668754807e-01	 1.103670102937638e+00	 1.881222025457432e+00
 3.768784103107179e-01	 1.020886206763610e+00	 6.911871189041268e-01
 3.673793285980262e-01	 1.024342932873229e+00	 6.231726367883241e-01
 3.578683852392132e-01	 1.027704368830951e+00	 5.588306604410356e-01
 3.483469389886465e-01	 1.030970658465916e+00	 4.982464414085865e-01
 3.388163399692086e-01	 1.034141970034960e+00	 4.412464400009646e-01
 3.292779291590125e-01	 1.037218495887461e+00	 3.876143202414970e-01
 3.197330378908556e-01	 1.040200452118341e+00	 3.370905442642096e-01
 3.101829873646866e-01	 1.043088078209732e+00	 2.893722471077225e-01
 3.006290881733399e-01	 1.045881636661798e+00	 2.441133841034544e-01
 2.910726398417740e-01	 1.048581412613244e+00	 2.009251419336469e-01
 2.815149303800232e-01	 1.051187713452026e+00	 1.593766033959674e-01
 3.799345012860394e-01	 1.029164529528158e+00	 8.167978179521524e-01
 3.703583919246967e-01	 1.032649286082447e+00	 7.459033325483984e-01
 3.607703247316137e-01	 1.036037979781014e+00	 6.790595432241462e-01
 3.511716694792442e-01	 1.039330755619317e+00	 6.165220481639189e-01
 3.415637872385637e-01	 1.042527783218591e+00	 5.580013637943586e-01
 3.319480298616250e-01	 1.045629256487976e+00	 5.031611878355853e-01
 3.223257394769506e-01	 1.048635393274710e+00	 4.516181823121066e-01
 3.126982479980479e-01	 1.051546435002888e+00	 4.029420493087450e-01
 3.030668766452971e-01	 1.054362646301285e+00	 3.566558909468021e-01
 2.934329354814539e-01	 1.057084314620796e+00	 3.122368438922534e-01
 2.837977229609758e-01	 1.059711749841981e+00	 2.691169776312718e-01
 3.829906000554127e-01	 1.037442873404484e+00	 9.391190861496965e-01
 3.733374628490192e-01	 1.040955660474934e+00	 8.650039622742351e-01
 3.636722716250195e-01	 1.044371611983876e+00	 7.950193937294032e-01
 3.539964071739805e-01	 1.047690874093082e+00	 7.296337501704699e-01
 3.443112415149984e-01	 1.050913617788185e+00	 6.685103388968550e-01
 3.346181373740906e-01	 1.054040038538092e+00	 6.112183974519456e-01
 3.249184476755320e-01	 1.057070355942356e+00	 5.572764588293588e-01
 3.152135150464144e-01	 1.060004813367034e+00	 5.061525926307064e-01
 3.055046713346904e-01	 1.062843677569518e+00	 4.572649429343869e-01
 2.957932371409377e-01	 1.065587238312894e+00	 4.099825524518259e-01
 2.860805213640624e-01	 1.068235807970332e+00	 3.636264614311426e-01
 3.860467057528313e-01	 1.045721236046741e+00	 1.058840128743554e+00
 3.763165405267979e-01	 1.049262053696909e+00	 9.810148865234725e-01
 3.665742250970738e-01	 1.052705263078036e+00	 9.072021527472569e-01
 3.568211512723624e-01	 1.056051011518212e+00	 8.379816866942065e-01
 3.470587020199041e-01	 1.059299471367465e+00	 7.730957787839112e-01
 3.372882509397052e-01	 1.062450839654468e+00	 7.120441278764482e-01
 3.275111617518158e-01	 1.065505337731094e+00	 6.542722156734069e-01
 3.177287877969363e-01	 1.068463210905362e+00	 5.991716782658538e-01
 3.079424715506134e-01	 1.071324728063283e+00	 5.460809877663624e-01
 2.981535441512712e-01	 1.074090181280135e+00	 4.942864328855379e-01
 2.883633249422863e-01	 1.076759885421701e+00	 4.430233861616943e-01
 3.891028175122886e-01	 1.053999615109086e+00	 1.176646438003035e+00
 3.792956241138376e-01	 1.057568463394589e+00	 1.094516782698165e+00
 3.694761843254197e-01	 1.061038930701994e+00	 1.016105873208796e+00
 3.596459009738961e-01	 1.064411165525704e+00	 9.419733030487407e-01
 3.498061679746720e-01	 1.067685341580148e+00	 8.720882230287379e-01
 3.399583698017640e-01	 1.070861657453763e+00	 8.059051499122503e-01
 3.301038809710178e-01	 1.073940336250739e+00	 7.428210182324624e-01
 3.202440655367624e-01	 1.076921625221063e+00	 6.821756477615915e-01
 3.103802766021601e-01	 1.079805795379364e+00	 6.232525353217522e-01
 3.005138558435000e-01	 1.082593141113114e+00	 5.652799591160806e-01
 2.906461330486507e-01	 1.085283979780712e+00	 5.074323825557623e-01
 3.921589344677779e-01	 1.062278008245671e+00	 1.293219916631065e+00
 3.822747127659429e-01	 1.065874887214190e+00	 1.206089786187166e+00
 3.723781484877006e-01	 1.069372612494248e+00	 1.122215153623369e+00
 3.624706554780882e-01	 1.072771333746560e+00	 1.042023591564323e+00
 3.525536386006943e-01	 1.076071226049955e+00	 9.658265072990693e-01
 3.426284932035629e-01	 1.079272489552634e+00	 8.930769408071835e-01
 3.326966045983542e-01	 1.082375349111109e+00	 8.231472289405288e-01
 3.227593475530428e-01	 1.085380053917329e+00	 7.553494295192751e-01
 3.128180857984240e-01	 1.088286877114545e+00	 6.889361902782376e-01
 3.028741715486706e-01	 1.091096115402428e+00	 6.231019448335848e-01
 2.929289450361587e-01	 1.093808088631989e+00	 5.569844219350291e-01
 3.952150557532931e-01	 1.070556413110653e+00	 1.409238983013943e+00
 3.852538056389183e-01	 1.074181322801931e+00	 1.316313499631466e+00
 3.752801167615595e-01	 1.077706306093297e+00	 1.225969998171225e+00
 3.652954139844452e-01	 1.081131513811779e+00	 1.138555327495848e+00
 3.553011131193620e-01	 1.084457122400605e+00	 1.054657931149577e+00
 3.452986203883977e-01	 1.087683333567741e+00	 9.738437986415645e-01
 3.352893318990406e-01	 1.090810373922017e+00	 8.954840822503281e-01
 3.252746331329267e-01	 1.093838494597351e+00	 8.188865876261366e-01
 3.152558984484991e-01	 1.096767970865613e+00	 7.432966873504361e-01
 3.052344905978284e-01	 1.099599101738671e+00	 6.678985769569525e-01
 2.952117602578134e-01	 1.102332209560156e+00	 5.918168589841923e-01
 3.982711805028276e-01	 1.078834827358185e+00	 1.525378659284076e+00
 3.882329018885686e-01	 1.082487767804028e+00	 1.425766998448971e+00
 3.781820883246397e-01	 1.086040009137640e+00	 1.327860794696647e+00
 3.681201756924736e-01	 1.089491703352362e+00	 1.231999300135183e+00
 3.580485907520672e-01	 1.092843028255819e+00	 1.138938423726911e+00
 3.479687505995637e-01	 1.096094187115742e+00	 1.048498956674135e+00
 3.378820621382930e-01	 1.099245408293281e+00	 9.600737609878665e-01
 3.277899215635637e-01	 1.102296944864320e+00	 8.729893728956237e-01
 3.176937138614790e-01	 1.105249074229350e+00	 7.865069290037385e-01
 3.075948123220192e-01	 1.108102097712440e+00	 6.998234513151229e-01
 2.974945780666181e-01	 1.110856340149837e+00	 6.120734759931388e-01
 4.013273078503746e-01	 1.087113248642424e+00	 1.642310643110164e+00
 3.912120006706981e-01	 1.090794219866700e+00	 1.535028824704490e+00
 3.810840623545846e-01	 1.094373719265776e+00	 1.428383805651325e+00
 3.709449398016797e-01	 1.097851899999308e+00	 1.322793061679603e+00
 3.607960707202014e-01	 1.101228941239315e+00	 1.219032707493870e+00
 3.506388830803571e-01	 1.104505047813296e+00	 1.117344697645716e+00
 3.404747945813272e-01	 1.107680449834715e+00	 1.017167474008737e+00
 3.303052121321033e-01	 1.110755402321427e+00	 9.178687759943949e-01
 3.201315313464578e-01	 1.113730184802543e+00	 8.210909363838010e-01
 3.099551360522893e-01	 1.116605100914329e+00	 7.293938882480195e-01
 2.997773978155759e-01	 1.119380477985654e+00	 6.414750721249041e-01
 4.043834369299279e-01	 1.095391674617524e+00	 1.760703364076073e+00
 3.941911011411117e-01	 1.099100676636162e+00	 1.644676969941373e+00
 3.839860380290372e-01	 1.102707434116205e+00	 1.528037047700241e+00
 3.737697055115706e-01	 1.106212101383617e+00	 1.411326491677389e+00
 3.635435522451559e-01	 1.109614858974815e+00	 1.295314460074931e+00
 3.533090170740730e-01	 1.112915913277060e+00	 1.181770661514589e+00
 3.430675284933590e-01	 1.116115496156136e+00	 1.075384285684461e+00
 3.328205041256952e-01	 1.119213864571864e+00	 9.758689040883617e-01
 3.225693502125287e-01	 1.122211300181975e+00	 8.820796903460826e-01
 3.123154611196843e-01	 1.125108108934936e+00	 7.927498510101829e-01
 3.020602188576900e-01	 1.127904620652233e+00	 7.065055430841514e-01
 4.074395668754807e-01	 1.103670102937638e+00	 1.881222025457432e+00
 3.971702024556140e-01	 1.107407135758633e+00	 1.755288847551408e+00
 3.868880145256408e-01	 1.111041151327425e+00	 1.627320207621640e+00
 3.765944720216519e-01	 1.114572305136289e+00	 1.501824721065388e+00
 3.662910345483225e-01	 1.118000779086037e+00	 1.383524163466763e+00
 3.559791518240072e-01	 1.121326781123692e+00	 1.273111780317202e+00
 3.456602631396047e-01	 1.124550544867359e+00	 1.169940609820199e+00
 3.353357968314888e-01	 1.127672329218821e+00	 1.072982217564927e+00
 3.250071697687858e-01	 1.130692417964432e+00	 9.810734107651009e-01
 3.146757868552502e-01	 1.133611119364855e+00	 8.929321797637084e-01
 3.043430405459638e-01	 1.136428765734195e+00	 8.071728833253156e-01
 2.815149303800232e-01	 1.051187713452026e+00	 1.593766033959674e-01
 2.719572359804875e-01	 1.053700868645081e+00	 1.196121089003372e-01
 2.624008209779921e-01	 1.056121230013807e+00	 8.206862397608017e-02
 2.528469370324877e-01	 1.058449170629273e+00	 4.669383108841574e-02
 2.432968226052729e-01	 1.060685084158954e+00	 1.339708208686075e-02
 2.337517025831925e-01	 1.062829384435084e+00	-1.794954190176634e-02
 2.242127879174382e-01	 1.064882505016369e+00	-4.750997682260261e-02
 2.146812752770187e-01	 1.066844898743585e+00	-7.548274228203589e-02
 2.051583467169507e-01	 1.068717037289555e+00	-1.020993427249985e-01
 1.956451693612018e-01	 1.070499410704053e+00	-1.276225178200261e-01
 1.861428951003990e-01	 1.072192526954103e+00	-1.523443568443787e-01
 2.837977229609758e-01	 1.059711749841981e+00	 2.691169776312718e-01
 2.741625256248551e-01	 1.062245284103420e+00	 2.274094935139668e-01
 2.645286180603517e-01	 1.064685272079408e+00	 1.876311248962357e-01
 2.548972620770692e-01	 1.067032089866219e+00	 1.497550500092419e-01
 2.452697061789318e-01	 1.069286134323551e+00	 1.137137814287099e-01
 2.356471851853356e-01	 1.071447822639375e+00	 7.940027198639932e-02
 2.260309198670197e-01	 1.073517591888097e+00	 4.666922449840749e-02
 2.164221165967268e-01	 1.075495898582547e+00	 1.533859060481646e-02
 2.068219670147032e-01	 1.077383218220314e+00	-1.480875635311696e-02
 1.972316477090714e-01	 1.079180044824955e+00	-4.402318976646358e-02
 1.876523199110862e-01	 1.080886890482565e+00	-7.258635504269950e-02
 2.860805213640624e-01	 1.068235807970332e+00	 3.636264614311426e-01
 2.763678208936756e-01	 1.070789721352055e+00	 3.183217597894541e-01
 2.666564205694990e-01	 1.073249335985267e+00	 2.746962653984708e-01
 2.569475923508175e-01	 1.075615030991461e+00	 2.327569815233703e-01
 2.472425947842089e-01	 1.077887206422568e+00	 1.924677847061358e-01
 2.375426726216478e-01	 1.080066282822310e+00	 1.537505699079924e-01
 2.278490564534482e-01	 1.082152700780805e+00	 1.164866101273128e-01
 2.181629623561134e-01	 1.084146920482950e+00	 8.051811505954953e-02
 2.084855915551461e-01	 1.086049421251115e+00	 4.564997298324069e-02
 1.988181301028497e-01	 1.087860701082651e+00	 1.165165976381743e-02
 1.891617485711329e-01	 1.089581276182744e+00	-2.174070132106110e-02
 2.883633249422863e-01	 1.076759885421701e+00	 4.430233861616943e-01
 2.785731211619116e-01	 1.079334177969854e+00	 3.924682811296836e-01
 2.687842279023556e-01	 1.081813419304712e+00	 3.433880441887194e-01
 2.589979272726093e-01	 1.084197991573000e+00	 2.958316224921655e-01
 2.492154878619283e-01	 1.086488298018892e+00	 2.498022452784578e-01
 2.394381643548905e-01	 1.088684762541873e+00	 2.052586017608631e-01
 2.296671971614083e-01	 1.090787829247780e+00	 1.621162447572484e-01
 2.199038120617701e-01	 1.092797961993595e+00	 1.202492038788381e-01
 2.101492198667583e-01	 1.094715643926478e+00	 7.949179169695997e-02
 2.004046160928801e-01	 1.096541377017587e+00	 3.964058600283904e-02
 1.906711806527213e-01	 1.098275681591209e+00	 4.565710744777185e-04
 2.906461330486507e-01	 1.085283979780712e+00	 5.074323825557623e-01
 2.807784258045261e-01	 1.087878651535683e+00	 4.499735772929019e-01
 2.709120394558433e-01	 1.090377519611071e+00	 3.938344125721924e-01
 2.610482662613208e-01	 1.092780969178836e+00	 3.391136937843608e-01
 2.511883848529139e-01	 1.095089406675410e+00	 2.858617828985754e-01
 2.413336598478245e-01	 1.097303259356043e+00	 2.340818029164926e-01
 2.314853414755851e-01	 1.099422974842311e+00	 1.837310799442702e-01
 2.216446652202888e-01	 1.101449020663285e+00	 1.347228059363177e-01
 2.118128514780187e-01	 1.103381883790922e+00	 8.692790473740564e-02
 2.019911052295061e-01	 1.105222070170204e+00	 4.017708373905604e-02
 1.921806157280338e-01	 1.106970104244528e+00	-5.736946746826899e-03
 2.929289450361587e-01	 1.093808088631989e+00	 5.569844219350291e-01
 2.829837341964819e-01	 1.096423139628413e+00	 4.909673729569026e-01
 2.730398546268836e-01	 1.098941634477672e+00	 4.261673535674970e-01
 2.630986087358285e-01	 1.101363961376972e+00	 3.627407429043461e-01
 2.531612851979899e-01	 1.103690529955006e+00	 3.007926125692899e-01
 2.432291585632114e-01	 1.105921770822807e+00	 2.403779517665421e-01
 2.333034888806631e-01	 1.108058135117686e+00	 1.815031425590501e-01
 2.233855213382613e-01	 1.110100094040817e+00	 1.241276675058289e-01
 2.134764859174065e-01	 1.112048138388968e+00	 6.847007960164797e-02
 2.035775970630714e-01	 1.113902778080947e+00	 1.615230828863989e-02
 1.936900533692525e-01	 1.115664541679271e+00	-3.304402958075414e-02
 2.952117602578134e-01	 1.102332209560156e+00	 5.918168589841923e-01
 2.851890457127416e-01	 1.104967639826909e+00	 5.155846567225097e-01
 2.751676728123982e-01	 1.107505761477841e+00	 4.405229602209739e-01
 2.651489541150092e-01	 1.109946965735407e+00	 3.668532444565415e-01
 2.551341883379802e-01	 1.112291665420569e+00	 2.952305653320839e-01
 2.451246599638122e-01	 1.114540294500143e+00	 2.283903666819995e-01
 2.351216388613272e-01	 1.116693307627193e+00	 1.663869593179399e-01
 2.251263799222792e-01	 1.118751179674995e+00	 1.087654508986975e-01
 2.151401227134003e-01	 1.120714405265136e+00	 5.503486790561585e-02
 2.051640911439192e-01	 1.122583498290258e+00	 4.675022208979751e-03
 1.951994931485598e-01	 1.124358991432006e+00	-4.285714867636869e-02
 2.974945780666181e-01	 1.110856340149837e+00	 6.120734759931388e-01
 2.873943597282683e-01	 1.113512149710043e+00	 5.259684804410587e-01
 2.772954934093091e-01	 1.116069898184907e+00	 4.455827007671611e-01
 2.671993018177392e-01	 1.118529979822142e+00	 3.707176814508530e-01
 2.571070937137090e-01	 1.120892810634984e+00	 3.010870626039468e-01
 2.470201635123880e-01	 1.123158827946038e+00	 2.363471644045818e-01
 2.369397909022623e-01	 1.125328489924120e+00	 1.761055650384051e-01
 2.268672404789342e-01	 1.127402275114618e+00	 1.199290834471056e-01
 2.168037613944795e-01	 1.129380681963944e+00	 6.735118003310392e-02
 2.067505870223931e-01	 1.131264228338580e+00	 1.787879072790544e-02
 1.967089346381378e-01	 1.133053451039304e+00	-2.900138814117703e-02
 2.997773978155759e-01	 1.119380477985654e+00	 6.414750721249041e-01
 2.895996756180249e-01	 1.122056666856680e+00	 5.576984296471164e-01
 2.794233158145376e-01	 1.124634042172197e+00	 4.792731904578997e-01
 2.692496512628950e-01	 1.127113001205179e+00	 4.059956775647136e-01
 2.590800007660003e-01	 1.129493963161138e+00	 3.375985655610836e-01
 2.489156686717003e-01	 1.131777368718472e+00	 2.737601254736197e-01
 2.387579444881531e-01	 1.133963679561754e+00	 2.141128338146761e-01
 2.286081025148181e-01	 1.136053377908490e+00	 1.582513579855056e-01
 2.184674014891227e-01	 1.138046966029914e+00	 1.057399327562845e-01
 2.083370842488365e-01	 1.139944965766357e+00	 5.611914488362091e-02
 1.982183774101689e-01	 1.141747918037733e+00	 8.912145004207339e-03
 3.020602188576900e-01	 1.127904620652233e+00	 7.065055430841514e-01
 2.918049927569739e-01	 1.130601188845688e+00	 6.238514883949340e-01
 2.815511394250055e-01	 1.133198191013039e+00	 5.461686273326709e-01
 2.713000018693529e-01	 1.135696027452518e+00	 4.732744434987390e-01
 2.610529089356780e-01	 1.138095120561916e+00	 4.049259018377196e-01
 2.508111749045100e-01	 1.140395914375427e+00	 3.408287407843216e-01
 2.405760991036842e-01	 1.142598874093383e+00	 2.806460976396745e-01
 2.303489655365227e-01	 1.144704485605409e+00	 2.240064809102686e-01
 2.201310425258092e-01	 1.146713255007565e+00	 1.705111060105819e-01
 2.099235823735930e-01	 1.148625708114031e+00	 1.197406131276324e-01
 1.997278210368353e-01	 1.150442389963861e+00	 7.126118818628324e-02
 3.043430405459638e-01	 1.136428765734195e+00	 8.071728833253156e-01
 2.940103105200784e-01	 1.139145713255937e+00	 7.244554589993157e-01
 2.836789636376346e-01	 1.141762342280760e+00	 6.463377481985684e-01
 2.733503530559896e-01	 1.144279056132160e+00	 5.726631933683142e-01
 2.630258176635664e-01	 1.146696280400205e+00	 5.032181342239417e-01
 2.527066816735784e-01	 1.149014462474888e+00	 4.377411331908041e-01
 2.423942542335408e-01	 1.151234071072297e+00	 3.759316020438135e-01
 2.320898290506398e-01	 1.153355595754177e+00	 3.174577451627694e-01
 2.217946840330177e-01	 1.155379546441417e+00	 2.619638375656002e-01
 2.115100809470059e-01	 1.157306452922045e+00	 2.090768583576148e-01
 2.012372650903192e-01	 1.159136864354258e+00	 1.584125024235234e-01
 1.861428951003990e-01	 1.072192526954103e+00	-1.523443568443792e-01
 1.766510483720675e-01	 1.073797176574809e+00	-1.761368951949556e-01
 1.671723688340672e-01	 1.075313606165639e+00	-1.986233592447975e-01
 1.577079640083019e-01	 1.076742374151761e+00	-2.197752885062743e-01
 1.482589250583532e-01	 1.078084055023988e+00	-2.395886447203694e-01
 1.388263265602436e-01	 1.079339238862790e+00	-2.580819640341763e-01
 1.294112262877410e-01	 1.080508530860630e+00	-2.752944439948357e-01
 1.200146650121030e-01	 1.081592550843088e+00	-2.912839790070505e-01
 1.106376663161413e-01	 1.082591932789227e+00	-3.061251575438173e-01
 1.012812364224704e-01	 1.083507324351631e+00	-3.199072340055853e-01
 9.194636403579609e-02	 1.084339386376554e+00	-3.327320876732349e-01
 1.876523199110862e-01	 1.080886890482565e+00	-7.258635504269861e-02
 1.780835042019536e-01	 1.082504552138659e+00	-1.003225307273716e-01
 1.685279624553002e-01	 1.084033278392373e+00	-1.267899281014668e-01
 1.589868111738754e-01	 1.085473632197129e+00	-1.519280847518556e-01
 1.494611503694588e-01	 1.086826192702271e+00	-1.757021744254774e-01
 1.399520633317619e-01	 1.088091554773214e+00	-1.981010926786397e-01
 1.304606164119931e-01	 1.089270328509909e+00	-2.191354737634410e-01
 1.209878588209785e-01	 1.090363138764082e+00	-2.388356530381635e-01
 1.115348224417171e-01	 1.091370624655714e+00	-2.572495888196844e-01
 1.021025216562383e-01	 1.092293439089185e+00	-2.744407571806242e-01
 9.269195318661062e-02	 1.093132248269526e+00	-2.904860327200880e-01
 1.891617485711329e-01	 1.089581276182744e+00	-2.174070132106110e-02
 1.795159636848741e-01	 1.091211949907333e+00	-5.429038458273538e-02
 1.698835595335222e-01	 1.092752972855232e+00	-8.548455895399298e-02
 1.602656616006947e-01	 1.094204912508127e+00	-1.152350068179233e-01
 1.506633787463893e-01	 1.095568352673903e+00	-1.434805437721978e-01
 1.410778029740277e-01	 1.096843893002933e+00	-1.701850254653223e-01
 1.315100092122801e-01	 1.098032148502666e+00	-1.953352820348058e-01
 1.219610551115605e-01	 1.099133749050992e+00	-2.189389951116554e-01
 1.124319808550757e-01	 1.100149338908817e+00	-2.410225319725185e-01
 1.029238089842894e-01	 1.101079576232330e+00	-2.616287509834625e-01
 9.343754423865198e-02	 1.101925132585359e+00	-2.808147919818342e-01
 1.906711806527213e-01	 1.098275681591209e+00	 4.565710744777185e-04
 1.809484264148250e-01	 1.099919367413728e+00	-3.775160476303219e-02
 1.712391596845128e-01	 1.101472687083637e+00	-7.439619818375220e-02
 1.615445149262892e-01	 1.102936212610899e+00	-1.093654470891896e-01
 1.518656098483897e-01	 1.104310532461951e+00	-1.425762038457434e-01
 1.422035451679654e-01	 1.105596251072132e+00	-1.739718508807879e-01
 1.325594043911660e-01	 1.106793988356403e+00	-2.035201401885183e-01
 1.229342536080124e-01	 1.107904379218823e+00	-2.312109724263265e-01
 1.133291413019373e-01	 1.108928073061243e+00	-2.570541308808627e-01
 1.037450981738560e-01	 1.109865733291667e+00	-2.810769851231703e-01
 9.418313698061839e-02	 1.110718036832734e+00	-3.033221786518250e-01
 1.921806157280338e-01	 1.106970104244528e+00	-5.736946746826455e-03
 1.823808919858028e-01	 1.108626802190737e+00	-5.042495548479620e-02
 1.725947625240515e-01	 1.110192418607010e+00	-9.322250885772787e-02
 1.628233707881890e-01	 1.111667530031593e+00	-1.338944847701780e-01
 1.530678433347056e-01	 1.113052729589483e+00	-1.714159817811947e-01
 1.433292895944988e-01	 1.114348626500999e+00	-2.057182814697707e-01
 1.336088016512149e-01	 1.115555845588621e+00	-2.370120108305196e-01
 1.239074540344977e-01	 1.116675026782587e+00	-2.655071098938162e-01
 1.142263035280217e-01	 1.117706824625701e+00	-2.914102134548755e-01
 1.045663889921703e-01	 1.118651907777798e+00	-3.149223287318454e-01
 9.492873120120811e-02	 1.119510958520333e+00	-3.362367876541703e-01
 1.936900533692525e-01	 1.115664541679271e+00	-3.304402958075414e-02
 1.838133599918037e-01	 1.117334251771257e+00	-7.901994356461239e-02
 1.739503676679177e-01	 1.118912164954772e+00	-1.213922747651721e-01
 1.641022288239238e-01	 1.120398862296354e+00	-1.603480594833626e-01
 1.542700788645824e-01	 1.121794941579569e+00	-1.960811931295807e-01
 1.444550359345522e-01	 1.123101016809721e+00	-2.287888964947493e-01
 1.346582006949907e-01	 1.124317717716819e+00	-2.586685541021456e-01
 1.248806561151796e-01	 1.125445689257293e+00	-2.859149022898424e-01
 1.151234672790491e-01	 1.126485591114903e+00	-3.107175443758909e-01
 1.053876812064646e-01	 1.127438097201324e+00	-3.332587701209735e-01
 9.567432668911931e-02	 1.128303895156839e+00	-3.537116567258680e-01
 1.951994931485598e-01	 1.124358991432006e+00	-4.285714867636869e-02
 1.852458300268238e-01	 1.126041713688183e+00	-8.738648274323646e-02
 1.753059747318907e-01	 1.127631923656345e+00	-1.284692815018538e-01
 1.653810886710233e-01	 1.129130206931330e+00	-1.662886609770546e-01
 1.554723160972654e-01	 1.130537165955279e+00	-2.010322360874075e-01
 1.455807838690497e-01	 1.131853419518487e+00	-2.328886913827857e-01
 1.357076012250577e-01	 1.133079602258502e+00	-2.620447371928676e-01
 1.258538595742214e-01	 1.134216364157949e+00	-2.886824272233555e-01
 1.160206323007395e-01	 1.135264370041556e+00	-3.129768133643993e-01
 1.062089745839710e-01	 1.136224299072846e+00	-3.350939133649189e-01
 9.641992323305024e-02	 1.137096844250934e+00	-3.551889670924062e-01
 1.967089346381378e-01	 1.133053451039304e+00	-2.900138814117703e-02
 1.866783016848593e-01	 1.134749185474410e+00	-7.303485813325850e-02
 1.766615833317499e-01	 1.136351692241150e+00	-1.137202764393783e-01
 1.666599499670176e-01	 1.137861561462664e+00	-1.512394460526552e-01
 1.566745546920000e-01	 1.139279400239678e+00	-1.857762370710994e-01
 1.467065330789153e-01	 1.140605832147483e+00	-2.175132677171621e-01
 1.367570029439800e-01	 1.141841496731169e+00	-2.466289844955374e-01
 1.268270641357866e-01	 1.142987048999564e+00	-2.732951158477133e-01
 1.169177983388128e-01	 1.144043158918370e+00	-2.976744734109942e-01
 1.070302688919220e-01	 1.145010510902963e+00	-3.199190749155618e-01
 9.716552062169906e-02	 1.145889803311299e+00	-3.401685628513857e-01
 1.982183774101689e-01	 1.141747918037733e+00	 8.912145004207339e-03
 1.881107745599065e-01	 1.143456664662833e+00	-3.554596871465954e-02
 1.780171930832751e-01	 1.145071468238607e+00	-7.670085282403072e-02
 1.679388123494363e-01	 1.146592923416506e+00	-1.147354669861063e-01
 1.578767943080316e-01	 1.148021641955837e+00	-1.498323269267421e-01
 1.478322832450733e-01	 1.149358252216897e+00	-1.821703021552703e-01
 1.378064055543216e-01	 1.150603398652322e+00	-2.119218269528425e-01
 1.278002695240385e-01	 1.151757741297148e+00	-2.392504972416716e-01
 1.178149651389892e-01	 1.152821955258056e+00	-2.643090257170897e-01
 1.078515638975497e-01	 1.153796730202278e+00	-2.872375275877381e-01
 9.791111864376409e-02	 1.154682769846619e+00	-3.081621094053641e-01
 1.997278210368353e-01	 1.150442389963861e+00	 7.126118818628324e-02
 1.895432482459616e-01	 1.152164148786348e+00	 2.548795249979685e-02
 1.793728036022452e-01	 1.153791249178140e+00	-1.697808473873152e-02
 1.692176754558092e-01	 1.155324290318999e+00	-5.632337131624388e-02
 1.590790346046055e-01	 1.156763888626824e+00	-9.273131300299831e-02
 1.489580340484477e-01	 1.158110677246916e+00	-1.263791950030426e-01
 1.388558087586465e-01	 1.159365305539463e+00	-1.574355312168016e-01
 1.287734754631403e-01	 1.160528438565709e+00	-1.860578121039191e-01
 1.187121324469886e-01	 1.161600756573321e+00	-2.123906217352021e-01
 1.086728593680864e-01	 1.162582954481391e+00	-2.365640946199177e-01
 9.865671708794346e-02	 1.163475741365573e+00	-2.586926830750693e-01
 2.012372650903192e-01	 1.159136864354258e+00	 1.584125024235239e-01
 1.909757223370208e-01	 1.160871635377850e+00	 1.104635572960153e-01
 1.807284145044399e-01	 1.162511032589169e+00	 6.586972698095606e-02
 1.704965389236662e-01	 1.164055659696293e+00	 2.443888317833753e-02
 1.602812752409672e-01	 1.165506137775708e+00	-1.401536737632858e-02
 1.500837851699626e-01	 1.166863104757728e+00	-4.967073575062075e-02
 1.399052122595189e-01	 1.168127214910092e+00	-8.269374642674965e-02
 1.297466816772556e-01	 1.169299138320258e+00	-1.132376445727239e-01
 1.196093000085310e-01	 1.170379560376875e+00	-1.414406836978879e-01
 1.094941550707644e-01	 1.171369181250904e+00	-1.674247624457781e-01
 9.940231574293544e-02	 1.172268715376846e+00	-1.912943795121507e-01
 9.194636403579609e-02	 1.084339386376554e+00	-3.327320876732345e-01
 8.263559750400498e-02	 1.085088671992387e+00	-3.445786010745899e-01
 7.334828292024807e-02	 1.085756014974210e+00	-3.553308055397388e-01
 6.408533397596120e-02	 1.086342112304158e+00	-3.649559570940255e-01
 5.484764694112109e-02	 1.086847672230783e+00	-3.734275293832865e-01
 4.563610057124283e-02	 1.087273413802824e+00	-3.807234725971917e-01
 3.645155602683708e-02	 1.087620066405180e+00	-3.868245149966669e-01
 2.729485680511988e-02	 1.087888369297435e+00	-3.917125152062435e-01
 1.816682868375999e-02	 1.088079071155274e+00	-3.953688728034708e-01
 9.068279676440062e-03	 1.088192929615108e+00	-3.977730040791645e-01
 0.000000000000000e+00	 1.088230710822225e+00	-3.989008891416796e-01
 9.269195318661062e-02	 1.093132248269526e+00	-2.904860327200880e-01
 8.330568604516947e-02	 1.093887609810434e+00	-3.053299292434670e-01
 7.394306102259096e-02	 1.094560364248029e+00	-3.188336993101939e-01
 6.460499921942929e-02	 1.095151214216240e+00	-3.309564298983925e-01
 5.529240417350925e-02	 1.095660873706773e+00	-3.416640255316477e-01
 4.600616176616953e-02	 1.096090067599097e+00	-3.509273724949962e-01
 3.674714014106687e-02	 1.096439531192658e+00	-3.587205478133901e-01
 2.751618963533194e-02	 1.096710009741660e+00	-3.650190815637453e-01
 1.831414272286069e-02	 1.096902257992762e+00	-3.697982804203517e-01
 9.141813969515078e-03	 1.097017039726013e+00	-3.730316196523815e-01
 0.000000000000000e+00	 1.097055127299335e+00	-3.746892100480816e-01
 9.343754423865198e-02	 1.101925132585359e+00	-2.808147919818342e-01
 8.397577629499998e-02	 1.102686570066909e+00	-2.985004497096369e-01
 7.453784064152362e-02	 1.103364735974160e+00	-3.145335923136265e-01
 6.512466578791765e-02	 1.103960338592843e+00	-3.288701634363962e-01
 5.573716253987668e-02	 1.104474097657828e+00	-3.414735199204655e-01
 4.637622390458444e-02	 1.104906743879326e+00	-3.523124920267722e-01
 3.704272500886458e-02	 1.105259018471340e+00	-3.613594908454325e-01
 2.773752302978304e-02	 1.105531672682705e+00	-3.685886718973554e-01
 1.846145713748307e-02	 1.105725467331067e+00	-3.739741632124600e-01
 9.215348450025656e-03	 1.105841172340124e+00	-3.774883654607084e-01
 0.000000000000000e+00	 1.105879566280446e+00	-3.791003309281944e-01
 9.418313698061839e-02	 1.110718036832734e+00	-3.033221786518250e-01
 8.464586806360859e-02	 1.111485550268766e+00	-3.236503387267931e-01
 7.513262160851970e-02	 1.112169127658013e+00	-3.417012494657499e-01
 6.564433353420512e-02	 1.112769482938021e+00	-3.574995596534860e-01
 5.618192191424692e-02	 1.113287341586829e+00	-3.711045799416910e-01
 4.674628688169116e-02	 1.113723440145404e+00	-3.825638738374799e-01
 3.733831054654548e-02	 1.114078525742313e+00	-3.919124074867217e-01
 2.795885692582769e-02	 1.114353355621034e+00	-3.991718297437377e-01
 1.860877188594467e-02	 1.114548696670210e+00	-4.043498661256755e-01
 9.288883097172389e-03	 1.114665324957197e+00	-4.074398110719200e-01
 0.000000000000000e+00	 1.114704025265223e+00	-4.084201037159296e-01
 9.492873120120811e-02	 1.119510958520333e+00	-3.362367876541703e-01
 8.531596116110735e-02	 1.120284547922956e+00	-3.553858743504179e-01
 7.572740375505296e-02	 1.120973536804998e+00	-3.723279900761569e-01
 6.616400231107059e-02	 1.121578644755825e+00	-3.871202598516854e-01
 5.662668217064351e-02	 1.122100602996660e+00	-3.998081031422300e-01
 4.711635059269338e-02	 1.122540153899225e+00	-4.104243800188656e-01
 3.763389667042485e-02	 1.122898050506667e+00	-4.189886844840087e-01
 2.818019126082040e-02	 1.123175056057113e+00	-4.255067667717554e-01
 1.875608692656302e-02	 1.123371943510211e+00	-4.299700672723468e-01
 9.362417890155872e-03	 1.123489495076986e+00	-4.323553456098503e-01
 0.000000000000000e+00	 1.123528501753334e+00	-4.326243892592427e-01
 9.567432668911931e-02	 1.128303895156839e+00	-3.537116567258689e-01
 8.598605539760837e-02	 1.129083560536432e+00	-3.720883715368530e-01
 7.632218691259701e-02	 1.129777960920525e+00	-3.883344858770323e-01
 6.668367197129288e-02	 1.130387821550310e+00	-4.024962994917596e-01
 5.707144318308994e-02	 1.130913879390200e+00	-4.146073874648386e-01
 4.748641493279472e-02	 1.131356882642683e+00	-4.246878980229356e-01
 3.792948329681797e-02	 1.131717590265490e+00	-4.327439970909146e-01
 2.840152597211570e-02	 1.131996771491404e+00	-4.387674403495301e-01
 1.890340221765566e-02	 1.132195205351089e+00	-4.427352544481762e-01
 9.435952808176700e-03	 1.132313680199245e+00	-4.446095099800620e-01
 0.000000000000000e+00	 1.132352993244445e+00	-4.443371697538443e-01
 9.641992323305024e-02	 1.137096844250934e+00	-3.551889670924067e-01
 8.665615058322375e-02	 1.137882585616146e+00	-3.732566761146106e-01
 7.691697091262550e-02	 1.138582397510003e+00	-3.892323256091950e-01
 6.720334236765091e-02	 1.139197010825530e+00	-4.031533303616190e-01
 5.751620482560978e-02	 1.139727168270332e+00	-4.150432976201572e-01
 4.785647979719885e-02	 1.140173623877673e+00	-4.249114848681330e-01
 3.822507034204013e-02	 1.140537142519870e+00	-4.327524037972084e-01
 2.862286099706809e-02	 1.140818499424373e+00	-4.385455501291036e-01
 1.905071771754012e-02	 1.141018479692866e+00	-4.422552399016459e-01
 9.509487830435464e-03	 1.141137877823731e+00	-4.438305338713544e-01
 0.000000000000000e+00	 1.141177497238223e+00	-4.432052326745013e-01
 9.716552062169906e-02	 1.145889803311299e+00	-3.401685628513862e-01
 8.732624652806553e-02	 1.146681620669051e+00	-3.584017357690872e-01
 7.751175558661223e-02	 1.147386844078842e+00	-3.745450584088830e-01
 6.772301335292351e-02	 1.148006210085537e+00	-3.886288299449192e-01
 5.796096697222652e-02	 1.148540467139938e+00	-4.006683946016936e-01
 4.822654508110944e-02	 1.148990375106087e+00	-4.106637682414718e-01
 3.852065772240658e-02	 1.149356704770896e+00	-4.185994104528978e-01
 2.884419627303208e-02	 1.149640237356485e+00	-4.244441206333063e-01
 1.919803338453394e-02	 1.149841764035561e+00	-4.281510376121735e-01
 9.583022936132756e-03	 1.149962085450197e+00	-4.296577234641732e-01
 0.000000000000000e+00	 1.150002011234334e+00	-4.288863132374487e-01
 9.791111864376409e-02	 1.154682769846619e+00	-3.081621094053641e-01
 8.799634304224582e-02	 1.155480663202100e+00	-3.270461677170355e-01
 7.810654076603075e-02	 1.156191298132453e+00	-3.438077605971106e-01
 6.824268477988950e-02	 1.156815416834384e+00	-3.584716684094906e-01
 5.840572949696372e-02	 1.157353773501898e+00	-3.710465038291892e-01
 4.859661067973010e-02	 1.157807133829818e+00	-3.815245166260306e-01
 3.881624535423264e-02	 1.158176274519656e+00	-3.898815430798273e-01
 2.906553173736219e-02	 1.158461982788204e+00	-3.960770773289197e-01
 1.934534917695466e-02	 1.158665055879196e+00	-4.000544430748287e-01
 9.656558104469172e-03	 1.158786300578399e+00	-4.017410452575647e-01
 0.000000000000000e+00	 1.158826532732445e+00	-4.010486824745474e-01
 9.865671708794346e-02	 1.163475741365573e+00	-2.586926830750698e-01
 8.866643993587668e-02	 1.164279710722243e+00	-2.787238462246711e-01
 7.870132628235482e-02	 1.164995757176243e+00	-2.965666222779855e-01
 6.876235650132782e-02	 1.165624628576125e+00	-3.122416953380696e-01
 5.885049227384490e-02	 1.166167084859096e+00	-3.257523029398413e-01
 4.896667648826453e-02	 1.166623897550763e+00	-3.370842289525449e-01
 3.911183315383355e-02	 1.166995849267240e+00	-3.462059400671542e-01
 2.928686732741294e-02	 1.167283733219994e+00	-3.530688419220378e-01
 1.949266505311982e-02	 1.167488352723791e+00	-3.576076321321660e-01
 9.730093314645305e-03	 1.167610520708092e+00	-3.597407287532439e-01
 0.000000000000000e+00	 1.167651059232224e+00	-3.593707539712288e-01
 9.940231574293544e-02	 1.172268715376846e+00	-1.912943795121507e-01
 8.933653701907020e-02	 1.173078760736435e+00	-2.129795089254953e-01
 7.929611196705814e-02	 1.173800218715625e+00	-2.323785527057391e-01
 6.928202837001728e-02	 1.174433842814812e+00	-2.495093451657691e-01
 5.929525517689356e-02	 1.174980398714412e+00	-2.643709281938955e-01
 4.933674240191636e-02	 1.175440663770815e+00	-2.769437427553711e-01
 3.940742103752461e-02	 1.175815426514736e+00	-2.871899627323047e-01
 2.950820298053884e-02	 1.176105486152319e+00	-2.950539458655141e-01
 1.963998097134695e-02	 1.176311652069365e+00	-3.004627778515072e-01
 9.803628545861746e-03	 1.176434743339030e+00	-3.033268870107184e-01
 0.000000000000000e+00	 1.176475588233336e+00	-3.035407082876436e-01
 1.176475588233336e+00	 0.000000000000000e+00	 2.201444104024632e+01
 1.176434743339030e+00	 9.803628545861098e-03	 2.201368174380827e+01
 1.176311652069365e+00	 1.963998097134639e-02	 2.200862937045298e+01
 1.176105486152319e+00	 2.950820298053838e-02	 2.199939739770409e+01
 1.175815426514735e+00	 3.940742103752425e-02	 2.198607970967827e+01
 1.175440663770814e+00	 4.933674240191608e-02	 2.196874976003103e+01
 1.174980398714412e+00	 5.929525517689338e-02	 2.194745977397384e+01
 1.174433842814813e+00	 6.928202837001721e-02	 2.192223999517531e+01
 1.173800218715625e+00	 7.929611196705813e-02	 2.189309798391441e+01
 1.173078760736435e+00	 8.933653701907034e-02	 2.186001797333645e+01
 1.172268715376846e+00	 9.940231574293547e-02	 2.182296029115583e+01
 1.185298617647136e+00	 0.000000000000000e+00	 2.171543628844606e+01
 1.185257466434718e+00	 9.877151281161975e-03	 2.171460526498074e+01
 1.185133452036587e+00	 1.978727185593458e-02	 2.170965355189706e+01
 1.184925739969079e+00	 2.972950102159615e-02	 2.170070221297212e+01
 1.184633505016388e+00	 3.970295869113886e-02	 2.168785150965631e+01
 1.184255931722710e+00	 4.970674542905543e-02	 2.167118000769132e+01
 1.183792214888245e+00	 5.973994249974178e-02	 2.165074372062073e+01
 1.183241560068681e+00	 6.980161192876748e-02	 2.162657529606125e+01
 1.182603184077831e+00	 7.989079657725708e-02	 2.159868325119445e+01
 1.181876315493052e+00	 9.000652022961739e-02	 2.156705126444906e+01
 1.181060195163063e+00	 1.001477876948355e-01	 2.153163753086808e+01
 1.194121647061736e+00	 0.000000000000000e+00	 2.142812568361765e+01
 1.194080189531207e+00	 9.950674016655510e-03	 2.142726287165371e+01
 1.193955252004609e+00	 1.993456274082628e-02	 2.142244489392669e+01
 1.193745993786640e+00	 2.995079906299752e-02	 2.141379909507064e+01
 1.193451583518840e+00	 3.999849634507768e-02	 2.140143088120089e+01
 1.193071199675406e+00	 5.007674845645151e-02	 2.138542277248963e+01
 1.192604031062879e+00	 6.018462982274300e-02	 2.136583349021580e+01
 1.192049277323350e+00	 7.032119548754176e-02	 2.134269708419962e+01
 1.191406149440836e+00	 8.048548118733836e-02	 2.131602210716128e+01
 1.190673870250469e+00	 9.067650343990434e-02	 2.128579084308406e+01
 1.189851674950080e+00	 1.008932596463443e-01	 2.125195859721630e+01
 1.202944676476936e+00	 0.000000000000000e+00	 2.115188243745485e+01
 1.202902912628295e+00	 1.002419675229353e-02	 2.115102067257835e+01
 1.202777051973230e+00	 2.008185362594559e-02	 2.114636386506676e+01
 1.202566247604800e+00	 3.017209710465659e-02	 2.113804436732926e+01
 1.202269662021893e+00	 4.029403399925969e-02	 2.112617153190146e+01
 1.201886467628702e+00	 5.044675148404016e-02	 2.111083071226522e+01
 1.201415847238112e+00	 6.062931714585874e-02	 2.109208229547335e+01
 1.200856994578618e+00	 7.084077904633405e-02	 2.106996077251875e+01
 1.200209114804443e+00	 8.108016579733142e-02	 2.104447385305556e+01
 1.199471425008485e+00	 9.134648664999623e-02	 2.101560163165139e+01
 1.198643154737697e+00	 1.016387315975597e-01	 2.098329581333568e+01
 1.211767705892536e+00	 0.000000000000000e+00	 2.088610107026945e+01
 1.211725635725783e+00	 1.009771948802787e-02	 2.088526686151032e+01
 1.211598851942252e+00	 2.022914451121664e-02	 2.088079369702415e+01
 1.211386501423361e+00	 3.039339514648746e-02	 2.087281769520159e+01
 1.211087740525344e+00	 4.058957165360378e-02	 2.086145099028048e+01
 1.210701735582398e+00	 5.081675451175718e-02	 2.084678068370059e+01
 1.210227663413746e+00	 6.107400446905088e-02	 2.082886782433173e+01
 1.209664711834286e+00	 7.136036260513832e-02	 2.080774642352933e+01
 1.209012080168449e+00	 8.167485040726569e-02	 2.078342251168219e+01
 1.208268979766902e+00	 9.201646985995805e-02	 2.075587324351769e+01
 1.207434634525714e+00	 1.023842035485794e-01	 2.072504606005182e+01
 1.220590735308335e+00	 0.000000000000000e+00	 2.063019664103223e+01
 1.220548358823472e+00	 1.017124222381038e-02	 2.062941093071656e+01
 1.220420651911474e+00	 2.037643539656356e-02	 2.062513958279586e+01
 1.220206755242121e+00	 3.061469318840423e-02	 2.061752127014265e+01
 1.219905819028996e+00	 4.088510930802895e-02	 2.060666977664178e+01
 1.219517003536293e+00	 5.118675753953839e-02	 2.059267290137759e+01
 1.219039479589579e+00	 6.151869179228121e-02	 2.057559138848874e+01
 1.218472429090154e+00	 7.187994616394859e-02	 2.055545788864623e+01
 1.217815045532654e+00	 8.226953501717052e-02	 2.053227595886195e+01
 1.217066534525519e+00	 9.268645306985483e-02	 2.050601910796932e+01
 1.216226114313930e+00	 1.031296754995015e-01	 2.047662989577358e+01
 1.229413764724135e+00	 0.000000000000000e+00	 2.038360401056330e+01
 1.229371081921160e+00	 1.024476495959287e-02	 2.038288291832449e+01
 1.229242451880695e+00	 2.052372628191047e-02	 2.037882790922508e+01
 1.229027009060881e+00	 3.083599123032097e-02	 2.037157902845238e+01
 1.228723897532648e+00	 4.118064696245408e-02	 2.036125060931424e+01
 1.228332271490189e+00	 5.155676056731959e-02	 2.034793013256633e+01
 1.227851295765413e+00	 6.196337911551154e-02	 2.033167710791544e+01
 1.227280146346022e+00	 7.239952972275890e-02	 2.031252198364108e+01
 1.226618010896860e+00	 8.286421962707538e-02	 2.029046509107243e+01
 1.225864089284136e+00	 9.335643627975165e-02	 2.026547563132602e+01
 1.225017594102147e+00	 1.038751474504235e-01	 2.023749071240144e+01
 1.238236794139735e+00	 0.000000000000000e+00	 2.014577713621873e+01
 1.238193805018648e+00	 1.031828769532718e-02	 2.014513268782480e+01
 1.238064251849717e+00	 2.067101716718147e-02	 2.014130552228717e+01
 1.237847262879441e+00	 3.105728927215179e-02	 2.013443590334128e+01
 1.237541976036100e+00	 4.147618461679812e-02	 2.012463764452463e+01
 1.237147539443884e+00	 5.192676359503657e-02	 2.011199692596500e+01
 1.236663111941046e+00	 6.240806643870367e-02	 2.009657112955439e+01
 1.236087863601690e+00	 7.291911328156318e-02	 2.007838769842412e+01
 1.235420976260865e+00	 8.345890423700963e-02	 2.005744302747243e+01
 1.234661644042553e+00	 9.402641948971353e-02	 2.003370139240228e+01
 1.233809073890164e+00	 1.046206194014434e-01	 2.000709392545478e+01
 1.247059823554935e+00	 0.000000000000000e+00	 1.991618839651320e+01
 1.247016528115735e+00	 1.039181043096515e-02	 1.991562923813609e+01
 1.246886051818338e+00	 2.081830805230071e-02	 1.991203902348455e+01
 1.246667516697602e+00	 3.127858731381077e-02	 1.990555710857282e+01
 1.246360054539152e+00	 4.177172227098004e-02	 1.989629574823452e+01
 1.245962807397180e+00	 5.229676662262516e-02	 1.988433887270827e+01
 1.245474928116279e+00	 6.285275376181938e-02	 1.986974087850880e+01
 1.244895580856958e+00	 7.343869684035545e-02	 1.985252543945492e+01
 1.244223941624471e+00	 8.405358884700274e-02	 1.983268434460778e+01
 1.243459198800570e+00	 9.469640269980548e-02	 1.981017637061509e+01
 1.242600553677780e+00	 1.053660913526588e-01	 1.978492619672351e+01
 1.255882852969535e+00	 0.000000000000000e+00	 1.969432794420674e+01
 1.255839251212224e+00	 1.046533316645861e-02	 1.969386004272791e+01
 1.255707851786360e+00	 2.096559893719228e-02	 1.969051409582028e+01
 1.255487770515162e+00	 3.149988535521200e-02	 1.968442745212939e+01
 1.255178133041604e+00	 4.206725992491875e-02	 1.967570979836882e+01
 1.254778075349876e+00	 5.266676965002115e-02	 1.966444189805841e+01
 1.254286744290912e+00	 6.329744108482051e-02	 1.965067434012517e+01
 1.253703298111626e+00	 7.395828039912969e-02	 1.963442630317700e+01
 1.253026906987477e+00	 8.464827345708408e-02	 1.961568434219044e+01
 1.252256753557986e+00	 9.536638591009251e-02	 1.959440120513269e+01
 1.251392033464797e+00	 1.061115633041678e-01	 1.957049468784441e+01
 1.264705882383334e+00	 0.000000000000000e+00	 1.947970308646546e+01
 1.264661974307912e+00	 1.053885590175940e-02	 1.947933041638345e+01
 1.264529651753582e+00	 2.111288982178033e-02	 1.947623485790624e+01
 1.264308024331922e+00	 3.172118339626960e-02	 1.947055067843602e+01
 1.263996211543256e+00	 4.236279757853321e-02	 1.946238401595216e+01
 1.263593343301772e+00	 5.303677267716038e-02	 1.945181158227951e+01
 1.263098560464746e+00	 6.374212840766885e-02	 1.943887937146017e+01
 1.262511015365494e+00	 7.447786395787998e-02	 1.942360137896158e+01
 1.261829872349682e+00	 8.524295806728308e-02	 1.940595833843410e+01
 1.261054308314603e+00	 9.603636912063970e-02	 1.938589648354847e+01
 1.260183513251014e+00	 1.068570352560680e-01	 1.936332634329214e+01
 1.172268715376846e+00	 9.940231574293547e-02	 2.182296029115583e+01
 1.171369181250904e+00	 1.094941550707639e-01	 2.178207538326886e+01
 1.170379560376876e+00	 1.196093000085306e-01	 2.173748288135959e+01
 1.169299138320258e+00	 1.297466816772552e-01	 2.168903968703881e+01
 1.168127214910092e+00	 1.399052122595186e-01	 2.163657718277972e+01
 1.166863104757728e+00	 1.500837851699623e-01	 2.157990116042346e+01
 1.165506137775708e+00	 1.602812752409670e-01	 2.151879187143441e+01
 1.164055659696292e+00	 1.704965389236660e-01	 2.145300420968774e+01
 1.162511032589170e+00	 1.807284145044398e-01	 2.138226803801414e+01
 1.160871635377850e+00	 1.909757223370206e-01	 2.130628867014671e+01
 1.159136864354258e+00	 2.012372650903192e-01	 2.122474752010353e+01
 1.181060195163063e+00	 1.001477876948355e-01	 2.153163753086807e+01
 1.180153914941946e+00	 1.103153112067115e-01	 2.149259858970914e+01
 1.179156872363373e+00	 1.205063151100233e-01	 2.145006104399080e+01
 1.178068347634899e+00	 1.307197225096803e-01	 2.140387965573061e+01
 1.176887635334594e+00	 1.409544374301230e-01	 2.135388229817709e+01
 1.175614044933695e+00	 1.512093449871018e-01	 2.129986981760608e+01
 1.174246901319383e+00	 1.614833115747477e-01	 2.124161601622929e+01
 1.172785545317201e+00	 1.717751850680931e-01	 2.117886776737433e+01
 1.171229334212640e+00	 1.820837950411903e-01	 2.111134527458075e+01
 1.169577642271410e+00	 1.924079530009565e-01	 2.103874248671379e+01
 1.167829861257889e+00	 2.027464526368590e-01	 2.096072768162512e+01
 1.189851674950080e+00	 1.008932596463443e-01	 2.125195859721630e+01
 1.188938648633787e+00	 1.111364673421580e-01	 2.121469221397376e+01
 1.187934184350669e+00	 1.214033302109266e-01	 2.117413016523065e+01
 1.186837556950337e+00	 1.316927633414465e-01	 2.113012536377570e+01
 1.185648055759887e+00	 1.420036626000158e-01	 2.108250245097768e+01
 1.184364985110446e+00	 1.523349048034913e-01	 2.103105758812489e+01
 1.182987664863831e+00	 1.626853479077516e-01	 2.097555836797616e+01
 1.181515430938867e+00	 1.730538312117260e-01	 2.091574385806955e+01
 1.179947635836845e+00	 1.834391755771360e-01	 2.085132478786134e+01
 1.178283649165677e+00	 1.938401836640810e-01	 2.078198389226482e+01
 1.176522858162191e+00	 2.042556401825827e-01	 2.070737642462813e+01
 1.198643154737697e+00	 1.016387315975597e-01	 2.098329581333568e+01
 1.197723382326229e+00	 1.119576234772288e-01	 2.094773651250719e+01
 1.196711496338564e+00	 1.223003453113876e-01	 2.090907770138040e+01
 1.195606766266373e+00	 1.326658041727180e-01	 2.086717075989321e+01
 1.194408476185774e+00	 1.430528877693737e-01	 2.082183740385004e+01
 1.193115925287784e+00	 1.534604646193159e-01	 2.077286940197120e+01
 1.191728428408858e+00	 1.638873842401688e-01	 2.072002841197736e+01
 1.190245316561099e+00	 1.743324773547565e-01	 2.066304594764946e+01
 1.188665937461600e+00	 1.847945561124677e-01	 2.060162348937306e+01
 1.186989656060471e+00	 1.952724143265822e-01	 2.053543275121833e+01
 1.185215855066995e+00	 2.057648277276741e-01	 2.046411611811738e+01
 1.207434634525714e+00	 1.023842035485794e-01	 2.072504606005182e+01
 1.206508116019070e+00	 1.127787796120490e-01	 2.069113610132718e+01
 1.205488808326859e+00	 1.231973604115535e-01	 2.065431524388803e+01
 1.204375975582806e+00	 1.336388450036591e-01	 2.061443367833763e+01
 1.203168896612058e+00	 1.441021129383733e-01	 2.057131053143140e+01
 1.201866865465514e+00	 1.545860244347604e-01	 2.052473350491785e+01
 1.200469191954271e+00	 1.650894205721890e-01	 2.047445863194604e+01
 1.198975202183708e+00	 1.756111234973761e-01	 2.042021016338285e+01
 1.197384239086723e+00	 1.861499366473764e-01	 2.036168059699564e+01
 1.195695662955618e+00	 1.967046449886485e-01	 2.029853086304267e+01
 1.193908851972134e+00	 2.072740152723169e-01	 2.023039068037166e+01
 1.216226114313930e+00	 1.031296754995015e-01	 2.047662989577358e+01
 1.215292849712111e+00	 1.135999357467439e-01	 2.044431907093857e+01
 1.214266120315354e+00	 1.240943755115717e-01	 2.040927762802985e+01
 1.213145184899439e+00	 1.346118858344340e-01	 2.037135494010601e+01
 1.211929317038539e+00	 1.451513381071913e-01	 2.033036791283350e+01
 1.210617805643441e+00	 1.557115842500100e-01	 2.028610054111172e+01
 1.209209955499877e+00	 1.662914569040019e-01	 2.023830358149122e+01
 1.207705087806507e+00	 1.768897696397766e-01	 2.018669435313609e+01
 1.206102540712028e+00	 1.875053171820530e-01	 2.013095668074354e+01
 1.204401669850942e+00	 1.981368756504678e-01	 2.007074099346634e+01
 1.202601848877440e+00	 2.087832028166949e-01	 2.000566459448997e+01
 1.225017594102147e+00	 1.038751474504235e-01	 2.023749071240144e+01
 1.224077583405152e+00	 1.144210918814387e-01	 2.020673613708787e+01
 1.223043432303848e+00	 1.249913906115893e-01	 2.017342207727603e+01
 1.221914394216071e+00	 1.355849266652067e-01	 2.013739748969284e+01
 1.220689737465020e+00	 1.462005632760042e-01	 2.009847745957796e+01
 1.219368745821367e+00	 1.568371440652496e-01	 2.005644267099796e+01
 1.217950719045483e+00	 1.674934932357977e-01	 2.001103899085682e+01
 1.216434973429306e+00	 1.781684157821495e-01	 1.996197717977184e+01
 1.214820842337333e+00	 1.888606977166884e-01	 1.990893274369238e+01
 1.213107676746267e+00	 1.995691063122281e-01	 1.985154594082366e+01
 1.211294845782747e+00	 2.102923903609917e-01	 1.978942195907237e+01
 1.233809073890164e+00	 1.046206194014434e-01	 2.000709392545477e+01
 1.232862317097992e+00	 1.152422480162587e-01	 1.997785982557030e+01
 1.231820744292143e+00	 1.258884057117535e-01	 1.994622738156155e+01
 1.230683603532504e+00	 1.365579674961415e-01	 1.991204556562012e+01
 1.229450157891303e+00	 1.472497884449886e-01	 1.987512807719609e+01
 1.228119685999097e+00	 1.579627038806643e-01	 1.983525272281485e+01
 1.226691482590897e+00	 1.686955295677660e-01	 1.979216090715608e+01
 1.225164859051915e+00	 1.794470619246865e-01	 1.974555724898765e+01
 1.223539143962455e+00	 1.902160782514733e-01	 1.969510933630751e+01
 1.221813683641414e+00	 2.010013369741175e-01	 1.964044763578291e+01
 1.219987842687886e+00	 2.118015779053913e-01	 1.958116557228393e+01
 1.242600553677780e+00	 1.053660913526588e-01	 1.978492619672351e+01
 1.241647050790434e+00	 1.160634041513292e-01	 1.975718368940366e+01
 1.240598056280037e+00	 1.267854208122115e-01	 1.972719310778256e+01
 1.239452812848539e+00	 1.375310083274024e-01	 1.969480390306945e+01
 1.238210578317190e+00	 1.482990136143212e-01	 1.965982885882373e+01
 1.236870626176436e+00	 1.590882636964390e-01	 1.962204337599596e+01
 1.235432246135923e+00	 1.698975659000967e-01	 1.958118486644252e+01
 1.233894744674147e+00	 1.807257080675793e-01	 1.953695226893757e+01
 1.232257445587210e+00	 1.915714587865987e-01	 1.948900570252002e+01
 1.230519690536209e+00	 2.024335676363241e-01	 1.943696627280459e+01
 1.228680839592690e+00	 2.133107654500772e-01	 1.938041604764804e+01
 1.251392033464797e+00	 1.061115633041678e-01	 1.957049468784441e+01
 1.250431784482275e+00	 1.168845602867754e-01	 1.954422155677661e+01
 1.249375368267333e+00	 1.276824359131106e-01	 1.951583884093348e+01
 1.248222022163977e+00	 1.385040491591539e-01	 1.948519696703779e+01
 1.246970998742484e+00	 1.493482387841786e-01	 1.945210830921980e+01
 1.245621566353186e+00	 1.602138235127588e-01	 1.941634637491125e+01
 1.244173009680370e+00	 1.710996022329797e-01	 1.937764509605232e+01
 1.242624630295811e+00	 1.820043542110194e-01	 1.933569824007431e+01
 1.240975747211415e+00	 1.929268393222557e-01	 1.929015895598959e+01
 1.239225697430475e+00	 2.038657982990361e-01	 1.924063947176948e+01
 1.237373836496991e+00	 2.148199529952334e-01	 1.918671096000970e+01
 1.260183513251014e+00	 1.068570352560680e-01	 1.936332634329214e+01
 1.259216518173316e+00	 1.177057164227225e-01	 1.933850680826875e+01
 1.258152680253831e+00	 1.285794510145979e-01	 1.931170345438929e+01
 1.256991231478618e+00	 1.394770899915600e-01	 1.928276821452633e+01
 1.255731419166985e+00	 1.503974639547374e-01	 1.925151359772162e+01
 1.254372506529152e+00	 1.613393833298087e-01	 1.921771177146506e+01
 1.252913773224046e+00	 1.723016385666049e-01	 1.918109374573950e+01
 1.251354515916720e+00	 1.832830003551986e-01	 1.914134867373645e+01
 1.249694048834886e+00	 1.942822198586347e-01	 1.909812328508023e+01
 1.247931704324034e+00	 2.052980289624415e-01	 1.905102146830313e+01
 1.246066833400622e+00	 2.163291405410434e-01	 1.899960402019548e+01
 1.159136864354258e+00	 2.012372650903192e-01	 2.122474752010353e+01
 1.157306452922046e+00	 2.115100809470052e-01	 2.113930694279452e+01
 1.155379546441417e+00	 2.217946840330171e-01	 2.105160606299444e+01
 1.153355595754176e+00	 2.320898290506393e-01	 2.096130782472040e+01
 1.151234071072297e+00	 2.423942542335403e-01	 2.086806415960800e+01
 1.149014462474888e+00	 2.527066816735781e-01	 2.077151780135627e+01
 1.146696280400205e+00	 2.630258176635662e-01	 2.067130433663473e+01
 1.144279056132160e+00	 2.733503530559895e-01	 2.056705450542736e+01
 1.141762342280760e+00	 2.836789636376347e-01	 2.045839676372749e+01
 1.139145713255937e+00	 2.940103105200784e-01	 2.034496012135060e+01
 1.136428765734195e+00	 3.043430405459637e-01	 2.022637726740005e+01
 1.167829861257889e+00	 2.027464526368590e-01	 2.096072768162513e+01
 1.165985722576369e+00	 2.130963099192848e-01	 2.087904970423257e+01
 1.164044365177641e+00	 2.234580428298795e-01	 2.079543803476155e+01
 1.162005235785069e+00	 2.338303967317619e-01	 2.070954278939603e+01
 1.159867800637453e+00	 2.442121003959282e-01	 2.062099995235636e+01
 1.157631545989724e+00	 2.546018663305070e-01	 2.052943310961314e+01
 1.155295978608647e+00	 2.649983911260979e-01	 2.043445542472973e+01
 1.152860626262969e+00	 2.754003558171758e-01	 2.033567187061307e+01
 1.150325038207474e+00	 2.858064262595311e-01	 2.023268173091735e+01
 1.147688785660359e+00	 2.962152535236883e-01	 2.012508138472535e+01
 1.144951462273380e+00	 3.066254743042259e-01	 2.001246738791936e+01
 1.176522858162191e+00	 2.042556401825827e-01	 2.070737642462812e+01
 1.174664992231320e+00	 2.146825388907432e-01	 2.062932486360290e+01
 1.172709183914441e+00	 2.251214016259154e-01	 2.054963605898655e+01
 1.170654875816480e+00	 2.355709644120536e-01	 2.046794726613431e+01
 1.168501530203065e+00	 2.460299465574824e-01	 2.038387851288589e+01
 1.166248629504951e+00	 2.564970509866029e-01	 2.029703424827439e+01
 1.163895676817407e+00	 2.669709645878008e-01	 2.020700523886101e+01
 1.161442196394021e+00	 2.774503585775422e-01	 2.011337072730301e+01
 1.158887734134355e+00	 2.879338888806232e-01	 2.001570086775835e+01
 1.156231858064868e+00	 2.984201965265156e-01	 1.991355945263652e+01
 1.153474158812572e+00	 3.089079080617355e-01	 1.980650694501461e+01
 1.185215855066995e+00	 2.057648277276741e-01	 2.046411611811737e+01
 1.183344261886740e+00	 2.162687678615585e-01	 2.038955795051954e+01
 1.181374002651673e+00	 2.267847604212964e-01	 2.031363059289533e+01
 1.179304515848281e+00	 2.373115320916787e-01	 2.023595846180492e+01
 1.177135259769021e+00	 2.478477927183592e-01	 2.015614567490191e+01
 1.174865713020469e+00	 2.583922356420124e-01	 2.007377761011582e+01
 1.172495375026404e+00	 2.689435380488110e-01	 1.998842271777594e+01
 1.170023766525256e+00	 2.795003613372139e-01	 1.989963460113828e+01
 1.167450430061359e+00	 2.900613515010231e-01	 1.980695438080346e+01
 1.164774930469440e+00	 3.006251395286592e-01	 1.970991335844996e+01
 1.161996855351768e+00	 3.111903418185773e-01	 1.960803599514105e+01
 1.193908851972134e+00	 2.072740152723169e-01	 2.023039068037166e+01
 1.192023531542475e+00	 2.178549968319091e-01	 2.015919561478906e+01
 1.190038821389194e+00	 2.284481192161947e-01	 2.008687271250907e+01
 1.187954155880343e+00	 2.390520997708019e-01	 2.001303363028132e+01
 1.185768989335205e+00	 2.496656388787149e-01	 1.993726667896201e+01
 1.183482796536182e+00	 2.602874202968821e-01	 1.985913828839544e+01
 1.181095073235562e+00	 2.709161115092651e-01	 1.977819473036050e+01
 1.178605336656612e+00	 2.815503640963158e-01	 1.969396411592266e+01
 1.176013125988446e+00	 2.921888141208432e-01	 1.960595868359323e+01
 1.173318002874057e+00	 3.028300825302183e-01	 1.951367739466419e+01
 1.170519551890967e+00	 3.134727755748353e-01	 1.941660885194828e+01
 1.202601848877440e+00	 2.087832028166949e-01	 2.000566459448997e+01
 1.200702801198366e+00	 2.194412258019734e-01	 1.993770462633384e+01
 1.198703640126859e+00	 2.301114780107821e-01	 1.986883309813019e+01
 1.196603795912534e+00	 2.407926674495875e-01	 1.979864904471174e+01
 1.194402718901504e+00	 2.514834850387053e-01	 1.972672513279061e+01
 1.192099880051993e+00	 2.621826049513587e-01	 1.965260902650751e+01
 1.189694771444798e+00	 2.728886849692991e-01	 1.957582501596487e+01
 1.187186906788029e+00	 2.836003668549724e-01	 1.949587592598967e+01
 1.184575821915574e+00	 2.943162767401958e-01	 1.941224532247140e+01
 1.181861075278695e+00	 3.050350255312918e-01	 1.932440003361738e+01
 1.179042248430169e+00	 3.157552093305945e-01	 1.923179300336035e+01
 1.211294845782747e+00	 2.102923903609917e-01	 1.978942195907237e+01
 1.209382070854257e+00	 2.210274547719297e-01	 1.972457091022144e+01
 1.207368458864525e+00	 2.317748368052306e-01	 1.965900105483000e+01
 1.205253435944724e+00	 2.425332351282001e-01	 1.959229900461030e+01
 1.203036448467802e+00	 2.533013311984865e-01	 1.952402200615560e+01
 1.200716963567804e+00	 2.640777896055888e-01	 1.945369920186331e+01
 1.198294469654035e+00	 2.748612584290493e-01	 1.938083315854374e+01
 1.195768476919446e+00	 2.856503696133086e-01	 1.930490168189495e+01
 1.193138517842703e+00	 2.964437393591937e-01	 1.922535993515900e+01
 1.190404147683332e+00	 3.072399685319787e-01	 1.914164288031065e+01
 1.187564944969370e+00	 3.180376430859392e-01	 1.905316806005137e+01
 1.219987842687886e+00	 2.118015779053913e-01	 1.958116557228393e+01
 1.218061340509991e+00	 2.226136837419563e-01	 1.951929861505005e+01
 1.216033277602045e+00	 2.334381955997120e-01	 1.945688356619241e+01
 1.213903075976785e+00	 2.442738028068044e-01	 1.939349487603209e+01
 1.211670178033985e+00	 2.551191773582147e-01	 1.932867465858375e+01
 1.209334047083517e+00	 2.659729742597194e-01	 1.926193384229176e+01
 1.206894167863191e+00	 2.768338318886519e-01	 1.919275359292520e+01
 1.204350047050801e+00	 2.877003723714494e-01	 1.912058702777249e+01
 1.201701213769790e+00	 2.985712019779490e-01	 1.904486124045448e+01
 1.198947220087949e+00	 3.094449115323776e-01	 1.896497965574563e+01
 1.196087641508569e+00	 3.203200768409540e-01	 1.888032473375162e+01
 1.228680839592690e+00	 2.133107654500772e-01	 1.938041604764803e+01
 1.226740610165411e+00	 2.241999127122316e-01	 1.932140921303786e+01
 1.224698096339278e+00	 2.351015543943984e-01	 1.926200437966733e+01
 1.222552716008586e+00	 2.460143704855646e-01	 1.920176416319391e+01
 1.220303907599941e+00	 2.569370235180458e-01	 1.914021589828814e+01
 1.217951130599036e+00	 2.678681589138968e-01	 1.907685267335045e+01
 1.215493866072189e+00	 2.788064053482432e-01	 1.901113464161724e+01
 1.212931617182036e+00	 2.897503751295194e-01	 1.894249062878689e+01
 1.210263909696794e+00	 3.006986645965739e-01	 1.887032005751830e+01
 1.207490292492523e+00	 3.116498545325880e-01	 1.879399520926567e+01
 1.204610338047766e+00	 3.226025105957234e-01	 1.871286384390700e+01
 1.237373836496991e+00	 2.148199529952334e-01	 1.918671096000970e+01
 1.235419879820361e+00	 2.257861416829341e-01	 1.913044063025776e+01
 1.233362915076078e+00	 2.367649131894615e-01	 1.907390312197943e+01
 1.231202356039998e+00	 2.477549381646454e-01	 1.901664960999489e+01
 1.228937637165553e+00	 2.587548696781362e-01	 1.895819307077444e+01
 1.226568214114262e+00	 2.697633435682678e-01	 1.889800919502692e+01
 1.224093564280949e+00	 2.807789788079594e-01	 1.883553758065116e+01
 1.221513187313088e+00	 2.918003778876436e-01	 1.877018322720205e+01
 1.218826605623674e+00	 3.028261272151813e-01	 1.870131835328841e+01
 1.216033364897031e+00	 3.138547975327083e-01	 1.862828455847581e+01
 1.213133034586957e+00	 3.248849443503319e-01	 1.855039535129841e+01
 1.246066833400622e+00	 2.163291405410434e-01	 1.899960402019548e+01
 1.244099149474685e+00	 2.273723706542418e-01	 1.894594640554594e+01
 1.242027733812302e+00	 2.384282719850735e-01	 1.889213444312512e+01
 1.239851996070890e+00	 2.494955058442114e-01	 1.883770832997700e+01
 1.237571366730709e+00	 2.605727158386419e-01	 1.878216717567605e+01
 1.235185297629098e+00	 2.716585282229791e-01	 1.872496978639555e+01
 1.232693262489390e+00	 2.827515522679369e-01	 1.866553573304395e+01
 1.230094757443897e+00	 2.938503806459467e-01	 1.860324672566981e+01
 1.227389301550388e+00	 3.049535898338829e-01	 1.853744831665232e+01
 1.224576437301453e+00	 3.160597405328378e-01	 1.846745195539384e+01
 1.221655731126142e+00	 3.271673781048639e-01	 1.839253741730496e+01
 1.136428765734195e+00	 3.043430405459637e-01	 2.022637726740005e+01
 1.133611119364855e+00	 3.146757868552493e-01	 2.010324204815121e+01
 1.130692417964432e+00	 3.250071697687851e-01	 1.997599771012328e+01
 1.127672329218821e+00	 3.353357968314881e-01	 1.984407089057426e+01
 1.124550544867360e+00	 3.456602631396041e-01	 1.970691222904785e+01
 1.121326781123693e+00	 3.559791518240068e-01	 1.956400155250302e+01
 1.118000779086037e+00	 3.662910345483221e-01	 1.941485341410586e+01
 1.114572305136289e+00	 3.765944720216516e-01	 1.926016279466269e+01
 1.111041151327425e+00	 3.868880145256406e-01	 1.910437323720229e+01
 1.107407135758632e+00	 3.971702024556138e-01	 1.894878078613893e+01
 1.103670102937638e+00	 4.074395668754809e-01	 1.879416357083321e+01
 1.144951462273380e+00	 3.066254743042259e-01	 2.001246738791935e+01
 1.142112684843400e+00	 3.170357114902753e-01	 1.989547882720010e+01
 1.139172094515728e+00	 3.274445750557203e-01	 1.977460432676825e+01
 1.136129356484066e+00	 3.378506621026978e-01	 1.964922995265378e+01
 1.132984160175947e+00	 3.482525571913147e-01	 1.951876312539146e+01
 1.129736219676757e+00	 3.586488328265700e-01	 1.938263783181065e+01
 1.126385274143080e+00	 3.690380499602166e-01	 1.924032020395738e+01
 1.122931088204792e+00	 3.794187585073285e-01	 1.909366331670359e+01
 1.119373452355374e+00	 3.897894978773229e-01	 1.894630445426654e+01
 1.115712183329848e+00	 4.001487975191529e-01	 1.879833250785337e+01
 1.111947124469834e+00	 4.104951774803757e-01	 1.864980520095344e+01
 1.153474158812572e+00	 3.089079080617355e-01	 1.980650694501462e+01
 1.150614250321872e+00	 3.193956361245875e-01	 1.969523776910067e+01
 1.147651771066873e+00	 3.298819803419887e-01	 1.958029478235760e+01
 1.144586383749081e+00	 3.403655273732951e-01	 1.946102172012722e+01
 1.141417775484229e+00	 3.508448512424738e-01	 1.933678111493914e+01
 1.138145658229444e+00	 3.613185138286488e-01	 1.920695953467872e+01
 1.134769769199677e+00	 3.717850653716985e-01	 1.907102521819083e+01
 1.131289871272786e+00	 3.822430449926694e-01	 1.893219532702019e+01
 1.127705753382754e+00	 3.926909812287492e-01	 1.879264488631996e+01
 1.124017230900445e+00	 4.031273925825186e-01	 1.865239842602232e+01
 1.120224146001366e+00	 4.135507880851814e-01	 1.851150159241107e+01
 1.161996855351768e+00	 3.111903418185773e-01	 1.960803599514105e+01
 1.159115815800289e+00	 3.217555607582549e-01	 1.950208349971767e+01
 1.156131447617902e+00	 3.323193856276428e-01	 1.939266319887789e+01
 1.153043411013923e+00	 3.428803926433160e-01	 1.927907482948521e+01
 1.149851390792280e+00	 3.534371452931002e-01	 1.916063445455232e+01
 1.146555096781848e+00	 3.639881948302445e-01	 1.903667972713463e+01
 1.143154264255939e+00	 3.745320807827520e-01	 1.890702078797658e+01
 1.139648654340397e+00	 3.850673314776409e-01	 1.877551809518174e+01
 1.136038054409709e+00	 3.955924645798689e-01	 1.864319890917183e+01
 1.132322278470577e+00	 4.061059876456440e-01	 1.851007514895248e+01
 1.128501167532400e+00	 4.166063986898156e-01	 1.837618012453420e+01
 1.170519551890967e+00	 3.134727755748353e-01	 1.941660885194828e+01
 1.167617381278668e+00	 3.241154853913467e-01	 1.931559381085376e+01
 1.164611124168855e+00	 3.347567909127361e-01	 1.921131564756288e+01
 1.161500438278651e+00	 3.453952579127965e-01	 1.910302852574426e+01
 1.158285006100180e+00	 3.560294393432130e-01	 1.899000054636279e+01
 1.154964535334063e+00	 3.666578758313583e-01	 1.887151903626726e+01
 1.151538759311978e+00	 3.772790961933608e-01	 1.874807642567883e+01
 1.148007437407754e+00	 3.878916179622096e-01	 1.862338776845468e+01
 1.144370355436380e+00	 3.984939479306318e-01	 1.849776643139771e+01
 1.140627326040400e+00	 4.090845827084624e-01	 1.837121122165586e+01
 1.136778189063103e+00	 4.196620092941962e-01	 1.824374284800071e+01
 1.179042248430169e+00	 3.157552093305945e-01	 1.923179300336035e+01
 1.176118946757030e+00	 3.264754100239322e-01	 1.913535857658967e+01
 1.173090800719770e+00	 3.371941961973210e-01	 1.903586906882162e+01
 1.169957465543320e+00	 3.479101231817727e-01	 1.893253159037709e+01
 1.166718621408004e+00	 3.586217333928308e-01	 1.882456487820282e+01
 1.163373973886183e+00	 3.693275568319918e-01	 1.871120460773660e+01
 1.159923254367905e+00	 3.800261116035090e-01	 1.859390737257534e+01
 1.156366220474983e+00	 3.907159044463420e-01	 1.847555707259900e+01
 1.152702656462909e+00	 4.013954312809876e-01	 1.835614241777995e+01
 1.148932373610068e+00	 4.120631777709072e-01	 1.823564859623700e+01
 1.145055210593639e+00	 4.227176198982410e-01	 1.811408344285963e+01
 1.187564944969370e+00	 3.180376430859392e-01	 1.905316806005137e+01
 1.184620512235391e+00	 3.288353346560799e-01	 1.896097870016435e+01
 1.181570477270685e+00	 3.396316014814507e-01	 1.886595022165483e+01
 1.178414492807989e+00	 3.504249884502805e-01	 1.876724129748129e+01
 1.175152236715827e+00	 3.612140274419724e-01	 1.866401999082439e+01
 1.171783412438303e+00	 3.719972378321463e-01	 1.855552367938393e+01
 1.168307749423834e+00	 3.827731270131802e-01	 1.844422651616880e+01
 1.164725003542212e+00	 3.935401909300046e-01	 1.833177503391683e+01
 1.161034957489440e+00	 4.042969146308856e-01	 1.821811666735163e+01
 1.157237421179736e+00	 4.150417728329116e-01	 1.810322247024657e+01
 1.153332232124176e+00	 4.257732305018673e-01	 1.798708712150714e+01
 1.196087641508569e+00	 3.203200768409540e-01	 1.888032473375162e+01
 1.193122077713771e+00	 3.311952592878596e-01	 1.879206508987209e+01
 1.190050153821638e+00	 3.420690067651778e-01	 1.870119466108915e+01
 1.186871520072717e+00	 3.529398537183563e-01	 1.860682239677879e+01
 1.183585852023727e+00	 3.638063214906566e-01	 1.850806447057242e+01
 1.180192850990518e+00	 3.746669188318231e-01	 1.840441406409472e+01
 1.176692244479873e+00	 3.855201424223584e-01	 1.829874408269640e+01
 1.173083786609569e+00	 3.963644774131641e-01	 1.819178672149397e+01
 1.169367258516111e+00	 4.071983979802760e-01	 1.808347360948529e+01
 1.165542468749559e+00	 4.180203678944087e-01	 1.797376114073321e+01
 1.161609253654879e+00	 4.288288411049933e-01	 1.786263054481971e+01
 1.204610338047766e+00	 3.226025105957234e-01	 1.871286384390699e+01
 1.201623643192187e+00	 3.335551839193402e-01	 1.862823766254042e+01
 1.198529830372667e+00	 3.445064120485555e-01	 1.854124574224205e+01
 1.195328547337559e+00	 3.554547189860359e-01	 1.845094612211691e+01
 1.192019467331779e+00	 3.663986155389025e-01	 1.835640196625087e+01
 1.188602289542922e+00	 3.773365998310234e-01	 1.825758008022087e+01
 1.185076739536135e+00	 3.882671578310274e-01	 1.815716735069014e+01
 1.181442569677181e+00	 3.991887638957868e-01	 1.805533300863502e+01
 1.177699559543066e+00	 4.100998813291077e-01	 1.795199211713195e+01
 1.173847516319692e+00	 4.209989629553322e-01	 1.784708587321811e+01
 1.169886275185913e+00	 4.318844517075364e-01	 1.774058175079327e+01
 1.213133034586957e+00	 3.248849443503319e-01	 1.855039535129841e+01
 1.210125208670659e+00	 3.359151085505906e-01	 1.846912437323294e+01
 1.207009506923811e+00	 3.469438173316365e-01	 1.838575364970854e+01
 1.203785574602574e+00	 3.579695842533556e-01	 1.829928922421909e+01
 1.200453082640061e+00	 3.689909095867285e-01	 1.820874022899370e+01
 1.197011728095609e+00	 3.800062808297490e-01	 1.811469770816637e+01
 1.193461234592732e+00	 3.910141732391713e-01	 1.801920038455287e+01
 1.189801352745175e+00	 4.020130503778395e-01	 1.792215035254908e+01
 1.186031860570447e+00	 4.130013646773308e-01	 1.782344533636959e+01
 1.182152563890289e+00	 4.239775580156149e-01	 1.772301078485878e+01
 1.178163296717446e+00	 4.349400623094145e-01	 1.762080009507449e+01
 1.221655731126142e+00	 3.271673781048639e-01	 1.839253741730496e+01
 1.218626774149205e+00	 3.382750331816800e-01	 1.831436026989681e+01
 1.215489183475108e+00	 3.493812226144739e-01	 1.823437445103373e+01
 1.212242601867819e+00	 3.604844495203512e-01	 1.815153302650005e+01
 1.208886697948648e+00	 3.715832036341537e-01	 1.806481021253379e+01
 1.205421166648673e+00	 3.826759618280010e-01	 1.797544052114560e+01
 1.201845729649776e+00	 3.937611886467735e-01	 1.788454378717416e+01
 1.198160135813678e+00	 4.048373368592888e-01	 1.779197059139503e+01
 1.194364161598396e+00	 4.159028480248947e-01	 1.769760053146363e+01
 1.190457611461505e+00	 4.269561530751902e-01	 1.760134274110994e+01
 1.186440318249641e+00	 4.379956729105452e-01	 1.750313620280388e+01
 1.103670102937638e+00	 4.074395668754809e-01	 1.879416357083321e+01
 1.099829262360247e+00	 4.176963721710397e-01	 1.863801383225574e+01
 1.095885138284579e+00	 4.279373842656255e-01	 1.847793487619860e+01
 1.091837655705804e+00	 4.381611084204264e-01	 1.831408901858649e+01
 1.087686767358405e+00	 4.483660428917192e-01	 1.814663693514666e+01
 1.083432454007551e+00	 4.585506795500225e-01	 1.797573584751349e+01
 1.079074724724561e+00	 4.687135045107917e-01	 1.780153781879589e+01
 1.074613617145979e+00	 4.788529987762081e-01	 1.762418817616932e+01
 1.070049197715797e+00	 4.889676388875796e-01	 1.744382407779196e+01
 1.065381561910370e+00	 4.990558975878605e-01	 1.726057324096362e+01
 1.060610834445606e+00	 5.091162444937753e-01	 1.707455284794046e+01
 1.111947124469834e+00	 4.104951774803757e-01	 1.864980520095343e+01
 1.108077479342722e+00	 4.208289041295597e-01	 1.849882788170324e+01
 1.104103776138325e+00	 4.311467191359472e-01	 1.834419021644535e+01
 1.100025939289305e+00	 4.414471165508733e-01	 1.818608455833293e+01
 1.095843921175665e+00	 4.517285833682289e-01	 1.802466461062382e+01
 1.091557702418317e+00	 4.619896001482553e-01	 1.786008169844109e+01
 1.087167292156603e+00	 4.722286416529718e-01	 1.769248297563504e+01
 1.082672728309315e+00	 4.824441774927753e-01	 1.752200976212454e+01
 1.078074077818739e+00	 4.926346727837354e-01	 1.734879602986528e+01
 1.073371436877250e+00	 5.027985888150822e-01	 1.717296705519905e+01
 1.068564931136062e+00	 5.129343837263703e-01	 1.699463825482332e+01
 1.120224146001366e+00	 4.135507880851814e-01	 1.851150159241108e+01
 1.116325696324497e+00	 4.239614360880763e-01	 1.836772439619130e+01
 1.112322413991342e+00	 4.343560540063507e-01	 1.821894390658609e+01
 1.108214222872052e+00	 4.447331246814866e-01	 1.806574540417311e+01
 1.104001074992155e+00	 4.550911238449870e-01	 1.790948320501078e+01
 1.099682950828301e+00	 4.654285207468165e-01	 1.775038499582738e+01
 1.095259859587853e+00	 4.757437787955558e-01	 1.758860000762230e+01
 1.090731839471855e+00	 4.860353562098174e-01	 1.742427209463527e+01
 1.086098957920882e+00	 4.963017066804309e-01	 1.725753812004362e+01
 1.081361311843331e+00	 5.065412800429014e-01	 1.708852651380580e+01
 1.076519027825718e+00	 5.167525229596125e-01	 1.691735602077674e+01
 1.128501167532400e+00	 4.166063986898156e-01	 1.837618012453421e+01
 1.124573913305746e+00	 4.270939680464921e-01	 1.823944989738378e+01
 1.120541051843811e+00	 4.375653888767255e-01	 1.809791614658002e+01
 1.116402506454235e+00	 4.480191328121430e-01	 1.795173262475804e+01
 1.112158228808068e+00	 4.584536643218595e-01	 1.780109203853126e+01
 1.107808199237697e+00	 4.688674413455605e-01	 1.764671138922022e+01
 1.103352427018511e+00	 4.792589159383890e-01	 1.748995984790784e+01
 1.098790950633799e+00	 4.896265349271706e-01	 1.733104210729664e+01
 1.094123838022425e+00	 4.999687405774948e-01	 1.717010395254670e+01
 1.089351186808811e+00	 5.102839712711402e-01	 1.700728251882476e+01
 1.084473124514775e+00	 5.205706621933194e-01	 1.684270493343944e+01
 1.136778189063103e+00	 4.196620092941962e-01	 1.824374284800071e+01
 1.132822130286645e+00	 4.302265000047105e-01	 1.811347886525391e+01
 1.128759689695915e+00	 4.407747237469610e-01	 1.797862531585626e+01
 1.124590790036041e+00	 4.513051409427194e-01	 1.783931752560995e+01
 1.120315382623595e+00	 4.618162047987112e-01	 1.769573143786541e+01
 1.115933447646702e+00	 4.723063619443426e-01	 1.754808278399825e+01
 1.111444994448772e+00	 4.827740530813165e-01	 1.739662601411878e+01
 1.106850061795343e+00	 4.932177136446720e-01	 1.724238364894985e+01
 1.102148718123570e+00	 5.036357744747566e-01	 1.708654376261394e+01
 1.097341061773892e+00	 5.140266624996217e-01	 1.692926261405121e+01
 1.092427221203431e+00	 5.243888014273070e-01	 1.677068073267922e+01
 1.145055210593639e+00	 4.227176198982410e-01	 1.811408344285963e+01
 1.141070347267370e+00	 4.333590319626346e-01	 1.798975522370523e+01
 1.136978327547836e+00	 4.439840586169468e-01	 1.786105775200862e+01
 1.132779073617660e+00	 4.545911490730927e-01	 1.772811363104059e+01
 1.128472536438929e+00	 4.651787452754078e-01	 1.759108744871214e+01
 1.124058696055512e+00	 4.757452825430175e-01	 1.745018496678085e+01
 1.119537561878837e+00	 4.862891902241840e-01	 1.730565205965147e+01
 1.114909172956689e+00	 4.968088923621582e-01	 1.715777339612647e+01
 1.110173598224515e+00	 5.073028083720453e-01	 1.700690388737701e+01
 1.105330936738772e+00	 5.177693537281682e-01	 1.685449042867390e+01
 1.100381317891887e+00	 5.282069406613931e-01	 1.670127551715439e+01
 1.153332232124176e+00	 4.257732305018673e-01	 1.798708712150714e+01
 1.149318564248094e+00	 4.364915639201673e-01	 1.786821276834315e+01
 1.145196965399759e+00	 4.471933934865727e-01	 1.774518823655132e+01
 1.140967357199277e+00	 4.578771572031403e-01	 1.761812895596389e+01
 1.136629690254264e+00	 4.685412857518146e-01	 1.748719341860635e+01
 1.132183944464321e+00	 4.791842031414399e-01	 1.735258237713126e+01
 1.127630129308901e+00	 4.898043273668362e-01	 1.721453778211580e+01
 1.122968284118035e+00	 5.004000710794656e-01	 1.707334145105552e+01
 1.118198478325460e+00	 5.109698422691897e-01	 1.692931346323932e+01
 1.113320811703653e+00	 5.215120449566023e-01	 1.678281027614457e+01
 1.108335414580344e+00	 5.320250798953942e-01	 1.663447715731494e+01
 1.161609253654879e+00	 4.288288411049933e-01	 1.786263054481972e+01
 1.157566781228993e+00	 4.396240958772121e-01	 1.774877514244807e+01
 1.153415603251863e+00	 4.504027283557278e-01	 1.763098002200541e+01
 1.149155640781084e+00	 4.611631653327386e-01	 1.750935883646160e+01
 1.144786844069792e+00	 4.719038262277970e-01	 1.738406909585911e+01
 1.140309192873327e+00	 4.826231237394645e-01	 1.725531136577256e+01
 1.135722696739162e+00	 4.933194645091186e-01	 1.712332819379179e+01
 1.131027395279580e+00	 5.039912497964312e-01	 1.698840275633605e+01
 1.126223358426605e+00	 5.146368761660195e-01	 1.685085721950917e+01
 1.121310686668735e+00	 5.252547361847464e-01	 1.671105080922251e+01
 1.116289511269000e+00	 5.358432191291277e-01	 1.656937758741865e+01
 1.169886275185913e+00	 4.318844517075364e-01	 1.774058175079327e+01
 1.165814998210243e+00	 4.427566278336720e-01	 1.763135582312047e+01
 1.161634241104332e+00	 4.536120632243018e-01	 1.751838486717920e+01
 1.157343924363267e+00	 4.644491734617650e-01	 1.740178600567730e+01
 1.152943997885704e+00	 4.752663667032204e-01	 1.728172073739976e+01
 1.148434441282723e+00	 4.860620443369463e-01	 1.715839412679117e+01
 1.143815264169820e+00	 4.968346016508763e-01	 1.703205371059887e+01
 1.139086506441523e+00	 5.075824285128914e-01	 1.690298811335148e+01
 1.134248238528149e+00	 5.183039100623631e-01	 1.677152536490836e+01
 1.129300561634215e+00	 5.289974274124229e-01	 1.663803091488617e+01
 1.124243607958056e+00	 5.396613583624100e-01	 1.650290534044814e+01
 1.178163296717446e+00	 4.349400623094145e-01	 1.762080009507449e+01
 1.174063215192018e+00	 4.458891597894502e-01	 1.751585811709820e+01
 1.169852878957349e+00	 4.568213980921843e-01	 1.740734308023998e+01
 1.165532207946015e+00	 4.677351815900962e-01	 1.729538067596551e+01
 1.161101151702194e+00	 4.786289071779501e-01	 1.718014122168522e+01
 1.156559689692707e+00	 4.895009649337401e-01	 1.706183883285664e+01
 1.151907831601071e+00	 5.003497387919548e-01	 1.694073030104629e+01
 1.147145617604063e+00	 5.111736072286830e-01	 1.681711366918783e+01
 1.142273118630292e+00	 5.219709439580501e-01	 1.669132649678848e+01
 1.137290436600296e+00	 5.327401186394548e-01	 1.656374380947142e+01
 1.132197704647713e+00	 5.434794975950584e-01	 1.643477572898557e+01
 1.186440318249641e+00	 4.379956729105452e-01	 1.750313620280388e+01
 1.182311432174493e+00	 4.490216917444495e-01	 1.740217516577466e+01
 1.178071516811096e+00	 4.600307329592652e-01	 1.729778356919732e+01
 1.173720491529515e+00	 4.710211897176092e-01	 1.719010062699069e+01
 1.169258305519455e+00	 4.819914476518518e-01	 1.707931016643075e+01
 1.164684938103474e+00	 4.929398855297004e-01	 1.696563977447012e+01
 1.160000399033113e+00	 5.038648759321990e-01	 1.684935963876420e+01
 1.155204728767399e+00	 5.147647859436427e-01	 1.673078107409218e+01
 1.150297998733234e+00	 5.256379778529094e-01	 1.661025472643718e+01
 1.145280311567176e+00	 5.364828098656644e-01	 1.648816844868808e+01
 1.140151801338169e+00	 5.472976368268900e-01	 1.636494484373916e+01
 1.060610834445606e+00	 5.091162444937753e-01	 1.707455284794045e+01
 1.055738006511554e+00	 5.191454442116863e-01	 1.688585847039973e+01
 1.050762458960495e+00	 5.291436749777426e-01	 1.669452769672487e+01
 1.045684404432864e+00	 5.391094013790461e-01	 1.650065355301930e+01
 1.040504085435939e+00	 5.490410876312676e-01	 1.630429631851305e+01
 1.035221774457164e+00	 5.589371982900342e-01	 1.610548326423186e+01
 1.029837774057543e+00	 5.687961989684474e-01	 1.590420867482239e+01
 1.024352416944811e+00	 5.786165570600982e-01	 1.570043416380439e+01
 1.018766066026104e+00	 5.883967424669228e-01	 1.549408929105480e+01
 1.013079114439890e+00	 5.981352283312306e-01	 1.528507248976158e+01
 1.007291985566919e+00	 6.078304917712264e-01	 1.507325230842837e+01
 1.068564931136062e+00	 5.129343837263703e-01	 1.699463825482331e+01
 1.063655559218690e+00	 5.230387978599927e-01	 1.681368843104281e+01
 1.058642697334096e+00	 5.331120107887881e-01	 1.662995650197558e+01
 1.053526559717424e+00	 5.431524755849616e-01	 1.644355610176764e+01
 1.048307390694655e+00	 5.531586449465021e-01	 1.625456637292572e+01
 1.042985464796769e+00	 5.631289719139037e-01	 1.606303162122234e+01
 1.037561086853845e+00	 5.730619105930658e-01	 1.586896126663118e+01
 1.032034592068782e+00	 5.829559168837306e-01	 1.567233010125484e+01
 1.026406346070359e+00	 5.928094492127962e-01	 1.547307886367677e+01
 1.020676744945409e+00	 6.026209692718354e-01	 1.527111513753842e+01
 1.014846215249852e+00	 6.123889427581338e-01	 1.506631458041224e+01
 1.076519027825718e+00	 5.167525229596125e-01	 1.691735602077674e+01
 1.071573111925027e+00	 5.269321515089876e-01	 1.674367235196951e+01
 1.066522935706896e+00	 5.370803466005551e-01	 1.656709506773308e+01
 1.061368715001185e+00	 5.471955497916245e-01	 1.638775688798836e+01
 1.056110695952571e+00	 5.572762022625033e-01	 1.620575438337796e+01
 1.050749155135574e+00	 5.673207455385539e-01	 1.602114754640673e+01
 1.045284399649348e+00	 5.773276222184746e-01	 1.583395967178074e+01
 1.039716767191954e+00	 5.872952767081590e-01	 1.564417755761498e+01
 1.034046626113814e+00	 5.972221559594681e-01	 1.545175203759126e+01
 1.028274375450128e+00	 6.071067102132397e-01	 1.525659885244540e+01
 1.022400444931984e+00	 6.169473937458408e-01	 1.505859986735969e+01
 1.084473124514775e+00	 5.205706621933194e-01	 1.684270493343944e+01
 1.079490664630763e+00	 5.308255051584834e-01	 1.667577438498700e+01
 1.074403174079098e+00	 5.410486824128525e-01	 1.650587736693515e+01
 1.069210870284345e+00	 5.512386239988405e-01	 1.633316427146639e+01
 1.063914001209887e+00	 5.613937595790750e-01	 1.615774776459895e+01
 1.058512845473778e+00	 5.715125191637869e-01	 1.597970227329157e+01
 1.053007712444251e+00	 5.815933338444743e-01	 1.579906379522115e+01
 1.047398942314525e+00	 5.916346365331834e-01	 1.561583004363838e+01
 1.041686906156670e+00	 6.016348627067389e-01	 1.542996093804996e+01
 1.035872005954248e+00	 6.115924511552439e-01	 1.524137944970299e+01
 1.029954674613517e+00	 6.215058447341478e-01	 1.504997280897028e+01
 1.092427221203431e+00	 5.243888014273070e-01	 1.677068073267923e+01
 1.087408217336101e+00	 5.347188588082925e-01	 1.660995604723293e+01
 1.082283412450898e+00	 5.450170182254889e-01	 1.644623505354012e+01
 1.077053025567106e+00	 5.552816982064155e-01	 1.627968451125331e+01
 1.071717306466803e+00	 5.655113168960207e-01	 1.611043195135237e+01
 1.066276535811584e+00	 5.757042927894047e-01	 1.593856507866463e+01
 1.060731025238754e+00	 5.858590454708664e-01	 1.576413151085935e+01
 1.055081117436697e+00	 5.959739963586046e-01	 1.558713886707765e+01
 1.049327186199125e+00	 6.060475694544086e-01	 1.540755521763495e+01
 1.043469636457968e+00	 6.160781920976479e-01	 1.522530990438927e+01
 1.037508904294649e+00	 6.260642957228550e-01	 1.504029473941174e+01
 1.100381317891887e+00	 5.282069406613931e-01	 1.670127551715439e+01
 1.095325770041238e+00	 5.386122124582273e-01	 1.654617558802728e+01
 1.090163650822499e+00	 5.489853540382726e-01	 1.638809679434364e+01
 1.084895180849667e+00	 5.593247724141557e-01	 1.622722106720286e+01
 1.079520611723520e+00	 5.696288742131441e-01	 1.606368967451722e+01
 1.074040226149189e+00	 5.798960664152100e-01	 1.589760253812040e+01
 1.068454338033057e+00	 5.901247570974516e-01	 1.572901790149444e+01
 1.062763292558668e+00	 6.003133561842228e-01	 1.555795236205585e+01
 1.056967466241380e+00	 6.104602762022775e-01	 1.538438128015147e+01
 1.051067266961487e+00	 6.205639330402516e-01	 1.520823957499274e+01
 1.045063133975582e+00	 6.306227467117621e-01	 1.502942291572157e+01
 1.108335414580344e+00	 5.320250798953942e-01	 1.663447715731494e+01
 1.103243322746374e+00	 5.425055661080999e-01	 1.648438736347092e+01
 1.098043889194100e+00	 5.529536898510131e-01	 1.633138760966510e+01
 1.092737336132228e+00	 5.633678466218662e-01	 1.617567391131126e+01
 1.087323916980236e+00	 5.737464315302493e-01	 1.601740024772156e+01
 1.081803916486794e+00	 5.840878400410043e-01	 1.585667779269434e+01
 1.076177650827359e+00	 5.943904687240315e-01	 1.569357451022316e+01
 1.070445467680639e+00	 6.046527160098385e-01	 1.552811513007610e+01
 1.064607746283636e+00	 6.148729829501458e-01	 1.536028151612977e+01
 1.058664897465007e+00	 6.250496739828550e-01	 1.519001343834567e+01
 1.052617363656515e+00	 6.351811977006688e-01	 1.501720975715822e+01
 1.116289511269000e+00	 5.358432191291277e-01	 1.656937758741865e+01
 1.111160875451712e+00	 5.463989197577231e-01	 1.642454112462823e+01
 1.105924127565902e+00	 5.569220256635186e-01	 1.627602822246068e+01
 1.100579491414989e+00	 5.674109208293535e-01	 1.612493884837408e+01
 1.095127222237152e+00	 5.778639888471396e-01	 1.597143886400249e+01
 1.089567606824600e+00	 5.882796136665901e-01	 1.581564982605083e+01
 1.083900963621862e+00	 5.986561803504070e-01	 1.565764860274465e+01
 1.078127642802811e+00	 6.089920758352523e-01	 1.549746729208866e+01
 1.072248026326091e+00	 6.192856896978132e-01	 1.533509354935477e+01
 1.066262527968726e+00	 6.295354149252588e-01	 1.517047133536857e+01
 1.060171593337648e+00	 6.397396486893756e-01	 1.500350209495715e+01
 1.124243607958056e+00	 5.396613583624100e-01	 1.650290534044814e+01
 1.119078428157448e+00	 5.502922734069091e-01	 1.636463523415977e+01
 1.113804365938102e+00	 5.608903614755977e-01	 1.622173012092259e+01
 1.108421646698150e+00	 5.714539950364231e-01	 1.607490684549665e+01
 1.102930527494469e+00	 5.819815461636191e-01	 1.592567590199373e+01
 1.097331297162805e+00	 5.924713872917693e-01	 1.577437275170150e+01
 1.091624276416765e+00	 6.029218919763792e-01	 1.562108244002222e+01
 1.085809817925383e+00	 6.133314356602649e-01	 1.546584375106650e+01
 1.079888306368947e+00	 6.236983964450802e-01	 1.530864949387879e+01
 1.073860158472846e+00	 6.340211558672622e-01	 1.514944722708974e+01
 1.067725823019181e+00	 6.442980996776826e-01	 1.498814043197443e+01
 1.132197704647713e+00	 5.434794975950584e-01	 1.643477572898556e+01
 1.126995980863785e+00	 5.541856270554704e-01	 1.630271810600905e+01
 1.121684604310903e+00	 5.648586972870597e-01	 1.616587978169558e+01
 1.116263801981911e+00	 5.754970692428815e-01	 1.602478746868132e+01
 1.110733832752385e+00	 5.860991034794907e-01	 1.587997624117274e+01
 1.105094987501610e+00	 5.966631609163446e-01	 1.573269510975978e+01
 1.099347589212268e+00	 6.071876036017492e-01	 1.558371256079292e+01
 1.093491993048554e+00	 6.176707954846768e-01	 1.543307346457242e+01
 1.087528586412402e+00	 6.281111031917473e-01	 1.528077522099909e+01
 1.081457788977566e+00	 6.385068968086658e-01	 1.512676846043504e+01
 1.075280052701313e+00	 6.488565506653895e-01	 1.497095821173118e+01
 1.140151801338169e+00	 5.472976368268900e-01	 1.636494484373916e+01
 1.134913533570922e+00	 5.580789807032194e-01	 1.623872082878969e+01
 1.129564842684505e+00	 5.688270330977130e-01	 1.610763293530795e+01
 1.124105957266472e+00	 5.795401434485337e-01	 1.597219890127367e+01
 1.118537138011102e+00	 5.902166607945590e-01	 1.583294418140229e+01
 1.112858677841215e+00	 6.008549345401176e-01	 1.569039760320459e+01
 1.107070902008571e+00	 6.114533152263181e-01	 1.554536907344334e+01
 1.101174168172526e+00	 6.220101553082881e-01	 1.539897872682852e+01
 1.095168866456658e+00	 6.325238099376140e-01	 1.525128963571387e+01
 1.089055419483085e+00	 6.429926377492694e-01	 1.510225504330854e+01
 1.082834282384246e+00	 6.534150016522964e-01	 1.495178109639982e+01
 1.007291985566919e+00	 6.078304917712264e-01	 1.507325230842836e+01
 1.001405133263364e+00	 6.174810148117503e-01	 1.486001386506321e+01
 9.954190425550976e-01	 6.270852857138690e-01	 1.464683421689694e+01
 9.893342288464844e-01	 6.366417991599383e-01	 1.443368539579361e+01
 9.831512375998286e-01	 6.461490568059063e-01	 1.422052408355816e+01
 9.768706442374566e-01	 6.556055680229007e-01	 1.400729420416227e+01
 9.704930540220390e-01	 6.650098506379701e-01	 1.379392981394180e+01
 9.640191019151049e-01	 6.743604316732268e-01	 1.358035828226510e+01
 9.574494524137537e-01	 6.836558480826636e-01	 1.336650375315752e+01
 9.507847993655814e-01	 6.928946474858871e-01	 1.315229087636452e+01
 9.440258657618684e-01	 7.020753888980267e-01	 1.293764879434307e+01
 1.014846215249852e+00	 6.123889427581338e-01	 1.506631458041224e+01
 1.008915214243577e+00	 6.221118403124096e-01	 1.486012025584697e+01
 1.002884230589933e+00	 6.317881388583758e-01	 1.465403727790135e+01
 9.967537835585789e-01	 6.414163217891901e-01	 1.444799494673498e+01
 9.905244227025363e-01	 6.509948795239019e-01	 1.424190264935763e+01
 9.841967277595369e-01	 6.605223102546007e-01	 1.403565255937423e+01
 9.777713085314413e-01	 6.699971206927113e-01	 1.382912265512634e+01
 9.712488047417002e-01	 6.794178268136822e-01	 1.362218004857938e+01
 9.646298858708372e-01	 6.887829545993260e-01	 1.341468461518858e+01
 9.579152509699865e-01	 6.980910407770571e-01	 1.320649291286584e+01
 9.511056284525322e-01	 7.073406335552738e-01	 1.299746237607716e+01
 1.022400444931984e+00	 6.169473937458408e-01	 1.505859986735969e+01
 1.016425295222991e+00	 6.267426658138692e-01	 1.485922871050273e+01
 1.010349418623969e+00	 6.364909920036813e-01	 1.465999104728605e+01
 1.004173338269877e+00	 6.461908444192387e-01	 1.446077232586272e+01
 9.978976078044521e-01	 6.558407022426891e-01	 1.426143338391999e+01
 9.915228112808313e-01	 6.654390524870845e-01	 1.406181325897537e+01
 9.850495630400686e-01	 6.749843907482238e-01	 1.386173233823980e+01
 9.784785075675356e-01	 6.844752219548921e-01	 1.366099584024746e+01
 9.718103193271798e-01	 6.939100611167204e-01	 1.345939761822757e+01
 9.650457025736762e-01	 7.032874340689307e-01	 1.325672427297329e+01
 9.581853911425121e-01	 7.126058782131882e-01	 1.305275956076442e+01
 1.029954674613517e+00	 6.215058447341478e-01	 1.504997280897028e+01
 1.023935376201805e+00	 6.313734913159278e-01	 1.485721575492421e+01
 1.017814606657407e+00	 6.411938451495862e-01	 1.466458491765306e+01
 1.011592892980577e+00	 6.509653670498839e-01	 1.447192080977860e+01
 1.005270792905772e+00	 6.606865249620703e-01	 1.427903449686209e+01
 9.988488948015339e-01	 6.703557947201551e-01	 1.408571052123569e+01
 9.923278175481102e-01	 6.799716608043150e-01	 1.389171018734140e+01
 9.857082103927933e-01	 6.895326170966674e-01	 1.369677520062319e+01
 9.789907527829566e-01	 6.990371676346639e-01	 1.350063164968865e+01
 9.721761541768139e-01	 7.084838273613314e-01	 1.330299431912007e+01
 9.652651538319589e-01	 7.178711228716030e-01	 1.310357131800657e+01
 1.037508904294649e+00	 6.260642957228550e-01	 1.504029473941173e+01
 1.031445457180219e+00	 6.360043168183867e-01	 1.485395410789528e+01
 1.025279794690444e+00	 6.458966982958904e-01	 1.466770399844208e+01
 1.019012447690877e+00	 6.557398896809278e-01	 1.448133894116790e+01
 1.012643978006694e+00	 6.655323476818468e-01	 1.429461903808348e+01
 1.006174978321839e+00	 6.752725369536177e-01	 1.410727300340065e+01
 9.996060720557555e-01	 6.849589308607914e-01	 1.391900158807353e+01
 9.929379132176571e-01	 6.945900122388203e-01	 1.372948138047244e+01
 9.861711862383420e-01	 7.041642741529737e-01	 1.353836897263810e+01
 9.793066057795643e-01	 7.136802206540840e-01	 1.334530547911692e+01
 9.723449165210218e-01	 7.231363675303518e-01	 1.314992139295138e+01
 1.045063133975582e+00	 6.306227467117621e-01	 1.502942291572157e+01
 1.038955538158433e+00	 6.406351423210455e-01	 1.484931191733452e+01
 1.032744982723282e+00	 6.505995514423945e-01	 1.466922836081973e+01
 1.026432002400977e+00	 6.605144123121706e-01	 1.448891978316904e+01
 1.020017163107413e+00	 6.703781704018210e-01	 1.430809416248904e+01
 1.013501061841940e+00	 6.801892791872760e-01	 1.412642307767113e+01
 1.006884326563193e+00	 6.899462009174608e-01	 1.394354527583848e+01
 1.000167616042309e+00	 6.996474073811618e-01	 1.375907063931523e+01
 9.933516196935103e-01	 7.092913806714665e-01	 1.357258454129765e+01
 9.864370573820904e-01	 7.188766139470123e-01	 1.338365257684043e+01
 9.794246792098521e-01	 7.284016121892672e-01	 1.319182565321806e+01
 1.052617363656515e+00	 6.351811977006688e-01	 1.501720975715822e+01
 1.046465619136647e+00	 6.452659678237042e-01	 1.484315200695703e+01
 1.040210170756118e+00	 6.553024045888980e-01	 1.466903229243953e+01
 1.033851557111074e+00	 6.652889349434135e-01	 1.449455018305778e+01
 1.027390348208127e+00	 6.752239931217954e-01	 1.431936040345558e+01
 1.020827145362030e+00	 6.851060214209344e-01	 1.414307611534570e+01
 1.014162581070614e+00	 6.949334709741305e-01	 1.396527263153719e+01
 1.007397318866934e+00	 7.047048025235035e-01	 1.378549155371277e+01
 1.000532053148636e+00	 7.144184871899589e-01	 1.360324532286164e+01
 9.935675089845566e-01	 7.240730072399407e-01	 1.341802216858518e+01
 9.865044418985992e-01	 7.336668568481826e-01	 1.322929144081393e+01
 1.060171593337648e+00	 6.397396486893756e-01	 1.500350209495715e+01
 1.053975700115061e+00	 6.498967933261628e-01	 1.483533113283134e+01
 1.047675358789154e+00	 6.600052577352021e-01	 1.466698356158081e+01
 1.041271111821368e+00	 6.700634575744565e-01	 1.449811004478027e+01
 1.034763533309033e+00	 6.800698158415720e-01	 1.432831095460721e+01
 1.028153228882305e+00	 6.900227636543970e-01	 1.415713977871519e+01
 1.021440835578206e+00	 6.999207410306072e-01	 1.398410698449255e+01
 1.014627021691712e+00	 7.097621976656561e-01	 1.380868433215602e+01
 1.007712486603895e+00	 7.195455937082684e-01	 1.363030962531177e+01
 1.000697960587126e+00	 7.292694005326930e-01	 1.344839188479408e+01
 9.935842045874139e-01	 7.389321015069312e-01	 1.326231692879107e+01
 1.067725823019181e+00	 6.442980996776826e-01	 1.498814043197443e+01
 1.061485781093874e+00	 6.545276188282213e-01	 1.482569924934239e+01
 1.055140546822588e+00	 6.647081108811067e-01	 1.466294269019958e+01
 1.048690666532057e+00	 6.748379802051019e-01	 1.449947160989738e+01
 1.042136718410326e+00	 6.849156385609526e-01	 1.433483095948651e+01
 1.035479312402956e+00	 6.949395058874676e-01	 1.416851332032721e+01
 1.028719090086158e+00	 7.049080110866980e-01	 1.399996292220051e+01
 1.021856724516829e+00	 7.148195928074316e-01	 1.382858013622535e+01
 1.014892920059460e+00	 7.246727002262118e-01	 1.365372643093317e+01
 1.007828412189962e+00	 7.344657938250938e-01	 1.347472977690193e+01
 1.000663967276446e+00	 7.441973461653458e-01	 1.329154768448201e+01
 1.075280052701313e+00	 6.488565506653895e-01	 1.497095821173118e+01
 1.068995862073288e+00	 6.591584443296803e-01	 1.481409878409629e+01
 1.062605734856620e+00	 6.694109640264118e-01	 1.465676223545487e+01
 1.056110221243340e+00	 6.796125028351502e-01	 1.449849874652407e+01
 1.049509903512206e+00	 6.897614612797396e-01	 1.433879680873265e+01
 1.042805395924178e+00	 6.998562481199506e-01	 1.417708688925579e+01
 1.035997344594661e+00	 7.098952811422102e-01	 1.401274560657366e+01
 1.029086427342466e+00	 7.198769879486409e-01	 1.384510040771420e+01
 1.022073353515506e+00	 7.297998067436061e-01	 1.367343473525106e+01
 1.014958863793230e+00	 7.396621871169671e-01	 1.349699366903782e+01
 1.007743729965846e+00	 7.494625908232602e-01	 1.331897968419172e+01
 1.082834282384246e+00	 6.534150016522964e-01	 1.495178109639982e+01
 1.076505943053501e+00	 6.637892698303393e-01	 1.480036392132949e+01
 1.070070922891450e+00	 6.741138171709183e-01	 1.464828607929373e+01
 1.063529775955415e+00	 6.843870254644014e-01	 1.449504624587464e+01
 1.056883088614866e+00	 6.946072839977351e-01	 1.434007544439970e+01
 1.050131479446166e+00	 7.047729903516500e-01	 1.418274084403510e+01
 1.043275599103903e+00	 7.148825511969510e-01	 1.402235009635812e+01
 1.036316130168806e+00	 7.249343830890960e-01	 1.385815620142472e+01
 1.029253786972209e+00	 7.349269132602679e-01	 1.368936289112077e+01
 1.022089315397092e+00	 7.448585804081368e-01	 1.351595933674781e+01
 1.014823492655765e+00	 7.547278354805068e-01	 1.334443162485696e+01
 9.440258657618684e-01	 7.020753888980267e-01	 1.293764879434306e+01
 9.371722312564811e-01	 7.111981881576777e-01	 1.272085541343695e+01
 9.302258211404490e-01	 7.202600583862604e-01	 1.249981530856279e+01
 9.231874486874327e-01	 7.292595911757217e-01	 1.227378734043958e+01
 9.160579553103223e-01	 7.381953923657890e-01	 1.204202625881080e+01
 9.088382102458218e-01	 7.470660827468745e-01	 1.180685315559534e+01
 9.015291102181738e-01	 7.558702987547489e-01	 1.157611259006087e+01
 8.941315790822691e-01	 7.646066931562584e-01	 1.134995615140112e+01
 8.866465674464368e-01	 7.732739357253688e-01	 1.112802459752066e+01
 8.790750522752150e-01	 7.818707139088330e-01	 1.090991570447421e+01
 8.714180364724508e-01	 7.903957334807954e-01	 1.069518369234536e+01
 9.511056284525322e-01	 7.073406335552738e-01	 1.299746237607716e+01
 9.442005948199346e-01	 7.165318496413063e-01	 1.278554741163759e+01
 9.372020898020160e-01	 7.256616797563571e-01	 1.256836691088790e+01
 9.301109327716072e-01	 7.347287049299641e-01	 1.234516554034555e+01
 9.229279714517997e-01	 7.437315205462982e-01	 1.211585120977757e+01
 9.156540815981642e-01	 7.526687370523376e-01	 1.188832321010502e+01
 9.082901666599540e-01	 7.615389806577543e-01	 1.166487023986561e+01
 9.008371574205393e-01	 7.703408940257686e-01	 1.144519336242331e+01
 8.932960116173648e-01	 7.790731369542668e-01	 1.122895166046406e+01
 8.856677135417462e-01	 7.877343870464623e-01	 1.101576146183846e+01
 8.779532736188399e-01	 7.963233403704034e-01	 1.080519567913348e+01
 9.581853911425121e-01	 7.126058782131882e-01	 1.305275956076442e+01
 9.512289583827420e-01	 7.218655111255589e-01	 1.284516802834515e+01
 9.441783584629813e-01	 7.310633011270273e-01	 1.263131900890771e+01
 9.370344168552288e-01	 7.401978186847248e-01	 1.241044428863651e+01
 9.297979875927751e-01	 7.492676487272668e-01	 1.218700741141985e+01
 9.224699529500577e-01	 7.582713913582004e-01	 1.196708623394053e+01
 9.150512231013397e-01	 7.672076625610975e-01	 1.175046117208001e+01
 9.075427357584669e-01	 7.760750948955559e-01	 1.153685375475955e+01
 8.999454557880022e-01	 7.848723381833849e-01	 1.132594376362017e+01
 8.922603748080340e-01	 7.935980601842565e-01	 1.111736836524616e+01
 8.844885107650281e-01	 8.022509472601288e-01	 1.091072135789400e+01
 9.652651538319589e-01	 7.178711228716030e-01	 1.310357131800657e+01
 9.582573219450380e-01	 7.271991726102791e-01	 1.289977038141033e+01
 9.511546271234597e-01	 7.364649224981273e-01	 1.268874675421187e+01
 9.439579009383914e-01	 7.456669324398738e-01	 1.247139836039687e+01
 9.366680037333223e-01	 7.548037769085791e-01	 1.225580849363767e+01
 9.292858243015548e-01	 7.638740456643593e-01	 1.204299780973124e+01
 9.218122795423613e-01	 7.728763444646892e-01	 1.183275123541519e+01
 9.142483140960651e-01	 7.818092957655439e-01	 1.162481317677794e+01
 9.065948999583420e-01	 7.906715394126563e-01	 1.141888644559759e+01
 8.988530360740573e-01	 7.994617333221602e-01	 1.121463129129493e+01
 8.910237479109830e-01	 8.081785541499212e-01	 1.101166454822426e+01
 9.723449165210218e-01	 7.231363675303518e-01	 1.314992139295138e+01
 9.652856855069558e-01	 7.325328340953110e-01	 1.294940011086736e+01
 9.581308957835671e-01	 7.418665438695140e-01	 1.274080473526833e+01
 9.508813850211906e-01	 7.511360461952811e-01	 1.253032972425642e+01
 9.435380198735148e-01	 7.603399050901185e-01	 1.232207448223691e+01
 9.361016956527080e-01	 7.694766999707124e-01	 1.211588806728816e+01
 9.285733359830514e-01	 7.785450263684408e-01	 1.191158047351849e+01
 9.209538924333449e-01	 7.875434966356567e-01	 1.170892135447028e+01
 9.132443441283795e-01	 7.964707406420167e-01	 1.150763884213404e+01
 9.054456973397951e-01	 8.053254064601162e-01	 1.130741847192400e+01
 8.975589850566711e-01	 8.141061610397301e-01	 1.110790222387261e+01
 9.794246792098521e-01	 7.284016121892672e-01	 1.319182565321806e+01
 9.723140490686299e-01	 7.378664955804988e-01	 1.299409474255067e+01
 9.651071644434184e-01	 7.472681652410436e-01	 1.279000940407572e+01
 9.578048691037211e-01	 7.566051599508157e-01	 1.258704181761989e+01
 9.504080360134270e-01	 7.658760332717687e-01	 1.238560054905894e+01
 9.429175670035700e-01	 7.750793542771577e-01	 1.218556190700008e+01
 9.353343924234413e-01	 7.842137082722636e-01	 1.198676335691049e+01
 9.276594707703180e-01	 7.932776975058171e-01	 1.178900213058236e+01
 9.198937882981078e-01	 8.022699418713994e-01	 1.159203393102896e+01
 9.120383586052256e-01	 8.111890795980683e-01	 1.139557174371351e+01
 9.040942222020594e-01	 8.200337679295063e-01	 1.119928476492229e+01
 9.865044418985992e-01	 7.336668568481826e-01	 1.322929144081393e+01
 9.793424126301939e-01	 7.432001570656864e-01	 1.303425312593044e+01
 9.720834331031291e-01	 7.526697866125723e-01	 1.283730871621914e+01
 9.647283531860783e-01	 7.620742737063482e-01	 1.264129572211610e+01
 9.572780521531328e-01	 7.714121614534136e-01	 1.244615722806301e+01
 9.497334383541932e-01	 7.806820085835927e-01	 1.225179922523661e+01
 9.420954488635623e-01	 7.898823901760680e-01	 1.205808901645378e+01
 9.343650491069970e-01	 7.990118983759491e-01	 1.186485370484935e+01
 9.265432324675217e-01	 8.080691431007399e-01	 1.167187877780168e+01
 9.186310198703277e-01	 8.170527527359595e-01	 1.147890679757794e+01
 9.106294593471145e-01	 8.259613748191990e-01	 1.128563621009368e+01
 9.935842045874139e-01	 7.389321015069312e-01	 1.326231692879107e+01
 9.863707761917819e-01	 7.485338185507181e-01	 1.307232210965332e+01
 9.790597017628141e-01	 7.580714079839570e-01	 1.288243062557957e+01
 9.716518372683572e-01	 7.675433874617485e-01	 1.269282848483042e+01
 9.641480682927054e-01	 7.769482896349368e-01	 1.250349063380471e+01
 9.565493097046298e-01	 7.862846628899146e-01	 1.231435514165581e+01
 9.488565053034465e-01	 7.955510720797655e-01	 1.212532147827629e+01
 9.410706274433931e-01	 8.047460992459757e-01	 1.193624887527933e+01
 9.331926766366142e-01	 8.138683443299721e-01	 1.174695478203634e+01
 9.252236811350806e-01	 8.229164258737331e-01	 1.155721342883458e+01
 9.171646964918033e-01	 8.318889817087582e-01	 1.136675450915715e+01
 1.000663967276446e+00	 7.441973461653458e-01	 1.329154768448201e+01
 9.933991397535278e-01	 7.538674800354376e-01	 1.310849245493221e+01
 9.860359704225894e-01	 7.634730293550537e-01	 1.292507966287131e+01
 9.785753213506526e-01	 7.730125012168860e-01	 1.274135332956699e+01
 9.710180844322190e-01	 7.824844178162224e-01	 1.255732268219101e+01
 9.633651810549324e-01	 7.918873171960218e-01	 1.237296022832232e+01
 9.556175617431246e-01	 8.012197539832674e-01	 1.218819990007842e+01
 9.477762057795182e-01	 8.104803001158215e-01	 1.200293528043330e+01
 9.398421208053800e-01	 8.196675455590305e-01	 1.181701792438053e+01
 9.318163423994631e-01	 8.287800990113333e-01	 1.163025578762699e+01
 9.236999336360932e-01	 8.378165885981341e-01	 1.144241177545145e+01
 1.007743729965846e+00	 7.494625908232602e-01	 1.331897968419173e+01
 1.000427503315565e+00	 7.592011415196893e-01	 1.314243722660303e+01
 9.930122390825695e-01	 7.688746507257190e-01	 1.296493713947702e+01
 9.854988054330599e-01	 7.784816149716307e-01	 1.278655987075319e+01
 9.778881005717478e-01	 7.880205459971537e-01	 1.260735131340134e+01
 9.701810524051532e-01	 7.974899715018113e-01	 1.242732074054550e+01
 9.623786181826289e-01	 8.068884358864846e-01	 1.224643880875285e+01
 9.544817841153842e-01	 8.162145009854088e-01	 1.206463564265148e+01
 9.464915649738130e-01	 8.254667467878500e-01	 1.188179901416406e+01
 9.384090036634535e-01	 8.346437721487031e-01	 1.169777262968590e+01
 9.302351707799503e-01	 8.437441954872766e-01	 1.151235453850183e+01
 1.014823492655765e+00	 7.547278354805068e-01	 1.334443162485696e+01
 1.007455866878029e+00	 7.645348030033171e-01	 1.317380687856953e+01
 9.999885077428706e-01	 7.742762720958096e-01	 1.300166135428439e+01
 9.924222895156739e-01	 7.839507287258528e-01	 1.282811432985905e+01
 9.847581167113650e-01	 7.935566741776144e-01	 1.265325071686513e+01
 9.769969237553450e-01	 8.030926258071813e-01	 1.247711884935496e+01
 9.691396746219908e-01	 8.125571177893284e-01	 1.229972833925485e+01
 9.611873624510034e-01	 8.219487018546621e-01	 1.212104801217969e+01
 9.531410091419071e-01	 8.312659480163649e-01	 1.194100393760709e+01
 9.450016649270306e-01	 8.405074452857859e-01	 1.175947756741078e+01
 9.367704079233418e-01	 8.496718023761349e-01	 1.157630399673069e+01
 8.714180364724508e-01	 7.903957334807954e-01	 1.069518369234536e+01
 8.636778691763565e-01	 7.988462910794256e-01	 1.048125027884725e+01
 8.558542975080441e-01	 8.072225983982798e-01	 1.026603789652000e+01
 8.479483851579257e-01	 8.155234344082373e-01	 1.004991511800415e+01
 8.399612198829021e-01	 8.237475988875402e-01	 9.833232869673873e+00
 8.318939130041005e-01	 8.318939130041005e-01	 9.616323283081682e+00
 8.237475988875400e-01	 8.399612198829022e-01	 9.399498664817829e+00
 8.155234344082370e-01	 8.479483851579258e-01	 9.183050592539455e+00
 8.072225983982796e-01	 8.558542975080441e-01	 8.967249144428333e+00
 7.988462910794255e-01	 8.636778691763568e-01	 8.752342268787446e+00
 7.903957334807953e-01	 8.714180364724509e-01	 8.538555299879908e+00
 8.779532736188399e-01	 7.963233403704034e-01	 1.080519567913348e+01
 8.701550586043140e-01	 8.048372732902872e-01	 1.059495357441761e+01
 8.622728137228147e-01	 8.132763990872637e-01	 1.038323480210605e+01
 8.543076106419603e-01	 8.216394875750371e-01	 1.017042361277764e+01
 8.462605452763456e-01	 8.299253295307218e-01	 9.956885675520354e+00
 8.381327372815127e-01	 8.381327372815127e-01	 9.742966845810441e+00
 8.299253295307216e-01	 8.462605452763458e-01	 9.528992056209447e+00
 8.216394875750371e-01	 8.543076106419605e-01	 9.315264338096991e+00
 8.132763990872635e-01	 8.622728137228151e-01	 9.102063982149966e+00
 8.048372732902869e-01	 8.701550586043140e-01	 8.889647844708147e+00
 7.963233403704033e-01	 8.779532736188399e-01	 8.678248806544106e+00
 8.844885107650281e-01	 8.022509472601288e-01	 1.091072135789400e+01
 8.766322480321082e-01	 8.108282555012237e-01	 1.070397334785226e+01
 8.686913299374546e-01	 8.193301997762862e-01	 1.049559027833124e+01
 8.606668361258938e-01	 8.277555407418445e-01	 1.028596712620732e+01
 8.525598706697153e-01	 8.361030601738820e-01	 1.007547924443346e+01
 8.443715615588773e-01	 8.443715615588772e-01	 9.864481050179405e+00
 8.361030601738819e-01	 8.525598706697151e-01	 9.653304840374965e+00
 8.277555407418448e-01	 8.606668361258942e-01	 9.442259743349462e+00
 8.193301997762860e-01	 8.686913299374550e-01	 9.231630814729538e+00
 8.108282555012236e-01	 8.766322480321086e-01	 9.021678285178723e+00
 8.022509472601289e-01	 8.844885107650282e-01	 8.812636966911345e+00
 8.910237479109830e-01	 8.081785541499212e-01	 1.101166454822426e+01
 8.831094374596983e-01	 8.168192377121896e-01	 1.080822198797754e+01
 8.751098461519181e-01	 8.253840004653031e-01	 1.060302503375082e+01
 8.670260616096777e-01	 8.338715939086144e-01	 1.039647454437065e+01
 8.588591960629617e-01	 8.422807908169750e-01	 1.018895060477080e+01
 8.506103858361458e-01	 8.506103858361459e-01	 9.980811138030717e+00
 8.422807908169753e-01	 8.588591960629618e-01	 9.772390649586537e+00
 8.338715939086142e-01	 8.670260616096778e-01	 9.563999112788556e+00
 8.253840004653029e-01	 8.751098461519182e-01	 9.355921004431483e+00
 8.168192377121891e-01	 8.831094374596986e-01	 9.148414498283923e+00
 8.081785541499210e-01	 8.910237479109830e-01	 8.941710823976011e+00
 8.975589850566711e-01	 8.141061610397301e-01	 1.110790222387262e+01
 8.895866268870420e-01	 8.228102199231370e-01	 1.090758487717977e+01
 8.815283623661589e-01	 8.314378011542688e-01	 1.070543264750864e+01
 8.733852870932630e-01	 8.399876470753004e-01	 1.050184753607273e+01
 8.651585214560367e-01	 8.484585214599543e-01	 1.029720951234715e+01
 8.568492101132708e-01	 8.568492101132706e-01	 1.009187505345292e+01
 8.484585214599538e-01	 8.651585214560364e-01	 9.886175820668464e+00
 8.399876470753004e-01	 8.733852870932631e-01	 9.680417482727842e+00
 8.314378011542687e-01	 8.815283623661589e-01	 9.474878695006469e+00
 8.228102199231370e-01	 8.895866268870424e-01	 9.269810243072792e+00
 8.141061610397300e-01	 8.975589850566711e-01	 9.065434358396411e+00
 9.040942222020594e-01	 8.200337679295063e-01	 1.119928476492228e+01
 8.960638163140994e-01	 8.288012021340211e-01	 1.100192064502146e+01
 8.879468785801301e-01	 8.374916018431384e-01	 1.080267982306452e+01
 8.797445125766020e-01	 8.461037002418582e-01	 1.060196080548360e+01
 8.714578468488909e-01	 8.546362521027719e-01	 1.040013870090073e+01
 8.630880343902038e-01	 8.630880343902039e-01	 1.019756369011671e+01
 8.546362521027719e-01	 8.714578468488910e-01	 9.994559638364963e+00
 8.461037002418583e-01	 8.797445125766024e-01	 9.791422859984827e+00
 8.374916018431383e-01	 8.879468785801308e-01	 9.588421045097657e+00
 8.288012021340210e-01	 8.960638163140997e-01	 9.385792357224513e+00
 8.200337679295063e-01	 9.040942222020595e-01	 9.183744710075558e+00
 9.106294593471145e-01	 8.259613748191990e-01	 1.128563621009367e+01
 9.025410057408281e-01	 8.347921843447945e-01	 1.109106142174838e+01
 8.943653947937867e-01	 8.435454025318672e-01	 1.089460664163438e+01
 8.861037380596460e-01	 8.522197534082422e-01	 1.069666234435218e+01
 8.777571722414761e-01	 8.608139827453826e-01	 1.049759413203626e+01
 8.693268586668979e-01	 8.693268586668977e-01	 1.029774113801842e+01
 8.608139827453825e-01	 8.777571722414760e-01	 1.009741457807399e+01
 8.522197534082420e-01	 8.861037380596462e-01	 9.896896459914348e+00
 8.435454025318668e-01	 8.943653947937871e-01	 9.696438460998888e+00
 8.347921843447942e-01	 9.025410057408284e-01	 9.496260984075146e+00
 8.259613748191990e-01	 9.106294593471145e-01	 9.296552399126607e+00
 9.171646964918033e-01	 8.318889817087582e-01	 1.136675450915715e+01
 9.090181951671872e-01	 8.407831665554112e-01	 1.117481309169534e+01
 9.007839110070821e-01	 8.495992032204092e-01	 1.098102681535843e+01
 8.924629635423469e-01	 8.583358065744062e-01	 1.078577368381650e+01
 8.840564976337426e-01	 8.669917133877393e-01	 1.058940524466932e+01
 8.755656829433037e-01	 8.755656829433036e-01	 1.039224492966118e+01
 8.669917133877394e-01	 8.840564976337428e-01	 1.019458654798000e+01
 8.583358065744061e-01	 8.924629635423469e-01	 9.996692943821721e+00
 8.495992032204090e-01	 9.007839110070822e-01	 9.798794828792822e+00
 8.407831665554110e-01	 9.090181951671874e-01	 9.601089799041384e+00
 8.318889817087582e-01	 9.171646964918035e-01	 9.403741546252668e+00
 9.236999336360932e-01	 8.378165885981341e-01	 1.144241177545144e+01
 9.154953845931353e-01	 8.467741487658239e-01	 1.125295554659314e+01
 9.072024272199697e-01	 8.556530039087195e-01	 1.106172794020911e+01
 8.988221890246559e-01	 8.644518597403058e-01	 1.086909014583133e+01
 8.903558230256432e-01	 8.731694440297960e-01	 1.067537520399644e+01
 8.818045072193750e-01	 8.818045072193749e-01	 1.048088628569971e+01
 8.731694440297960e-01	 8.903558230256429e-01	 1.028589513061435e+01
 8.644518597403055e-01	 8.988221890246559e-01	 1.009064065578852e+01
 8.556530039087191e-01	 9.072024272199695e-01	 9.895327745901586e+00
 8.467741487658237e-01	 9.154953845931353e-01	 9.700126235465255e+00
 8.378165885981341e-01	 9.236999336360933e-01	 9.505170092569607e+00
 9.302351707799503e-01	 8.437441954872766e-01	 1.151235453850183e+01
 9.219725740186306e-01	 8.527651309759867e-01	 1.132524293878077e+01
 9.136209434324032e-01	 8.617068045967529e-01	 1.113647174865079e+01
 9.051814145065243e-01	 8.705679129058951e-01	 1.094638109422784e+01
 8.966551484171277e-01	 8.793471746715056e-01	 1.075528115001219e+01
 8.880433314950628e-01	 8.880433314950626e-01	 1.056345036007438e+01
 8.793471746715055e-01	 8.966551484171278e-01	 1.037113382387051e+01
 8.705679129058945e-01	 9.051814145065242e-01	 1.017854185893739e+01
 8.617068045967528e-01	 9.136209434324036e-01	 9.985848752076436e+00
 8.527651309759866e-01	 9.219725740186312e-01	 9.793191709911133e+00
 8.437441954872763e-01	 9.302351707799503e-01	 9.600670018897922e+00
 9.367704079233418e-01	 8.496718023761349e-01	 1.157630399673070e+01
 9.284497634436332e-01	 8.587561131858535e-01	 1.139140393432845e+01
 9.200394596443375e-01	 8.677606052844652e-01	 1.120499436206378e+01
 9.115406399879045e-01	 8.766839660711286e-01	 1.101739018542726e+01
 9.029544738081481e-01	 8.855249053128216e-01	 1.082887444559766e+01
 8.942821557703193e-01	 8.942821557703196e-01	 1.063969648466055e+01
 8.855249053128216e-01	 9.029544738081482e-01	 1.045007028149951e+01
 8.766839660711283e-01	 9.115406399879040e-01	 1.026017297116319e+01
 8.677606052844652e-01	 9.200394596443375e-01	 1.007014355985427e+01
 8.587561131858534e-01	 9.284497634436334e-01	 9.880081846938991e+00
 8.496718023761349e-01	 9.367704079233418e-01	 9.690047564548994e+00
 7.903957334807953e-01	 8.714180364724509e-01	 8.538555299879910e+00
 7.818707139088333e-01	 8.790750522752145e-01	 8.326333704412511e+00
 7.732739357253692e-01	 8.866465674464368e-01	 8.116025516559398e+00
 7.646066931562587e-01	 8.941315790822688e-01	 7.907568150389499e+00
 7.558702987547491e-01	 9.015291102181732e-01	 7.700878182850951e+00
 7.470660827468745e-01	 9.088382102458219e-01	 7.495851909263070e+00
 7.381953923657893e-01	 9.160579553103224e-01	 7.292431300993642e+00
 7.292595911757221e-01	 9.231874486874327e-01	 7.091534482380572e+00
 7.202600583862604e-01	 9.302258211404485e-01	 6.893125201899839e+00
 7.111981881576781e-01	 9.371722312564811e-01	 6.696705853787204e+00
 7.020753888980266e-01	 9.440258657618683e-01	 6.501775525776136e+00
 7.963233403704033e-01	 8.779532736188399e-01	 8.678248806544104e+00
 7.877343870464625e-01	 8.856677135417456e-01	 8.468331935197767e+00
 7.790731369542674e-01	 8.932960116173644e-01	 8.260247741844216e+00
 7.703408940257687e-01	 9.008371574205389e-01	 8.053914455967163e+00
 7.615389806577547e-01	 9.082901666599538e-01	 7.849227894127060e+00
 7.526687370523381e-01	 9.156540815981640e-01	 7.646062028972715e+00
 7.437315205462984e-01	 9.229279714517993e-01	 7.444269731649180e+00
 7.347287049299646e-01	 9.301109327716072e-01	 7.244029041005637e+00
 7.256616797563574e-01	 9.372020898020157e-01	 7.046134813842508e+00
 7.165318496413067e-01	 9.442005948199340e-01	 6.850147693226183e+00
 7.073406335552739e-01	 9.511056284525322e-01	 6.655529334811559e+00
 8.022509472601289e-01	 8.844885107650282e-01	 8.812636966911349e+00
 7.935980601842570e-01	 8.922603748080338e-01	 8.604985867992065e+00
 7.848723381833853e-01	 8.999454557880018e-01	 8.399077001487527e+00
 7.760750948955564e-01	 9.075427357584666e-01	 8.194810730231826e+00
 7.672076625610978e-01	 9.150512231013392e-01	 7.992063398804650e+00
 7.582713913582009e-01	 9.224699529500576e-01	 7.790687912024648e+00
 7.492676487272671e-01	 9.297979875927751e-01	 7.590514495123733e+00
 7.401978186847253e-01	 9.370344168552285e-01	 7.391354161720693e+00
 7.310633011270277e-01	 9.441783584629808e-01	 7.193821463938566e+00
 7.218655111255592e-01	 9.512289583827419e-01	 6.998113478896306e+00
 7.126058782131883e-01	 9.581853911425123e-01	 6.803654081221513e+00
 8.081785541499210e-01	 8.910237479109830e-01	 8.941710823976013e+00
 7.994617333221604e-01	 8.988530360740570e-01	 8.736297903746953e+00
 7.906715394126566e-01	 9.065948999583416e-01	 8.532528801573491e+00
 7.818092957655444e-01	 9.142483140960648e-01	 8.330287270069256e+00
 7.728763444646894e-01	 9.218122795423608e-01	 8.129431406112197e+00
 7.638740456643596e-01	 9.292858243015544e-01	 7.929794234747467e+00
 7.548037769085794e-01	 9.366680037333217e-01	 7.731184483292052e+00
 7.456669324398739e-01	 9.439579009383908e-01	 7.533387546496723e+00
 7.364649224981278e-01	 9.511546271234597e-01	 7.336328807517349e+00
 7.271991726102796e-01	 9.582573219450375e-01	 7.140773749703862e+00
 7.178711228716032e-01	 9.652651538319588e-01	 6.946348254677769e+00
 8.141061610397300e-01	 8.975589850566711e-01	 9.065434358396411e+00
 8.053254064601169e-01	 9.054456973397945e-01	 8.862243466895247e+00
 7.964707406420168e-01	 9.132443441283792e-01	 8.660591741494725e+00
 7.875434966356573e-01	 9.209538924333449e-01	 8.460347521448476e+00
 7.785450263684411e-01	 9.285733359830510e-01	 8.261351818020222e+00
 7.694766999707131e-01	 9.361016956527077e-01	 8.063418899684249e+00
 7.603399050901186e-01	 9.435380198735145e-01	 7.866337076291665e+00
 7.511360461952813e-01	 9.508813850211900e-01	 7.669869683254866e+00
 7.418665438695143e-01	 9.581308957835668e-01	 7.473756265751093e+00
 7.325328340953113e-01	 9.652856855069557e-01	 7.278267972818710e+00
 7.231363675303516e-01	 9.723449165210217e-01	 7.083780314499478e+00
 8.200337679295063e-01	 9.040942222020595e-01	 9.183744710075558e+00
 8.111890795980690e-01	 9.120383586052254e-01	 8.982771221190122e+00
 8.022699418713997e-01	 9.198937882981073e-01	 8.783227724970656e+00
 7.932776975058174e-01	 9.276594707703176e-01	 8.584968286500519e+00
 7.842137082722636e-01	 9.353343924234409e-01	 8.387817933219900e+00
 7.750793542771580e-01	 9.429175670035697e-01	 8.191573237269528e+00
 7.658760332717690e-01	 9.504080360134268e-01	 7.996003105814576e+00
 7.566051599508160e-01	 9.578048691037208e-01	 7.800849780613111e+00
 7.472681652410438e-01	 9.651071644434180e-01	 7.605830047000598e+00
 7.378664955804992e-01	 9.723140490686297e-01	 7.410703527453332e+00
 7.284016121892671e-01	 9.794246792098519e-01	 7.216087706969670e+00
 8.259613748191990e-01	 9.106294593471145e-01	 9.296552399126607e+00
 8.170527527359598e-01	 9.186310198703275e-01	 9.097803284930253e+00
 8.080691431007402e-01	 9.265432324675211e-01	 8.900372170407303e+00
 7.990118983759492e-01	 9.343650491069969e-01	 8.704099929849832e+00
 7.898823901760681e-01	 9.420954488635621e-01	 8.508796650226817e+00
 7.806820085835928e-01	 9.497334383541928e-01	 8.314242206468858e+00
 7.714121614534138e-01	 9.572780521531322e-01	 8.120187054004028e+00
 7.620742737063489e-01	 9.647283531860780e-01	 7.926353240039794e+00
 7.526697866125729e-01	 9.720834331031289e-01	 7.732435633951726e+00
 7.432001570656870e-01	 9.793424126301941e-01	 7.538103375979027e+00
 7.336668568481827e-01	 9.865044418985993e-01	 7.343375880288720e+00
 8.318889817087582e-01	 9.171646964918035e-01	 9.403741546252675e+00
 8.229164258737339e-01	 9.252236811350806e-01	 9.207235445600066e+00
 8.138683443299718e-01	 9.331926766366134e-01	 9.011934220629806e+00
 8.047460992459763e-01	 9.410706274433928e-01	 8.817666584237536e+00
 7.955510720797658e-01	 9.488565053034462e-01	 8.624228669656738e+00
 7.862846628899151e-01	 9.565493097046294e-01	 8.431384594431012e+00
 7.769482896349370e-01	 9.641480682927049e-01	 8.238867251172575e+00
 7.675433874617488e-01	 9.716518372683567e-01	 8.046379326850259e+00
 7.580714079839574e-01	 9.790597017628141e-01	 7.853594551173726e+00
 7.485338185507183e-01	 9.863707761917819e-01	 7.660159173430473e+00
 7.389321015069312e-01	 9.935842045874137e-01	 7.465717297283303e+00
 8.378165885981341e-01	 9.236999336360933e-01	 9.505170092569603e+00
 8.287800990113339e-01	 9.318163423994625e-01	 9.310937373952683e+00
 8.196675455590310e-01	 9.398421208053795e-01	 9.117796952018903e+00
 8.104803001158217e-01	 9.477762057795178e-01	 8.925566355469527e+00
 8.012197539832677e-01	 9.556175617431245e-01	 8.734028695709839e+00
 7.918873171960218e-01	 9.633651810549317e-01	 8.542933215200748e+00
 7.824844178162226e-01	 9.710180844322188e-01	 8.351996072400842e+00
 7.730125012168866e-01	 9.785753213506524e-01	 8.160901365311970e+00
 7.634730293550539e-01	 9.860359704225892e-01	 7.969302394417846e+00
 7.538674800354382e-01	 9.933991397535278e-01	 7.776823164545709e+00
 7.441973461653459e-01	 1.000663967276446e+00	 7.583060123911781e+00
 8.437441954872763e-01	 9.302351707799503e-01	 9.600670018897922e+00
 8.346437721487034e-01	 9.384090036634529e-01	 9.408752837563465e+00
 8.254667467878506e-01	 9.464915649738127e-01	 9.217817583078615e+00
 8.162145009854095e-01	 9.544817841153842e-01	 9.027671526721321e+00
 8.068884358864848e-01	 9.623786181826288e-01	 8.838085636904079e+00
 7.974899715018117e-01	 9.701810524051531e-01	 8.648795107538220e+00
 7.880205459971542e-01	 9.778881005717474e-01	 8.459500133068600e+00
 7.784816149716313e-01	 9.854988054330598e-01	 8.269866932482154e+00
 7.688746507257196e-01	 9.930122390825695e-01	 8.079529023321303e+00
 7.592011415196898e-01	 1.000427503315565e+00	 7.888088745425928e+00
 7.494625908232601e-01	 1.007743729965846e+00	 7.695119032800079e+00
 8.496718023761349e-01	 9.367704079233418e-01	 9.690047564548994e+00
 8.405074452857861e-01	 9.450016649270302e-01	 9.500499913878770e+00
 8.312659480163652e-01	 9.531410091419068e-01	 9.311827682464427e+00
 8.219487018546624e-01	 9.611873624510029e-01	 9.123828762231460e+00
 8.125571177893285e-01	 9.691396746219902e-01	 8.936262806091438e+00
 8.030926258071817e-01	 9.769969237553447e-01	 8.748851731887328e+00
 7.935566741776152e-01	 9.847581167113648e-01	 8.561280483372720e+00
 7.839507287258533e-01	 9.924222895156736e-01	 8.373198050839836e+00
 7.742762720958096e-01	 9.999885077428703e-01	 8.184218752688835e+00
 7.645348030033176e-01	 1.007455866878029e+00	 7.993923777870259e+00
 7.547278354805067e-01	 1.014823492655765e+00	 7.801862987751579e+00
 7.020753888980266e-01	 9.440258657618683e-01	 6.501775525776137e+00
 6.928946474858869e-01	 9.507847993655812e-01	 6.309025505512837e+00
 6.836558480826637e-01	 9.574494524137538e-01	 6.119242575103033e+00
 6.743604316732270e-01	 9.640191019151049e-01	 5.932190336972374e+00
 6.650098506379702e-01	 9.704930540220392e-01	 5.747664477244271e+00
 6.556055680229015e-01	 9.768706442374568e-01	 5.565500730071832e+00
 6.461490568059066e-01	 9.831512375998281e-01	 5.385582525143059e+00
 6.366417991599389e-01	 9.893342288464843e-01	 5.207848271991344e+00
 6.270852857138696e-01	 9.954190425550969e-01	 5.032298237291156e+00
 6.174810148117510e-01	 1.001405133263363e+00	 4.859000974105014e+00
 6.078304917712264e-01	 1.007291985566919e+00	 4.688099265049590e+00
 7.073406335552739e-01	 9.511056284525322e-01	 6.655529334811559e+00
 6.980910407770571e-01	 9.579152509699864e-01	 6.462968131485413e+00
 6.887829545993261e-01	 9.646298858708370e-01	 6.273273088238556e+00
 6.794178268136825e-01	 9.712488047417003e-01	 6.086209890335290e+00
 6.699971206927116e-01	 9.777713085314411e-01	 5.901579183230219e+00
 6.605223102546014e-01	 9.841967277595369e-01	 5.719224919052247e+00
 6.509948795239024e-01	 9.905244227025363e-01	 5.539042369883162e+00
 6.414163217891905e-01	 9.967537835585785e-01	 5.360985759266985e+00
 6.317881388583765e-01	 1.002884230589933e+00	 5.185075466053392e+00
 6.221118403124105e-01	 1.008915214243577e+00	 5.011404757587464e+00
 6.123889427581338e-01	 1.014846215249852e+00	 4.840146012405107e+00
 7.126058782131883e-01	 9.581853911425123e-01	 6.803654081221512e+00
 7.032874340689306e-01	 9.650457025736758e-01	 6.611142827497142e+00
 6.939100611167207e-01	 9.718103193271801e-01	 6.421422746154983e+00
 6.844752219548920e-01	 9.784785075675352e-01	 6.234257946797646e+00
 6.749843907482240e-01	 9.850495630400683e-01	 6.049450378329346e+00
 6.654390524870848e-01	 9.915228112808311e-01	 5.866848578904779e+00
 6.558407022426896e-01	 9.978976078044520e-01	 5.686356075800200e+00
 6.461908444192391e-01	 1.004173338269877e+00	 5.507939384349254e+00
 6.364909920036818e-01	 1.010349418623969e+00	 5.331635557876263e+00
 6.267426658138696e-01	 1.016425295222990e+00	 5.157559243608571e+00
 6.169473937458410e-01	 1.022400444931984e+00	 4.985909202827482e+00
 7.178711228716032e-01	 9.652651538319588e-01	 6.946348254677766e+00
 7.084838273613315e-01	 9.721761541768139e-01	 6.753775972823062e+00
 6.990371676346641e-01	 9.789907527829564e-01	 6.563944687366622e+00
 6.895326170966677e-01	 9.857082103927935e-01	 6.376613152790740e+00
 6.799716608043151e-01	 9.923278175481099e-01	 6.191580846922998e+00
 6.703557947201557e-01	 9.988488948015339e-01	 6.008697146321530e+00
 6.606865249620707e-01	 1.005270792905772e+00	 5.827870134191984e+00
 6.509653670498845e-01	 1.011592892980576e+00	 5.649074987594316e+00
 6.411938451495870e-01	 1.017814606657407e+00	 5.472361893608908e+00
 6.313734913159285e-01	 1.023935376201804e+00	 5.297863447319338e+00
 6.215058447341479e-01	 1.029954674613517e+00	 5.125801487897608e+00
 7.231363675303516e-01	 9.723449165210217e-01	 7.083780314499482e+00
 7.136802206540841e-01	 9.793066057795643e-01	 6.891064993628864e+00
 7.041642741529737e-01	 9.861711862383419e-01	 6.701064233529665e+00
 6.945900122388207e-01	 9.929379132176569e-01	 6.513527528384926e+00
 6.849589308607916e-01	 9.996060720557549e-01	 6.328247987007952e+00
 6.752725369536181e-01	 1.006174978321839e+00	 6.145071956298777e+00
 6.655323476818472e-01	 1.012643978006694e+00	 5.963908259314499e+00
 6.557398896809283e-01	 1.019012447690877e+00	 5.784736992224312e+00
 6.458966982958908e-01	 1.025279794690444e+00	 5.607617827461503e+00
 6.360043168183873e-01	 1.031445457180219e+00	 5.432697773713860e+00
 6.260642957228550e-01	 1.037508904294649e+00	 5.260218346979779e+00
 7.284016121892671e-01	 9.794246792098519e-01	 7.216087706969669e+00
 7.188766139470122e-01	 9.864370573820908e-01	 7.023177413845291e+00
 7.092913806714666e-01	 9.933516196935105e-01	 6.832977972864342e+00
 6.996474073811622e-01	 1.000167616042309e+00	 6.645225582222613e+00
 6.899462009174613e-01	 1.006884326563193e+00	 6.459702955565987e+00
 6.801892791872765e-01	 1.013501061841939e+00	 6.276249416839645e+00
 6.703781704018215e-01	 1.020017163107412e+00	 6.094770591285725e+00
 6.605144123121709e-01	 1.026432002400976e+00	 5.915247634271001e+00
 6.505995514423948e-01	 1.032744982723281e+00	 5.737745942802756e+00
 6.406351423210458e-01	 1.038955538158433e+00	 5.562423298066888e+00
 6.306227467117619e-01	 1.045063133975582e+00	 5.389537391062602e+00
 7.336668568481827e-01	 9.865044418985993e-01	 7.343375880288720e+00
 7.240730072399407e-01	 9.935675089845567e-01	 7.150249903378814e+00
 7.144184871899589e-01	 1.000532053148636e+00	 6.959852840678147e+00
 7.047048025235035e-01	 1.007397318866933e+00	 6.771903423370196e+00
 6.949334709741307e-01	 1.014162581070613e+00	 6.586169810731762e+00
 6.851060214209347e-01	 1.020827145362030e+00	 6.402480180393525e+00
 6.752239931217958e-01	 1.027390348208127e+00	 6.220732895720404e+00
 6.652889349434135e-01	 1.033851557111074e+00	 6.040906189299816e+00
 6.553024045888988e-01	 1.040210170756118e+00	 5.863067304840998e+00
 6.452659678237050e-01	 1.046465619136647e+00	 5.687381043411751e+00
 6.351811977006688e-01	 1.052617363656515e+00	 5.514117663853005e+00
 7.389321015069312e-01	 9.935842045874137e-01	 7.465717297283303e+00
 7.292694005326930e-01	 1.000697960587126e+00	 7.272387323792897e+00
 7.195455937082688e-01	 1.007712486603895e+00	 7.081825197129252e+00
 7.097621976656562e-01	 1.014627021691712e+00	 6.893727870241541e+00
 6.999207410306076e-01	 1.021440835578206e+00	 6.707844650918619e+00
 6.900227636543973e-01	 1.028153228882304e+00	 6.523988312192293e+00
 6.800698158415723e-01	 1.034763533309032e+00	 6.342045760254758e+00
 6.700634575744570e-01	 1.041271111821368e+00	 6.161988196072626e+00
 6.600052577352026e-01	 1.047675358789153e+00	 5.983880710341592e+00
 6.498967933261636e-01	 1.053975700115061e+00	 5.807891255206320e+00
 6.397396486893757e-01	 1.060171593337648e+00	 5.634298940253929e+00
 7.441973461653459e-01	 1.000663967276446e+00	 7.583060123911781e+00
 7.344657938250939e-01	 1.007828412189962e+00	 7.389661771581258e+00
 7.246727002262116e-01	 1.014892920059460e+00	 7.198999902365881e+00
 7.148195928074318e-01	 1.021856724516829e+00	 7.010835556734202e+00
 7.049080110866982e-01	 1.028719090086158e+00	 6.824894751046329e+00
 6.949395058874678e-01	 1.035479312402956e+00	 6.640970455633019e+00
 6.849156385609531e-01	 1.042136718410326e+00	 6.458933788113908e+00
 6.748379802051023e-01	 1.048690666532056e+00	 6.278744677295985e+00
 6.647081108811073e-01	 1.055140546822587e+00	 6.100461934526291e+00
 6.545276188282223e-01	 1.061485781093874e+00	 5.924252673321792e+00
 6.442980996776826e-01	 1.067725823019180e+00	 5.750401022356465e+00
 7.494625908232601e-01	 1.007743729965846e+00	 7.695119032800079e+00
 7.396621871169671e-01	 1.014958863793230e+00	 7.502111619147559e+00
 7.297998067436061e-01	 1.022073353515506e+00	 7.311449389168428e+00
 7.198769879486411e-01	 1.029086427342466e+00	 7.123332035713772e+00
 7.098952811422103e-01	 1.035997344594660e+00	 6.937457696016027e+00
 6.998562481199507e-01	 1.042805395924178e+00	 6.753594994852994e+00
 6.897614612797399e-01	 1.049509903512205e+00	 6.571594788864397e+00
 6.796125028351504e-01	 1.056110221243339e+00	 6.391401357598467e+00
 6.694109640264124e-01	 1.062605734856620e+00	 6.213062975289654e+00
 6.591584443296810e-01	 1.068995862073288e+00	 6.036741801484069e+00
 6.488565506653894e-01	 1.075280052701313e+00	 5.862723033064960e+00
 7.547278354805067e-01	 1.014823492655765e+00	 7.801862987751580e+00
 7.448585804081368e-01	 1.022089315397092e+00	 7.609628268661943e+00
 7.349269132602683e-01	 1.029253786972208e+00	 7.419212733211324e+00
 7.249343830890960e-01	 1.036316130168806e+00	 7.231290879972828e+00
 7.148825511969510e-01	 1.043275599103902e+00	 7.045640511557378e+00
 7.047729903516504e-01	 1.050131479446166e+00	 6.862001214626916e+00
 6.946072839977357e-01	 1.056883088614866e+00	 6.680198966486467e+00
 6.843870254644020e-01	 1.063529775955414e+00	 6.500157878868270e+00
 6.741138171709191e-01	 1.070070922891449e+00	 6.321911294861729e+00
 6.637892698303400e-01	 1.076505943053501e+00	 6.145612174291093e+00
 6.534150016522964e-01	 1.082834282384246e+00	 5.971542707468042e+00
 6.078304917712264e-01	 1.007291985566919e+00	 4.688099265049590e+00
 5.981352283312307e-01	 1.013079114439890e+00	 4.519782463617696e+00
 5.883967424669230e-01	 1.018766066026104e+00	 4.354099612098481e+00
 5.786165570600984e-01	 1.024352416944811e+00	 4.191106381988562e+00
 5.687961989684477e-01	 1.029837774057543e+00	 4.030947558456527e+00
 5.589371982900345e-01	 1.035221774457163e+00	 3.873860615769381e+00
 5.490410876312684e-01	 1.040504085435938e+00	 3.720178649635911e+00
 5.391094013790468e-01	 1.045684404432863e+00	 3.570332652811366e+00
 5.291436749777435e-01	 1.050762458960495e+00	 3.424853124221774e+00
 5.191454442116871e-01	 1.055738006511553e+00	 3.284371005782560e+00
 5.091162444937753e-01	 1.060610834445606e+00	 3.149617944979648e+00
 6.123889427581338e-01	 1.014846215249852e+00	 4.840146012405107e+00
 6.026209692718355e-01	 1.020676744945409e+00	 4.671453511308318e+00
 5.928094492127964e-01	 1.026406346070359e+00	 4.505325097614211e+00
 5.829559168837308e-01	 1.032034592068782e+00	 4.341829392831728e+00
 5.730619105930663e-01	 1.037561086853845e+00	 4.181129276671780e+00
 5.631289719139041e-01	 1.042985464796768e+00	 4.023485654803112e+00
 5.531586449465027e-01	 1.048307390694655e+00	 3.869260551748766e+00
 5.431524755849623e-01	 1.053526559717424e+00	 3.718919514525182e+00
 5.331120107887890e-01	 1.058642697334095e+00	 3.573033316723677e+00
 5.230387978599937e-01	 1.063655559218690e+00	 3.432278956828100e+00
 5.129343837263705e-01	 1.068564931136062e+00	 3.297439948644630e+00
 6.169473937458410e-01	 1.022400444931984e+00	 4.985909202827482e+00
 6.071067102132399e-01	 1.028274375450128e+00	 4.816787318312025e+00
 5.972221559594684e-01	 1.034046626113814e+00	 4.650109609430084e+00
 5.872952767081590e-01	 1.039716767191953e+00	 4.485934462544126e+00
 5.773276222184750e-01	 1.045284399649348e+00	 4.324419538459619e+00
 5.673207455385545e-01	 1.050749155135573e+00	 4.165825777494162e+00
 5.572762022625037e-01	 1.056110695952570e+00	 4.010520696765695e+00
 5.471955497916253e-01	 1.061368715001184e+00	 3.858980964469526e+00
 5.370803466005560e-01	 1.066522935706896e+00	 3.711794240194906e+00
 5.269321515089886e-01	 1.071573111925027e+00	 3.569660274625389e+00
 5.167525229596127e-01	 1.076519027825718e+00	 3.433391266230947e+00
 6.215058447341479e-01	 1.029954674613517e+00	 5.125801487897608e+00
 6.115924511552441e-01	 1.035872005954248e+00	 4.956203576357332e+00
 6.016348627067392e-01	 1.041686906156670e+00	 4.788868993706094e+00
 5.916346365331837e-01	 1.047398942314525e+00	 4.623823091605586e+00
 5.815933338444745e-01	 1.053007712444251e+00	 4.461195396203258e+00
 5.715125191637872e-01	 1.058512845473778e+00	 4.301223895498279e+00
 5.613937595790757e-01	 1.063914001209887e+00	 4.144258584823834e+00
 5.512386239988413e-01	 1.069210870284345e+00	 3.990764254286294e+00
 5.410486824128533e-01	 1.074403174079097e+00	 3.841322506485646e+00
 5.308255051584843e-01	 1.079490664630763e+00	 3.696632997325849e+00
 5.205706621933194e-01	 1.084473124514775e+00	 3.557513897191708e+00
 6.260642957228550e-01	 1.037508904294649e+00	 5.260218346979779e+00
 6.160781920976480e-01	 1.043469636457968e+00	 5.090106391359710e+00
 6.060475694544087e-01	 1.049327186199125e+00	 4.922005363965563e+00
 5.959739963586048e-01	 1.055081117436697e+00	 4.755885150287648e+00
 5.858590454708666e-01	 1.060731025238754e+00	 4.591824606237864e+00
 5.757042927894054e-01	 1.066276535811583e+00	 4.430016172817304e+00
 5.655113168960212e-01	 1.071717306466803e+00	 4.270769713576984e+00
 5.552816982064163e-01	 1.077053025567106e+00	 4.114515557690723e+00
 5.450170182254896e-01	 1.082283412450898e+00	 3.961806736151016e+00
 5.347188588082935e-01	 1.087408217336100e+00	 3.813320403285544e+00
 5.243888014273070e-01	 1.092427221203431e+00	 3.669858440469439e+00
 6.306227467117619e-01	 1.045063133975582e+00	 5.389537391062602e+00
 6.205639330402520e-01	 1.051067266961488e+00	 5.218883604659291e+00
 6.104602762022779e-01	 1.056967466241380e+00	 5.049906429269289e+00
 6.003133561842231e-01	 1.062763292558668e+00	 4.882498203767673e+00
 5.901247570974519e-01	 1.068454338033056e+00	 4.716664941377281e+00
 5.798960664152104e-01	 1.074040226149189e+00	 4.552531316685782e+00
 5.696288742131447e-01	 1.079520611723519e+00	 4.390344838873323e+00
 5.593247724141563e-01	 1.084895180849667e+00	 4.230479192856036e+00
 5.489853540382736e-01	 1.090163650822499e+00	 4.073436734953640e+00
 5.386122124582282e-01	 1.095325770041237e+00	 3.919850134595020e+00
 5.282069406613931e-01	 1.100381317891887e+00	 3.770483158460378e+00
 6.351811977006688e-01	 1.052617363656515e+00	 5.514117663853005e+00
 6.250496739828554e-01	 1.058664897465007e+00	 5.342906111975781e+00
 6.148729829501459e-01	 1.064607746283636e+00	 5.172944821017195e+00
 6.046527160098388e-01	 1.070445467680639e+00	 5.004026837203043e+00
 5.943904687240321e-01	 1.076177650827360e+00	 4.836063505133806e+00
 5.840878400410048e-01	 1.081803916486794e+00	 4.669089872263129e+00
 5.737464315302498e-01	 1.087323916980236e+00	 4.503269241705508e+00
 5.633678466218669e-01	 1.092737336132228e+00	 4.338896853872135e+00
 5.529536898510138e-01	 1.098043889194100e+00	 4.176402682552180e+00
 5.425055661081007e-01	 1.103243322746374e+00	 4.016353336191487e+00
 5.320250798953944e-01	 1.108335414580344e+00	 3.859453060224838e+00
 6.397396486893757e-01	 1.060171593337648e+00	 5.634298940253929e+00
 6.295354149252589e-01	 1.066262527968727e+00	 5.462527180191035e+00
 6.192856896978135e-01	 1.072248026326091e+00	 5.291477418442231e+00
 6.089920758352526e-01	 1.078127642802811e+00	 5.120821980764021e+00
 5.986561803504076e-01	 1.083900963621862e+00	 4.950356047544470e+00
 5.882796136665905e-01	 1.089567606824599e+00	 4.780003520939724e+00
 5.778639888471403e-01	 1.095127222237152e+00	 4.609822001120875e+00
 5.674109208293543e-01	 1.100579491414989e+00	 4.440006850826878e+00
 5.569220256635192e-01	 1.105924127565901e+00	 4.270894332766347e+00
 5.463989197577240e-01	 1.111160875451711e+00	 4.102964307827079e+00
 5.358432191291275e-01	 1.116289511269000e+00	 3.941537952610305e+00
 6.442980996776826e-01	 1.067725823019180e+00	 5.750401022356465e+00
 6.340211558672625e-01	 1.073860158472846e+00	 5.578081762064492e+00
 6.236983964450806e-01	 1.079888306368947e+00	 5.405844672859729e+00
 6.133314356602655e-01	 1.085809817925383e+00	 5.233220234626921e+00
 6.029218919763797e-01	 1.091624276416765e+00	 5.059866282523370e+00
 5.924713872917698e-01	 1.097331297162804e+00	 4.885574382076237e+00
 5.819815461636195e-01	 1.102930527494469e+00	 4.710275272791952e+00
 5.714539950364240e-01	 1.108421646698149e+00	 4.534043358076277e+00
 5.608903614755986e-01	 1.113804365938102e+00	 4.358162323020043e+00
 5.502922734069102e-01	 1.119078428157448e+00	 4.189873878935492e+00
 5.396613583624100e-01	 1.124243607958056e+00	 4.032141323791318e+00
 6.488565506653894e-01	 1.075280052701313e+00	 5.862723033064960e+00
 6.385068968086663e-01	 1.081457788977566e+00	 5.689885808981773e+00
 6.281111031917473e-01	 1.087528586412402e+00	 5.516369930730685e+00
 6.176707954846771e-01	 1.093491993048554e+00	 5.341543193925093e+00
 6.071876036017496e-01	 1.099347589212268e+00	 5.164905206661642e+00
 5.966631609163449e-01	 1.105094987501609e+00	 4.986094318004896e+00
 5.860991034794915e-01	 1.110733832752385e+00	 4.804893572970980e+00
 5.754970692428820e-01	 1.116263801981910e+00	 4.624654902400165e+00
 5.648586972870605e-01	 1.121684604310903e+00	 4.451000184875756e+00
 5.541856270554715e-01	 1.126995980863785e+00	 4.285846343321492e+00
 5.434794975950584e-01	 1.132197704647713e+00	 4.131042401229440e+00
 6.534150016522964e-01	 1.082834282384246e+00	 5.971542707468042e+00
 6.429926377492695e-01	 1.089055419483085e+00	 5.798235581829330e+00
 6.325238099376145e-01	 1.095168866456658e+00	 5.623358755595593e+00
 6.220101553082884e-01	 1.101174168172526e+00	 5.446096773660988e+00
 6.114533152263187e-01	 1.107070902008571e+00	 5.265770419403603e+00
 6.008549345401182e-01	 1.112858677841215e+00	 5.082145697528929e+00
 5.902166607945597e-01	 1.118537138011101e+00	 4.900056447080832e+00
 5.795401434485343e-01	 1.124105957266471e+00	 4.722706355207674e+00
 5.688270330977138e-01	 1.129564842684504e+00	 4.551873948509534e+00
 5.580789807032205e-01	 1.134913533570922e+00	 4.389290493065868e+00
 5.472976368268903e-01	 1.140151801338169e+00	 4.236630013164053e+00
 5.091162444937753e-01	 1.060610834445606e+00	 3.149617944979647e+00
 4.990558975878610e-01	 1.065381561910370e+00	 3.018962423070835e+00
 4.889676388875799e-01	 1.070049197715796e+00	 2.889947144845694e+00
 4.788529987762085e-01	 1.074613617145979e+00	 2.762134563930161e+00
 4.687135045107921e-01	 1.079074724724561e+00	 2.635168738849638e+00
 4.585506795500227e-01	 1.083432454007551e+00	 2.508774721419798e+00
 4.483660428917197e-01	 1.087686767358405e+00	 2.382757319173967e+00
 4.381611084204268e-01	 1.091837655705804e+00	 2.256999251092287e+00
 4.279373842656258e-01	 1.095885138284579e+00	 2.131458718960319e+00
 4.176963721710401e-01	 1.099829262360247e+00	 2.006166419546832e+00
 4.074395668754807e-01	 1.103670102937638e+00	 1.881222025457432e+00
 5.129343837263705e-01	 1.068564931136062e+00	 3.297439948644628e+00
 5.027985888150827e-01	 1.073371436877250e+00	 3.166570598234666e+00
 4.926346727837358e-01	 1.078074077818739e+00	 3.036765926722275e+00
 4.824441774927757e-01	 1.082672728309315e+00	 2.907446213916042e+00
 4.722286416529720e-01	 1.087167292156603e+00	 2.778116010127802e+00
 4.619896001482556e-01	 1.091557702418317e+00	 2.648363742407598e+00
 4.517285833682293e-01	 1.095843921175665e+00	 2.517860662369057e+00
 4.414471165508738e-01	 1.100025939289304e+00	 2.386359155302217e+00
 4.311467191359477e-01	 1.104103776138325e+00	 2.253690433486025e+00
 4.208289041295602e-01	 1.108077479342722e+00	 2.119761639621694e+00
 4.104951774803756e-01	 1.111947124469834e+00	 1.984761903725817e+00
 5.167525229596127e-01	 1.076519027825718e+00	 3.433391266230949e+00
 5.065412800429018e-01	 1.081361311843331e+00	 3.300669864189853e+00
 4.963017066804311e-01	 1.086098957920881e+00	 3.168129695939587e+00
 4.860353562098177e-01	 1.090731839471855e+00	 3.035091528549997e+00
 4.757437787955561e-01	 1.095259859587853e+00	 2.900964106925267e+00
 4.654285207468167e-01	 1.099682950828301e+00	 2.765243910980191e+00
 4.550911238449873e-01	 1.104001074992155e+00	 2.627514220622333e+00
 4.447331246814870e-01	 1.108214222872052e+00	 2.487443508794075e+00
 4.343560540063511e-01	 1.112322413991341e+00	 2.345193561751860e+00
 4.239614360880767e-01	 1.116325696324497e+00	 2.207146954123731e+00
 4.135507880851813e-01	 1.120224146001366e+00	 2.075505859389740e+00
 5.205706621933194e-01	 1.084473124514775e+00	 3.557513897191707e+00
 5.102839712711407e-01	 1.089351186808811e+00	 3.421233413798476e+00
 4.999687405774952e-01	 1.094123838022425e+00	 3.283963833170892e+00
 4.896265349271711e-01	 1.098790950633798e+00	 3.144968104625412e+00
 4.792589159383892e-01	 1.103352427018510e+00	 3.003601904156022e+00
 4.688674413455609e-01	 1.107808199237697e+00	 2.859313476505987e+00
 4.584536643218597e-01	 1.112158228808068e+00	 2.711926259534931e+00
 4.480191328121434e-01	 1.116402506454235e+00	 2.567664548178182e+00
 4.375653888767260e-01	 1.120541051843811e+00	 2.429194100083770e+00
 4.270939680464926e-01	 1.124573913305746e+00	 2.296422591333423e+00
 4.166063986898157e-01	 1.128501167532400e+00	 2.169174863054837e+00
 5.243888014273070e-01	 1.092427221203431e+00	 3.669858440469441e+00
 5.140266624996221e-01	 1.097341061773892e+00	 3.528246095642016e+00
 5.036357744747570e-01	 1.102148718123570e+00	 3.384207724475616e+00
 4.932177136446722e-01	 1.106850061795343e+00	 3.236989213556162e+00
 4.827740530813169e-01	 1.111444994448772e+00	 3.085961723132349e+00
 4.723063619443430e-01	 1.115933447646702e+00	 2.936142974853266e+00
 4.618162047987116e-01	 1.120315382623595e+00	 2.791620965177313e+00
 4.513051409427196e-01	 1.124590790036041e+00	 2.652385307025220e+00
 4.407747237469615e-01	 1.128759689695915e+00	 2.518338375630225e+00
 4.302265000047110e-01	 1.132822130286645e+00	 2.389295718245069e+00
 4.196620092941962e-01	 1.136778189063103e+00	 2.264987118280575e+00
 5.282069406613931e-01	 1.100381317891887e+00	 3.770483158460378e+00
 5.177693537281687e-01	 1.105330936738773e+00	 3.621703427306678e+00
 5.073028083720457e-01	 1.110173598224515e+00	 3.468813747266400e+00
 4.968088923621584e-01	 1.114909172956688e+00	 3.314232894552958e+00
 4.862891902241845e-01	 1.119537561878837e+00	 3.164140096407389e+00
 4.757452825430177e-01	 1.124058696055511e+00	 3.018836591814127e+00
 4.651787452754081e-01	 1.128472536438929e+00	 2.878354803192811e+00
 4.545911490730932e-01	 1.132779073617659e+00	 2.742636877317391e+00
 4.439840586169475e-01	 1.136978327547836e+00	 2.611534551799389e+00
 4.333590319626351e-01	 1.141070347267370e+00	 2.484809739302735e+00
 4.227176198982409e-01	 1.145055210593639e+00	 2.362135802633454e+00
 5.320250798953944e-01	 1.108335414580344e+00	 3.859453060224838e+00
 5.215120449566026e-01	 1.113320811703653e+00	 3.702547923043582e+00
 5.109698422691901e-01	 1.118198478325459e+00	 3.547937920998331e+00
 5.004000710794660e-01	 1.122968284118035e+00	 3.397294999707930e+00
 4.898043273668365e-01	 1.127630129308900e+00	 3.250827497225386e+00
 4.791842031414403e-01	 1.132183944464322e+00	 3.108652923705874e+00
 4.685412857518150e-01	 1.136629690254264e+00	 2.970796327401612e+00
 4.578771572031405e-01	 1.140967357199278e+00	 2.837189460328641e+00
 4.471933934865731e-01	 1.145196965399758e+00	 2.707670725301985e+00
 4.364915639201679e-01	 1.149318564248094e+00	 2.581985880842800e+00
 4.257732305018673e-01	 1.153332232124176e+00	 2.459789475559547e+00
 5.358432191291275e-01	 1.116289511269000e+00	 3.941537952610307e+00
 5.252547361847466e-01	 1.121310686668734e+00	 3.787436219877412e+00
 5.146368761660197e-01	 1.126223358426604e+00	 3.636360165142924e+00
 5.039912497964316e-01	 1.131027395279580e+00	 3.488642958492018e+00
 4.933194645091190e-01	 1.135722696739162e+00	 3.344526824498034e+00
 4.826231237394649e-01	 1.140309192873327e+00	 3.204160487654519e+00
 4.719038262277974e-01	 1.144786844069791e+00	 3.067597475627098e+00
 4.611631653327389e-01	 1.149155640781084e+00	 2.934795266768355e+00
 4.504027283557281e-01	 1.153415603251863e+00	 2.805615262594621e+00
 4.396240958772127e-01	 1.157566781228993e+00	 2.679823560470447e+00
 4.288288411049933e-01	 1.161609253654879e+00	 2.557092496592238e+00
 5.396613583624100e-01	 1.124243607958056e+00	 4.032141323791317e+00
 5.289974274124233e-01	 1.129300561634215e+00	 3.881282742235403e+00
 5.183039100623634e-01	 1.134248238528148e+00	 3.732673907837863e+00
 5.075824285128918e-01	 1.139086506441523e+00	 3.586718300596384e+00
 4.968346016508768e-01	 1.143815264169820e+00	 3.443726314322233e+00
 4.860620443369466e-01	 1.148434441282723e+00	 3.303912533207197e+00
 4.752663667032207e-01	 1.152943997885704e+00	 3.167393913638919e+00
 4.644491734617653e-01	 1.157343924363267e+00	 3.034188857044153e+00
 4.536120632243023e-01	 1.161634241104332e+00	 2.904217153517893e+00
 4.427566278336725e-01	 1.165814998210243e+00	 2.777300770253686e+00
 4.318844517075363e-01	 1.169886275185913e+00	 2.653165453384888e+00
 5.434794975950584e-01	 1.132197704647713e+00	 4.131042401229442e+00
 5.327401186394553e-01	 1.137290436600296e+00	 3.982479198899880e+00
 5.219709439580504e-01	 1.142273118630292e+00	 3.835278973470893e+00
 5.111736072286834e-01	 1.147145617604063e+00	 3.689948560180206e+00
 5.003497387919552e-01	 1.151907831601071e+00	 3.546899968582199e+00
 4.895009649337404e-01	 1.156559689692707e+00	 3.406447430024908e+00
 4.786289071779504e-01	 1.161101151702194e+00	 3.268805399989628e+00
 4.677351815900966e-01	 1.165532207946015e+00	 3.134087500476392e+00
 4.568213980921848e-01	 1.169852878957349e+00	 3.002306381290698e+00
 4.458891597894507e-01	 1.174063215192018e+00	 2.873374473054224e+00
 4.349400623094145e-01	 1.178163296717446e+00	 2.747105599088294e+00
 5.472976368268903e-01	 1.140151801338169e+00	 4.236630013164053e+00
 5.364828098656651e-01	 1.145280311567177e+00	 4.089403143354979e+00
 5.256379778529098e-01	 1.150297998733234e+00	 3.942561585155421e+00
 5.147647859436432e-01	 1.155204728767399e+00	 3.796747785554886e+00
 5.038648759321993e-01	 1.160000399033112e+00	 3.652508005104351e+00
 4.929398855297008e-01	 1.164684938103473e+00	 3.510289076636369e+00
 4.819914476518521e-01	 1.169258305519455e+00	 3.370436170726453e+00
 4.710211897176096e-01	 1.173720491529516e+00	 3.233191552539911e+00
 4.600307329592656e-01	 1.178071516811095e+00	 3.098694308059175e+00
 4.490216917444500e-01	 1.182311432174493e+00	 2.966981011357154e+00
 4.379956729105452e-01	 1.186440318249641e+00	 2.837987298617171e+00
 4.074395668754807e-01	 1.103670102937638e+00	 1.881222025457432e+00
 3.971702024556140e-01	 1.107407135758633e+00	 1.755288847551409e+00
 3.868880145256408e-01	 1.111041151327425e+00	 1.627320207621641e+00
 3.765944720216519e-01	 1.114572305136289e+00	 1.501824721065388e+00
 3.662910345483225e-01	 1.118000779086037e+00	 1.383524163466762e+00
 3.559791518240072e-01	 1.121326781123692e+00	 1.273111780317202e+00
 3.456602631396047e-01	 1.124550544867359e+00	 1.169940609820200e+00
 3.353357968314888e-01	 1.127672329218821e+00	 1.072982217564926e+00
 3.250071697687858e-01	 1.130692417964432e+00	 9.810734107651005e-01
 3.146757868552502e-01	 1.133611119364855e+00	 8.929321797637093e-01
 3.043430405459638e-01	 1.136428765734195e+00	 8.071728833253160e-01
 4.104951774803756e-01	 1.111947124469834e+00	 1.984761903725818e+00
 4.001487975191530e-01	 1.115712183329848e+00	 1.853184278063587e+00
 3.897894978773230e-01	 1.119373452355373e+00	 1.726696059482287e+00
 3.794187585073288e-01	 1.122931088204793e+00	 1.605884501968506e+00
 3.690380499602168e-01	 1.126385274143079e+00	 1.491280159994055e+00
 3.586488328265704e-01	 1.129736219676757e+00	 1.383691922536563e+00
 3.482525571913153e-01	 1.132984160175946e+00	 1.282752832836275e+00
 3.378506621026985e-01	 1.136129356484066e+00	 1.187412415780326e+00
 3.274445750557212e-01	 1.139172094515729e+00	 1.096488510994660e+00
 3.170357114902763e-01	 1.142112684843400e+00	 1.008683524608066e+00
 3.066254743042259e-01	 1.144951462273381e+00	 9.225998819789138e-01
 4.135507880851813e-01	 1.120224146001366e+00	 2.075505859389739e+00
 4.031273925825187e-01	 1.124017230900445e+00	 1.948970463445810e+00
 3.926909812287495e-01	 1.127705753382754e+00	 1.826704205554631e+00
 3.822430449926698e-01	 1.131289871272786e+00	 1.709318065274987e+00
 3.717850653716988e-01	 1.134769769199676e+00	 1.597357776753732e+00
 3.613185138286493e-01	 1.138145658229445e+00	 1.491566345051972e+00
 3.508448512424743e-01	 1.141417775484228e+00	 1.391979218492444e+00
 3.403655273732957e-01	 1.144586383749080e+00	 1.297516031696382e+00
 3.298819803419893e-01	 1.147651771066872e+00	 1.206957784103570e+00
 3.193956361245884e-01	 1.150614250321871e+00	 1.118973426811600e+00
 3.089079080617355e-01	 1.153474158812572e+00	 1.032135609605925e+00
 4.166063986898157e-01	 1.128501167532400e+00	 2.169174863054836e+00
 4.061059876456443e-01	 1.132322278470578e+00	 2.046220670305267e+00
 3.955924645798691e-01	 1.136038054409710e+00	 1.926890969909416e+00
 3.850673314776412e-01	 1.139648654340397e+00	 1.811804400568281e+00
 3.745320807827524e-01	 1.143154264255938e+00	 1.701513968486606e+00
 3.639881948302449e-01	 1.146555096781847e+00	 1.596658692751572e+00
 3.534371452931008e-01	 1.149851390792280e+00	 1.497629226350349e+00
 3.428803926433168e-01	 1.153043411013923e+00	 1.403376452406297e+00
 3.323193856276437e-01	 1.156131447617902e+00	 1.312626903856403e+00
 3.217555607582559e-01	 1.159115815800288e+00	 1.223998469425976e+00
 3.111903418185772e-01	 1.161996855351768e+00	 1.136016461373341e+00
 4.196620092941962e-01	 1.136778189063103e+00	 2.264987118280575e+00
 4.090845827084626e-01	 1.140627326040400e+00	 2.144306923878283e+00
 3.984939479306320e-01	 1.144370355436380e+00	 2.026771326156735e+00
 3.878916179622100e-01	 1.148007437407754e+00	 1.912990713175012e+00
 3.772790961933614e-01	 1.151538759311978e+00	 1.803508891829208e+00
 3.666578758313588e-01	 1.154964535334063e+00	 1.698863598477094e+00
 3.560294393432137e-01	 1.158285006100180e+00	 1.599683918831973e+00
 3.453952579127971e-01	 1.161500438278650e+00	 1.505049482015358e+00
 3.347567909127369e-01	 1.164611124168855e+00	 1.413614963993932e+00
 3.241154853913476e-01	 1.167617381278668e+00	 1.323929837042514e+00
 3.134727755748354e-01	 1.170519551890967e+00	 1.234454784159193e+00
 4.227176198982409e-01	 1.145055210593639e+00	 2.362135802633455e+00
 4.120631777709073e-01	 1.148932373610068e+00	 2.242573765962890e+00
 4.013954312809877e-01	 1.152702656462910e+00	 2.125830697508999e+00
 3.907159044463422e-01	 1.156366220474983e+00	 2.012492971561139e+00
 3.800261116035095e-01	 1.159923254367906e+00	 1.903078865223510e+00
 3.693275568319923e-01	 1.163373973886183e+00	 1.798046511345892e+00
 3.586217333928314e-01	 1.166718621408003e+00	 1.698095862690451e+00
 3.479101231817733e-01	 1.169957465543320e+00	 1.602563304682290e+00
 3.371941961973218e-01	 1.173090800719770e+00	 1.510014491624018e+00
 3.264754100239330e-01	 1.176118946757029e+00	 1.418913368674672e+00
 3.157552093305945e-01	 1.179042248430168e+00	 1.327638958434349e+00
 4.257732305018673e-01	 1.153332232124176e+00	 2.459789475559548e+00
 4.150417728329115e-01	 1.157237421179736e+00	 2.340338718707951e+00
 4.042969146308859e-01	 1.161034957489440e+00	 2.223525466627458e+00
 3.935401909300050e-01	 1.164725003542213e+00	 2.109896453708381e+00
 3.827731270131807e-01	 1.168307749423834e+00	 1.999928227510857e+00
 3.719972378321467e-01	 1.171783412438303e+00	 1.894029999394734e+00
 3.612140274419730e-01	 1.175152236715827e+00	 1.792789021930297e+00
 3.504249884502812e-01	 1.178414492807989e+00	 1.695918437518584e+00
 3.396316014814514e-01	 1.181570477270684e+00	 1.601891449307012e+00
 3.288353346560809e-01	 1.184620512235391e+00	 1.509069598582639e+00
 3.180376430859393e-01	 1.187564944969370e+00	 1.415733467737604e+00
 4.288288411049933e-01	 1.161609253654879e+00	 2.557092496592238e+00
 4.180203678944087e-01	 1.165542468749559e+00	 2.436892754485251e+00
 4.071983979802761e-01	 1.169367258516111e+00	 2.319283487788207e+00
 3.963644774131643e-01	 1.173083786609569e+00	 2.204756292525865e+00
 3.855201424223589e-01	 1.176692244479873e+00	 2.093729907861991e+00
 3.746669188318235e-01	 1.180192850990518e+00	 1.986553438609718e+00
 3.638063214906573e-01	 1.183585852023727e+00	 1.883658642605721e+00
 3.529398537183571e-01	 1.186871520072716e+00	 1.785087673852178e+00
 3.420690067651786e-01	 1.190050153821637e+00	 1.689285226398863e+00
 3.311952592878606e-01	 1.193122077713771e+00	 1.594493785645431e+00
 3.203200768409540e-01	 1.196087641508569e+00	 1.498878956360357e+00
 4.318844517075363e-01	 1.169886275185913e+00	 2.653165453384887e+00
 4.209989629553321e-01	 1.173847516319692e+00	 2.531500771542357e+00
 4.100998813291079e-01	 1.177699559543065e+00	 2.412504601255381e+00
 3.991887638957872e-01	 1.181442569677181e+00	 2.296598020347417e+00
 3.882671578310279e-01	 1.185076739536136e+00	 2.184125992108309e+00
 3.773365998310240e-01	 1.188602289542922e+00	 2.075360999338827e+00
 3.663986155389030e-01	 1.192019467331779e+00	 1.970571129904752e+00
 3.554547189860368e-01	 1.195328547337558e+00	 1.870016017336908e+00
 3.445064120485563e-01	 1.198529830372667e+00	 1.772208620190164e+00
 3.335551839193410e-01	 1.201623643192187e+00	 1.675255931849081e+00
 3.226025105957234e-01	 1.204610338047766e+00	 1.577192275834084e+00
 4.349400623094145e-01	 1.178163296717446e+00	 2.747105599088294e+00
 4.239775580156150e-01	 1.182152563890288e+00	 2.623402075158351e+00
 4.130013646773309e-01	 1.186031860570447e+00	 2.502561149754271e+00
 4.020130503778399e-01	 1.189801352745175e+00	 2.384918112559581e+00
 3.910141732391717e-01	 1.193461234592733e+00	 2.270728285656124e+00
 3.800062808297496e-01	 1.197011728095609e+00	 2.160171109055131e+00
 3.689909095867292e-01	 1.200453082640061e+00	 2.053363917898595e+00
 3.579695842533565e-01	 1.203785574602574e+00	 1.950620607360563e+00
 3.469438173316374e-01	 1.207009506923811e+00	 1.850647807342132e+00
 3.359151085505915e-01	 1.210125208670659e+00	 1.751400790428981e+00
 3.248849443503319e-01	 1.213133034586957e+00	 1.650766520766126e+00
 4.379956729105452e-01	 1.186440318249641e+00	 2.837987298617171e+00
 4.269561530751904e-01	 1.190457611461505e+00	 2.711810864032167e+00
 4.159028480248949e-01	 1.194364161598395e+00	 2.588798496944894e+00
 4.048373368592890e-01	 1.198160135813678e+00	 2.469184530407145e+00
 3.937611886467740e-01	 1.201845729649776e+00	 2.353118873154839e+00
 3.826759618280015e-01	 1.205421166648674e+00	 2.240671586891052e+00
 3.715832036341543e-01	 1.208886697948648e+00	 2.131838074820316e+00
 3.604844495203520e-01	 1.212242601867819e+00	 2.026790636179897e+00
 3.493812226144747e-01	 1.215489183475108e+00	 1.924562306099664e+00
 3.382750331816809e-01	 1.218626774149204e+00	 1.822947864174974e+00
 3.271673781048640e-01	 1.221655731126142e+00	 1.719671054552290e+00
 3.043430405459638e-01	 1.136428765734195e+00	 8.071728833253160e-01
 2.940103105200784e-01	 1.139145713255937e+00	 7.244554589993153e-01
 2.836789636376346e-01	 1.141762342280760e+00	 6.463377481985684e-01
 2.733503530559896e-01	 1.144279056132160e+00	 5.726631933683146e-01
 2.630258176635664e-01	 1.146696280400205e+00	 5.032181342239417e-01
 2.527066816735784e-01	 1.149014462474888e+00	 4.377411331908041e-01
 2.423942542335408e-01	 1.151234071072297e+00	 3.759316020438135e-01
 2.320898290506398e-01	 1.153355595754177e+00	 3.174577451627694e-01
 2.217946840330177e-01	 1.155379546441417e+00	 2.619638375655997e-01
 2.115100809470059e-01	 1.157306452922045e+00	 2.090768583576148e-01
 2.012372650903192e-01	 1.159136864354258e+00	 1.584125024235243e-01
 3.066254743042259e-01	 1.144951462273381e+00	 9.225998819789138e-01
 2.962152535236881e-01	 1.147688785660359e+00	 8.390496722980729e-01
 2.858064262595311e-01	 1.150325038207474e+00	 7.597645041467858e-01
 2.754003558171759e-01	 1.152860626262969e+00	 6.846139250593848e-01
 2.649983911260981e-01	 1.155295978608647e+00	 6.134140732074651e-01
 2.546018663305073e-01	 1.157631545989724e+00	 5.459370278670166e-01
 2.442121003959286e-01	 1.159867800637453e+00	 4.819194278704253e-01
 2.338303967317625e-01	 1.162005235785069e+00	 4.210703752252765e-01
 2.234580428298802e-01	 1.164044365177641e+00	 3.630786439173570e-01
 2.130963099192855e-01	 1.165985722576369e+00	 3.076192164610818e-01
 2.027464526368590e-01	 1.167829861257889e+00	 2.543591730084325e-01
 3.089079080617355e-01	 1.153474158812572e+00	 1.032135609605925e+00
 2.984201965265155e-01	 1.156231858064867e+00	 9.473925733040924e-01
 2.879338888806232e-01	 1.158887734134355e+00	 8.666425198011196e-01
 2.774503585775424e-01	 1.161442196394022e+00	 7.897767390845916e-01
 2.669709645878010e-01	 1.163895676817406e+00	 7.166370754232183e-01
 2.564970509866032e-01	 1.166248629504951e+00	 6.470253002412538e-01
 2.460299465574828e-01	 1.168501530203065e+00	 5.807117184292818e-01
 2.355709644120541e-01	 1.170654875816480e+00	 5.174430271271953e-01
 2.251214016259160e-01	 1.172709183914441e+00	 4.569494489347674e-01
 2.146825388907438e-01	 1.174664992231320e+00	 3.989511641287837e-01
 2.042556401825828e-01	 1.176522858162191e+00	 3.431640687683513e-01
 3.111903418185772e-01	 1.161996855351768e+00	 1.136016461373341e+00
 3.006251395286592e-01	 1.164774930469441e+00	 1.049753095950337e+00
 2.900613515010231e-01	 1.167450430061359e+00	 9.672696308229525e-01
 2.795003613372141e-01	 1.170023766525256e+00	 8.884747567077702e-01
 2.689435380488112e-01	 1.172495375026404e+00	 8.132319651678759e-01
 2.583922356420127e-01	 1.174865713020469e+00	 7.413689408551516e-01
 2.478477927183597e-01	 1.177135259769021e+00	 6.726861512790245e-01
 2.373115320916792e-01	 1.179304515848281e+00	 6.069646550691763e-01
 2.267847604212971e-01	 1.181374002651673e+00	 5.439731527222027e-01
 2.162687678615592e-01	 1.183344261886740e+00	 4.834743065100944e-01
 2.057648277276742e-01	 1.185215855066995e+00	 4.252303586059694e-01
 3.134727755748354e-01	 1.170519551890967e+00	 1.234454784159193e+00
 3.028300825302183e-01	 1.173318002874057e+00	 1.146377532153187e+00
 2.921888141208432e-01	 1.176013125988446e+00	 1.061922386860013e+00
 2.815503640963159e-01	 1.178605336656612e+00	 9.810111185022574e-01
 2.709161115092655e-01	 1.181095073235562e+00	 9.035248405443728e-01
 2.602874202968823e-01	 1.183482796536182e+00	 8.293134178450767e-01
 2.496656388787153e-01	 1.185768989335205e+00	 7.582040350166790e-01
 2.390520997708024e-01	 1.187954155880343e+00	 6.900089479930758e-01
 2.284481192161953e-01	 1.190038821389194e+00	 6.245324449147396e-01
 2.178549968319098e-01	 1.192023531542475e+00	 5.615770452092166e-01
 2.072740152723170e-01	 1.193908851972134e+00	 5.009489681797326e-01
 3.157552093305945e-01	 1.179042248430168e+00	 1.327638958434349e+00
 3.050350255312917e-01	 1.181861075278695e+00	 1.237489636292200e+00
 2.943162767401960e-01	 1.184575821915574e+00	 1.150856176106597e+00
 2.836003668549725e-01	 1.187186906788029e+00	 1.067669126532189e+00
 2.728886849692993e-01	 1.189694771444798e+00	 9.878232308791077e-01
 2.621826049513589e-01	 1.192099880051993e+00	 9.111868472754825e-01
 2.514834850387057e-01	 1.194402718901503e+00	 8.376104902837263e-01
 2.407926674495880e-01	 1.196603795912533e+00	 7.669345190926307e-01
 2.301114780107828e-01	 1.198703640126860e+00	 6.989960006083507e-01
 2.194412258019741e-01	 1.200702801198366e+00	 6.336347786219685e-01
 2.087832028166949e-01	 1.202601848877441e+00	 5.706987827241494e-01
 3.180376430859393e-01	 1.187564944969370e+00	 1.415733467737604e+00
 3.072399685319786e-01	 1.190404147683333e+00	 1.323290717156242e+00
 2.964437393591938e-01	 1.193138517842703e+00	 1.234305337254571e+00
 2.856503696133087e-01	 1.195768476919445e+00	 1.148712373910635e+00
 2.748612584290495e-01	 1.198294469654034e+00	 1.066416241548658e+00
 2.640777896055892e-01	 1.200716963567804e+00	 9.873001509700414e-01
 2.533013311984869e-01	 1.203036448467802e+00	 9.112346184080300e-01
 2.425332351282008e-01	 1.205253435944724e+00	 8.380850831450737e-01
 2.317748368052311e-01	 1.207368458864524e+00	 7.677186643342055e-01
 2.210274547719304e-01	 1.209382070854256e+00	 7.000100905924944e-01
 2.102923903609918e-01	 1.211294845782747e+00	 6.348468385045805e-01
 3.203200768409540e-01	 1.196087641508569e+00	 1.498878956360357e+00
 3.094449115323776e-01	 1.198947220087949e+00	 1.403959717976919e+00
 2.985712019779490e-01	 1.201701213769790e+00	 1.312483259467304e+00
 2.877003723714495e-01	 1.204350047050801e+00	 1.224384862362180e+00
 2.768338318886523e-01	 1.206894167863191e+00	 1.139574686848184e+00
 2.659729742597197e-01	 1.209334047083517e+00	 1.057947202466861e+00
 2.551191773582150e-01	 1.211670178033985e+00	 9.793896582958044e-01
 2.442738028068050e-01	 1.213903075976785e+00	 9.037896222672577e-01
 2.334381955997127e-01	 1.216033277602045e+00	 8.310416226790605e-01
 2.226136837419571e-01	 1.218061340509991e+00	 7.610529279718556e-01
 2.118015779053913e-01	 1.219987842687886e+00	 6.937485034695945e-01
 3.226025105957234e-01	 1.204610338047766e+00	 1.577192275834084e+00
 3.116498545325878e-01	 1.207490292492523e+00	 1.479653285147742e+00
 3.006986645965741e-01	 1.210263909696794e+00	 1.385582470970356e+00
 2.897503751295196e-01	 1.212931617182036e+00	 1.294911108388108e+00
 2.788064053482435e-01	 1.215493866072189e+00	 1.207551211493480e+00
 2.678681589138971e-01	 1.217951130599036e+00	 1.123404961686219e+00
 2.569370235180463e-01	 1.220303907599940e+00	 1.042373132163350e+00
 2.460143704855653e-01	 1.222552716008587e+00	 9.643625406740128e-01
 2.351015543943990e-01	 1.224698096339278e+00	 8.892925661119899e-01
 2.241999127122325e-01	 1.226740610165411e+00	 8.171007676292730e-01
 2.133107654500772e-01	 1.228680839592689e+00	 7.477476476396525e-01
 3.248849443503319e-01	 1.213133034586957e+00	 1.650766520766126e+00
 3.138547975327082e-01	 1.216033364897031e+00	 1.550505826182092e+00
 3.028261272151812e-01	 1.218826605623674e+00	 1.453774716822443e+00
 2.918003778876437e-01	 1.221513187313088e+00	 1.360496238596465e+00
 2.807789788079597e-01	 1.224093564280949e+00	 1.270580401318829e+00
 2.697633435682682e-01	 1.226568214114262e+00	 1.183933598866906e+00
 2.587548696781368e-01	 1.228937637165553e+00	 1.100466980650082e+00
 2.477549381646460e-01	 1.231202356039998e+00	 1.020103808979127e+00
 2.367649131894622e-01	 1.233362915076078e+00	 9.427858405503968e-01
 2.257861416829349e-01	 1.235419879820361e+00	 8.684787734360162e-01
 2.148199529952333e-01	 1.237373836496991e+00	 7.971768037379456e-01
 3.271673781048640e-01	 1.221655731126142e+00	 1.719671054552290e+00
 3.160597405328376e-01	 1.224576437301452e+00	 1.616629557441021e+00
 3.049535898338829e-01	 1.227389301550389e+00	 1.517211026395161e+00
 2.938503806459468e-01	 1.230094757443897e+00	 1.421326074726842e+00
 2.827515522679372e-01	 1.232693262489390e+00	 1.328878883697254e+00
 2.716585282229795e-01	 1.235185297629098e+00	 1.239776608299421e+00
 2.605727158386424e-01	 1.237571366730709e+00	 1.153937687841070e+00
 2.494955058442119e-01	 1.239851996070890e+00	 1.071299098552193e+00
 2.384282719850742e-01	 1.242027733812301e+00	 9.918225891679420e-01
 2.273723706542426e-01	 1.244099149474684e+00	 9.154999437118281e-01
 2.163291405410435e-01	 1.246066833400622e+00	 8.423573185376663e-01
 2.012372650903192e-01	 1.159136864354258e+00	 1.584125024235243e-01
 1.909757223370208e-01	 1.160871635377850e+00	 1.104635572960153e-01
 1.807284145044399e-01	 1.162511032589169e+00	 6.586972698095650e-02
 1.704965389236662e-01	 1.164055659696293e+00	 2.443888317833709e-02
 1.602812752409672e-01	 1.165506137775708e+00	-1.401536737632769e-02
 1.500837851699626e-01	 1.166863104757728e+00	-4.967073575062075e-02
 1.399052122595189e-01	 1.168127214910092e+00	-8.269374642674965e-02
 1.297466816772556e-01	 1.169299138320258e+00	-1.132376445727239e-01
 1.196093000085310e-01	 1.170379560376875e+00	-1.414406836978874e-01
 1.094941550707644e-01	 1.171369181250904e+00	-1.674247624457776e-01
 9.940231574293544e-02	 1.172268715376846e+00	-1.912943795121507e-01
 2.027464526368590e-01	 1.167829861257889e+00	 2.543591730084325e-01
 1.924079530009566e-01	 1.169577642271411e+00	 2.038616586145952e-01
 1.820837950411904e-01	 1.171229334212641e+00	 1.567951651727459e-01
 1.717751850680933e-01	 1.172785545317202e+00	 1.129599573177980e-01
 1.614833115747479e-01	 1.174246901319383e+00	 7.216490863276936e-02
 1.512093449871021e-01	 1.175614044933695e+00	 3.423030707596109e-02
 1.409544374301233e-01	 1.176887635334593e+00	-1.009797786938549e-03
 1.307197225096806e-01	 1.178068347634899e+00	-3.370567265700641e-02
 1.205063151100237e-01	 1.179156872363373e+00	-6.399037025733145e-02
 1.103153112067120e-01	 1.180153914941946e+00	-9.197855781664144e-02
 1.001477876948355e-01	 1.181060195163063e+00	-1.177656714090687e-01
 2.042556401825828e-01	 1.176522858162191e+00	 3.431640687683513e-01
 1.938401836640811e-01	 1.178283649165676e+00	 2.902112743659275e-01
 1.834391755771361e-01	 1.179947635836845e+00	 2.407799811347680e-01
 1.730538312117262e-01	 1.181515430938867e+00	 1.946611672060170e-01
 1.626853479077519e-01	 1.182987664863832e+00	 1.516575600957224e-01
 1.523349048034916e-01	 1.184364985110445e+00	 1.115862873474138e-01
 1.420036626000162e-01	 1.185648055759887e+00	 7.428105303579713e-02
 1.316927633414469e-01	 1.186837556950337e+00	 3.959387528773473e-02
 1.214033302109270e-01	 1.187934184350669e+00	 7.396420081749788e-03
 1.111364673421585e-01	 1.188938648633787e+00	-2.241903353093111e-02
 1.008932596463443e-01	 1.189851674950080e+00	-4.993896196991132e-02
 2.057648277276742e-01	 1.185215855066995e+00	 4.252303586059689e-01
 1.952724143265823e-01	 1.186989656060471e+00	 3.699150052167859e-01
 1.847945561124680e-01	 1.188665937461601e+00	 3.182250879695787e-01
 1.743324773547567e-01	 1.190245316561098e+00	 2.699407356245613e-01
 1.638873842401690e-01	 1.191728428408858e+00	 2.248572395261217e-01
 1.534604646193161e-01	 1.193115925287784e+00	 1.827875357989499e-01
 1.430528877693740e-01	 1.194408476185774e+00	 1.435641969369734e-01
 1.326658041727185e-01	 1.195606766266372e+00	 1.070409701007882e-01
 1.223003453113881e-01	 1.196711496338564e+00	 7.309389950879153e-02
 1.119576234772293e-01	 1.197723382326228e+00	 4.162207014304098e-02
 1.016387315975596e-01	 1.198643154737697e+00	 1.254800960780056e-02
 2.072740152723170e-01	 1.193908851972134e+00	 5.009489681797317e-01
 1.967046449886486e-01	 1.195695662955619e+00	 4.433640976099804e-01
 1.861499366473765e-01	 1.197384239086723e+00	 3.895208376457142e-01
 1.756111234973764e-01	 1.198975202183708e+00	 3.391870234054615e-01
 1.650894205721892e-01	 1.200469191954271e+00	 2.921493449702433e-01
 1.545860244347607e-01	 1.201866865465514e+00	 2.482156468481476e-01
 1.441021129383737e-01	 1.203168896612058e+00	 2.072167198338613e-01
 1.336388450036595e-01	 1.204375975582805e+00	 1.690076248311492e-01
 1.231973604115540e-01	 1.205488808326859e+00	 1.334685882410946e-01
 1.127787796120495e-01	 1.206508116019070e+00	 1.005055083030437e-01
 1.023842035485794e-01	 1.207434634525714e+00	 7.005011133819838e-02
 2.087832028166949e-01	 1.202601848877441e+00	 5.706987827241494e-01
 1.981368756504679e-01	 1.204401669850942e+00	 5.109386481775116e-01
 1.875053171820532e-01	 1.206102540712028e+00	 4.550472271414190e-01
 1.768897696397768e-01	 1.207705087806507e+00	 4.027787375219025e-01
 1.662914569040022e-01	 1.209209955499877e+00	 3.539102303418171e-01
 1.557115842500103e-01	 1.210617805643440e+00	 3.082436915506703e-01
 1.451513381071916e-01	 1.211929317038539e+00	 2.656076186969387e-01
 1.346118858344344e-01	 1.213145184899439e+00	 2.258581143793559e-01
 1.240943755115722e-01	 1.214266120315354e+00	 1.888795383896238e-01
 1.135999357467444e-01	 1.215292849712110e+00	 1.545847601967085e-01
 1.031296754995014e-01	 1.216226114313930e+00	 1.229150529182039e-01
 2.102923903609918e-01	 1.211294845782747e+00	 6.348468385045807e-01
 1.995691063122282e-01	 1.213107676746267e+00	 5.730077970991492e-01
 1.888606977166885e-01	 1.214820842337333e+00	 5.151740938011244e-01
 1.781684157821497e-01	 1.216434973429306e+00	 4.610851286143274e-01
 1.674934932357980e-01	 1.217950719045483e+00	 4.105074053661140e-01
 1.568371440652499e-01	 1.219368745821367e+00	 3.632364202895964e-01
 1.462005632760045e-01	 1.220689737465020e+00	 3.190980073915690e-01
 1.355849266652071e-01	 1.221914394216071e+00	 2.779491849744662e-01
 1.249913906115898e-01	 1.223043432303848e+00	 2.396785476333025e-01
 1.144210918814393e-01	 1.224077583405152e+00	 2.042062477306725e-01
 1.038751474504234e-01	 1.225017594102147e+00	 1.714836097862844e-01
 2.118015779053913e-01	 1.219987842687886e+00	 6.937485034695945e-01
 2.010013369741176e-01	 1.221813683641414e+00	 6.299299109554028e-01
 1.902160782514735e-01	 1.223539143962455e+00	 5.702613004409292e-01
 1.794470619246867e-01	 1.225164859051915e+00	 5.144661784755316e-01
 1.686955295677663e-01	 1.226691482590897e+00	 4.622997256509958e-01
 1.579627038806646e-01	 1.228119685999097e+00	 4.135504557137253e-01
 1.472497884449890e-01	 1.229450157891303e+00	 3.680413128398357e-01
 1.365579674961419e-01	 1.230683603532504e+00	 3.256302539952438e-01
 1.258884057117540e-01	 1.231820744292142e+00	 2.862103632095694e-01
 1.152422480162592e-01	 1.232862317097992e+00	 2.497095442171338e-01
 1.046206194014433e-01	 1.233809073890164e+00	 2.160898372895066e-01
 2.133107654500772e-01	 1.228680839592689e+00	 7.477476476396536e-01
 2.024335676363242e-01	 1.230519690536209e+00	 6.820527555985993e-01
 1.915714587865989e-01	 1.232257445587211e+00	 6.206589107138145e-01
 1.807257080675794e-01	 1.233894744674147e+00	 5.632727779977529e-01
 1.698975659000969e-01	 1.235432246135923e+00	 5.096375733760126e-01
 1.590882636964393e-01	 1.236870626176435e+00	 4.595344764058942e-01
 1.482990136143216e-01	 1.238210578317190e+00	 4.127834619821795e-01
 1.375310083274029e-01	 1.239452812848540e+00	 3.692436006124495e-01
 1.267854208122119e-01	 1.240598056280037e+00	 3.288128767007439e-01
 1.160634041513297e-01	 1.241647050790434e+00	 2.914275738437719e-01
 1.053660913526588e-01	 1.242600553677780e+00	 2.570612754463166e-01
 2.148199529952333e-01	 1.237373836496991e+00	 7.971768037379456e-01
 2.038657982990362e-01	 1.239225697430475e+00	 7.297136595321658e-01
 1.929268393222558e-01	 1.240975747211415e+00	 6.667073552120213e-01
 1.820043542110196e-01	 1.242624630295811e+00	 6.078468960458743e-01
 1.710996022329800e-01	 1.244173009680370e+00	 5.528630290591403e-01
 1.602138235127591e-01	 1.245621566353186e+00	 5.015293917386097e-01
 1.493482387841790e-01	 1.246970998742483e+00	 4.536630599907596e-01
 1.385040491591543e-01	 1.248222022163977e+00	 4.091245477043426e-01
 1.276824359131110e-01	 1.249375368267334e+00	 3.678173100703748e-01
 1.168845602867759e-01	 1.250431784482275e+00	 3.296868023209161e-01
 1.061115633041677e-01	 1.251392033464797e+00	 2.947191447713238e-01
 2.163291405410435e-01	 1.246066833400622e+00	 8.423573185376672e-01
 2.052980289624416e-01	 1.247931704324035e+00	 7.732396682629106e-01
 1.942822198586349e-01	 1.249694048834886e+00	 7.087375887617728e-01
 1.832830003551988e-01	 1.251354515916720e+00	 6.485217397045961e-01
 1.723016385666052e-01	 1.252913773224046e+00	 5.923100348388086e-01
 1.613393833298090e-01	 1.254372506529152e+00	 5.398685083472681e-01
 1.503974639547379e-01	 1.255731419166985e+00	 4.910115601635232e-01
 1.394770899915604e-01	 1.256991231478618e+00	 4.456016354722798e-01
 1.285794510145984e-01	 1.258152680253831e+00	 4.035483933746375e-01
 1.177057164227230e-01	 1.259216518173316e+00	 3.648074191375932e-01
 1.068570352560679e-01	 1.260183513251014e+00	 3.293785335948118e-01
 9.940231574293544e-02	 1.172268715376846e+00	-1.912943795121507e-01
 8.933653701907020e-02	 1.173078760736435e+00	-2.129795089254953e-01
 7.929611196705814e-02	 1.173800218715625e+00	-2.323785527057391e-01
 6.928202837001728e-02	 1.174433842814812e+00	-2.495093451657691e-01
 5.929525517689356e-02	 1.174980398714412e+00	-2.643709281938955e-01
 4.933674240191636e-02	 1.175440663770815e+00	-2.769437427553711e-01
 3.940742103752461e-02	 1.175815426514736e+00	-2.871899627323047e-01
 2.950820298053884e-02	 1.176105486152319e+00	-2.950539458655141e-01
 1.963998097134695e-02	 1.176311652069365e+00	-3.004627778515077e-01
 9.803628545861746e-03	 1.176434743339030e+00	-3.033268870107189e-01
 0.000000000000000e+00	 1.176475588233336e+00	-3.035407082876436e-01
 1.001477876948355e-01	 1.181060195163063e+00	-1.177656714090687e-01
 9.000652022961728e-02	 1.181876315493052e+00	-1.412616817374825e-01
 7.989079657725708e-02	 1.182603184077831e+00	-1.623527026895517e-01
 6.980161192876753e-02	 1.183241560068681e+00	-1.810556924827753e-01
 5.973994249974197e-02	 1.183792214888246e+00	-1.973674082229606e-01
 4.970674542905570e-02	 1.184255931722710e+00	-2.112648057390851e-01
 3.970295869113922e-02	 1.184633505016388e+00	-2.227055803271867e-01
 2.972950102159660e-02	 1.184925739969079e+00	-2.316288218232829e-01
 1.978727185593514e-02	 1.185133452036587e+00	-2.379557588054459e-01
 9.877151281162630e-03	 1.185257466434719e+00	-2.415905681762398e-01
 0.000000000000000e+00	 1.185298617647136e+00	-2.424212278325748e-01
 1.008932596463443e-01	 1.189851674950080e+00	-4.993896196991177e-02
 9.067650343990423e-02	 1.190673870250469e+00	-7.505134905846456e-02
 8.048548118733835e-02	 1.191406149440837e+00	-9.762980187282144e-02
 7.032119548754186e-02	 1.192049277323350e+00	-1.176930713337292e-01
 6.018462982274317e-02	 1.192604031062879e+00	-1.352382393122173e-01
 5.007674845645180e-02	 1.193071199675406e+00	-1.502413358931367e-01
 3.999849634507806e-02	 1.193451583518840e+00	-1.626580959440203e-01
 2.995079906299798e-02	 1.193745993786640e+00	-1.724248270115103e-01
 1.993456274082684e-02	 1.193955252004609e+00	-1.794593620507676e-01
 9.950674016656167e-03	 1.194080189531207e+00	-1.836620720334814e-01
 0.000000000000000e+00	 1.194121647061736e+00	-1.849169150408270e-01
 1.016387315975596e-01	 1.198643154737697e+00	 1.254800960779967e-02
 9.134648664999610e-02	 1.199471425008485e+00	-1.399353453948526e-02
 8.108016579733142e-02	 1.200209114804443e+00	-3.786463483714719e-02
 7.084077904633415e-02	 1.200856994578618e+00	-5.908827848812015e-02
 6.062931714585892e-02	 1.201415847238113e+00	-7.766425544855071e-02
 5.044675148404044e-02	 1.201886467628702e+00	-9.357000283652628e-02
 4.029403399926004e-02	 1.202269662021892e+00	-1.067615868466532e-01
 3.017209710465706e-02	 1.202566247604800e+00	-1.171747927510407e-01
 2.008185362594616e-02	 1.202777051973230e+00	-1.247262951426142e-01
 1.002419675229419e-02	 1.202902912628295e+00	-1.293148822178927e-01
 0.000000000000000e+00	 1.202944676476936e+00	-1.308227095764798e-01
 1.023842035485794e-01	 1.207434634525714e+00	 7.005011133819883e-02
 9.201646985995794e-02	 1.208268979766902e+00	 4.225942526216730e-02
 8.167485040726566e-02	 1.209012080168448e+00	 1.728079104707403e-02
 7.136036260513841e-02	 1.209664711834286e+00	-4.915232116547763e-03
 6.107400446905107e-02	 1.210227663413746e+00	-2.433329830998909e-02
 5.081675451175748e-02	 1.210701735582398e+00	-4.095435678728254e-02
 4.058957165360418e-02	 1.211087740525344e+00	-5.473686937076061e-02
 3.039339514648793e-02	 1.211386501423361e+00	-6.561813242971137e-02
 2.022914451121722e-02	 1.211598851942252e+00	-7.351567419862004e-02
 1.009771948802854e-02	 1.211725635725784e+00	-7.832869994124159e-02
 0.000000000000000e+00	 1.211767705892536e+00	-7.993955926227936e-02
 1.031296754995014e-01	 1.216226114313930e+00	 1.229150529182035e-01
 9.268645306985471e-02	 1.217066534525519e+00	 9.404812042477539e-02
 8.226953501717052e-02	 1.217815045532654e+00	 6.813748828388189e-02
 7.187994616394870e-02	 1.218472429090154e+00	 4.514527219688524e-02
 6.151869179228140e-02	 1.219039479589579e+00	 2.506002640046900e-02
 5.118675753953868e-02	 1.219517003536293e+00	 7.895413288087516e-03
 4.088510930802933e-02	 1.219905819028996e+00	-6.311260228471838e-03
 3.061469318840470e-02	 1.220206755242121e+00	-1.750060715268753e-02
 2.037643539656413e-02	 1.220420651911474e+00	-2.559279494112898e-02
 1.017124222381105e-02	 1.220548358823471e+00	-3.048922131583787e-02
 0.000000000000000e+00	 1.220590735308335e+00	-3.207420443532438e-02
 1.038751474504234e-01	 1.225017594102147e+00	 1.714836097862840e-01
 9.335643627975154e-02	 1.225864089284136e+00	 1.417062966621407e-01
 8.286421962707537e-02	 1.226618010896860e+00	 1.150297213073037e-01
 7.239952972275898e-02	 1.227280146346022e+00	 9.140579482884537e-02
 6.196337911551174e-02	 1.227851295765412e+00	 7.081458206208535e-02
 5.155676056731988e-02	 1.228332271490189e+00	 5.326271107420966e-02
 4.118064696245446e-02	 1.228723897532648e+00	 3.878165188870053e-02
 3.083599123032144e-02	 1.229027009060881e+00	 2.742589850499200e-02
 2.052372628191104e-02	 1.229242451880695e+00	 1.927108639974850e-02
 1.024476495959354e-02	 1.229371081921160e+00	 1.441207573132086e-02
 0.000000000000000e+00	 1.229413764724135e+00	 1.296102841133617e-02
 1.046206194014433e-01	 1.233809073890164e+00	 2.160898372895061e-01
 9.402641948971339e-02	 1.234661644042552e+00	 1.855610743045535e-01
 8.345890423700963e-02	 1.235420976260865e+00	 1.582752284566544e-01
 7.291911328156325e-02	 1.236087863601690e+00	 1.341724754097355e-01
 6.240806643870384e-02	 1.236663111941046e+00	 1.132229242115925e-01
 5.192676359503685e-02	 1.237147539443885e+00	 9.542475437447218e-02
 4.147618461679851e-02	 1.237541976036100e+00	 8.080222492307176e-02
 3.105728927215226e-02	 1.237847262879441e+00	 6.940359115000194e-02
 2.067101716718206e-02	 1.238064251849717e+00	 6.129896281200953e-02
 1.031828769532786e-02	 1.238193805018648e+00	 5.657813543273083e-02
 0.000000000000000e+00	 1.238236794139735e+00	 5.534842416459407e-02
 1.053660913526588e-01	 1.242600553677780e+00	 2.570612754463173e-01
 9.469640269980534e-02	 1.243459198800570e+00	 2.259331577604353e-01
 8.405358884700272e-02	 1.244223941624471e+00	 1.981854343720297e-01
 7.343869684035552e-02	 1.244895580856958e+00	 1.737452465320604e-01
 6.285275376181958e-02	 1.245474928116279e+00	 1.525715140825239e-01
 5.229676662262545e-02	 1.245962807397180e+00	 1.346527871383980e-01
 4.177172227098042e-02	 1.246360054539152e+00	 1.200049727632577e-01
 3.127858731381124e-02	 1.246667516697602e+00	 1.086689741023097e-01
 2.081830805230130e-02	 1.246886051818339e+00	 1.007082773218040e-01
 1.039181043096584e-02	 1.247016528115736e+00	 9.620651949558368e-02
 0.000000000000000e+00	 1.247059823554935e+00	 9.526506824215608e-02
 1.061115633041677e-01	 1.251392033464797e+00	 2.947191447713244e-01
 9.536638591009239e-02	 1.252256753557986e+00	 2.631370359229070e-01
 8.464827345708406e-02	 1.253026906987477e+00	 2.350656532813649e-01
 7.395828039912980e-02	 1.253703298111626e+00	 2.104180383462639e-01
 6.329744108482070e-02	 1.254286744290912e+00	 1.891409230785128e-01
 5.266676965002144e-02	 1.254778075349876e+00	 1.712122825160929e-01
 4.206725992491914e-02	 1.255178133041604e+00	 1.566387657133679e-01
 3.149988535521250e-02	 1.255487770515162e+00	 1.454530442532198e-01
 2.096559893719288e-02	 1.255707851786360e+00	 1.377111153439459e-01
 1.046533316645931e-02	 1.255839251212224e+00	 1.334895941829912e-01
 0.000000000000000e+00	 1.255882852969535e+00	 1.328830277709740e-01
 1.068570352560679e-01	 1.260183513251014e+00	 3.293785335948118e-01
 9.603636912063959e-02	 1.261054308314603e+00	 2.974811739679255e-01
 8.524295806728306e-02	 1.261829872349682e+00	 2.692152836223121e-01
 7.447786395788004e-02	 1.262511015365494e+00	 2.444789744908338e-01
 6.374212840766905e-02	 1.263098560464746e+00	 2.232060286234816e-01
 5.303677267716066e-02	 1.263593343301771e+00	 2.053631373725937e-01
 4.236279757853359e-02	 1.263996211543256e+00	 1.909470225530359e-01
 3.172118339627010e-02	 1.264308024331922e+00	 1.799814806746867e-01
 2.111288982178093e-02	 1.264529651753582e+00	 1.725143889802077e-01
 1.053885590176010e-02	 1.264661974307913e+00	 1.686147095631938e-01
 0.000000000000000e+00	 1.264705882383334e+00	 1.683695251804791e-01
 1.264705882383334e+00	 0.000000000000000e+00	 1.947970308646546e+01
 1.264661974307912e+00	 1.053885590175940e-02	 1.947933041638345e+01
 1.264529651753582e+00	 2.111288982178033e-02	 1.947623485790624e+01
 1.264308024331922e+00	 3.172118339626960e-02	 1.947055067843602e+01
 1.263996211543256e+00	 4.236279757853321e-02	 1.946238401595216e+01
 1.263593343301772e+00	 5.303677267716038e-02	 1.945181158227951e+01
 1.263098560464746e+00	 6.374212840766885e-02	 1.943887937146017e+01
 1.262511015365494e+00	 7.447786395787998e-02	 1.942360137896158e+01
 1.261829872349682e+00	 8.524295806728308e-02	 1.940595833843410e+01
 1.261054308314603e+00	 9.603636912063970e-02	 1.938589648354847e+01
 1.260183513251014e+00	 1.068570352560680e-01	 1.936332634329214e+01
 1.273528911796184e+00	 0.000000000000000e+00	 1.927156588557487e+01
 1.273484697402651e+00	 1.061237863683563e-02	 1.927128113513772e+01
 1.273351451719854e+00	 2.126018070601511e-02	 1.926843122931076e+01
 1.273128278147735e+00	 3.194248143692809e-02	 1.926314639188657e+01
 1.272814290043961e+00	 4.265833523177232e-02	 1.925552834462086e+01
 1.272408611252722e+00	 5.340677570400430e-02	 1.924564897722392e+01
 1.271910376637635e+00	 6.418681573034457e-02	 1.923354901734237e+01
 1.271318732618420e+00	 7.499744751660918e-02	 1.921923670617029e+01
 1.270632837710947e+00	 8.583764267762742e-02	 1.920268648635833e+01
 1.269851863070280e+00	 9.670635233149950e-02	 1.918383770974782e+01
 1.268974993036293e+00	 1.076025072084343e-01	 1.916259337334863e+01
 1.282351941208134e+00	 0.000000000000000e+00	 1.906926518413636e+01
 1.282307420496490e+00	 1.068590137172055e-02	 1.906904224286226e+01
 1.282173251685232e+00	 2.140747158995149e-02	 1.906641472624565e+01
 1.281948531962658e+00	 3.216377947725368e-02	 1.906150795763515e+01
 1.281632368543785e+00	 4.295387288470495e-02	 1.905441848235125e+01
 1.281223879202800e+00	 5.377677873061699e-02	 1.904521270641585e+01
 1.280722192809662e+00	 6.463150305290123e-02	 1.903392552978783e+01
 1.280126449870493e+00	 7.551703107535598e-02	 1.902055897963107e+01
 1.279435803071370e+00	 8.643232728813821e-02	 1.900508085022512e+01
 1.278649417825125e+00	 9.737633554267387e-02	 1.898742335702578e+01
 1.277766472820747e+00	 1.083479791612502e-01	 1.896748181332149e+01
 1.291174970619284e+00	 0.000000000000000e+00	 1.887247498502090e+01
 1.291130143589533e+00	 1.075942410646369e-02	 1.887227572571530e+01
 1.290995051649821e+00	 2.155476247367047e-02	 1.886983574132451e+01
 1.290768785776804e+00	 3.238507751734306e-02	 1.886527461368524e+01
 1.290450447042847e+00	 4.324941053742991e-02	 1.885868297066554e+01
 1.290039147152133e+00	 5.414678175708833e-02	 1.885012109568269e+01
 1.289534008980963e+00	 6.507619037541079e-02	 1.883961752585837e+01
 1.288934167121860e+00	 7.603661463416801e-02	 1.882716764420632e+01
 1.288238768431106e+00	 8.702701189883462e-02	 1.881273227238672e+01
 1.287446972579301e+00	 9.804631875415229e-02	 1.879623627150083e+01
 1.286557952604549e+00	 1.090934511144762e-01	 1.877756715938429e+01
 1.299998000029734e+00	 0.000000000000000e+00	 1.868088098924782e+01
 1.299952866681880e+00	 1.083294684111459e-02	 1.868065623248543e+01
 1.299816851613724e+00	 2.170205335725304e-02	 1.867835820668336e+01
 1.299589039590283e+00	 3.260637555729292e-02	 1.867409992631787e+01
 1.299268525541265e+00	 4.354494819004602e-02	 1.866796537957097e+01
 1.298854415100850e+00	 5.451678478350810e-02	 1.866000811072741e+01
 1.298345825151676e+00	 6.552087769794512e-02	 1.865024978493932e+01
 1.297741884372669e+00	 7.655619819309291e-02	 1.863867874060631e+01
 1.297041733790313e+00	 8.762169650973599e-02	 1.862524853581089e+01
 1.296244527332977e+00	 9.871630196592412e-02	 1.860987649623350e+01
 1.295349432387875e+00	 1.098389230680726e-01	 1.859244227300434e+01
 1.308821029439584e+00	 0.000000000000000e+00	 1.849418020181636e+01
 1.308775589773633e+00	 1.090646957572278e-02	 1.849387065847998e+01
 1.308638651577050e+00	 2.184934424078023e-02	 1.849165915627458e+01
 1.308409293403207e+00	 3.282767359719992e-02	 1.848765133115224e+01
 1.308086604039158e+00	 4.384048584265215e-02	 1.848192382776496e+01
 1.307669683049076e+00	 5.488678780996606e-02	 1.847452285687184e+01
 1.307157641321937e+00	 6.596556502057621e-02	 1.846546272843133e+01
 1.306549601623067e+00	 7.707578175217830e-02	 1.845472436545864e+01
 1.305844699149148e+00	 8.821638112086166e-02	 1.844225380497614e+01
 1.305042082086316e+00	 9.938628517797886e-02	 1.842796069341615e+01
 1.304140912170899e+00	 1.105843950219999e-01	 1.841171678491635e+01
 1.317644058848934e+00	 0.000000000000000e+00	 1.831208055336894e+01
 1.317598312864892e+00	 1.097999231033778e-02	 1.831161774610917e+01
 1.317460451539901e+00	 2.199663512433303e-02	 1.830942830566989e+01
 1.317229547215688e+00	 3.304897163716073e-02	 1.830560969248067e+01
 1.316904682536645e+00	 4.413602349534710e-02	 1.830023052182854e+01
 1.316484950996940e+00	 5.525679083655199e-02	 1.829332909845163e+01
 1.315969457491885e+00	 6.641025234337597e-02	 1.828491191970636e+01
 1.315357318873199e+00	 7.759536531147178e-02	 1.827495215220226e+01
 1.314647664507767e+00	 8.881106573223085e-02	 1.826338808810001e+01
 1.313839636839487e+00	 1.000562683903058e-01	 1.825012158835086e+01
 1.312932391953795e+00	 1.113298669762187e-01	 1.823501652128659e+01
 1.326467088257884e+00	 0.000000000000000e+00	 1.813430053694983e+01
 1.326421035955760e+00	 1.105351504500914e-02	 1.813360770138780e+01
 1.326282251502385e+00	 2.214392600799244e-02	 1.813136764855763e+01
 1.326049801027835e+00	 3.327026967727203e-02	 1.812766888002641e+01
 1.325722761033845e+00	 4.443156114822970e-02	 1.812257131352431e+01
 1.325300218944570e+00	 5.562679386335576e-02	 1.811610479694813e+01
 1.324781273661655e+00	 6.685493966641630e-02	 1.810826758338436e+01
 1.324165036123214e+00	 7.811494887102097e-02	 1.809902477183684e+01
 1.323450629866328e+00	 8.940575034386299e-02	 1.808830671970668e+01
 1.322637191592656e+00	 1.007262516028946e-01	 1.807600743420105e+01
 1.321723871736737e+00	 1.120753389306894e-01	 1.806198295103401e+01
 1.335290117666534e+00	 0.000000000000000e+00	 1.796056885915979e+01
 1.335243759046337e+00	 1.112703777978639e-02	 1.795956182561851e+01
 1.335104051464604e+00	 2.229121689183949e-02	 1.795719106916205e+01
 1.334870054839761e+00	 3.349156771763051e-02	 1.795353536231872e+01
 1.334540839530876e+00	 4.472709880139877e-02	 1.794864527436062e+01
 1.334115486892093e+00	 5.599679689046708e-02	 1.794254166699077e+01
 1.333593089831385e+00	 6.729962698976914e-02	 1.793521414303698e+01
 1.332972753373260e+00	 7.863453243087351e-02	 1.792661945260856e+01
 1.332253595224988e+00	 9.000043495577721e-02	 1.791667986259373e+01
 1.331434746345987e+00	 1.013962348157344e-01	 1.790528149655600e+01
 1.330515351519901e+00	 1.128208108853725e-01	 1.789227265333012e+01
 1.344113147074984e+00	 0.000000000000000e+00	 1.779062410504647e+01
 1.344066482136726e+00	 1.120056051471905e-02	 1.778921216155909e+01
 1.343925851426666e+00	 2.243850777595517e-02	 1.778662396985242e+01
 1.343690308651576e+00	 3.371286575833281e-02	 1.778292781592130e+01
 1.343358918027857e+00	 4.502263645495318e-02	 1.777816428662967e+01
 1.342930754839637e+00	 5.636679991797579e-02	 1.777234474940803e+01
 1.342404906001214e+00	 6.774431431350644e-02	 1.776544977647165e+01
 1.341780470623482e+00	 7.915411599107704e-02	 1.775742751776275e+01
 1.341056560583903e+00	 9.059511956799296e-02	 1.774819202830609e+01
 1.340232301099649e+00	 1.020662180288148e-01	 1.773762155689798e+01
 1.339306831303461e+00	 1.135662828402284e-01	 1.772555680435005e+01
 1.352936176483334e+00	 0.000000000000000e+00	 1.762421441610242e+01
 1.352889205227027e+00	 1.127408324985666e-02	 1.762230115341248e+01
 1.352747651388675e+00	 2.258579866042048e-02	 1.761940291324940e+01
 1.352510562463392e+00	 3.393416379947564e-02	 1.761557674979070e+01
 1.352176996524908e+00	 4.531817410899172e-02	 1.761085265016622e+01
 1.351746022787329e+00	 5.673680294597166e-02	 1.760523200054953e+01
 1.351216722171277e+00	 6.818900163770010e-02	 1.759868598779325e+01
 1.350588187874028e+00	 7.967369955167911e-02	 1.759115394053806e+01
 1.349859525943230e+00	 9.118980418052945e-02	 1.758254161527255e+01
 1.349029855853806e+00	 1.027362012421251e-01	 1.757271943410895e+01
 1.348098311087590e+00	 1.143117547952177e-01	 1.756152068239664e+01
 1.260183513251014e+00	 1.068570352560680e-01	 1.936332634329214e+01
 1.259216518173316e+00	 1.177057164227225e-01	 1.933850680826875e+01
 1.258152680253831e+00	 1.285794510145979e-01	 1.931170345438929e+01
 1.256991231478618e+00	 1.394770899915600e-01	 1.928276821452632e+01
 1.255731419166985e+00	 1.503974639547374e-01	 1.925151359772162e+01
 1.254372506529152e+00	 1.613393833298087e-01	 1.921771177146507e+01
 1.252913773224046e+00	 1.723016385666049e-01	 1.918109374573949e+01
 1.251354515916720e+00	 1.832830003551986e-01	 1.914134867373646e+01
 1.249694048834886e+00	 1.942822198586347e-01	 1.909812328508022e+01
 1.247931704324034e+00	 2.052980289624415e-01	 1.905102146830313e+01
 1.246066833400622e+00	 2.163291405410434e-01	 1.899960402019548e+01
 1.268974993036293e+00	 1.076025072084343e-01	 1.916259337334863e+01
 1.268001251863421e+00	 1.185268725592640e-01	 1.913920907757006e+01
 1.266929992239393e+00	 1.294764661167815e-01	 1.911395421929754e+01
 1.265760440792328e+00	 1.404501308247396e-01	 1.908668313771291e+01
 1.264491839590562e+00	 1.514466891261245e-01	 1.905720945689487e+01
 1.263123446704203e+00	 1.624649431477207e-01	 1.902530506082534e+01
 1.261654536766819e+00	 1.735036749011069e-01	 1.899069916614724e+01
 1.260084401536747e+00	 1.845616465002523e-01	 1.895307750802849e+01
 1.258412350457498e+00	 1.956376003958709e-01	 1.891208165547914e+01
 1.256637711216769e+00	 2.067302596266734e-01	 1.886730847343762e+01
 1.254759830303468e+00	 2.178383280876382e-01	 1.881830974988525e+01
 1.277766472820747e+00	 1.083479791612502e-01	 1.896748181332149e+01
 1.276785985552708e+00	 1.193480286963663e-01	 1.894550345143215e+01
 1.275707304224143e+00	 1.303734812196127e-01	 1.892175723917382e+01
 1.274529650105232e+00	 1.414231716586314e-01	 1.889610118724820e+01
 1.273252260013340e+00	 1.524959142982677e-01	 1.886835144518282e+01
 1.271874386878465e+00	 1.635905029664143e-01	 1.883828116619744e+01
 1.270395300308816e+00	 1.747057112363996e-01	 1.880561946526532e+01
 1.268814287156011e+00	 1.858402926460913e-01	 1.877005048617474e+01
 1.267130652079369e+00	 1.969929809338748e-01	 1.873121259445121e+01
 1.265343718108786e+00	 2.081624902916448e-01	 1.868869771403532e+01
 1.263452827205628e+00	 2.193475156349365e-01	 1.864205082662086e+01
 1.286557952604549e+00	 1.090934511144762e-01	 1.877756715938429e+01
 1.285570719241357e+00	 1.201691848339639e-01	 1.875695919046555e+01
 1.284484616208268e+00	 1.312704963230037e-01	 1.873467711393779e+01
 1.283298859417521e+00	 1.423962124931286e-01	 1.871058390667831e+01
 1.282012680435511e+00	 1.535451394710451e-01	 1.868449968593316e+01
 1.280625327052128e+00	 1.647160627857561e-01	 1.865620046105384e+01
 1.279136063850222e+00	 1.759077475723417e-01	 1.862541697331248e+01
 1.277544172774695e+00	 1.871189387925704e-01	 1.859183364005270e+01
 1.275848953700673e+00	 1.983483614725007e-01	 1.855508762055332e+01
 1.274049725000251e+00	 2.095947209572144e-01	 1.851476802208680e+01
 1.272145824107253e+00	 2.208567031828042e-01	 1.847041526573086e+01
 1.295349432387875e+00	 1.098389230680726e-01	 1.859244227300434e+01
 1.294355452929551e+00	 1.209903409719913e-01	 1.857316299001514e+01
 1.293261928191953e+00	 1.321675114268666e-01	 1.855229583830834e+01
 1.292068068729384e+00	 1.433692533281246e-01	 1.852971008651456e+01
 1.290773100857267e+00	 1.545943646443348e-01	 1.850523129537392e+01
 1.289376267225383e+00	 1.658416226056126e-01	 1.847863995322914e+01
 1.287876827391227e+00	 1.771097839087920e-01	 1.844967019390400e+01
 1.286274058392983e+00	 1.883975849395443e-01	 1.841800861367554e+01
 1.284567255321584e+00	 1.997037420116034e-01	 1.838329320523915e+01
 1.282755731891327e+00	 2.110269516232397e-01	 1.834511242774138e+01
 1.280838821008495e+00	 2.223658907311072e-01	 1.830300443310161e+01
 1.304140912170899e+00	 1.105843950219999e-01	 1.841171678491635e+01
 1.303140186617469e+00	 1.218114971103832e-01	 1.839371836681658e+01
 1.302039240175386e+00	 1.330645265311138e-01	 1.837421217244507e+01
 1.300837278041010e+00	 1.443422941635125e-01	 1.835307512016803e+01
 1.299533521278798e+00	 1.556435898180148e-01	 1.833013972515456e+01
 1.298127207398422e+00	 1.669671824258504e-01	 1.830519261538738e+01
 1.296617590932019e+00	 1.783118202456092e-01	 1.827797312377085e+01
 1.295003944011058e+00	 1.896762310868675e-01	 1.824817197349582e+01
 1.293285556942278e+00	 2.010591225510373e-01	 1.821543007508658e+01
 1.291461738782179e+00	 2.124591822895795e-01	 1.817933745480322e+01
 1.289531817909503e+00	 2.238750782797112e-01	 1.813943233529568e+01
 1.312932391953795e+00	 1.113298669762187e-01	 1.823501652128659e+01
 1.311924920305294e+00	 1.226326532490740e-01	 1.821824506817590e+01
 1.310816552158751e+00	 1.339615416356570e-01	 1.820004103536058e+01
 1.309606487352589e+00	 1.453153349991858e-01	 1.818029038281832e+01
 1.308293941700296e+00	 1.566928149919633e-01	 1.815883412790064e+01
 1.306878147571434e+00	 1.680927422463360e-01	 1.813546673849838e+01
 1.305358354472785e+00	 1.795138565826521e-01	 1.810993459540067e+01
 1.303733829629101e+00	 1.909548772343950e-01	 1.808193454146114e+01
 1.302003858562929e+00	 2.024145030906567e-01	 1.805111253652478e+01
 1.300167745672973e+00	 2.138914129560916e-01	 1.801706243839552e+01
 1.298224814810431e+00	 2.253842658284821e-01	 1.797932493142507e+01
 1.321723871736737e+00	 1.120753389306894e-01	 1.806198295103401e+01
 1.320709653993206e+00	 1.234538093879985e-01	 1.804637850262343e+01
 1.319593864142237e+00	 1.348585567404087e-01	 1.802941292004419e+01
 1.318375696664313e+00	 1.462883758350378e-01	 1.801098263214891e+01
 1.317054362121952e+00	 1.577420401660584e-01	 1.799093874471054e+01
 1.315629087744610e+00	 1.692183020669360e-01	 1.796908530725219e+01
 1.314099118013713e+00	 1.807158929197792e-01	 1.794517764153361e+01
 1.312463715247296e+00	 1.922335233819813e-01	 1.791892074976229e+01
 1.310722160183713e+00	 2.037698836303163e-01	 1.788996782201450e+01
 1.308873752563872e+00	 2.153236436226345e-01	 1.785791886376011e+01
 1.306917811711429e+00	 2.268934533772858e-01	 1.782231946576614e+01
 1.330515351519901e+00	 1.128208108853725e-01	 1.789227265333012e+01
 1.329494387681388e+00	 1.242749655270910e-01	 1.787776919104920e+01
 1.328371176126029e+00	 1.357555718452810e-01	 1.786197332929184e+01
 1.327144905976369e+00	 1.472614166709617e-01	 1.784479342993812e+01
 1.325814782543958e+00	 1.587912653401782e-01	 1.782609231357979e+01
 1.324380027918142e+00	 1.703438618875169e-01	 1.780568539639708e+01
 1.322839881554991e+00	 1.819179292568495e-01	 1.778333888050216e+01
 1.321193600865825e+00	 1.935121695294811e-01	 1.775876801627154e+01
 1.319440461804804e+00	 2.051252641698705e-01	 1.773163545668946e+01
 1.317579759455040e+00	 2.167558742890663e-01	 1.770154972521561e+01
 1.315610808612648e+00	 2.284026409259881e-01	 1.766806382015780e+01
 1.339306831303461e+00	 1.135662828402284e-01	 1.772555680435005e+01
 1.338279121370020e+00	 1.250961216662862e-01	 1.771208223737835e+01
 1.337148488110314e+00	 1.366525869501860e-01	 1.769738223129161e+01
 1.335914115288949e+00	 1.482344575068510e-01	 1.768137858354682e+01
 1.334575202966505e+00	 1.598404905142007e-01	 1.766394749779125e+01
 1.333130968092220e+00	 1.714694217079452e-01	 1.764491758704011e+01
 1.331580645096808e+00	 1.831199655937215e-01	 1.762406792145774e+01
 1.329923486484871e+00	 1.947908156767491e-01	 1.760112613972006e+01
 1.328158763426378e+00	 2.064806447091739e-01	 1.757576664451863e+01
 1.326285766346644e+00	 2.181881049552449e-01	 1.754760890434828e+01
 1.324303805514240e+00	 2.299118284744549e-01	 1.751621588527402e+01
 1.348098311087590e+00	 1.143117547952177e-01	 1.756152068239664e+01
 1.347063855059284e+00	 1.259172778055186e-01	 1.754899681789496e+01
 1.345925800095279e+00	 1.375496020550358e-01	 1.753531353406261e+01
 1.344683324602242e+00	 1.492074983425989e-01	 1.752040760639537e+01
 1.343335623389784e+00	 1.608897156880040e-01	 1.750417033336019e+01
 1.341881908267035e+00	 1.725949815280876e-01	 1.748644540199838e+01
 1.340321408639350e+00	 1.843220019302541e-01	 1.746702678857630e+01
 1.338653372104616e+00	 1.960694618236400e-01	 1.744565671371419e+01
 1.336877065048610e+00	 2.078360252480808e-01	 1.742202367309936e+01
 1.334991773238847e+00	 2.196203356210290e-01	 1.739576056655818e+01
 1.332996802416356e+00	 2.314210160225521e-01	 1.736644294990981e+01
 1.246066833400622e+00	 2.163291405410434e-01	 1.899960402019548e+01
 1.244099149474685e+00	 2.273723706542418e-01	 1.894594640554594e+01
 1.242027733812302e+00	 2.384282719850735e-01	 1.889213444312512e+01
 1.239851996070890e+00	 2.494955058442114e-01	 1.883770832997700e+01
 1.237571366730709e+00	 2.605727158386419e-01	 1.878216717567605e+01
 1.235185297629098e+00	 2.716585282229791e-01	 1.872496978639555e+01
 1.232693262489390e+00	 2.827515522679369e-01	 1.866553573304395e+01
 1.230094757443897e+00	 2.938503806459467e-01	 1.860324672566981e+01
 1.227389301550388e+00	 3.049535898338829e-01	 1.853744831665232e+01
 1.224576437301453e+00	 3.160597405328378e-01	 1.846745195539384e+01
 1.221655731126142e+00	 3.271673781048639e-01	 1.839253741730496e+01
 1.254759830303468e+00	 2.178383280876382e-01	 1.881830974988525e+01
 1.252778419128273e+00	 2.289585996262831e-01	 1.876716582072991e+01
 1.250692552547848e+00	 2.400916307813596e-01	 1.871596893643428e+01
 1.248501636101170e+00	 2.512360735243844e-01	 1.866424777579709e+01
 1.246205096295324e+00	 2.623905619996813e-01	 1.861148711175434e+01
 1.243802381143473e+00	 2.735537128781450e-01	 1.855712846261404e+01
 1.241292960697452e+00	 2.847241257282849e-01	 1.850057103077445e+01
 1.238676327574413e+00	 2.959003834045325e-01	 1.844117295220357e+01
 1.235951997476899e+00	 3.070810524527766e-01	 1.837825288032523e+01
 1.233119509705762e+00	 3.182646835330661e-01	 1.831109192820637e+01
 1.230178427665308e+00	 3.294498118594008e-01	 1.823893599305450e+01
 1.263452827205628e+00	 2.193475156349365e-01	 1.864205082662086e+01
 1.261457688781213e+00	 2.305448285989857e-01	 1.859335498849238e+01
 1.259357371282790e+00	 2.417549895782588e-01	 1.854470412365793e+01
 1.257151276130895e+00	 2.529766412051173e-01	 1.849561388899503e+01
 1.254838825859441e+00	 2.642084081612222e-01	 1.844555332979163e+01
 1.252419464657410e+00	 2.754488975337499e-01	 1.839394539586857e+01
 1.249892658905143e+00	 2.866966991890051e-01	 1.834016774829184e+01
 1.247257897704627e+00	 2.979503861634202e-01	 1.828355388105406e+01
 1.244514693403182e+00	 3.092085150718983e-01	 1.822339458252640e+01
 1.241662582109921e+00	 3.204696265334467e-01	 1.815893976178196e+01
 1.238701124204402e+00	 3.317322456140109e-01	 1.808940066505349e+01
 1.272145824107253e+00	 2.208567031828042e-01	 1.847041526573086e+01
 1.270136958433639e+00	 2.321310575722266e-01	 1.842411364864803e+01
 1.268022190017244e+00	 2.434183483756634e-01	 1.837795474316401e+01
 1.265800916160163e+00	 2.547172088863202e-01	 1.833143981241543e+01
 1.263472555423135e+00	 2.660262543231952e-01	 1.828402091519389e+01
 1.261036548170961e+00	 2.773440821897458e-01	 1.823510128432459e+01
 1.258492357112488e+00	 2.886692726500726e-01	 1.818403599841705e+01
 1.255839467834543e+00	 3.000003889226081e-01	 1.813013297249359e+01
 1.253077389329214e+00	 3.113359776912703e-01	 1.807265429348143e+01
 1.250205654513883e+00	 3.226745695340228e-01	 1.801081792690611e+01
 1.247223820743357e+00	 3.340146793687591e-01	 1.794379982133705e+01
 1.280838821008495e+00	 2.223658907311072e-01	 1.830300443310161e+01
 1.278816228085687e+00	 2.337172865458834e-01	 1.825905393698957e+01
 1.276687008751327e+00	 2.450817071734658e-01	 1.821534685191449e+01
 1.274450556189068e+00	 2.564577765679031e-01	 1.817136880806291e+01
 1.272106284986476e+00	 2.678441004855303e-01	 1.812655375194118e+01
 1.269653631684175e+00	 2.792392668460848e-01	 1.808028418402235e+01
 1.267092055319515e+00	 2.906418461114625e-01	 1.803189169220706e+01
 1.264421037964160e+00	 3.020503916820947e-01	 1.798065780775742e+01
 1.261640085254977e+00	 3.134634403109134e-01	 1.792581521090231e+01
 1.258748726917606e+00	 3.248795125348388e-01	 1.786654931372225e+01
 1.255746517282108e+00	 3.362971131237101e-01	 1.780200024818461e+01
 1.289531817909503e+00	 2.238750782797112e-01	 1.813943233529568e+01
 1.287495497737492e+00	 2.353035155198335e-01	 1.809779967196457e+01
 1.285351827485155e+00	 2.467450659715584e-01	 1.805651711127005e+01
 1.283100196217707e+00	 2.581983442497764e-01	 1.801505354469007e+01
 1.280740014549541e+00	 2.696619466481580e-01	 1.797282381470015e+01
 1.278270715197102e+00	 2.811344515027192e-01	 1.792918880833977e+01
 1.275691753526249e+00	 2.926144195731493e-01	 1.788345584867892e+01
 1.273002608093484e+00	 3.041003944418779e-01	 1.783487941202353e+01
 1.270202781180447e+00	 3.155909029308493e-01	 1.778266219930187e+01
 1.267291799321045e+00	 3.270844555359385e-01	 1.772595659054195e+01
 1.264269213820593e+00	 3.385795468789295e-01	 1.766386651166838e+01
 1.298224814810431e+00	 2.253842658284821e-01	 1.797932493142507e+01
 1.296174767389189e+00	 2.368897444939545e-01	 1.793998566259110e+01
 1.294016646218845e+00	 2.484084247698334e-01	 1.790111209339130e+01
 1.291749836246175e+00	 2.599389119318503e-01	 1.786215540521065e+01
 1.289373744112402e+00	 2.714797928110083e-01	 1.782251047985861e+01
 1.286887798709794e+00	 2.830296361596007e-01	 1.778151584534141e+01
 1.284291451732717e+00	 2.945869930351080e-01	 1.773845392124849e+01
 1.281584178222514e+00	 3.061503972019562e-01	 1.769255159279927e+01
 1.278765477105603e+00	 3.177183655510993e-01	 1.764298114326697e+01
 1.275834871724156e+00	 3.292893985373658e-01	 1.758886157502505e+01
 1.272791910358743e+00	 3.408619806344818e-01	 1.752926034984086e+01
 1.306917811711429e+00	 2.268934533772858e-01	 1.782231946576614e+01
 1.304854037040913e+00	 2.384759734681233e-01	 1.778525703662373e+01
 1.302681464952513e+00	 2.500717835681833e-01	 1.774878760727770e+01
 1.300399476274568e+00	 2.616794796140349e-01	 1.771234381301520e+01
 1.298007473675132e+00	 2.732976389740117e-01	 1.767529985460253e+01
 1.295504882222299e+00	 2.849248208166815e-01	 1.763697129218210e+01
 1.292891149938944e+00	 2.965595664973139e-01	 1.759661514010702e+01
 1.290165748351254e+00	 3.082003999623277e-01	 1.755343029299758e+01
 1.287328173030424e+00	 3.198458281716852e-01	 1.750655831404124e+01
 1.284377944126897e+00	 3.314943415391647e-01	 1.745508461715518e+01
 1.281314606896496e+00	 3.431444143904320e-01	 1.739804007506717e+01
 1.315610808612648e+00	 2.284026409259881e-01	 1.766806382015779e+01
 1.313533306692800e+00	 2.400622024422176e-01	 1.763326858803415e+01
 1.311346283686275e+00	 2.517351423665004e-01	 1.759920804353775e+01
 1.309049116302981e+00	 2.634200472962404e-01	 1.756529557631573e+01
 1.306641203237805e+00	 2.751154851370984e-01	 1.753088412320060e+01
 1.304121965734667e+00	 2.868200054739138e-01	 1.749526580577604e+01
 1.301490848144957e+00	 2.985321399597414e-01	 1.745767186979865e+01
 1.298747318479706e+00	 3.102504027229908e-01	 1.741727295802445e+01
 1.295890868954890e+00	 3.219732907926282e-01	 1.737317974880314e+01
 1.292921016529221e+00	 3.336992845413789e-01	 1.732444399346555e+01
 1.289837303433786e+00	 3.454268481468455e-01	 1.727005998603375e+01
 1.324303805514240e+00	 2.299118284744549e-01	 1.751621588527401e+01
 1.322212576344983e+00	 2.416484314161148e-01	 1.748368414291918e+01
 1.320011102420249e+00	 2.533985011646773e-01	 1.745204573702825e+01
 1.317698756331511e+00	 2.651606149783770e-01	 1.742069424969137e+01
 1.315274932800494e+00	 2.769333313001989e-01	 1.738896090970718e+01
 1.312739049246950e+00	 2.887151901312495e-01	 1.735611406898600e+01
 1.310090546350782e+00	 3.005047134223657e-01	 1.732135898130108e+01
 1.307328888607871e+00	 3.123004054839436e-01	 1.728383791623478e+01
 1.304453564878978e+00	 3.241007534139495e-01	 1.724263064205586e+01
 1.301464088931087e+00	 3.359042275440524e-01	 1.719675531199903e+01
 1.298359999970548e+00	 3.477092819037867e-01	 1.714516978898932e+01
 1.332996802416356e+00	 2.314210160225521e-01	 1.736644294990981e+01
 1.330891845997599e+00	 2.432346603896922e-01	 1.733617594299528e+01
 1.328675921154549e+00	 2.550618599626060e-01	 1.730698034654965e+01
 1.326348396360253e+00	 2.669011826603550e-01	 1.727822951205047e+01
 1.323908662363273e+00	 2.787511774632431e-01	 1.724923265633453e+01
 1.321356132759197e+00	 2.906103747886408e-01	 1.721923417162360e+01
 1.318690244556446e+00	 3.024772868851618e-01	 1.718741323794852e+01
 1.315910458735754e+00	 3.143504082451844e-01	 1.715288377214674e+01
 1.313016260802667e+00	 3.262282160356711e-01	 1.711469474857794e+01
 1.310007161332449e+00	 3.381091705472291e-01	 1.707183092751350e+01
 1.306882696506716e+00	 3.499917156613212e-01	 1.702321402779798e+01
 1.221655731126142e+00	 3.271673781048639e-01	 1.839253741730496e+01
 1.218626774149205e+00	 3.382750331816800e-01	 1.831436026989681e+01
 1.215489183475108e+00	 3.493812226144739e-01	 1.823437445103373e+01
 1.212242601867819e+00	 3.604844495203512e-01	 1.815153302650005e+01
 1.208886697948648e+00	 3.715832036341537e-01	 1.806481021253379e+01
 1.205421166648673e+00	 3.826759618280010e-01	 1.797544052114560e+01
 1.201845729649776e+00	 3.937611886467735e-01	 1.788454378717416e+01
 1.198160135813678e+00	 4.048373368592888e-01	 1.779197059139503e+01
 1.194364161598396e+00	 4.159028480248947e-01	 1.769760053146363e+01
 1.190457611461505e+00	 4.269561530751902e-01	 1.760134274110994e+01
 1.186440318249641e+00	 4.379956729105452e-01	 1.750313620280388e+01
 1.230178427665308e+00	 3.294498118594008e-01	 1.823893599305450e+01
 1.227128339627824e+00	 3.406349578126802e-01	 1.816364261176942e+01
 1.223968860026572e+00	 3.518186278971284e-01	 1.808685891641687e+01
 1.220699629133324e+00	 3.629993147870726e-01	 1.800748664426976e+01
 1.217320313257583e+00	 3.741754976812158e-01	 1.792460744577383e+01
 1.213830605202171e+00	 3.853456428258042e-01	 1.783968361033558e+01
 1.210230224707332e+00	 3.965082040538466e-01	 1.775314841941060e+01
 1.206518918882770e+00	 4.076616233401334e-01	 1.766483334551086e+01
 1.202696462627001e+00	 4.188043313717861e-01	 1.757460059334426e+01
 1.198762659033439e+00	 4.299347481340324e-01	 1.748234371974963e+01
 1.194717339782609e+00	 4.410512835108906e-01	 1.738798803854074e+01
 1.238701124204402e+00	 3.317322456140109e-01	 1.808940066505349e+01
 1.235629905106451e+00	 3.429948824436725e-01	 1.801685320792063e+01
 1.232448536578126e+00	 3.542560331796937e-01	 1.794315754959458e+01
 1.229156656398998e+00	 3.655141800536230e-01	 1.786716830463105e+01
 1.225753928566769e+00	 3.767677917280263e-01	 1.778818340180910e+01
 1.222240043755998e+00	 3.880153238232781e-01	 1.770750945134209e+01
 1.218614719765293e+00	 3.992552194605155e-01	 1.762516467381569e+01
 1.214877701952336e+00	 4.104859098205040e-01	 1.754096383253217e+01
 1.211028763656146e+00	 4.217058147181386e-01	 1.745475393266190e+01
 1.207067706605971e+00	 4.329133431922778e-01	 1.736641493984838e+01
 1.202994361316223e+00	 4.441068941105893e-01	 1.727586027512103e+01
 1.247223820743357e+00	 3.340146793687591e-01	 1.794379982133705e+01
 1.244131470585002e+00	 3.453548070747416e-01	 1.787390634814301e+01
 1.240928213129666e+00	 3.566934384622711e-01	 1.780322610847840e+01
 1.237613683664728e+00	 3.680290453201193e-01	 1.773057079659243e+01
 1.234187543876076e+00	 3.793600857747162e-01	 1.765549313183925e+01
 1.230649482310011e+00	 3.906850048205653e-01	 1.757889185582497e+01
 1.226999214823504e+00	 4.020022348669338e-01	 1.750058035743159e+01
 1.223236485022214e+00	 4.133101963005631e-01	 1.742035897710801e+01
 1.219361064685659e+00	 4.246072980641230e-01	 1.733806160568235e+01
 1.215372754178922e+00	 4.358919382501040e-01	 1.725355649989071e+01
 1.211271382850301e+00	 4.471625047098242e-01	 1.716674686556481e+01
 1.255746517282108e+00	 3.362971131237101e-01	 1.780200024818460e+01
 1.252633036063392e+00	 3.477147317059714e-01	 1.773471270911461e+01
 1.249407889681094e+00	 3.591308437449620e-01	 1.766701486135882e+01
 1.246070710930393e+00	 3.705439105866788e-01	 1.759767981280050e+01
 1.242621159185372e+00	 3.819523798214166e-01	 1.752648070306880e+01
 1.239058920864069e+00	 3.933546858178091e-01	 1.745379287310583e+01
 1.235383709881812e+00	 4.047492502732552e-01	 1.737937088455776e+01
 1.231595268092240e+00	 4.161344827804735e-01	 1.730300282908226e+01
 1.227693365715369e+00	 4.275087814099098e-01	 1.722451146050174e+01
 1.223677801752115e+00	 4.388705333076881e-01	 1.714375510583620e+01
 1.219548404384659e+00	 4.502181153087785e-01	 1.706062833529084e+01
 1.264269213820593e+00	 3.385795468789295e-01	 1.766386651166838e+01
 1.261134601541538e+00	 3.500746563374462e-01	 1.759917875793200e+01
 1.257887566232307e+00	 3.615682490278681e-01	 1.753446800759577e+01
 1.254527738195880e+00	 3.730587758534182e-01	 1.746850496272268e+01
 1.251054774494528e+00	 3.845446738682577e-01	 1.740107925193411e+01
 1.247468359418027e+00	 3.960243668151525e-01	 1.733216287355262e+01
 1.243768204940064e+00	 4.074962656796332e-01	 1.726149938519605e+01
 1.239954051162253e+00	 4.189587692603978e-01	 1.718886669181654e+01
 1.236025666745107e+00	 4.304102647556698e-01	 1.711407827998156e+01
 1.231982849325372e+00	 4.418491283652077e-01	 1.703698422332081e+01
 1.227825425919116e+00	 4.532737259076350e-01	 1.695747193816223e+01
 1.272791910358743e+00	 3.408619806344818e-01	 1.752926034984086e+01
 1.269636167019354e+00	 3.524345809692498e-01	 1.746720616457141e+01
 1.266367242783203e+00	 3.640056543110907e-01	 1.740552310571046e+01
 1.262984765461068e+00	 3.755736411204544e-01	 1.734299334446955e+01
 1.259488389803411e+00	 3.871369679153703e-01	 1.727921104225850e+01
 1.255877797971742e+00	 3.986940478127378e-01	 1.721394063593813e+01
 1.252152699998105e+00	 4.102432810862211e-01	 1.714691681671290e+01
 1.248312834232089e+00	 4.217830557404990e-01	 1.707790925317255e+01
 1.244357967774700e+00	 4.333117481015735e-01	 1.700672392698595e+01
 1.240287896898517e+00	 4.448277234228399e-01	 1.693320423200751e+01
 1.236102447453487e+00	 4.563293365065765e-01	 1.685723181473473e+01
 1.281314606896496e+00	 3.431444143904320e-01	 1.739804007506717e+01
 1.278137732496757e+00	 3.547945056014667e-01	 1.733869122286233e+01
 1.274846919333681e+00	 3.664430595947313e-01	 1.728011050853425e+01
 1.271441792725843e+00	 3.780885063879045e-01	 1.722103650027489e+01
 1.267922005111894e+00	 3.897292619628857e-01	 1.716078752810617e+01
 1.264287236525072e+00	 4.013637288107079e-01	 1.709905343858825e+01
 1.260537195055783e+00	 4.129902964931727e-01	 1.703556207856988e+01
 1.256671617301585e+00	 4.246073422209395e-01	 1.697007671903001e+01
 1.252690268803980e+00	 4.362132314477918e-01	 1.690239749181502e+01
 1.248592944471371e+00	 4.478063184807623e-01	 1.683236258198659e+01
 1.244379468987590e+00	 4.593849471057861e-01	 1.675984915260546e+01
 1.289837303433786e+00	 3.454268481468455e-01	 1.727005998603375e+01
 1.286639297973662e+00	 3.571544302341815e-01	 1.721352427958150e+01
 1.283326595883640e+00	 3.688804648788916e-01	 1.715815280508977e+01
 1.279898819990088e+00	 3.806033716558857e-01	 1.710251602179362e+01
 1.276355620419842e+00	 3.923215560109339e-01	 1.704570942111808e+01
 1.272696675077875e+00	 4.040334098092062e-01	 1.698741715414556e+01
 1.268921690112943e+00	 4.157373119006413e-01	 1.692736212998032e+01
 1.265030400370579e+00	 4.274316287018824e-01	 1.686530294922377e+01
 1.261022569832773e+00	 4.391147147944949e-01	 1.680103544173243e+01
 1.256897992043759e+00	 4.507849135391521e-01	 1.673439395213225e+01
 1.252656490521242e+00	 4.624405577054467e-01	 1.666525234876544e+01
 1.298359999970548e+00	 3.477092819037867e-01	 1.714516978898932e+01
 1.295140863449987e+00	 3.595143548674776e-01	 1.709158917129421e+01
 1.291806272432977e+00	 3.713178701636730e-01	 1.703956098151217e+01
 1.288355847253684e+00	 3.831182369245146e-01	 1.698730359083049e+01
 1.284789235727127e+00	 3.949138500596459e-01	 1.693386676212466e+01
 1.281106113630006e+00	 4.067030908083754e-01	 1.687893634778178e+01
 1.277306185169434e+00	 4.184843273087805e-01	 1.682223211035889e+01
 1.273389183438908e+00	 4.302559151834902e-01	 1.676350959578923e+01
 1.269354870860911e+00	 4.420161981418542e-01	 1.670256177249264e+01
 1.265203039615501e+00	 4.537635085981866e-01	 1.663922041032500e+01
 1.260933512054261e+00	 4.654961683057414e-01	 1.657335717386503e+01
 1.306882696506716e+00	 3.499917156613212e-01	 1.702321402779798e+01
 1.303642428925645e+00	 3.618742795014395e-01	 1.697276266859086e+01
 1.300285948981592e+00	 3.737552754491766e-01	 1.692418589336188e+01
 1.296812874516516e+00	 3.856331021939083e-01	 1.687526102510086e+01
 1.293222851033617e+00	 3.975061441091527e-01	 1.682513899684025e+01
 1.289515552181324e+00	 4.093727718083583e-01	 1.677350437870350e+01
 1.285690680225100e+00	 4.212313427177439e-01	 1.672007546243661e+01
 1.281747966506409e+00	 4.330802016659257e-01	 1.666460624341165e+01
 1.277687171888223e+00	 4.449176814900397e-01	 1.660688816177563e+01
 1.273508087186421e+00	 4.567421036580434e-01	 1.654675157545605e+01
 1.269210533586462e+00	 4.685517789068530e-01	 1.648406693830424e+01
 1.186440318249641e+00	 4.379956729105452e-01	 1.750313620280388e+01
 1.182311432174493e+00	 4.490216917444495e-01	 1.740217516577466e+01
 1.178071516811096e+00	 4.600307329592652e-01	 1.729778356919732e+01
 1.173720491529515e+00	 4.710211897176092e-01	 1.719010062699069e+01
 1.169258305519455e+00	 4.819914476518518e-01	 1.707931016643075e+01
 1.164684938103474e+00	 4.929398855297004e-01	 1.696563977447012e+01
 1.160000399033113e+00	 5.038648759321990e-01	 1.684935963876420e+01
 1.155204728767399e+00	 5.147647859436427e-01	 1.673078107409218e+01
 1.150297998733234e+00	 5.256379778529094e-01	 1.661025472643718e+01
 1.145280311567176e+00	 5.364828098656644e-01	 1.648816844868808e+01
 1.140151801338169e+00	 5.472976368268900e-01	 1.636494484373916e+01
 1.194717339782609e+00	 4.410512835108906e-01	 1.738798803854074e+01
 1.190559649157784e+00	 4.521542236986208e-01	 1.729085397680536e+01
 1.186290154665692e+00	 4.632400678254837e-01	 1.719040799836240e+01
 1.181908775113894e+00	 4.743071978442341e-01	 1.708680349248091e+01
 1.177415459337614e+00	 4.853539881248453e-01	 1.698023833908294e+01
 1.172810186515153e+00	 4.963788061247397e-01	 1.687095402866906e+01
 1.168092966466078e+00	 5.073800130715131e-01	 1.675923446542797e+01
 1.163263839931666e+00	 5.183559646576676e-01	 1.664540444364979e+01
 1.158322878837110e+00	 5.293050117468320e-01	 1.652982778919811e+01
 1.153270186534992e+00	 5.402255010909370e-01	 1.641290515955826e+01
 1.148105898029562e+00	 5.511157760577856e-01	 1.629507149786635e+01
 1.202994361316223e+00	 4.441068941105893e-01	 1.727586027512103e+01
 1.198807866141762e+00	 4.552867556521041e-01	 1.718251493514969e+01
 1.194508792521010e+00	 4.664494026909810e-01	 1.708596286108692e+01
 1.190097058699019e+00	 4.775932059701119e-01	 1.698636808487325e+01
 1.185572613156540e+00	 4.887165285970725e-01	 1.688393904599445e+01
 1.180935434927616e+00	 4.998177267189982e-01	 1.677892769197829e+01
 1.176185533899837e+00	 5.108951502100374e-01	 1.667162825017157e+01
 1.171322951096734e+00	 5.219471433708966e-01	 1.656237566031129e+01
 1.166347758941792e+00	 5.329720456399558e-01	 1.645154365909872e+01
 1.161260061503619e+00	 5.439681923154100e-01	 1.633954250981834e+01
 1.156059994721770e+00	 5.549339152878812e-01	 1.622681637199954e+01
 1.211271382850301e+00	 4.471625047098242e-01	 1.716674686556480e+01
 1.207056083126241e+00	 4.584192876050872e-01	 1.707714349406733e+01
 1.202727430376858e+00	 4.696587375559486e-01	 1.698442567247784e+01
 1.198285342284700e+00	 4.808792140954367e-01	 1.688876456974755e+01
 1.193729766976039e+00	 4.920790690687295e-01	 1.679037572161348e+01
 1.189060683340665e+00	 5.032566473126742e-01	 1.668951811876921e+01
 1.184278101334194e+00	 5.144102873479705e-01	 1.658649295401705e+01
 1.179382062262408e+00	 5.255383220835296e-01	 1.648164201727119e+01
 1.174372639047090e+00	 5.366390795324807e-01	 1.637534572903906e+01
 1.169249936472870e+00	 5.477108835392831e-01	 1.626802080491026e+01
 1.164014091414612e+00	 5.587520545173768e-01	 1.616011754561503e+01
 1.219548404384659e+00	 4.502181153087785e-01	 1.706062833529084e+01
 1.215304300111032e+00	 4.615518195577570e-01	 1.697471171417608e+01
 1.210946068233046e+00	 4.728680724205773e-01	 1.688576057869935e+01
 1.206473625870739e+00	 4.841652222204024e-01	 1.679394975340750e+01
 1.201886920795915e+00	 4.954416095400124e-01	 1.669949843404041e+01
 1.197185931754106e+00	 5.066955679059651e-01	 1.660266927062215e+01
 1.192370668768954e+00	 5.179254244855110e-01	 1.650376709682605e+01
 1.187441173428497e+00	 5.291295007957657e-01	 1.640313729379893e+01
 1.182397519152813e+00	 5.403061134246067e-01	 1.630116377845303e+01
 1.177239811442557e+00	 5.514535747627561e-01	 1.619826660820710e+01
 1.171968188107903e+00	 5.625701937464722e-01	 1.609489919626937e+01
 1.227825425919116e+00	 4.532737259076350e-01	 1.695747193816223e+01
 1.223552517095950e+00	 4.646843515103017e-01	 1.687517842052745e+01
 1.219164706089381e+00	 4.760774072850587e-01	 1.678991851494282e+01
 1.214661909456945e+00	 4.874512303452038e-01	 1.670186724164344e+01
 1.210044074615973e+00	 4.988041500111174e-01	 1.661124404451826e+01
 1.205311180167741e+00	 5.101344884990687e-01	 1.651831187651721e+01
 1.200463236203922e+00	 5.214405616228586e-01	 1.642337591820241e+01
 1.195500284594805e+00	 5.327206795078044e-01	 1.632678191690309e+01
 1.190422399258768e+00	 5.439731473165332e-01	 1.622891413582573e+01
 1.185229686412492e+00	 5.551962659860294e-01	 1.613019290451638e+01
 1.179922284801460e+00	 5.663883329753678e-01	 1.603107176426420e+01
 1.236102447453487e+00	 4.563293365065765e-01	 1.685723181473473e+01
 1.231800734080805e+00	 4.678168834629083e-01	 1.677848936203861e+01
 1.227383343945674e+00	 4.792867421495839e-01	 1.669683736589766e+01
 1.222850193043124e+00	 4.907372384700341e-01	 1.661244760113161e+01
 1.218201228436018e+00	 5.021666904822411e-01	 1.652553636968328e+01
 1.213436428581376e+00	 5.135734090921832e-01	 1.643636359589390e+01
 1.208555803638901e+00	 5.249556987602113e-01	 1.634523154135475e+01
 1.203559395761140e+00	 5.363118582198457e-01	 1.625248312602865e+01
 1.198447279364764e+00	 5.476401812084607e-01	 1.615849984429524e+01
 1.193219561382486e+00	 5.589389572093026e-01	 1.606369926669585e+01
 1.187876381495098e+00	 5.702064722042632e-01	 1.596853212042694e+01
 1.244379468987590e+00	 4.593849471057861e-01	 1.675984915260546e+01
 1.240048951065411e+00	 4.709494154157650e-01	 1.668457737317093e+01
 1.235601981801731e+00	 4.824960770143439e-01	 1.660644212860819e+01
 1.231038476629083e+00	 4.940232465950880e-01	 1.652560852334789e+01
 1.226358382255854e+00	 5.055292309535793e-01	 1.644228634644672e+01
 1.221561676994814e+00	 5.170123296855063e-01	 1.635672918444522e+01
 1.216648371073698e+00	 5.284708358977686e-01	 1.626923313978149e+01
 1.211618506927306e+00	 5.399030369320887e-01	 1.618013514064625e+01
 1.206472159470610e+00	 5.513072151005886e-01	 1.608981083019626e+01
 1.201209436352352e+00	 5.626816484327760e-01	 1.599867202523879e+01
 1.195830478188635e+00	 5.740246114333587e-01	 1.590716373686346e+01
 1.252656490521242e+00	 4.624405577054467e-01	 1.666525234876544e+01
 1.248297168049579e+00	 4.740819473690587e-01	 1.659336253775213e+01
 1.243820619657364e+00	 4.857054118795300e-01	 1.651864507760624e+01
 1.239226760214626e+00	 4.973092547205594e-01	 1.644125499088064e+01
 1.234515536075286e+00	 5.088917714253288e-01	 1.636139219938789e+01
 1.229686925407861e+00	 5.204512502792356e-01	 1.627930066252181e+01
 1.224740938508116e+00	 5.319859730357289e-01	 1.619526710664848e+01
 1.219677618093109e+00	 5.434942156447331e-01	 1.610961933060052e+01
 1.214497039576115e+00	 5.549742489931168e-01	 1.602272407440930e+01
 1.209199311321902e+00	 5.664243396566493e-01	 1.593498444069074e+01
 1.203784574881888e+00	 5.778427506628541e-01	 1.584683686054546e+01
 1.260933512054261e+00	 4.654961683057414e-01	 1.657335717386504e+01
 1.256545385033123e+00	 4.772144793229773e-01	 1.650475235484396e+01
 1.252039257512380e+00	 4.889147467453337e-01	 1.643334593221518e+01
 1.247415043799562e+00	 5.005952628466426e-01	 1.635927944603265e+01
 1.242672689894119e+00	 5.122543118976854e-01	 1.628273961054269e+01
 1.237812173820320e+00	 5.238901708735690e-01	 1.620395748602535e+01
 1.232833505941960e+00	 5.355011101742917e-01	 1.612320722673709e+01
 1.227736729258357e+00	 5.470853943579782e-01	 1.604080438909121e+01
 1.222521919681086e+00	 5.586412828862450e-01	 1.595710378638822e+01
 1.217189186290948e+00	 5.701670308811225e-01	 1.587249687876920e+01
 1.211738671574672e+00	 5.816608898929493e-01	 1.578740868960331e+01
 1.269210533586462e+00	 4.685517789068530e-01	 1.648406693830423e+01
 1.264793602015855e+00	 4.803470112777081e-01	 1.641864190656263e+01
 1.260257895366589e+00	 4.921240816119458e-01	 1.635043202592739e+01
 1.255603327383696e+00	 5.038812709735316e-01	 1.627956196160785e+01
 1.250829843712159e+00	 5.156168523708458e-01	 1.620620189147917e+01
 1.245937422231995e+00	 5.273290914687045e-01	 1.613056671967938e+01
 1.240926073375035e+00	 5.390162473136549e-01	 1.605291485084369e+01
 1.235795840422856e+00	 5.506765730720238e-01	 1.597354650816757e+01
 1.230546799785333e+00	 5.623083167801735e-01	 1.589280158074364e+01
 1.225179061259301e+00	 5.739097221063956e-01	 1.581105698806317e+01
 1.219692768266804e+00	 5.854790291238445e-01	 1.572872355220117e+01
 1.140151801338169e+00	 5.472976368268900e-01	 1.636494484373916e+01
 1.134913533570922e+00	 5.580789807032194e-01	 1.623872082878969e+01
 1.129564842684505e+00	 5.688270330977130e-01	 1.610763293530795e+01
 1.124105957266472e+00	 5.795401434485337e-01	 1.597219890127367e+01
 1.118537138011102e+00	 5.902166607945590e-01	 1.583294418140229e+01
 1.112858677841215e+00	 6.008549345401176e-01	 1.569039760320459e+01
 1.107070902008571e+00	 6.114533152263181e-01	 1.554536907344334e+01
 1.101174168172526e+00	 6.220101553082881e-01	 1.539897872682852e+01
 1.095168866456658e+00	 6.325238099376140e-01	 1.525128963571387e+01
 1.089055419483085e+00	 6.429926377492694e-01	 1.510225504330854e+01
 1.082834282384246e+00	 6.534150016522964e-01	 1.495178109639981e+01
 1.148105898029562e+00	 5.511157760577856e-01	 1.629507149786634e+01
 1.142831086278996e+00	 5.619723343500329e-01	 1.617433880895170e+01
 1.137445081059043e+00	 5.727953689074317e-01	 1.604870503571821e+01
 1.131948112551971e+00	 5.835832176532515e-01	 1.591867852337854e+01
 1.126340443270758e+00	 5.943342181086932e-01	 1.578477793439907e+01
 1.120622368181761e+00	 6.050467081629568e-01	 1.564752780992498e+01
 1.114794214805816e+00	 6.157190268499535e-01	 1.550745381661231e+01
 1.108856343297441e+00	 6.263495151309660e-01	 1.536515152076126e+01
 1.102809146501857e+00	 6.369365166825475e-01	 1.522173168755929e+01
 1.096653049989549e+00	 6.474783786889398e-01	 1.507738581968266e+01
 1.090388512068123e+00	 6.579734526382700e-01	 1.493202144965230e+01
 1.156059994721770e+00	 5.549339152878812e-01	 1.622681637199955e+01
 1.150748638987892e+00	 5.658656879960468e-01	 1.611128398874017e+01
 1.145325319434410e+00	 5.767637047163499e-01	 1.599083911007690e+01
 1.139790267838306e+00	 5.876262918571695e-01	 1.586598188011698e+01
 1.134143748531256e+00	 5.984517754220279e-01	 1.573722533649011e+01
 1.128386058523156e+00	 6.092384817849962e-01	 1.560509087241758e+01
 1.122517527603915e+00	 6.199847384727891e-01	 1.547010336553248e+01
 1.116538518423214e+00	 6.306888749528436e-01	 1.533278598519477e+01
 1.110449426547919e+00	 6.413492234266810e-01	 1.519365979079506e+01
 1.104250680496879e+00	 6.519641196278099e-01	 1.505364352106535e+01
 1.097942741752867e+00	 6.625319036234437e-01	 1.491307604862536e+01
 1.164014091414612e+00	 5.587520545173768e-01	 1.616011754561503e+01
 1.158666191697431e+00	 5.697590416414604e-01	 1.604949169232193e+01
 1.153205557810433e+00	 5.807320405246689e-01	 1.593396575136303e+01
 1.147632423125309e+00	 5.916693660604879e-01	 1.581403282977733e+01
 1.141947053792436e+00	 6.025693327347621e-01	 1.569020148528698e+01
 1.136149748865245e+00	 6.134302554064358e-01	 1.556299108432901e+01
 1.130240840402720e+00	 6.242504500950247e-01	 1.543292680758279e+01
 1.124220693549705e+00	 6.350282347741220e-01	 1.530053431483979e+01
 1.118089706594707e+00	 6.457619301702145e-01	 1.516633408374879e+01
 1.111848311004940e+00	 6.564498605660801e-01	 1.503083543967095e+01
 1.105496971438344e+00	 6.670903546080174e-01	 1.489473357937538e+01
 1.171968188107903e+00	 5.625701937464722e-01	 1.609489919626937e+01
 1.166583744407436e+00	 5.736523952864742e-01	 1.598888318797323e+01
 1.161085796186939e+00	 5.847003763325871e-01	 1.587800138733910e+01
 1.155474578412816e+00	 5.957124402634059e-01	 1.576274100123572e+01
 1.149750359054139e+00	 6.066868900470965e-01	 1.564360723047504e+01
 1.143913439207876e+00	 6.176220290274752e-01	 1.552111851916860e+01
 1.137964153202087e+00	 6.285161617168603e-01	 1.539580143169843e+01
 1.131902868676772e+00	 6.393675945949999e-01	 1.526818516925442e+01
 1.125729986642083e+00	 6.501746369133482e-01	 1.513879574069623e+01
 1.119445941513597e+00	 6.609356015039503e-01	 1.500814980532305e+01
 1.113051201124420e+00	 6.716488055921910e-01	 1.487674820795838e+01
 1.179922284801460e+00	 5.663883329753678e-01	 1.603107176426420e+01
 1.174501297117727e+00	 5.775457489312879e-01	 1.592936585280549e+01
 1.168966034563758e+00	 5.886687121403056e-01	 1.582284844290825e+01
 1.163316733700660e+00	 5.997555144661237e-01	 1.571200195148178e+01
 1.157553664316206e+00	 6.108044473592312e-01	 1.559732932401606e+01
 1.151677129550899e+00	 6.218138026483148e-01	 1.547934917066696e+01
 1.145687466001867e+00	 6.327818733384957e-01	 1.535859050942718e+01
 1.139585043804274e+00	 6.437069544156779e-01	 1.523558712843868e+01
 1.133370266689911e+00	 6.545873436562815e-01	 1.511087158243398e+01
 1.127043572022716e+00	 6.654213424416205e-01	 1.498496884124457e+01
 1.120605430810964e+00	 6.762072565761650e-01	 1.485838961126962e+01
 1.187876381495098e+00	 5.702064722042632e-01	 1.596853212042695e+01
 1.182418849828129e+00	 5.814391025761014e-01	 1.587083334063521e+01
 1.176846272940716e+00	 5.926370479480242e-01	 1.576839550572221e+01
 1.171158888988677e+00	 6.037985886688417e-01	 1.566169732658200e+01
 1.165356969578480e+00	 6.149220046713653e-01	 1.555124057405487e+01
 1.159440819894159e+00	 6.260055762691541e-01	 1.543754509718832e+01
 1.153410778801916e+00	 6.370475849601311e-01	 1.532114342738479e+01
 1.147267218932070e+00	 6.480463142363558e-01	 1.520257498059228e+01
 1.141010546738053e+00	 6.590000503992147e-01	 1.508237987275835e+01
 1.134641202532164e+00	 6.699070833792907e-01	 1.496109236684778e+01
 1.128159660497840e+00	 6.807657075601384e-01	 1.483923397281374e+01
 1.195830478188635e+00	 5.740246114333587e-01	 1.590716373686347e+01
 1.190336402538461e+00	 5.853324562211150e-01	 1.581316575285309e+01
 1.184726511317642e+00	 5.966053837559427e-01	 1.571451749489079e+01
 1.179001044276700e+00	 6.078416628717598e-01	 1.561169502592300e+01
 1.173160274840800e+00	 6.190395619836996e-01	 1.550520000236058e+01
 1.167204510237504e+00	 6.301973498901932e-01	 1.539555457000863e+01
 1.161134091602085e+00	 6.413132965819665e-01	 1.528329582398638e+01
 1.154949394060018e+00	 6.523856740572336e-01	 1.516896984489558e+01
 1.148650826786372e+00	 6.634127571423485e-01	 1.505312532669041e+01
 1.142238833041805e+00	 6.743928243171609e-01	 1.493630681492042e+01
 1.135713890184916e+00	 6.853241585443121e-01	 1.481904757724279e+01
 1.203784574881888e+00	 5.778427506628541e-01	 1.584683686054545e+01
 1.198253955248546e+00	 5.892258098665284e-01	 1.575622981215377e+01
 1.192606749694363e+00	 6.005737195642609e-01	 1.566107583264965e+01
 1.186843199564566e+00	 6.118847370750775e-01	 1.556184936958159e+01
 1.180963580103007e+00	 6.231571192964340e-01	 1.545905300513780e+01
 1.174968200580783e+00	 6.343891235116323e-01	 1.535321222528090e+01
 1.168857404402229e+00	 6.455790082042018e-01	 1.524486973025725e+01
 1.162631569187978e+00	 6.567250338785113e-01	 1.513457929883715e+01
 1.156291106834732e+00	 6.678254638858818e-01	 1.502289922197530e+01
 1.149836463551505e+00	 6.788785652554309e-01	 1.491038532493828e+01
 1.143268119872058e+00	 6.898826095288855e-01	 1.479758360031481e+01
 1.211738671574672e+00	 5.816608898929493e-01	 1.578740868960331e+01
 1.206171507958207e+00	 5.931191635125417e-01	 1.569987903899616e+01
 1.200486988070708e+00	 6.045420553731793e-01	 1.560791861885050e+01
 1.194685354852107e+00	 6.159278112789953e-01	 1.551200126868057e+01
 1.188766885364944e+00	 6.272746766097681e-01	 1.541263151705494e+01
 1.182731890923842e+00	 6.385808971336716e-01	 1.531033921951998e+01
 1.176580717202202e+00	 6.498447198270372e-01	 1.520567371453603e+01
 1.170313744315808e+00	 6.610643937003891e-01	 1.509919750987992e+01
 1.163931386882993e+00	 6.722381706300147e-01	 1.499147951543867e+01
 1.157434094061130e+00	 6.833643061943009e-01	 1.488308784182568e+01
 1.150822349559133e+00	 6.944410605140587e-01	 1.477458218776283e+01
 1.219692768266804e+00	 5.854790291238445e-01	 1.572872355220117e+01
 1.214089060667263e+00	 5.970125171593550e-01	 1.564395393066949e+01
 1.208367226446505e+00	 6.085103911828973e-01	 1.555488080814737e+01
 1.202527510139158e+00	 6.199708854837129e-01	 1.546197839859376e+01
 1.196570190626451e+00	 6.313922339239018e-01	 1.536575417834289e+01
 1.190495581266530e+00	 6.427726707565107e-01	 1.526674338844603e+01
 1.184304030001858e+00	 6.541104314506720e-01	 1.516550303089419e+01
 1.177995919443366e+00	 6.654037535230667e-01	 1.506260537126795e+01
 1.171571666931022e+00	 6.766508773749481e-01	 1.495863096397821e+01
 1.165031724570545e+00	 6.878500471339707e-01	 1.485416121991640e+01
 1.158376579246009e+00	 6.989995115000320e-01	 1.474977053999971e+01
 1.082834282384246e+00	 6.534150016522964e-01	 1.495178109639982e+01
 1.076505943053501e+00	 6.637892698303393e-01	 1.480036392132949e+01
 1.070070922891450e+00	 6.741138171709183e-01	 1.464828607929373e+01
 1.063529775955415e+00	 6.843870254644014e-01	 1.449504624587464e+01
 1.056883088614866e+00	 6.946072839977351e-01	 1.434007544439970e+01
 1.050131479446166e+00	 7.047729903516500e-01	 1.418274084403511e+01
 1.043275599103903e+00	 7.148825511969510e-01	 1.402235009635812e+01
 1.036316130168806e+00	 7.249343830890960e-01	 1.385815620142472e+01
 1.029253786972209e+00	 7.349269132602679e-01	 1.368936289112078e+01
 1.022089315397092e+00	 7.448585804081368e-01	 1.351595933674781e+01
 1.014823492655765e+00	 7.547278354805068e-01	 1.334443162485696e+01
 1.090388512068123e+00	 6.579734526382700e-01	 1.493202144965231e+01
 1.084016024034659e+00	 6.684200953300652e-01	 1.478583466386447e+01
 1.077536110927221e+00	 6.788166703144929e-01	 1.463877819261860e+01
 1.070949330668425e+00	 6.891615480927239e-01	 1.449030170216586e+01
 1.064256273718450e+00	 6.994531067148073e-01	 1.433978129630776e+01
 1.057457562969055e+00	 7.096897325824356e-01	 1.418652344691504e+01
 1.050553853614018e+00	 7.198698212507918e-01	 1.402976949147966e+01
 1.043545832995979e+00	 7.299917782286703e-01	 1.386870068857789e+01
 1.036434220429690e+00	 7.400540197760759e-01	 1.370244381875050e+01
 1.029219767001664e+00	 7.500549736984856e-01	 1.353410471522262e+01
 1.021903255346308e+00	 7.599930801369752e-01	 1.336853935217658e+01
 1.097942741752867e+00	 6.625319036234437e-01	 1.491307604862536e+01
 1.091526105016681e+00	 6.730509208289913e-01	 1.477181682630005e+01
 1.085001298963854e+00	 6.835195234572684e-01	 1.462945535844001e+01
 1.078368885382286e+00	 6.939360707202499e-01	 1.448539803445972e+01
 1.071629458822871e+00	 7.042989294310876e-01	 1.433897205013395e+01
 1.064783646492761e+00	 7.146064748124378e-01	 1.418942946668766e+01
 1.057832108124917e+00	 7.248570913038612e-01	 1.403595186574460e+01
 1.050775535823896e+00	 7.350491733674904e-01	 1.387765559088308e+01
 1.043614653887864e+00	 7.451811262911517e-01	 1.371443865824282e+01
 1.036350218606865e+00	 7.552513669881316e-01	 1.355210139216841e+01
 1.028983018037402e+00	 7.652583247927758e-01	 1.339196802328954e+01
 1.105496971438344e+00	 6.670903546080174e-01	 1.489473357937538e+01
 1.099036185999435e+00	 6.776817463273176e-01	 1.475807959333966e+01
 1.092466487001211e+00	 6.882223765994447e-01	 1.462007671497738e+01
 1.085788440096861e+00	 6.987105933471784e-01	 1.448009369365723e+01
 1.079002643927987e+00	 7.091447521467743e-01	 1.433741472019923e+01
 1.072109730017137e+00	 7.195232170418521e-01	 1.419124361069164e+01
 1.065110362636457e+00	 7.298443613563518e-01	 1.404070861529881e+01
 1.058005238652415e+00	 7.401065685057445e-01	 1.388486784268634e+01
 1.050795087346593e+00	 7.503082328056783e-01	 1.372639698603247e+01
 1.043480670212565e+00	 7.604477602772499e-01	 1.356955413652111e+01
 1.036062780728931e+00	 7.705235694480761e-01	 1.341437004288000e+01
 1.113051201124420e+00	 6.716488055921910e-01	 1.487674820795838e+01
 1.106546266982786e+00	 6.823125718252437e-01	 1.474438209572300e+01
 1.099931675039156e+00	 6.929252297412211e-01	 1.461039143704645e+01
 1.093207994812010e+00	 7.034851159737091e-01	 1.447413707240954e+01
 1.086375829033657e+00	 7.139905748620659e-01	 1.433486598603361e+01
 1.079435813542042e+00	 7.244399592708750e-01	 1.419173979699310e+01
 1.072388617148494e+00	 7.348316314084572e-01	 1.404383971838635e+01
 1.065234941481394e+00	 7.451639636436211e-01	 1.389088316144187e+01
 1.057975520805739e+00	 7.554353393198385e-01	 1.373788212176774e+01
 1.050611121818636e+00	 7.656441535660167e-01	 1.358604577996331e+01
 1.043142543420778e+00	 7.757888141030427e-01	 1.343537436268533e+01
 1.120605430810964e+00	 6.762072565761650e-01	 1.485838961126962e+01
 1.114056347966599e+00	 6.869433973229701e-01	 1.473044033660005e+01
 1.107396863077554e+00	 6.976280828827985e-01	 1.460013801058448e+01
 1.100627549527593e+00	 7.082596386000406e-01	 1.446726577509374e+01
 1.093749014139739e+00	 7.188363975771588e-01	 1.433107146581377e+01
 1.086761897067330e+00	 7.293567014997019e-01	 1.419068043918697e+01
 1.079666871660883e+00	 7.398189014603694e-01	 1.404513303930103e+01
 1.072464644310690e+00	 7.502213587813089e-01	 1.389643669687486e+01
 1.065155954265166e+00	 7.605624458338158e-01	 1.374841812822586e+01
 1.057741573424948e+00	 7.708405468546072e-01	 1.360113744025418e+01
 1.050222306112825e+00	 7.810540587578422e-01	 1.345458675254901e+01
 1.128159660497840e+00	 6.807657075601384e-01	 1.483923397281374e+01
 1.121566428950742e+00	 6.915742228206959e-01	 1.471568955160665e+01
 1.114862051116267e+00	 7.023309360243754e-01	 1.458902797728455e+01
 1.108047104243473e+00	 7.130341612263716e-01	 1.445920589584741e+01
 1.101122199246091e+00	 7.236822202922523e-01	 1.432576499760472e+01
 1.094087980592859e+00	 7.342734437285288e-01	 1.418781573845399e+01
 1.086945126173480e+00	 7.448061715122818e-01	 1.404485886501914e+01
 1.079694347140162e+00	 7.552787539189969e-01	 1.390101767853837e+01
 1.072336387724735e+00	 7.656895523477931e-01	 1.375750881702011e+01
 1.064872025031371e+00	 7.760369401431979e-01	 1.361436874676904e+01
 1.057302068804957e+00	 7.863193034126421e-01	 1.347159007173978e+01
 1.135713890184916e+00	 6.853241585443121e-01	 1.481904757724279e+01
 1.129076509935079e+00	 6.962050483186220e-01	 1.469980005431217e+01
 1.122327239155160e+00	 7.070337891661519e-01	 1.457669346159449e+01
 1.115466658959509e+00	 7.178086838529022e-01	 1.444969869197496e+01
 1.108495384352572e+00	 7.285280430075431e-01	 1.431866792804066e+01
 1.101414064118486e+00	 7.391901859575513e-01	 1.418288298253328e+01
 1.094223380686142e+00	 7.497934415643868e-01	 1.404354615636078e+01
 1.086924049969666e+00	 7.603361490568736e-01	 1.390408259975204e+01
 1.079516821184309e+00	 7.708166588619533e-01	 1.376463793814889e+01
 1.072002476637777e+00	 7.812333334319643e-01	 1.362525806814662e+01
 1.064381831497056e+00	 7.915845480676086e-01	 1.348594454052531e+01
 1.143268119872058e+00	 6.898826095288855e-01	 1.479758360031481e+01
 1.136586590919476e+00	 7.008358738169480e-01	 1.468250794845144e+01
 1.129792427194096e+00	 7.117366423083283e-01	 1.456284489490686e+01
 1.122886213675563e+00	 7.225832064798309e-01	 1.443857270030137e+01
 1.115868569459039e+00	 7.333738657232296e-01	 1.430957662071387e+01
 1.108740147644065e+00	 7.441069281869657e-01	 1.417587307655940e+01
 1.101501635198725e+00	 7.547807116168771e-01	 1.404063854301774e+01
 1.094153752799062e+00	 7.653935441951275e-01	 1.390506907040604e+01
 1.086697254643750e+00	 7.759437653764797e-01	 1.376926937307882e+01
 1.079132928244035e+00	 7.864297267210824e-01	 1.363330274194529e+01
 1.071461594189006e+00	 7.968497927229087e-01	 1.349718801198843e+01
 1.150822349559133e+00	 6.944410605140587e-01	 1.477458218776283e+01
 1.144096671903800e+00	 7.054666993158739e-01	 1.466353638801728e+01
 1.137257615232939e+00	 7.164394954511032e-01	 1.454719579372057e+01
 1.130305768391496e+00	 7.273577291073564e-01	 1.442555190125120e+01
 1.123241754565352e+00	 7.382196884395098e-01	 1.429850332528475e+01
 1.116066231169455e+00	 7.490236704169675e-01	 1.416729319028978e+01
 1.108779889711084e+00	 7.597679816699466e-01	 1.403553673164834e+01
 1.101383455628205e+00	 7.704509393339470e-01	 1.390339598376763e+01
 1.093877688102920e+00	 7.810708718915549e-01	 1.377084733119776e+01
 1.086263379850017e+00	 7.916261200107276e-01	 1.363797930621633e+01
 1.078541356880689e+00	 8.021150373787092e-01	 1.350483624407342e+01
 1.158376579246009e+00	 6.989995115000320e-01	 1.474977053999971e+01
 1.151606752887915e+00	 7.100975248155994e-01	 1.464259564449874e+01
 1.144722803271552e+00	 7.211423485946773e-01	 1.452944665547225e+01
 1.137725323107168e+00	 7.321322517356784e-01	 1.441033412099923e+01
 1.130614939671369e+00	 7.430655111565818e-01	 1.428526967316579e+01
 1.123392314694512e+00	 7.539404126477526e-01	 1.415706363492712e+01
 1.116058144223075e+00	 7.647552517237869e-01	 1.402783063512730e+01
 1.108613158456955e+00	 7.755083344735211e-01	 1.389846368766554e+01
 1.101058121561683e+00	 7.861979784073621e-01	 1.376879654948400e+01
 1.093393831455592e+00	 7.968225133010768e-01	 1.363874373290599e+01
 1.085621119571988e+00	 8.073802820351770e-01	 1.350838317185286e+01
 1.014823492655765e+00	 7.547278354805068e-01	 1.334443162485696e+01
 1.007455866878029e+00	 7.645348030033171e-01	 1.317380687856953e+01
 9.999885077428706e-01	 7.742762720958096e-01	 1.300166135428440e+01
 9.924222895156739e-01	 7.839507287258528e-01	 1.282811432985906e+01
 9.847581167113650e-01	 7.935566741776144e-01	 1.265325071686513e+01
 9.769969237553450e-01	 8.030926258071813e-01	 1.247711884935495e+01
 9.691396746219908e-01	 8.125571177893284e-01	 1.229972833925484e+01
 9.611873624510034e-01	 8.219487018546621e-01	 1.212104801217969e+01
 9.531410091419071e-01	 8.312659480163649e-01	 1.194100393760709e+01
 9.450016649270306e-01	 8.405074452857859e-01	 1.175947756741078e+01
 9.367704079233418e-01	 8.496718023761349e-01	 1.157630399673070e+01
 1.021903255346308e+00	 7.599930801369752e-01	 1.336853935217658e+01
 1.014484230441013e+00	 7.698684644862169e-01	 1.320328848060498e+01
 1.006964776403574e+00	 7.796778934652291e-01	 1.303601787640544e+01
 9.993457735985644e-01	 7.894198424794652e-01	 1.286688443484322e+01
 9.916281328511281e-01	 7.990928023575281e-01	 1.269601062126940e+01
 9.838127951055509e-01	 8.086952801120634e-01	 1.252348211129788e+01
 9.759007310612396e-01	 8.182257996917395e-01	 1.234934549628762e+01
 9.678929407863931e-01	 8.276829027235307e-01	 1.217360606857397e+01
 9.597904533096691e-01	 8.370651492445328e-01	 1.199622570105582e+01
 9.515943261901918e-01	 8.463711184225460e-01	 1.181712083582526e+01
 9.433056450662566e-01	 8.555994092646793e-01	 1.163616059652083e+01
 1.028983018037402e+00	 7.652583247927758e-01	 1.339196802328955e+01
 1.021512594004457e+00	 7.752021259684926e-01	 1.323162633264120e+01
 1.013941045064636e+00	 7.850795148340746e-01	 1.306885269621558e+01
 1.006269257681702e+00	 7.948889562325552e-01	 1.290383690616546e+01
 9.984981489910247e-01	 8.046289305369722e-01	 1.273673381056528e+01
 9.906286664557780e-01	 8.142979344165282e-01	 1.256766080743606e+01
 9.826617875004017e-01	 8.238944815937811e-01	 1.239669540325938e+01
 9.745985191215946e-01	 8.334171035920709e-01	 1.222387285108428e+01
 9.664398974771549e-01	 8.428643504724043e-01	 1.204918388351094e+01
 9.581869874530051e-01	 8.522347915590314e-01	 1.187257255593749e+01
 9.498408822087722e-01	 8.615270161529561e-01	 1.169393421546271e+01
 1.036062780728931e+00	 7.705235694480761e-01	 1.341437004288000e+01
 1.028540957568261e+00	 7.805357874503007e-01	 1.325852098134944e+01
 1.020917313725976e+00	 7.904811362024879e-01	 1.309990769388673e+01
 1.013192741765033e+00	 8.003580699852531e-01	 1.293874827679986e+01
 1.005368165131026e+00	 8.101650587160644e-01	 1.277522492356102e+01
 9.974445378060230e-01	 8.199005887206797e-01	 1.260948127494182e+01
 9.894228439394991e-01	 8.295631634955454e-01	 1.244161983331784e+01
 9.813040974566558e-01	 8.391513044603643e-01	 1.227169945691054e+01
 9.730893416444341e-01	 8.486635517000538e-01	 1.209973294994412e+01
 9.647796487155581e-01	 8.580984646953105e-01	 1.192568476480976e+01
 9.563761193509887e-01	 8.674546230410330e-01	 1.174946883235447e+01
 1.043142543420778e+00	 7.757888141030427e-01	 1.343537436268534e+01
 1.035569321132326e+00	 7.858694489317968e-01	 1.328364801088886e+01
 1.027893582387516e+00	 7.958827575706146e-01	 1.312889848283371e+01
 1.020116225848501e+00	 8.058271837376898e-01	 1.297136771119668e+01
 1.012238181271103e+00	 8.157011868949218e-01	 1.281126032829201e+01
 1.004260409156283e+00	 8.255032430246221e-01	 1.264874087441071e+01
 9.961839003785548e-01	 8.352318453971241e-01	 1.248393107048556e+01
 9.880096757916245e-01	 8.448855053284937e-01	 1.231690717153345e+01
 9.797387858115763e-01	 8.544627529275555e-01	 1.214769741755210e+01
 9.713723099779371e-01	 8.639621378314525e-01	 1.197627959868337e+01
 9.629113564930061e-01	 8.733822299289763e-01	 1.180257875149523e+01
 1.050222306112825e+00	 7.810540587578422e-01	 1.345458675254901e+01
 1.042597684696553e+00	 7.912031104131366e-01	 1.330665836118235e+01
 1.034869851049178e+00	 8.012843789385971e-01	 1.315551476801360e+01
 1.027039709932053e+00	 8.112962974899961e-01	 1.300141739651174e+01
 1.019108197411227e+00	 8.212373150736622e-01	 1.284458853920572e+01
 1.011076280506557e+00	 8.311058973284604e-01	 1.268520842614549e+01
 1.002944956817593e+00	 8.409005272986109e-01	 1.252341235831635e+01
 9.947152541265479e-01	 8.506197061965409e-01	 1.235928792314853e+01
 9.863882299786499e-01	 8.602619541549832e-01	 1.219287230951204e+01
 9.779649712402301e-01	 8.698258109675258e-01	 1.202414973974236e+01
 9.694465936349229e-01	 8.793098368168527e-01	 1.185304903629345e+01
 1.057302068804957e+00	 7.863193034126421e-01	 1.347159007173977e+01
 1.049626048260840e+00	 7.965367718944765e-01	 1.332717864452406e+01
 1.041846119710883e+00	 8.066860003065802e-01	 1.317942070089620e+01
 1.033963194015633e+00	 8.167654112423022e-01	 1.302859292912249e+01
 1.025978213551370e+00	 8.267734432524022e-01	 1.287493062851331e+01
 1.017892151856842e+00	 8.367085516322990e-01	 1.271862463975378e+01
 1.009706013256637e+00	 8.465692092000973e-01	 1.255981834126991e+01
 1.001420832461473e+00	 8.563539070645878e-01	 1.239860472947566e+01
 9.930376741457240e-01	 8.660611553824104e-01	 1.223502360101765e+01
 9.845576325025225e-01	 8.756894841035987e-01	 1.206905885530656e+01
 9.759818307768401e-01	 8.852374437047291e-01	 1.190063593569036e+01
 1.064381831497056e+00	 7.915845480676086e-01	 1.348594454052530e+01
 1.056654411825089e+00	 8.018704333759725e-01	 1.334481146059490e+01
 1.048822388372552e+00	 8.120876216747063e-01	 1.320025523126164e+01
 1.040886678099189e+00	 8.222345249947390e-01	 1.305256369664807e+01
 1.032848229691502e+00	 8.323095714312597e-01	 1.290198063198152e+01
 1.024708023207134e+00	 8.423112059362412e-01	 1.274870253737062e+01
 1.016467069695709e+00	 8.522378911016759e-01	 1.259287549914196e+01
 1.008126410796449e+00	 8.620881079327173e-01	 1.243459213729808e+01
 9.996871183128678e-01	 8.718603566099119e-01	 1.227388865795541e+01
 9.911502937649018e-01	 8.815531572397404e-01	 1.211074202980651e+01
 9.825170679188570e-01	 8.911650505926724e-01	 1.194506730373360e+01
 1.071461594189006e+00	 7.968497927229087e-01	 1.349718801198843e+01
 1.063682775389200e+00	 8.072040948577802e-01	 1.335913570996079e+01
 1.055798657034108e+00	 8.174892430431202e-01	 1.321763245597235e+01
 1.047810162182663e+00	 8.277036387474366e-01	 1.307297325568351e+01
 1.039718245831595e+00	 8.378456996103520e-01	 1.292540594941999e+01
 1.031523894557432e+00	 8.479138602403927e-01	 1.277512787079945e+01
 1.023228126134833e+00	 8.579065730034401e-01	 1.262228257487175e+01
 1.014831989131521e+00	 8.678223088010109e-01	 1.246695665506723e+01
 1.006336562480151e+00	 8.776595578375613e-01	 1.230917666856122e+01
 9.977429550274552e-01	 8.874168303760197e-01	 1.214890618987380e+01
 9.890523050610736e-01	 8.970926574807490e-01	 1.198604301261559e+01
 1.078541356880689e+00	 8.021150373787092e-01	 1.350483624407342e+01
 1.070711138953074e+00	 8.125377563400561e-01	 1.336970690612131e+01
 1.062774925695471e+00	 8.228908644119648e-01	 1.323114196485563e+01
 1.054733646266003e+00	 8.331727525005264e-01	 1.308943970544224e+01
 1.046588261971619e+00	 8.433818277897960e-01	 1.294484774010834e+01
 1.038339765907732e+00	 8.535165145448569e-01	 1.279755953285084e+01
 1.029989182574033e+00	 8.635752549054815e-01	 1.264771099603071e+01
 1.021537567466739e+00	 8.735565096695507e-01	 1.249537717889136e+01
 1.012986006647641e+00	 8.834587590654330e-01	 1.234056906837790e+01
 1.004335616290269e+00	 8.932805035125048e-01	 1.218323052286160e+01
 9.955875422035889e-01	 9.030202643690258e-01	 1.202323535947895e+01
 1.085621119571988e+00	 8.073802820351770e-01	 1.350838317185286e+01
 1.077739502516610e+00	 8.178714178229555e-01	 1.337605748617618e+01
 1.069751194356563e+00	 8.282924857813846e-01	 1.324034918383078e+01
 1.061657130349154e+00	 8.386418662541383e-01	 1.310155605749523e+01
 1.053458278111545e+00	 8.489179559697088e-01	 1.295992131339321e+01
 1.045155637258033e+00	 8.591191688497392e-01	 1.281562996314471e+01
 1.036750239013331e+00	 8.692439368078929e-01	 1.266880529027933e+01
 1.028243145802149e+00	 8.792907105384193e-01	 1.251950541220918e+01
 1.019635450815409e+00	 8.892579602936008e-01	 1.236771995882192e+01
 1.010928277553431e+00	 8.991441766492650e-01	 1.221336688909674e+01
 1.002122779346504e+00	 9.089478712575699e-01	 1.205628946727102e+01
 9.367704079233418e-01	 8.496718023761349e-01	 1.157630399673070e+01
 9.284497634436332e-01	 8.587561131858535e-01	 1.139140393432845e+01
 9.200394596443375e-01	 8.677606052844652e-01	 1.120499436206378e+01
 9.115406399879045e-01	 8.766839660711286e-01	 1.101739018542726e+01
 9.029544738081481e-01	 8.855249053128216e-01	 1.082887444559767e+01
 8.942821557703193e-01	 8.942821557703196e-01	 1.063969648466055e+01
 8.855249053128216e-01	 9.029544738081482e-01	 1.045007028149951e+01
 8.766839660711283e-01	 9.115406399879040e-01	 1.026017297116319e+01
 8.677606052844652e-01	 9.200394596443375e-01	 1.007014355985427e+01
 8.587561131858534e-01	 9.284497634436334e-01	 9.880081846938989e+00
 8.496718023761349e-01	 9.367704079233418e-01	 9.690047564548994e+00
 9.433056450662566e-01	 8.555994092646793e-01	 1.163616059652083e+01
 9.349269528681248e-01	 8.647470953953964e-01	 1.145347783983833e+01
 9.264579758557512e-01	 8.738144059718300e-01	 1.126946043247264e+01
 9.178998654687733e-01	 8.828000192359826e-01	 1.108439197110778e+01
 9.092537991986805e-01	 8.917026359537202e-01	 1.089852207389777e+01
 9.005209800451207e-01	 9.005209800451206e-01	 1.071206449448328e+01
 8.917026359537202e-01	 9.092537991986804e-01	 1.052519541303586e+01
 8.828000192359825e-01	 9.178998654687734e-01	 1.033805191769538e+01
 8.738144059718299e-01	 9.264579758557512e-01	 1.015073068909245e+01
 8.647470953953961e-01	 9.349269528681250e-01	 9.963286899876273e+00
 8.555994092646789e-01	 9.433056450662566e-01	 9.775733340317736e+00
 9.498408822087722e-01	 8.615270161529561e-01	 1.169393421546271e+01
 9.414041422921891e-01	 8.707380776046652e-01	 1.151359997806783e+01
 9.328764920667283e-01	 8.798682066589015e-01	 1.133211499717915e+01
 9.242590909492125e-01	 8.889160724005157e-01	 1.114972358787652e+01
 9.155531245888028e-01	 8.978803665942670e-01	 1.096663368128362e+01
 9.067598043195394e-01	 9.067598043195393e-01	 1.078301489457379e+01
 8.978803665942670e-01	 9.155531245888026e-01	 1.059899678479906e+01
 8.889160724005154e-01	 9.242590909492127e-01	 1.041466730047943e+01
 8.798682066589014e-01	 9.328764920667287e-01	 1.023007144419013e+01
 8.707380776046647e-01	 9.414041422921891e-01	 1.004521015859770e+01
 8.615270161529561e-01	 9.498408822087723e-01	 9.860039447513005e+00
 9.563761193509887e-01	 8.674546230410330e-01	 1.174946883235447e+01
 9.478813317159320e-01	 8.767290598137282e-01	 1.157160184818244e+01
 9.392950082773779e-01	 8.859220073457531e-01	 1.139277385103642e+01
 9.306183164293290e-01	 8.950321255648077e-01	 1.121318205919670e+01
 9.218524499786171e-01	 9.040580972345493e-01	 1.103298461255944e+01
 9.129986285936698e-01	 9.129986285936695e-01	 1.085229860556700e+01
 9.040580972345493e-01	 9.218524499786170e-01	 1.067119831119782e+01
 8.950321255648074e-01	 9.306183164293292e-01	 1.048971361052611e+01
 8.859220073457528e-01	 9.392950082773779e-01	 1.030782864164616e+01
 8.767290598137280e-01	 9.478813317159325e-01	 1.012548068094106e+01
 8.674546230410328e-01	 9.563761193509887e-01	 9.942559268769465e+00
 9.629113564930061e-01	 8.733822299289763e-01	 1.180257875149523e+01
 9.543585211394608e-01	 8.827200420226536e-01	 1.162728564856504e+01
 9.457135244878090e-01	 8.919758080324571e-01	 1.145122397759547e+01
 9.369775419092313e-01	 9.011481787289394e-01	 1.127453619905212e+01
 9.281517753682257e-01	 9.102358278746556e-01	 1.109732271372084e+01
 9.192374528676087e-01	 9.192374528676086e-01	 1.091963986524623e+01
 9.102358278746558e-01	 9.281517753682260e-01	 1.074149814139942e+01
 9.011481787289390e-01	 9.369775419092313e-01	 1.056286058916814e+01
 8.919758080324569e-01	 9.457135244878091e-01	 1.038364145802553e+01
 8.827200420226536e-01	 9.543585211394611e-01	 1.020370508489450e+01
 8.733822299289763e-01	 9.629113564930061e-01	 1.002286503339017e+01
 9.694465936349229e-01	 8.793098368168527e-01	 1.185304903629345e+01
 9.608357105628825e-01	 8.887110242315107e-01	 1.168042469221120e+01
 9.521320406981307e-01	 8.980296087190884e-01	 1.150722394232567e+01
 9.433367673890262e-01	 9.072642318929911e-01	 1.133352697917396e+01
 9.344511007577324e-01	 9.164135585146743e-01	 1.115936866952032e+01
 9.254762771414523e-01	 9.254762771414523e-01	 1.098473653293066e+01
 9.164135585146742e-01	 9.344511007577320e-01	 1.080956892717893e+01
 9.072642318929910e-01	 9.433367673890262e-01	 1.063375345616656e+01
 8.980296087190881e-01	 9.521320406981308e-01	 1.045712561528132e+01
 8.887110242315106e-01	 9.608357105628831e-01	 1.027946768825763e+01
 8.793098368168526e-01	 9.694465936349231e-01	 1.010050790863069e+01
 9.759818307768401e-01	 8.852374437047291e-01	 1.190063593569036e+01
 9.673128999863048e-01	 8.947020064403680e-01	 1.173076381551972e+01
 9.585505569084526e-01	 9.040834094057193e-01	 1.156050427995722e+01
 9.496959928688209e-01	 9.133802850570429e-01	 1.138986789126292e+01
 9.407504261472385e-01	 9.225912891546927e-01	 1.121881633703833e+01
 9.317151014152957e-01	 9.317151014152956e-01	 1.104726039101237e+01
 9.225912891546927e-01	 9.407504261472386e-01	 1.087505808918760e+01
 9.133802850570429e-01	 9.496959928688209e-01	 1.070201313762892e+01
 9.040834094057193e-01	 9.585505569084530e-01	 1.052787356739609e+01
 8.947020064403676e-01	 9.673128999863054e-01	 1.035233065123456e+01
 8.852374437047289e-01	 9.759818307768400e-01	 1.017501809563787e+01
 9.825170679188570e-01	 8.911650505926724e-01	 1.194506730373359e+01
 9.737900894098337e-01	 9.006929886492934e-01	 1.177801978078355e+01
 9.649690731188835e-01	 9.101372100924239e-01	 1.161076787621971e+01
 9.560552183487234e-01	 9.194963382211753e-01	 1.144324530443894e+01
 9.470497515368475e-01	 9.287690197947991e-01	 1.127533307544649e+01
 9.379539256892346e-01	 9.379539256892346e-01	 1.110685744377484e+01
 9.287690197947989e-01	 9.470497515368473e-01	 1.093758808171422e+01
 9.194963382211746e-01	 9.560552183487231e-01	 1.076723649374771e+01
 9.101372100924237e-01	 9.649690731188838e-01	 1.059545468827928e+01
 9.006929886492934e-01	 9.737900894098341e-01	 1.042183412182699e+01
 8.911650505926724e-01	 9.825170679188571e-01	 1.024590492982451e+01
 9.890523050610736e-01	 8.970926574807490e-01	 1.198604301261559e+01
 9.802672788335767e-01	 9.066839708583566e-01	 1.182188167267349e+01
 9.713875893295331e-01	 9.161910107792749e-01	 1.165769034423549e+01
 9.624144438288397e-01	 9.256123913854671e-01	 1.149331881813841e+01
 9.533490769266617e-01	 9.349467504350817e-01	 1.132856007213674e+01
 9.441927499633654e-01	 9.441927499633652e-01	 1.116314821361900e+01
 9.349467504350812e-01	 9.533490769266614e-01	 1.099675665600950e+01
 9.256123913854669e-01	 9.624144438288401e-01	 1.082899654636658e+01
 9.161910107792747e-01	 9.713875893295333e-01	 1.065941546086366e+01
 9.066839708583559e-01	 9.802672788335772e-01	 1.048749638389337e+01
 8.970926574807490e-01	 9.890523050610733e-01	 1.031265698547518e+01
 9.955875422035889e-01	 9.030202643690258e-01	 1.202323535947895e+01
 9.867444682576400e-01	 9.126749530676246e-01	 1.186201128898995e+01
 9.778061055405098e-01	 9.222448114663463e-01	 1.170092039581230e+01
 9.687736693092788e-01	 9.317284445499999e-01	 1.153972161066862e+01
 9.596484023167835e-01	 9.411244810756280e-01	 1.137811266538461e+01
 9.504315742377832e-01	 9.504315742377832e-01	 1.121572803481384e+01
 9.411244810756282e-01	 9.596484023167835e-01	 1.105213712223755e+01
 9.317284445499999e-01	 9.687736693092789e-01	 1.088684270638145e+01
 9.222448114663458e-01	 9.778061055405101e-01	 1.071927966734360e+01
 9.126749530676247e-01	 9.867444682576409e-01	 1.054881400775332e+01
 9.030202643690258e-01	 9.955875422035888e-01	 1.037474218438761e+01
 1.002122779346504e+00	 9.089478712575699e-01	 1.205628946727101e+01
 9.932216576821324e-01	 9.186659352771679e-01	 1.189804352594351e+01
 9.842246217519234e-01	 9.282986121537109e-01	 1.174008020786818e+01
 9.751328947901475e-01	 9.378444977148536e-01	 1.158206078361550e+01
 9.659477277073155e-01	 9.473022117165263e-01	 1.142358066370311e+01
 9.566703985125847e-01	 9.566703985125846e-01	 1.126416734488529e+01
 9.473022117165264e-01	 9.659477277073159e-01	 1.110327861011760e+01
 9.378444977148535e-01	 9.751328947901475e-01	 1.094030100098436e+01
 9.282986121537108e-01	 9.842246217519237e-01	 1.077454858050357e+01
 9.186659352771674e-01	 9.932216576821324e-01	 1.060526200321948e+01
 9.089478712575698e-01	 1.002122779346504e+00	 1.043160790836506e+01
 8.496718023761349e-01	 9.367704079233418e-01	 9.690047564548998e+00
 8.405074452857861e-01	 9.450016649270302e-01	 9.500499913878770e+00
 8.312659480163652e-01	 9.531410091419068e-01	 9.311827682464425e+00
 8.219487018546624e-01	 9.611873624510029e-01	 9.123828762231458e+00
 8.125571177893285e-01	 9.691396746219902e-01	 8.936262806091436e+00
 8.030926258071817e-01	 9.769969237553447e-01	 8.748851731887328e+00
 7.935566741776152e-01	 9.847581167113648e-01	 8.561280483372720e+00
 7.839507287258533e-01	 9.924222895156736e-01	 8.373198050839836e+00
 7.742762720958096e-01	 9.999885077428703e-01	 8.184218752688841e+00
 7.645348030033176e-01	 1.007455866878029e+00	 7.993923777870258e+00
 7.547278354805067e-01	 1.014823492655765e+00	 7.801862987751575e+00
 8.555994092646789e-01	 9.433056450662566e-01	 9.775733340317732e+00
 8.463711184225464e-01	 9.515943261901914e-01	 9.588518418869542e+00
 8.370651492445332e-01	 9.597904533096687e-01	 9.402050834376571e+00
 8.276829027235312e-01	 9.678929407863927e-01	 9.216125793704778e+00
 8.182257996917399e-01	 9.759007310612396e-01	 9.030498519307592e+00
 8.086952801120642e-01	 9.838127951055508e-01	 8.844884714672368e+00
 7.990928023575288e-01	 9.916281328511279e-01	 8.658961297156919e+00
 7.894198424794654e-01	 9.993457735985641e-01	 8.472367401181511e+00
 7.796778934652294e-01	 1.006964776403574e+00	 8.284705653365148e+00
 7.698684644862173e-01	 1.014484230441013e+00	 8.095543719784025e+00
 7.599930801369751e-01	 1.021903255346308e+00	 7.904416124095122e+00
 8.615270161529561e-01	 9.498408822087723e-01	 9.860039447513003e+00
 8.522347915590320e-01	 9.581869874530049e-01	 9.675000374845240e+00
 8.428643504724047e-01	 9.664398974771545e-01	 9.490539727050209e+00
 8.334171035920713e-01	 9.745985191215947e-01	 9.306462365662963e+00
 8.238944815937815e-01	 9.826617875004013e-01	 9.122531850199818e+00
 8.142979344165284e-01	 9.906286664557773e-01	 8.938470841523877e+00
 8.046289305369726e-01	 9.984981489910245e-01	 8.753961782660713e+00
 7.948889562325555e-01	 1.006269257681702e+00	 8.568647860435028e+00
 7.850795148340747e-01	 1.013941045064636e+00	 8.382134249872538e+00
 7.752021259684930e-01	 1.021512594004457e+00	 8.193989641844862e+00
 7.652583247927758e-01	 1.028983018037402e+00	 8.003748052945879e+00
 8.674546230410328e-01	 9.563761193509887e-01	 9.942559268769466e+00
 8.580984646953110e-01	 9.647796487155580e-01	 9.759508037884725e+00
 8.486635517000543e-01	 9.730893416444338e-01	 9.576836210812777e+00
 8.391513044603649e-01	 9.813040974566558e-01	 9.394370346428062e+00
 8.295631634955454e-01	 9.894228439394983e-01	 9.211894802825181e+00
 8.199005887206799e-01	 9.974445378060225e-01	 9.029152055161703e+00
 8.101650587160646e-01	 1.005368165131026e+00	 8.845843300728754e+00
 8.003580699852534e-01	 1.013192741765032e+00	 8.661629355081423e+00
 7.904811362024884e-01	 1.020917313725975e+00	 8.476131841585298e+00
 7.805357874503013e-01	 1.028540957568261e+00	 8.288934675212300e+00
 7.705235694480760e-01	 1.036062780728931e+00	 8.099585839870414e+00
 8.733822299289763e-01	 9.629113564930061e-01	 1.002286503339017e+01
 8.639621378314527e-01	 9.713723099779367e-01	 9.841583708814577e+00
 8.544627529275558e-01	 9.797387858115761e-01	 9.660463123287865e+00
 8.448855053284938e-01	 9.880096757916240e-01	 9.479363287145564e+00
 8.352318453971246e-01	 9.961839003785545e-01	 9.298101521245805e+00
 8.255032430246227e-01	 1.004260409156283e+00	 9.116452665977237e+00
 8.157011868949223e-01	 1.012238181271103e+00	 8.934149587003766e+00
 8.058271837376902e-01	 1.020116225848501e+00	 8.750883982095717e+00
 7.958827575706149e-01	 1.027893582387516e+00	 8.566307491869797e+00
 7.858694489317971e-01	 1.035569321132326e+00	 8.380033115682659e+00
 7.757888141030426e-01	 1.043142543420778e+00	 8.191636932317625e+00
 8.793098368168526e-01	 9.694465936349231e-01	 1.010050790863069e+01
 8.698258109675260e-01	 9.779649712402294e-01	 9.920749779333942e+00
 8.602619541549834e-01	 9.863882299786495e-01	 9.740924299241303e+00
 8.506197061965413e-01	 9.947152541265475e-01	 9.560936403982293e+00
 8.409005272986111e-01	 1.002944956817593e+00	 9.380648252449072e+00
 8.311058973284610e-01	 1.011076280506557e+00	 9.199879303780715e+00
 8.212373150736625e-01	 1.019108197411227e+00	 9.018406700335078e+00
 8.112962974899967e-01	 1.027039709932052e+00	 8.835965961573901e+00
 8.012843789385975e-01	 1.034869851049177e+00	 8.652251992206073e+00
 7.912031104131372e-01	 1.042597684696552e+00	 8.466920406300375e+00
 7.810540587578422e-01	 1.050222306112825e+00	 8.279589167415661e+00
 8.852374437047289e-01	 9.759818307768400e-01	 1.017501809563787e+01
 8.756894841035990e-01	 9.845576325025219e-01	 9.996508784376784e+00
 8.660611553824107e-01	 9.930376741457235e-01	 9.817704587889295e+00
 8.563539070645882e-01	 1.001420832461473e+00	 9.638566568656993e+00
 8.465692092000975e-01	 1.009706013256636e+00	 9.459013318130207e+00
 8.367085516322992e-01	 1.017892151856841e+00	 9.278920878612338e+00
 8.267734432524030e-01	 1.025978213551370e+00	 9.098122980134917e+00
 8.167654112423023e-01	 1.033963194015633e+00	 8.916411597888235e+00
 8.066860003065806e-01	 1.041846119710883e+00	 8.733537834125771e+00
 7.965367718944770e-01	 1.049626048260839e+00	 8.549213126783357e+00
 7.863193034126421e-01	 1.057302068804957e+00	 8.363110785317367e+00
 8.911650505926724e-01	 9.825170679188571e-01	 1.024590492982451e+01
 8.815531572397407e-01	 9.911502937649013e-01	 1.006834346042208e+01
 8.718603566099122e-01	 9.996871183128673e-01	 9.890269877318595e+00
 8.620881079327176e-01	 1.008126410796448e+00	 9.711712306913721e+00
 8.522378911016765e-01	 1.016467069695709e+00	 9.532657094925504e+00
 8.423112059362416e-01	 1.024708023207134e+00	 9.353048550197066e+00
 8.323095714312596e-01	 1.032848229691502e+00	 9.172789012269750e+00
 8.222345249947395e-01	 1.040886678099188e+00	 8.991739248973678e+00
 8.120876216747067e-01	 1.048822388372552e+00	 8.809719188597240e+00
 8.018704333759732e-01	 1.056654411825089e+00	 8.626508989448599e+00
 7.915845480676086e-01	 1.064381831497056e+00	 8.441850447836341e+00
 8.970926574807490e-01	 9.890523050610733e-01	 1.031265698547518e+01
 8.874168303760203e-01	 9.977429550274547e-01	 1.013571680947487e+01
 8.776595578375619e-01	 1.006336562480150e+00	 9.958067125689045e+00
 8.678223088010112e-01	 1.014831989131521e+00	 9.779813804571100e+00
 8.579065730034405e-01	 1.023228126134833e+00	 9.601022002702546e+00
 8.479138602403929e-01	 1.031523894557431e+00	 9.421715705640986e+00
 8.378456996103520e-01	 1.039718245831594e+00	 9.241877603086492e+00
 8.277036387474371e-01	 1.047810162182663e+00	 9.061449303369795e+00
 8.174892430431208e-01	 1.055798657034108e+00	 8.880331892515928e+00
 8.072040948577810e-01	 1.063682775389200e+00	 8.698386841334083e+00
 7.968497927229088e-01	 1.071461594189006e+00	 8.515437262129961e+00
 9.030202643690258e-01	 9.955875422035888e-01	 1.037474218438761e+01
 8.932805035125053e-01	 1.004335616290269e+00	 1.019807216845729e+01
 8.834587590654333e-01	 1.012986006647641e+00	 1.002052439890760e+01
 8.735565096695510e-01	 1.021537567466739e+00	 9.842292920797080e+00
 8.635752549054820e-01	 1.029989182574032e+00	 9.663532500539183e+00
 8.535165145448574e-01	 1.038339765907732e+00	 9.484357944990503e+00
 8.433818277897962e-01	 1.046588261971618e+00	 9.304843761203809e+00
 8.331727525005270e-01	 1.054733646266004e+00	 9.125024164658530e+00
 8.228908644119652e-01	 1.062774925695471e+00	 8.944893441971802e+00
 8.125377563400564e-01	 1.070711138953073e+00	 8.764406672233660e+00
 8.021150373787090e-01	 1.078541356880688e+00	 8.583480809193043e+00
 9.089478712575698e-01	 1.002122779346504e+00	 1.043160790836507e+01
 8.991441766492652e-01	 1.010928277553431e+00	 1.025483328376282e+01
 8.892579602936015e-01	 1.019635450815408e+00	 1.007705091447654e+01
 8.792907105384193e-01	 1.028243145802148e+00	 9.898553208281538e+00
 8.692439368078930e-01	 1.036750239013330e+00	 9.719595090038275e+00
 8.591191688497395e-01	 1.045155637258033e+00	 9.540393074295151e+00
 8.489179559697093e-01	 1.053458278111545e+00	 9.361124686709557e+00
 8.386418662541389e-01	 1.061657130349154e+00	 9.181928242962108e+00
 8.282924857813851e-01	 1.069751194356563e+00	 9.002902991982126e+00
 8.178714178229560e-01	 1.077739502516610e+00	 8.824109628371955e+00
 8.073802820351771e-01	 1.085621119571988e+00	 8.645571176945939e+00
 7.547278354805067e-01	 1.014823492655765e+00	 7.801862987751575e+00
 7.448585804081368e-01	 1.022089315397092e+00	 7.609628268661945e+00
 7.349269132602683e-01	 1.029253786972208e+00	 7.419212733211326e+00
 7.249343830890960e-01	 1.036316130168806e+00	 7.231290879972829e+00
 7.148825511969510e-01	 1.043275599103902e+00	 7.045640511557379e+00
 7.047729903516504e-01	 1.050131479446166e+00	 6.862001214626916e+00
 6.946072839977357e-01	 1.056883088614866e+00	 6.680198966486468e+00
 6.843870254644020e-01	 1.063529775955414e+00	 6.500157878868274e+00
 6.741138171709191e-01	 1.070070922891449e+00	 6.321911294861729e+00
 6.637892698303400e-01	 1.076505943053501e+00	 6.145612174291093e+00
 6.534150016522964e-01	 1.082834282384246e+00	 5.971542707468041e+00
 7.599930801369751e-01	 1.021903255346308e+00	 7.904416124095121e+00
 7.500549736984857e-01	 1.029219767001664e+00	 7.713033143434117e+00
 7.400540197760755e-01	 1.036434220429689e+00	 7.523302805954529e+00
 7.299917782286705e-01	 1.043545832995979e+00	 7.335714152763306e+00
 7.198698212507919e-01	 1.050553853614017e+00	 7.150441460016928e+00
 7.096897325824361e-01	 1.057457562969055e+00	 6.967182386429291e+00
 6.994531067148078e-01	 1.064256273718450e+00	 6.785725066551735e+00
 6.891615480927246e-01	 1.070949330668424e+00	 6.605960446242026e+00
 6.788166703144934e-01	 1.077536110927221e+00	 6.427893942908925e+00
 6.684200953300659e-01	 1.084016024034658e+00	 6.251656362892087e+00
 6.579734526382700e-01	 1.090388512068123e+00	 6.077514013148564e+00
 7.652583247927758e-01	 1.028983018037402e+00	 8.003748052945877e+00
 7.552513669881317e-01	 1.036350218606865e+00	 7.813247063144298e+00
 7.451811262911519e-01	 1.043614653887863e+00	 7.624490267140525e+00
 7.350491733674905e-01	 1.050775535823896e+00	 7.437484190500566e+00
 7.248570913038613e-01	 1.057832108124917e+00	 7.252745425729421e+00
 7.146064748124382e-01	 1.064783646492761e+00	 7.070020361375944e+00
 7.042989294310881e-01	 1.071629458822871e+00	 6.889038205752749e+00
 6.939360707202505e-01	 1.078368885382286e+00	 6.709635488755967e+00
 6.835195234572690e-01	 1.085001298963853e+00	 6.531768336844504e+00
 6.730509208289919e-01	 1.091526105016681e+00	 6.355523972978869e+00
 6.625319036234436e-01	 1.097942741752867e+00	 6.181131375790150e+00
 7.705235694480760e-01	 1.036062780728931e+00	 8.099585839870414e+00
 7.604477602772499e-01	 1.043480670212565e+00	 7.910050950276973e+00
 7.503082328056780e-01	 1.050795087346593e+00	 7.722411151242388e+00
 7.401065685057446e-01	 1.058005238652415e+00	 7.536446938344770e+00
 7.298443613563523e-01	 1.065110362636457e+00	 7.352443400853446e+00
 7.195232170418527e-01	 1.072109730017137e+00	 7.170443590224725e+00
 7.091447521467750e-01	 1.079002643927987e+00	 6.990096882011548e+00
 6.987105933471792e-01	 1.085788440096860e+00	 6.811164325215517e+00
 6.882223765994452e-01	 1.092466487001210e+00	 6.633531583882341e+00
 6.776817463273181e-01	 1.099036185999434e+00	 6.457221070586002e+00
 6.670903546080175e-01	 1.105496971438344e+00	 6.282403203023341e+00
 7.757888141030426e-01	 1.043142543420778e+00	 8.191636932317621e+00
 7.656441535660167e-01	 1.050611121818636e+00	 8.003205364653855e+00
 7.554353393198389e-01	 1.057975520805739e+00	 7.816869122068204e+00
 7.451639636436213e-01	 1.065234941481394e+00	 7.632324772312845e+00
 7.348316314084578e-01	 1.072388617148494e+00	 7.449395551677289e+00
 7.244399592708751e-01	 1.079435813542041e+00	 7.268351255860690e+00
 7.139905748620663e-01	 1.086375829033657e+00	 7.088832081725910e+00
 7.034851159737097e-01	 1.093207994812009e+00	 6.910502703294451e+00
 6.929252297412218e-01	 1.099931675039156e+00	 6.733157330204773e+00
 6.823125718252444e-01	 1.106546266982785e+00	 6.556732526181396e+00
 6.716488055921910e-01	 1.113051201124420e+00	 6.381370183068377e+00
 7.810540587578422e-01	 1.050222306112825e+00	 8.279589167415661e+00
 7.708405468546071e-01	 1.057741573424948e+00	 8.092450535671906e+00
 7.605624458338160e-01	 1.065155954265166e+00	 7.907649496612216e+00
 7.502213587813091e-01	 1.072464644310690e+00	 7.724783476356174e+00
 7.398189014603694e-01	 1.079666871660882e+00	 7.543430229087170e+00
 7.293567014997020e-01	 1.086761897067330e+00	 7.363612313182930e+00
 7.188363975771592e-01	 1.093749014139738e+00	 7.185146342757756e+00
 7.082596386000413e-01	 1.100627549527593e+00	 7.007579879580166e+00
 6.976280828827991e-01	 1.107396863077553e+00	 6.830594852299583e+00
 6.869433973229708e-01	 1.114056347966599e+00	 6.653985078530837e+00
 6.762072565761650e-01	 1.120605430810964e+00	 6.478585562287968e+00
 7.863193034126421e-01	 1.057302068804957e+00	 8.363110785317364e+00
 7.760369401431978e-01	 1.064872025031372e+00	 8.177506398853650e+00
 7.656895523477931e-01	 1.072336387724735e+00	 7.994516833156897e+00
 7.552787539189970e-01	 1.079694347140162e+00	 7.813623686284126e+00
 7.448061715122820e-01	 1.086945126173480e+00	 7.634282066072252e+00
 7.342734437285291e-01	 1.094087980592859e+00	 7.456064531337278e+00
 7.236822202922524e-01	 1.101122199246091e+00	 7.278912819966069e+00
 7.130341612263726e-01	 1.108047104243473e+00	 7.102297702610617e+00
 7.023309360243760e-01	 1.114862051116267e+00	 6.925465453567005e+00
 6.915742228206970e-01	 1.121566428950742e+00	 6.747994036602249e+00
 6.807657075601384e-01	 1.128159660497840e+00	 6.572774757585000e+00
 7.915845480676086e-01	 1.064381831497056e+00	 8.441850447836341e+00
 7.812333334319643e-01	 1.072002476637777e+00	 8.258072636509382e+00
 7.708166588619533e-01	 1.079516821184309e+00	 8.077214986803501e+00
 7.603361490568736e-01	 1.086924049969666e+00	 7.898626857737291e+00
 7.497934415643868e-01	 1.094223380686142e+00	 7.721626936590376e+00
 7.391901859575517e-01	 1.101414064118486e+00	 7.545513538181211e+00
 7.285280430075435e-01	 1.108495384352571e+00	 7.369974353162070e+00
 7.178086838529029e-01	 1.115466658959509e+00	 7.193800335330135e+00
 7.070337891661529e-01	 1.122327239155159e+00	 7.015214697545895e+00
 6.962050483186232e-01	 1.129076509935079e+00	 6.836919362266702e+00
 6.853241585443119e-01	 1.135713890184916e+00	 6.662071008326949e+00
 7.968497927229088e-01	 1.071461594189006e+00	 8.515437262129957e+00
 7.864297267210824e-01	 1.079132928244035e+00	 8.333828722320106e+00
 7.759437653764797e-01	 1.086697254643750e+00	 8.155467168082851e+00
 7.653935441951274e-01	 1.094153752799061e+00	 7.979553576123173e+00
 7.547807116168773e-01	 1.101501635198725e+00	 7.805253587633672e+00
 7.441069281869658e-01	 1.108740147644065e+00	 7.631701028256042e+00
 7.333738657232303e-01	 1.115868569459039e+00	 7.456900887863622e+00
 7.225832064798315e-01	 1.122886213675563e+00	 7.278084879489077e+00
 7.117366423083287e-01	 1.129792427194095e+00	 7.097757072623975e+00
 7.008358738169486e-01	 1.136586590919476e+00	 6.918899469626597e+00
 6.898826095288855e-01	 1.143268119872059e+00	 6.744609940559411e+00
 8.021150373787090e-01	 1.078541356880688e+00	 8.583480809193043e+00
 7.916261200107274e-01	 1.086263379850017e+00	 8.404433969660591e+00
 7.810708718915552e-01	 1.093877688102920e+00	 8.228976004504148e+00
 7.704509393339471e-01	 1.101383455628205e+00	 8.056143625069012e+00
 7.597679816699467e-01	 1.108779889711083e+00	 7.884933062318082e+00
 7.490236704169676e-01	 1.116066231169455e+00	 7.712569067023604e+00
 7.382196884395104e-01	 1.123241754565352e+00	 7.534398048932813e+00
 7.273577291073572e-01	 1.130305768391495e+00	 7.352979298603238e+00
 7.164394954511041e-01	 1.137257615232938e+00	 7.171235705766726e+00
 7.054666993158746e-01	 1.144096671903799e+00	 6.992077841877114e+00
 6.944410605140588e-01	 1.150822349559133e+00	 6.818531230806170e+00
 8.073802820351771e-01	 1.085621119571988e+00	 8.645571176945936e+00
 7.968225133010767e-01	 1.093393831455592e+00	 8.469527583488723e+00
 7.861979784073625e-01	 1.101058121561683e+00	 8.297423604906927e+00
 7.755083344735213e-01	 1.108613158456955e+00	 8.128116057158598e+00
 7.647552517237872e-01	 1.116058144223075e+00	 7.958316427865783e+00
 7.539404126477530e-01	 1.123392314694512e+00	 7.781716918592675e+00
 7.430655111565820e-01	 1.130614939671368e+00	 7.600256552784630e+00
 7.321322517356790e-01	 1.137725323107168e+00	 7.416631124822150e+00
 7.211423485946780e-01	 1.144722803271552e+00	 7.233801787437591e+00
 7.100975248156002e-01	 1.151606752887915e+00	 7.054604786717153e+00
 6.989995115000320e-01	 1.158376579246008e+00	 6.881980274643823e+00
 6.534150016522964e-01	 1.082834282384246e+00	 5.971542707468041e+00
 6.429926377492695e-01	 1.089055419483085e+00	 5.798235581829330e+00
 6.325238099376145e-01	 1.095168866456658e+00	 5.623358755595594e+00
 6.220101553082884e-01	 1.101174168172526e+00	 5.446096773660981e+00
 6.114533152263187e-01	 1.107070902008571e+00	 5.265770419403603e+00
 6.008549345401182e-01	 1.112858677841215e+00	 5.082145697528930e+00
 5.902166607945597e-01	 1.118537138011101e+00	 4.900056447080832e+00
 5.795401434485343e-01	 1.124105957266471e+00	 4.722706355207672e+00
 5.688270330977138e-01	 1.129564842684504e+00	 4.551873948509533e+00
 5.580789807032205e-01	 1.134913533570922e+00	 4.389290493065869e+00
 5.472976368268903e-01	 1.140151801338169e+00	 4.236630013164052e+00
 6.579734526382700e-01	 1.090388512068123e+00	 6.077514013148564e+00
 6.474783786889399e-01	 1.096653049989549e+00	 5.903595688544879e+00
 6.369365166825477e-01	 1.102809146501857e+00	 5.727045555781739e+00
 6.263495151309662e-01	 1.108856343297441e+00	 5.546860567906160e+00
 6.157190268499539e-01	 1.114794214805816e+00	 5.363269020092641e+00
 6.050467081629576e-01	 1.120622368181762e+00	 5.180709688774749e+00
 5.943342181086939e-01	 1.126340443270758e+00	 5.001206310199581e+00
 5.835832176532523e-01	 1.131948112551971e+00	 4.826412202528990e+00
 5.727953689074324e-01	 1.137445081059043e+00	 4.657938939913146e+00
 5.619723343500340e-01	 1.142831086278996e+00	 4.497345301444639e+00
 5.511157760577856e-01	 1.148105898029562e+00	 4.346127214024278e+00
 6.625319036234436e-01	 1.097942741752867e+00	 6.181131375790150e+00
 6.519641196278100e-01	 1.104250680496879e+00	 6.006258607911753e+00
 6.413492234266811e-01	 1.110449426547919e+00	 5.827490780373052e+00
 6.306888749528441e-01	 1.116538518423214e+00	 5.645481286221065e+00
 6.199847384727896e-01	 1.122517527603914e+00	 5.463461605697099e+00
 6.092384817849968e-01	 1.128386058523155e+00	 5.283016250060446e+00
 5.984517754220283e-01	 1.134143748531256e+00	 5.105686719106771e+00
 5.876262918571703e-01	 1.139790267838305e+00	 4.932979553738516e+00
 5.767637047163509e-01	 1.145325319434410e+00	 4.766354111865757e+00
 5.658656879960478e-01	 1.150748638987891e+00	 4.607211351210022e+00
 5.549339152878812e-01	 1.156059994721770e+00	 4.456883661137168e+00
 6.670903546080175e-01	 1.105496971438344e+00	 6.282403203023341e+00
 6.564498605660802e-01	 1.111848311004940e+00	 6.106252729905129e+00
 6.457619301702147e-01	 1.118089706594706e+00	 5.926862059668990e+00
 6.350282347741222e-01	 1.124220693549705e+00	 5.746274447892413e+00
 6.242504500950249e-01	 1.130240840402720e+00	 5.565943323123189e+00
 6.134302554064364e-01	 1.136149748865244e+00	 5.387309866900836e+00
 6.025693327347629e-01	 1.141947053792436e+00	 5.211788568762348e+00
 5.916693660604884e-01	 1.147632423125309e+00	 5.040753731110899e+00
 5.807320405246695e-01	 1.153205557810433e+00	 4.875526984909492e+00
 5.697590416414613e-01	 1.158666191697431e+00	 4.717365868477126e+00
 5.587520545173768e-01	 1.164014091414612e+00	 4.567453512853557e+00
 6.716488055921910e-01	 1.113051201124420e+00	 6.381370183068377e+00
 6.609356015039505e-01	 1.119445941513596e+00	 6.205330100593066e+00
 6.501746369133485e-01	 1.125729986642083e+00	 6.027006602365035e+00
 6.393675945950001e-01	 1.131902868676772e+00	 5.847750776079330e+00
 6.285161617168606e-01	 1.137964153202086e+00	 5.668912767731631e+00
 6.176220290274759e-01	 1.143913439207876e+00	 5.491825992285896e+00
 6.066868900470973e-01	 1.149750359054139e+00	 5.317792276586011e+00
 5.957124402634065e-01	 1.155474578412815e+00	 5.148068006629257e+00
 5.847003763325881e-01	 1.161085796186939e+00	 4.983851342419808e+00
 5.736523952864750e-01	 1.166583744407435e+00	 4.826270554531741e+00
 5.625701937464723e-01	 1.171968188107903e+00	 4.676373527284261e+00
 6.762072565761650e-01	 1.120605430810964e+00	 6.478585562287968e+00
 6.654213424416208e-01	 1.127043572022716e+00	 6.303350252421145e+00
 6.545873436562818e-01	 1.133370266689911e+00	 6.126091493616517e+00
 6.437069544156783e-01	 1.139585043804274e+00	 5.948075128124001e+00
 6.327818733384960e-01	 1.145687466001867e+00	 5.770562131514538e+00
 6.218138026483151e-01	 1.151677129550898e+00	 5.594792311597634e+00
 6.108044473592317e-01	 1.157553664316206e+00	 5.421968993520118e+00
 5.997555144661247e-01	 1.163316733700660e+00	 5.253244765968973e+00
 5.886687121403065e-01	 1.168966034563758e+00	 5.089708354084304e+00
 5.775457489312886e-01	 1.174501297117728e+00	 4.932372675173939e+00
 5.663883329753677e-01	 1.179922284801459e+00	 4.782164123668945e+00
 6.807657075601384e-01	 1.128159660497840e+00	 6.572774757585000e+00
 6.699070833792907e-01	 1.134641202532164e+00	 6.398446817326711e+00
 6.590000503992155e-01	 1.141010546738053e+00	 6.222259927545039e+00
 6.480463142363562e-01	 1.147267218932070e+00	 6.045408575475953e+00
 6.370475849601315e-01	 1.153410778801915e+00	 5.869078537088504e+00
 6.260055762691543e-01	 1.159440819894158e+00	 5.694430015710484e+00
 6.149220046713660e-01	 1.165356969578479e+00	 5.522581822946481e+00
 6.037985886688425e-01	 1.171158888988676e+00	 5.354596679761835e+00
 5.926370479480252e-01	 1.176846272940715e+00	 5.191467705859369e+00
 5.814391025761023e-01	 1.182418849828129e+00	 5.034106155517705e+00
 5.702064722042633e-01	 1.187876381495098e+00	 4.883330447968100e+00
 6.853241585443119e-01	 1.135713890184916e+00	 6.662071008326949e+00
 6.743928243171610e-01	 1.142238833041805e+00	 6.488753292570000e+00
 6.634127571423486e-01	 1.148650826786372e+00	 6.313653924108266e+00
 6.523856740572339e-01	 1.154949394060018e+00	 6.137909813149752e+00
 6.413132965819671e-01	 1.161134091602085e+00	 5.962645379557799e+00
 6.301973498901938e-01	 1.167204510237504e+00	 5.788955081890062e+00
 6.190395619837005e-01	 1.173160274840799e+00	 5.617887047089861e+00
 6.078416628717603e-01	 1.179001044276700e+00	 5.450427881803314e+00
 5.966053837559435e-01	 1.184726511317641e+00	 5.287488736104259e+00
 5.853324562211158e-01	 1.190336402538461e+00	 5.129892679993612e+00
 5.740246114333589e-01	 1.195830478188636e+00	 4.978363442486956e+00
 6.898826095288855e-01	 1.143268119872059e+00	 6.744609940559411e+00
 6.788785652554312e-01	 1.149836463551505e+00	 6.572404612097991e+00
 6.678254638858820e-01	 1.156291106834731e+00	 6.398415819837926e+00
 6.567250338785118e-01	 1.162631569187978e+00	 6.223736576509359e+00
 6.455790082042023e-01	 1.168857404402230e+00	 6.049443675879656e+00
 6.343891235116330e-01	 1.174968200580782e+00	 5.876579562128425e+00
 6.231571192964345e-01	 1.180963580103007e+00	 5.706135360559731e+00
 6.118847370750783e-01	 1.186843199564566e+00	 5.539035153878282e+00
 6.005737195642621e-01	 1.192606749694363e+00	 5.376121577604448e+00
 5.892258098665293e-01	 1.198253955248546e+00	 5.218142797311600e+00
 5.778427506628540e-01	 1.203784574881888e+00	 5.065740919340924e+00
 6.944410605140588e-01	 1.150822349559133e+00	 6.818531230806170e+00
 6.833643061943010e-01	 1.157434094061130e+00	 6.647538723832193e+00
 6.722381706300153e-01	 1.163931386882994e+00	 6.474689765160246e+00
 6.610643937003894e-01	 1.170313744315807e+00	 6.301047065043521e+00
 6.498447198270376e-01	 1.176580717202203e+00	 6.127653421387762e+00
 6.385808971336721e-01	 1.182731890923841e+00	 5.955512878573618e+00
 6.272746766097687e-01	 1.188766885364944e+00	 5.785573110701490e+00
 6.159278112789961e-01	 1.194685354852107e+00	 5.618709116902169e+00
 6.045420553731801e-01	 1.200486988070708e+00	 5.455708305213578e+00
 5.931191635125428e-01	 1.206171507958206e+00	 5.297257030154229e+00
 5.816608898929495e-01	 1.211738671574672e+00	 5.143928637585518e+00
 6.989995115000320e-01	 1.158376579246008e+00	 6.881980274643823e+00
 6.878500471339709e-01	 1.165031724570546e+00	 6.712298172605149e+00
 6.766508773749484e-01	 1.171571666931022e+00	 6.540623227991931e+00
 6.654037535230670e-01	 1.177995919443366e+00	 6.368001372806261e+00
 6.541104314506725e-01	 1.184304030001858e+00	 6.195454953142153e+00
 6.427726707565111e-01	 1.190495581266529e+00	 6.023963125725193e+00
 6.313922339239028e-01	 1.196570190626451e+00	 5.854443544442804e+00
 6.199708854837138e-01	 1.202527510139157e+00	 5.687735428082759e+00
 6.085103911828983e-01	 1.208367226446504e+00	 5.524584088854523e+00
 5.970125171593559e-01	 1.214089060667263e+00	 5.365626989385962e+00
 5.854790291238445e-01	 1.219692768266804e+00	 5.211381383842295e+00
 5.472976368268903e-01	 1.140151801338169e+00	 4.236630013164052e+00
 5.364828098656651e-01	 1.145280311567177e+00	 4.089403143354979e+00
 5.256379778529098e-01	 1.150297998733234e+00	 3.942561585155421e+00
 5.147647859436432e-01	 1.155204728767399e+00	 3.796747785554889e+00
 5.038648759321993e-01	 1.160000399033112e+00	 3.652508005104354e+00
 4.929398855297008e-01	 1.164684938103473e+00	 3.510289076636368e+00
 4.819914476518521e-01	 1.169258305519455e+00	 3.370436170726451e+00
 4.710211897176096e-01	 1.173720491529516e+00	 3.233191552539911e+00
 4.600307329592656e-01	 1.178071516811095e+00	 3.098694308059172e+00
 4.490216917444500e-01	 1.182311432174493e+00	 2.966981011357154e+00
 4.379956729105452e-01	 1.186440318249641e+00	 2.837987298617171e+00
 5.511157760577856e-01	 1.148105898029562e+00	 4.346127214024278e+00
 5.402255010909374e-01	 1.153270186534992e+00	 4.199482438869683e+00
 5.293050117468323e-01	 1.158322878837109e+00	 4.052269357745072e+00
 5.183559646576681e-01	 1.163263839931666e+00	 3.905277067818443e+00
 5.073800130715136e-01	 1.168092966466078e+00	 3.759196965051719e+00
 4.963788061247401e-01	 1.172810186515153e+00	 3.614619190438986e+00
 4.853539881248457e-01	 1.177415459337614e+00	 3.472030137351726e+00
 4.743071978442345e-01	 1.181908775113894e+00	 3.331811004097001e+00
 4.632400678254841e-01	 1.186290154665692e+00	 3.194237368802084e+00
 4.521542236986212e-01	 1.190559649157783e+00	 3.059479757110262e+00
 4.410512835108905e-01	 1.194717339782609e+00	 2.927605166897888e+00
 5.549339152878812e-01	 1.156059994721770e+00	 4.456883661137168e+00
 5.439681923154103e-01	 1.161260061503619e+00	 4.310330936073433e+00
 5.329720456399563e-01	 1.166347758941792e+00	 4.162377764990822e+00
 5.219471433708970e-01	 1.171322951096733e+00	 4.013950339385491e+00
 5.108951502100378e-01	 1.176185533899837e+00	 3.865874955985918e+00
 4.998177267189987e-01	 1.180935434927616e+00	 3.718874162155135e+00
 4.887165285970730e-01	 1.185572613156541e+00	 3.573564019483121e+00
 4.775932059701123e-01	 1.190097058699019e+00	 3.430452469065207e+00
 4.664494026909816e-01	 1.194508792521009e+00	 3.289938774634599e+00
 4.552867556521047e-01	 1.198807866141762e+00	 3.152314012754993e+00
 4.441068941105891e-01	 1.202994361316223e+00	 3.017762572698965e+00
 5.587520545173768e-01	 1.164014091414612e+00	 4.567453512853557e+00
 5.477108835392834e-01	 1.169249936472870e+00	 4.420579978211862e+00
 5.366390795324810e-01	 1.174372639047090e+00	 4.271588896762307e+00
 5.255383220835299e-01	 1.179382062262408e+00	 4.121534162577690e+00
 5.144102873479709e-01	 1.184278101334194e+00	 3.971366891596393e+00
 5.032566473126745e-01	 1.189060683340665e+00	 3.821931277524540e+00
 4.920790690687298e-01	 1.193729766976039e+00	 3.673961625802634e+00
 4.808792140954370e-01	 1.198285342284699e+00	 3.528080548459108e+00
 4.696587375559491e-01	 1.202727430376858e+00	 3.384798294998132e+00
 4.584192876050875e-01	 1.207056083126241e+00	 3.244513187158004e+00
 4.471625047098243e-01	 1.211271382850301e+00	 3.107513118483920e+00
 5.625701937464723e-01	 1.171968188107903e+00	 4.676373527284261e+00
 5.514535747627566e-01	 1.177239811442557e+00	 4.528841739168778e+00
 5.403061134246070e-01	 1.182397519152813e+00	 4.378584196187743e+00
 5.291295007957659e-01	 1.187441173428498e+00	 4.226773265900522e+00
 5.179254244855115e-01	 1.192370668768955e+00	 4.074474953013769e+00
 5.066955679059654e-01	 1.197185931754105e+00	 3.922644476805808e+00
 4.954416095400128e-01	 1.201886920795915e+00	 3.772123089362158e+00
 4.841652222204029e-01	 1.206473625870738e+00	 3.623636116706266e+00
 4.728680724205780e-01	 1.210946068233045e+00	 3.477792196869989e+00
 4.615518195577575e-01	 1.215304300111032e+00	 3.335083681288587e+00
 4.502181153087785e-01	 1.219548404384660e+00	 3.195888158674045e+00
 5.663883329753677e-01	 1.179922284801459e+00	 4.782164123668943e+00
 5.551962659860299e-01	 1.185229686412492e+00	 4.633710256670156e+00
 5.439731473165337e-01	 1.190422399258768e+00	 4.482025458467149e+00
 5.327206795078050e-01	 1.195500284594805e+00	 4.328391502460930e+00
 5.214405616228590e-01	 1.200463236203922e+00	 4.173979501046738e+00
 5.101344884990692e-01	 1.205311180167740e+00	 4.019845215271788e+00
 4.988041500111179e-01	 1.210044074615973e+00	 3.866925670997626e+00
 4.874512303452040e-01	 1.214661909456945e+00	 3.716037062856258e+00
 4.760774072850592e-01	 1.219164706089380e+00	 3.567873918862864e+00
 4.646843515103022e-01	 1.223552517095950e+00	 3.423009490520607e+00
 4.532737259076349e-01	 1.227825425919116e+00	 3.281897325679902e+00
 5.702064722042633e-01	 1.187876381495098e+00	 4.883330447968100e+00
 5.589389572093032e-01	 1.193219561382486e+00	 4.733762468536481e+00
 5.476401812084610e-01	 1.198447279364764e+00	 4.580555831849373e+00
 5.363118582198462e-01	 1.203559395761140e+00	 4.425092809952100e+00
 5.249556987602118e-01	 1.208555803638902e+00	 4.268639989678554e+00
 5.135734090921836e-01	 1.213436428581375e+00	 4.112343324931510e+00
 5.021666904822414e-01	 1.218201228436018e+00	 3.957224564202636e+00
 4.907372384700345e-01	 1.222850193043124e+00	 3.804179033751565e+00
 4.792867421495842e-01	 1.227383343945673e+00	 3.653974748046308e+00
 4.678168834629091e-01	 1.231800734080805e+00	 3.507252810663132e+00
 4.563293365065764e-01	 1.236102447453487e+00	 3.364529060911109e+00
 5.740246114333589e-01	 1.195830478188636e+00	 4.978363442486959e+00
 5.626816484327765e-01	 1.201209436352352e+00	 4.827559251837354e+00
 5.513072151005890e-01	 1.206472159470611e+00	 4.672800820669536e+00
 5.399030369320893e-01	 1.211618506927306e+00	 4.515562172136336e+00
 5.284708358977690e-01	 1.216648371073698e+00	 4.357195880761280e+00
 5.170123296855066e-01	 1.221561676994815e+00	 4.198927877417902e+00
 5.055292309535798e-01	 1.226358382255854e+00	 4.041853701399827e+00
 4.940232465950885e-01	 1.231038476629083e+00	 3.886936179071635e+00
 4.824960770143443e-01	 1.235601981801731e+00	 3.735004499359896e+00
 4.709494154157655e-01	 1.240048951065411e+00	 3.586754647547924e+00
 4.593849471057860e-01	 1.244379468987590e+00	 3.442751150534249e+00
 5.778427506628540e-01	 1.203784574881888e+00	 5.065740919340923e+00
 5.664243396566497e-01	 1.209199311321903e+00	 4.913646464817580e+00
 5.549742489931171e-01	 1.214497039576115e+00	 4.757369290353157e+00
 5.434942156447334e-01	 1.219677618093109e+00	 4.598466581750138e+00
 5.319859730357294e-01	 1.224740938508116e+00	 4.438367559855317e+00
 5.204512502792359e-01	 1.229686925407861e+00	 4.278368047991449e+00
 5.088917714253292e-01	 1.234515536075286e+00	 4.119626561539554e+00
 4.973092547205598e-01	 1.239226760214626e+00	 3.963161898163034e+00
 4.857054118795305e-01	 1.243820619657364e+00	 3.809852197506910e+00
 4.740819473690592e-01	 1.248297168049579e+00	 3.660435430008528e+00
 4.624405577054466e-01	 1.252656490521242e+00	 3.515511265761776e+00
 5.816608898929495e-01	 1.211738671574672e+00	 5.143928637585519e+00
 5.701670308811227e-01	 1.217189186290947e+00	 4.990555991462204e+00
 5.586412828862454e-01	 1.222521919681086e+00	 4.832854474294706e+00
 5.470853943579786e-01	 1.227736729258357e+00	 4.672456004772991e+00
 5.355011101742919e-01	 1.232833505941960e+00	 4.510857253159648e+00
 5.238901708735695e-01	 1.237812173820320e+00	 4.349413980605354e+00
 5.122543118976859e-01	 1.242672689894119e+00	 4.189336978969584e+00
 5.005952628466430e-01	 1.247415043799562e+00	 4.031689588573535e+00
 4.889147467453342e-01	 1.252039257512381e+00	 3.877386761206279e+00
 4.772144793229778e-01	 1.256545385033123e+00	 3.727195626096249e+00
 4.654961683057414e-01	 1.260933512054261e+00	 3.581737507462782e+00
 5.854790291238445e-01	 1.219692768266804e+00	 5.211381383842295e+00
 5.739097221063959e-01	 1.225179061259301e+00	 5.056806788584099e+00
 5.623083167801739e-01	 1.230546799785333e+00	 4.897834982524859e+00
 5.506765730720242e-01	 1.235795840422856e+00	 4.736164345990746e+00
 5.390162473136554e-01	 1.240926073375034e+00	 4.573349945483125e+00
 5.273290914687052e-01	 1.245937422231995e+00	 4.410797653985400e+00
 5.156168523708461e-01	 1.250829843712159e+00	 4.249759953515294e+00
 5.038812709735320e-01	 1.255603327383696e+00	 4.091333396213548e+00
 4.921240816119464e-01	 1.260257895366589e+00	 3.936457689701769e+00
 4.803470112777085e-01	 1.264793602015854e+00	 3.785916362387708e+00
 4.685517789068528e-01	 1.269210533586462e+00	 3.640338954897681e+00
 4.379956729105452e-01	 1.186440318249641e+00	 2.837987298617171e+00
 4.269561530751904e-01	 1.190457611461505e+00	 2.711810864032167e+00
 4.159028480248949e-01	 1.194364161598395e+00	 2.588798496944895e+00
 4.048373368592890e-01	 1.198160135813678e+00	 2.469184530407145e+00
 3.937611886467740e-01	 1.201845729649776e+00	 2.353118873154839e+00
 3.826759618280015e-01	 1.205421166648674e+00	 2.240671586891052e+00
 3.715832036341543e-01	 1.208886697948648e+00	 2.131838074820317e+00
 3.604844495203520e-01	 1.212242601867819e+00	 2.026790636179897e+00
 3.493812226144747e-01	 1.215489183475108e+00	 1.924562306099663e+00
 3.382750331816809e-01	 1.218626774149204e+00	 1.822947864174973e+00
 3.271673781048640e-01	 1.221655731126142e+00	 1.719671054552290e+00
 4.410512835108905e-01	 1.194717339782609e+00	 2.927605166897889e+00
 4.299347481340324e-01	 1.198762659033439e+00	 2.798864284781847e+00
 4.188043313717864e-01	 1.202696462627001e+00	 2.673604409400260e+00
 4.076616233401339e-01	 1.206518918882770e+00	 2.551958162808618e+00
 3.965082040538469e-01	 1.210230224707332e+00	 2.433969049293718e+00
 3.853456428258048e-01	 1.213830605202171e+00	 2.319596538970527e+00
 3.741754976812163e-01	 1.217320313257583e+00	 2.208721795878297e+00
 3.629993147870733e-01	 1.220699629133323e+00	 2.101322726364548e+00
 3.518186278971292e-01	 1.223968860026572e+00	 1.996753184478366e+00
 3.406349578126811e-01	 1.227128339627824e+00	 1.892716078723762e+00
 3.294498118594009e-01	 1.230178427665308e+00	 1.786772687263001e+00
 4.441068941105891e-01	 1.202994361316223e+00	 3.017762572698965e+00
 4.329133431922779e-01	 1.207067706605971e+00	 2.886634194676135e+00
 4.217058147181388e-01	 1.211028763656146e+00	 2.759241150406214e+00
 4.104859098205044e-01	 1.214877701952336e+00	 2.635627564965496e+00
 3.992552194605159e-01	 1.218614719765293e+00	 2.515743876137850e+00
 3.880153238232784e-01	 1.222240043755997e+00	 2.399452413608544e+00
 3.767677917280269e-01	 1.225753928566769e+00	 2.286533657553121e+00
 3.655141800536237e-01	 1.229156656398998e+00	 2.176780772693706e+00
 3.542560331796946e-01	 1.232448536578125e+00	 2.069803370845472e+00
 3.429948824436736e-01	 1.235629905106451e+00	 1.963331237444864e+00
 3.317322456140108e-01	 1.238701124204401e+00	 1.854780076290403e+00
 4.471625047098243e-01	 1.211271382850301e+00	 3.107513118483920e+00
 4.358919382501041e-01	 1.215372754178922e+00	 2.974201950236493e+00
 4.246072980641233e-01	 1.219361064685659e+00	 2.844829987349257e+00
 4.133101963005635e-01	 1.223236485022213e+00	 2.719365506338247e+00
 4.020022348669342e-01	 1.226999214823503e+00	 2.597678632662418e+00
 3.906850048205658e-01	 1.230649482310011e+00	 2.479547405742223e+00
 3.793600857747169e-01	 1.234187543876076e+00	 2.364664559978131e+00
 3.680290453201201e-01	 1.237613683664727e+00	 2.252668955668889e+00
 3.566934384622720e-01	 1.240928213129667e+00	 2.143310911112555e+00
 3.453548070747426e-01	 1.244131470585002e+00	 2.034490390166438e+00
 3.340146793687590e-01	 1.247223820743356e+00	 1.923493919126619e+00
 4.502181153087785e-01	 1.219548404384660e+00	 3.195888158674044e+00
 4.388705333076882e-01	 1.223677801752115e+00	 3.060627436596473e+00
 4.275087814099100e-01	 1.227693365715369e+00	 2.929471272016088e+00
 4.161344827804738e-01	 1.231595268092240e+00	 2.802324185752764e+00
 4.047492502732557e-01	 1.235383709881812e+00	 2.678988171118342e+00
 3.933546858178097e-01	 1.239058920864068e+00	 2.559169235939433e+00
 3.819523798214172e-01	 1.242621159185372e+00	 2.442484698946702e+00
 3.705439105866795e-01	 1.246070710930393e+00	 2.328471163313519e+00
 3.591308437449630e-01	 1.249407889681094e+00	 2.216854591563293e+00
 3.477147317059725e-01	 1.252633036063392e+00	 2.105871934970193e+00
 3.362971131237101e-01	 1.255746517282108e+00	 1.992696555689844e+00
 4.532737259076349e-01	 1.227825425919116e+00	 3.281897325679903e+00
 4.418491283652077e-01	 1.231982849325372e+00	 3.144949521192537e+00
 4.304102647556700e-01	 1.236025666745106e+00	 3.012244833878467e+00
 4.189587692603980e-01	 1.239954051162252e+00	 2.883635575857619e+00
 4.074962656796337e-01	 1.243768204940064e+00	 2.758867223881496e+00
 3.960243668151529e-01	 1.247468359418026e+00	 2.637585430483684e+00
 3.845446738682584e-01	 1.251054774494528e+00	 2.519343829690484e+00
 3.730587758534189e-01	 1.254527738195879e+00	 2.403612556214285e+00
 3.615682490278689e-01	 1.257887566232307e+00	 2.289993603926900e+00
 3.500746563374471e-01	 1.261134601541538e+00	 2.177135348349170e+00
 3.385795468789294e-01	 1.264269213820592e+00	 2.062151769542231e+00
 4.563293365065764e-01	 1.236102447453487e+00	 3.364529060911106e+00
 4.448277234228400e-01	 1.240287896898517e+00	 3.226186513590975e+00
 4.333117481015738e-01	 1.244357967774700e+00	 3.092210380256178e+00
 4.217830557404992e-01	 1.248312834232088e+00	 2.962411774805839e+00
 4.102432810862217e-01	 1.252152699998105e+00	 2.836490717482274e+00
 3.986940478127382e-01	 1.255877797971742e+00	 2.714043608226523e+00
 3.871369679153711e-01	 1.259488389803412e+00	 2.594571536666181e+00
 3.755736411204552e-01	 1.262984765461068e+00	 2.477489343698998e+00
 3.640056543110916e-01	 1.266367242783203e+00	 2.362267213921216e+00
 3.524345809692508e-01	 1.269636167019354e+00	 2.247920917106573e+00
 3.408619806344817e-01	 1.272791910358743e+00	 2.131604588828095e+00
 4.593849471057860e-01	 1.244379468987590e+00	 3.442751150534247e+00
 4.478063184807623e-01	 1.248592944471371e+00	 3.303336631164454e+00
 4.362132314477919e-01	 1.252690268803979e+00	 3.168407903039378e+00
 4.246073422209399e-01	 1.256671617301585e+00	 3.037745364820988e+00
 4.129902964931731e-01	 1.260537195055783e+00	 2.911014093482874e+00
 4.013637288107085e-01	 1.264287236525072e+00	 2.787771773898509e+00
 3.897292619628863e-01	 1.267922005111894e+00	 2.667477509072480e+00
 3.780885063879053e-01	 1.271441792725844e+00	 2.549501421912876e+00
 3.664430595947322e-01	 1.274846919333681e+00	 2.433194433110740e+00
 3.547945056014679e-01	 1.278137732496757e+00	 2.317849471917687e+00
 3.431444143904321e-01	 1.281314606896496e+00	 2.200781086949165e+00
 4.624405577054466e-01	 1.252656490521242e+00	 3.515511265761776e+00
 4.507849135391522e-01	 1.256897992043758e+00	 3.375378470352773e+00
 4.391147147944954e-01	 1.261022569832773e+00	 3.239858091669071e+00
 4.274316287018828e-01	 1.265030400370579e+00	 3.108709777334163e+00
 4.157373119006417e-01	 1.268921690112944e+00	 2.981573635887390e+00
 4.040334098092068e-01	 1.272696675077875e+00	 2.857978617580689e+00
 3.923215560109345e-01	 1.276355620419842e+00	 2.737351821831439e+00
 3.806033716558865e-01	 1.279898819990087e+00	 2.619028638057151e+00
 3.688804648788925e-01	 1.283326595883639e+00	 2.502273693925258e+00
 3.571544302341825e-01	 1.286639297973663e+00	 2.386522122481717e+00
 3.454268481468454e-01	 1.289837303433786e+00	 2.269388182993918e+00
 4.654961683057414e-01	 1.260933512054261e+00	 3.581737507462782e+00
 4.537635085981868e-01	 1.265203039615501e+00	 3.441271483248689e+00
 4.420161981418543e-01	 1.269354870860911e+00	 3.305562752086772e+00
 4.302559151834904e-01	 1.273389183438908e+00	 3.174359664388806e+00
 4.184843273087810e-01	 1.277306185169434e+00	 3.047286804784624e+00
 4.067030908083760e-01	 1.281106113630006e+00	 2.923853820051544e+00
 3.949138500596467e-01	 1.284789235727127e+00	 2.803465221788057e+00
 3.831182369245153e-01	 1.288355847253684e+00	 2.685431066252586e+00
 3.713178701636737e-01	 1.291806272432977e+00	 2.568978410179579e+00
 3.595143548674786e-01	 1.295140863449986e+00	 2.453519994189961e+00
 3.477092819037867e-01	 1.298359999970547e+00	 2.337113441930223e+00
 4.685517789068528e-01	 1.269210533586462e+00	 3.640338954897682e+00
 4.567421036580435e-01	 1.273508087186421e+00	 3.499956459267541e+00
 4.449176814900399e-01	 1.277687171888223e+00	 3.364505231383859e+00
 4.330802016659260e-01	 1.281747966506409e+00	 3.233731276029853e+00
 4.212313427177444e-01	 1.285690680225100e+00	 3.107252575940288e+00
 4.093727718083590e-01	 1.289515552181324e+00	 2.984568363748084e+00
 3.975061441091533e-01	 1.293222851033616e+00	 2.865069418889239e+00
 3.856331021939091e-01	 1.296812874516516e+00	 2.748049287470148e+00
 3.737552754491775e-01	 1.300285948981592e+00	 2.632716319315443e+00
 3.618742795014405e-01	 1.303642428925645e+00	 2.518403966249521e+00
 3.499917156613211e-01	 1.306882696506716e+00	 2.403624874578479e+00
 3.271673781048640e-01	 1.221655731126142e+00	 1.719671054552290e+00
 3.160597405328376e-01	 1.224576437301452e+00	 1.616629557441022e+00
 3.049535898338829e-01	 1.227389301550389e+00	 1.517211026395161e+00
 2.938503806459468e-01	 1.230094757443897e+00	 1.421326074726841e+00
 2.827515522679372e-01	 1.232693262489390e+00	 1.328878883697255e+00
 2.716585282229795e-01	 1.235185297629098e+00	 1.239776608299421e+00
 2.605727158386424e-01	 1.237571366730709e+00	 1.153937687841070e+00
 2.494955058442119e-01	 1.239851996070890e+00	 1.071299098552193e+00
 2.384282719850742e-01	 1.242027733812301e+00	 9.918225891679411e-01
 2.273723706542426e-01	 1.244099149474684e+00	 9.154999437118276e-01
 2.163291405410435e-01	 1.246066833400622e+00	 8.423573185376672e-01
 3.294498118594009e-01	 1.230178427665308e+00	 1.786772687263001e+00
 3.182646835330660e-01	 1.233119509705763e+00	 1.680982891875623e+00
 3.070810524527766e-01	 1.235951997476899e+00	 1.578982097127422e+00
 2.959003834045326e-01	 1.238676327574413e+00	 1.480655920181161e+00
 2.847241257282851e-01	 1.241292960697452e+00	 1.385890478342652e+00
 2.735537128781454e-01	 1.243802381143473e+00	 1.294581786199263e+00
 2.623905619996818e-01	 1.246205096295324e+00	 1.206644009188023e+00
 2.512360735243849e-01	 1.248501636101169e+00	 1.122016613553704e+00
 2.400916307813604e-01	 1.250692552547848e+00	 1.040670456484246e+00
 2.289585996262840e-01	 1.252778419128273e+00	 9.626128635871078e-01
 2.178383280876382e-01	 1.254759830303468e+00	 8.878917437688789e-01
 3.317322456140108e-01	 1.238701124204401e+00	 1.854780076290403e+00
 3.204696265334466e-01	 1.241662582109921e+00	 1.746403599974352e+00
 3.092085150718984e-01	 1.244514693403182e+00	 1.642091107578547e+00
 2.979503861634202e-01	 1.247257897704627e+00	 1.541682544540222e+00
 2.866966991890053e-01	 1.249892658905143e+00	 1.445025566612907e+00
 2.754488975337502e-01	 1.252419464657410e+00	 1.351984945852506e+00
 2.642084081612228e-01	 1.254838825859441e+00	 1.262450782580042e+00
 2.529766412051179e-01	 1.257151276130895e+00	 1.176345566099766e+00
 2.417549895782596e-01	 1.259357371282790e+00	 1.093630130894251e+00
 2.305448285989865e-01	 1.261457688781213e+00	 1.014308558488697e+00
 2.193475156349365e-01	 1.263452827205628e+00	 9.384320781521698e-01
 3.340146793687590e-01	 1.247223820743356e+00	 1.923493919126619e+00
 3.226745695340228e-01	 1.250205654513883e+00	 1.812792768381687e+00
 3.113359776912703e-01	 1.253077389329215e+00	 1.706528942961912e+00
 3.000003889226082e-01	 1.255839467834543e+00	 1.604476424932494e+00
 2.886692726500729e-01	 1.258492357112488e+00	 1.506424411084134e+00
 2.773440821897460e-01	 1.261036548170960e+00	 1.412186744456812e+00
 2.660262543231956e-01	 1.263472555423134e+00	 1.321610099271517e+00
 2.547172088863207e-01	 1.265800916160163e+00	 1.234580964949604e+00
 2.434183483756641e-01	 1.268022190017244e+00	 1.151031478977366e+00
 2.321310575722274e-01	 1.270136958433638e+00	 1.070944161929284e+00
 2.208567031828043e-01	 1.272145824107253e+00	 9.943556110275371e-01
 3.362971131237101e-01	 1.255746517282108e+00	 1.992696555689844e+00
 3.248795125348387e-01	 1.258748726917606e+00	 1.880033320340169e+00
 3.134634403109134e-01	 1.261640085254977e+00	 1.772268618247444e+00
 3.020503916820948e-01	 1.264421037964160e+00	 1.669090550656287e+00
 2.906418461114627e-01	 1.267092055319514e+00	 1.570210248712255e+00
 2.792392668460852e-01	 1.269653631684175e+00	 1.475371346416432e+00
 2.678441004855307e-01	 1.272106284986477e+00	 1.384358152256304e+00
 2.564577765679037e-01	 1.274450556189068e+00	 1.297002568197180e+00
 2.450817071734665e-01	 1.276687008751327e+00	 1.213189808917798e+00
 2.337172865458843e-01	 1.278816228085687e+00	 1.132862977836330e+00
 2.223658907311072e-01	 1.280838821008494e+00	 1.056026559610879e+00
 3.385795468789294e-01	 1.264269213820592e+00	 2.062151769542231e+00
 3.270844555359385e-01	 1.267291799321045e+00	 1.947989886762196e+00
 3.155909029308493e-01	 1.270202781180447e+00	 1.839265211224945e+00
 3.041003944418780e-01	 1.273002608093483e+00	 1.735560410747680e+00
 2.926144195731495e-01	 1.275691753526249e+00	 1.636489325808617e+00
 2.811344515027196e-01	 1.278270715197102e+00	 1.541706499015909e+00
 2.696619466481583e-01	 1.280740014549541e+00	 1.450915346325196e+00
 2.581983442497768e-01	 1.283100196217706e+00	 1.363875021790534e+00
 2.467450659715589e-01	 1.285351827485155e+00	 1.280406031965078e+00
 2.353035155198344e-01	 1.287495497737492e+00	 1.200394659831099e+00
 2.238750782797112e-01	 1.289531817909503e+00	 1.123796261369958e+00
 3.408619806344817e-01	 1.272791910358743e+00	 2.131604588828095e+00
 3.292893985373657e-01	 1.275834871724156e+00	 2.016508675007775e+00
 3.177183655510993e-01	 1.278765477105603e+00	 1.907455791517926e+00
 3.061503972019563e-01	 1.281584178222514e+00	 1.803903975999393e+00
 2.945869930351083e-01	 1.284291451732716e+00	 1.705350926202879e+00
 2.830296361596010e-01	 1.286887798709794e+00	 1.611343600245739e+00
 2.714797928110087e-01	 1.289373744112402e+00	 1.521486399448333e+00
 2.599389119318509e-01	 1.291749836246175e+00	 1.435447988747742e+00
 2.484084247698341e-01	 1.294016646218845e+00	 1.352966814138211e+00
 2.368897444939551e-01	 1.296174767389189e+00	 1.273855380465674e+00
 2.253842658284822e-01	 1.298224814810431e+00	 1.198003356220299e+00
 3.431444143904321e-01	 1.281314606896496e+00	 2.200781086949165e+00
 3.314943415391646e-01	 1.284377944126897e+00	 2.085417335469856e+00
 3.198458281716852e-01	 1.287328173030424e+00	 1.976759345735075e+00
 3.082003999623278e-01	 1.290165748351254e+00	 1.874121675688751e+00
 2.965595664973141e-01	 1.292891149938944e+00	 1.776867392917956e+00
 2.849248208166819e-01	 1.295504882222298e+00	 1.684417759150383e+00
 2.732976389740122e-01	 1.298007473675132e+00	 1.596260435889224e+00
 2.616794796140355e-01	 1.300399476274568e+00	 1.511956269497616e+00
 2.500717835681840e-01	 1.302681464952513e+00	 1.431144718626607e+00
 2.384759734681241e-01	 1.304854037040913e+00	 1.353547990881736e+00
 2.268934533772859e-01	 1.306917811711429e+00	 1.278973959017576e+00
 3.454268481468454e-01	 1.289837303433786e+00	 2.269388182993918e+00
 3.336992845413788e-01	 1.292921016529221e+00	 2.154524826076173e+00
 3.219732907926282e-01	 1.295890868954890e+00	 2.047076698944304e+00
 3.102504027229908e-01	 1.298747318479706e+00	 1.946196369263328e+00
 2.985321399597416e-01	 1.301490848144957e+00	 1.851094143650560e+00
 2.868200054739142e-01	 1.304121965734667e+00	 1.761047849040418e+00
 2.751154851370989e-01	 1.306641203237804e+00	 1.675411071434909e+00
 2.634200472962410e-01	 1.309049116302981e+00	 1.593619913764051e+00
 2.517351423665012e-01	 1.311346283686275e+00	 1.515198339320165e+00
 2.400622024422184e-01	 1.313533306692799e+00	 1.439762171340328e+00
 2.284026409259882e-01	 1.315610808612648e+00	 1.367021822793681e+00
 3.477092819037867e-01	 1.298359999970547e+00	 2.337113441930223e+00
 3.359042275440521e-01	 1.301464088931087e+00	 2.223621274802632e+00
 3.241007534139496e-01	 1.304453564878978e+00	 2.118290432636373e+00
 3.123004054839438e-01	 1.307328888607872e+00	 2.020093313217154e+00
 3.005047134223661e-01	 1.310090546350782e+00	 1.928069680351634e+00
 2.887151901312500e-01	 1.312739049246950e+00	 1.841336553904395e+00
 2.769333313001993e-01	 1.315274932800494e+00	 1.759096491103183e+00
 2.651606149783776e-01	 1.317698756331511e+00	 1.680644324378113e+00
 2.533985011646780e-01	 1.320011102420249e+00	 1.605372425877746e+00
 2.416484314161156e-01	 1.322212576344983e+00	 1.532774573038745e+00
 2.299118284744549e-01	 1.324303805514240e+00	 1.462448493166693e+00
 3.499917156613211e-01	 1.306882696506716e+00	 2.403624874578479e+00
 3.381091705472289e-01	 1.310007161332449e+00	 2.292477840292086e+00
 3.262282160356712e-01	 1.313016260802667e+00	 2.190264799344297e+00
 3.143504082451845e-01	 1.315910458735754e+00	 2.095760123377833e+00
 3.024772868851621e-01	 1.318690244556447e+00	 2.007815593174111e+00
 2.906103747886412e-01	 1.321356132759197e+00	 1.925370408327717e+00
 2.787511774632436e-01	 1.323908662363273e+00	 1.847459519674727e+00
 2.669011826603555e-01	 1.326348396360253e+00	 1.773220353391785e+00
 2.550618599626067e-01	 1.328675921154549e+00	 1.701898000719714e+00
 2.432346603896930e-01	 1.330891845997599e+00	 1.632848951616131e+00
 2.314210160225521e-01	 1.332996802416356e+00	 1.565543454323540e+00
 2.163291405410435e-01	 1.246066833400622e+00	 8.423573185376672e-01
 2.052980289624416e-01	 1.247931704324035e+00	 7.732396682629097e-01
 1.942822198586349e-01	 1.249694048834886e+00	 7.087375887617715e-01
 1.832830003551988e-01	 1.251354515916720e+00	 6.485217397045975e-01
 1.723016385666052e-01	 1.252913773224046e+00	 5.923100348388102e-01
 1.613393833298090e-01	 1.254372506529152e+00	 5.398685083472681e-01
 1.503974639547379e-01	 1.255731419166985e+00	 4.910115601635223e-01
 1.394770899915604e-01	 1.256991231478618e+00	 4.456016354722807e-01
 1.285794510145984e-01	 1.258152680253831e+00	 4.035483933746367e-01
 1.177057164227230e-01	 1.259216518173316e+00	 3.648074191375941e-01
 1.068570352560679e-01	 1.260183513251014e+00	 3.293785335948118e-01
 2.178383280876382e-01	 1.254759830303468e+00	 8.878917437688785e-01
 2.067302596266735e-01	 1.256637711216769e+00	 8.173547258035443e-01
 1.956376003958711e-01	 1.258412350457499e+00	 7.515647678232369e-01
 1.845616465002525e-01	 1.260084401536747e+00	 6.901770487194967e-01
 1.735036749011071e-01	 1.261654536766819e+00	 6.328997572759494e-01
 1.624649431477210e-01	 1.263123446704203e+00	 5.794946548404243e-01
 1.514466891261248e-01	 1.264491839590562e+00	 5.297769962529597e-01
 1.404501308247401e-01	 1.265760440792328e+00	 4.836148672509726e-01
 1.294764661167819e-01	 1.266929992239393e+00	 4.409279962641601e-01
 1.185268725592645e-01	 1.268001251863421e+00	 4.016860978899475e-01
 1.076025072084343e-01	 1.268974993036293e+00	 3.659068043951132e-01
 2.193475156349365e-01	 1.263452827205628e+00	 9.384320781521709e-01
 2.081624902916449e-01	 1.265343718108786e+00	 8.668374158176704e-01
 1.969929809338750e-01	 1.267130652079369e+00	 8.000624181250440e-01
 1.858402926460915e-01	 1.268814287156010e+00	 7.377531155253114e-01
 1.747057112363997e-01	 1.270395300308815e+00	 6.796144716718830e-01
 1.635905029664146e-01	 1.271874386878464e+00	 6.254106180730021e-01
 1.524959142982680e-01	 1.273252260013340e+00	 5.749644260516638e-01
 1.414231716586319e-01	 1.274529650105232e+00	 5.281564773450542e-01
 1.303734812196132e-01	 1.275707304224143e+00	 4.849234943036469e-01
 1.193480286963668e-01	 1.276785985552708e+00	 4.452562899492478e-01
 1.083479791612502e-01	 1.277766472820746e+00	 4.091972971351654e-01
 2.208567031828043e-01	 1.272145824107253e+00	 9.943556110275387e-01
 2.095947209572145e-01	 1.274049725000251e+00	 9.220797483960030e-01
 1.983483614725010e-01	 1.275848953700673e+00	 8.546331846224382e-01
 1.871189387925707e-01	 1.277544172774695e+00	 7.916591482347255e-01
 1.759077475723419e-01	 1.279136063850222e+00	 7.328659024701880e-01
 1.647160627857564e-01	 1.280625327052128e+00	 6.780266268558846e-01
 1.535451394710454e-01	 1.282012680435511e+00	 6.269786148964855e-01
 1.423962124931290e-01	 1.283298859417521e+00	 5.796218524267180e-01
 1.312704963230042e-01	 1.284484616208267e+00	 5.359170407501939e-01
 1.201691848339644e-01	 1.285570719241357e+00	 4.958831279110361e-01
 1.090934511144761e-01	 1.286557952604549e+00	 4.595944103308673e-01
 2.223658907311072e-01	 1.280838821008494e+00	 1.056026559610880e+00
 2.110269516232398e-01	 1.282755731891327e+00	 9.834614079438924e-01
 1.997037420116036e-01	 1.284567255321584e+00	 9.156680912564141e-01
 1.883975849395445e-01	 1.286274058392983e+00	 8.522934030277005e-01
 1.771097839087924e-01	 1.287876827391228e+00	 7.930554619607113e-01
 1.658416226056129e-01	 1.289376267225383e+00	 7.377432147065628e-01
 1.545943646443351e-01	 1.290773100857267e+00	 6.862152332350269e-01
 1.433692533281250e-01	 1.292068068729384e+00	 6.383978747499910e-01
 1.321675114268671e-01	 1.293261928191953e+00	 5.942828715542459e-01
 1.209903409719918e-01	 1.294355452929550e+00	 5.539244174110063e-01
 1.098389230680726e-01	 1.295349432387875e+00	 5.174358157368431e-01
 2.238750782797112e-01	 1.289531817909503e+00	 1.123796261369959e+00
 2.124591822895797e-01	 1.291461738782180e+00	 1.051349955415316e+00
 2.010591225510374e-01	 1.293285556942277e+00	 9.835467509943019e-01
 1.896762310868678e-01	 1.295003944011057e+00	 9.200433998935560e-01
 1.783118202456095e-01	 1.296617590932019e+00	 8.605744695727862e-01
 1.669671824258507e-01	 1.298127207398421e+00	 8.049514405017584e-01
 1.556435898180152e-01	 1.299533521278798e+00	 7.530610764054291e-01
 1.443422941635130e-01	 1.300837278041010e+00	 7.048631387882016e-01
 1.330645265311142e-01	 1.302039240175386e+00	 6.603875165471993e-01
 1.218114971103837e-01	 1.303140186617469e+00	 6.197308405308961e-01
 1.105843950219999e-01	 1.304140912170899e+00	 5.830526515996770e-01
 2.253842658284822e-01	 1.298224814810431e+00	 1.198003356220298e+00
 2.138914129560918e-01	 1.300167745672973e+00	 1.126101020327550e+00
 2.024145030906569e-01	 1.302003858562929e+00	 1.058637565652636e+00
 1.909548772343953e-01	 1.303733829629101e+00	 9.952861282102508e-01
 1.795138565826523e-01	 1.305358354472785e+00	 9.358043611175939e-01
 1.680927422463364e-01	 1.306878147571434e+00	 8.800330992462004e-01
 1.566928149919637e-01	 1.308293941700295e+00	 8.278942747591218e-01
 1.453153349991863e-01	 1.309606487352589e+00	 7.793881585090650e-01
 1.339615416356575e-01	 1.310816552158751e+00	 7.345900016329343e-01
 1.226326532490746e-01	 1.311924920305294e+00	 6.936461506368361e-01
 1.113298669762187e-01	 1.312932391953795e+00	 6.567697078556944e-01
 2.268934533772859e-01	 1.306917811711429e+00	 1.278973959017575e+00
 2.153236436226346e-01	 1.308873752563872e+00	 1.208058483029862e+00
 2.037698836303164e-01	 1.310722160183712e+00	 1.141297915981634e+00
 1.922335233819814e-01	 1.312463715247295e+00	 1.078388242637764e+00
 1.807158929197795e-01	 1.314099118013713e+00	 1.019116888446266e+00
 1.692183020669363e-01	 1.315629087744610e+00	 9.633609234185621e-01
 1.577420401660588e-01	 1.317054362121952e+00	 9.110844945832581e-01
 1.462883758350382e-01	 1.318375696664313e+00	 8.623355657255605e-01
 1.348585567404092e-01	 1.319593864142237e+00	 8.172420423980711e-01
 1.234538093879990e-01	 1.320709653993206e+00	 7.760073590535812e-01
 1.120753389306894e-01	 1.321723871736737e+00	 7.389056036442536e-01
 2.284026409259882e-01	 1.315610808612648e+00	 1.367021822793679e+00
 2.167558742890663e-01	 1.317579759455040e+00	 1.297554647679365e+00
 2.051252641698707e-01	 1.319440461804804e+00	 1.231874342458091e+00
 1.935121695294813e-01	 1.321193600865824e+00	 1.169706249772819e+00
 1.819179292568498e-01	 1.322839881554992e+00	 1.110874309971600e+00
 1.703438618875172e-01	 1.324380027918142e+00	 1.055298775330261e+00
 1.587912653401786e-01	 1.325814782543958e+00	 1.002993130240859e+00
 1.472614166709622e-01	 1.327144905976369e+00	 9.540602999377528e-01
 1.357555718452815e-01	 1.328371176126029e+00	 9.086882295402994e-01
 1.242749655270916e-01	 1.329494387681388e+00	 8.671449139480496e-01
 1.128208108853724e-01	 1.330515351519901e+00	 8.297729574946293e-01
 2.299118284744549e-01	 1.324303805514240e+00	 1.462448493166693e+00
 2.181881049552451e-01	 1.326285766346644e+00	 1.394910406351170e+00
 2.064806447091740e-01	 1.328158763426378e+00	 1.330702717218507e+00
 1.947908156767493e-01	 1.329923486484871e+00	 1.269586685988435e+00
 1.831199655937218e-01	 1.331580645096808e+00	 1.211429572467184e+00
 1.714694217079456e-01	 1.333130968092220e+00	 1.156201830913036e+00
 1.598404905142011e-01	 1.334575202966505e+00	 1.103973487939771e+00
 1.482344575068515e-01	 1.335914115288949e+00	 1.054909790050875e+00
 1.366525869501864e-01	 1.337148488110314e+00	 1.009266206492727e+00
 1.250961216662868e-01	 1.338279121370020e+00	 9.673828717839950e-01
 1.135662828402284e-01	 1.339306831303460e+00	 9.296785505226381e-01
 2.314210160225521e-01	 1.332996802416356e+00	 1.565543454323541e+00
 2.196203356210291e-01	 1.334991773238847e+00	 1.500435394688363e+00
 2.078360252480811e-01	 1.336877065048610e+00	 1.438108407535192e+00
 1.960694618236402e-01	 1.338653372104617e+00	 1.378366286863157e+00
 1.843220019302544e-01	 1.340321408639350e+00	 1.321126484551436e+00
 1.725949815280879e-01	 1.341881908267035e+00	 1.266416755322327e+00
 1.608897156880044e-01	 1.343335623389784e+00	 1.214370961507114e+00
 1.492074983425993e-01	 1.344683324602242e+00	 1.165224128348453e+00
 1.375496020550363e-01	 1.345925800095279e+00	 1.119306839594377e+00
 1.259172778055192e-01	 1.347063855059284e+00	 1.077039061684595e+00
 1.143117547952176e-01	 1.348098311087590e+00	 1.038923482956975e+00
 1.068570352560679e-01	 1.260183513251014e+00	 3.293785335948118e-01
 9.603636912063959e-02	 1.261054308314603e+00	 2.974811739679242e-01
 8.524295806728306e-02	 1.261829872349682e+00	 2.692152836223110e-01
 7.447786395788004e-02	 1.262511015365494e+00	 2.444789744908327e-01
 6.374212840766905e-02	 1.263098560464746e+00	 2.232060286234816e-01
 5.303677267716066e-02	 1.263593343301771e+00	 2.053631373725924e-01
 4.236279757853359e-02	 1.263996211543256e+00	 1.909470225530372e-01
 3.172118339627010e-02	 1.264308024331922e+00	 1.799814806746876e-01
 2.111288982178093e-02	 1.264529651753582e+00	 1.725143889802077e-01
 1.053885590176010e-02	 1.264661974307913e+00	 1.686147095631947e-01
 0.000000000000000e+00	 1.264705882383334e+00	 1.683695251804800e-01
 1.076025072084343e-01	 1.268974993036293e+00	 3.659068043951124e-01
 9.670635233149935e-02	 1.269851863070280e+00	 3.338010816027932e-01
 8.583764267762742e-02	 1.270632837710947e+00	 3.054347350893256e-01
 7.499744751660925e-02	 1.271318732618420e+00	 2.806896226228588e-01
 6.418681573034478e-02	 1.271910376637635e+00	 2.594853619255877e-01
 5.340677570400457e-02	 1.272408611252722e+00	 2.417762411618227e-01
 4.265833523177270e-02	 1.272814290043961e+00	 2.275480153454861e-01
 3.194248143692859e-02	 1.273128278147734e+00	 2.168146316809012e-01
 2.126018070601572e-02	 1.273351451719854e+00	 2.096149243535879e-01
 1.061237863683633e-02	 1.273484697402651e+00	 2.060093166940458e-01
 0.000000000000000e+00	 1.273528911796184e+00	 2.060765658090860e-01
 1.083479791612502e-01	 1.277766472820746e+00	 4.091972971351643e-01
 9.737633554267376e-02	 1.278649417825125e+00	 3.769468673980045e-01
 8.643232728813821e-02	 1.279435803071370e+00	 3.485286051214689e-01
 7.551703107535605e-02	 1.280126449870493e+00	 3.238063105071618e-01
 6.463150305290143e-02	 1.280722192809661e+00	 3.026837853925213e-01
 5.377677873061730e-02	 1.281223879202800e+00	 2.851013988618265e-01
 4.295387288470533e-02	 1.281632368543785e+00	 2.710325429898979e-01
 3.216377947725417e-02	 1.281948531962658e+00	 2.604800237236728e-01
 2.140747158995209e-02	 1.282173251685232e+00	 2.534724292615598e-01
 1.068590137172126e-02	 1.282307420496491e+00	 2.500605155628268e-01
 0.000000000000000e+00	 1.282351941208134e+00	 2.503136456161017e-01
 1.090934511144761e-01	 1.286557952604549e+00	 4.595944103308673e-01
 9.804631875415215e-02	 1.287446972579301e+00	 4.272397678615065e-01
 8.702701189883458e-02	 1.288238768431105e+00	 3.987939405366598e-01
 7.603661463416812e-02	 1.288934167121860e+00	 3.741011298690540e-01
 6.507619037541097e-02	 1.289534008980963e+00	 3.530479326020175e-01
 5.414678175708864e-02	 1.290039147152133e+00	 3.355595445346922e-01
 4.324941053743030e-02	 1.290450447042847e+00	 3.215958589863981e-01
 3.238507751734357e-02	 1.290768785776804e+00	 3.111475069658844e-01
 2.155476247367107e-02	 1.290995051649820e+00	 3.042318833172306e-01
 1.075942410646440e-02	 1.291130143589533e+00	 3.008892002449313e-01
 0.000000000000000e+00	 1.291174970619284e+00	 3.011786064303044e-01
 1.098389230680726e-01	 1.295349432387875e+00	 5.174358157368388e-01
 9.871630196592401e-02	 1.296244527332976e+00	 4.849948766690173e-01
 8.762169650973596e-02	 1.297041733790313e+00	 4.565221838567235e-01
 7.655619819309299e-02	 1.297741884372669e+00	 4.318410631160918e-01
 6.552087769794535e-02	 1.298345825151676e+00	 4.108197811139407e-01
 5.451678478350840e-02	 1.298854415100849e+00	 3.933673697565143e-01
 4.354494819004644e-02	 1.299268525541265e+00	 3.794293500428521e-01
 3.260637555729342e-02	 1.299589039590283e+00	 3.689834045716569e-01
 2.170205335725366e-02	 1.299816851613725e+00	 3.620350449642624e-01
 1.083294684111531e-02	 1.299952866681880e+00	 3.586133174287414e-01
 0.000000000000000e+00	 1.299998000029734e+00	 3.587665863251248e-01
 1.105843950219999e-01	 1.304140912170899e+00	 5.830526515996770e-01
 9.938628517797872e-02	 1.305042082086316e+00	 5.505213264753022e-01
 8.821638112086165e-02	 1.305844699149148e+00	 5.219993435641739e-01
 7.707578175217837e-02	 1.306549601623066e+00	 4.972881420632220e-01
 6.596556502057642e-02	 1.307157641321937e+00	 4.762367998197381e-01
 5.488678780996634e-02	 1.307669683049075e+00	 4.587374598825171e-01
 4.384048584265256e-02	 1.308086604039157e+00	 4.447206616771715e-01
 3.282767359720042e-02	 1.308409293403207e+00	 4.341506281987575e-01
 2.184934424078084e-02	 1.308638651577050e+00	 4.270205575356250e-01
 1.090646957572350e-02	 1.308775589773633e+00	 4.233479638471076e-01
 0.000000000000000e+00	 1.308821029439584e+00	 4.231701093489970e-01
 1.113298669762187e-01	 1.312932391953795e+00	 6.567697078556947e-01
 1.000562683903057e-01	 1.313839636839487e+00	 6.241224632084601e-01
 8.881106573223085e-02	 1.314647664507767e+00	 5.955061573695637e-01
 7.759536531147186e-02	 1.315357318873199e+00	 5.706996001813136e-01
 6.641025234337615e-02	 1.315969457491884e+00	 5.495320903119154e-01
 5.525679083655230e-02	 1.316484950996940e+00	 5.318784248033110e-01
 4.413602349534752e-02	 1.316904682536645e+00	 5.176538187570736e-01
 3.304897163716124e-02	 1.317229547215688e+00	 5.068087888411745e-01
 2.199663512433365e-02	 1.317460451539901e+00	 4.993240510484338e-01
 1.097999231033851e-02	 1.317598312864892e+00	 4.952054797924919e-01
 0.000000000000000e+00	 1.317644058848934e+00	 4.944791716511070e-01
 1.120753389306894e-01	 1.321723871736737e+00	 7.389056036442563e-01
 1.007262516028944e-01	 1.322637191592656e+00	 7.060960131979197e-01
 8.940575034386296e-02	 1.323450629866328e+00	 6.773182488171370e-01
 7.811494887102105e-02	 1.324165036123214e+00	 6.523280186715310e-01
 6.685493966641651e-02	 1.324781273661655e+00	 6.309345225477447e-01
 5.562679386335605e-02	 1.325300218944569e+00	 6.129950244443465e-01
 4.443156114823011e-02	 1.325722761033844e+00	 5.984093412073384e-01
 3.327026967727255e-02	 1.326049801027835e+00	 5.871143032412427e-01
 2.214392600799307e-02	 1.326282251502384e+00	 5.790782399337240e-01
 1.105351504500987e-02	 1.326421035955760e+00	 5.742955388998119e-01
 0.000000000000000e+00	 1.326467088257884e+00	 5.727813241702693e-01
 1.128208108853724e-01	 1.330515351519901e+00	 8.297729574946291e-01
 1.013962348157342e-01	 1.331434746345987e+00	 7.967342434658988e-01
 9.000043495577721e-02	 1.332253595224988e+00	 7.677062775338852e-01
 7.863453243087361e-02	 1.332972753373260e+00	 7.424214666522808e-01
 6.729962698976935e-02	 1.333593089831386e+00	 7.206688650748732e-01
 5.599679689046736e-02	 1.334115486892093e+00	 7.022882892593920e-01
 4.472709880139920e-02	 1.334540839530876e+00	 6.871643551147362e-01
 3.349156771763102e-02	 1.334870054839761e+00	 6.752204960727182e-01
 2.229121689184013e-02	 1.335104051464604e+00	 6.664130168873252e-01
 1.112703777978712e-02	 1.335243759046337e+00	 6.607252343676413e-01
 0.000000000000000e+00	 1.335290117666534e+00	 6.581617520449170e-01
 1.135662828402284e-01	 1.339306831303460e+00	 9.296785505226324e-01
 1.020662180288146e-01	 1.340232301099649e+00	 8.963241154985973e-01
 9.059511956799295e-02	 1.341056560583903e+00	 8.669360834170712e-01
 7.915411599107712e-02	 1.341780470623482e+00	 8.412236357268974e-01
 6.774431431350665e-02	 1.342404906001215e+00	 8.189559100672976e-01
 5.636679991797610e-02	 1.342930754839637e+00	 7.999556359367692e-01
 4.502263645495359e-02	 1.343358918027858e+00	 7.840926994363455e-01
 3.371286575833333e-02	 1.343690308651576e+00	 7.712776980938862e-01
 2.243850777595580e-02	 1.343925851426666e+00	 7.614555430228480e-01
 1.120056051471979e-02	 1.344066482136725e+00	 7.545991617851220e-01
 0.000000000000000e+00	 1.344113147074984e+00	 7.507033508964103e-01
 1.143117547952176e-01	 1.348098311087590e+00	 1.038923482956977e+00
 1.027362012421250e-01	 1.349029855853806e+00	 1.005147432793258e+00
 9.118980418052944e-02	 1.349859525943230e+00	 9.752688250354913e-01
 7.967369955167920e-02	 1.350588187874028e+00	 9.489739691905847e-01
 6.818900163770034e-02	 1.351216722171277e+00	 9.260125934079855e-01
 5.673680294597199e-02	 1.351746022787329e+00	 9.061909785495001e-01
 4.531817410899213e-02	 1.352176996524908e+00	 8.893650285153281e-01
 3.393416379947616e-02	 1.352510562463393e+00	 8.754333404488825e-01
 2.258579866042112e-02	 1.352747651388675e+00	 8.643303344930877e-01
 1.127408324985740e-02	 1.352889205227027e+00	 8.560194987145178e-01
 0.000000000000000e+00	 1.352936176483334e+00	 8.504868001275858e-01
 1.352936176483334e+00	 0.000000000000000e+00	 1.762421441610242e+01
 1.352889205227027e+00	 1.127408324985666e-02	 1.762230115341248e+01
 1.352747651388675e+00	 2.258579866042048e-02	 1.761940291324940e+01
 1.352510562463392e+00	 3.393416379947564e-02	 1.761557674979069e+01
 1.352176996524908e+00	 4.531817410899172e-02	 1.761085265016622e+01
 1.351746022787329e+00	 5.673680294597166e-02	 1.760523200054952e+01
 1.351216722171277e+00	 6.818900163770010e-02	 1.759868598779325e+01
 1.350588187874028e+00	 7.967369955167911e-02	 1.759115394053806e+01
 1.349859525943230e+00	 9.118980418052945e-02	 1.758254161527255e+01
 1.349029855853806e+00	 1.027362012421251e-01	 1.757271943410895e+01
 1.348098311087590e+00	 1.143117547952177e-01	 1.756152068239664e+01
 1.361760705896667e+00	 0.000000000000000e+00	 1.746335257195953e+01
 1.361713428270247e+00	 1.134761848484702e-02	 1.746092434101248e+01
 1.361570951146700e+00	 2.273311458624149e-02	 1.745769938124207e+01
 1.361332315808420e+00	 3.415549946404613e-02	 1.745372213114111e+01
 1.360996574185418e+00	 4.561376200799330e-02	 1.744901077524096e+01
 1.360562789420742e+00	 5.710686887879947e-02	 1.744355570099520e+01
 1.360030036440317e+00	 6.863376456377379e-02	 1.743731788171259e+01
 1.359397402526789e+00	 8.019337144721007e-02	 1.743022718916807e+01
 1.358663987896998e+00	 9.178458989584184e-02	 1.742218064113307e+01
 1.357828906282633e+00	 1.034062983596298e-01	 1.741304059040979e+01
 1.356891285513662e+00	 1.150573534881408e-01	 1.740263286337194e+01
 1.370585235310001e+00	 0.000000000000000e+00	 1.731004595059329e+01
 1.370537651313480e+00	 1.142115372004104e-02	 1.730717209421327e+01
 1.370394250904771e+00	 2.288043051240713e-02	 1.730368144878713e+01
 1.370154069153548e+00	 3.437683512904651e-02	 1.729960383964456e+01
 1.369816151846095e+00	 4.590934990746143e-02	 1.729494388445105e+01
 1.369379556054403e+00	 5.747693481208903e-02	 1.728967944727520e+01
 1.368843350709689e+00	 6.907852749027030e-02	 1.728376000866719e+01
 1.368206617179968e+00	 8.071304334309815e-02	 1.727710495504660e+01
 1.367468449851268e+00	 9.237937561142637e-02	 1.726960179237444e+01
 1.366627956712044e+00	 1.040763954773102e-01	 1.726110429048736e+01
 1.365684259940387e+00	 1.158029521811391e-01	 1.725143056595139e+01
 1.379409764723334e+00	 0.000000000000000e+00	 1.716396604001689e+01
 1.379361874356723e+00	 1.149468895538780e-02	 1.716071150967919e+01
 1.379217550662885e+00	 2.302774643883125e-02	 1.715701385481812e+01
 1.378975822498765e+00	 3.459817079436932e-02	 1.715288633258200e+01
 1.378635729506922e+00	 4.620493780727946e-02	 1.714831827571766e+01
 1.378196322688281e+00	 5.784700074572489e-02	 1.714327355023520e+01
 1.377656664979350e+00	 6.952329041708381e-02	 1.713768891848524e+01
 1.377015831833514e+00	 8.123271523925400e-02	 1.713147231058599e+01
 1.376272911805979e+00	 9.297416132721503e-02	 1.712450100887859e+01
 1.375427007141962e+00	 1.047464925951222e-01	 1.711661975155300e+01
 1.374477234367676e+00	 1.165485508741936e-01	 1.710763876313131e+01
 1.388234294136667e+00	 0.000000000000000e+00	 1.702479535105439e+01
 1.388186097399976e+00	 1.156822419083639e-02	 1.702122151553815e+01
 1.388040850421034e+00	 2.317506236542768e-02	 1.701737382929473e+01
 1.387797575844059e+00	 3.481950645990708e-02	 1.701324706749918e+01
 1.387455307167877e+00	 4.650052570733075e-02	 1.700881360508503e+01
 1.387013089322345e+00	 5.821706667959157e-02	 1.700402188444573e+01
 1.386469979249262e+00	 6.996805334410877e-02	 1.699879477737377e+01
 1.385825046487373e+00	 8.175238713558843e-02	 1.699302784378009e+01
 1.385077373761063e+00	 9.356894704313973e-02	 1.698658749154659e+01
 1.384226057572308e+00	 1.054165897130219e-01	 1.697930904339003e+01
 1.383270208795438e+00	 1.172941495672857e-01	 1.697099471822474e+01
 1.397058823550000e+00	 0.000000000000000e+00	 1.689222706929384e+01
 1.397010320443238e+00	 1.164175942633589e-02	 1.688839250752823e+01
 1.396864150179216e+00	 2.332237829211027e-02	 1.688445071547832e+01
 1.396619329189418e+00	 3.504084212555231e-02	 1.688037611258239e+01
 1.396274884828940e+00	 4.679611360749868e-02	 1.687612248720224e+01
 1.395829855956568e+00	 5.858713261357373e-02	 1.687162148083139e+01
 1.395283293519384e+00	 7.041281627123945e-02	 1.686678095477133e+01
 1.394634261141493e+00	 8.227205903201212e-02	 1.686148324139149e+01
 1.393881835716456e+00	 9.416373275913247e-02	 1.685558328396901e+01
 1.393025108003004e+00	 1.060866868309656e-01	 1.684890667069117e+01
 1.392063183223582e+00	 1.180397482603965e-01	 1.684124757008523e+01
 1.405883352963333e+00	 0.000000000000000e+00	 1.676596472014401e+01
 1.405834543486506e+00	 1.171529466183539e-02	 1.676192599882535e+01
 1.405687449937423e+00	 2.346969421879286e-02	 1.675794560636160e+01
 1.405441082534831e+00	 3.526217779119753e-02	 1.675397577155349e+01
 1.405094462490091e+00	 4.709170150766660e-02	 1.674995011058098e+01
 1.404646622590918e+00	 5.895719854755587e-02	 1.674578213422232e+01
 1.404096607789674e+00	 7.085757919837009e-02	 1.674136362515911e+01
 1.403443475795821e+00	 8.279173092843582e-02	 1.673656288702312e+01
 1.402686297672092e+00	 9.475851847512520e-02	 1.673122286879115e+01
 1.401824158433973e+00	 1.067567839489093e-01	 1.672515916978748e+01
 1.400856157652018e+00	 1.187853469535073e-01	 1.671815793230376e+01
 1.414707882376666e+00	 0.000000000000000e+00	 1.664572184642272e+01
 1.414658766529780e+00	 1.178882989728398e-02	 1.664153428295540e+01
 1.414510749695649e+00	 2.361701014538929e-02	 1.663757099463349e+01
 1.414262835880286e+00	 3.548351345673529e-02	 1.663376022244919e+01
 1.413914040151312e+00	 4.738728940771791e-02	 1.663001386698328e+01
 1.413463389225367e+00	 5.932726448142257e-02	 1.662622602517699e+01
 1.412909922060092e+00	 7.130234212539499e-02	 1.662227138417811e+01
 1.412252690450304e+00	 8.331140282477023e-02	 1.661800347342195e+01
 1.411490759627908e+00	 9.535330419104993e-02	 1.661325277813150e+01
 1.410623208865135e+00	 1.074268810668091e-01	 1.660782471914090e+01
 1.409649132080654e+00	 1.195309456465994e-01	 1.660149750577052e+01
 1.423532411789999e+00	 0.000000000000000e+00	 1.653122169793303e+01
 1.423482989573057e+00	 1.186236513263074e-02	 1.652694010922262e+01
 1.423334049453891e+00	 2.376432607181340e-02	 1.652305043559265e+01
 1.423084589225772e+00	 3.570484912205811e-02	 1.651945516968327e+01
 1.422733617812583e+00	 4.768287730753594e-02	 1.651604299432661e+01
 1.422280155859884e+00	 5.969733041505841e-02	 1.651268735545661e+01
 1.421723236330597e+00	 7.174710505220856e-02	 1.650924487843114e+01
 1.421061905104891e+00	 8.383107472092610e-02	 1.650555362839957e+01
 1.420295221583836e+00	 9.594808990683856e-02	 1.650143121744283e+01
 1.419422259296415e+00	 1.080969781846211e-01	 1.649667276300303e+01
 1.418442106509400e+00	 1.202765443396539e-01	 1.649104870402036e+01
 1.432356941203333e+00	 0.000000000000000e+00	 1.642219693251034e+01
 1.432307212616338e+00	 1.193590036782476e-02	 1.641787637011485e+01
 1.432157349212142e+00	 2.391164199797905e-02	 1.641411822245081e+01
 1.431906342571277e+00	 3.592618478705849e-02	 1.641079750881764e+01
 1.431553195473883e+00	 4.797846520700406e-02	 1.640777823252324e+01
 1.431096922494441e+00	 6.006739634834795e-02	 1.640491199656245e+01
 1.430536550601150e+00	 7.219186797870504e-02	 1.640203644837941e+01
 1.429871119759527e+00	 8.435074661681413e-02	 1.639897355378075e+01
 1.429099683539813e+00	 9.654287562242309e-02	 1.639552770223746e+01
 1.428221309727733e+00	 1.087670753023014e-01	 1.639148364767263e+01
 1.427235080938167e+00	 1.210221430326522e-01	 1.638660429081090e+01
 1.441181470616666e+00	 0.000000000000000e+00	 1.631838932804843e+01
 1.441131435659620e+00	 1.200943560281512e-02	 1.631408580017142e+01
 1.440980648970397e+00	 2.405895792380007e-02	 1.631051907349479e+01
 1.440728095916789e+00	 3.614752045162897e-02	 1.630753500349836e+01
 1.440372773135193e+00	 4.827405310600565e-02	 1.630497149169853e+01
 1.439913689129008e+00	 6.043746228117578e-02	 1.630265715077611e+01
 1.439349864871708e+00	 7.263663090477876e-02	 1.630040978377298e+01
 1.438680334414161e+00	 8.487041851234511e-02	 1.629803467682226e+01
 1.437904145495773e+00	 9.713766133773551e-02	 1.629532270712394e+01
 1.437020360159012e+00	 1.094371724198062e-01	 1.629204826981114e+01
 1.436028055366862e+00	 1.217677417255753e-01	 1.628796702940958e+01
 1.348098311087590e+00	 1.143117547952177e-01	 1.756152068239664e+01
 1.347063855059284e+00	 1.259172778055186e-01	 1.754899681789496e+01
 1.345925800095279e+00	 1.375496020550358e-01	 1.753531353406261e+01
 1.344683324602242e+00	 1.492074983425989e-01	 1.752040760639537e+01
 1.343335623389784e+00	 1.608897156880040e-01	 1.750417033336019e+01
 1.341881908267035e+00	 1.725949815280876e-01	 1.748644540199838e+01
 1.340321408639350e+00	 1.843220019302541e-01	 1.746702678857630e+01
 1.338653372104616e+00	 1.960694618236400e-01	 1.744565671371419e+01
 1.336877065048610e+00	 2.078360252480808e-01	 1.742202367309936e+01
 1.334991773238847e+00	 2.196203356210290e-01	 1.739576056655818e+01
 1.332996802416356e+00	 2.314210160225521e-01	 1.736644294990981e+01
 1.356891285513662e+00	 1.150573534881408e-01	 1.740263286337194e+01
 1.355850082243650e+00	 1.267385735496547e-01	 1.739097413607464e+01
 1.354704604313630e+00	 1.384467696614800e-01	 1.737820984173589e+01
 1.353454024771420e+00	 1.501807046049924e-01	 1.736429222791329e+01
 1.352097533174766e+00	 1.619391192404801e-01	 1.734912836250722e+01
 1.350634336191817e+00	 1.737207327044974e-01	 1.733257785943087e+01
 1.349063658201715e+00	 1.855242426247840e-01	 1.731445062908825e+01
 1.347384741894797e+00	 1.973483253529379e-01	 1.729450467354286e+01
 1.345596848871830e+00	 2.091916362150056e-01	 1.727244394802996e+01
 1.343699260241742e+00	 2.210528097801407e-01	 1.724791631222569e+01
 1.341691277217250e+00	 2.329304601474621e-01	 1.722051159643196e+01
 1.365684259940387e+00	 1.158029521811391e-01	 1.725143056595139e+01
 1.364636309428726e+00	 1.275598692937682e-01	 1.724055991764889e+01
 1.363483408532734e+00	 1.393439372678097e-01	 1.722861453443965e+01
 1.362224724941377e+00	 1.511539108671872e-01	 1.721556161158749e+01
 1.360859442960541e+00	 1.629885227926834e-01	 1.720132365409804e+01
 1.359386764117389e+00	 1.748464838805716e-01	 1.718577606163738e+01
 1.357805907764853e+00	 1.867264833189294e-01	 1.716874472734726e+01
 1.356116111685718e+00	 1.986271888818178e-01	 1.715000367089097e+01
 1.354316632695745e+00	 2.105472471814965e-01	 1.712927272792679e+01
 1.352406747245272e+00	 2.224852839388230e-01	 1.710621532006710e+01
 1.350385752018702e+00	 2.344399042719690e-01	 1.708043633122414e+01
 1.374477234367676e+00	 1.165485508741936e-01	 1.710763876313131e+01
 1.373422536614409e+00	 1.283811650378647e-01	 1.709749675818793e+01
 1.372262212752476e+00	 1.402411048740537e-01	 1.708628909289484e+01
 1.370995425111989e+00	 1.521271171292333e-01	 1.707399748022995e+01
 1.369621352746975e+00	 1.640379263446819e-01	 1.706055962854188e+01
 1.368139192043613e+00	 1.759722350563939e-01	 1.704586668473188e+01
 1.366548157328623e+00	 1.879287240127860e-01	 1.702976067972768e+01
 1.364847481477240e+00	 1.999060524103841e-01	 1.701203199703040e+01
 1.363036416520218e+00	 2.119028581476623e-01	 1.699241688707803e+01
 1.361114234249305e+00	 2.239177580971832e-01	 1.697059505212858e+01
 1.359080226820593e+00	 2.359493483961734e-01	 1.694618732831494e+01
 1.383270208795438e+00	 1.172941495672857e-01	 1.697099471822475e+01
 1.382208763800598e+00	 1.292024607819500e-01	 1.696153884512562e+01
 1.381041016972741e+00	 1.411382724802404e-01	 1.695100577281289e+01
 1.379766125283133e+00	 1.531003233911800e-01	 1.693939139663113e+01
 1.378383262533936e+00	 1.650873298965438e-01	 1.692664849353078e+01
 1.376891619970350e+00	 1.770979862320484e-01	 1.691268402236082e+01
 1.375290406892884e+00	 1.891309647064503e-01	 1.689735641413339e+01
 1.373578851269221e+00	 2.011849159387414e-01	 1.688047287348295e+01
 1.371756200345110e+00	 2.132584691136113e-01	 1.686178671461039e+01
 1.369821721253712e+00	 2.253502322553288e-01	 1.684099475706512e+01
 1.367774701622807e+00	 2.374587925201763e-01	 1.681773480877487e+01
 1.392063183223582e+00	 1.180397482603965e-01	 1.684124757008523e+01
 1.390994990987188e+00	 1.300237565260295e-01	 1.683245154757376e+01
 1.389819821193415e+00	 1.420354400863985e-01	 1.682254720049847e+01
 1.388536825454683e+00	 1.540735296530771e-01	 1.681154436619684e+01
 1.387145172321294e+00	 1.661367334483376e-01	 1.679941085500477e+01
 1.385644047897464e+00	 1.782237374076190e-01	 1.678606960634185e+01
 1.384032656457494e+00	 1.903332054000184e-01	 1.677139582170679e+01
 1.382310221061520e+00	 2.024637794669941e-01	 1.675521409624602e+01
 1.380475984170284e+00	 2.146140800794518e-01	 1.673729557273100e+01
 1.378529208258362e+00	 2.267827064133670e-01	 1.671735514395165e+01
 1.376469176425223e+00	 2.389682366440784e-01	 1.669504873170083e+01
 1.400856157652018e+00	 1.187853469535073e-01	 1.671815793230376e+01
 1.399781218174077e+00	 1.308450522701092e-01	 1.671001101959790e+01
 1.398598625414386e+00	 1.429326076925566e-01	 1.670070598132462e+01
 1.397307525626517e+00	 1.550467359149742e-01	 1.669026645179091e+01
 1.395907082108914e+00	 1.671861370001314e-01	 1.667867533957995e+01
 1.394396475824816e+00	 1.793494885831896e-01	 1.666587183794262e+01
 1.392774906022312e+00	 1.915354460935865e-01	 1.665174839827330e+01
 1.391041590853995e+00	 2.037426429952470e-01	 1.663614768876910e+01
 1.389195767995604e+00	 2.159696910452924e-01	 1.661885956265248e+01
 1.387236695263126e+00	 2.282151805714052e-01	 1.659961806262460e+01
 1.385163651227726e+00	 2.404776807679804e-01	 1.657809849049493e+01
 1.409649132080654e+00	 1.195309456465994e-01	 1.660149750577052e+01
 1.408567445361161e+00	 1.316663480141944e-01	 1.659400381636612e+01
 1.407377429635538e+00	 1.438297752987433e-01	 1.658528432051800e+01
 1.406078225798511e+00	 1.560199421769210e-01	 1.657537640025241e+01
 1.404668991896667e+00	 1.682355405519934e-01	 1.656427822793898e+01
 1.403148903752267e+00	 1.804752397588441e-01	 1.655194562933479e+01
 1.401517155587198e+00	 1.927376867872509e-01	 1.653828889509760e+01
 1.399772960646505e+00	 2.050215065236042e-01	 1.652316956329951e+01
 1.397915551820929e+00	 2.173253020112413e-01	 1.650639719786616e+01
 1.395944182267874e+00	 2.296476547295507e-01	 1.648772619027066e+01
 1.393858126030195e+00	 2.419871248919833e-01	 1.646685261420817e+01
 1.418442106509400e+00	 1.202765443396539e-01	 1.649104870402036e+01
 1.417353672548340e+00	 1.324876437582909e-01	 1.648422652261261e+01
 1.416156233856758e+00	 1.447269429049873e-01	 1.647609365572024e+01
 1.414848925970540e+00	 1.569931484389670e-01	 1.646670128007959e+01
 1.413430901684418e+00	 1.692849441039919e-01	 1.645606309870882e+01
 1.411901331679679e+00	 1.816009909346664e-01	 1.644415205478255e+01
 1.410259405152009e+00	 1.939399274811075e-01	 1.643089697854728e+01
 1.408504330438909e+00	 2.063003700521705e-01	 1.641617919023489e+01
 1.406635335646124e+00	 2.186809129774071e-01	 1.639982908444503e+01
 1.404651669272474e+00	 2.310801288879110e-01	 1.638162272399173e+01
 1.402552600832516e+00	 2.434965690161877e-01	 1.636127847372864e+01
 1.427235080938167e+00	 1.210221430326522e-01	 1.638660429081090e+01
 1.426139899735509e+00	 1.333089395024044e-01	 1.638048539288477e+01
 1.424935038077931e+00	 1.456241105113170e-01	 1.637295430081804e+01
 1.423619626142480e+00	 1.579663547011619e-01	 1.636407612980034e+01
 1.422192811472035e+00	 1.703343476561950e-01	 1.635388048237308e+01
 1.420653759606916e+00	 1.827267421107406e-01	 1.634235801114531e+01
 1.419001654716606e+00	 1.951421681752528e-01	 1.632945689828068e+01
 1.417235700231067e+00	 2.075792335810503e-01	 1.631507927513699e+01
 1.415355119471049e+00	 2.200365239438981e-01	 1.629907760807313e+01
 1.413359156276798e+00	 2.325126030465932e-01	 1.628125107908838e+01
 1.411247075634568e+00	 2.450060131406946e-01	 1.626134199260695e+01
 1.436028055366862e+00	 1.217677417255753e-01	 1.628796702940959e+01
 1.434926126922566e+00	 1.341302352465405e-01	 1.628259600306962e+01
 1.433713842298945e+00	 1.465212781177613e-01	 1.627569510055884e+01
 1.432390326314207e+00	 1.589395609635554e-01	 1.626734361657021e+01
 1.430954721259390e+00	 1.713837512086713e-01	 1.625758752479006e+01
 1.429406187533840e+00	 1.838524932871505e-01	 1.624643588729650e+01
 1.427743904280846e+00	 1.963444088697827e-01	 1.623385716359321e+01
 1.425967070022837e+00	 2.088580971103483e-01	 1.621977544307921e+01
 1.424074903295569e+00	 2.213921349108228e-01	 1.620406662751443e+01
 1.422066643280715e+00	 2.339450772057049e-01	 1.618655459281810e+01
 1.419941550436235e+00	 2.465154572656048e-01	 1.616700736231980e+01
 1.332996802416356e+00	 2.314210160225521e-01	 1.736644294990981e+01
 1.330891845997599e+00	 2.432346603896922e-01	 1.733617594299528e+01
 1.328675921154549e+00	 2.550618599626060e-01	 1.730698034654965e+01
 1.326348396360253e+00	 2.669011826603550e-01	 1.727822951205047e+01
 1.323908662363273e+00	 2.787511774632431e-01	 1.724923265633453e+01
 1.321356132759197e+00	 2.906103747886408e-01	 1.721923417162360e+01
 1.318690244556446e+00	 3.024772868851618e-01	 1.718741323794852e+01
 1.315910458735754e+00	 3.143504082451844e-01	 1.715288377214674e+01
 1.313016260802667e+00	 3.262282160356711e-01	 1.711469474857793e+01
 1.310007161332449e+00	 3.381091705472291e-01	 1.707183092751350e+01
 1.306882696506716e+00	 3.499917156613212e-01	 1.702321402779798e+01
 1.341691277217250e+00	 2.329304601474621e-01	 1.722051159643196e+01
 1.339572591215119e+00	 2.448211590379683e-01	 1.719234624157220e+01
 1.337342212996833e+00	 2.567255015481719e-01	 1.716543431429233e+01
 1.334999506916314e+00	 2.686420462563683e-01	 1.713913346696410e+01
 1.332543859748294e+00	 2.805693326785685e-01	 1.711273542191351e+01
 1.329974681263546e+00	 2.925058816467714e-01	 1.708546510057011e+01
 1.327291404798392e+00	 3.044501957057145e-01	 1.705648005459966e+01
 1.324493487817822e+00	 3.164007595280839e-01	 1.702487023457132e+01
 1.321580412471606e+00	 3.283560403481451e-01	 1.698965813276189e+01
 1.318551686142743e+00	 3.403144884137317e-01	 1.694979933759287e+01
 1.315406841987608e+00	 3.522745374565047e-01	 1.690418353791081e+01
 1.350385752018702e+00	 2.344399042719690e-01	 1.708043633122413e+01
 1.348253336433106e+00	 2.464076576858904e-01	 1.705406336535848e+01
 1.346008504839481e+00	 2.583891431334531e-01	 1.702910919327655e+01
 1.343650617472627e+00	 2.703829098521834e-01	 1.700492512922517e+01
 1.341179057133447e+00	 2.823874878937942e-01	 1.698079461758147e+01
 1.338593229767909e+00	 2.944013885049102e-01	 1.695593215752201e+01
 1.335892565040231e+00	 3.064231045263880e-01	 1.692948252877504e+01
 1.333076516899666e+00	 3.184511108112181e-01	 1.690052035544180e+01
 1.330144564140208e+00	 3.304838646609647e-01	 1.686805004601416e+01
 1.327096210952599e+00	 3.425198062806841e-01	 1.683100614869244e+01
 1.323930987467973e+00	 3.545573592522309e-01	 1.678825416190130e+01
 1.359080226820593e+00	 2.359493483961734e-01	 1.694618732831493e+01
 1.356934081651459e+00	 2.479941563335470e-01	 1.692132875437909e+01
 1.354674796682413e+00	 2.600527847185212e-01	 1.689803256586708e+01
 1.352301728029138e+00	 2.721237734478502e-01	 1.687565304662451e+01
 1.349814254518708e+00	 2.842056431089465e-01	 1.685347453120104e+01
 1.347211778272284e+00	 2.962968953630575e-01	 1.683071010122946e+01
 1.344493725281991e+00	 3.083960133471566e-01	 1.680650058148155e+01
 1.341659545981341e+00	 3.205014620945352e-01	 1.677991387408397e+01
 1.338708715808558e+00	 3.326116889740540e-01	 1.674994467061138e+01
 1.335640735762127e+00	 3.447251241479888e-01	 1.671551458283916e+01
 1.332455132947942e+00	 3.568401810483847e-01	 1.667547273381569e+01
 1.367774701622807e+00	 2.374587925201763e-01	 1.681773480877487e+01
 1.365614826870076e+00	 2.495806549810267e-01	 1.679414214048790e+01
 1.363341088525549e+00	 2.617164263034472e-01	 1.677222863371845e+01
 1.360952838585789e+00	 2.738646370434186e-01	 1.675136080289363e+01
 1.358449451904044e+00	 2.860237983240513e-01	 1.673083299899902e+01
 1.355830326776671e+00	 2.981924022212138e-01	 1.670986585364136e+01
 1.353094885523699e+00	 3.103689221679942e-01	 1.668760502085662e+01
 1.350242575062906e+00	 3.225518133779834e-01	 1.666312025670499e+01
 1.347272867476741e+00	 3.347395132873366e-01	 1.663540487802806e+01
 1.344185260571436e+00	 3.469304420155475e-01	 1.660337564289971e+01
 1.340979278427648e+00	 3.591230028448507e-01	 1.656587309626912e+01
 1.376469176425223e+00	 2.389682366440784e-01	 1.669504873170083e+01
 1.374295572088858e+00	 2.511671536284180e-01	 1.667250125422047e+01
 1.372007380368809e+00	 2.633800678883028e-01	 1.665171793619107e+01
 1.369603949142525e+00	 2.756055006389392e-01	 1.663208674328803e+01
 1.367084649289429e+00	 2.878419535391354e-01	 1.661292113383346e+01
 1.364448875281071e+00	 3.000879090793797e-01	 1.659345822628970e+01
 1.361696045765385e+00	 3.123418309888749e-01	 1.657285726202088e+01
 1.358825604144416e+00	 3.246021646615113e-01	 1.655019840498675e+01
 1.355837019144840e+00	 3.368673376007368e-01	 1.652448192146761e+01
 1.352729785380635e+00	 3.491357598832633e-01	 1.649462778417460e+01
 1.349503423907224e+00	 3.614058246415133e-01	 1.645947574615808e+01
 1.385163651227726e+00	 2.404776807679804e-01	 1.657809849049493e+01
 1.382976317307702e+00	 2.527536522758093e-01	 1.655640153573174e+01
 1.380673672212114e+00	 2.650437094731589e-01	 1.653651707178079e+01
 1.378255059699290e+00	 2.773463642344620e-01	 1.651786370225818e+01
 1.375719846674832e+00	 2.896601087542244e-01	 1.649978305477247e+01
 1.373067423785480e+00	 3.019834159375556e-01	 1.648153764736125e+01
 1.370297206007076e+00	 3.143147398097730e-01	 1.646230904715189e+01
 1.367408633225929e+00	 3.266525159450666e-01	 1.644119636459681e+01
 1.364401170812940e+00	 3.389951619141786e-01	 1.641721512817440e+01
 1.361274310189836e+00	 3.513410777510383e-01	 1.638929658580602e+01
 1.358027569386798e+00	 3.636886464382575e-01	 1.635628748039479e+01
 1.393858126030195e+00	 2.419871248919833e-01	 1.646685261420818e+01
 1.391657062526507e+00	 2.543401509232892e-01	 1.644583584963969e+01
 1.389339964055382e+00	 2.667073510580869e-01	 1.642663842243196e+01
 1.386906170256031e+00	 2.790872278300369e-01	 1.640871873311811e+01
 1.384355044060224e+00	 2.914782639693448e-01	 1.639145561792657e+01
 1.381685972289901e+00	 3.038789227957421e-01	 1.637414588942727e+01
 1.378898366248802e+00	 3.162876486306630e-01	 1.635600216577114e+01
 1.375991662307500e+00	 3.287028672285981e-01	 1.633615103362217e+01
 1.372965322481124e+00	 3.411229862275858e-01	 1.631363159153658e+01
 1.369818834999145e+00	 3.535463956187748e-01	 1.628739442200900e+01
 1.366551714866505e+00	 3.659714682349678e-01	 1.625630104166288e+01
 1.402552600832516e+00	 2.434965690161877e-01	 1.636127847372864e+01
 1.400337807745173e+00	 2.559266495709461e-01	 1.634079420360738e+01
 1.398006255898535e+00	 2.683709926431582e-01	 1.632208988060863e+01
 1.395557280812689e+00	 2.808280914257144e-01	 1.630467283962543e+01
 1.392990241445578e+00	 2.932964191845226e-01	 1.628796814848231e+01
 1.390304520794330e+00	 3.057744296539397e-01	 1.627131579780378e+01
 1.387499526490589e+00	 3.182605574515185e-01	 1.625396817523486e+01
 1.384574691389187e+00	 3.307532185120538e-01	 1.623508787092921e+01
 1.381529474149479e+00	 3.432508105408824e-01	 1.621374586299049e+01
 1.378363359808673e+00	 3.557517134863754e-01	 1.618892013313386e+01
 1.375075860346475e+00	 3.682542900315289e-01	 1.615949476419581e+01
 1.411247075634568e+00	 2.450060131406946e-01	 1.626134199260695e+01
 1.409018552963599e+00	 2.575131482188688e-01	 1.624126347050193e+01
 1.406672547741491e+00	 2.700346342284438e-01	 1.622287457900613e+01
 1.404208391369210e+00	 2.825689550215446e-01	 1.620574070939104e+01
 1.401625438830864e+00	 2.951145743997843e-01	 1.618934217388561e+01
 1.398923069298769e+00	 3.076699365121487e-01	 1.617307101951556e+01
 1.396100686732467e+00	 3.202334662723139e-01	 1.615622812142184e+01
 1.393157720471047e+00	 3.328035697953820e-01	 1.613802060445505e+01
 1.390093625818086e+00	 3.453786348539923e-01	 1.611755964373572e+01
 1.386907884618530e+00	 3.579570313537424e-01	 1.609385869656918e+01
 1.383600005826839e+00	 3.705371118278250e-01	 1.606583179433001e+01
 1.419941550436235e+00	 2.465154572656048e-01	 1.616700736231980e+01
 1.417699298181683e+00	 2.590996468671456e-01	 1.614722711397813e+01
 1.415338839584173e+00	 2.716982758140153e-01	 1.612899062279055e+01
 1.412859501925539e+00	 2.843098186175775e-01	 1.611193044904108e+01
 1.410260636216053e+00	 2.969327296151559e-01	 1.609559115812625e+01
 1.407541617803216e+00	 3.095654433703699e-01	 1.607942573283987e+01
 1.404701846974463e+00	 3.222063750930234e-01	 1.606279225961013e+01
 1.401740749553137e+00	 3.348539210785311e-01	 1.604495093943330e+01
 1.398657777487031e+00	 3.475064591668399e-01	 1.602506147626992e+01
 1.395452409428825e+00	 3.601623492207781e-01	 1.600218089749220e+01
 1.392124151307731e+00	 3.728199336237416e-01	 1.597511938472194e+01
 1.306882696506716e+00	 3.499917156613212e-01	 1.702321402779798e+01
 1.303642428925645e+00	 3.618742795014395e-01	 1.697276266859086e+01
 1.300285948981592e+00	 3.737552754491766e-01	 1.692418589336188e+01
 1.296812874516516e+00	 3.856331021939083e-01	 1.687526102510086e+01
 1.293222851033617e+00	 3.975061441091527e-01	 1.682513899684025e+01
 1.289515552181324e+00	 4.093727718083583e-01	 1.677350437870350e+01
 1.285690680225100e+00	 4.212313427177439e-01	 1.672007546243661e+01
 1.281747966506409e+00	 4.330802016659257e-01	 1.666460624341165e+01
 1.277687171888223e+00	 4.449176814900397e-01	 1.660688816177563e+01
 1.273508087186421e+00	 4.567421036580434e-01	 1.654675157545604e+01
 1.269210533586462e+00	 4.685517789068530e-01	 1.648406693830423e+01
 1.315406841987608e+00	 3.522745374565047e-01	 1.690418353791081e+01
 1.312145439753444e+00	 3.642346053473769e-01	 1.685691837276984e+01
 1.308767067160938e+00	 3.761930951192264e-01	 1.681173202034711e+01
 1.305271339559416e+00	 3.881483950168897e-01	 1.676601052251315e+01
 1.301657900139864e+00	 4.000988788759703e-01	 1.671907555899961e+01
 1.297926420422076e+00	 4.120429066822527e-01	 1.667061088440407e+01
 1.294076600729533e+00	 4.239788251482766e-01	 1.662033377672453e+01
 1.290108170651366e+00	 4.359049683068131e-01	 1.656799713339992e+01
 1.286020889490769e+00	 4.478196581209375e-01	 1.651339131954876e+01
 1.281814546699208e+00	 4.597212051103917e-01	 1.645634573984725e+01
 1.277488962295819e+00	 4.716079089938833e-01	 1.639673010606620e+01
 1.323930987467973e+00	 3.545573592522309e-01	 1.678825416190130e+01
 1.320648450580642e+00	 3.665949311939358e-01	 1.674408184422132e+01
 1.317248185339625e+00	 3.786309147899633e-01	 1.670203279712420e+01
 1.313729804601611e+00	 3.906636878406111e-01	 1.665927497953994e+01
 1.310092949245371e+00	 4.026916136435698e-01	 1.661530762071371e+01
 1.306337288662063e+00	 4.147130415569600e-01	 1.656981278300407e+01
 1.302462521233183e+00	 4.267263075796452e-01	 1.652250600426984e+01
 1.298468374795530e+00	 4.387297349485515e-01	 1.647313851761287e+01
 1.294354607092516e+00	 4.507216347526958e-01	 1.642149921603147e+01
 1.290121006211195e+00	 4.627003065636054e-01	 1.636741633209875e+01
 1.285767391004374e+00	 4.746640390817800e-01	 1.631075880336612e+01
 1.332455132947942e+00	 3.568401810483847e-01	 1.667547273381569e+01
 1.329151461407391e+00	 3.689552570409886e-01	 1.663428226229855e+01
 1.325729303517818e+00	 3.810687344612502e-01	 1.659504077247152e+01
 1.322188269643277e+00	 3.931789806649302e-01	 1.655499416238247e+01
 1.318527998350322e+00	 4.052843484118061e-01	 1.651376529788005e+01
 1.314748156901475e+00	 4.173831764323361e-01	 1.647103360871966e+01
 1.310848441736247e+00	 4.294737900117074e-01	 1.642651210194983e+01
 1.306828578939100e+00	 4.415545015910020e-01	 1.637994971530565e+01
 1.302688324693665e+00	 4.536236113851781e-01	 1.633113340788270e+01
 1.298427465722582e+00	 4.656794080175501e-01	 1.627988995682046e+01
 1.294045819712330e+00	 4.777201691704104e-01	 1.622608742931764e+01
 1.340979278427648e+00	 3.591230028448507e-01	 1.656587309626912e+01
 1.337654472233839e+00	 3.713155828884063e-01	 1.652752339702484e+01
 1.334210421695680e+00	 3.835065541329500e-01	 1.649069604607354e+01
 1.330646734684588e+00	 3.956942734897049e-01	 1.645309546713753e+01
 1.326963047454904e+00	 4.078770831805354e-01	 1.641436635829039e+01
 1.323159025140505e+00	 4.200533113082371e-01	 1.637418451093986e+01
 1.319234362238919e+00	 4.322212724443209e-01	 1.633225954471848e+01
 1.315188783082273e+00	 4.443792682340243e-01	 1.628833740476587e+01
 1.311022042294415e+00	 4.565255880182477e-01	 1.624220258831703e+01
 1.306733925233569e+00	 4.686585094720913e-01	 1.619368006787901e+01
 1.302324248419886e+00	 4.807762992596409e-01	 1.614263687888340e+01
 1.349503423907224e+00	 3.614058246415133e-01	 1.645947574615808e+01
 1.346157483060137e+00	 3.736759087360607e-01	 1.642367366754755e+01
 1.342691539873378e+00	 3.859443738049259e-01	 1.638892641873547e+01
 1.339105199725725e+00	 3.982095663147932e-01	 1.635349407375707e+01
 1.335398096559300e+00	 4.104698179496136e-01	 1.631701638111216e+01
 1.331569893379343e+00	 4.227234461845191e-01	 1.627916442098172e+01
 1.327620282741396e+00	 4.349687548773435e-01	 1.623964350136055e+01
 1.323548987225249e+00	 4.472040348774795e-01	 1.619819580976456e+01
 1.319355759894965e+00	 4.594275646517680e-01	 1.615460278592149e+01
 1.315040384744357e+00	 4.716376109270947e-01	 1.610868718122119e+01
 1.310602677127242e+00	 4.838324293493378e-01	 1.606031477131484e+01
 1.358027569386798e+00	 3.636886464382575e-01	 1.635628748039479e+01
 1.354660493886436e+00	 3.760362345838234e-01	 1.632263872441577e+01
 1.351172658051076e+00	 3.883821934770403e-01	 1.628964754307069e+01
 1.347563664766861e+00	 4.007248591400526e-01	 1.625609310059425e+01
 1.343833145663696e+00	 4.130625527188962e-01	 1.622160891699777e+01
 1.339980761618180e+00	 4.253935810610378e-01	 1.618586021944145e+01
 1.336006203243873e+00	 4.377162373106330e-01	 1.614854701073705e+01
 1.331909191368224e+00	 4.500288015212276e-01	 1.610940688632079e+01
 1.327689477495516e+00	 4.623295412856020e-01	 1.606821756353710e+01
 1.323346844255144e+00	 4.746167123824256e-01	 1.602479908744005e+01
 1.318881105834598e+00	 4.868885594393678e-01	 1.597901567794202e+01
 1.366551714866505e+00	 3.659714682349678e-01	 1.625630104166289e+01
 1.363163504712884e+00	 3.783965604315659e-01	 1.622433765164497e+01
 1.359653776228939e+00	 3.908200131491567e-01	 1.619276307464068e+01
 1.356022129808173e+00	 4.032401519653414e-01	 1.616078375951137e+01
 1.352268194768276e+00	 4.156552874882393e-01	 1.612802564879481e+01
 1.348391629857210e+00	 4.280637159376496e-01	 1.609414690411602e+01
 1.344392123746545e+00	 4.404637197440472e-01	 1.605884115850110e+01
 1.340269395511398e+00	 4.528535681651291e-01	 1.602184050976799e+01
 1.336023195096266e+00	 4.652315179196131e-01	 1.598291821720288e+01
 1.331653303766132e+00	 4.775958138379501e-01	 1.594189106409601e+01
 1.327159534542153e+00	 4.899446895295974e-01	 1.589862134934172e+01
 1.375075860346475e+00	 3.682542900315289e-01	 1.615949476419581e+01
 1.371666515539633e+00	 3.807568862791604e-01	 1.612867754472553e+01
 1.368134894407131e+00	 3.932578328211374e-01	 1.609816482352834e+01
 1.364480594849838e+00	 4.057554447905173e-01	 1.606744551152531e+01
 1.360703243873228e+00	 4.182480222574983e-01	 1.603613655283130e+01
 1.356802498096622e+00	 4.307338508142103e-01	 1.600388775847076e+01
 1.352778044249608e+00	 4.432112021774436e-01	 1.597038525426412e+01
 1.348629599654967e+00	 4.556783348090447e-01	 1.593535466210787e+01
 1.344356912697415e+00	 4.681334945536647e-01	 1.589856397515955e+01
 1.339959763277518e+00	 4.805749152935332e-01	 1.585982608780359e+01
 1.335437963250109e+00	 4.930008196198934e-01	 1.581900094191109e+01
 1.383600005826839e+00	 3.705371118278250e-01	 1.606583179433000e+01
 1.380169526366831e+00	 3.831172121264778e-01	 1.603555365996695e+01
 1.376616012585818e+00	 3.956956524928459e-01	 1.600573290632614e+01
 1.372939059892033e+00	 4.082707376154379e-01	 1.597594622296786e+01
 1.369138292978735e+00	 4.208407570265293e-01	 1.594580006075196e+01
 1.365213366336608e+00	 4.334039856905756e-01	 1.591493452063012e+01
 1.361163964753259e+00	 4.459586846106806e-01	 1.588302700919368e+01
 1.356989803799132e+00	 4.585031014528347e-01	 1.584979561964089e+01
 1.352690630299162e+00	 4.710354711876198e-01	 1.581500219691099e+01
 1.348266222789505e+00	 4.835540167490409e-01	 1.577845504609404e+01
 1.343716391958665e+00	 4.960569497101225e-01	 1.574001124387336e+01
 1.392124151307731e+00	 3.728199336237416e-01	 1.597511938472193e+01
 1.388672537194630e+00	 3.854775379733900e-01	 1.594484956408328e+01
 1.385097130765164e+00	 3.981334721641446e-01	 1.591533589852180e+01
 1.381397524934934e+00	 4.107860304399616e-01	 1.588614232213885e+01
 1.377573342084982e+00	 4.234334917951880e-01	 1.585686322188162e+01
 1.373624234577360e+00	 4.360741205666020e-01	 1.582712755286876e+01
 1.369549885257692e+00	 4.487061670436154e-01	 1.579660271402382e+01
 1.365350007944089e+00	 4.613278680963596e-01	 1.576499814086136e+01
 1.361024347901708e+00	 4.739374478213423e-01	 1.573206857234130e+01
 1.356572682302292e+00	 4.865331182043387e-01	 1.569761694906440e+01
 1.351994820668021e+00	 4.991130798001510e-01	 1.566149690073978e+01
 1.269210533586462e+00	 4.685517789068530e-01	 1.648406693830423e+01
 1.264793602015855e+00	 4.803470112777081e-01	 1.641864190656263e+01
 1.260257895366589e+00	 4.921240816119458e-01	 1.635043202592739e+01
 1.255603327383696e+00	 5.038812709735316e-01	 1.627956196160785e+01
 1.250829843712159e+00	 5.156168523708458e-01	 1.620620189147917e+01
 1.245937422231995e+00	 5.273290914687045e-01	 1.613056671967938e+01
 1.240926073375035e+00	 5.390162473136549e-01	 1.605291485084369e+01
 1.235795840422856e+00	 5.506765730720238e-01	 1.597354650816757e+01
 1.230546799785333e+00	 5.623083167801735e-01	 1.589280158074364e+01
 1.225179061259301e+00	 5.739097221063956e-01	 1.581105698806317e+01
 1.219692768266804e+00	 5.854790291238445e-01	 1.572872355220117e+01
 1.277488962295819e+00	 4.716079089938833e-01	 1.639673010606620e+01
 1.273043221278675e+00	 4.834800757957715e-01	 1.633437985366721e+01
 1.268477930472135e+00	 4.953339620991682e-01	 1.626926370410397e+01
 1.263793003058634e+00	 5.071678377562655e-01	 1.620148571211733e+01
 1.258988384328630e+00	 5.189799645111296e-01	 1.613119585656883e+01
 1.254064052017868e+00	 5.307685967163623e-01	 1.605858930499073e+01
 1.249020016626222e+00	 5.425319820631296e-01	 1.598390522279636e+01
 1.243856321717579e+00	 5.542683623240222e-01	 1.590742510934834e+01
 1.238573044200203e+00	 5.659759741082082e-01	 1.582947064541597e+01
 1.233170294587080e+00	 5.776530496282919e-01	 1.575040103908392e+01
 1.227648217235732e+00	 5.892978174782922e-01	 1.567060985990089e+01
 1.285767391004374e+00	 4.746640390817800e-01	 1.631075880336612e+01
 1.281292840540695e+00	 4.866131403147009e-01	 1.625138947280022e+01
 1.276697965576881e+00	 4.985438425872536e-01	 1.618928708185365e+01
 1.271982678732776e+00	 5.104544045398592e-01	 1.612453101474076e+01
 1.267146924944311e+00	 5.223430766522678e-01	 1.605724707352032e+01
 1.262190681802957e+00	 5.342081019648687e-01	 1.598760680373604e+01
 1.257113959876638e+00	 5.460477168134459e-01	 1.591582634821462e+01
 1.251916803011547e+00	 5.578601515768560e-01	 1.584216481017693e+01
 1.246599288614339e+00	 5.696436314370714e-01	 1.576692210922781e+01
 1.241161527914155e+00	 5.813963771510109e-01	 1.569043631641313e+01
 1.235603666203993e+00	 5.931166058335577e-01	 1.561308045735569e+01
 1.294045819712330e+00	 4.777201691704104e-01	 1.622608742931764e+01
 1.289542459802115e+00	 4.897462048343620e-01	 1.616961468501557e+01
 1.284918000681028e+00	 5.017537230760660e-01	 1.611045636332231e+01
 1.280172354406320e+00	 5.137409713241714e-01	 1.604866314068043e+01
 1.275305465559397e+00	 5.257061887941143e-01	 1.598433269068807e+01
 1.270317311587458e+00	 5.376476072140717e-01	 1.591760908114647e+01
 1.265207903126474e+00	 5.495634515644462e-01	 1.584868168222388e+01
 1.259977284304949e+00	 5.614519408303607e-01	 1.577778356579361e+01
 1.254625533027926e+00	 5.733112887665924e-01	 1.570518937849786e+01
 1.249152761240702e+00	 5.851397046743750e-01	 1.563121267380268e+01
 1.243559115171751e+00	 5.969353941894570e-01	 1.555620269123394e+01
 1.302324248419886e+00	 4.807762992596409e-01	 1.614263687888340e+01
 1.297792079063135e+00	 4.928792693546206e-01	 1.608898551079950e+01
 1.293138035784776e+00	 5.049636035654682e-01	 1.603271143461217e+01
 1.288362030079466e+00	 5.170275381090620e-01	 1.597383260148672e+01
 1.283464006174087e+00	 5.290693009365243e-01	 1.591241462804137e+01
 1.278443941371567e+00	 5.410871124638198e-01	 1.584857027530625e+01
 1.273301846375924e+00	 5.530791863159725e-01	 1.578245842120192e+01
 1.268037765597974e+00	 5.650437300843711e-01	 1.571428250544265e+01
 1.262651777441146e+00	 5.769789460965996e-01	 1.564428842835019e+01
 1.257143994566896e+00	 5.888830321982061e-01	 1.557276188787102e+01
 1.251514564139175e+00	 6.007541825458070e-01	 1.550002514211922e+01
 1.310602677127242e+00	 4.838324293493378e-01	 1.606031477131484e+01
 1.306041698323956e+00	 4.960123338753425e-01	 1.600941831494076e+01
 1.301358070888324e+00	 5.081734840553237e-01	 1.595597812513658e+01
 1.296551705752413e+00	 5.203141048943898e-01	 1.589997542698703e+01
 1.291622546788580e+00	 5.324324130793512e-01	 1.584143987179358e+01
 1.286570571155480e+00	 5.445266177139613e-01	 1.578044910864477e+01
 1.281395789625182e+00	 5.565949210678663e-01	 1.571712783133516e+01
 1.276098246890808e+00	 5.686355193387226e-01	 1.565164627833258e+01
 1.270678021854183e+00	 5.806466034269213e-01	 1.558421816615822e+01
 1.265135227892915e+00	 5.926263597223278e-01	 1.551509803945173e+01
 1.259470013106432e+00	 6.045729709024250e-01	 1.544457802412512e+01
 1.318881105834598e+00	 4.868885594393678e-01	 1.597901567794202e+01
 1.314291317584775e+00	 4.991453983963934e-01	 1.593081605031458e+01
 1.309578105991872e+00	 5.113833645454955e-01	 1.588016846743816e+01
 1.304741381425359e+00	 5.236006716800142e-01	 1.582701344121078e+01
 1.299781087403072e+00	 5.357955252224491e-01	 1.577134076654142e+01
 1.294697200939394e+00	 5.479661229643449e-01	 1.571318919643219e+01
 1.289489732874439e+00	 5.601106558199700e-01	 1.565264557364871e+01
 1.284158728183644e+00	 5.722273085932503e-01	 1.558984339541550e+01
 1.278704266267219e+00	 5.843142607573861e-01	 1.552496079032666e+01
 1.273126461218933e+00	 5.963696872465615e-01	 1.545821788966890e+01
 1.267425462073689e+00	 6.083917592591278e-01	 1.538987357859664e+01
 1.327159534542153e+00	 4.899446895295974e-01	 1.589862134934172e+01
 1.322540936845796e+00	 5.022784629176393e-01	 1.585306850062812e+01
 1.317798141095619e+00	 5.145932450358471e-01	 1.580518095553727e+01
 1.312931057098506e+00	 5.268872384657945e-01	 1.575485453639807e+01
 1.307939628017762e+00	 5.391586373656728e-01	 1.570203530502274e+01
 1.302823830723504e+00	 5.514056282148184e-01	 1.564671935240886e+01
 1.297583676123889e+00	 5.636263905721249e-01	 1.558895202566359e+01
 1.292219209476668e+00	 5.758190978477895e-01	 1.552882656726384e+01
 1.286730510680439e+00	 5.879819180878233e-01	 1.546648214461435e+01
 1.281117694545127e+00	 6.001130147707301e-01	 1.540210125097104e+01
 1.275380911041114e+00	 6.122105476157323e-01	 1.533590646215619e+01
 1.335437963250109e+00	 4.930008196198934e-01	 1.581900094191109e+01
 1.330790556107215e+00	 5.054115274389456e-01	 1.577605252217277e+01
 1.326018176199766e+00	 5.178031255262414e-01	 1.573090080187522e+01
 1.321120732772049e+00	 5.301738052515904e-01	 1.568339294517573e+01
 1.316098168632849e+00	 5.425217495088762e-01	 1.563342741559728e+01
 1.310950460508004e+00	 5.548451334652303e-01	 1.558095389167420e+01
 1.305677619373726e+00	 5.671421253241734e-01	 1.552597259982911e+01
 1.300279690770070e+00	 5.794108871021756e-01	 1.546853303821452e+01
 1.294756755094026e+00	 5.916495754180610e-01	 1.540873206819318e+01
 1.289108927871674e+00	 6.038563422946560e-01	 1.534671135334214e+01
 1.283336360008872e+00	 6.160293359720556e-01	 1.528265412934090e+01
 1.343716391958665e+00	 4.960569497101225e-01	 1.574001124387336e+01
 1.339040175369236e+00	 5.085445919601784e-01	 1.569963228462694e+01
 1.334238211304513e+00	 5.210130060165420e-01	 1.565720019291356e+01
 1.329310408446192e+00	 5.334603720372607e-01	 1.561250951097995e+01
 1.324256709248529e+00	 5.458848616519133e-01	 1.556540724754879e+01
 1.319077090293094e+00	 5.582846387154288e-01	 1.551579293095286e+01
 1.313771562624141e+00	 5.706578600759569e-01	 1.546361805886883e+01
 1.308340172064038e+00	 5.830026763562437e-01	 1.540888491694171e+01
 1.302782999508162e+00	 5.953172327479281e-01	 1.535164474162682e+01
 1.297100161198749e+00	 6.075996698181616e-01	 1.529199520589849e+01
 1.291291808977132e+00	 6.198481243279141e-01	 1.523007721006444e+01
 1.351994820668021e+00	 4.991130798001510e-01	 1.566149690073978e+01
 1.347289794632056e+00	 5.116776564812034e-01	 1.562365951094971e+01
 1.342458246410059e+00	 5.242228865066122e-01	 1.558393854344669e+01
 1.337500084121130e+00	 5.367469388226648e-01	 1.554207195680115e+01
 1.332415249865001e+00	 5.492479737946389e-01	 1.549785145430162e+01
 1.327203720078967e+00	 5.617241439652626e-01	 1.545112268635134e+01
 1.321865505875329e+00	 5.741735948273180e-01	 1.540178482817369e+01
 1.316400653358761e+00	 5.865944656098289e-01	 1.534978950361183e+01
 1.310809243923032e+00	 5.989848900772532e-01	 1.529513902894443e+01
 1.305091394526529e+00	 6.113429973410692e-01	 1.523788395406984e+01
 1.299247257946061e+00	 6.236669126831257e-01	 1.517811988212588e+01
 1.219692768266804e+00	 5.854790291238445e-01	 1.572872355220116e+01
 1.214089060667263e+00	 5.970125171593550e-01	 1.564395393066949e+01
 1.208367226446505e+00	 6.085103911828973e-01	 1.555488080814737e+01
 1.202527510139158e+00	 6.199708854837129e-01	 1.546197839859376e+01
 1.196570190626451e+00	 6.313922339239018e-01	 1.536575417834289e+01
 1.190495581266530e+00	 6.427726707565107e-01	 1.526674338844603e+01
 1.184304030001858e+00	 6.541104314506720e-01	 1.516550303089419e+01
 1.177995919443366e+00	 6.654037535230667e-01	 1.506260537126795e+01
 1.171571666931022e+00	 6.766508773749481e-01	 1.495863096397821e+01
 1.165031724570545e+00	 6.878500471339707e-01	 1.485416121991640e+01
 1.158376579246009e+00	 6.989995115000320e-01	 1.474977053999971e+01
 1.227648217235732e+00	 5.892978174782922e-01	 1.567060985990089e+01
 1.222007959440318e+00	 6.009065327169382e-01	 1.558838232122325e+01
 1.216248804542540e+00	 6.124794016511175e-01	 1.550199555859752e+01
 1.210370998671997e+00	 6.240146470532215e-01	 1.541192533652878e+01
 1.204374822528908e+00	 6.355104912657149e-01	 1.531868313024543e+01
 1.198260591515288e+00	 6.469651570245579e-01	 1.522281048640829e+01
 1.192028655843047e+00	 6.583768682897299e-01	 1.512487285295988e+01
 1.185679400618684e+00	 6.697438510821117e-01	 1.502545289075225e+01
 1.179213245904258e+00	 6.810643343259736e-01	 1.492514328336186e+01
 1.172630646754338e+00	 6.923365506962912e-01	 1.482453906530854e+01
 1.165932093228688e+00	 7.035587374701054e-01	 1.472422949271778e+01
 1.235603666203993e+00	 5.931166058335577e-01	 1.561308045735569e+01
 1.229926858212748e+00	 6.048005482753342e-01	 1.553328829112313e+01
 1.224130382638001e+00	 6.164484121201466e-01	 1.544950051824972e+01
 1.218214487204311e+00	 6.280584086235363e-01	 1.536219581641024e+01
 1.212179454430893e+00	 6.396287486083320e-01	 1.527189075523576e+01
 1.206025601763627e+00	 6.511576432934074e-01	 1.517913400773288e+01
 1.199753281683865e+00	 6.626433051295887e-01	 1.508450000565791e+01
 1.193362881793672e+00	 6.740839486419573e-01	 1.498858205158341e+01
 1.186854824877197e+00	 6.854777912777997e-01	 1.489198490431929e+01
 1.180229568937855e+00	 6.968230542594114e-01	 1.479531685831719e+01
 1.173487607211099e+00	 7.081179634409790e-01	 1.469918134167062e+01
 1.243559115171751e+00	 5.969353941894570e-01	 1.555620269123394e+01
 1.237845756984708e+00	 6.086945638343547e-01	 1.547875380308470e+01
 1.232011960733027e+00	 6.204174225897930e-01	 1.539748541006782e+01
 1.226057975736233e+00	 6.321021701944629e-01	 1.531288043113115e+01
 1.219984086332526e+00	 6.437470059515563e-01	 1.522546160094486e+01
 1.213790612011652e+00	 6.553501295628618e-01	 1.513578552446127e+01
 1.207477907524403e+00	 6.669097419700498e-01	 1.504443614977057e+01
 1.201046362968413e+00	 6.784240462024042e-01	 1.495201767209421e+01
 1.194496403849912e+00	 6.898912482302257e-01	 1.485914688583906e+01
 1.187828491121165e+00	 7.013095578231323e-01	 1.476644500576803e+01
 1.181043121193310e+00	 7.126771894124521e-01	 1.467452898248954e+01
 1.251514564139175e+00	 6.007541825458070e-01	 1.550002514211922e+01
 1.245764655756356e+00	 6.125885793938126e-01	 1.542484142066140e+01
 1.239893538827766e+00	 6.243864330598659e-01	 1.534602008112494e+01
 1.233901464267892e+00	 6.361459317658068e-01	 1.526404957777499e+01
 1.227788718233922e+00	 6.478652632951917e-01	 1.517945985654391e+01
 1.221555622259467e+00	 6.595426158327222e-01	 1.509281624525031e+01
 1.215202533364756e+00	 6.711761788109144e-01	 1.500471273595123e+01
 1.208729844142988e+00	 6.827641437632522e-01	 1.491576467237557e+01
 1.202137982822479e+00	 6.943047051830522e-01	 1.482660085963412e+01
 1.195427413304337e+00	 7.057960613872530e-01	 1.473785511769943e+01
 1.188598635175388e+00	 7.172364153843258e-01	 1.465015730446547e+01
 1.259470013106432e+00	 6.045729709024250e-01	 1.544457802412512e+01
 1.253683554527847e+00	 6.164825949535203e-01	 1.537159472333765e+01
 1.247775116922360e+00	 6.283554435301736e-01	 1.529515492718937e+01
 1.241744952799420e+00	 6.401896933373744e-01	 1.521575388567654e+01
 1.235593350135202e+00	 6.519835206390420e-01	 1.513392977823455e+01
 1.229320632507176e+00	 6.637351021027911e-01	 1.505025743222406e+01
 1.222927159205015e+00	 6.754426156519830e-01	 1.496534140685166e+01
 1.216413325317481e+00	 6.871042413243023e-01	 1.487980845558336e+01
 1.209779561794972e+00	 6.987181621360791e-01	 1.479429938452619e+01
 1.203026335487441e+00	 7.102825649515739e-01	 1.470946032872163e+01
 1.196154149157399e+00	 7.217956413563996e-01	 1.462593347278545e+01
 1.267425462073689e+00	 6.083917592591278e-01	 1.538987357859664e+01
 1.261602453299338e+00	 6.203766105132895e-01	 1.531903871515484e+01
 1.255656695016955e+00	 6.323244540005248e-01	 1.524492131049770e+01
 1.249588441330948e+00	 6.442334549089713e-01	 1.516802463753184e+01
 1.243397982036480e+00	 6.561017779829106e-01	 1.508889610785911e+01
 1.237085642754886e+00	 6.679275883728708e-01	 1.500812081122602e+01
 1.230651785045276e+00	 6.797090524930577e-01	 1.492631439314247e+01
 1.224096806491974e+00	 6.914443388853547e-01	 1.484411528384112e+01
 1.217421140767466e+00	 7.031316190891076e-01	 1.476217629633953e+01
 1.210625257670545e+00	 7.147690685158951e-01	 1.468115561601021e+01
 1.203709663139410e+00	 7.263548673284732e-01	 1.460170720873906e+01
 1.275380911041114e+00	 6.122105476157323e-01	 1.533590646215619e+01
 1.269521352070985e+00	 6.242706260729334e-01	 1.526718022715273e+01
 1.263538273111693e+00	 6.362934644707280e-01	 1.519533197101171e+01
 1.257431929862607e+00	 6.482772164804029e-01	 1.512087418386088e+01
 1.251202613937877e+00	 6.602200353266016e-01	 1.504436448493250e+01
 1.244850653002701e+00	 6.721200746427631e-01	 1.496639897576261e+01
 1.238376410885629e+00	 6.839754893339386e-01	 1.488760490369467e+01
 1.231780287666549e+00	 6.957844364462097e-01	 1.480863264897620e+01
 1.225062719740032e+00	 7.075450760419362e-01	 1.473014705350129e+01
 1.218224179853717e+00	 7.192555720800158e-01	 1.465281811408196e+01
 1.211265177121488e+00	 7.309140933003470e-01	 1.457731106798503e+01
 1.283336360008872e+00	 6.160293359720556e-01	 1.528265412934090e+01
 1.277440250842946e+00	 6.281646416322637e-01	 1.521600831389546e+01
 1.271419851206720e+00	 6.402624749405923e-01	 1.514638143144391e+01
 1.265275418394528e+00	 6.523209780514754e-01	 1.507429635111214e+01
 1.259007245839510e+00	 6.643382926699181e-01	 1.500032185238122e+01
 1.252615663250726e+00	 6.763125609122710e-01	 1.492506578491137e+01
 1.246101036726167e+00	 6.882419261744271e-01	 1.484916751017659e+01
 1.239463768841290e+00	 7.001245340066681e-01	 1.477328963831321e+01
 1.232704298712748e+00	 7.119585329943660e-01	 1.469810907853672e+01
 1.225823102037028e+00	 7.237420756437369e-01	 1.462430742649322e+01
 1.218820691103700e+00	 7.354733192718207e-01	 1.455256071696167e+01
 1.291291808977132e+00	 6.198481243279141e-01	 1.523007721006444e+01
 1.285359149615375e+00	 6.320586571910932e-01	 1.516549464433761e+01
 1.279301429302179e+00	 6.442314854099265e-01	 1.509804639631954e+01
 1.273118906926843e+00	 6.563647396219948e-01	 1.502826684368408e+01
 1.266811877741495e+00	 6.684565500126637e-01	 1.495673685626172e+01
 1.260380673499065e+00	 6.805050471811952e-01	 1.488407675545491e+01
 1.253825662566985e+00	 6.925083630143244e-01	 1.481093852630618e+01
 1.247147250016277e+00	 7.044646315665298e-01	 1.473799729573960e+01
 1.240345877685687e+00	 7.163719899461964e-01	 1.466594209563427e+01
 1.233422024220544e+00	 7.282285792068580e-01	 1.459546593459465e+01
 1.226376205086111e+00	 7.400325452426939e-01	 1.452725520752374e+01
 1.299247257946061e+00	 6.236669126831257e-01	 1.517811988212588e+01
 1.293278048388431e+00	 6.359526727492338e-01	 1.511559388727348e+01
 1.287183007398215e+00	 6.482004958785387e-01	 1.505028614533238e+01
 1.280962395459681e+00	 6.604085011917664e-01	 1.498274364012432e+01
 1.274616509643952e+00	 6.725748073546428e-01	 1.491356023971723e+01
 1.268145683747824e+00	 6.846975334493388e-01	 1.484336944848914e+01
 1.261550288408174e+00	 6.967747998534314e-01	 1.477283638199110e+01
 1.254830731191596e+00	 7.088047291255957e-01	 1.470264897824607e+01
 1.247987456658923e+00	 7.207854468972283e-01	 1.463350846445313e+01
 1.241020946404337e+00	 7.327150827691791e-01	 1.456611910346896e+01
 1.233931719068790e+00	 7.445917712127675e-01	 1.450100331123991e+01
 1.158376579246009e+00	 6.989995115000320e-01	 1.474977053999971e+01
 1.151606752887915e+00	 7.100975248155994e-01	 1.464259564449874e+01
 1.144722803271552e+00	 7.211423485946773e-01	 1.452944665547226e+01
 1.137725323107168e+00	 7.321322517356784e-01	 1.441033412099923e+01
 1.130614939671369e+00	 7.430655111565818e-01	 1.428526967316579e+01
 1.123392314694512e+00	 7.539404126477526e-01	 1.415706363492712e+01
 1.116058144223075e+00	 7.647552517237869e-01	 1.402783063512730e+01
 1.108613158456955e+00	 7.755083344735211e-01	 1.389846368766554e+01
 1.101058121561683e+00	 7.861979784073621e-01	 1.376879654948400e+01
 1.093393831455592e+00	 7.968225133010768e-01	 1.363874373290600e+01
 1.085621119571988e+00	 8.073802820351770e-01	 1.350838317185286e+01
 1.165932093228688e+00	 7.035587374701054e-01	 1.472422949271777e+01
 1.159118110662097e+00	 7.147291376038305e-01	 1.462092066358824e+01
 1.152189260467951e+00	 7.258460012721898e-01	 1.451099618915360e+01
 1.145146139222464e+00	 7.369075860824796e-01	 1.439448936334902e+01
 1.137989378293664e+00	 7.479121577138692e-01	 1.427209892242347e+01
 1.130719643728060e+00	 7.588579907757849e-01	 1.414682325734006e+01
 1.123337636112105e+00	 7.697433696653098e-01	 1.401992731491511e+01
 1.115844090408439e+00	 7.805665894227380e-01	 1.389243829438573e+01
 1.108239775766874e+00	 7.913259565844316e-01	 1.376521656190367e+01
 1.100525495310181e+00	 8.020197900321118e-01	 1.363786017467061e+01
 1.092702085894701e+00	 8.126464218377238e-01	 1.351025010624725e+01
 1.173487607211099e+00	 7.081179634409790e-01	 1.469918134167062e+01
 1.166629468436006e+00	 7.193607503928615e-01	 1.459986559714838e+01
 1.159655717664057e+00	 7.305496539505018e-01	 1.449333997070233e+01
 1.152566955337439e+00	 7.416829204300776e-01	 1.437967214399587e+01
 1.145363816915610e+00	 7.527588042719483e-01	 1.426059520933030e+01
 1.138046972761229e+00	 7.637755689046011e-01	 1.413820545716461e+01
 1.130617128000730e+00	 7.747314876076042e-01	 1.401365314545890e+01
 1.123075022359500e+00	 7.856248443727101e-01	 1.388803808768340e+01
 1.115421429971638e+00	 7.964539347622329e-01	 1.376239839203788e+01
 1.107657159164353e+00	 8.072170667638509e-01	 1.363752883288866e+01
 1.099783052217030e+00	 8.179125616409383e-01	 1.351277180646906e+01
 1.181043121193310e+00	 7.126771894124521e-01	 1.467452898248954e+01
 1.174140826209707e+00	 7.239923631824924e-01	 1.457928561078665e+01
 1.167122174859945e+00	 7.352533066294128e-01	 1.447629184487982e+01
 1.159987771452176e+00	 7.464582547782729e-01	 1.436590693810377e+01
 1.152738255537295e+00	 7.576054508306215e-01	 1.425019734610573e+01
 1.145374301794115e+00	 7.686931470340049e-01	 1.413061730059522e+01
 1.137896619889056e+00	 7.797196055504780e-01	 1.400838945352516e+01
 1.130305954310250e+00	 7.906830993232478e-01	 1.388468973052474e+01
 1.122603084176091e+00	 8.015819129405842e-01	 1.376063573321569e+01
 1.114788823018229e+00	 8.124143434961176e-01	 1.363727467297704e+01
 1.106864018539093e+00	 8.231787014446537e-01	 1.351528298803365e+01
 1.188598635175388e+00	 7.172364153843258e-01	 1.465015730446547e+01
 1.181652183983273e+00	 7.286239759725235e-01	 1.455901864686803e+01
 1.174588632055685e+00	 7.399569593087233e-01	 1.445964904218617e+01
 1.167408587566755e+00	 7.512335891268664e-01	 1.435283939548642e+01
 1.160112694158807e+00	 7.624520973896903e-01	 1.424032996852706e+01
 1.152701630826816e+00	 7.736107251638005e-01	 1.412345234245221e+01
 1.145176111777187e+00	 7.847077234937369e-01	 1.400350452042200e+01
 1.137536886260803e+00	 7.957413542741626e-01	 1.388174200043130e+01
 1.129784738380351e+00	 8.067098911193008e-01	 1.375936583551199e+01
 1.121920486871926e+00	 8.176116202287359e-01	 1.363751019184886e+01
 1.113944984861004e+00	 8.284448412487024e-01	 1.351722944362120e+01
 1.196154149157399e+00	 7.217956413563996e-01	 1.462593347278545e+01
 1.189163541756770e+00	 7.332555887627544e-01	 1.453888566683954e+01
 1.182055089251353e+00	 7.446606119882333e-01	 1.444322704378732e+01
 1.174829403681256e+00	 7.560089234756590e-01	 1.433991726926656e+01
 1.167487132780236e+00	 7.672987439489568e-01	 1.423040475906311e+01
 1.160028959859431e+00	 7.785283032937919e-01	 1.411609184726340e+01
 1.152455603665230e+00	 7.896958414371891e-01	 1.399835480479303e+01
 1.144767818211272e+00	 8.007996092252666e-01	 1.387853212428099e+01
 1.136966392584535e+00	 8.118378692982010e-01	 1.375791223302314e+01
 1.129052150725564e+00	 8.228088969615299e-01	 1.363772066852162e+01
 1.121025951182882e+00	 8.337109810529183e-01	 1.351910675610191e+01
 1.203709663139410e+00	 7.263548673284732e-01	 1.460170720873906e+01
 1.196674899530268e+00	 7.378872015529856e-01	 1.451869089287288e+01
 1.189521546447022e+00	 7.493642646677441e-01	 1.442669026507611e+01
 1.182250219795759e+00	 7.607842578244517e-01	 1.432657573184743e+01
 1.174861571401671e+00	 7.721453905082239e-01	 1.421982167224764e+01
 1.167356288892055e+00	 7.834458814237835e-01	 1.410790601318438e+01
 1.159735095553291e+00	 7.946839593806407e-01	 1.399228616866356e+01
 1.151998750161769e+00	 8.058578641763703e-01	 1.387438701000458e+01
 1.144148046788762e+00	 8.169658474771009e-01	 1.375558822652970e+01
 1.136183814579263e+00	 8.280061736943243e-01	 1.363721111165517e+01
 1.128106917504843e+00	 8.389771208571345e-01	 1.352050481456811e+01
 1.211265177121488e+00	 7.309140933003470e-01	 1.457731106798502e+01
 1.204186257303834e+00	 7.425188143430166e-01	 1.449820980815233e+01
 1.196988003642765e+00	 7.540679173470547e-01	 1.440950469435348e+01
 1.189671035910344e+00	 7.655595921730454e-01	 1.431223860676329e+01
 1.182236010023199e+00	 7.769920370672927e-01	 1.420797016219362e+01
 1.174683617924788e+00	 7.883634595535789e-01	 1.409825519863278e+01
 1.167014587441475e+00	 7.996720773239000e-01	 1.398463510659783e+01
 1.159229682112407e+00	 8.109161191272857e-01	 1.386862448161367e+01
 1.151329700993149e+00	 8.220938256558181e-01	 1.375169812768800e+01
 1.143315478433141e+00	 8.332034504269424e-01	 1.363527744714254e+01
 1.135187883827004e+00	 8.442432606611832e-01	 1.352071625765525e+01
 1.218820691103700e+00	 7.354733192718207e-01	 1.455256071696166e+01
 1.211697615077536e+00	 7.471504271326477e-01	 1.447700776799028e+01
 1.204454460838656e+00	 7.587715700259655e-01	 1.439112269940165e+01
 1.197091852025092e+00	 7.703349265212405e-01	 1.429631960186100e+01
 1.189610448644911e+00	 7.818386836259658e-01	 1.419423041215629e+01
 1.182010946957726e+00	 7.932810376829830e-01	 1.408649115151957e+01
 1.174294079329890e+00	 8.046601952667729e-01	 1.397472997783172e+01
 1.166460614063299e+00	 8.159743740778236e-01	 1.386055451741571e+01
 1.158511355197814e+00	 8.272218038341690e-01	 1.374553850645459e+01
 1.150447142287318e+00	 8.384007271592092e-01	 1.363120777781361e+01
 1.142268850149480e+00	 8.495094004648984e-01	 1.351902563478266e+01
 1.226376205086111e+00	 7.400325452426939e-01	 1.452725520752374e+01
 1.219208972851445e+00	 7.517820399216786e-01	 1.445455721013686e+01
 1.211920918034766e+00	 7.634752227042773e-01	 1.437098674456468e+01
 1.204512668140084e+00	 7.751102608688384e-01	 1.427822354375399e+01
 1.196984887266893e+00	 7.866853301840449e-01	 1.417797456605667e+01
 1.189338275990966e+00	 7.981986158117989e-01	 1.407195824096441e+01
 1.181573571218639e+00	 8.096483132090674e-01	 1.396189224125338e+01
 1.173691546014558e+00	 8.210326290277947e-01	 1.384948049127896e+01
 1.165693009402874e+00	 8.323497820119703e-01	 1.373639944160158e+01
 1.157578806141913e+00	 8.435980038909480e-01	 1.362428364611625e+01
 1.149349816472390e+00	 8.547755402681128e-01	 1.351471068385777e+01
 1.233931719068790e+00	 7.445917712127675e-01	 1.450100331123991e+01
 1.226720330625627e+00	 7.564136527099095e-01	 1.443033338721953e+01
 1.219387375231171e+00	 7.681788753817900e-01	 1.434853063171185e+01
 1.211933484255399e+00	 7.798855952156397e-01	 1.425734761349495e+01
 1.204359325889236e+00	 7.915319767413326e-01	 1.415856796188025e+01
 1.196665605024608e+00	 8.031161939398310e-01	 1.405399469138956e+01
 1.188853063107831e+00	 8.146364311505905e-01	 1.394543769310834e+01
 1.180922477966298e+00	 8.260908839770120e-01	 1.383470041681653e+01
 1.172874663608447e+00	 8.374777601890396e-01	 1.372356577419392e+01
 1.164710469997046e+00	 8.487952806219833e-01	 1.361378129964695e+01
 1.156430782795849e+00	 8.600416800706597e-01	 1.350704361157132e+01
 1.085621119571988e+00	 8.073802820351770e-01	 1.350838317185286e+01
 1.077739502516610e+00	 8.178714178229555e-01	 1.337605748617618e+01
 1.069751194356563e+00	 8.282924857813846e-01	 1.324034918383078e+01
 1.061657130349154e+00	 8.386418662541383e-01	 1.310155605749523e+01
 1.053458278111545e+00	 8.489179559697088e-01	 1.295992131339321e+01
 1.045155637258033e+00	 8.591191688497392e-01	 1.281562996314471e+01
 1.036750239013331e+00	 8.692439368078929e-01	 1.266880529027933e+01
 1.028243145802149e+00	 8.792907105384193e-01	 1.251950541220918e+01
 1.019635450815409e+00	 8.892579602936008e-01	 1.236771995882193e+01
 1.010928277553431e+00	 8.991441766492650e-01	 1.221336688909674e+01
 1.002122779346504e+00	 9.089478712575699e-01	 1.205628946727101e+01
 1.092702085894701e+00	 8.126464218377238e-01	 1.351025010624725e+01
 1.084769060973243e+00	 8.232059860834416e-01	 1.338075062747353e+01
 1.076728649054170e+00	 8.336950254822073e-01	 1.324793646780541e+01
 1.068581791495002e+00	 8.441119098134868e-01	 1.311209973002144e+01
 1.060329462224184e+00	 8.544550253484324e-01	 1.297347370284360e+01
 1.051972667375996e+00	 8.647227756634913e-01	 1.283222912296567e+01
 1.043512444901313e+00	 8.749135824444839e-01	 1.268847051480019e+01
 1.034949864154511e+00	 8.850258862803126e-01	 1.254223262951004e+01
 1.026286025456847e+00	 8.950581474454797e-01	 1.239347700528157e+01
 1.017522059636673e+00	 9.050088466705939e-01	 1.224208867105572e+01
 1.008659127546873e+00	 9.148764859000650e-01	 1.208787301607025e+01
 1.099783052217030e+00	 8.179125616409383e-01	 1.351277180646905e+01
 1.091798619429549e+00	 8.285405543445518e-01	 1.338624145218643e+01
 1.083706103751525e+00	 8.390975651836055e-01	 1.325645873652770e+01
 1.075506452640689e+00	 8.495819533733578e-01	 1.312370348073101e+01
 1.067200646336763e+00	 8.599920947276259e-01	 1.298819224204822e+01
 1.058789697494005e+00	 8.703263824776633e-01	 1.285007445097733e+01
 1.050274650789446e+00	 8.805832280814486e-01	 1.270942862941984e+01
 1.041656582507124e+00	 8.907610620225399e-01	 1.256625871211281e+01
 1.032936600098626e+00	 9.008583345976631e-01	 1.242049049409320e+01
 1.024115841720328e+00	 9.108735166922100e-01	 1.227196822723390e+01
 1.015195475747708e+00	 9.208051005428431e-01	 1.212045138904635e+01
 1.106864018539093e+00	 8.231787014446537e-01	 1.351528298803365e+01
 1.098828177885637e+00	 8.338751226061306e-01	 1.339187111312009e+01
 1.090683558448726e+00	 8.445001048854348e-01	 1.326526146286481e+01
 1.082431113786299e+00	 8.550519969336218e-01	 1.313571513690403e+01
 1.074071830449349e+00	 8.655291641071742e-01	 1.300342530161467e+01
 1.065606727612108e+00	 8.759299892921527e-01	 1.286851320735887e+01
 1.057036856677760e+00	 8.862528737186978e-01	 1.273102429000624e+01
 1.048363300859998e+00	 8.964962377650252e-01	 1.259092437986893e+01
 1.039587174740738e+00	 9.066585217500860e-01	 1.244809604162135e+01
 1.030709623804376e+00	 9.167381867140567e-01	 1.230233506907977e+01
 1.021731823948975e+00	 9.267337151858555e-01	 1.215334715888258e+01
 1.113944984861004e+00	 8.284448412487024e-01	 1.351722944362120e+01
 1.105857736341615e+00	 8.392096908680210e-01	 1.339696204539502e+01
 1.097661013145873e+00	 8.499026445875523e-01	 1.327367108214874e+01
 1.089355774931916e+00	 8.605220404941488e-01	 1.314746323515575e+01
 1.080943014562009e+00	 8.710662334869599e-01	 1.301850177193004e+01
 1.072423757730353e+00	 8.815335961068571e-01	 1.288687304293339e+01
 1.063799062566284e+00	 8.919225193561429e-01	 1.275258247118759e+01
 1.055070019213145e+00	 9.022314135076923e-01	 1.261555065358076e+01
 1.046237749383177e+00	 9.124587089026823e-01	 1.247560959826297e+01
 1.037303405888794e+00	 9.226028567360767e-01	 1.233249912284861e+01
 1.028268172150642e+00	 9.326623298290513e-01	 1.218586343833250e+01
 1.121025951182882e+00	 8.337109810529183e-01	 1.351910675610191e+01
 1.112887294797594e+00	 8.445442591300674e-01	 1.340087415624598e+01
 1.104638467843062e+00	 8.553051842898136e-01	 1.328099520371208e+01
 1.096280436077623e+00	 8.659920840548078e-01	 1.315825723642611e+01
 1.087814198674808e+00	 8.766033028668675e-01	 1.303273127924873e+01
 1.079240787848789e+00	 8.871372029216741e-01	 1.290446221411231e+01
 1.070561268455048e+00	 8.975921649936949e-01	 1.277340867803472e+01
 1.061776737566577e+00	 9.079665892504643e-01	 1.263943906142869e+01
 1.052888324025938e+00	 9.182588960553872e-01	 1.250232764774560e+01
 1.043897187973562e+00	 9.284675267582144e-01	 1.236175092002937e+01
 1.034804520352675e+00	 9.385909444723801e-01	 1.221728406016094e+01
 1.128106917504843e+00	 8.389771208571345e-01	 1.352050481456810e+01
 1.119916853253684e+00	 8.498788273921142e-01	 1.340409940199001e+01
 1.111615922540391e+00	 8.607077239920758e-01	 1.328652779677768e+01
 1.103205097223503e+00	 8.714621276154693e-01	 1.316738774319496e+01
 1.094685382787814e+00	 8.821403722467804e-01	 1.304540440389127e+01
 1.086057817967464e+00	 8.927408097365023e-01	 1.292056979991363e+01
 1.077323474344080e+00	 9.032618106312649e-01	 1.279278915984898e+01
 1.068483455920302e+00	 9.137017649932652e-01	 1.266187184759488e+01
 1.059538898669014e+00	 9.240590832081345e-01	 1.252752740877816e+01
 1.050490970058658e+00	 9.343321967804127e-01	 1.238936179033378e+01
 1.041340868555041e+00	 9.445195591157927e-01	 1.224687375990693e+01
 1.135187883827004e+00	 8.442432606611832e-01	 1.352071625765524e+01
 1.126946411709993e+00	 8.552133956540047e-01	 1.340641247810085e+01
 1.118593377237960e+00	 8.661102636941952e-01	 1.329059887575397e+01
 1.110129758369640e+00	 8.769321711760028e-01	 1.317412671882352e+01
 1.101556566901094e+00	 8.876774416265821e-01	 1.305579290046463e+01
 1.092874848086427e+00	 8.983444165512375e-01	 1.293446592096297e+01
 1.084085680233411e+00	 9.089314562687643e-01	 1.280999112596053e+01
 1.075190174274334e+00	 9.194369407360174e-01	 1.268211218298952e+01
 1.066189473312398e+00	 9.298592703608585e-01	 1.255046703895102e+01
 1.057084752144061e+00	 9.401968668026147e-01	 1.241458405713499e+01
 1.047877216757708e+00	 9.504481737592384e-01	 1.227387836134731e+01
 1.142268850149480e+00	 8.495094004648984e-01	 1.351902563478266e+01
 1.133975970166631e+00	 8.605479639155836e-01	 1.340709540947756e+01
 1.125570831935865e+00	 8.715128033960280e-01	 1.329328113072075e+01
 1.117054419516118e+00	 8.824022147362781e-01	 1.317845279632949e+01
 1.108427751014714e+00	 8.932145110061565e-01	 1.306314992001343e+01
 1.099691878205725e+00	 9.039480233657788e-01	 1.294540196039160e+01
 1.090847886123069e+00	 9.146011019061032e-01	 1.282426296345073e+01
 1.081896892628682e+00	 9.251721164786458e-01	 1.269940437798754e+01
 1.072840047956085e+00	 9.356594575134944e-01	 1.257038584078838e+01
 1.063678534229750e+00	 9.460615368247648e-01	 1.243665123525131e+01
 1.054413564960641e+00	 9.563767884026672e-01	 1.229752496454220e+01
 1.149349816472390e+00	 8.547755402681128e-01	 1.351471068385777e+01
 1.141005528623706e+00	 8.658825321766943e-01	 1.340542307237239e+01
 1.132548286634205e+00	 8.769153430974306e-01	 1.329384384874193e+01
 1.123979080663019e+00	 8.878722582961649e-01	 1.318083852956537e+01
 1.115298935128740e+00	 8.987515803853878e-01	 1.306709148165745e+01
 1.106508908325406e+00	 9.095516301800235e-01	 1.295261078654934e+01
 1.097610092013084e+00	 9.202707475431937e-01	 1.283483445671583e+01
 1.088603610983357e+00	 9.309072922210734e-01	 1.271297409708911e+01
 1.079490622600068e+00	 9.414596446659764e-01	 1.258650446985901e+01
 1.070272316315703e+00	 9.519262068468061e-01	 1.245477823097135e+01
 1.060949913163808e+00	 9.623054030460286e-01	 1.231702213635170e+01
 1.156430782795849e+00	 8.600416800706597e-01	 1.350704361157132e+01
 1.148035087081331e+00	 8.712171004371816e-01	 1.340066448919426e+01
 1.139525741333079e+00	 8.823178827982596e-01	 1.329155014476072e+01
 1.130903741810428e+00	 8.933423018555334e-01	 1.318055799137043e+01
 1.122170119243239e+00	 9.042886497641590e-01	 1.306835877398969e+01
 1.113325938445521e+00	 9.151552369938694e-01	 1.295541905558511e+01
 1.104372297903486e+00	 9.259403931799466e-01	 1.284091700879326e+01
 1.095310329338370e+00	 9.366424679632234e-01	 1.272202857542018e+01
 1.086141197244342e+00	 9.472598318182393e-01	 1.259802514485665e+01
 1.076866098401900e+00	 9.577908768686814e-01	 1.246816154422561e+01
 1.067486261367175e+00	 9.682340176892731e-01	 1.233156010331725e+01
 1.002122779346504e+00	 9.089478712575699e-01	 1.205628946727101e+01
 9.932216576821324e-01	 9.186659352771679e-01	 1.189804352594351e+01
 9.842246217519234e-01	 9.282986121537109e-01	 1.174008020786817e+01
 9.751328947901475e-01	 9.378444977148536e-01	 1.158206078361550e+01
 9.659477277073155e-01	 9.473022117165263e-01	 1.142358066370311e+01
 9.566703985125847e-01	 9.566703985125846e-01	 1.126416734488529e+01
 9.473022117165264e-01	 9.659477277073159e-01	 1.110327861011760e+01
 9.378444977148535e-01	 9.751328947901475e-01	 1.094030100098436e+01
 9.282986121537108e-01	 9.842246217519237e-01	 1.077454858050357e+01
 9.186659352771674e-01	 9.932216576821324e-01	 1.060526200321948e+01
 9.089478712575698e-01	 1.002122779346504e+00	 1.043160790836506e+01
 1.008659127546873e+00	 9.148764859000650e-01	 1.208787301607025e+01
 9.996999482954076e-01	 9.246579360151217e-01	 1.193251167400244e+01
 9.906442291770862e-01	 9.343534420492922e-01	 1.177755049554608e+01
 9.814932014047273e-01	 9.439615906715130e-01	 1.162255755934983e+01
 9.722481240479092e-01	 9.534809926350680e-01	 1.146703042969992e+01
 9.629102834516077e-01	 9.629102834516078e-01	 1.131039409627306e+01
 9.534809926350680e-01	 9.722481240479094e-01	 1.115199917777787e+01
 9.439615906715128e-01	 9.814932014047274e-01	 1.099112040896093e+01
 9.343534420492920e-01	 9.906442291770864e-01	 1.082695542955138e+01
 9.246579360151211e-01	 9.996999482954079e-01	 1.065862389268690e+01
 9.148764859000647e-01	 1.008659127546873e+00	 1.048516690919910e+01
 1.015195475747708e+00	 9.208051005428431e-01	 1.212045138904635e+01
 1.006178238909177e+00	 9.306499367533715e-01	 1.196774998175023e+01
 9.970638366027488e-01	 9.404082719451956e-01	 1.181552268586974e+01
 9.878535080197955e-01	 9.500786836285274e-01	 1.166325987541923e+01
 9.785485203889676e-01	 9.596597735540032e-01	 1.151037704150466e+01
 9.691501683910624e-01	 9.691501683910624e-01	 1.135621269880123e+01
 9.596597735540031e-01	 9.785485203889677e-01	 1.120002656575405e+01
 9.500786836285269e-01	 9.878535080197955e-01	 1.104099803872893e+01
 9.404082719451952e-01	 9.970638366027489e-01	 1.087822497941858e+01
 9.306499367533715e-01	 1.006178238909177e+00	 1.071072283374717e+01
 9.208051005428434e-01	 1.015195475747708e+00	 1.053742409931846e+01
 1.021731823948975e+00	 9.267337151858555e-01	 1.215334715888258e+01
 1.012656529523399e+00	 9.366419374918723e-01	 1.200307745393617e+01
 1.003483444028865e+00	 9.464631018413752e-01	 1.185331948952794e+01
 9.942138146353041e-01	 9.561957765858524e-01	 1.170350113799800e+01
 9.848489167304412e-01	 9.658385544732850e-01	 1.155297130049468e+01
 9.753900533308997e-01	 9.753900533308998e-01	 1.140099775351408e+01
 9.658385544732850e-01	 9.848489167304412e-01	 1.124676527861573e+01
 9.561957765858522e-01	 9.942138146353041e-01	 1.108937409636614e+01
 9.464631018413751e-01	 1.003483444028866e+00	 1.092783862461255e+01
 9.366419374918719e-01	 1.012656529523399e+00	 1.076108658010298e+01
 9.267337151858556e-01	 1.021731823948975e+00	 1.058795844123447e+01
 1.028268172150642e+00	 9.326623298290513e-01	 1.218586343833250e+01
 1.019134820138031e+00	 9.426339382305761e-01	 1.203779369930406e+01
 1.009903051455389e+00	 9.525179317377864e-01	 1.189024412563042e+01
 1.000574121251205e+00	 9.623128695434424e-01	 1.174259501494356e+01
 9.911493130722817e-01	 9.720173353928681e-01	 1.159414388030371e+01
 9.816299382710727e-01	 9.816299382710726e-01	 1.144410321020062e+01
 9.720173353928683e-01	 9.911493130722820e-01	 1.129159852080824e+01
 9.623128695434424e-01	 1.000574121251205e+00	 1.113566672243775e+01
 9.525179317377862e-01	 1.009903051455389e+00	 1.097525482116176e+01
 9.426339382305754e-01	 1.019134820138031e+00	 1.080921897546586e+01
 9.326623298290513e-01	 1.028268172150642e+00	 1.063632392651943e+01
 1.034804520352675e+00	 9.385909444723801e-01	 1.221728406016094e+01
 1.025613110753034e+00	 9.486259389694366e-01	 1.207117910180361e+01
 1.016322658882274e+00	 9.585727616343844e-01	 1.192558048908002e+01
 1.006934427867449e+00	 9.684299625012517e-01	 1.177983560398568e+01
 9.974497094144402e-01	 9.781961163127045e-01	 1.163320550024957e+01
 9.878698232115333e-01	 9.878698232115332e-01	 1.148486255024645e+01
 9.781961163127043e-01	 9.974497094144402e-01	 1.133388839287288e+01
 9.684299625012516e-01	 1.006934427867449e+00	 1.117927220528783e+01
 9.585727616343842e-01	 1.016322658882275e+00	 1.101990932043308e+01
 9.486259389694363e-01	 1.025613110753034e+00	 1.085460021110482e+01
 9.385909444723801e-01	 1.034804520352675e+00	 1.068204986004412e+01
 1.041340868555041e+00	 9.445195591157927e-01	 1.224687375990693e+01
 1.032091401368364e+00	 9.546179397084080e-01	 1.210249499481221e+01
 1.022742266309475e+00	 9.646275915311237e-01	 1.195859332094455e+01
 1.013294734483988e+00	 9.745470554592351e-01	 1.181449760372380e+01
 1.003750105756869e+00	 9.843748972327480e-01	 1.166944710120390e+01
 9.941097081522333e-01	 9.941097081522332e-01	 1.152258897139536e+01
 9.843748972327480e-01	 1.003750105756869e+00	 1.137297608888938e+01
 9.745470554592351e-01	 1.013294734483988e+00	 1.121956519471526e+01
 9.646275915311233e-01	 1.022742266309476e+00	 1.106121540236053e+01
 9.546179397084076e-01	 1.032091401368365e+00	 1.089668708170833e+01
 9.445195591157927e-01	 1.041340868555041e+00	 1.072464114131132e+01
 1.047877216757708e+00	 9.504481737592384e-01	 1.227387836134731e+01
 1.038569691983982e+00	 9.606099404474433e-01	 1.213098383823114e+01
 1.029161873736945e+00	 9.706824214279591e-01	 1.198852838169907e+01
 1.019655041100774e+00	 9.806641484173471e-01	 1.184583648730887e+01
 1.010050502099517e+00	 9.905536781529529e-01	 1.170214002379533e+01
 1.000349593093125e+00	 1.000349593093125e+00	 1.155657557433455e+01
 9.905536781529527e-01	 1.010050502099517e+00	 1.140818209508145e+01
 9.806641484173469e-01	 1.019655041100774e+00	 1.125589891601629e+01
 9.706824214279587e-01	 1.029161873736945e+00	 1.109856410811186e+01
 9.606099404474431e-01	 1.038569691983983e+00	 1.093491323963260e+01
 9.504481737592383e-01	 1.047877216757708e+00	 1.076357854301424e+01
 1.054413564960641e+00	 9.563767884026672e-01	 1.229752496454220e+01
 1.045047982599846e+00	 9.666019411864963e-01	 1.215586939833581e+01
 1.035581481164638e+00	 9.767372513248455e-01	 1.201461262721156e+01
 1.026015347717758e+00	 9.867812413755426e-01	 1.187308867869467e+01
 1.016350898442337e+00	 9.967324590732713e-01	 1.173053618884574e+01
 1.006589478034160e+00	 1.006589478034160e+00	 1.158609555102526e+01
 9.967324590732715e-01	 1.016350898442337e+00	 1.143880638953951e+01
 9.867812413755424e-01	 1.026015347717758e+00	 1.128760538437908e+01
 9.767372513248452e-01	 1.035581481164638e+00	 1.113132447221668e+01
 9.666019411864960e-01	 1.045047982599847e+00	 1.096868944760737e+01
 9.563767884026670e-01	 1.054413564960641e+00	 1.079831898693744e+01
 1.060949913163808e+00	 9.623054030460286e-01	 1.231702213635170e+01
 1.051526273215915e+00	 9.725939419255205e-01	 1.217635693025732e+01
 1.042001088592507e+00	 9.827920812217376e-01	 1.203605438735483e+01
 1.032375654334891e+00	 9.928983343337757e-01	 1.189547173134630e+01
 1.022651294785281e+00	 1.002911239993658e+00	 1.175386827994262e+01
 1.012829362975292e+00	 1.012829362975292e+00	 1.161040237470430e+01
 1.002911239993658e+00	 1.022651294785281e+00	 1.146412864300983e+01
 9.928983343337756e-01	 1.032375654334891e+00	 1.131399561961228e+01
 9.827920812217376e-01	 1.042001088592508e+00	 1.115884375417931e+01
 9.725939419255204e-01	 1.051526273215915e+00	 1.099740382996266e+01
 9.623054030460286e-01	 1.060949913163808e+00	 1.082829581731726e+01
 1.067486261367175e+00	 9.682340176892731e-01	 1.233156010331724e+01
 1.058004563832146e+00	 9.785859426644694e-01	 1.219163336298485e+01
 1.048420696020508e+00	 9.888469111185910e-01	 1.205204354713123e+01
 1.038735960952127e+00	 9.990154272920019e-01	 1.191218450930003e+01
 1.028951691128298e+00	 1.009090020914066e+00	 1.177134992805529e+01
 1.019069247916471e+00	 1.019069247916471e+00	 1.162872999148182e+01
 1.009090020914065e+00	 1.028951691128298e+00	 1.148340842070306e+01
 9.990154272920018e-01	 1.038735960952127e+00	 1.133435986119551e+01
 9.888469111185908e-01	 1.048420696020508e+00	 1.118044766959775e+01
 9.785859426644695e-01	 1.058004563832147e+00	 1.102042212244156e+01
 9.682340176892732e-01	 1.067486261367175e+00	 1.085291907176790e+01
 9.089478712575698e-01	 1.002122779346504e+00	 1.043160790836506e+01
 8.991441766492652e-01	 1.010928277553431e+00	 1.025483328376282e+01
 8.892579602936015e-01	 1.019635450815408e+00	 1.007705091447653e+01
 8.792907105384193e-01	 1.028243145802148e+00	 9.898553208281536e+00
 8.692439368078930e-01	 1.036750239013330e+00	 9.719595090038272e+00
 8.591191688497395e-01	 1.045155637258033e+00	 9.540393074295153e+00
 8.489179559697093e-01	 1.053458278111545e+00	 9.361124686709557e+00
 8.386418662541389e-01	 1.061657130349154e+00	 9.181928242962112e+00
 8.282924857813851e-01	 1.069751194356563e+00	 9.002902991982126e+00
 8.178714178229560e-01	 1.077739502516610e+00	 8.824109628371961e+00
 8.073802820351771e-01	 1.085621119571988e+00	 8.645571176945939e+00
 9.148764859000647e-01	 1.008659127546873e+00	 1.048516690919910e+01
 9.050088466705943e-01	 1.017522059636672e+00	 1.030813382859963e+01
 8.950581474454802e-01	 1.026286025456847e+00	 1.013008970087261e+01
 8.850258862803128e-01	 1.034949864154510e+00	 9.951424290275209e+00
 8.749135824444843e-01	 1.043512444901312e+00	 9.772491675274289e+00
 8.647227756634916e-01	 1.051972667375995e+00	 9.593609069469981e+00
 8.544550253484329e-01	 1.060329462224184e+00	 9.415055999711818e+00
 8.441119098134873e-01	 1.068581791495002e+00	 9.237073850980732e+00
 8.336950254822076e-01	 1.076728649054170e+00	 9.059865785690935e+00
 8.232059860834420e-01	 1.084769060973243e+00	 8.883597043074221e+00
 8.126464218377240e-01	 1.092702085894701e+00	 8.708395622268721e+00
 9.208051005428434e-01	 1.015195475747708e+00	 1.053742409931846e+01
 9.108735166922103e-01	 1.024115841720328e+00	 1.036024992035443e+01
 9.008583345976640e-01	 1.032936600098625e+00	 1.018226794412722e+01
 8.907610620225402e-01	 1.041656582507123e+00	 1.000395336321165e+01
 8.805832280814487e-01	 1.050274650789446e+00	 9.825747128824899e+00
 8.703263824776638e-01	 1.058789697494004e+00	 9.648054532229372e+00
 8.599920947276266e-01	 1.067200646336762e+00	 9.471244152342575e+00
 8.495819533733584e-01	 1.075506452640689e+00	 9.295647180020026e+00
 8.390975651836059e-01	 1.083706103751524e+00	 9.121557127495851e+00
 8.285405543445524e-01	 1.091798619429549e+00	 8.949229929418806e+00
 8.179125616409386e-01	 1.099783052217030e+00	 8.778884439797732e+00
 9.267337151858556e-01	 1.021731823948975e+00	 1.058795844123447e+01
 9.167381867140570e-01	 1.030709623804375e+00	 1.041081205652989e+01
 9.066585217500864e-01	 1.039587174740737e+00	 1.023326382432963e+01
 8.964962377650260e-01	 1.048363300859998e+00	 1.005586265776231e+01
 8.862528737186982e-01	 1.057036856677760e+00	 9.879124320989005e+00
 8.759299892921532e-01	 1.065606727612107e+00	 9.703529782921525e+00
 8.655291641071746e-01	 1.074071830449349e+00	 9.529523946804115e+00
 8.550519969336224e-01	 1.082431113786299e+00	 9.357514767016518e+00
 8.445001048854353e-01	 1.090683558448726e+00	 9.187872762415024e+00
 8.338751226061308e-01	 1.098828177885637e+00	 9.020930933407662e+00
 8.231787014446538e-01	 1.106864018539093e+00	 8.856985087776895e+00
 9.326623298290513e-01	 1.028268172150642e+00	 1.063632392651943e+01
 9.226028567360773e-01	 1.037303405888794e+00	 1.045942472926643e+01
 9.124587089026830e-01	 1.046237749383177e+00	 1.028272861534438e+01
 9.022314135076929e-01	 1.055070019213145e+00	 1.010684672623048e+01
 8.919225193561432e-01	 1.063799062566284e+00	 9.932357795334982e+00
 8.815335961068574e-01	 1.072423757730353e+00	 9.759806285550066e+00
 8.710662334869606e-01	 1.080943014562008e+00	 9.589700912964989e+00
 8.605220404941492e-01	 1.089355774931916e+00	 9.422513568997552e+00
 8.499026445875526e-01	 1.097661013145872e+00	 9.258678651087660e+00
 8.392096908680213e-01	 1.105857736341615e+00	 9.098592809909253e+00
 8.284448412487024e-01	 1.113944984861005e+00	 8.941496725532252e+00
 9.385909444723801e-01	 1.034804520352675e+00	 1.068204986004413e+01
 9.284675267582145e-01	 1.043897187973561e+00	 1.050566673559542e+01
 9.182588960553877e-01	 1.052888324025938e+00	 1.033028701707097e+01
 9.079665892504648e-01	 1.061776737566576e+00	 1.015657279299319e+01
 8.975921649936953e-01	 1.070561268455048e+00	 9.985154133693316e+00
 8.871372029216748e-01	 1.079240787848789e+00	 9.816627023883171e+00
 8.766033028668681e-01	 1.087814198674808e+00	 9.651551692348088e+00
 8.659920840548084e-01	 1.096280436077622e+00	 9.490451351904522e+00
 8.553051842898138e-01	 1.104638467843061e+00	 9.333811360596437e+00
 8.445442591300677e-01	 1.112887294797594e+00	 9.181602320340629e+00
 8.337109810529183e-01	 1.121025951182882e+00	 9.021629680009013e+00
 9.445195591157927e-01	 1.041340868555041e+00	 1.072464114131133e+01
 9.343321967804130e-01	 1.050490970058658e+00	 1.054909148359627e+01
 9.240590832081343e-01	 1.059538898669013e+00	 1.037553748255521e+01
 9.137017649932655e-01	 1.068483455920302e+00	 1.020468109888514e+01
 9.032618106312653e-01	 1.077323474344080e+00	 1.003719231431615e+01
 8.927408097365024e-01	 1.086057817967464e+00	 9.873706870078726e+00
 8.821403722467805e-01	 1.094685382787814e+00	 9.714824414101875e+00
 8.714621276154698e-01	 1.103205097223502e+00	 9.561107070985045e+00
 8.607077239920764e-01	 1.111615922540391e+00	 9.413036595914440e+00
 8.498788273921146e-01	 1.119916853253683e+00	 9.259286916858278e+00
 8.389771208571342e-01	 1.128106917504843e+00	 9.093677662800722e+00
 9.504481737592383e-01	 1.047877216757708e+00	 1.076357854301424e+01
 9.401968668026153e-01	 1.057084752144061e+00	 1.058922729463140e+01
 9.298592703608588e-01	 1.066189473312398e+00	 1.041805254017742e+01
 9.194369407360182e-01	 1.075190174274333e+00	 1.025078523978972e+01
 9.089314562687643e-01	 1.084085680233410e+00	 1.008812406350131e+01
 8.983444165512381e-01	 1.092874848086426e+00	 9.930732946152412e+00
 8.876774416265826e-01	 1.101556566901094e+00	 9.779239063306964e+00
 8.769321711760032e-01	 1.110129758369640e+00	 9.634231243117442e+00
 8.661102636941956e-01	 1.118593377237960e+00	 9.487059559916958e+00
 8.552133956540052e-01	 1.126946411709992e+00	 9.326361541226120e+00
 8.442432606611833e-01	 1.135187883827004e+00	 9.156383604404537e+00
 9.563767884026670e-01	 1.054413564960641e+00	 1.079831898693744e+01
 9.460615368247652e-01	 1.063678534229749e+00	 1.062557770183297e+01
 9.356594575134948e-01	 1.072840047956085e+00	 1.045737911113006e+01
 9.251721164786462e-01	 1.081896892628681e+00	 1.029447249968760e+01
 9.146011019061038e-01	 1.090847886123069e+00	 1.013757420096275e+01
 9.039480233657795e-01	 1.099691878205725e+00	 9.987364978597284e+00
 8.932145110061570e-01	 1.108427751014714e+00	 9.844487841949324e+00
 8.824022147362783e-01	 1.117054419516117e+00	 9.703403565345255e+00
 8.715128033960283e-01	 1.125570831935865e+00	 9.548079078036773e+00
 8.605479639155839e-01	 1.133975970166630e+00	 9.381598230594850e+00
 8.495094004648983e-01	 1.142268850149480e+00	 9.208515980392164e+00
 9.623054030460286e-01	 1.060949913163808e+00	 1.082829581731726e+01
 9.519262068468063e-01	 1.070272316315703e+00	 1.065762174499920e+01
 9.414596446659769e-01	 1.079490622600068e+00	 1.049303882238797e+01
 9.309072922210736e-01	 1.088603610983356e+00	 1.033530417840082e+01
 9.202707475431936e-01	 1.097610092013084e+00	 1.018514097921770e+01
 9.095516301800242e-01	 1.106508908325406e+00	 1.004323564645110e+01
 8.987515803853882e-01	 1.115298935128739e+00	 9.907031115907088e+00
 8.878722582961653e-01	 1.123979080663019e+00	 9.757474115329485e+00
 8.769153430974311e-01	 1.132548286634205e+00	 9.594895385371839e+00
 8.658825321766948e-01	 1.141005528623706e+00	 9.423796117334032e+00
 8.547755402681128e-01	 1.149349816472390e+00	 9.248869498666345e+00
 9.682340176892732e-01	 1.067486261367175e+00	 1.085291907176790e+01
 9.577908768686817e-01	 1.076866098401900e+00	 1.068481426205598e+01
 9.472598318182397e-01	 1.086141197244342e+00	 1.052452831536449e+01
 9.366424679632236e-01	 1.095310329338370e+00	 1.037281591426158e+01
 9.259403931799469e-01	 1.104372297903486e+00	 1.023039641724705e+01
 9.151552369938699e-01	 1.113325938445520e+00	 1.009701414251416e+01
 9.042886497641597e-01	 1.122170119243239e+00	 9.953468945050256e+00
 8.933423018555336e-01	 1.130903741810428e+00	 9.795107956460622e+00
 8.823178827982596e-01	 1.139525741333079e+00	 9.626337407584455e+00
 8.712171004371820e-01	 1.148035087081330e+00	 9.451782118695812e+00
 8.600416800706600e-01	 1.156430782795849e+00	 9.276265779082767e+00
 8.073802820351771e-01	 1.085621119571988e+00	 8.645571176945939e+00
 7.968225133010767e-01	 1.093393831455592e+00	 8.469527583488723e+00
 7.861979784073625e-01	 1.101058121561683e+00	 8.297423604906923e+00
 7.755083344735213e-01	 1.108613158456955e+00	 8.128116057158595e+00
 7.647552517237872e-01	 1.116058144223075e+00	 7.958316427865779e+00
 7.539404126477530e-01	 1.123392314694512e+00	 7.781716918592675e+00
 7.430655111565820e-01	 1.130614939671368e+00	 7.600256552784627e+00
 7.321322517356790e-01	 1.137725323107168e+00	 7.416631124822153e+00
 7.211423485946780e-01	 1.144722803271552e+00	 7.233801787437590e+00
 7.100975248156002e-01	 1.151606752887915e+00	 7.054604786717157e+00
 6.989995115000320e-01	 1.158376579246008e+00	 6.881980274643818e+00
 8.126464218377240e-01	 1.092702085894701e+00	 8.708395622268721e+00
 8.020197900321115e-01	 1.100525495310181e+00	 8.536354728800836e+00
 7.913259565844319e-01	 1.108239775766875e+00	 8.368574526421737e+00
 7.805665894227382e-01	 1.115844090408439e+00	 8.201468737536127e+00
 7.697433696653099e-01	 1.123337636112106e+00	 8.026872856158132e+00
 7.588579907757853e-01	 1.130719643728060e+00	 7.846303273479739e+00
 7.479121577138694e-01	 1.137989378293664e+00	 7.662208900782295e+00
 7.369075860824801e-01	 1.145146139222463e+00	 7.477082095343947e+00
 7.258460012721907e-01	 1.152189260467951e+00	 7.293713056966535e+00
 7.147291376038313e-01	 1.159118110662096e+00	 7.114894230049099e+00
 7.035587374701054e-01	 1.165932093228688e+00	 6.943464309112391e+00
 8.179125616409386e-01	 1.099783052217030e+00	 8.778884439797736e+00
 8.072170667638509e-01	 1.107657159164353e+00	 8.612382763324570e+00
 7.964539347622335e-01	 1.115421429971638e+00	 8.448275722172429e+00
 7.856248443727102e-01	 1.123075022359500e+00	 8.276386215724859e+00
 7.747314876076047e-01	 1.130617128000730e+00	 8.097529975746864e+00
 7.637755689046014e-01	 1.138046972761229e+00	 7.914022859217072e+00
 7.527588042719486e-01	 1.145363816915609e+00	 7.728212925731174e+00
 7.416829204300779e-01	 1.152566955337439e+00	 7.542467907200819e+00
 7.305496539505022e-01	 1.159655717664057e+00	 7.359286824082881e+00
 7.193607503928622e-01	 1.166629468436005e+00	 7.181382363141948e+00
 7.081179634409789e-01	 1.173487607211099e+00	 7.011473605524157e+00
 8.231787014446538e-01	 1.106864018539093e+00	 8.856985087776895e+00
 8.124143434961176e-01	 1.114788823018229e+00	 8.695861375211681e+00
 8.015819129405842e-01	 1.122603084176091e+00	 8.527264196646428e+00
 7.906830993232478e-01	 1.130305954310250e+00	 8.350873969146402e+00
 7.797196055504780e-01	 1.137896619889056e+00	 8.168849935365539e+00
 7.686931470340052e-01	 1.145374301794115e+00	 7.983392936921941e+00
 7.576054508306217e-01	 1.152738255537294e+00	 7.796732566252880e+00
 7.464582547782734e-01	 1.159987771452176e+00	 7.611114396814789e+00
 7.352533066294134e-01	 1.167122174859944e+00	 7.428808134438237e+00
 7.239923631824934e-01	 1.174140826209707e+00	 7.252296367046908e+00
 7.126771894124521e-01	 1.181043121193310e+00	 7.084171269152556e+00
 8.284448412487024e-01	 1.113944984861005e+00	 8.941496725532254e+00
 8.176116202287358e-01	 1.121920486871926e+00	 8.776597385963976e+00
 8.067098911193010e-01	 1.129784738380351e+00	 8.603288925529135e+00
 7.957413542741629e-01	 1.137536886260803e+00	 8.423551483778480e+00
 7.847077234937372e-01	 1.145176111777187e+00	 8.239416242127971e+00
 7.736107251638008e-01	 1.152701630826816e+00	 8.052952325216392e+00
 7.624520973896907e-01	 1.160112694158807e+00	 7.866253718400776e+00
 7.512335891268671e-01	 1.167408587566755e+00	 7.681426272525131e+00
 7.399569593087237e-01	 1.174588632055685e+00	 7.500574957906332e+00
 7.286239759725242e-01	 1.181652183983273e+00	 7.325876125249096e+00
 7.172364153843257e-01	 1.188598635175388e+00	 7.159733069171418e+00
 8.337109810529183e-01	 1.121025951182882e+00	 9.021629680009008e+00
 8.228088969615299e-01	 1.129052150725564e+00	 8.851821659548584e+00
 8.118378692982010e-01	 1.136966392584536e+00	 8.675018469008217e+00
 8.007996092252667e-01	 1.144767818211272e+00	 8.493060265379004e+00
 7.896958414371892e-01	 1.152455603665230e+00	 8.307834375560679e+00
 7.785283032937923e-01	 1.160028959859430e+00	 8.121261968628032e+00
 7.672987439489576e-01	 1.167487132780236e+00	 7.935284751573555e+00
 7.560089234756597e-01	 1.174829403681255e+00	 7.751851761906993e+00
 7.446606119882341e-01	 1.182055089251353e+00	 7.572906328748603e+00
 7.332555887627554e-01	 1.189163541756770e+00	 7.400376034891173e+00
 7.217956413563998e-01	 1.196154149157399e+00	 7.236349122561620e+00
 8.389771208571342e-01	 1.128106917504843e+00	 9.093677662800722e+00
 8.280061736943244e-01	 1.136183814579263e+00	 8.920243823623062e+00
 8.169658474771012e-01	 1.144148046788762e+00	 8.741144336785917e+00
 8.058578641763705e-01	 1.151998750161769e+00	 8.558064483969162e+00
 7.946839593806412e-01	 1.159735095553291e+00	 8.372732394592187e+00
 7.834458814237838e-01	 1.167356288892055e+00	 8.186905500161863e+00
 7.721453905082244e-01	 1.174861571401670e+00	 8.002357020065050e+00
 7.607842578244524e-01	 1.182250219795758e+00	 7.820862554458860e+00
 7.493642646677448e-01	 1.189521546447022e+00	 7.644186858100570e+00
 7.378872015529861e-01	 1.196674899530267e+00	 7.474066819490670e+00
 7.263548673284734e-01	 1.203709663139410e+00	 7.312225581890180e+00
 8.442432606611833e-01	 1.135187883827004e+00	 9.156383604404539e+00
 8.332034504269425e-01	 1.143315478433141e+00	 8.980597636105378e+00
 8.220938256558182e-01	 1.151329700993149e+00	 8.800381654536906e+00
 8.109161191272857e-01	 1.159229682112406e+00	 8.617251610677071e+00
 7.996720773238999e-01	 1.167014587441475e+00	 8.432761537804616e+00
 7.883634595535792e-01	 1.174683617924787e+00	 8.248489798292599e+00
 7.769920370672930e-01	 1.182236010023199e+00	 8.066025370441405e+00
 7.655595921730458e-01	 1.189671035910344e+00	 7.886954253318724e+00
 7.540679173470552e-01	 1.196988003642765e+00	 7.712846065678680e+00
 7.425188143430175e-01	 1.204186257303833e+00	 7.545240912719937e+00
 7.309140933003472e-01	 1.211265177121489e+00	 7.385586326785205e+00
 8.495094004648983e-01	 1.142268850149480e+00	 9.208515980392164e+00
 8.384007271592091e-01	 1.150447142287318e+00	 9.031641665710225e+00
 8.272218038341691e-01	 1.158511355197814e+00	 8.851469822448763e+00
 8.159743740778236e-01	 1.166460614063299e+00	 8.669333047270481e+00
 8.046601952667733e-01	 1.174294079329889e+00	 8.486596817240173e+00
 7.932810376829832e-01	 1.182010946957725e+00	 8.304645538619042e+00
 7.818386836259662e-01	 1.189610448644910e+00	 8.124868644921715e+00
 7.703349265212415e-01	 1.197091852025092e+00	 7.948646824554617e+00
 7.587715700259661e-01	 1.204454460838655e+00	 7.777338456379574e+00
 7.471504271326483e-01	 1.211697615077536e+00	 7.612266329129300e+00
 7.354733192718205e-01	 1.218820691103700e+00	 7.454674658942054e+00
 8.547755402681128e-01	 1.149349816472390e+00	 9.248869498666345e+00
 8.435980038909481e-01	 1.157578806141913e+00	 9.072159964573309e+00
 8.323497820119703e-01	 1.165693009402874e+00	 8.893173166180789e+00
 8.210326290277951e-01	 1.173691546014558e+00	 8.713044748689674e+00
 8.096483132090680e-01	 1.181573571218639e+00	 8.532937606032180e+00
 7.981986158117992e-01	 1.189338275990966e+00	 8.354027740407528e+00
 7.866853301840454e-01	 1.196984887266893e+00	 8.177490180932981e+00
 7.751102608688389e-01	 1.204512668140084e+00	 8.004485044125460e+00
 7.634752227042780e-01	 1.211920918034767e+00	 7.836143816861906e+00
 7.517820399216792e-01	 1.219208972851444e+00	 7.673555939951432e+00
 7.400325452426939e-01	 1.226376205086111e+00	 7.517755000503730e+00
 8.600416800706600e-01	 1.156430782795849e+00	 9.276265779082767e+00
 8.487952806219835e-01	 1.164710469997046e+00	 9.100962733305375e+00
 8.374777601890396e-01	 1.172874663608447e+00	 8.924281580563584e+00
 8.260908839770124e-01	 1.180922477966298e+00	 8.747147838879728e+00
 8.146364311505910e-01	 1.188853063107831e+00	 8.570508220129224e+00
 8.031161939398316e-01	 1.196665605024608e+00	 8.395316308241291e+00
 7.915319767413330e-01	 1.204359325889236e+00	 8.222518307002112e+00
 7.798855952156404e-01	 1.211933484255399e+00	 8.053038942614830e+00
 7.681788753817906e-01	 1.219387375231171e+00	 7.887767604007113e+00
 7.564136527099106e-01	 1.226720330625627e+00	 7.727544801267150e+00
 7.445917712127673e-01	 1.233931719068790e+00	 7.573149019545289e+00
 6.989995115000320e-01	 1.158376579246008e+00	 6.881980274643818e+00
 6.878500471339709e-01	 1.165031724570546e+00	 6.712298172605151e+00
 6.766508773749484e-01	 1.171571666931022e+00	 6.540623227991935e+00
 6.654037535230670e-01	 1.177995919443366e+00	 6.368001372806263e+00
 6.541104314506725e-01	 1.184304030001858e+00	 6.195454953142154e+00
 6.427726707565111e-01	 1.190495581266529e+00	 6.023963125725190e+00
 6.313922339239028e-01	 1.196570190626451e+00	 5.854443544442805e+00
 6.199708854837138e-01	 1.202527510139157e+00	 5.687735428082755e+00
 6.085103911828983e-01	 1.208367226446504e+00	 5.524584088854521e+00
 5.970125171593559e-01	 1.214089060667263e+00	 5.365626989385962e+00
 5.854790291238445e-01	 1.219692768266804e+00	 5.211381383842295e+00
 7.035587374701054e-01	 1.165932093228688e+00	 6.943464309112391e+00
 6.923365506962912e-01	 1.172630646754337e+00	 6.775225851166418e+00
 6.810643343259738e-01	 1.179213245904258e+00	 6.604750169087511e+00
 6.697438510821119e-01	 1.185679400618684e+00	 6.433088743737249e+00
 6.583768682897304e-01	 1.192028655843047e+00	 6.261265984699669e+00
 6.469651570245585e-01	 1.198260591515288e+00	 6.090258797133792e+00
 6.355104912657158e-01	 1.204374822528908e+00	 5.920977506687807e+00
 6.240146470532223e-01	 1.210370998671996e+00	 5.754248237451820e+00
 6.124794016511185e-01	 1.216248804542540e+00	 5.590796825769607e+00
 6.009065327169392e-01	 1.222007959440318e+00	 5.431234340315620e+00
 5.892978174782924e-01	 1.227648217235732e+00	 5.276044266270572e+00
 7.081179634409789e-01	 1.173487607211099e+00	 7.011473605524157e+00
 6.968230542594117e-01	 1.180229568937854e+00	 6.844810302675285e+00
 6.854777912777998e-01	 1.186854824877196e+00	 6.675518209764586e+00
 6.740839486419578e-01	 1.193362881793672e+00	 6.504685258747815e+00
 6.626433051295890e-01	 1.199753281683864e+00	 6.333369179836794e+00
 6.511576432934081e-01	 1.206025601763627e+00	 6.162576156041675e+00
 6.396287486083325e-01	 1.212179454430894e+00	 5.993240906342600e+00
 6.280584086235375e-01	 1.218214487204311e+00	 5.826208296440536e+00
 6.164484121201476e-01	 1.224130382638000e+00	 5.662216563355474e+00
 6.048005482753354e-01	 1.229926858212747e+00	 5.501882227166151e+00
 5.931166058335577e-01	 1.235603666203992e+00	 5.345686750070843e+00
 7.126771894124521e-01	 1.181043121193310e+00	 7.084171269152556e+00
 7.013095578231324e-01	 1.187828491121165e+00	 6.919155487778175e+00
 6.898912482302260e-01	 1.194496403849912e+00	 6.750987570333514e+00
 6.784240462024044e-01	 1.201046362968413e+00	 6.580822411979545e+00
 6.669097419700504e-01	 1.207477907524403e+00	 6.409781910601316e+00
 6.553501295628622e-01	 1.213790612011651e+00	 6.238932625797549e+00
 6.437470059515569e-01	 1.219984086332526e+00	 6.069264939646373e+00
 6.321021701944637e-01	 1.226057975736232e+00	 5.901673822399314e+00
 6.204174225897942e-01	 1.232011960733026e+00	 5.736941293002381e+00
 6.086945638343557e-01	 1.237845756984707e+00	 5.575720650822630e+00
 5.969353941894570e-01	 1.243559115171751e+00	 5.418522541251610e+00
 7.172364153843257e-01	 1.188598635175388e+00	 7.159733069171418e+00
 7.057960613872531e-01	 1.195427413304337e+00	 6.996377906126160e+00
 6.943047051830527e-01	 1.202137982822479e+00	 6.829230545757419e+00
 6.827641437632525e-01	 1.208729844142988e+00	 6.659542990983676e+00
 6.711761788109148e-01	 1.215202533364756e+00	 6.488531766775285e+00
 6.595426158327228e-01	 1.221555622259466e+00	 6.317354499691671e+00
 6.478652632951922e-01	 1.227788718233922e+00	 6.147088075013023e+00
 6.361459317658077e-01	 1.233901464267892e+00	 5.978708479034861e+00
 6.243864330598669e-01	 1.239893538827765e+00	 5.813072420269393e+00
 6.125885793938138e-01	 1.245764655756356e+00	 5.650900809183570e+00
 6.007541825458069e-01	 1.251514564139175e+00	 5.492764161809880e+00
 7.217956413563998e-01	 1.196154149157399e+00	 7.236349122561620e+00
 7.102825649515742e-01	 1.203026335487442e+00	 7.074608156310035e+00
 6.987181621360801e-01	 1.209779561794972e+00	 6.908332953309438e+00
 6.871042413243027e-01	 1.216413325317481e+00	 6.738902423431675e+00
 6.754426156519835e-01	 1.222927159205015e+00	 6.567657812598139e+00
 6.637351021027919e-01	 1.229320632507176e+00	 6.395878118274206e+00
 6.519835206390427e-01	 1.235593350135202e+00	 6.224757161129759e+00
 6.401896933373754e-01	 1.241744952799419e+00	 6.055382425082835e+00
 6.283554435301745e-01	 1.247775116922360e+00	 5.888715763514689e+00
 6.164825949535212e-01	 1.253683554527846e+00	 5.725576054722696e+00
 6.045729709024250e-01	 1.259470013106432e+00	 5.566623874778188e+00
 7.263548673284734e-01	 1.203709663139410e+00	 7.312225581890180e+00
 7.147690685158953e-01	 1.210625257670545e+00	 7.151992501916698e+00
 7.031316190891078e-01	 1.217421140767465e+00	 6.986395588172682e+00
 6.914443388853548e-01	 1.224096806491974e+00	 6.816970133175580e+00
 6.797090524930580e-01	 1.230651785045275e+00	 6.645211853851675e+00
 6.679275883728715e-01	 1.237085642754886e+00	 6.472551057661818e+00
 6.561017779829115e-01	 1.243397982036480e+00	 6.300328546317071e+00
 6.442334549089721e-01	 1.249588441330948e+00	 6.129773374170524e+00
 6.323244540005256e-01	 1.255656695016954e+00	 5.961982563324963e+00
 6.203766105132907e-01	 1.261602453299338e+00	 5.797902862155075e+00
 6.083917592591278e-01	 1.267425462073689e+00	 5.638314618389966e+00
 7.309140933003472e-01	 1.211265177121489e+00	 7.385586326785205e+00
 7.192555720800161e-01	 1.218224179853718e+00	 7.226694443440797e+00
 7.075450760419366e-01	 1.225062719740032e+00	 7.061535686634461e+00
 6.957844364462100e-01	 1.231780287666549e+00	 6.891830905247358e+00
 6.839754893339389e-01	 1.238376410885629e+00	 6.719259714846963e+00
 6.721200746427641e-01	 1.244850653002701e+00	 6.545433328352987e+00
 6.602200353266021e-01	 1.251202613937876e+00	 6.371869208657792e+00
 6.482772164804037e-01	 1.257431929862607e+00	 6.199967665381392e+00
 6.362934644707289e-01	 1.263538273111692e+00	 6.030990502271834e+00
 6.242706260729346e-01	 1.269521352070985e+00	 5.866041805759430e+00
 6.122105476157323e-01	 1.275380911041113e+00	 5.706050948964375e+00
 7.354733192718205e-01	 1.218820691103700e+00	 7.454674658942054e+00
 7.237420756437370e-01	 1.225823102037027e+00	 7.296896295786357e+00
 7.119585329943662e-01	 1.232704298712748e+00	 7.131888396539776e+00
 7.001245340066686e-01	 1.239463768841290e+00	 6.961586259404385e+00
 6.882419261744276e-01	 1.246101036726167e+00	 6.787882524882818e+00
 6.763125609122714e-01	 1.252615663250725e+00	 6.612598584091921e+00
 6.643382926699184e-01	 1.259007245839509e+00	 6.437457896420108e+00
 6.523209780514763e-01	 1.265275418394528e+00	 6.264061344051299e+00
 6.402624749405932e-01	 1.271419851206719e+00	 6.093864734537984e+00
 6.281646416322649e-01	 1.277440250842945e+00	 5.928158545936823e+00
 6.160293359720557e-01	 1.283336360008872e+00	 5.768049992130626e+00
 7.400325452426939e-01	 1.226376205086111e+00	 7.517755000503730e+00
 7.282285792068580e-01	 1.233422024220544e+00	 7.360800771117172e+00
 7.163719899461964e-01	 1.240345877685686e+00	 7.195608254686011e+00
 7.044646315665303e-01	 1.247147250016277e+00	 7.024355831847126e+00
 6.925083630143247e-01	 1.253825662566985e+00	 6.849178013762046e+00
 6.805050471811960e-01	 1.260380673499065e+00	 6.672135340341265e+00
 6.684565500126647e-01	 1.266811877741495e+00	 6.495186278329756e+00
 6.563647396219955e-01	 1.273118906926842e+00	 6.320161252351554e+00
 6.442314854099271e-01	 1.279301429302179e+00	 6.148738924988931e+00
 6.320586571910940e-01	 1.285359149615374e+00	 5.982424824604802e+00
 6.198481243279141e-01	 1.291291808977132e+00	 5.822532402026704e+00
 7.445917712127673e-01	 1.233931719068790e+00	 7.573149019545289e+00
 7.327150827691792e-01	 1.241020946404336e+00	 7.416632566818738e+00
 7.207854468972287e-01	 1.247987456658922e+00	 7.250870670856598e+00
 7.088047291255960e-01	 1.254830731191595e+00	 7.078278764755932e+00
 6.967747998534317e-01	 1.261550288408174e+00	 6.901261815970815e+00
 6.846975334493393e-01	 1.268145683747823e+00	 6.722148201951387e+00
 6.725748073546437e-01	 1.274616509643952e+00	 6.543160103266333e+00
 6.604085011917672e-01	 1.280962395459682e+00	 6.366386129238150e+00
 6.482004958785397e-01	 1.287183007398215e+00	 6.193756297281793e+00
 6.359526727492348e-01	 1.293278048388430e+00	 6.027019469044770e+00
 6.236669126831258e-01	 1.299247257946061e+00	 5.867723328131374e+00
 5.854790291238445e-01	 1.219692768266804e+00	 5.211381383842297e+00
 5.739097221063959e-01	 1.225179061259301e+00	 5.056806788584096e+00
 5.623083167801739e-01	 1.230546799785333e+00	 4.897834982524861e+00
 5.506765730720242e-01	 1.235795840422856e+00	 4.736164345990742e+00
 5.390162473136554e-01	 1.240926073375034e+00	 4.573349945483125e+00
 5.273290914687052e-01	 1.245937422231995e+00	 4.410797653985400e+00
 5.156168523708461e-01	 1.250829843712159e+00	 4.249759953515293e+00
 5.038812709735320e-01	 1.255603327383696e+00	 4.091333396213548e+00
 4.921240816119464e-01	 1.260257895366589e+00	 3.936457689701769e+00
 4.803470112777085e-01	 1.264793602015854e+00	 3.785916362387711e+00
 4.685517789068528e-01	 1.269210533586462e+00	 3.640338954897682e+00
 5.892978174782924e-01	 1.227648217235732e+00	 5.276044266270572e+00
 5.776530496282924e-01	 1.233170294587080e+00	 5.120337857631155e+00
 5.659759741082085e-01	 1.238573044200203e+00	 4.960262145289963e+00
 5.542683623240225e-01	 1.243856321717579e+00	 4.797564276590781e+00
 5.425319820631298e-01	 1.249020016626222e+00	 4.633839341192347e+00
 5.307685967163628e-01	 1.254064052017867e+00	 4.470524292683923e+00
 5.189799645111298e-01	 1.258988384328630e+00	 4.308893637336183e+00
 5.071678377562659e-01	 1.263793003058634e+00	 4.150056865063359e+00
 4.953339620991686e-01	 1.268477930472135e+00	 3.994957586634238e+00
 4.834800757957720e-01	 1.273043221278675e+00	 3.844374330676728e+00
 4.716079089938832e-01	 1.277488962295819e+00	 3.698922944083013e+00
 5.931166058335577e-01	 1.235603666203992e+00	 5.345686750070843e+00
 5.813963771510112e-01	 1.241161527914155e+00	 5.188917744479010e+00
 5.696436314370721e-01	 1.246599288614339e+00	 5.027923396329674e+00
 5.578601515768564e-01	 1.251916803011547e+00	 4.864472728201378e+00
 5.460477168134463e-01	 1.257113959876637e+00	 4.700173386042596e+00
 5.342081019648690e-01	 1.262190681802957e+00	 4.536465393530849e+00
 5.223430766522682e-01	 1.267146924944311e+00	 4.374616761353965e+00
 5.104544045398597e-01	 1.271982678732776e+00	 4.215720925169420e+00
 4.985438425872541e-01	 1.276697965576881e+00	 4.060695974482487e+00
 4.866131403147014e-01	 1.281292840540695e+00	 3.910285623721372e+00
 4.746640390817801e-01	 1.285767391004374e+00	 3.765061866413165e+00
 5.969353941894570e-01	 1.243559115171751e+00	 5.418522541251606e+00
 5.851397046743755e-01	 1.249152761240702e+00	 5.260828288855074e+00
 5.733112887665927e-01	 1.254625533027926e+00	 5.099166576409575e+00
 5.614519408303611e-01	 1.259977284304949e+00	 4.935301932735563e+00
 5.495634515644466e-01	 1.265207903126473e+00	 4.770827596024798e+00
 5.376476072140721e-01	 1.270317311587458e+00	 4.607159131808316e+00
 5.257061887941151e-01	 1.275305465559397e+00	 4.445529996625628e+00
 5.137409713241720e-01	 1.280172354406320e+00	 4.286989019739984e+00
 5.017537230760667e-01	 1.284918000681029e+00	 4.132399763228499e+00
 4.897462048343625e-01	 1.289542459802115e+00	 3.982441709332316e+00
 4.777201691704104e-01	 1.294045819712330e+00	 3.837613213129899e+00
 6.007541825458069e-01	 1.251514564139175e+00	 5.492764161809879e+00
 5.888830321982068e-01	 1.257143994566896e+00	 5.334347792734573e+00
 5.769789460965999e-01	 1.262651777441146e+00	 5.172333834599918e+00
 5.650437300843714e-01	 1.268037765597972e+00	 5.008456467564966e+00
 5.530791863159727e-01	 1.273301846375924e+00	 4.844268051683601e+00
 5.410871124638202e-01	 1.278443941371568e+00	 4.681132638772262e+00
 5.290693009365246e-01	 1.283464006174087e+00	 4.520221523863437e+00
 5.170275381090624e-01	 1.288362030079466e+00	 4.362510807070834e+00
 5.049636035654689e-01	 1.293138035784776e+00	 4.208780924176040e+00
 4.928792693546211e-01	 1.297792079063135e+00	 4.059618092301607e+00
 4.807762992596409e-01	 1.302324248419886e+00	 3.915417605748499e+00
 6.045729709024250e-01	 1.259470013106432e+00	 5.566623874778188e+00
 5.926263597223281e-01	 1.265135227892915e+00	 5.407751915593600e+00
 5.806466034269215e-01	 1.270678021854182e+00	 5.245762491237570e+00
 5.686355193387228e-01	 1.276098246890808e+00	 5.082334084160637e+00
 5.565949210678668e-01	 1.281395789625182e+00	 4.918952190861933e+00
 5.445266177139618e-01	 1.286570571155480e+00	 4.756902757386172e+00
 5.324324130793515e-01	 1.291622546788580e+00	 4.597267751489417e+00
 5.203141048943902e-01	 1.296551705752412e+00	 4.440922840694822e+00
 5.081734840553243e-01	 1.301358070888324e+00	 4.288537132408954e+00
 4.960123338753431e-01	 1.306041698323955e+00	 4.140574919813401e+00
 4.838324293493376e-01	 1.310602677127242e+00	 3.997299365486082e+00
 6.083917592591278e-01	 1.267425462073689e+00	 5.638314618389966e+00
 5.963696872465618e-01	 1.273126461218933e+00	 5.479314577736748e+00
 5.843142607573865e-01	 1.278704266267219e+00	 5.317785908056633e+00
 5.722273085932504e-01	 1.284158728183643e+00	 5.155326543114073e+00
 5.601106558199702e-01	 1.289489732874439e+00	 4.993329607150812e+00
 5.479661229643452e-01	 1.294697200939394e+00	 4.832976803172203e+00
 5.357955252224496e-01	 1.299781087403072e+00	 4.675234038297352e+00
 5.236006716800146e-01	 1.304741381425359e+00	 4.520849253694903e+00
 5.113833645454962e-01	 1.309578105991872e+00	 4.370352413014331e+00
 4.991453983963941e-01	 1.314291317584775e+00	 4.224057590255066e+00
 4.868885594393675e-01	 1.318881105834597e+00	 4.082067085747518e+00
 6.122105476157323e-01	 1.275380911041113e+00	 5.706050948964371e+00
 6.001130147707305e-01	 1.281117694545127e+00	 5.547308871346255e+00
 5.879819180878236e-01	 1.286730510680439e+00	 5.386734365171440e+00
 5.758190978477898e-01	 1.292219209476668e+00	 5.225820455262168e+00
 5.636263905721253e-01	 1.297583676123889e+00	 5.065842853792291e+00
 5.514056282148188e-01	 1.302823830723503e+00	 4.907853329956507e+00
 5.391586373656733e-01	 1.307939628017762e+00	 4.752675420525515e+00
 5.268872384657949e-01	 1.312931057098505e+00	 4.600902447000605e+00
 5.145932450358476e-01	 1.317798141095619e+00	 4.452897790911860e+00
 5.022784629176400e-01	 1.322540936845795e+00	 4.308797365285225e+00
 4.899446895295974e-01	 1.327159534542153e+00	 4.168514207537431e+00
 6.160293359720557e-01	 1.283336360008872e+00	 5.768049992130617e+00
 6.038563422946563e-01	 1.289108927871674e+00	 5.610007978912353e+00
 5.916495754180615e-01	 1.294756755094025e+00	 5.450935944612186e+00
 5.794108871021758e-01	 1.300279690770069e+00	 5.292198128646386e+00
 5.671421253241739e-01	 1.305677619373726e+00	 5.134928252797303e+00
 5.548451334652307e-01	 1.310950460508004e+00	 4.980022900295571e+00
 5.425217495088764e-01	 1.316098168632848e+00	 4.828137343143858e+00
 5.301738052515907e-01	 1.321120732772049e+00	 4.679683781494048e+00
 5.178031255262420e-01	 1.326018176199766e+00	 4.534831944126228e+00
 5.054115274389462e-01	 1.330790556107216e+00	 4.393511985015724e+00
 4.930008196198934e-01	 1.335437963250109e+00	 4.255419597669371e+00
 6.198481243279141e-01	 1.291291808977132e+00	 5.822532402026695e+00
 6.075996698181618e-01	 1.297100161198748e+00	 5.665686098729572e+00
 5.953172327479285e-01	 1.302782999508162e+00	 5.508717420130679e+00
 5.830026763562438e-01	 1.308340172064037e+00	 5.352838421054411e+00
 5.706578600759575e-01	 1.313771562624142e+00	 5.199016709054899e+00
 5.582846387154294e-01	 1.319077090293093e+00	 5.047968860378485e+00
 5.458848616519137e-01	 1.324256709248528e+00	 4.900156395175414e+00
 5.334603720372609e-01	 1.329310408446191e+00	 4.755784273759025e+00
 5.210130060165425e-01	 1.334238211304513e+00	 4.614801860359256e+00
 5.085445919601789e-01	 1.339040175369236e+00	 4.476906286170637e+00
 4.960569497101224e-01	 1.343716391958665e+00	 4.341548129653746e+00
 6.236669126831258e-01	 1.299247257946061e+00	 5.867723328131374e+00
 6.113429973410696e-01	 1.305091394526528e+00	 5.712619377146126e+00
 5.989848900772535e-01	 1.310809243923031e+00	 5.558405153002717e+00
 5.865944656098293e-01	 1.316400653358761e+00	 5.406117597902282e+00
 5.741735948273184e-01	 1.321865505875329e+00	 5.256534529211542e+00
 5.617241439652630e-01	 1.327203720078967e+00	 5.110168119213995e+00
 5.492479737946393e-01	 1.332415249865001e+00	 4.967261048875374e+00
 5.367469388226653e-01	 1.337500084121130e+00	 4.827785295317280e+00
 5.242228865066125e-01	 1.342458246410058e+00	 4.691443496714090e+00
 5.116776564812040e-01	 1.347289794632056e+00	 4.557672823097668e+00
 4.991130798001508e-01	 1.351994820668021e+00	 4.425651267144836e+00
 4.685517789068528e-01	 1.269210533586462e+00	 3.640338954897681e+00
 4.567421036580435e-01	 1.273508087186421e+00	 3.499956459267540e+00
 4.449176814900399e-01	 1.277687171888223e+00	 3.364505231383859e+00
 4.330802016659260e-01	 1.281747966506409e+00	 3.233731276029853e+00
 4.212313427177444e-01	 1.285690680225100e+00	 3.107252575940284e+00
 4.093727718083590e-01	 1.289515552181324e+00	 2.984568363748080e+00
 3.975061441091533e-01	 1.293222851033616e+00	 2.865069418889237e+00
 3.856331021939091e-01	 1.296812874516516e+00	 2.748049287470151e+00
 3.737552754491775e-01	 1.300285948981592e+00	 2.632716319315443e+00
 3.618742795014405e-01	 1.303642428925645e+00	 2.518403966249520e+00
 3.499917156613211e-01	 1.306882696506716e+00	 2.403624874578482e+00
 4.716079089938832e-01	 1.277488962295819e+00	 3.698922944083013e+00
 4.597212051103918e-01	 1.281814546699208e+00	 3.558815906918838e+00
 4.478196581209375e-01	 1.286020889490769e+00	 3.423787797381614e+00
 4.359049683068133e-01	 1.290108170651366e+00	 3.293585854386199e+00
 4.239788251482772e-01	 1.294076600729533e+00	 3.167824671113760e+00
 4.120429066822531e-01	 1.297926420422076e+00	 3.045995921311449e+00
 4.000988788759711e-01	 1.301657900139864e+00	 2.927479163176375e+00
 3.881483950168906e-01	 1.305271339559416e+00	 2.811553614258954e+00
 3.761930951192273e-01	 1.308767067160938e+00	 2.697410786852769e+00
 3.642346053473779e-01	 1.312145439753444e+00	 2.584291412468873e+00
 3.522745374565047e-01	 1.315406841987608e+00	 2.471095268814834e+00
 4.746640390817801e-01	 1.285767391004374e+00	 3.765061866413166e+00
 4.627003065636055e-01	 1.290121006211195e+00	 3.625219901380327e+00
 4.507216347526961e-01	 1.294354607092516e+00	 3.490513304577648e+00
 4.387297349485518e-01	 1.298468374795530e+00	 3.360688921105328e+00
 4.267263075796457e-01	 1.302462521233183e+00	 3.235355627884437e+00
 4.147130415569605e-01	 1.306337288662063e+00	 3.113994537761813e+00
 4.026916136435705e-01	 1.310092949245371e+00	 2.995970336498308e+00
 3.906636878406118e-01	 1.313729804601611e+00	 2.880543641332207e+00
 3.786309147899642e-01	 1.317248185339625e+00	 2.766884265642630e+00
 3.665949311939369e-01	 1.320648450580642e+00	 2.654139669281073e+00
 3.545573592522309e-01	 1.323930987467973e+00	 2.541482333044635e+00
 4.777201691704104e-01	 1.294045819712330e+00	 3.837613213129896e+00
 4.656794080175501e-01	 1.298427465722582e+00	 3.698091263300818e+00
 4.536236113851783e-01	 1.302688324693665e+00	 3.563666674813769e+00
 4.415545015910023e-01	 1.306828578939100e+00	 3.434084022812915e+00
 4.294737900117078e-01	 1.310848441736247e+00	 3.308943879702613e+00
 4.173831764323366e-01	 1.314748156901475e+00	 3.187713521196819e+00
 4.052843484118068e-01	 1.318527998350322e+00	 3.069738823289457e+00
 3.931789806649311e-01	 1.322188269643276e+00	 2.954257233909534e+00
 3.810687344612511e-01	 1.325729303517817e+00	 2.840411698657667e+00
 3.689552570409896e-01	 1.329151461407391e+00	 2.727274259288624e+00
 3.568401810483847e-01	 1.332455132947942e+00	 2.614140040043671e+00
 4.807762992596409e-01	 1.302324248419886e+00	 3.915417605748497e+00
 4.686585094720915e-01	 1.306733925233570e+00	 3.776335206036307e+00
 4.565255880182480e-01	 1.311022042294415e+00	 3.642214714596786e+00
 4.443792682340249e-01	 1.315188783082273e+00	 3.512796313492412e+00
 4.322212724443213e-01	 1.319234362238919e+00	 3.387669421460715e+00
 4.200533113082377e-01	 1.323159025140504e+00	 3.266283926739300e+00
 4.078770831805363e-01	 1.326963047454903e+00	 3.147962671656768e+00
 3.956942734897058e-01	 1.330646734684588e+00	 3.031915067637633e+00
 3.835065541329510e-01	 1.334210421695680e+00	 2.917251714691298e+00
 3.713155828884073e-01	 1.337654472233839e+00	 2.802999895796256e+00
 3.591230028448506e-01	 1.340979278427649e+00	 2.688408450019910e+00
 4.838324293493376e-01	 1.310602677127242e+00	 3.997299365486080e+00
 4.716376109270947e-01	 1.315040384744356e+00	 3.858839868578754e+00
 4.594275646517683e-01	 1.319355759894966e+00	 3.725106609101286e+00
 4.472040348774798e-01	 1.323548987225248e+00	 3.595833007093621e+00
 4.349687548773438e-01	 1.327620282741396e+00	 3.470594218189917e+00
 4.227234461845196e-01	 1.331569893379342e+00	 3.348818918753433e+00
 4.104698179496143e-01	 1.335398096559300e+00	 3.229802406500018e+00
 3.982095663147940e-01	 1.339105199725725e+00	 3.112720889946271e+00
 3.859443738049267e-01	 1.342691539873378e+00	 2.996646835228971e+00
 3.736759087360618e-01	 1.346157483060137e+00	 2.880565235002971e+00
 3.614058246415134e-01	 1.349503423907223e+00	 2.763613305543005e+00
 4.868885594393675e-01	 1.318881105834597e+00	 4.082067085747513e+00
 4.746167123824258e-01	 1.323346844255143e+00	 3.944476851278667e+00
 4.623295412856021e-01	 1.327689477495516e+00	 3.811274418854060e+00
 4.500288015212279e-01	 1.331909191368224e+00	 3.682183832864644e+00
 4.377162373106335e-01	 1.336006203243872e+00	 3.556762616678157e+00
 4.253935810610385e-01	 1.339980761618180e+00	 3.434414136341192e+00
 4.130625527188969e-01	 1.343833145663695e+00	 3.314401346430224e+00
 4.007248591400536e-01	 1.347563664766861e+00	 3.195861785885621e+00
 3.883821934770414e-01	 1.351172658051076e+00	 3.077823686649764e+00
 3.760362345838244e-01	 1.354660493886435e+00	 2.959223053895339e+00
 3.636886464382575e-01	 1.358027569386798e+00	 2.839065633999837e+00
 4.899446895295974e-01	 1.327159534542153e+00	 4.168514207537431e+00
 4.775958138379504e-01	 1.331653303766131e+00	 4.032101754236217e+00
 4.652315179196134e-01	 1.336023195096266e+00	 3.899633578983292e+00
 4.528535681651295e-01	 1.340269395511398e+00	 3.770821493286009e+00
 4.404637197440476e-01	 1.344392123746545e+00	 3.645201759880433e+00
 4.280637159376501e-01	 1.348391629857209e+00	 3.522148061975546e+00
 4.156552874882399e-01	 1.352268194768276e+00	 3.400885924323993e+00
 4.032401519653424e-01	 1.356022129808173e+00	 3.280508448252370e+00
 3.908200131491575e-01	 1.359653776228938e+00	 3.159993217525227e+00
 3.783965604315673e-01	 1.363163504712884e+00	 3.038220227709353e+00
 3.659714682349676e-01	 1.366551714866505e+00	 2.914061357251152e+00
 4.930008196198934e-01	 1.335437963250109e+00	 4.255419597669366e+00
 4.805749152935335e-01	 1.339959763277518e+00	 4.120554718252706e+00
 4.681334945536649e-01	 1.344356912697414e+00	 3.989083400919199e+00
 4.556783348090451e-01	 1.348629599654967e+00	 3.860702124498827e+00
 4.432112021774441e-01	 1.352778044249608e+00	 3.734922004004325e+00
 4.307338508142108e-01	 1.356802498096622e+00	 3.611082393131865e+00
 4.182480222574991e-01	 1.360703243873228e+00	 3.488366011351524e+00
 4.057554447905181e-01	 1.364480594849838e+00	 3.365815451813435e+00
 3.932578328211385e-01	 1.368134894407131e+00	 3.242350920796598e+00
 3.807568862791614e-01	 1.371666515539633e+00	 3.116789055002051e+00
 3.682542900315289e-01	 1.375075860346475e+00	 2.987880908180037e+00
 4.960569497101224e-01	 1.343716391958665e+00	 4.341548129653746e+00
 4.835540167490411e-01	 1.348266222789505e+00	 4.208660968223271e+00
 4.710354711876202e-01	 1.352690630299162e+00	 4.078507576440539e+00
 4.585031014528350e-01	 1.356989803799131e+00	 3.950765759111732e+00
 4.459586846106810e-01	 1.361163964753259e+00	 3.824917338151902e+00
 4.334039856905763e-01	 1.365213366336608e+00	 3.700262416795862e+00
 4.208407570265301e-01	 1.369138292978735e+00	 3.575935244332034e+00
 4.082707376154387e-01	 1.372939059892032e+00	 3.450921531458782e+00
 3.956956524928468e-01	 1.376616012585818e+00	 3.324077060620243e+00
 3.831172121264788e-01	 1.380169526366831e+00	 3.194147431043109e+00
 3.705371118278250e-01	 1.383600005826839e+00	 3.059788774688422e+00
 4.991130798001508e-01	 1.351994820668021e+00	 4.425651267144843e+00
 4.865331182043390e-01	 1.356572682302293e+00	 4.295231358872735e+00
 4.739374478213425e-01	 1.361024347901707e+00	 4.166774683969866e+00
 4.613278680963599e-01	 1.365350007944089e+00	 4.039936791295771e+00
 4.487061670436159e-01	 1.369549885257692e+00	 3.914165806411282e+00
 4.360741205666026e-01	 1.373624234577360e+00	 3.788717386716524e+00
 4.234334917951887e-01	 1.377573342084982e+00	 3.662671356277122e+00
 4.107860304399624e-01	 1.381397524934933e+00	 3.534949864109998e+00
 3.981334721641456e-01	 1.385097130765164e+00	 3.404336903679988e+00
 3.854775379733910e-01	 1.388672537194630e+00	 3.269499026525402e+00
 3.728199336237416e-01	 1.392124151307731e+00	 3.129007079229900e+00
 3.499917156613211e-01	 1.306882696506716e+00	 2.403624874578482e+00
 3.381091705472289e-01	 1.310007161332449e+00	 2.292477840292084e+00
 3.262282160356712e-01	 1.313016260802667e+00	 2.190264799344293e+00
 3.143504082451845e-01	 1.315910458735754e+00	 2.095760123377833e+00
 3.024772868851621e-01	 1.318690244556447e+00	 2.007815593174105e+00
 2.906103747886412e-01	 1.321356132759197e+00	 1.925370408327719e+00
 2.787511774632436e-01	 1.323908662363273e+00	 1.847459519674727e+00
 2.669011826603555e-01	 1.326348396360253e+00	 1.773220353391785e+00
 2.550618599626067e-01	 1.328675921154549e+00	 1.701898000719714e+00
 2.432346603896930e-01	 1.330891845997599e+00	 1.632848951616128e+00
 2.314210160225521e-01	 1.332996802416356e+00	 1.565543454323537e+00
 3.522745374565047e-01	 1.315406841987608e+00	 2.471095268814834e+00
 3.403144884137317e-01	 1.318551686142743e+00	 2.362206490754486e+00
 3.283560403481451e-01	 1.321580412471606e+00	 2.262952156255898e+00
 3.164007595280842e-01	 1.324493487817822e+00	 2.171917617470548e+00
 3.044501957057148e-01	 1.327291404798392e+00	 2.087776267515308e+00
 2.925058816467719e-01	 1.329974681263546e+00	 2.009299641997464e+00
 2.805693326785690e-01	 1.332543859748293e+00	 1.935365772942956e+00
 2.686420462563690e-01	 1.334999506916314e+00	 1.864965867872471e+00
 2.567255015481725e-01	 1.337342212996832e+00	 1.797209391948996e+00
 2.448211590379691e-01	 1.339572591215119e+00	 1.731327635609188e+00
 2.329304601474622e-01	 1.341691277217250e+00	 1.666675853854345e+00
 3.545573592522309e-01	 1.323930987467973e+00	 2.541482333044635e+00
 3.425198062806841e-01	 1.327096210952599e+00	 2.433650812670165e+00
 3.304838646609647e-01	 1.330144564140208e+00	 2.335994452298200e+00
 3.184511108112183e-01	 1.333076516899666e+00	 2.246944801859181e+00
 3.064231045263883e-01	 1.335892565040230e+00	 2.165032841277390e+00
 2.944013885049106e-01	 1.338593229767908e+00	 2.088899107782580e+00
 2.823874878937946e-01	 1.341179057133447e+00	 2.017302004031806e+00
 2.703829098521839e-01	 1.343650617472627e+00	 1.949124363815977e+00
 2.583891431334537e-01	 1.346008504839481e+00	 1.883378357467723e+00
 2.464076576858912e-01	 1.348253336433106e+00	 1.819208823689834e+00
 2.344399042719691e-01	 1.350385752018702e+00	 1.755895118394432e+00
 3.568401810483847e-01	 1.332455132947942e+00	 2.614140040043671e+00
 3.447251241479886e-01	 1.335640735762127e+00	 2.506192013967178e+00
 3.326116889740540e-01	 1.338708715808558e+00	 2.408807122785033e+00
 3.205014620945353e-01	 1.341659545981341e+00	 2.320297580899190e+00
 3.083960133471568e-01	 1.344493725281991e+00	 2.239087196686817e+00
 2.962968953630578e-01	 1.347211778272284e+00	 2.163721459468102e+00
 2.842056431089469e-01	 1.349814254518708e+00	 2.092875734383085e+00
 2.721237734478507e-01	 1.352301728029137e+00	 2.025361646201311e+00
 2.600527847185219e-01	 1.354674796682413e+00	 1.960131738589818e+00
 2.479941563335479e-01	 1.356934081651459e+00	 1.896282500081769e+00
 2.359493483961735e-01	 1.359080226820593e+00	 1.833055851961793e+00
 3.591230028448506e-01	 1.340979278427649e+00	 2.688408450019910e+00
 3.469304420155475e-01	 1.344185260571437e+00	 2.579200187731633e+00
 3.347395132873366e-01	 1.347272867476741e+00	 2.480796886653715e+00
 3.225518133779837e-01	 1.350242575062906e+00	 2.391425162053333e+00
 3.103689221679943e-01	 1.353094885523699e+00	 2.309436180215285e+00
 2.981924022212141e-01	 1.355830326776671e+00	 2.233315638836789e+00
 2.860237983240519e-01	 1.358449451904044e+00	 2.161691781060543e+00
 2.738646370434192e-01	 1.360952838585789e+00	 2.093341528651638e+00
 2.617164263034480e-01	 1.363341088525549e+00	 2.027194825459033e+00
 2.495806549810275e-01	 1.365614826870076e+00	 1.962337287161587e+00
 2.374587925201764e-01	 1.367774701622806e+00	 1.898011257344712e+00
 3.614058246415134e-01	 1.349503423907223e+00	 2.763613305543005e+00
 3.491357598832633e-01	 1.352729785380636e+00	 2.652033897829726e+00
 3.368673376007369e-01	 1.355837019144840e+00	 2.551361330682815e+00
 3.246021646615114e-01	 1.358825604144416e+00	 2.459769646030581e+00
 3.123418309888752e-01	 1.361696045765385e+00	 2.375571205387222e+00
 3.000879090793801e-01	 1.364448875281070e+00	 2.297226497313265e+00
 2.878419535391358e-01	 1.367084649289429e+00	 2.223351902827376e+00
 2.756055006389397e-01	 1.369603949142524e+00	 2.152725508967441e+00
 2.633800678883034e-01	 1.372007380368809e+00	 2.084291066496441e+00
 2.511671536284188e-01	 1.374295572088857e+00	 2.017160192717593e+00
 2.389682366440784e-01	 1.376469176425223e+00	 1.950612924510253e+00
 3.636886464382575e-01	 1.358027569386798e+00	 2.839065633999837e+00
 3.513410777510382e-01	 1.361274310189836e+00	 2.724039773141477e+00
 3.389951619141786e-01	 1.364401170812940e+00	 2.619888503066526e+00
 3.266525159450667e-01	 1.367408633225928e+00	 2.524765626706466e+00
 3.143147398097734e-01	 1.370297206007076e+00	 2.436977865490640e+00
 3.019834159375560e-01	 1.373067423785480e+00	 2.354994427362388e+00
 2.896601087542249e-01	 1.375719846674832e+00	 2.277454455573395e+00
 2.773463642344626e-01	 1.378255059699291e+00	 2.203172453383046e+00
 2.650437094731596e-01	 1.380673672212113e+00	 2.131141785735378e+00
 2.527536522758100e-01	 1.382976317307702e+00	 2.060536364073045e+00
 2.404776807679804e-01	 1.385163651227725e+00	 1.990710624689986e+00
 3.659714682349676e-01	 1.366551714866505e+00	 2.914061357251152e+00
 3.535463956187747e-01	 1.369818834999146e+00	 2.794552110033047e+00
 3.411229862275859e-01	 1.372965322481125e+00	 2.685756515938048e+00
 3.287028672285982e-01	 1.375991662307499e+00	 2.585839800394136e+00
 3.162876486306632e-01	 1.378898366248802e+00	 2.493135555763151e+00
 3.038789227957426e-01	 1.381685972289900e+00	 2.406155003218964e+00
 2.914782639693453e-01	 1.384355044060225e+00	 2.323594056692305e+00
 2.790872278300376e-01	 1.386906170256031e+00	 2.244338289165194e+00
 2.667073510580876e-01	 1.389339964055382e+00	 2.167465907696291e+00
 2.543401509232899e-01	 1.391657062526507e+00	 2.092248848772940e+00
 2.419871248919833e-01	 1.393858126030196e+00	 2.018152109896384e+00
 3.682542900315289e-01	 1.375075860346475e+00	 2.987880908180037e+00
 3.557517134863752e-01	 1.378363359808674e+00	 2.862892482714593e+00
 3.432508105408824e-01	 1.381529474149479e+00	 2.748333156458476e+00
 3.307532185120539e-01	 1.384574691389187e+00	 2.642410584069467e+00
 3.182605574515188e-01	 1.387499526490589e+00	 2.543517104641451e+00
 3.057744296539400e-01	 1.390304520794330e+00	 2.450238630544429e+00
 2.932964191845232e-01	 1.392990241445579e+00	 2.361361258018215e+00
 2.808280914257150e-01	 1.395557280812689e+00	 2.275875705194353e+00
 2.683709926431588e-01	 1.398006255898535e+00	 2.192979689479502e+00
 2.559266495709470e-01	 1.400337807745173e+00	 2.112078361551413e+00
 2.434965690161878e-01	 1.402552600832516e+00	 2.032782917637634e+00
 3.705371118278250e-01	 1.383600005826839e+00	 3.059788774688422e+00
 3.579570313537422e-01	 1.386907884618530e+00	 2.928369361144484e+00
 3.453786348539923e-01	 1.390093625818086e+00	 2.806975506100844e+00
 3.328035697953822e-01	 1.393157720471047e+00	 2.693887742160554e+00
 3.202334662723141e-01	 1.396100686732467e+00	 2.587588413689224e+00
 3.076699365121491e-01	 1.398923069298769e+00	 2.486770204630355e+00
 2.951145743997849e-01	 1.401625438830864e+00	 2.390342226953502e+00
 2.825689550215451e-01	 1.404208391369210e+00	 2.297433860186645e+00
 2.700346342284445e-01	 1.406672547741491e+00	 2.207396459759380e+00
 2.575131482188697e-01	 1.409018552963599e+00	 2.119803057308188e+00
 2.450060131406947e-01	 1.411247075634568e+00	 2.034446180603202e+00
 3.728199336237416e-01	 1.392124151307731e+00	 3.129007079229900e+00
 3.601623492207781e-01	 1.395452409428825e+00	 2.990277736160106e+00
 3.475064591668398e-01	 1.398657777487031e+00	 2.861029567783075e+00
 3.348539210785312e-01	 1.401740749553137e+00	 2.739672021539024e+00
 3.222063750930237e-01	 1.404701846974463e+00	 2.624808105826751e+00
 3.095654433703703e-01	 1.407541617803216e+00	 2.515268776778462e+00
 2.969327296151564e-01	 1.410260636216053e+00	 2.410118435440059e+00
 2.843098186175781e-01	 1.412859501925538e+00	 2.308658098226965e+00
 2.716982758140161e-01	 1.415338839584173e+00	 2.210426364394900e+00
 2.590996468671465e-01	 1.417699298181683e+00	 2.115198309839728e+00
 2.465154572656048e-01	 1.419941550436234e+00	 2.022982441113288e+00
 2.314210160225521e-01	 1.332996802416356e+00	 1.565543454323537e+00
 2.196203356210291e-01	 1.334991773238847e+00	 1.500435394688363e+00
 2.078360252480811e-01	 1.336877065048610e+00	 1.438108407535193e+00
 1.960694618236402e-01	 1.338653372104617e+00	 1.378366286863157e+00
 1.843220019302544e-01	 1.340321408639350e+00	 1.321126484551440e+00
 1.725949815280879e-01	 1.341881908267035e+00	 1.266416755322329e+00
 1.608897156880044e-01	 1.343335623389784e+00	 1.214370961507112e+00
 1.492074983425993e-01	 1.344683324602242e+00	 1.165224128348451e+00
 1.375496020550363e-01	 1.345925800095279e+00	 1.119306839594377e+00
 1.259172778055192e-01	 1.347063855059284e+00	 1.077039061684593e+00
 1.143117547952176e-01	 1.348098311087590e+00	 1.038923482956977e+00
 2.329304601474622e-01	 1.341691277217250e+00	 1.666675853854345e+00
 2.210528097801408e-01	 1.343699260241742e+00	 1.603665356437232e+00
 2.091916362150057e-01	 1.345596848871830e+00	 1.542929866290178e+00
 1.973483253529381e-01	 1.347384741894796e+00	 1.484312187464292e+00
 1.855242426247843e-01	 1.349063658201715e+00	 1.427776751936114e+00
 1.737207327044978e-01	 1.350634336191816e+00	 1.373405694880083e+00
 1.619391192404805e-01	 1.352097533174766e+00	 1.321394065819395e+00
 1.501807046049928e-01	 1.353454024771419e+00	 1.272044270679327e+00
 1.384467696614805e-01	 1.354704604313630e+00	 1.225759838691491e+00
 1.267385735496553e-01	 1.355850082243650e+00	 1.183038606527865e+00
 1.150573534881408e-01	 1.356891285513661e+00	 1.144465410045854e+00
 2.344399042719691e-01	 1.350385752018702e+00	 1.755895118394436e+00
 2.224852839388230e-01	 1.352406747245271e+00	 1.693842513167139e+00
 2.105472471814967e-01	 1.354316632695745e+00	 1.633736443155049e+00
 1.986271888818180e-01	 1.356116111685718e+00	 1.575445311593267e+00
 1.867264833189296e-01	 1.357805907764853e+00	 1.518967482478698e+00
 1.748464838805718e-01	 1.359386764117388e+00	 1.464426777140913e+00
 1.629885227926837e-01	 1.360859442960541e+00	 1.412067081720078e+00
 1.511539108671877e-01	 1.362224724941377e+00	 1.362246165013980e+00
 1.393439372678103e-01	 1.363483408532734e+00	 1.315428804957747e+00
 1.275598692937688e-01	 1.364636309428726e+00	 1.272179320330630e+00
 1.158029521811390e-01	 1.365684259940387e+00	 1.233153602145028e+00
 2.359493483961735e-01	 1.359080226820593e+00	 1.833055851961792e+00
 2.239177580971834e-01	 1.361114234249305e+00	 1.770882769354408e+00
 2.119028581476625e-01	 1.363036416520218e+00	 1.710497918813987e+00
 1.999060524103843e-01	 1.364847481477240e+00	 1.651782352231019e+00
 1.879287240127863e-01	 1.366548157328623e+00	 1.594755787221170e+00
 1.759722350563943e-01	 1.368139192043613e+00	 1.539571514857988e+00
 1.640379263446822e-01	 1.369621352746974e+00	 1.486510392311308e+00
 1.521271171292337e-01	 1.370995425111989e+00	 1.435974024408935e+00
 1.402411048740542e-01	 1.372262212752476e+00	 1.388477236851953e+00
 1.283811650378653e-01	 1.373422536614409e+00	 1.344639942017904e+00
 1.165485508741936e-01	 1.374477234367676e+00	 1.305178496013290e+00
 2.374587925201764e-01	 1.367774701622806e+00	 1.898011257344712e+00
 2.253502322553289e-01	 1.369821721253712e+00	 1.834700489050483e+00
 2.132584691136115e-01	 1.371756200345110e+00	 1.773182405837312e+00
 2.011849159387416e-01	 1.373578851269221e+00	 1.713338214084330e+00
 1.891309647064506e-01	 1.375290406892884e+00	 1.655196872520807e+00
 1.770979862320488e-01	 1.376891619970350e+00	 1.598929399864814e+00
 1.650873298965443e-01	 1.378383262533937e+00	 1.544842240316255e+00
 1.531003233911805e-01	 1.379766125283133e+00	 1.493369795632197e+00
 1.411382724802409e-01	 1.381041016972741e+00	 1.445066231114808e+00
 1.292024607819506e-01	 1.382208763800598e+00	 1.400596660923098e+00
 1.172941495672856e-01	 1.383270208795438e+00	 1.360727815705013e+00
 2.389682366440784e-01	 1.376469176425223e+00	 1.950612924510249e+00
 2.267827064133671e-01	 1.378529208258362e+00	 1.885208324856053e+00
 2.146140800794520e-01	 1.380475984170285e+00	 1.821756214280069e+00
 2.024637794669945e-01	 1.382310221061520e+00	 1.760125912152037e+00
 1.903332054000187e-01	 1.384032656457494e+00	 1.700343968226385e+00
 1.782237374076194e-01	 1.385644047897464e+00	 1.642587857786667e+00
 1.661367334483380e-01	 1.387145172321294e+00	 1.587178706548431e+00
 1.540735296530776e-01	 1.388536825454683e+00	 1.534573158903242e+00
 1.420354400863991e-01	 1.389819821193416e+00	 1.485354501582138e+00
 1.300237565260302e-01	 1.390994990987188e+00	 1.440223152762096e+00
 1.180397482603965e-01	 1.392063183223582e+00	 1.399986624085848e+00
 2.404776807679804e-01	 1.385163651227725e+00	 1.990710624689986e+00
 2.282151805714054e-01	 1.387236695263126e+00	 1.922317051377770e+00
 2.159696910452925e-01	 1.389195767995604e+00	 1.856183720678547e+00
 2.037426429952471e-01	 1.391041590853994e+00	 1.792156472714837e+00
 1.915354460935869e-01	 1.392774906022312e+00	 1.730248257395038e+00
 1.793494885831899e-01	 1.394396475824815e+00	 1.670632203504691e+00
 1.671861370001318e-01	 1.395907082108914e+00	 1.613633688420589e+00
 1.550467359149747e-01	 1.397307525626517e+00	 1.559721527027104e+00
 1.429326076925572e-01	 1.398598625414386e+00	 1.509498396805474e+00
 1.308450522701098e-01	 1.399781218174077e+00	 1.463690613886505e+00
 1.187853469535073e-01	 1.400856157652018e+00	 1.423137372137417e+00
 2.419871248919833e-01	 1.393858126030196e+00	 2.018152109896380e+00
 2.296476547295508e-01	 1.395944182267873e+00	 1.945935402971591e+00
 2.173253020112415e-01	 1.397915551820929e+00	 1.876427240299764e+00
 2.050215065236043e-01	 1.399772960646505e+00	 1.809438836647238e+00
 1.927376867872511e-01	 1.401517155587198e+00	 1.744958807490828e+00
 1.804752397588445e-01	 1.403148903752267e+00	 1.683145597341188e+00
 1.682355405519939e-01	 1.404668991896667e+00	 1.624318878493673e+00
 1.560199421769214e-01	 1.406078225798511e+00	 1.568950043952487e+00
 1.438297752987439e-01	 1.407377429635539e+00	 1.517651916539959e+00
 1.316663480141950e-01	 1.408567445361161e+00	 1.471167793888918e+00
 1.195309456465994e-01	 1.409649132080654e+00	 1.430359946140751e+00
 2.434965690161878e-01	 1.402552600832516e+00	 2.032782917637634e+00
 2.310801288879112e-01	 1.404651669272474e+00	 1.955969915585120e+00
 2.186809129774073e-01	 1.406635335646124e+00	 1.882446902503061e+00
 2.063003700521708e-01	 1.408504330438910e+00	 1.811979764943899e+00
 1.939399274811078e-01	 1.410259405152009e+00	 1.744522502996713e+00
 1.816009909346668e-01	 1.411901331679679e+00	 1.680209001936719e+00
 1.692849441039923e-01	 1.413430901684418e+00	 1.619343743062258e+00
 1.569931484389674e-01	 1.414848925970539e+00	 1.562391582778406e+00
 1.447269429049878e-01	 1.416156233856758e+00	 1.509966727143808e+00
 1.324876437582916e-01	 1.417353672548340e+00	 1.462821026632999e+00
 1.202765443396539e-01	 1.418442106509400e+00	 1.421831712837520e+00
 2.450060131406947e-01	 1.411247075634568e+00	 2.034446180603202e+00
 2.325126030465934e-01	 1.413359156276798e+00	 1.952324772528471e+00
 2.200365239438982e-01	 1.415355119471049e+00	 1.874200529078144e+00
 2.075792335810506e-01	 1.417235700231067e+00	 1.799783746374917e+00
 1.951421681752531e-01	 1.419001654716606e+00	 1.728983979381780e+00
 1.827267421107409e-01	 1.420653759606916e+00	 1.661901139788059e+00
 1.703343476561955e-01	 1.422192811472036e+00	 1.598815500777757e+00
 1.579663547011624e-01	 1.423619626142480e+00	 1.540176743231533e+00
 1.456241105113176e-01	 1.424935038077932e+00	 1.486592175937679e+00
 1.333089395024050e-01	 1.426139899735509e+00	 1.438814259777655e+00
 1.210221430326521e-01	 1.427235080938167e+00	 1.397727562650883e+00
 2.465154572656048e-01	 1.419941550436234e+00	 2.022982441113284e+00
 2.339450772057051e-01	 1.422066643280715e+00	 1.934901654000941e+00
 2.213921349108230e-01	 1.424074903295569e+00	 1.851643515438110e+00
 2.088580971103485e-01	 1.425967070022836e+00	 1.772852907169723e+00
 1.963444088697830e-01	 1.427743904280846e+00	 1.698385558363235e+00
 1.838524932871508e-01	 1.429406187533840e+00	 1.628298451418619e+00
 1.713837512086717e-01	 1.430954721259390e+00	 1.562839101306172e+00
 1.589395609635559e-01	 1.432390326314207e+00	 1.502433848638695e+00
 1.465212781177617e-01	 1.433713842298944e+00	 1.447675304570323e+00
 1.341302352465411e-01	 1.434926126922566e+00	 1.399309082856333e+00
 1.217677417255753e-01	 1.436028055366862e+00	 1.358219951050659e+00
 1.143117547952176e-01	 1.348098311087590e+00	 1.038923482956975e+00
 1.027362012421250e-01	 1.349029855853806e+00	 1.005147432793258e+00
 9.118980418052944e-02	 1.349859525943230e+00	 9.752688250354851e-01
 7.967369955167920e-02	 1.350588187874028e+00	 9.489739691905872e-01
 6.818900163770034e-02	 1.351216722171277e+00	 9.260125934079819e-01
 5.673680294597199e-02	 1.351746022787329e+00	 9.061909785494984e-01
 4.531817410899213e-02	 1.352176996524908e+00	 8.893650285153298e-01
 3.393416379947616e-02	 1.352510562463393e+00	 8.754333404488830e-01
 2.258579866042112e-02	 1.352747651388675e+00	 8.643303344930877e-01
 1.127408324985740e-02	 1.352889205227027e+00	 8.560194987145178e-01
 0.000000000000000e+00	 1.352936176483334e+00	 8.504868001275858e-01
 1.150573534881408e-01	 1.356891285513661e+00	 1.144465410045854e+00
 1.034062983596297e-01	 1.357828906282633e+00	 1.110243814919131e+00
 9.178458989584180e-02	 1.358663987896997e+00	 1.079872397759384e+00
 8.019337144721018e-02	 1.359397402526789e+00	 1.053012295823732e+00
 6.863376456377401e-02	 1.360030036440318e+00	 1.029391649269377e+00
 5.710686887879979e-02	 1.360562789420742e+00	 1.008798214631394e+00
 4.561376200799373e-02	 1.360996574185418e+00	 9.910719221458451e-01
 3.415549946404665e-02	 1.361332315808420e+00	 9.760974432278353e-01
 2.273311458624213e-02	 1.361570951146700e+00	 9.637968302876956e-01
 1.134761848484777e-02	 1.361713428270247e+00	 9.541222868043711e-01
 0.000000000000000e+00	 1.361760705896667e+00	 9.470491206511877e-01
 1.158029521811390e-01	 1.365684259940387e+00	 1.233153602145024e+00
 1.040763954773100e-01	 1.366627956712044e+00	 1.198562517989841e+00
 9.237937561142637e-02	 1.367468449851268e+00	 1.167840346018478e+00
 8.071304334309824e-02	 1.368206617179969e+00	 1.140618187610602e+00
 6.907852749027049e-02	 1.368843350709689e+00	 1.116597820384313e+00
 5.747693481208934e-02	 1.369379556054403e+00	 1.095543775570802e+00
 4.590934990746186e-02	 1.369816151846096e+00	 1.077275367166463e+00
 3.437683512904705e-02	 1.370154069153548e+00	 1.061658741954008e+00
 2.288043051240778e-02	 1.370394250904771e+00	 1.048599015144525e+00
 1.142115372004180e-02	 1.370537651313480e+00	 1.038032551945919e+00
 0.000000000000000e+00	 1.370585235310001e+00	 1.029919450172110e+00
 1.165485508741936e-01	 1.374477234367676e+00	 1.305178496013290e+00
 1.047464925951220e-01	 1.375427007141962e+00	 1.270301729183871e+00
 9.297416132721502e-02	 1.376272911805979e+00	 1.239374191488912e+00
 8.123271523925410e-02	 1.377015831833514e+00	 1.211992488892991e+00
 6.952329041708402e-02	 1.377656664979350e+00	 1.187827666780983e+00
 5.784700074572520e-02	 1.378196322688281e+00	 1.166616734767334e+00
 4.620493780727990e-02	 1.378635729506922e+00	 1.148154151592869e+00
 3.459817079436985e-02	 1.378975822498765e+00	 1.132283342057714e+00
 2.302774643883191e-02	 1.379217550662885e+00	 1.118888313403511e+00
 1.149468895538856e-02	 1.379361874356723e+00	 1.107885433889202e+00
 0.000000000000000e+00	 1.379409764723334e+00	 1.099215430867864e+00
 1.172941495672856e-01	 1.383270208795438e+00	 1.360727815705013e+00
 1.054165897130218e-01	 1.384226057572308e+00	 1.325656765055746e+00
 9.356894704313973e-02	 1.385077373761063e+00	 1.294672454697072e+00
 8.175238713558854e-02	 1.385825046487373e+00	 1.267332939793488e+00
 6.996805334410898e-02	 1.386469979249262e+00	 1.243274568745087e+00
 5.821706667959189e-02	 1.387013089322345e+00	 1.222202938005894e+00
 4.650052570733119e-02	 1.387455307167877e+00	 1.203883815707090e+00
 3.481950645990762e-02	 1.387797575844059e+00	 1.188134108973264e+00
 2.317506236542835e-02	 1.388040850421035e+00	 1.174812945077298e+00
 1.156822419083716e-02	 1.388186097399976e+00	 1.163812931704455e+00
 0.000000000000000e+00	 1.388234294136667e+00	 1.155051655874524e+00
 1.180397482603965e-01	 1.392063183223582e+00	 1.399986624085848e+00
 1.060866868309655e-01	 1.393025108003004e+00	 1.364820136528685e+00
 9.416373275913247e-02	 1.393881835716456e+00	 1.333930730926051e+00
 8.227205903201222e-02	 1.394634261141493e+00	 1.306834260676093e+00
 7.041281627123964e-02	 1.395283293519384e+00	 1.283128817673237e+00
 5.858713261357405e-02	 1.395829855956567e+00	 1.262485098741023e+00
 4.679611360749912e-02	 1.396274884828940e+00	 1.244636750018120e+00
 3.504084212555285e-02	 1.396619329189418e+00	 1.229370767208084e+00
 2.332237829211093e-02	 1.396864150179216e+00	 1.216518024664198e+00
 1.164175942633666e-02	 1.397010320443238e+00	 1.205944001169323e+00
 0.000000000000000e+00	 1.397058823550000e+00	 1.197539764268685e+00
 1.187853469535073e-01	 1.400856157652018e+00	 1.423137372137417e+00
 1.067567839489092e-01	 1.401824158433973e+00	 1.387981611243077e+00
 9.475851847512520e-02	 1.402686297672092e+00	 1.357341763125727e+00
 8.279173092843589e-02	 1.403443475795821e+00	 1.330688233331083e+00
 7.085757919837028e-02	 1.404096607789674e+00	 1.307577703444595e+00
 5.895719854755618e-02	 1.404646622590918e+00	 1.287642889762855e+00
 4.709170150766706e-02	 1.405094462490092e+00	 1.270582289513446e+00
 3.526217779119808e-02	 1.405441082534831e+00	 1.256149995673410e+00
 2.346969421879353e-02	 1.405687449937423e+00	 1.244145656239307e+00
 1.171529466183616e-02	 1.405834543486506e+00	 1.234404648489500e+00
 0.000000000000000e+00	 1.405883352963333e+00	 1.226788532473604e+00
 1.195309456465994e-01	 1.409649132080654e+00	 1.430359946140751e+00
 1.074268810668089e-01	 1.410623208865136e+00	 1.395328273372202e+00
 9.535330419104994e-02	 1.411490759627908e+00	 1.365095511957540e+00
 8.331140282477031e-02	 1.412252690450304e+00	 1.339083779033409e+00
 7.130234212539524e-02	 1.412909922060092e+00	 1.316805598469721e+00
 5.932726448142290e-02	 1.413463389225367e+00	 1.297853031395764e+00
 4.738728940771835e-02	 1.413914040151313e+00	 1.281886804368133e+00
 3.548351345673584e-02	 1.414262835880286e+00	 1.268625519441481e+00
 2.361701014538997e-02	 1.414510749695649e+00	 1.257835024982165e+00
 1.178882989728476e-02	 1.414658766529779e+00	 1.249318020508396e+00
 0.000000000000000e+00	 1.414707882376666e+00	 1.242903962244681e+00
 1.202765443396539e-01	 1.418442106509400e+00	 1.421831712837520e+00
 1.080969781846209e-01	 1.419422259296415e+00	 1.387044581017651e+00
 9.594808990683856e-02	 1.420295221583836e+00	 1.357379223093566e+00
 8.383107472092620e-02	 1.421061905104891e+00	 1.332207033604565e+00
 7.174710505220881e-02	 1.421723236330597e+00	 1.310994038550925e+00
 5.969733041505874e-02	 1.422280155859884e+00	 1.293289376386151e+00
 4.768287730753638e-02	 1.422733617812583e+00	 1.278713787259560e+00
 3.570484912205867e-02	 1.423084589225772e+00	 1.266948198078085e+00
 2.376432607181408e-02	 1.423334049453891e+00	 1.257722485298584e+00
 1.186236513263152e-02	 1.423482989573057e+00	 1.250804491563303e+00
 0.000000000000000e+00	 1.423532411789999e+00	 1.245989365381349e+00
 1.210221430326521e-01	 1.427235080938167e+00	 1.397727562650883e+00
 1.087670753023013e-01	 1.428221309727733e+00	 1.363312421289698e+00
 9.654287562242307e-02	 1.429099683539813e+00	 1.334377491896978e+00
 8.435074661681423e-02	 1.429871119759527e+00	 1.310241419609722e+00
 7.219186797870526e-02	 1.430536550601150e+00	 1.290321800700272e+00
 6.006739634834829e-02	 1.431096922494441e+00	 1.274122991618298e+00
 4.797846520700449e-02	 1.431553195473883e+00	 1.261223937441592e+00
 3.592618478705905e-02	 1.431906342571277e+00	 1.251266110705537e+00
 2.391164199797973e-02	 1.432157349212141e+00	 1.243941645680866e+00
 1.193590036782555e-02	 1.432307212616338e+00	 1.238981747127635e+00
 0.000000000000000e+00	 1.432356941203333e+00	 1.236145445309490e+00
 1.217677417255753e-01	 1.436028055366862e+00	 1.358219951050648e+00
 1.094371724198060e-01	 1.437020360159012e+00	 1.324311163170044e+00
 9.713766133773548e-02	 1.437904145495773e+00	 1.296272325588651e+00
 8.487041851234521e-02	 1.438680334414162e+00	 1.273367715814927e+00
 7.263663090477897e-02	 1.439349864871708e+00	 1.254964978042488e+00
 6.043746228117610e-02	 1.439913689129008e+00	 1.240522236795636e+00
 4.827405310600610e-02	 1.440372773135193e+00	 1.229575241710251e+00
 3.614752045162955e-02	 1.440728095916790e+00	 1.221724637932326e+00
 2.405895792380075e-02	 1.440980648970397e+00	 1.216623450450389e+00
 1.200943560281591e-02	 1.441131435659619e+00	 1.213964864381345e+00
 0.000000000000000e+00	 1.441181470616666e+00	 1.213470375664921e+00
 1.441181470616666e+00	 0.000000000000000e+00	 1.631838932804843e+01
 1.441131435659620e+00	 1.200943560281512e-02	 1.631408580017142e+01
 1.440980648970397e+00	 2.405895792380007e-02	 1.631051907349479e+01
 1.440728095916789e+00	 3.614752045162897e-02	 1.630753500349836e+01
 1.440372773135193e+00	 4.827405310600565e-02	 1.630497149169853e+01
 1.439913689129008e+00	 6.043746228117578e-02	 1.630265715077611e+01
 1.439349864871708e+00	 7.263663090477876e-02	 1.630040978377299e+01
 1.438680334414161e+00	 8.487041851234511e-02	 1.629803467682226e+01
 1.437904145495773e+00	 9.713766133773551e-02	 1.629532270712394e+01
 1.437020360159012e+00	 1.094371724198062e-01	 1.629204826981114e+01
 1.436028055366862e+00	 1.217677417255753e-01	 1.628796702940958e+01
 1.450004500024999e+00	 0.000000000000000e+00	 1.621342592753722e+01
 1.449954158749978e+00	 1.208295833795273e-02	 1.620899866138656e+01
 1.449802448932670e+00	 2.420624880826541e-02	 1.620550996991927e+01
 1.449548349729178e+00	 3.636881849277188e-02	 1.620277699922839e+01
 1.449190851633198e+00	 4.856959076004437e-02	 1.620061216123402e+01
 1.448728957078083e+00	 6.080746530917199e-02	 1.619882184973423e+01
 1.448161681043600e+00	 7.308131822897299e-02	 1.619720495481601e+01
 1.447488051666967e+00	 8.539000207294811e-02	 1.619555117445870e+01
 1.446707110857749e+00	 9.773234595027337e-02	 1.619363912448829e+01
 1.445817914916132e+00	 1.101071556331185e-01	 1.619123425005035e+01
 1.444819535154164e+00	 1.225132136805673e-01	 1.618808654390747e+01
 1.458827529433332e+00	 0.000000000000000e+00	 1.610108959862303e+01
 1.458776881840336e+00	 1.215648107288541e-02	 1.609621100825442e+01
 1.458624248894937e+00	 2.435353969238123e-02	 1.609251961831806e+01
 1.458368603541552e+00	 3.659011653347470e-02	 1.608980639466247e+01
 1.458008930131178e+00	 4.886512841359994e-02	 1.608786083897678e+01
 1.457544225027117e+00	 6.117746833668301e-02	 1.608646975212614e+01
 1.456973497215430e+00	 7.352600555271431e-02	 1.608541577943060e+01
 1.456295768919688e+00	 8.590958563315805e-02	 1.608447573606650e+01
 1.455510076219609e+00	 9.832703056249868e-02	 1.608341871317391e+01
 1.454615469673103e+00	 1.107771388462125e-01	 1.608200396734141e+01
 1.453611014941278e+00	 1.232586856354421e-01	 1.607997859836550e+01
 1.467650558841666e+00	 0.000000000000000e+00	 1.598141546026715e+01
 1.467599604930690e+00	 1.223000380766271e-02	 1.597577464017165e+01
 1.467446048857192e+00	 2.450083057622867e-02	 1.597161128573289e+01
 1.467188857353902e+00	 3.681141457383452e-02	 1.596869265631184e+01
 1.466827008629116e+00	 4.916066606677223e-02	 1.596678787530421e+01
 1.466359492976088e+00	 6.154747136380066e-02	 1.596566673728974e+01
 1.465785313387171e+00	 7.397069287607808e-02	 1.596509827998175e+01
 1.465103486172292e+00	 8.642916919302795e-02	 1.596484911847832e+01
 1.464313041581324e+00	 9.892171517443897e-02	 1.596468154180215e+01
 1.463413024429894e+00	 1.114471220590895e-01	 1.596435137388604e+01
 1.462402494728179e+00	 1.240041575901763e-01	 1.596360560347345e+01
 1.476473588250000e+00	 0.000000000000000e+00	 1.585444030117695e+01
 1.476422328021041e+00	 1.230352654233416e-02	 1.584774337373619e+01
 1.476267848819432e+00	 2.464812145988886e-02	 1.584285060934529e+01
 1.476009111166218e+00	 3.703271261394845e-02	 1.583950798038664e+01
 1.475645087126997e+00	 4.945620371966111e-02	 1.583746671773230e+01
 1.475174760924975e+00	 6.191747439061665e-02	 1.583648215840714e+01
 1.474597129558798e+00	 7.441538019913965e-02	 1.583631234016065e+01
 1.473911203424750e+00	 8.694875275261103e-02	 1.583671633974766e+01
 1.473116006942859e+00	 9.951639978612177e-02	 1.583745235428615e+01
 1.472210579186475e+00	 1.121171052717507e-01	 1.583827552731331e+01
 1.471193974514841e+00	 1.247496295447467e-01	 1.583893552356487e+01
 1.485296617658333e+00	 0.000000000000000e+00	 1.572195220557826e+01
 1.485245051111386e+00	 1.237704927694933e-02	 1.571393414990364e+01
 1.485089648781651e+00	 2.479541234344295e-02	 1.570797697682665e+01
 1.484829364978490e+00	 3.725401065391361e-02	 1.570381061815791e+01
 1.484463165624805e+00	 4.975174137236636e-02	 1.570118476886986e+01
 1.483990028873754e+00	 6.228747741722281e-02	 1.569986935027061e+01
 1.483408945730283e+00	 7.486006752197447e-02	 1.569965464824385e+01
 1.482718920677030e+00	 8.746833631196034e-02	 1.570035109841543e+01
 1.481918972304183e+00	 1.001110843975746e-01	 1.570178868925615e+01
 1.481008133942816e+00	 1.127870884841971e-01	 1.570378041535347e+01
 1.479985454301237e+00	 1.254951014991298e-01	 1.570594167108056e+01
 1.494119647066666e+00	 0.000000000000000e+00	 1.559789274079510e+01
 1.494067774201724e+00	 1.245057201155776e-02	 1.558876123012896e+01
 1.493911448743844e+00	 2.494270322697205e-02	 1.558182211952168e+01
 1.493649618790708e+00	 3.747530869382706e-02	 1.557676397391401e+01
 1.493281244122523e+00	 5.004727902498787e-02	 1.557329920897249e+01
 1.492805296822407e+00	 6.265748044371092e-02	 1.557116473328022e+01
 1.492220761901599e+00	 7.530475484465779e-02	 1.557012226664398e+01
 1.491526637929102e+00	 8.798791987112899e-02	 1.556995830587516e+01
 1.490721937665264e+00	 1.007057690088250e-01	 1.557048370848431e+01
 1.489805688698884e+00	 1.134570716964300e-01	 1.557153286332574e+01
 1.488776934087341e+00	 1.262405734533023e-01	 1.557296241583885e+01
 1.502942676475000e+00	 0.000000000000000e+00	 1.548508803707085e+01
 1.502890497292054e+00	 1.252409474620898e-02	 1.547521056330681e+01
 1.502733248706007e+00	 2.508999411055729e-02	 1.546767021741303e+01
 1.502469872602863e+00	 3.769660673378596e-02	 1.546211590932463e+01
 1.502099322620138e+00	 5.034281667762547e-02	 1.545822439929139e+01
 1.501620564770908e+00	 6.302748347017276e-02	 1.545570111673008e+01
 1.501032578072720e+00	 7.574944216726513e-02	 1.545428065668125e+01
 1.500334355180934e+00	 8.850750343017012e-02	 1.545372692474833e+01
 1.499524903026068e+00	 1.013004536199004e-01	 1.545383290040215e+01
 1.498603243454649e+00	 1.141270549084504e-01	 1.545441998705657e+01
 1.497568413873128e+00	 1.269860454072408e-01	 1.545533691584499e+01
 1.511765705883333e+00	 0.000000000000000e+00	 1.538332150632623e+01
 1.511713220382374e+00	 1.259761748095257e-02	 1.537305441420599e+01
 1.511555048668135e+00	 2.523728499427981e-02	 1.536527966989526e+01
 1.511290126414943e+00	 3.791790477388735e-02	 1.535960819314486e+01
 1.510917401117631e+00	 5.063835433037900e-02	 1.535568266268979e+01
 1.510435832719239e+00	 6.339748649670010e-02	 1.535317850941773e+01
 1.509844394243618e+00	 7.619412948987175e-02	 1.535180458908829e+01
 1.509142072432498e+00	 8.902708698913683e-02	 1.535130350502161e+01
 1.508327868386564e+00	 1.018951382308284e-01	 1.535145155010215e+01
 1.507400798210079e+00	 1.147970381202597e-01	 1.535205823588491e+01
 1.506359893658572e+00	 1.277315173609220e-01	 1.535296537503024e+01
 1.520588735291667e+00	 0.000000000000000e+00	 1.529237800334212e+01
 1.520535943472684e+00	 1.267114021583806e-02	 1.528206592853045e+01
 1.520376848630222e+00	 2.538457587822075e-02	 1.527440931404084e+01
 1.520110380226940e+00	 3.813920281422837e-02	 1.526898270843074e+01
 1.519735479614989e+00	 5.093389198334832e-02	 1.526539623387120e+01
 1.519251100667376e+00	 6.376748952338472e-02	 1.526329675129191e+01
 1.518656210414268e+00	 7.663881681255306e-02	 1.526236870750174e+01
 1.517949789683762e+00	 8.954667054808223e-02	 1.526233463426489e+01
 1.517130833746720e+00	 1.024898228416366e-01	 1.526295526815962e+01
 1.516198352965144e+00	 1.154670213318588e-01	 1.526402925840292e+01
 1.515151373443646e+00	 1.284769893143225e-01	 1.526539242817710e+01
 1.529411764700000e+00	 0.000000000000000e+00	 1.521204378430477e+01
 1.529358666562982e+00	 1.274466295091500e-02	 1.520201909127287e+01
 1.529198648592264e+00	 2.553186676246121e-02	 1.519481838200448e+01
 1.528930634038844e+00	 3.836050085490612e-02	 1.518998140820671e+01
 1.528553558112195e+00	 5.122942963663325e-02	 1.518708721249044e+01
 1.528066368615300e+00	 6.413749255031843e-02	 1.518575546315545e+01
 1.527468026584641e+00	 7.708350413538451e-02	 1.518564747387281e+01
 1.526757506934695e+00	 9.006625410705946e-02	 1.518646687782991e+01
 1.525933799106504e+00	 1.030845074523524e-01	 1.518795992466375e+01
 1.524995907719813e+00	 1.161370045432491e-01	 1.518991536677848e+01
 1.523942853228325e+00	 1.292224612674189e-01	 1.519216389990599e+01
 1.436028055366862e+00	 1.217677417255753e-01	 1.628796702940959e+01
 1.434926126922566e+00	 1.341302352465405e-01	 1.628259600306962e+01
 1.433713842298945e+00	 1.465212781177613e-01	 1.627569510055884e+01
 1.432390326314207e+00	 1.589395609635554e-01	 1.626734361657021e+01
 1.430954721259390e+00	 1.713837512086713e-01	 1.625758752479006e+01
 1.429406187533840e+00	 1.838524932871505e-01	 1.624643588729650e+01
 1.427743904280846e+00	 1.963444088697827e-01	 1.623385716359321e+01
 1.425967070022837e+00	 2.088580971103483e-01	 1.621977544307921e+01
 1.424074903295569e+00	 2.213921349108228e-01	 1.620406662751443e+01
 1.422066643280715e+00	 2.339450772057049e-01	 1.618655459281810e+01
 1.419941550436235e+00	 2.465154572656048e-01	 1.616700736231980e+01
 1.444819535154164e+00	 1.225132136805673e-01	 1.618808654390747e+01
 1.443710860615085e+00	 1.349513913857765e-01	 1.618362796525173e+01
 1.442491154287129e+00	 1.474182932226157e-01	 1.617754296053550e+01
 1.441159535630586e+00	 1.599126017993089e-01	 1.616992432876125e+01
 1.439715141685538e+00	 1.724329763824814e-01	 1.616083391876806e+01
 1.438157127711246e+00	 1.849780531073007e-01	 1.615029888289088e+01
 1.436484667825659e+00	 1.975464452063243e-01	 1.613830781229269e+01
 1.434696955644506e+00	 2.101367432572489e-01	 1.612480677818440e+01
 1.432793204919374e+00	 2.227475154497403e-01	 1.610969530603826e+01
 1.430772650174155e+00	 2.353773078714999e-01	 1.609282231281180e+01
 1.428634547339286e+00	 2.480246448137129e-01	 1.607398204011603e+01
 1.453611014941278e+00	 1.232586856354421e-01	 1.607997859836550e+01
 1.452495594307371e+00	 1.357725475249968e-01	 1.607668553749539e+01
 1.451268466275036e+00	 1.483153083275529e-01	 1.607172675054201e+01
 1.449928744946638e+00	 1.608856426352379e-01	 1.606520696935320e+01
 1.448475562111318e+00	 1.734822015565514e-01	 1.605720247597182e+01
 1.446908067888245e+00	 1.861036129277840e-01	 1.604775719782209e+01
 1.445225431370034e+00	 1.987484815432583e-01	 1.603687866580817e+01
 1.443426841265723e+00	 2.114153894045852e-01	 1.602453385995487e+01
 1.441511506542723e+00	 2.241028959891168e-01	 1.601064497024451e+01
 1.439478657067153e+00	 2.368095385377551e-01	 1.599508510335142e+01
 1.437327544241933e+00	 2.495338323622575e-01	 1.597767396903711e+01
 1.462402494728179e+00	 1.240041575901763e-01	 1.596360560347345e+01
 1.461280327999410e+00	 1.365937036641575e-01	 1.596169613564727e+01
 1.460045778262658e+00	 1.492123234325125e-01	 1.595813749200956e+01
 1.458697954262377e+00	 1.618586834712698e-01	 1.595304488630954e+01
 1.457235982536756e+00	 1.745314267308000e-01	 1.594650771940670e+01
 1.455659008064882e+00	 1.872291727485144e-01	 1.593858551308229e+01
 1.453966194914036e+00	 1.999505178804970e-01	 1.592930368717825e+01
 1.452156726886562e+00	 2.126940355522700e-01	 1.591864920510490e+01
 1.450229808165704e+00	 2.254582765288694e-01	 1.590656611592204e+01
 1.448184663959808e+00	 2.382417692043941e-01	 1.589295102438892e+01
 1.446020541144276e+00	 2.510430199111707e-01	 1.587764852358404e+01
 1.471193974514841e+00	 1.247496295447467e-01	 1.583893552356487e+01
 1.470065061691183e+00	 1.374148598032147e-01	 1.583859315070564e+01
 1.468823090249994e+00	 1.501093385374342e-01	 1.583667253002760e+01
 1.467467163577812e+00	 1.628317243073319e-01	 1.583329802696217e+01
 1.465996402961881e+00	 1.755806519051462e-01	 1.582857097472223e+01
 1.464409948241202e+00	 1.883547325694054e-01	 1.582256544367015e+01
 1.462706958457724e+00	 2.011525542179523e-01	 1.581532383357330e+01
 1.460886612507100e+00	 2.139726817002169e-01	 1.580685231419884e+01
 1.458948109788406e+00	 2.268136570689153e-01	 1.579711614300559e+01
 1.456890670852216e+00	 2.396739998713407e-01	 1.578603489202838e+01
 1.454713538046414e+00	 2.525522074603852e-01	 1.577347761940608e+01
 1.479985454301237e+00	 1.254951014991298e-01	 1.570594167108056e+01
 1.478849795382674e+00	 1.382360159421242e-01	 1.570731571113300e+01
 1.477600402237040e+00	 1.510063536422580e-01	 1.570723526299492e+01
 1.476236372892955e+00	 1.638047651433517e-01	 1.570583263454369e+01
 1.474756823386720e+00	 1.766298770795088e-01	 1.570322003322439e+01
 1.473160888417249e+00	 1.894802923903707e-01	 1.569948516773743e+01
 1.471447722001160e+00	 2.023545905555362e-01	 1.569468665128908e+01
 1.469616498127414e+00	 2.152513278483388e-01	 1.568884923226624e+01
 1.467666411410917e+00	 2.281690376091719e-01	 1.568195888164736e+01
 1.465596677744474e+00	 2.411062305385187e-01	 1.567395776995259e+01
 1.463406534948448e+00	 2.540613950098333e-01	 1.566473917004655e+01
 1.488776934087341e+00	 1.262405734533023e-01	 1.557296241583884e+01
 1.487634529073866e+00	 1.390571720808424e-01	 1.557387308588663e+01
 1.486377714223790e+00	 1.519033687469234e-01	 1.557364563122544e+01
 1.485005582207817e+00	 1.647778059792566e-01	 1.557258075051373e+01
 1.483517243811300e+00	 1.776791022538064e-01	 1.557098579350160e+01
 1.481911828593068e+00	 1.906058522113243e-01	 1.556917003773446e+01
 1.480188485544405e+00	 2.035566268931603e-01	 1.556714588120802e+01
 1.478346383747578e+00	 2.165299739965488e-01	 1.556435212061970e+01
 1.476384713033325e+00	 2.295244181495560e-01	 1.556076413020800e+01
 1.474302684636675e+00	 2.425384612058515e-01	 1.555634647346625e+01
 1.472099531850478e+00	 2.555705825594476e-01	 1.555101655698095e+01
 1.497568413873128e+00	 1.269860454072408e-01	 1.545533691584499e+01
 1.496419262764743e+00	 1.398783282193253e-01	 1.545558658271124e+01
 1.495155026210242e+00	 1.528003838513703e-01	 1.545444735396465e+01
 1.493774791522410e+00	 1.657508468149740e-01	 1.545221321987218e+01
 1.492277664235650e+00	 1.787283274279578e-01	 1.544919086649341e+01
 1.490662768768704e+00	 1.917314120321797e-01	 1.544569513241554e+01
 1.488929249087520e+00	 2.047586632307369e-01	 1.544204378341234e+01
 1.487076269367669e+00	 2.178086201447603e-01	 1.543855156394778e+01
 1.485103014655718e+00	 2.308797986899850e-01	 1.543552348359025e+01
 1.483008691528920e+00	 2.439706918732630e-01	 1.543324729569515e+01
 1.480792528752603e+00	 2.570797701091606e-01	 1.543189811240026e+01
 1.506359893658572e+00	 1.277315173609220e-01	 1.535296537503024e+01
 1.505203996455288e+00	 1.406994843575289e-01	 1.535308334322271e+01
 1.503932338196390e+00	 1.536973989555383e-01	 1.535159052434056e+01
 1.502544000836743e+00	 1.667238876504313e-01	 1.534877107362494e+01
 1.501038084659796e+00	 1.797775526018820e-01	 1.534492793586971e+01
 1.499413708944202e+00	 1.928569718528507e-01	 1.534037849320991e+01
 1.497670012630567e+00	 2.059606995681778e-01	 1.533544952432661e+01
 1.495806154987764e+00	 2.190872662928862e-01	 1.533047143257346e+01
 1.493821316278185e+00	 2.322351792303760e-01	 1.532577169957260e+01
 1.491714698421303e+00	 2.454029225406767e-01	 1.532166752002392e+01
 1.489485525654923e+00	 2.585889576589046e-01	 1.531845757283063e+01
 1.515151373443646e+00	 1.284769893143225e-01	 1.526539242817711e+01
 1.513988730145483e+00	 1.415206404954093e-01	 1.526586956462505e+01
 1.512709650182231e+00	 1.545944140593672e-01	 1.526454317031754e+01
 1.511313210150828e+00	 1.676969284855557e-01	 1.526168444370425e+01
 1.509798505083769e+00	 1.808267777754979e-01	 1.525758951211519e+01
 1.508164649119607e+00	 1.939825316732512e-01	 1.525257528177439e+01
 1.506410776173607e+00	 2.071627359053949e-01	 1.524697459328050e+01
 1.504536040607938e+00	 2.203659124408398e-01	 1.524113063861724e+01
 1.502539617900812e+00	 2.335905597706460e-01	 1.523539059469564e+01
 1.500420705313920e+00	 2.468351532080164e-01	 1.523009842752184e+01
 1.498178522557537e+00	 2.600981452086121e-01	 1.522558682034052e+01
 1.523942853228325e+00	 1.292224612674189e-01	 1.519216389990599e+01
 1.522773463835312e+00	 1.423417966329227e-01	 1.519345324288173e+01
 1.521486962167761e+00	 1.554914291627968e-01	 1.519277576902906e+01
 1.520082419464678e+00	 1.686699693202748e-01	 1.519038660056143e+01
 1.518558925507593e+00	 1.818760029487239e-01	 1.518657196981124e+01
 1.516915589294964e+00	 1.951080914932945e-01	 1.518164528279280e+01
 1.515151539716700e+00	 2.083647722423001e-01	 1.517594248286394e+01
 1.513265926228268e+00	 2.216445585885343e-01	 1.516981666908175e+01
 1.511257919523691e+00	 2.349459403107124e-01	 1.516363192268096e+01
 1.509126712206869e+00	 2.482673838752059e-01	 1.515775629408059e+01
 1.506871519460547e+00	 2.616073327582156e-01	 1.515255390197857e+01
 1.419941550436235e+00	 2.465154572656048e-01	 1.616700736231980e+01
 1.417699298181683e+00	 2.590996468671456e-01	 1.614722711397813e+01
 1.415338839584173e+00	 2.716982758140153e-01	 1.612899062279055e+01
 1.412859501925539e+00	 2.843098186175775e-01	 1.611193044904109e+01
 1.410260636216053e+00	 2.969327296151559e-01	 1.609559115812626e+01
 1.407541617803216e+00	 3.095654433703699e-01	 1.607942573283987e+01
 1.404701846974463e+00	 3.222063750930234e-01	 1.606279225961013e+01
 1.401740749553137e+00	 3.348539210785311e-01	 1.604495093943330e+01
 1.398657777487031e+00	 3.475064591668399e-01	 1.602506147626992e+01
 1.395452409428825e+00	 3.601623492207781e-01	 1.600218089749220e+01
 1.392124151307731e+00	 3.728199336237416e-01	 1.597511938472194e+01
 1.428634547339286e+00	 2.480246448137129e-01	 1.607398204011603e+01
 1.426378567834983e+00	 2.606858758407348e-01	 1.605483538518482e+01
 1.424003658318955e+00	 2.733616346119617e-01	 1.603704606850913e+01
 1.421509141954604e+00	 2.860503862995889e-01	 1.602031382391723e+01
 1.418894365779036e+00	 2.987505757782654e-01	 1.600424775824930e+01
 1.416158701315582e+00	 3.114606280278791e-01	 1.598836235557028e+01
 1.413301545180189e+00	 3.241789485560169e-01	 1.597207374902086e+01
 1.410322319681045e+00	 3.369039238400809e-01	 1.595469631303323e+01
 1.407220473410729e+00	 3.496339217890198e-01	 1.593543963079481e+01
 1.403995481830190e+00	 3.623672922246060e-01	 1.591340589379217e+01
 1.400646847843902e+00	 3.751023673821690e-01	 1.588701965179186e+01
 1.437327544241933e+00	 2.495338323622575e-01	 1.597767396903711e+01
 1.435057837487939e+00	 2.622721048147099e-01	 1.595990309151278e+01
 1.432668477053472e+00	 2.750249934102204e-01	 1.594328953773860e+01
 1.430158781983499e+00	 2.877909539818219e-01	 1.592759138682352e+01
 1.427528095341957e+00	 3.005684219414936e-01	 1.591247412356914e+01
 1.424775784828000e+00	 3.133558126853973e-01	 1.589750624668666e+01
 1.421901243386087e+00	 3.261515220189086e-01	 1.588215513741581e+01
 1.418903889809247e+00	 3.389539266014224e-01	 1.586578324326010e+01
 1.415783169334836e+00	 3.517613844108948e-01	 1.584764463384752e+01
 1.412538554232072e+00	 3.645722352280479e-01	 1.582688198800663e+01
 1.409169544380683e+00	 3.773848011401508e-01	 1.580120767799322e+01
 1.446020541144276e+00	 2.510430199111707e-01	 1.587764852358403e+01
 1.443737107140646e+00	 2.638583337890138e-01	 1.586195929770706e+01
 1.441333295787813e+00	 2.766883522087470e-01	 1.584722690632907e+01
 1.438808422012302e+00	 2.895315216642453e-01	 1.583325931481798e+01
 1.436161824904879e+00	 3.023862681048232e-01	 1.581977058896437e+01
 1.433392868340518e+00	 3.152509973429212e-01	 1.580637611858837e+01
 1.430500941592184e+00	 3.281240954817086e-01	 1.579258809336821e+01
 1.427485459937747e+00	 3.410039293625784e-01	 1.577781128759745e+01
 1.424345865259336e+00	 3.538888470324986e-01	 1.576133921301794e+01
 1.421081626634435e+00	 3.667771782311470e-01	 1.574235070109036e+01
 1.417692240918024e+00	 3.796672348977363e-01	 1.571748549488131e+01
 1.454713538046414e+00	 2.525522074603852e-01	 1.577347761940608e+01
 1.452416376793205e+00	 2.654445627635899e-01	 1.576053917500926e+01
 1.449998114522070e+00	 2.783517110074970e-01	 1.574836934664622e+01
 1.447458062041092e+00	 2.912720893468280e-01	 1.573681789333195e+01
 1.444795554467864e+00	 3.042041142682368e-01	 1.572564002884229e+01
 1.442009951853179e+00	 3.171461820004475e-01	 1.571449127140741e+01
 1.439100639798507e+00	 3.300966689444270e-01	 1.570292253647750e+01
 1.436067030066553e+00	 3.430539321235716e-01	 1.569037553127012e+01
 1.432908561184218e+00	 3.560163096538652e-01	 1.567617851239352e+01
 1.429624699037249e+00	 3.689821212339457e-01	 1.565954247019943e+01
 1.426214937455878e+00	 3.819496686549755e-01	 1.563564540144407e+01
 1.463406534948448e+00	 2.540613950098333e-01	 1.566473917004655e+01
 1.461095646445711e+00	 2.670307917383813e-01	 1.565518342783638e+01
 1.458662933256330e+00	 2.800150698064257e-01	 1.564623273352881e+01
 1.456107702069947e+00	 2.930126570295386e-01	 1.563777091095504e+01
 1.453429284030977e+00	 3.060219604317169e-01	 1.562958725050064e+01
 1.450627035366032e+00	 3.190413666579726e-01	 1.562137099489208e+01
 1.447700338005082e+00	 3.320692424070740e-01	 1.561270605791372e+01
 1.444648600195670e+00	 3.451039348844240e-01	 1.560306603677543e+01
 1.441471257109468e+00	 3.581437722750282e-01	 1.559180958158701e+01
 1.438167771440481e+00	 3.711870642364872e-01	 1.557815711065745e+01
 1.434737633994194e+00	 3.842321024119174e-01	 1.555547006637984e+01
 1.472099531850478e+00	 2.555705825594476e-01	 1.555101655698095e+01
 1.469774916098262e+00	 2.686170207133314e-01	 1.554543773424183e+01
 1.467327751990686e+00	 2.816784286054890e-01	 1.554033706416567e+01
 1.464757342098945e+00	 2.947532247123460e-01	 1.553562506791914e+01
 1.462063013594281e+00	 3.078398065952465e-01	 1.553111840060396e+01
 1.459244118879119e+00	 3.209365513154929e-01	 1.552653398245213e+01
 1.456300036211935e+00	 3.340418158696594e-01	 1.552148335179323e+01
 1.453230170325106e+00	 3.471539376451588e-01	 1.551546730253454e+01
 1.450033953035072e+00	 3.602712348960211e-01	 1.550787087178731e+01
 1.446710843844101e+00	 3.733920072388143e-01	 1.549767464367282e+01
 1.443260330532925e+00	 3.865145361686117e-01	 1.547673263202376e+01
 1.480792528752603e+00	 2.570797701091606e-01	 1.543189811240027e+01
 1.478454185750956e+00	 2.702032496883832e-01	 1.543085219959169e+01
 1.475992570725226e+00	 2.833417874046418e-01	 1.543020589132070e+01
 1.473406982128165e+00	 2.964937923952187e-01	 1.542988939771969e+01
 1.470696743157837e+00	 3.096576527588080e-01	 1.542974038423679e+01
 1.467861202392488e+00	 3.228317359730054e-01	 1.542949775686464e+01
 1.464899734419093e+00	 3.360143893321935e-01	 1.542879565694039e+01
 1.461811740454865e+00	 3.492039404057983e-01	 1.542715773029031e+01
 1.458596648961017e+00	 3.623986975168775e-01	 1.542399173854647e+01
 1.455253916248075e+00	 3.755969502409699e-01	 1.541770592655315e+01
 1.451783027072022e+00	 3.887969699251082e-01	 1.539919681985513e+01
 1.489485525654923e+00	 2.585889576589046e-01	 1.531845757283063e+01
 1.487133455403890e+00	 2.717894786634799e-01	 1.531674285712501e+01
 1.484657389460042e+00	 2.850051462038400e-01	 1.531719242727983e+01
 1.482056622157686e+00	 2.982343600781260e-01	 1.532013389673353e+01
 1.479330472721711e+00	 3.114754989223839e-01	 1.532496029602075e+01
 1.476478285906183e+00	 3.247269206305063e-01	 1.532977810716687e+01
 1.473499432626582e+00	 3.379869627946863e-01	 1.533418020861328e+01
 1.470393310584955e+00	 3.512539431663654e-01	 1.533770910089561e+01
 1.467159344887289e+00	 3.645261601376317e-01	 1.533979195102875e+01
 1.463796988652372e+00	 3.778018932429967e-01	 1.533791504301020e+01
 1.460305723611435e+00	 3.910794036814559e-01	 1.532261703752194e+01
 1.498178522557537e+00	 2.600981452086121e-01	 1.522558682034052e+01
 1.495812725057163e+00	 2.733757076385648e-01	 1.522228391511048e+01
 1.493322208195223e+00	 2.866685050030388e-01	 1.522067695196163e+01
 1.490706262187585e+00	 2.999749277610363e-01	 1.522112740552278e+01
 1.487964202285964e+00	 3.132933450859572e-01	 1.522392231194236e+01
 1.485095369420251e+00	 3.266221052879923e-01	 1.522926053358380e+01
 1.482099130834428e+00	 3.399595362571476e-01	 1.523723788069987e+01
 1.478974880715383e+00	 3.533039459268825e-01	 1.524668605815174e+01
 1.475722040813876e+00	 3.666536227583171e-01	 1.525488120746020e+01
 1.472340061056959e+00	 3.800068362449376e-01	 1.525795916681650e+01
 1.468828420151117e+00	 3.933618374377046e-01	 1.524673848732057e+01
 1.506871519460547e+00	 2.616073327582156e-01	 1.515255390197857e+01
 1.504491994710871e+00	 2.749619366135812e-01	 1.514829769881377e+01
 1.501987026930858e+00	 2.883318638021939e-01	 1.514530624297612e+01
 1.499355902217941e+00	 3.017154954439185e-01	 1.514396580493384e+01
 1.496597931850662e+00	 3.151111912495104e-01	 1.514459852034128e+01
 1.493712452934736e+00	 3.285172899454601e-01	 1.514744882060819e+01
 1.490698829042657e+00	 3.419321097195878e-01	 1.515266869441900e+01
 1.487556450846153e+00	 3.553539486873724e-01	 1.516030173359974e+01
 1.484284736740762e+00	 3.687810853789671e-01	 1.517026591808016e+01
 1.480883133461804e+00	 3.822117792468355e-01	 1.517748859647459e+01
 1.477351116691019e+00	 3.956442711939038e-01	 1.517129727607265e+01
 1.392124151307731e+00	 3.728199336237416e-01	 1.597511938472194e+01
 1.388672537194630e+00	 3.854775379733900e-01	 1.594484956408328e+01
 1.385097130765164e+00	 3.981334721641446e-01	 1.591533589852180e+01
 1.381397524934934e+00	 4.107860304399616e-01	 1.588614232213885e+01
 1.377573342084982e+00	 4.234334917951880e-01	 1.585686322188162e+01
 1.373624234577360e+00	 4.360741205666020e-01	 1.582712755286877e+01
 1.369549885257692e+00	 4.487061670436154e-01	 1.579660271402382e+01
 1.365350007944089e+00	 4.613278680963596e-01	 1.576499814086136e+01
 1.361024347901708e+00	 4.739374478213423e-01	 1.573206857234130e+01
 1.356572682302292e+00	 4.865331182043387e-01	 1.569761694906440e+01
 1.351994820668021e+00	 4.991130798001510e-01	 1.566149690073978e+01
 1.400646847843902e+00	 3.751023673821690e-01	 1.588701965179186e+01
 1.397174102670292e+00	 3.878374626085382e-01	 1.585656869559973e+01
 1.393576807313785e+00	 4.005708774511668e-01	 1.582717427444015e+01
 1.389854552197771e+00	 4.133008957112291e-01	 1.579839010571382e+01
 1.386006957391479e+00	 4.260257858469312e-01	 1.576980082093731e+01
 1.382033673128686e+00	 4.387438015691746e-01	 1.574102630964228e+01
 1.377934380313367e+00	 4.514531824554967e-01	 1.571172581721022e+01
 1.373708791011600e+00	 4.641521545819985e-01	 1.568160175162281e+01
 1.369356648929030e+00	 4.768389311729584e-01	 1.565040315416326e+01
 1.364877729873223e+00	 4.895117132677778e-01	 1.561792878945975e+01
 1.360271842200234e+00	 5.021686904049041e-01	 1.558402981092558e+01
 1.409169544380683e+00	 3.773848011401508e-01	 1.580120767799322e+01
 1.405675668146641e+00	 3.901973872432065e-01	 1.577071243101814e+01
 1.402056483863154e+00	 4.030082827376973e-01	 1.574152083837886e+01
 1.398311579461407e+00	 4.158157609820120e-01	 1.571318306098881e+01
 1.394440572698812e+00	 4.286180798982108e-01	 1.568528005840233e+01
 1.390443111680873e+00	 4.414134825713149e-01	 1.565742815295729e+01
 1.386318875369919e+00	 4.542001978669813e-01	 1.562928334185158e+01
 1.382067574079997e+00	 4.669764410672792e-01	 1.560054531024156e+01
 1.377688949957241e+00	 4.797404145242503e-01	 1.557096109849220e+01
 1.373182777445042e+00	 4.924903083309190e-01	 1.554032837705963e+01
 1.368548863733329e+00	 5.052243010093732e-01	 1.550849828315823e+01
 1.417692240918024e+00	 3.796672348977363e-01	 1.571748549488131e+01
 1.414177233623615e+00	 3.925573118774478e-01	 1.568718874914741e+01
 1.410536160413200e+00	 4.054456880237910e-01	 1.565837833467289e+01
 1.406768606725760e+00	 4.183306262523644e-01	 1.563060728244077e+01
 1.402874188006888e+00	 4.312103739490789e-01	 1.560345873768133e+01
 1.398852550233826e+00	 4.440831635730726e-01	 1.557655073650950e+01
 1.394703370427249e+00	 4.569472132781184e-01	 1.554954072485856e+01
 1.390426357149177e+00	 4.698007275522471e-01	 1.552212977087941e+01
 1.386021250986234e+00	 4.826418978752632e-01	 1.549406642200179e+01
 1.381487825017637e+00	 4.954689033938084e-01	 1.546515015819582e+01
 1.376825885267192e+00	 5.082799116136080e-01	 1.543523439365515e+01
 1.426214937455878e+00	 3.819496686549755e-01	 1.563564540144406e+01
 1.422678799101151e+00	 3.949172365113159e-01	 1.560589314888838e+01
 1.419015836963849e+00	 4.078830933095025e-01	 1.557773457651694e+01
 1.415225633990747e+00	 4.208454915223405e-01	 1.555073177983930e+01
 1.411307803315623e+00	 4.338026679995892e-01	 1.552447572297531e+01
 1.407261988787449e+00	 4.467528445744983e-01	 1.549859122062145e+01
 1.403087865485256e+00	 4.596942286889545e-01	 1.547274165703532e+01
 1.398785140219034e+00	 4.726250140369487e-01	 1.544663339126122e+01
 1.394353552015900e+00	 4.855433812260422e-01	 1.542001979782528e+01
 1.389792872590895e+00	 4.984474984564927e-01	 1.539270489246887e+01
 1.385102906801707e+00	 5.113355222176582e-01	 1.536454649317486e+01
 1.434737633994194e+00	 3.842321024119174e-01	 1.555547006637984e+01
 1.431180364579188e+00	 3.972771611448641e-01	 1.552670884128815e+01
 1.427495513515028e+00	 4.103204985948865e-01	 1.549956271909384e+01
 1.423682661256284e+00	 4.233603567919950e-01	 1.547360882361475e+01
 1.419741418624923e+00	 4.363949620497934e-01	 1.544845134792798e+01
 1.415671427341645e+00	 4.494225255756421e-01	 1.542372673508471e+01
 1.411472360543840e+00	 4.624412440995386e-01	 1.539910859092106e+01
 1.407143923289466e+00	 4.754493005214298e-01	 1.537431227620812e+01
 1.402685853046132e+00	 4.884448645766331e-01	 1.534909912537083e+01
 1.398097920164706e+00	 5.014260935190179e-01	 1.532328023933916e+01
 1.393379928336755e+00	 5.143911328215736e-01	 1.529671980078699e+01
 1.443260330532925e+00	 3.865145361686117e-01	 1.547673263202375e+01
 1.439681930057662e+00	 3.996370857781455e-01	 1.544950694031104e+01
 1.435975190066661e+00	 4.127579038799979e-01	 1.542382152879159e+01
 1.432139688522289e+00	 4.258752220613821e-01	 1.539927428399472e+01
 1.428175033934699e+00	 4.389872560997450e-01	 1.537548781603234e+01
 1.424080865896321e+00	 4.520922065765548e-01	 1.535211483207030e+01
 1.419856855602901e+00	 4.651882595099180e-01	 1.532884323732465e+01
 1.415502706360367e+00	 4.782735870057365e-01	 1.530540090881192e+01
 1.411018154076820e+00	 4.913463479270807e-01	 1.528156008704985e+01
 1.406402967738958e+00	 5.044046885814304e-01	 1.525714133123019e+01
 1.401656949872222e+00	 5.174467434254036e-01	 1.523201698408275e+01
 1.451783027072022e+00	 3.887969699251082e-01	 1.539919681985513e+01
 1.448183495536510e+00	 4.019970104112138e-01	 1.537414665237855e+01
 1.444454866618676e+00	 4.151953091648915e-01	 1.535045564866934e+01
 1.440596715788680e+00	 4.283900873305558e-01	 1.532774796416529e+01
 1.436608649244861e+00	 4.415795501494959e-01	 1.530566959313696e+01
 1.432490304451380e+00	 4.547618875772862e-01	 1.528389392951491e+01
 1.428241350662339e+00	 4.679352749201410e-01	 1.526212705101761e+01
 1.423861489431633e+00	 4.810978734899148e-01	 1.524011266975832e+01
 1.419350455107859e+00	 4.942478312774303e-01	 1.521763669245671e+01
 1.414708015313537e+00	 5.073832836437764e-01	 1.519453133369821e+01
 1.409933971407990e+00	 5.205023540291984e-01	 1.517067872638423e+01
 1.460305723611435e+00	 3.910794036814559e-01	 1.532261703752194e+01
 1.456685061015671e+00	 4.043569350441220e-01	 1.530047546472921e+01
 1.452934543170999e+00	 4.176327144496221e-01	 1.527939586032609e+01
 1.449053743055374e+00	 4.309049525995711e-01	 1.525903392770126e+01
 1.445042264555320e+00	 4.441718441990992e-01	 1.523906379237402e+01
 1.440899743006728e+00	 4.574315685778870e-01	 1.521918374537269e+01
 1.436625845722053e+00	 4.706822903302550e-01	 1.519912170602938e+01
 1.432220272503162e+00	 4.839221599740107e-01	 1.517864034528413e+01
 1.427682756139140e+00	 4.971493146277277e-01	 1.515754181051207e+01
 1.423013062888334e+00	 5.103618787061026e-01	 1.513567199319758e+01
 1.418210992943944e+00	 5.235579646330074e-01	 1.511292428148286e+01
 1.468828420151117e+00	 3.933618374377046e-01	 1.524673848732057e+01
 1.465186626495083e+00	 4.067168596769236e-01	 1.522832933264646e+01
 1.461414219723556e+00	 4.200701197342445e-01	 1.521055934231872e+01
 1.457510770322288e+00	 4.334198178684820e-01	 1.519312082049837e+01
 1.453475879865985e+00	 4.467641382486076e-01	 1.517572055181814e+01
 1.449309181562268e+00	 4.601012495784074e-01	 1.515808572310359e+01
 1.445010340781943e+00	 4.734293057403083e-01	 1.513996956096584e+01
 1.440579055574847e+00	 4.867464464580702e-01	 1.512115662422966e+01
 1.436015057170553e+00	 5.000507979780174e-01	 1.510146769005939e+01
 1.431318110463235e+00	 5.133404737684550e-01	 1.508076417294487e+01
 1.426488014479968e+00	 5.266135752368805e-01	 1.505895201641473e+01
 1.477351116691019e+00	 3.956442711939038e-01	 1.517129727607265e+01
 1.473688191974681e+00	 4.090767843096721e-01	 1.515753286560013e+01
 1.469893896276274e+00	 4.225075250188132e-01	 1.514384992526803e+01
 1.465967797589340e+00	 4.359346831373429e-01	 1.512998218743003e+01
 1.461909495176767e+00	 4.493564322980735e-01	 1.511567340516854e+01
 1.457718620117905e+00	 4.627709305788975e-01	 1.510068344875253e+01
 1.453394835841910e+00	 4.761763211503487e-01	 1.508479411475576e+01
 1.448937838646586e+00	 4.895707329421396e-01	 1.506781458462702e+01
 1.444347358201994e+00	 5.029522813283457e-01	 1.504958646938097e+01
 1.439623158038130e+00	 5.163190688308801e-01	 1.502998837736362e+01
 1.434765036015943e+00	 5.296691858408672e-01	 1.500893994275539e+01
 1.351994820668021e+00	 4.991130798001510e-01	 1.566149690073978e+01
 1.347289794632056e+00	 5.116776564812034e-01	 1.562365951094971e+01
 1.342458246410059e+00	 5.242228865066122e-01	 1.558393854344669e+01
 1.337500084121130e+00	 5.367469388226648e-01	 1.554207195680114e+01
 1.332415249865001e+00	 5.492479737946389e-01	 1.549785145430162e+01
 1.327203720078967e+00	 5.617241439652626e-01	 1.545112268635134e+01
 1.321865505875329e+00	 5.741735948273180e-01	 1.540178482817369e+01
 1.316400653358761e+00	 5.865944656098289e-01	 1.534978950361183e+01
 1.310809243923032e+00	 5.989848900772532e-01	 1.529513902894443e+01
 1.305091394526529e+00	 6.113429973410692e-01	 1.523788395406984e+01
 1.299247257946061e+00	 6.236669126831257e-01	 1.517811988212588e+01
 1.360271842200234e+00	 5.021686904049041e-01	 1.558402981092558e+01
 1.355538011614799e+00	 5.148101884395315e-01	 1.554864110604357e+01
 1.350676884264278e+00	 5.274322213766832e-01	 1.551154334804498e+01
 1.345688367705273e+00	 5.400329469527966e-01	 1.547242011383806e+01
 1.340572403683049e+00	 5.526105142707648e-01	 1.543101001654809e+01
 1.335328968490650e+00	 5.651630645630412e-01	 1.538710705905247e+01
 1.329958073308411e+00	 5.776887319689727e-01	 1.534056034085673e+01
 1.324459764523265e+00	 5.901856443258015e-01	 1.529127308754378e+01
 1.318834124027283e+00	 6.026519239727486e-01	 1.523920097526748e+01
 1.313081269494885e+00	 6.150856885675708e-01	 1.518434972630619e+01
 1.307201354638195e+00	 6.274850519149480e-01	 1.512677195553264e+01
 1.368548863733329e+00	 5.052243010093732e-01	 1.550849828315824e+01
 1.363786228598419e+00	 5.179427203975734e-01	 1.547538934155616e+01
 1.358895522119368e+00	 5.306415562464517e-01	 1.544073318864827e+01
 1.353876651290278e+00	 5.433189550825974e-01	 1.540416720086902e+01
 1.348729557501946e+00	 5.559730547465211e-01	 1.536538499969835e+01
 1.343454216903165e+00	 5.686019851604045e-01	 1.532413694851149e+01
 1.338050640742303e+00	 5.812038691101618e-01	 1.528022998009857e+01
 1.332518875688554e+00	 5.937768230412558e-01	 1.523352672250147e+01
 1.326859004132289e+00	 6.063189578676739e-01	 1.518394389415678e+01
 1.321071144463957e+00	 6.188283797934518e-01	 1.513144994299819e+01
 1.315155451330999e+00	 6.313031911461060e-01	 1.507606190814036e+01
 1.376825885267192e+00	 5.082799116136080e-01	 1.543523439365515e+01
 1.372034445582796e+00	 5.210752523553851e-01	 1.540422541572698e+01
 1.367114159975201e+00	 5.338508911159826e-01	 1.537181411179681e+01
 1.362064934876010e+00	 5.466049632121424e-01	 1.533759959405672e+01
 1.356886711321549e+00	 5.593355952219954e-01	 1.530123835214173e+01
 1.351579465316364e+00	 5.720409057574534e-01	 1.526244488592314e+01
 1.346143208176854e+00	 5.847190062510002e-01	 1.522099164557995e+01
 1.340577986854469e+00	 5.973680017563207e-01	 1.517670824497536e+01
 1.334883884237883e+00	 6.099859917621706e-01	 1.512947991781379e+01
 1.329061019433578e+00	 6.225710710188680e-01	 1.507924518984032e+01
 1.323109548024305e+00	 6.351213303767657e-01	 1.502599274444631e+01
 1.385102906801707e+00	 5.113355222176582e-01	 1.536454649317485e+01
 1.380282662567807e+00	 5.242077843130228e-01	 1.533544696117199e+01
 1.375332797831650e+00	 5.370602259853402e-01	 1.530506885247984e+01
 1.370253218462333e+00	 5.498909713415067e-01	 1.527298070922104e+01
 1.365043865141720e+00	 5.626981356972758e-01	 1.523880951320706e+01
 1.359704713730101e+00	 5.754798263542893e-01	 1.520224144775922e+01
 1.354235775611909e+00	 5.882341433916031e-01	 1.516302194267700e+01
 1.348637098020853e+00	 6.009591804711256e-01	 1.512095496672210e+01
 1.342908764343907e+00	 6.136530256563816e-01	 1.507590153554823e+01
 1.337050894403583e+00	 6.263137622439738e-01	 1.502777740691565e+01
 1.331063644717947e+00	 6.389394696070935e-01	 1.497654993927086e+01
 1.393379928336755e+00	 5.143911328215736e-01	 1.529671980078699e+01
 1.388530879553332e+00	 5.273403162705426e-01	 1.526932863931043e+01
 1.383551435688585e+00	 5.402695608545892e-01	 1.524075742572778e+01
 1.378441502049116e+00	 5.531769794707668e-01	 1.521055158695320e+01
 1.373201018962316e+00	 5.660606761724497e-01	 1.517831598800717e+01
 1.367829962144228e+00	 5.789187469510134e-01	 1.514371581640629e+01
 1.362328343047315e+00	 5.917492805320850e-01	 1.510647672481142e+01
 1.356696209187545e+00	 6.045503591857986e-01	 1.506638419460626e+01
 1.350933644450194e+00	 6.173200595504500e-01	 1.502328208675300e+01
 1.345040769373806e+00	 6.300564534689248e-01	 1.497707035031169e+01
 1.339017741411758e+00	 6.427576088372554e-01	 1.492770186339117e+01
 1.401656949872222e+00	 5.174467434254036e-01	 1.523201698408275e+01
 1.396779096539246e+00	 5.304728482279999e-01	 1.520612272138173e+01
 1.391770073545880e+00	 5.434788957237946e-01	 1.517911770505425e+01
 1.386629785636222e+00	 5.564629875999971e-01	 1.515053146495696e+01
 1.381358172783197e+00	 5.694232166476052e-01	 1.511995391000923e+01
 1.375955210558596e+00	 5.823576675477268e-01	 1.508703632915295e+01
 1.370420910482918e+00	 5.952644176725620e-01	 1.505149162490479e+01
 1.364755320354389e+00	 6.081415379004698e-01	 1.501309374043502e+01
 1.358958524556584e+00	 6.209870934445169e-01	 1.497167624490030e+01
 1.353030644344081e+00	 6.337991446938755e-01	 1.492713004592898e+01
 1.346971838105572e+00	 6.465757480674170e-01	 1.487940020268645e+01
 1.409933971407990e+00	 5.205023540291984e-01	 1.517067872638422e+01
 1.405027313525431e+00	 5.336053801854511e-01	 1.514605965660276e+01
 1.399988711403406e+00	 5.466882305930209e-01	 1.512036598828892e+01
 1.394818069223517e+00	 5.597489957292734e-01	 1.509311833814217e+01
 1.389515326604221e+00	 5.727857571228300e-01	 1.506389859183487e+01
 1.384080458973060e+00	 5.857965881445307e-01	 1.503235101600573e+01
 1.378513477918565e+00	 5.987795548131480e-01	 1.499818257638437e+01
 1.372814431521223e+00	 6.117327166152673e-01	 1.496116242119736e+01
 1.366983404662913e+00	 6.246541273387262e-01	 1.492112049292810e+01
 1.361020519314243e+00	 6.375418359189816e-01	 1.487794523580324e+01
 1.354925934799222e+00	 6.503938872977448e-01	 1.483158037106244e+01
 1.418210992943944e+00	 5.235579646330074e-01	 1.511292428148286e+01
 1.413275530511764e+00	 5.367379121429522e-01	 1.508934862799167e+01
 1.408207349261037e+00	 5.498975654623327e-01	 1.506469755131653e+01
 1.403006352810868e+00	 5.630350038586714e-01	 1.503848950697140e+01
 1.397672480425248e+00	 5.761482975982117e-01	 1.501030506477150e+01
 1.392205707387471e+00	 5.892355087415261e-01	 1.497978812679037e+01
 1.386606045354103e+00	 6.022946919539591e-01	 1.494664632416838e+01
 1.380873542687891e+00	 6.153238953303208e-01	 1.491065055009998e+01
 1.375008284769019e+00	 6.283211612332196e-01	 1.487163359036911e+01
 1.369010394284127e+00	 6.412845271443973e-01	 1.482948781724805e+01
 1.362880031492541e+00	 6.542120265284050e-01	 1.478416191740916e+01
 1.426488014479968e+00	 5.266135752368805e-01	 1.505895201641473e+01
 1.421523747498121e+00	 5.398704441005584e-01	 1.503617809635940e+01
 1.416425987118643e+00	 5.531069003317950e-01	 1.501228719021315e+01
 1.411194636398139e+00	 5.663210119882667e-01	 1.498680211453654e+01
 1.405829634246136e+00	 5.795108380738383e-01	 1.495930860745425e+01
 1.400330955801682e+00	 5.926744293388141e-01	 1.492945664797329e+01
 1.394698612789377e+00	 6.058098290951096e-01	 1.489696092603759e+01
 1.388932653854234e+00	 6.189150740457590e-01	 1.486160041877428e+01
 1.383033164874738e+00	 6.319881951281399e-01	 1.482321703255801e+01
 1.377000269253567e+00	 6.450272183702782e-01	 1.478171327510905e+01
 1.370834128185363e+00	 6.580301657595632e-01	 1.473704892683472e+01
 1.434765036015943e+00	 5.296691858408672e-01	 1.500893994275539e+01
 1.429771964484384e+00	 5.430029760583268e-01	 1.498671633294682e+01
 1.424644624976097e+00	 5.563162352014722e-01	 1.496328975224911e+01
 1.419382919985196e+00	 5.696070201181342e-01	 1.493819367282149e+01
 1.413986788066745e+00	 5.828733785497976e-01	 1.491102526415484e+01
 1.408456204215545e+00	 5.961133499364961e-01	 1.488144680961994e+01
 1.402791180224236e+00	 6.093249662367151e-01	 1.484918624478150e+01
 1.396991765020092e+00	 6.225062527617111e-01	 1.481403677101093e+01
 1.391058044979909e+00	 6.356552290236296e-01	 1.477585550223690e+01
 1.384990144222398e+00	 6.487699095967792e-01	 1.473456110740899e+01
 1.378788224877522e+00	 6.618483049913858e-01	 1.469013041640674e+01
 1.299247257946061e+00	 6.236669126831257e-01	 1.517811988212588e+01
 1.293278048388431e+00	 6.359526727492338e-01	 1.511559388727348e+01
 1.287183007398215e+00	 6.482004958785387e-01	 1.505028614533238e+01
 1.280962395459681e+00	 6.604085011917664e-01	 1.498274364012432e+01
 1.274616509643952e+00	 6.725748073546428e-01	 1.491356023971723e+01
 1.268145683747824e+00	 6.846975334493388e-01	 1.484336944848915e+01
 1.261550288408174e+00	 6.967747998534314e-01	 1.477283638199110e+01
 1.254830731191596e+00	 7.088047291255957e-01	 1.470264897824607e+01
 1.247987456658923e+00	 7.207854468972283e-01	 1.463350846445313e+01
 1.241020946404337e+00	 7.327150827691791e-01	 1.456611910346896e+01
 1.233931719068790e+00	 7.445917712127675e-01	 1.450100331123991e+01
 1.307201354638195e+00	 6.274850519149480e-01	 1.512677195553264e+01
 1.301195601097489e+00	 6.398460263967237e-01	 1.506634709700919e+01
 1.295063245774014e+00	 6.521688316887333e-01	 1.500322136106330e+01
 1.288804550746734e+00	 6.644515753968039e-01	 1.493795018880546e+01
 1.282419814905460e+00	 6.766923646689785e-01	 1.487113657031590e+01
 1.275909374090512e+00	 6.888893070722947e-01	 1.480342359408699e+01
 1.269273601207829e+00	 7.010405114771260e-01	 1.473548618816838e+01
 1.262512906319155e+00	 7.131440889482984e-01	 1.466802206674551e+01
 1.255627736706952e+00	 7.251981536421688e-01	 1.460174190140833e+01
 1.248618576913754e+00	 7.372008237088500e-01	 1.453735874197895e+01
 1.241485948755668e+00	 7.491502221987406e-01	 1.447461047440333e+01
 1.315155451330999e+00	 6.313031911461060e-01	 1.507606190814036e+01
 1.309113153807163e+00	 6.437393800435134e-01	 1.501779038315767e+01
 1.302943484150369e+00	 6.561371674981971e-01	 1.495693502662821e+01
 1.296646706034283e+00	 6.684946496010876e-01	 1.489405047725458e+01
 1.290223120167402e+00	 6.808099219825431e-01	 1.482974031526970e+01
 1.283673064433576e+00	 6.930810806944678e-01	 1.476464942542778e+01
 1.276996914007808e+00	 7.053062231000301e-01	 1.469945551881226e+01
 1.270195081446992e+00	 7.174834487702054e-01	 1.463485982723069e+01
 1.263268016755224e+00	 7.296108603863104e-01	 1.457157698970072e+01
 1.256216207423393e+00	 7.416865646477211e-01	 1.451030790816639e+01
 1.249040178442763e+00	 7.537086731839141e-01	 1.444918033011148e+01
 1.323109548024305e+00	 6.351213303767657e-01	 1.502599274444631e+01
 1.317030706517287e+00	 6.476327336897769e-01	 1.496987117278273e+01
 1.310823722527118e+00	 6.601055033071137e-01	 1.491132924522191e+01
 1.304488861322167e+00	 6.725377238048067e-01	 1.485091169993572e+01
 1.298026425429625e+00	 6.849274792955309e-01	 1.478921433614233e+01
 1.291436754776868e+00	 6.972728543160536e-01	 1.472687620667510e+01
 1.284720226807968e+00	 7.095719347223406e-01	 1.466457093466522e+01
 1.277877256574971e+00	 7.218228085915146e-01	 1.460299716809770e+01
 1.270908296803611e+00	 7.340235671298536e-01	 1.454286819194851e+01
 1.263813837933131e+00	 7.461723055859921e-01	 1.448433662771095e+01
 1.256594408129957e+00	 7.582671241684877e-01	 1.442440096589611e+01
 1.331063644717947e+00	 6.389394696070935e-01	 1.497654993927086e+01
 1.324948259227697e+00	 6.515260873356906e-01	 1.492252040464605e+01
 1.318703960904099e+00	 6.640738391156649e-01	 1.486629040046444e+01
 1.312331016610230e+00	 6.765807980081493e-01	 1.480838582337868e+01
 1.305829730691974e+00	 6.890450366081329e-01	 1.474938647697968e+01
 1.299200445120239e+00	 7.014646279372480e-01	 1.468991810983594e+01
 1.292443539608166e+00	 7.138376463442555e-01	 1.463064354110137e+01
 1.285559431702958e+00	 7.261621684124262e-01	 1.457225288738968e+01
 1.278548576851983e+00	 7.384362738729969e-01	 1.451545291078157e+01
 1.271411468442847e+00	 7.506580465238639e-01	 1.445889667250941e+01
 1.264148637817135e+00	 7.628255751526610e-01	 1.439994968048105e+01
 1.339017741411758e+00	 6.427576088372554e-01	 1.492770186339117e+01
 1.332865811938225e+00	 6.554194409814287e-01	 1.487565291994503e+01
 1.326584199281147e+00	 6.680421749240338e-01	 1.482168951918637e+01
 1.320173171898311e+00	 6.806238722113037e-01	 1.476630992806868e+01
 1.313633035954296e+00	 6.931625939205427e-01	 1.471006989246831e+01
 1.306964135463542e+00	 7.056564015582467e-01	 1.465357453645708e+01
 1.300166852408262e+00	 7.181033579659729e-01	 1.459746931073071e+01
 1.293241606830815e+00	 7.305015282331389e-01	 1.454243000377575e+01
 1.286188856900212e+00	 7.428489806159404e-01	 1.448904217470935e+01
 1.279009098952417e+00	 7.551437874615352e-01	 1.443361510075836e+01
 1.271702867504179e+00	 7.673840261366348e-01	 1.437549437260836e+01
 1.346971838105572e+00	 6.465757480674170e-01	 1.487940020268644e+01
 1.340783364648704e+00	 6.593127946271666e-01	 1.482916784782597e+01
 1.334464437658099e+00	 6.720105107324028e-01	 1.477738262999194e+01
 1.328015327186251e+00	 6.846669464144581e-01	 1.472450654684793e+01
 1.321436341216435e+00	 6.972801512329521e-01	 1.467106337306814e+01
 1.314727825806627e+00	 7.098481751792459e-01	 1.461763043648351e+01
 1.307890165208112e+00	 7.223690695876901e-01	 1.456482940307470e+01
 1.300923781958410e+00	 7.348408880538512e-01	 1.451331608422910e+01
 1.293829136948170e+00	 7.472616873588841e-01	 1.446266496055917e+01
 1.286606729461719e+00	 7.596295283992066e-01	 1.440811147668693e+01
 1.279257097190972e+00	 7.719424771206083e-01	 1.435069492371315e+01
 1.354925934799222e+00	 6.503938872977448e-01	 1.483158037106244e+01
 1.348700917358971e+00	 6.632061482730800e-01	 1.478294898588933e+01
 1.342344676034793e+00	 6.759788465409542e-01	 1.473321111777312e+01
 1.335857482473890e+00	 6.887100206178008e-01	 1.468278399997190e+01
 1.329239646478238e+00	 7.013977085455541e-01	 1.463215166724504e+01
 1.322491516149348e+00	 7.140399488004402e-01	 1.458185662439713e+01
 1.315613478007577e+00	 7.266347812096051e-01	 1.453249048143532e+01
 1.308605957085606e+00	 7.391802478747629e-01	 1.448468356854044e+01
 1.301469416995727e+00	 7.516743941020277e-01	 1.443579098009818e+01
 1.294204359970631e+00	 7.641152693370780e-01	 1.438199919570761e+01
 1.286811326877398e+00	 7.765009281047822e-01	 1.432520457469950e+01
 1.362880031492541e+00	 6.542120265284050e-01	 1.478416191740916e+01
 1.356618470068860e+00	 6.670995019193440e-01	 1.473686517588987e+01
 1.350224914411064e+00	 6.799471823498704e-01	 1.468900207434108e+01
 1.343699637761070e+00	 6.927530948215201e-01	 1.464093672695833e+01
 1.337042951739551e+00	 7.055152658585415e-01	 1.459310580092121e+01
 1.330255206491554e+00	 7.182317224220262e-01	 1.454601009274634e+01
 1.323336790806513e+00	 7.309004928319160e-01	 1.450020502707135e+01
 1.316288132212268e+00	 7.435196076960724e-01	 1.445605078782820e+01
 1.309109697042756e+00	 7.560871008455708e-01	 1.440799907371709e+01
 1.301801990479030e+00	 7.686010102753500e-01	 1.435488680504772e+01
 1.294365556563339e+00	 7.810593790893557e-01	 1.429867129705655e+01
 1.370834128185363e+00	 6.580301657595632e-01	 1.473704892683472e+01
 1.364536022778204e+00	 6.709928555661338e-01	 1.469077067482982e+01
 1.358105152786751e+00	 6.839155181593350e-01	 1.464456864533273e+01
 1.351541793047632e+00	 6.967961690258044e-01	 1.459874561535998e+01
 1.344846257000220e+00	 7.096328231721070e-01	 1.455368339425783e+01
 1.338018896833100e+00	 7.224234960441999e-01	 1.450983432317377e+01
 1.331060103604780e+00	 7.351662044548202e-01	 1.446771165079305e+01
 1.323970307338263e+00	 7.478589675179796e-01	 1.442624830274729e+01
 1.316749977089128e+00	 7.604998075897129e-01	 1.437886463599687e+01
 1.309399620986795e+00	 7.730867512142210e-01	 1.432637932004315e+01
 1.301919786248680e+00	 7.856178300745295e-01	 1.427073915854499e+01
 1.378788224877522e+00	 6.618483049913858e-01	 1.469013041640674e+01
 1.372453575486838e+00	 6.748862092136243e-01	 1.464450552162903e+01
 1.365985391161689e+00	 6.878838539695299e-01	 1.459971037354362e+01
 1.359383948333416e+00	 7.008392432308417e-01	 1.455597832658432e+01
 1.352649562260090e+00	 7.137503804864426e-01	 1.451362897587807e+01
 1.345782587173836e+00	 7.266152696671558e-01	 1.447305959504332e+01
 1.338783416402234e+00	 7.394319160785153e-01	 1.443473540207933e+01
 1.331652482463453e+00	 7.521983273406829e-01	 1.439476222548228e+01
 1.324390257134714e+00	 7.649125143346539e-01	 1.434796088544199e+01
 1.316997251493802e+00	 7.775724921538925e-01	 1.429607953626985e+01
 1.309474015933302e+00	 7.901762810605032e-01	 1.424104968367105e+01
 1.233931719068790e+00	 7.445917712127675e-01	 1.450100331123990e+01
 1.226720330625627e+00	 7.564136527099095e-01	 1.443033338721953e+01
 1.219387375231171e+00	 7.681788753817900e-01	 1.434853063171185e+01
 1.211933484255399e+00	 7.798855952156397e-01	 1.425734761349495e+01
 1.204359325889236e+00	 7.915319767413326e-01	 1.415856796188025e+01
 1.196665605024608e+00	 8.031161939398310e-01	 1.405399469138956e+01
 1.188853063107831e+00	 8.146364311505905e-01	 1.394543769310834e+01
 1.180922477966298e+00	 8.260908839770120e-01	 1.383470041681653e+01
 1.172874663608447e+00	 8.374777601890396e-01	 1.372356577419393e+01
 1.164710469997046e+00	 8.487952806219833e-01	 1.361378129964695e+01
 1.156430782795849e+00	 8.600416800706597e-01	 1.350704361157132e+01
 1.241485948755668e+00	 7.491502221987406e-01	 1.447461047440333e+01
 1.234230411609748e+00	 7.610444782096354e-01	 1.440548859510839e+01
 1.226852563269797e+00	 7.728817285253641e-01	 1.432506739933633e+01
 1.219353038971102e+00	 7.846601178439617e-01	 1.423516902820770e+01
 1.211732510995317e+00	 7.963777994584040e-01	 1.413765477787177e+01
 1.203991688549784e+00	 8.080329361706164e-01	 1.403441318672964e+01
 1.196131317620026e+00	 8.196237012044315e-01	 1.392734724298548e+01
 1.188152180795367e+00	 8.311482791165865e-01	 1.381836073645754e+01
 1.180055097067682e+00	 8.426048667048470e-01	 1.370934378503975e+01
 1.171840921603290e+00	 8.539916739123325e-01	 1.360215757272351e+01
 1.163510545488063e+00	 8.653069247271276e-01	 1.349861834262938e+01
 1.249040178442763e+00	 7.537086731839141e-01	 1.444918033011148e+01
 1.241740492594098e+00	 7.656753037085610e-01	 1.438134619661042e+01
 1.234317751308680e+00	 7.775845816681388e-01	 1.430212642902544e+01
 1.226772593687102e+00	 7.894346404714876e-01	 1.421341374522170e+01
 1.219105696101743e+00	 8.012236221746841e-01	 1.411714748867070e+01
 1.211317772075357e+00	 8.129496784006183e-01	 1.401530147324647e+01
 1.203409572132667e+00	 8.246109712575002e-01	 1.390987090163282e+01
 1.195381883624928e+00	 8.362056742554060e-01	 1.380285838109084e+01
 1.187235530527446e+00	 8.477319732199223e-01	 1.369625906705506e+01
 1.178971373210091e+00	 8.591880672019779e-01	 1.359204497182468e+01
 1.170590308180842e+00	 8.705721693829283e-01	 1.349214848243784e+01
 1.256594408129957e+00	 7.582671241684877e-01	 1.442440096589611e+01
 1.249250573578565e+00	 7.703061292068869e-01	 1.435763485053105e+01
 1.241782939347714e+00	 7.822874348103155e-01	 1.427946267751091e+01
 1.234192148403295e+00	 7.942091630984160e-01	 1.419184869026749e+01
 1.226478881208410e+00	 8.060694448903711e-01	 1.409681062296784e+01
 1.218643855601222e+00	 8.178664206300325e-01	 1.399640729821553e+01
 1.210687826645653e+00	 8.295982413099909e-01	 1.389272525123322e+01
 1.202611586454881e+00	 8.412630693936600e-01	 1.378786440406580e+01
 1.194415963987641e+00	 8.528590797344487e-01	 1.368392282034056e+01
 1.186101824817347e+00	 8.643844604910956e-01	 1.358298057819935e+01
 1.177670070874088e+00	 8.758374140382281e-01	 1.348708280612660e+01
 1.264148637817135e+00	 7.628255751526610e-01	 1.439994968048105e+01
 1.256760654563039e+00	 7.749369547048129e-01	 1.433407177722715e+01
 1.249248127386789e+00	 7.869902879520921e-01	 1.425681929618250e+01
 1.241611703119574e+00	 7.989836857249464e-01	 1.417022889758127e+01
 1.233852066315215e+00	 8.109152676056622e-01	 1.407639701049407e+01
 1.225969939127280e+00	 8.227831628590550e-01	 1.397746717908469e+01
 1.217966081158882e+00	 8.345855113620958e-01	 1.387561638774762e+01
 1.209841289285125e+00	 8.463204645315365e-01	 1.377304038843755e+01
 1.201596397448167e+00	 8.579861862486090e-01	 1.367193806077875e+01
 1.193232276424960e+00	 8.695808537798625e-01	 1.357449484290848e+01
 1.184749833567700e+00	 8.811026586931948e-01	 1.348286527841263e+01
 1.271702867504179e+00	 7.673840261366348e-01	 1.437549437260837e+01
 1.264270735547405e+00	 7.795677802025393e-01	 1.431036419974693e+01
 1.256713315425795e+00	 7.916931410936690e-01	 1.423392911372088e+01
 1.249031257835833e+00	 8.037582083512776e-01	 1.414829902316535e+01
 1.241225251422054e+00	 8.157610903207552e-01	 1.405564931501434e+01
 1.233296022653427e+00	 8.276999050878820e-01	 1.395820794528193e+01
 1.225244335672256e+00	 8.395727814140082e-01	 1.385824146060526e+01
 1.217070992115560e+00	 8.513778596692244e-01	 1.375803997360551e+01
 1.208776830908922e+00	 8.631132927625864e-01	 1.365990112269210e+01
 1.200362728032829e+00	 8.747772470684529e-01	 1.356611305459172e+01
 1.191829596261578e+00	 8.863679033479945e-01	 1.347893647559111e+01
 1.279257097190972e+00	 7.719424771206083e-01	 1.435069492371315e+01
 1.271780816531552e+00	 7.841986057002657e-01	 1.428621077760717e+01
 1.264178503464626e+00	 7.963959942352459e-01	 1.421051611050209e+01
 1.256450812551968e+00	 8.085327309776091e-01	 1.412579484930527e+01
 1.248598436528824e+00	 8.206069130358484e-01	 1.403430155840790e+01
 1.240622106179562e+00	 8.326166473167089e-01	 1.393834827128866e+01
 1.232522590185671e+00	 8.445600514659205e-01	 1.384029020418524e+01
 1.224300694946086e+00	 8.564352548069122e-01	 1.374251037461466e+01
 1.215957264369807e+00	 8.682403992765634e-01	 1.364740315538173e+01
 1.207493179640854e+00	 8.799736403570438e-01	 1.355735680267601e+01
 1.198909358955622e+00	 8.916331480027943e-01	 1.347473500487199e+01
 1.286811326877398e+00	 7.765009281047822e-01	 1.432520457469950e+01
 1.279290897515368e+00	 7.888294311981917e-01	 1.426130303350865e+01
 1.271643691503172e+00	 8.010988473770230e-01	 1.418629688511199e+01
 1.263870367267871e+00	 8.133072536041394e-01	 1.410244478070021e+01
 1.255971621635421e+00	 8.254527357511396e-01	 1.401208063620155e+01
 1.247948189705582e+00	 8.375333895457318e-01	 1.391760020133705e+01
 1.239800844699027e+00	 8.495473215180253e-01	 1.382144646142684e+01
 1.231530397776602e+00	 8.614926499447889e-01	 1.372609389442220e+01
 1.223137697830722e+00	 8.733675057907241e-01	 1.363403161379829e+01
 1.214623631248936e+00	 8.851700336458100e-01	 1.354774543621354e+01
 1.205989121649732e+00	 8.968983926577605e-01	 1.346969892117055e+01
 1.294365556563339e+00	 7.810593790893557e-01	 1.429867129705656e+01
 1.286800978498739e+00	 7.934602566965178e-01	 1.423532677327786e+01
 1.279108879541324e+00	 8.058017005191993e-01	 1.416098211329184e+01
 1.271289921983438e+00	 8.180817762310685e-01	 1.407797133255131e+01
 1.263344806741741e+00	 8.302985584668264e-01	 1.398870782490438e+01
 1.255274273231384e+00	 8.424501317751462e-01	 1.389567066607379e+01
 1.247079099212222e+00	 8.545345915705165e-01	 1.380138969988916e+01
 1.238760100607008e+00	 8.665500450830430e-01	 1.370842942941510e+01
 1.230318131291566e+00	 8.784946123052505e-01	 1.361937174358361e+01
 1.221754082856973e+00	 8.903664269349285e-01	 1.353679751852638e+01
 1.213068884343809e+00	 9.021636373130613e-01	 1.346326714145636e+01
 1.301919786248680e+00	 7.856178300745295e-01	 1.427073915854499e+01
 1.294311059481555e+00	 7.980910821954439e-01	 1.420796349930960e+01
 1.286574067578974e+00	 8.105045536619746e-01	 1.413427799962270e+01
 1.278709476698562e+00	 8.228562988585943e-01	 1.405209261093055e+01
 1.270717991847681e+00	 8.351443811831071e-01	 1.396390028147532e+01
 1.262600356756868e+00	 8.473668740051485e-01	 1.387226299151458e+01
 1.254357353725156e+00	 8.595218616235856e-01	 1.377979652056615e+01
 1.245989803437203e+00	 8.716074402218629e-01	 1.368915396845372e+01
 1.237498564752240e+00	 8.836217188203265e-01	 1.360300806071289e+01
 1.228884534464867e+00	 8.955628202245741e-01	 1.352403227782864e+01
 1.220148647037751e+00	 9.074288819688617e-01	 1.345488085675906e+01
 1.309474015933302e+00	 7.901762810605032e-01	 1.424104968367105e+01
 1.301821140463702e+00	 8.027219076951697e-01	 1.417889181777127e+01
 1.294039255616013e+00	 8.152074068055490e-01	 1.410588772223919e+01
 1.286129031413138e+00	 8.276308214869168e-01	 1.402452378574492e+01
 1.278091176953135e+00	 8.399902039001789e-01	 1.393737253524204e+01
 1.269926440281931e+00	 8.522836162359335e-01	 1.384707840060127e+01
 1.261635608237728e+00	 8.645091316774267e-01	 1.375634215974995e+01
 1.253219506267087e+00	 8.766648353614377e-01	 1.366790408570114e+01
 1.244678998212643e+00	 8.887488253361341e-01	 1.358452582595304e+01
 1.236014986072517e+00	 9.007592135149234e-01	 1.350897105398833e+01
 1.227228409731459e+00	 9.126941266253302e-01	 1.344398494192576e+01
 1.156430782795849e+00	 8.600416800706597e-01	 1.350704361157132e+01
 1.148035087081331e+00	 8.712171004371816e-01	 1.340066448919426e+01
 1.139525741333079e+00	 8.823178827982596e-01	 1.329155014476072e+01
 1.130903741810428e+00	 8.933423018555334e-01	 1.318055799137043e+01
 1.122170119243239e+00	 9.042886497641590e-01	 1.306835877398969e+01
 1.113325938445521e+00	 9.151552369938694e-01	 1.295541905558511e+01
 1.104372297903486e+00	 9.259403931799466e-01	 1.284091700879326e+01
 1.095310329338370e+00	 9.366424679632234e-01	 1.272202857542018e+01
 1.086141197244342e+00	 9.472598318182393e-01	 1.259802514485666e+01
 1.076866098401900e+00	 9.577908768686814e-01	 1.246816154422561e+01
 1.067486261367175e+00	 9.682340176892731e-01	 1.233156010331724e+01
 1.163510545488063e+00	 8.653069247271276e-01	 1.349861834262938e+01
 1.155063450646077e+00	 8.765507619200822e-01	 1.339553259127344e+01
 1.146502009995716e+00	 8.877195041676862e-01	 1.328921314101702e+01
 1.137827225895479e+00	 8.988114156091701e-01	 1.318050725302673e+01
 1.129040135385428e+00	 9.098247779441305e-01	 1.307007033798884e+01
 1.120141809798434e+00	 9.207578912988645e-01	 1.295834794325324e+01
 1.111133354345720e+00	 9.316090750825535e-01	 1.284555750419175e+01
 1.102015907676997e+00	 9.423766688324032e-01	 1.272966474516170e+01
 1.092790641415547e+00	 9.530590330468713e-01	 1.260809211763983e+01
 1.083458759668644e+00	 9.636545500061029e-01	 1.247999381684669e+01
 1.074021498513723e+00	 9.741616245787251e-01	 1.234438514776251e+01
 1.170590308180842e+00	 8.705721693829283e-01	 1.349214848243784e+01
 1.162091814211381e+00	 8.818844234023586e-01	 1.339280180932643e+01
 1.153478278658884e+00	 8.931211255365393e-01	 1.328965715534422e+01
 1.144750709981022e+00	 9.042805293622875e-01	 1.318355109728022e+01
 1.135910151528057e+00	 9.153609061236397e-01	 1.307512389731369e+01
 1.126957681151730e+00	 9.263605456034574e-01	 1.296480098229312e+01
 1.117894410788274e+00	 9.372777569848159e-01	 1.285277416275307e+01
 1.108721486015878e+00	 9.481108697012941e-01	 1.273884397609061e+01
 1.099440085586944e+00	 9.588582342752672e-01	 1.261971091276011e+01
 1.090051420935520e+00	 9.695182231433344e-01	 1.249333316520668e+01
 1.080556735660355e+00	 9.800892314680262e-01	 1.235862046282603e+01
 1.177670070874088e+00	 8.758374140382281e-01	 1.348708280612660e+01
 1.169120177777142e+00	 8.872180848841675e-01	 1.339183006403881e+01
 1.160454547322483e+00	 8.985227469049618e-01	 1.329215836305504e+01
 1.151674194066956e+00	 9.097496431150145e-01	 1.318889313649117e+01
 1.142780167671029e+00	 9.208970343028016e-01	 1.308265975874786e+01
 1.133773552505311e+00	 9.319631999077448e-01	 1.297386450759932e+01
 1.124655467231051e+00	 9.429464388868150e-01	 1.286267523948225e+01
 1.115427064354921e+00	 9.538450705699615e-01	 1.274900186788783e+01
 1.106089529758441e+00	 9.646574355034747e-01	 1.263184744313526e+01
 1.096644082202444e+00	 9.753818962804091e-01	 1.250714510069642e+01
 1.087091972806987e+00	 9.860168383571938e-01	 1.237324168199966e+01
 1.184749833567700e+00	 8.811026586931948e-01	 1.348286527841263e+01
 1.176148541343259e+00	 8.925517463656647e-01	 1.339197227304632e+01
 1.167430815986413e+00	 9.039243682730971e-01	 1.329599145333143e+01
 1.158597678153183e+00	 9.152187568674810e-01	 1.319573672263493e+01
 1.149650183814242e+00	 9.264331624817297e-01	 1.309181890294240e+01
 1.140589423859077e+00	 9.375658542118251e-01	 1.298462617078676e+01
 1.131416523673954e+00	 9.486151207886326e-01	 1.287430417713257e+01
 1.122132642694029e+00	 9.595792714384703e-01	 1.276073594377092e+01
 1.112738973929948e+00	 9.704566367315428e-01	 1.264352163435590e+01
 1.103236743469326e+00	 9.812455694173582e-01	 1.252038181005407e+01
 1.093627209953537e+00	 9.919444452462444e-01	 1.238721075661365e+01
 1.191829596261578e+00	 8.863679033479945e-01	 1.347893647559111e+01
 1.183176904909634e+00	 8.978854078470058e-01	 1.339258172449927e+01
 1.174407084650574e+00	 9.093259896410880e-01	 1.330043095994772e+01
 1.165521162239601e+00	 9.206878706198163e-01	 1.320328624078114e+01
 1.156520199957599e+00	 9.319692906605380e-01	 1.310174424626037e+01
 1.147405295212932e+00	 9.431685085157975e-01	 1.299617617601515e+01
 1.138177580116887e+00	 9.542838026903513e-01	 1.288670730255829e+01
 1.128838221033110e+00	 9.653134723068855e-01	 1.277319627141714e+01
 1.119388418101373e+00	 9.762558379595201e-01	 1.265521424977453e+01
 1.109829404736078e+00	 9.871092425542138e-01	 1.253198224082362e+01
 1.100162447099921e+00	 9.978720521351953e-01	 1.239947604450763e+01
 1.198909358955622e+00	 8.916331480027943e-01	 1.347473500487200e+01
 1.190205268476166e+00	 9.032190693283465e-01	 1.339301144992581e+01
 1.181383353314868e+00	 9.147276110090786e-01	 1.330475259300452e+01
 1.172444646326112e+00	 9.261569843721487e-01	 1.321074840505271e+01
 1.163390216101001e+00	 9.375054188393419e-01	 1.311158190632542e+01
 1.154221166566777e+00	 9.487711628197595e-01	 1.300760852049847e+01
 1.144938636559754e+00	 9.599524845920514e-01	 1.289893504756164e+01
 1.135543799372068e+00	 9.710476731752720e-01	 1.278539835308676e+01
 1.126037862272624e+00	 9.820550391874548e-01	 1.266654387758695e+01
 1.116422066002613e+00	 9.929729156910094e-01	 1.254160407535961e+01
 1.106697684246055e+00	 1.003799659024063e+00	 1.240897240458185e+01
 1.205989121649732e+00	 8.968983926577605e-01	 1.346969892117055e+01
 1.197233632042755e+00	 9.085527308098434e-01	 1.339261559642250e+01
 1.188359621979193e+00	 9.201292323772123e-01	 1.330823457162954e+01
 1.179368130412618e+00	 9.316260981246085e-01	 1.321733355696077e+01
 1.170260232244350e+00	 9.430415470182544e-01	 1.312048247112041e+01
 1.161037037920516e+00	 9.543738171238091e-01	 1.301802223950622e+01
 1.151699693002458e+00	 9.656211664938156e-01	 1.291004317493867e+01
 1.142249377710810e+00	 9.767818740436952e-01	 1.279636304113500e+01
 1.132687306443609e+00	 9.878542404153952e-01	 1.267650490552336e+01
 1.123014727268843e+00	 9.988365888277762e-01	 1.254967489395018e+01
 1.113232921391856e+00	 1.009727265912864e+00	 1.241473996527501e+01
 1.213068884343809e+00	 9.021636373130613e-01	 1.346326714145636e+01
 1.204261995609301e+00	 9.138863922916518e-01	 1.339075079820003e+01
 1.195335890643451e+00	 9.255308537456317e-01	 1.331015895761005e+01
 1.186291614499018e+00	 9.370952118773249e-01	 1.322225696602044e+01
 1.177130248387545e+00	 9.485776751973894e-01	 1.312760227149441e+01
 1.167852909274049e+00	 9.599764714280448e-01	 1.302652265567417e+01
 1.158460749444903e+00	 9.712898483957252e-01	 1.291909400951290e+01
 1.148954956049241e+00	 9.825160749122200e-01	 1.280511775568784e+01
 1.139336750614238e+00	 9.936534416433901e-01	 1.268409802723133e+01
 1.129607388534680e+00	 1.004700261964547e+00	 1.255521871815564e+01
 1.119768158537242e+00	 1.015654872801615e+00	 1.241732052757907e+01
 1.220148647037751e+00	 9.074288819688617e-01	 1.345488085675906e+01
 1.211290359175705e+00	 9.192200537739282e-01	 1.338677754751020e+01
 1.202312159307539e+00	 9.309324751144801e-01	 1.330981298991470e+01
 1.193215098585211e+00	 9.425643256304265e-01	 1.322474013255312e+01
 1.184000264530489e+00	 9.541138033768618e-01	 1.313210465693717e+01
 1.174668780627279e+00	 9.655791257325644e-01	 1.303222263244979e+01
 1.165221805886993e+00	 9.769585302978617e-01	 1.292515767395278e+01
 1.155660534387266e+00	 9.882502757809111e-01	 1.281069770753903e+01
 1.145986194784419e+00	 9.994526428714876e-01	 1.268833145695759e+01
 1.136200049800036e+00	 1.010563935101354e+00	 1.255722476978849e+01
 1.126303395682128e+00	 1.021582479690333e+00	 1.241619690846417e+01
 1.227228409731459e+00	 9.126941266253302e-01	 1.344398494192577e+01
 1.218318722741866e+00	 9.245537152568284e-01	 1.338006156497915e+01
 1.209288427971361e+00	 9.363340964839008e-01	 1.330649042007249e+01
 1.200138582671100e+00	 9.480334393840433e-01	 1.322401209258885e+01
 1.190870280673080e+00	 9.596499315567852e-01	 1.313316127449110e+01
 1.181484651980107e+00	 9.711817800374664e-01	 1.303424383150464e+01
 1.171982862328630e+00	 9.826272122003074e-01	 1.292731332918241e+01
 1.162366112724793e+00	 9.939844766498344e-01	 1.281214712605611e+01
 1.152635638954060e+00	 1.005251844099736e+00	 1.268822214945036e+01
 1.142792711064822e+00	 1.016427608238230e+00	 1.255469047641075e+01
 1.132838632826431e+00	 1.027510086579036e+00	 1.241035484851581e+01
 1.067486261367175e+00	 9.682340176892731e-01	 1.233156010331724e+01
 1.058004563832146e+00	 9.785859426644694e-01	 1.219163336298484e+01
 1.048420696020508e+00	 9.888469111185910e-01	 1.205204354713123e+01
 1.038735960952127e+00	 9.990154272920019e-01	 1.191218450930003e+01
 1.028951691128298e+00	 1.009090020914066e+00	 1.177134992805529e+01
 1.019069247916471e+00	 1.019069247916471e+00	 1.162872999148182e+01
 1.009090020914065e+00	 1.028951691128298e+00	 1.148340842070306e+01
 9.990154272920018e-01	 1.038735960952127e+00	 1.133435986119551e+01
 9.888469111185908e-01	 1.048420696020508e+00	 1.118044766959776e+01
 9.785859426644695e-01	 1.058004563832147e+00	 1.102042212244156e+01
 9.682340176892732e-01	 1.067486261367175e+00	 1.085291907176790e+01
 1.074021498513723e+00	 9.741616245787251e-01	 1.234438514776251e+01
 1.064481753260220e+00	 9.845769248752173e-01	 1.220501160378049e+01
 1.054839212235358e+00	 9.949007118074958e-01	 1.206598132427551e+01
 1.045095186436212e+00	 1.005131480458752e+00	 1.192674428563897e+01
 1.035251016521766e+00	 1.015267751557224e+00	 1.178664850998464e+01
 1.025308072193884e+00	 1.025308072193884e+00	 1.164493646928069e+01
 1.015267751557224e+00	 1.035251016521766e+00	 1.150074183467186e+01
 1.005131480458752e+00	 1.045095186436212e+00	 1.135308660118046e+01
 9.949007118074955e-01	 1.054839212235358e+00	 1.120087861687527e+01
 9.845769248752170e-01	 1.064481753260220e+00	 1.104290954430665e+01
 9.741616245787251e-01	 1.074021498513723e+00	 1.087785328051163e+01
 1.080556735660355e+00	 9.800892314680262e-01	 1.235862046282602e+01
 1.070958942688337e+00	 9.905679070858453e-01	 1.221969912845532e+01
 1.061257728450222e+00	 1.000954512496305e+00	 1.208118639085497e+01
 1.051454411920286e+00	 1.011247533625426e+00	 1.194261378137639e+01
 1.041550341915204e+00	 1.021445482200321e+00	 1.180340982689294e+01
 1.031546896471251e+00	 1.031546896471251e+00	 1.166289612993681e+01
 1.021445482200321e+00	 1.041550341915204e+00	 1.152028379913667e+01
 1.011247533625427e+00	 1.051454411920286e+00	 1.137467026165066e+01
 1.000954512496305e+00	 1.061257728450222e+00	 1.122503648818664e+01
 9.905679070858451e-01	 1.070958942688337e+00	 1.107024465988420e+01
 9.800892314680263e-01	 1.080556735660355e+00	 1.090903630481178e+01
 1.087091972806987e+00	 9.860168383571938e-01	 1.237324168199965e+01
 1.077436132116420e+00	 9.965588892963561e-01	 1.223469397412532e+01
 1.067676244665028e+00	 1.007008313185007e+00	 1.209669295950903e+01
 1.057813637404285e+00	 1.017363586792000e+00	 1.195887673752796e+01
 1.047849667308557e+00	 1.027623212843323e+00	 1.182078007166206e+01
 1.037785720748525e+00	 1.037785720748526e+00	 1.168183010216458e+01
 1.027623212843322e+00	 1.047849667308557e+00	 1.154134241308044e+01
 1.017363586792000e+00	 1.057813637404286e+00	 1.139851748692760e+01
 1.007008313185007e+00	 1.067676244665028e+00	 1.125243757923542e+01
 9.965588892963556e-01	 1.077436132116421e+00	 1.110206404380309e+01
 9.860168383571939e-01	 1.087091972806987e+00	 1.094623513798719e+01
 1.093627209953537e+00	 9.919444452462444e-01	 1.238721075661365e+01
 1.083913321544392e+00	 1.002549871506752e+00	 1.224897986546802e+01
 1.074094760879704e+00	 1.013062113873592e+00	 1.211151999308535e+01
 1.064172862888146e+00	 1.023479639958449e+00	 1.197460041225843e+01
 1.054148992701770e+00	 1.033800943486192e+00	 1.183788743719294e+01
 1.044024545025664e+00	 1.044024545025664e+00	 1.170093972537327e+01
 1.033800943486192e+00	 1.054148992701770e+00	 1.156320393677827e+01
 1.023479639958449e+00	 1.064172862888146e+00	 1.142401078547906e+01
 1.013062113873591e+00	 1.074094760879704e+00	 1.128257151752646e+01
 1.002549871506751e+00	 1.083913321544392e+00	 1.113797484768642e+01
 9.919444452462445e-01	 1.093627209953537e+00	 1.098918438600312e+01
 1.100162447099921e+00	 9.978720521351953e-01	 1.239947604450764e+01
 1.090390510972175e+00	 1.008540853717035e+00	 1.226152631445133e+01
 1.080513277094179e+00	 1.019115914562047e+00	 1.212467132431743e+01
 1.070532088371804e+00	 1.029595693124751e+00	 1.198883572910037e+01
 1.060448318094786e+00	 1.039978674128896e+00	 1.185384230144214e+01
 1.050263369302618e+00	 1.050263369302618e+00	 1.171940677948643e+01
 1.039978674128896e+00	 1.060448318094786e+00	 1.158513307403894e+01
 1.029595693124751e+00	 1.070532088371805e+00	 1.145050887189346e+01
 1.019115914562046e+00	 1.080513277094179e+00	 1.131490167104901e+01
 1.008540853717034e+00	 1.090390510972174e+00	 1.117755528218355e+01
 9.978720521351953e-01	 1.100162447099921e+00	 1.103758682914347e+01
 1.106697684246055e+00	 1.003799659024063e+00	 1.240897240458185e+01
 1.096867700399689e+00	 1.014531835927208e+00	 1.227128872541323e+01
 1.086931793308381e+00	 1.025169715250360e+00	 1.213513578000627e+01
 1.076891313855196e+00	 1.035711746290880e+00	 1.200061742851237e+01
 1.066747643487552e+00	 1.046156404771397e+00	 1.186773741433592e+01
 1.056502193579344e+00	 1.056502193579344e+00	 1.173639371488280e+01
 1.046156404771397e+00	 1.066747643487552e+00	 1.160637325253533e+01
 1.035711746290880e+00	 1.076891313855196e+00	 1.147734700464576e+01
 1.025169715250361e+00	 1.086931793308381e+00	 1.134886555020323e+01
 1.014531835927207e+00	 1.096867700399689e+00	 1.122035508945173e+01
 1.003799659024063e+00	 1.106697684246055e+00	 1.109111397111539e+01
 1.113232921391856e+00	 1.009727265912864e+00	 1.241473996527501e+01
 1.103344889826858e+00	 1.020522818137272e+00	 1.227720850527825e+01
 1.093350309522240e+00	 1.031223515938523e+00	 1.214188730951998e+01
 1.083250539338258e+00	 1.041827799456814e+00	 1.200896422264007e+01
 1.073046968880010e+00	 1.052334135413661e+00	 1.187864808648214e+01
 1.062741017855794e+00	 1.062741017855794e+00	 1.175104388245530e+01
 1.052334135413661e+00	 1.073046968880010e+00	 1.162614690230474e+01
 1.041827799456814e+00	 1.083250539338258e+00	 1.150383731982987e+01
 1.031223515938523e+00	 1.093350309522240e+00	 1.138387520324421e+01
 1.020522818137272e+00	 1.103344889826858e+00	 1.126589600648036e+01
 1.009727265912864e+00	 1.113232921391856e+00	 1.114842408571226e+01
 1.119768158537242e+00	 1.015654872801615e+00	 1.241732052757907e+01
 1.109822079253605e+00	 1.026513800347230e+00	 1.227821317869574e+01
 1.099768825735684e+00	 1.037277316626523e+00	 1.214388511743451e+01
 1.089609764820927e+00	 1.047943852622529e+00	 1.201287895314993e+01
 1.079346294272108e+00	 1.058511866055653e+00	 1.188563237960749e+01
 1.068979842131924e+00	 1.068979842131924e+00	 1.176248176378013e+01
 1.058511866055653e+00	 1.079346294272107e+00	 1.164365573249104e+01
 1.047943852622529e+00	 1.089609764820926e+00	 1.152926916102021e+01
 1.037277316626523e+00	 1.099768825735684e+00	 1.141931760551249e+01
 1.026513800347230e+00	 1.109822079253605e+00	 1.131367221963139e+01
 1.015654872801615e+00	 1.119768158537242e+00	 1.119573124152588e+01
 1.126303395682128e+00	 1.021582479690333e+00	 1.241619690846417e+01
 1.116299268679850e+00	 1.032504782557086e+00	 1.227393667676755e+01
 1.106187341948641e+00	 1.043331117314347e+00	 1.214007380014835e+01
 1.095968990303136e+00	 1.054059905788001e+00	 1.201134875200864e+01
 1.085645619663787e+00	 1.064689596697337e+00	 1.188773129864946e+01
 1.075218666407687e+00	 1.075218666407687e+00	 1.176981320139417e+01
 1.064689596697337e+00	 1.085645619663787e+00	 1.165808100640281e+01
 1.054059905788000e+00	 1.095968990303137e+00	 1.155290940542181e+01
 1.043331117314347e+00	 1.106187341948641e+00	 1.145455504269860e+01
 1.032504782557085e+00	 1.116299268679850e+00	 1.135724390223075e+01
 1.021582479690333e+00	 1.126303395682128e+00	 1.122825938744310e+01
 1.132838632826431e+00	 1.027510086579036e+00	 1.241035484851581e+01
 1.122776458105517e+00	 1.038495764766839e+00	 1.226480412678669e+01
 1.112605858161041e+00	 1.049384918001987e+00	 1.212944359894536e+01
 1.102328215784825e+00	 1.060175958953205e+00	 1.200334520509188e+01
 1.091944945054995e+00	 1.070867327338678e+00	 1.188396898543680e+01
 1.081457490683039e+00	 1.081457490683039e+00	 1.177212562917548e+01
 1.070867327338677e+00	 1.091944945054995e+00	 1.166858381495262e+01
 1.060175958953205e+00	 1.102328215784825e+00	 1.157400278645685e+01
 1.049384918001987e+00	 1.112605858161041e+00	 1.148843220782894e+01
 1.038495764766839e+00	 1.122776458105517e+00	 1.138391391615215e+01
 1.027510086579036e+00	 1.132838632826431e+00	 1.124546956637701e+01
 9.682340176892732e-01	 1.067486261367175e+00	 1.085291907176790e+01
 9.577908768686817e-01	 1.076866098401900e+00	 1.068481426205598e+01
 9.472598318182397e-01	 1.086141197244342e+00	 1.052452831536449e+01
 9.366424679632236e-01	 1.095310329338370e+00	 1.037281591426158e+01
 9.259403931799469e-01	 1.104372297903486e+00	 1.023039641724705e+01
 9.151552369938699e-01	 1.113325938445520e+00	 1.009701414251416e+01
 9.042886497641597e-01	 1.122170119243239e+00	 9.953468945050252e+00
 8.933423018555336e-01	 1.130903741810428e+00	 9.795107956460617e+00
 8.823178827982596e-01	 1.139525741333079e+00	 9.626337407584458e+00
 8.712171004371820e-01	 1.148035087081330e+00	 9.451782118695812e+00
 8.600416800706600e-01	 1.156430782795849e+00	 9.276265779082767e+00
 9.741616245787251e-01	 1.074021498513723e+00	 1.087785328051163e+01
 9.636545500061029e-01	 1.083458759668643e+00	 1.071339127580800e+01
 9.530590330468716e-01	 1.092790641415546e+00	 1.055870185049004e+01
 9.423766688324036e-01	 1.102015907676997e+00	 1.041450249342807e+01
 9.316090750825543e-01	 1.111133354345720e+00	 1.028147253595992e+01
 9.207578912988649e-01	 1.120141809798433e+00	 1.014453051052630e+01
 9.098247779441311e-01	 1.129040135385428e+00	 9.991056786744380e+00
 8.988114156091702e-01	 1.137827225895479e+00	 9.825291741265120e+00
 8.877195041676870e-01	 1.146502009995716e+00	 9.651721028496555e+00
 8.765507619200824e-01	 1.155063450646077e+00	 9.475055778637774e+00
 8.653069247271273e-01	 1.163510545488063e+00	 9.300212161913793e+00
 9.800892314680263e-01	 1.080556735660355e+00	 1.090903630481178e+01
 9.695182231433349e-01	 1.090051420935520e+00	 1.074991339434418e+01
 9.588582342752678e-01	 1.099440085586944e+00	 1.060276840992936e+01
 9.481108697012945e-01	 1.108721486015878e+00	 1.046822304971441e+01
 9.372777569848162e-01	 1.117894410788274e+00	 1.033767834074946e+01
 9.263605456034578e-01	 1.126957681151730e+00	 1.019021618377636e+01
 9.153609061236404e-01	 1.135910151528057e+00	 1.002866147847878e+01
 9.042805293622878e-01	 1.144750709981022e+00	 9.857263326775426e+00
 8.931211255365400e-01	 1.153478278658883e+00	 9.680522128022520e+00
 8.818844234023591e-01	 1.162091814211381e+00	 9.503169160922148e+00
 8.705721693829281e-01	 1.170590308180842e+00	 9.330145512623684e+00
 9.860168383571939e-01	 1.087091972806987e+00	 1.094623513798719e+01
 9.753818962804095e-01	 1.096644082202443e+00	 1.079426517692499e+01
 9.646574355034749e-01	 1.106089529758441e+00	 1.065669526788298e+01
 9.538450705699616e-01	 1.115427064354920e+00	 1.053016860430095e+01
 9.429464388868155e-01	 1.124655467231050e+00	 1.038963020061394e+01
 9.319631999077452e-01	 1.133773552505310e+00	 1.023347210333749e+01
 9.208970343028015e-01	 1.142780167671028e+00	 1.006561433480849e+01
 9.097496431150143e-01	 1.151674194066955e+00	 9.890252876812767e+00
 8.985227469049623e-01	 1.160454547322482e+00	 9.711839492459200e+00
 8.872180848841679e-01	 1.169120177777141e+00	 9.535060769178880e+00
 8.758374140382283e-01	 1.177670070874088e+00	 9.364816491321326e+00
 9.919444452462445e-01	 1.093627209953537e+00	 1.098918438600312e+01
 9.812455694173584e-01	 1.103236743469325e+00	 1.084629617240189e+01
 9.704566367315433e-01	 1.112738973929948e+00	 1.071985374228941e+01
 9.595792714384708e-01	 1.122132642694029e+00	 1.058666702603690e+01
 9.486151207886331e-01	 1.131416523673954e+00	 1.043678847604405e+01
 9.375658542118255e-01	 1.140589423859076e+00	 1.027372188816048e+01
 9.264331624817299e-01	 1.149650183814241e+00	 1.010127014838901e+01
 9.152187568674813e-01	 1.158597678153182e+00	 9.923515519189230e+00
 9.039243682730975e-01	 1.167430815986412e+00	 9.744799017783574e+00
 8.925517463656650e-01	 1.176148541343259e+00	 9.569698995916887e+00
 8.811026586931948e-01	 1.184749833567700e+00	 9.403009033006139e+00
 9.978720521351953e-01	 1.100162447099921e+00	 1.103758682914347e+01
 9.871092425542144e-01	 1.109829404736077e+00	 1.090582155050295e+01
 9.762558379595202e-01	 1.119388418101372e+00	 1.077933422095965e+01
 9.653134723068858e-01	 1.128838221033109e+00	 1.063605317230497e+01
 9.542838026903514e-01	 1.138177580116886e+00	 1.047863717454243e+01
 9.431685085157979e-01	 1.147405295212931e+00	 1.031041285986127e+01
 9.319692906605388e-01	 1.156520199957599e+00	 1.013500815861138e+01
 9.206878706198163e-01	 1.165521162239601e+00	 9.956332236362757e+00
 9.093259896410884e-01	 1.174407084650574e+00	 9.778554501367914e+00
 8.978854078470058e-01	 1.183176904909634e+00	 9.606082795225888e+00
 8.863679033479948e-01	 1.191829596261578e+00	 9.443540882082821e+00
 1.003799659024063e+00	 1.106697684246055e+00	 1.109111397111538e+01
 9.929729156910099e-01	 1.116422066002613e+00	 1.096655771011751e+01
 9.820550391874551e-01	 1.126037862272623e+00	 1.082938915195473e+01
 9.710476731752724e-01	 1.135543799372068e+00	 1.067784049916665e+01
 9.599524845920520e-01	 1.144938636559753e+00	 1.051468499092285e+01
 9.487711628197597e-01	 1.154221166566777e+00	 1.034301705033240e+01
 9.375054188393421e-01	 1.163390216101001e+00	 1.016623300463645e+01
 9.261569843721493e-01	 1.172444646326112e+00	 9.988010742826027e+00
 9.147276110090794e-01	 1.181383353314868e+00	 9.812288423499457e+00
 9.032190693283471e-01	 1.190205268476166e+00	 9.643242349053072e+00
 8.916331480027944e-01	 1.198909358955622e+00	 9.485264124891710e+00
 1.009727265912864e+00	 1.113232921391856e+00	 1.114842408571226e+01
 9.988365888277767e-01	 1.123014727268842e+00	 1.101586627614125e+01
 9.878542404153958e-01	 1.132687306443609e+00	 1.086953146083778e+01
 9.767818740436959e-01	 1.142249377710809e+00	 1.071156884999209e+01
 9.656211664938161e-01	 1.151699693002457e+00	 1.054446633038598e+01
 9.543738171238096e-01	 1.161037037920515e+00	 1.037103219288151e+01
 9.430415470182546e-01	 1.170260232244349e+00	 1.019437566346267e+01
 9.316260981246093e-01	 1.179368130412618e+00	 1.001788634977048e+01
 9.201292323772127e-01	 1.188359621979193e+00	 9.845212719116915e+00
 9.085527308098439e-01	 1.197233632042755e+00	 9.680239727317641e+00
 8.968983926577605e-01	 1.205989121649732e+00	 9.527065720339021e+00
 1.015654872801615e+00	 1.119768158537242e+00	 1.119573124152588e+01
 1.004700261964548e+00	 1.129607388534679e+00	 1.105288306973575e+01
 9.936534416433908e-01	 1.139336750614238e+00	 1.089930283227003e+01
 9.825160749122203e-01	 1.148954956049240e+00	 1.073680547207638e+01
 9.712898483957254e-01	 1.158460749444902e+00	 1.056754231507507e+01
 9.599764714280448e-01	 1.167852909274048e+00	 1.039398269756672e+01
 9.485776751973897e-01	 1.177130248387545e+00	 1.021889437363916e+01
 9.370952118773251e-01	 1.186291614499017e+00	 1.004532281754484e+01
 9.255308537456318e-01	 1.195335890643450e+00	 9.876569540165745e+00
 9.138863922916524e-01	 1.204261995609301e+00	 9.716169542109306e+00
 9.021636373130609e-01	 1.213068884343809e+00	 9.567868028698832e+00
 1.021582479690333e+00	 1.126303395682128e+00	 1.122825938744310e+01
 1.010563935101354e+00	 1.136200049800035e+00	 1.107712321263797e+01
 9.994526428714882e-01	 1.145986194784418e+00	 1.091827469975760e+01
 9.882502757809116e-01	 1.155660534387266e+00	 1.075314601744072e+01
 9.769585302978622e-01	 1.165221805886992e+00	 1.058350177478036e+01
 9.655791257325650e-01	 1.174668780627278e+00	 1.041142061136951e+01
 9.541138033768621e-01	 1.184000264530488e+00	 1.023927554520287e+01
 9.425643256304270e-01	 1.193215098585211e+00	 1.006971319639812e+01
 9.309324751144803e-01	 1.202312159307539e+00	 9.905632008946212e+00
 9.192200537739287e-01	 1.211290359175705e+00	 9.750159596210430e+00
 9.074288819688618e-01	 1.220148647037751e+00	 9.606629338660033e+00
 1.027510086579036e+00	 1.132838632826431e+00	 1.124546956637701e+01
 1.016427608238230e+00	 1.142792711064822e+00	 1.108813453079377e+01
 1.005251844099737e+00	 1.152635638954059e+00	 1.092604922097256e+01
 9.939844766498350e-01	 1.162366112724792e+00	 1.076021552845193e+01
 9.826272122003075e-01	 1.171982862328630e+00	 1.059196222242551e+01
 9.711817800374670e-01	 1.181484651980107e+00	 1.042292656381135e+01
 9.596499315567855e-01	 1.190870280673080e+00	 1.025503465639479e+01
 9.480334393840437e-01	 1.200138582671100e+00	 1.009048065597937e+01
 9.363340964839015e-01	 1.209288427971361e+00	 9.931704962815884e+00
 9.245537152568286e-01	 1.218318722741866e+00	 9.781371526166900e+00
 9.126941266253301e-01	 1.227228409731459e+00	 9.642344392684951e+00
 8.600416800706600e-01	 1.156430782795849e+00	 9.276265779082767e+00
 8.487952806219835e-01	 1.164710469997046e+00	 9.100962733305373e+00
 8.374777601890396e-01	 1.172874663608447e+00	 8.924281580563587e+00
 8.260908839770124e-01	 1.180922477966298e+00	 8.747147838879728e+00
 8.146364311505910e-01	 1.188853063107831e+00	 8.570508220129224e+00
 8.031161939398316e-01	 1.196665605024608e+00	 8.395316308241295e+00
 7.915319767413330e-01	 1.204359325889236e+00	 8.222518307002108e+00
 7.798855952156404e-01	 1.211933484255399e+00	 8.053038942614830e+00
 7.681788753817906e-01	 1.219387375231171e+00	 7.887767604007108e+00
 7.564136527099106e-01	 1.226720330625627e+00	 7.727544801267149e+00
 7.445917712127673e-01	 1.233931719068790e+00	 7.573149019545280e+00
 8.653069247271273e-01	 1.163510545488063e+00	 9.300212161913793e+00
 8.539916739123324e-01	 1.171840921603290e+00	 9.127373019214044e+00
 8.426048667048471e-01	 1.180055097067682e+00	 8.953771764071984e+00
 8.311482791165866e-01	 1.188152180795367e+00	 8.780150243241463e+00
 8.196237012044317e-01	 1.196131317620025e+00	 8.607266299543108e+00
 8.080329361706170e-01	 1.203991688549784e+00	 8.435879210211498e+00
 7.963777994584046e-01	 1.211732510995316e+00	 8.266735204722023e+00
 7.846601178439622e-01	 1.219353038971101e+00	 8.100553149855866e+00
 7.728817285253647e-01	 1.226852563269796e+00	 7.938010487505359e+00
 7.610444782096362e-01	 1.234230411609747e+00	 7.779729507998184e+00
 7.491502221987406e-01	 1.241485948755668e+00	 7.626264038565514e+00
 8.705721693829281e-01	 1.170590308180842e+00	 9.330145512623680e+00
 8.591880672019779e-01	 1.178971373210090e+00	 9.160528893637448e+00
 8.477319732199229e-01	 1.187235530527447e+00	 8.990352183683516e+00
 8.362056742554064e-01	 1.195381883624928e+00	 8.820238566010726e+00
 8.246109712575002e-01	 1.203409572132666e+00	 8.650824137983410e+00
 8.129496784006186e-01	 1.211317772075356e+00	 8.482742985437119e+00
 8.012236221746847e-01	 1.219105696101742e+00	 8.316612344564364e+00
 7.894346404714880e-01	 1.226772593687101e+00	 8.153017941971509e+00
 7.775845816681398e-01	 1.234317751308680e+00	 7.992499601205266e+00
 7.656753037085618e-01	 1.241740492594097e+00	 7.835537201217566e+00
 7.537086731839142e-01	 1.249040178442763e+00	 7.682537068948371e+00
 8.758374140382283e-01	 1.177670070874088e+00	 9.364816491321324e+00
 8.643844604910956e-01	 1.186101824817347e+00	 9.198998720549326e+00
 8.528590797344487e-01	 1.194415963987641e+00	 9.032445887247420e+00
 8.412630693936601e-01	 1.202611586454881e+00	 8.865726451432772e+00
 8.295982413099912e-01	 1.210687826645653e+00	 8.699420798889374e+00
 8.178664206300330e-01	 1.218643855601222e+00	 8.534105827892953e+00
 8.060694448903716e-01	 1.226478881208410e+00	 8.370339629697334e+00
 7.942091630984167e-01	 1.234192148403294e+00	 8.208646356610380e+00
 7.822874348103162e-01	 1.241782939347714e+00	 8.049501369030708e+00
 7.703061292068878e-01	 1.249250573578565e+00	 7.893316749886759e+00
 7.582671241684876e-01	 1.256594408129957e+00	 7.740427271503224e+00
 8.811026586931948e-01	 1.184749833567700e+00	 9.403009033006136e+00
 8.695808537798625e-01	 1.193232276424960e+00	 9.241387346005141e+00
 8.579861862486091e-01	 1.201596397448166e+00	 9.078514687180803e+00
 8.463204645315366e-01	 1.209841289285125e+00	 8.914967697315126e+00
 8.345855113620964e-01	 1.217966081158883e+00	 8.751336026559370e+00
 8.227831628590555e-01	 1.225969939127280e+00	 8.588206310335501e+00
 8.109152676056628e-01	 1.233852066315215e+00	 8.426146243451857e+00
 7.989836857249468e-01	 1.241611703119573e+00	 8.265688849722208e+00
 7.869902879520926e-01	 1.249248127386788e+00	 8.107317041829560e+00
 7.749369547048136e-01	 1.256760654563038e+00	 7.951448563130117e+00
 7.628255751526610e-01	 1.264148637817135e+00	 7.798421399544864e+00
 8.863679033479948e-01	 1.191829596261578e+00	 9.443540882082825e+00
 8.747772470684528e-01	 1.200362728032830e+00	 9.286336498737548e+00
 8.631132927625864e-01	 1.208776830908922e+00	 9.127059453671990e+00
 8.513778596692244e-01	 1.217070992115560e+00	 8.966356466551126e+00
 8.395727814140084e-01	 1.225244335672256e+00	 8.804890400862590e+00
 8.276999050878825e-01	 1.233296022653427e+00	 8.643323506225599e+00
 8.157610903207556e-01	 1.241225251422054e+00	 8.482300761606455e+00
 8.037582083512785e-01	 1.249031257835833e+00	 8.322433420473537e+00
 7.916931410936698e-01	 1.256713315425795e+00	 8.164282856299572e+00
 7.795677802025399e-01	 1.264270735547404e+00	 8.008344803633952e+00
 7.673840261366348e-01	 1.271702867504179e+00	 7.855034086309557e+00
 8.916331480027944e-01	 1.198909358955622e+00	 9.485264124891707e+00
 8.799736403570438e-01	 1.207493179640855e+00	 9.332525193056341e+00
 8.682403992765638e-01	 1.215957264369807e+00	 9.176620413531978e+00
 8.564352548069125e-01	 1.224300694946086e+00	 9.018327506712675e+00
 8.445600514659207e-01	 1.232522590185671e+00	 8.858445501561244e+00
 8.326166473167093e-01	 1.240622106179561e+00	 8.697777121946038e+00
 8.206069130358490e-01	 1.248598436528824e+00	 8.537111274830696e+00
 8.085327309776097e-01	 1.256450812551967e+00	 8.377205745399984e+00
 7.963959942352468e-01	 1.264178503464626e+00	 8.218770201462979e+00
 7.841986057002668e-01	 1.271780816531551e+00	 8.062449606185814e+00
 7.719424771206084e-01	 1.279257097190972e+00	 7.908808134411045e+00
 8.968983926577605e-01	 1.205989121649732e+00	 9.527065720339017e+00
 8.851700336458100e-01	 1.214623631248936e+00	 9.378670133957542e+00
 8.733675057907243e-01	 1.223137697830722e+00	 9.225777454455274e+00
 8.614926499447891e-01	 1.231530397776602e+00	 9.069356377378156e+00
 8.495473215180260e-01	 1.239800844699027e+00	 8.910404081846535e+00
 8.375333895457321e-01	 1.247948189705582e+00	 8.749927638889535e+00
 8.254527357511400e-01	 1.255971621635420e+00	 8.588925520870278e+00
 8.133072536041404e-01	 1.263870367267871e+00	 8.428369321408502e+00
 8.010988473770236e-01	 1.271643691503171e+00	 8.269185792377245e+00
 7.888294311981927e-01	 1.279290897515368e+00	 8.112239301140049e+00
 7.765009281047821e-01	 1.286811326877398e+00	 7.958314807251227e+00
 9.021636373130609e-01	 1.213068884343809e+00	 9.567868028698827e+00
 8.903664269349282e-01	 1.221754082856973e+00	 9.423526124345933e+00
 8.784946123052503e-01	 1.230318131291566e+00	 9.273150434468807e+00
 8.665500450830431e-01	 1.238760100607008e+00	 9.117959684880859e+00
 8.545345915705167e-01	 1.247079099212222e+00	 8.959210250706048e+00
 8.424501317751466e-01	 1.255274273231384e+00	 8.798176465012226e+00
 8.302985584668269e-01	 1.263344806741740e+00	 8.636131026068371e+00
 8.180817762310687e-01	 1.271289921983438e+00	 8.474325617264252e+00
 8.058017005192001e-01	 1.279108879541323e+00	 8.313971850784547e+00
 7.934602566965188e-01	 1.286800978498739e+00	 8.156222642607002e+00
 7.810593790893557e-01	 1.294365556563339e+00	 8.002154122302690e+00
 9.074288819688618e-01	 1.220148647037751e+00	 9.606629338660039e+00
 8.955628202245742e-01	 1.228884534464867e+00	 9.465886474284297e+00
 8.836217188203263e-01	 1.237498564752240e+00	 9.317399496355101e+00
 8.716074402218631e-01	 1.245989803437203e+00	 9.162695324167043e+00
 8.595218616235862e-01	 1.254357353725156e+00	 9.003349663765585e+00
 8.473668740051490e-01	 1.262600356756868e+00	 8.840966095463424e+00
 8.351443811831075e-01	 1.270717991847680e+00	 8.677155255846078e+00
 8.228562988585950e-01	 1.278709476698562e+00	 8.513514233220500e+00
 8.105045536619754e-01	 1.286574067578973e+00	 8.351606292412551e+00
 7.980910821954449e-01	 1.294311059481554e+00	 8.192941041168863e+00
 7.856178300745293e-01	 1.301919786248680e+00	 8.038955146185597e+00
 9.126941266253301e-01	 1.227228409731459e+00	 9.642344392684947e+00
 9.007592135149235e-01	 1.236014986072517e+00	 9.504583412183475e+00
 8.887488253361341e-01	 1.244678998212643e+00	 9.357225386843011e+00
 8.766648353614378e-01	 1.253219506267087e+00	 9.202162727479697e+00
 8.645091316774273e-01	 1.261635608237728e+00	 9.041349722256040e+00
 8.522836162359341e-01	 1.269926440281931e+00	 8.876780281923567e+00
 8.399902039001794e-01	 1.278091176953135e+00	 8.710465773773285e+00
 8.276308214869176e-01	 1.286129031413138e+00	 8.544413068452529e+00
 8.152074068055497e-01	 1.294039255616013e+00	 8.380602920657839e+00
 8.027219076951706e-01	 1.301821140463702e+00	 8.220968800938993e+00
 7.901762810605031e-01	 1.309474015933302e+00	 8.067376291460835e+00
 7.445917712127673e-01	 1.233931719068790e+00	 7.573149019545280e+00
 7.327150827691792e-01	 1.241020946404336e+00	 7.416632566818741e+00
 7.207854468972287e-01	 1.247987456658922e+00	 7.250870670856598e+00
 7.088047291255960e-01	 1.254830731191595e+00	 7.078278764755933e+00
 6.967747998534317e-01	 1.261550288408174e+00	 6.901261815970810e+00
 6.846975334493393e-01	 1.268145683747823e+00	 6.722148201951387e+00
 6.725748073546437e-01	 1.274616509643952e+00	 6.543160103266334e+00
 6.604085011917672e-01	 1.280962395459682e+00	 6.366386129238147e+00
 6.482004958785397e-01	 1.287183007398215e+00	 6.193756297281799e+00
 6.359526727492348e-01	 1.293278048388430e+00	 6.027019469044770e+00
 6.236669126831258e-01	 1.299247257946061e+00	 5.867723328131374e+00
 7.491502221987406e-01	 1.241485948755668e+00	 7.626264038565514e+00
 7.372008237088502e-01	 1.248618576913754e+00	 7.469808121742693e+00
 7.251981536421693e-01	 1.255627736706952e+00	 7.303394433547482e+00
 7.131440889482986e-01	 1.262512906319155e+00	 7.129517359285302e+00
 7.010405114771265e-01	 1.269273601207829e+00	 6.950830112238193e+00
 6.888893070722950e-01	 1.275909374090512e+00	 6.769905736093485e+00
 6.766923646689793e-01	 1.282419814905460e+00	 6.589205989651338e+00
 6.644515753968044e-01	 1.288804550746734e+00	 6.411052567589366e+00
 6.521688316887340e-01	 1.295063245774013e+00	 6.237600783661848e+00
 6.398460263967248e-01	 1.301195601097489e+00	 6.070815823888730e+00
 6.274850519149480e-01	 1.307201354638196e+00	 5.912451658209593e+00
 7.537086731839142e-01	 1.249040178442763e+00	 7.682537068948371e+00
 7.416865646477211e-01	 1.256216207423393e+00	 7.525920968014228e+00
 7.296108603863108e-01	 1.263268016755224e+00	 7.359160027974117e+00
 7.174834487702058e-01	 1.270195081446992e+00	 7.184552547030485e+00
 7.053062231000307e-01	 1.276996914007808e+00	 7.004925704586096e+00
 6.930810806944683e-01	 1.283673064433576e+00	 6.823023586809989e+00
 6.808099219825439e-01	 1.290223120167401e+00	 6.641471973093817e+00
 6.684946496010884e-01	 1.296646706034282e+00	 6.462748233302221e+00
 6.561371674981981e-01	 1.302943484150369e+00	 6.289153800678527e+00
 6.437393800435145e-01	 1.309113153807163e+00	 6.122789332338922e+00
 6.313031911461059e-01	 1.315155451330999e+00	 5.965532649432142e+00
 7.582671241684876e-01	 1.256594408129957e+00	 7.740427271503224e+00
 7.461723055859923e-01	 1.263813837933131e+00	 7.583558239376060e+00
 7.340235671298537e-01	 1.270908296803611e+00	 7.416739520213481e+00
 7.218228085915153e-01	 1.277877256574971e+00	 7.242002392540248e+00
 7.095719347223410e-01	 1.284720226807967e+00	 7.062182695073645e+00
 6.972728543160539e-01	 1.291436754776867e+00	 6.880123613064645e+00
 6.849274792955314e-01	 1.298026425429625e+00	 6.698541066648403e+00
 6.725377238048077e-01	 1.304488861322167e+00	 6.519992363506665e+00
 6.601055033071146e-01	 1.310823722527118e+00	 6.346847545000946e+00
 6.476327336897780e-01	 1.317030706517287e+00	 6.181263542008061e+00
 6.351213303767658e-01	 1.323109548024305e+00	 6.025161236057778e+00
 7.628255751526610e-01	 1.264148637817135e+00	 7.798421399544864e+00
 7.506580465238640e-01	 1.271411468442847e+00	 7.641336067834569e+00
 7.384362738729970e-01	 1.278548576851983e+00	 7.474724078547084e+00
 7.261621684124268e-01	 1.285559431702957e+00	 7.300500252396743e+00
 7.138376463442561e-01	 1.292443539608166e+00	 7.121247472428362e+00
 7.014646279372486e-01	 1.299200445120239e+00	 6.939837733672010e+00
 6.890450366081335e-01	 1.305829730691974e+00	 6.759004867942319e+00
 6.765807980081501e-01	 1.312331016610229e+00	 6.581312028417207e+00
 6.640738391156659e-01	 1.318703960904098e+00	 6.409121990195312e+00
 6.515260873356915e-01	 1.324948259227696e+00	 6.244570387309517e+00
 6.389394696070935e-01	 1.331063644717947e+00	 6.089541985213538e+00
 7.673840261366348e-01	 1.271702867504179e+00	 7.855034086309557e+00
 7.551437874615354e-01	 1.279009098952417e+00	 7.697867750882846e+00
 7.428489806159407e-01	 1.286188856900212e+00	 7.531742983417818e+00
 7.305015282331393e-01	 1.293241606830815e+00	 7.358696489719897e+00
 7.181033579659735e-01	 1.300166852408261e+00	 7.180780376825704e+00
 7.056564015582472e-01	 1.306964135463541e+00	 7.000809521283277e+00
 6.931625939205430e-01	 1.313633035954295e+00	 6.821465062428360e+00
 6.806238722113045e-01	 1.320173171898310e+00	 6.645243525043877e+00
 6.680421749240347e-01	 1.326584199281146e+00	 6.474426153232573e+00
 6.554194409814297e-01	 1.332865811938223e+00	 6.311051312238067e+00
 6.427576088372554e-01	 1.339017741411759e+00	 6.156890060581560e+00
 7.719424771206084e-01	 1.279257097190972e+00	 7.908808134411045e+00
 7.596295283992071e-01	 1.286606729461719e+00	 7.751791052620362e+00
 7.472616873588845e-01	 1.293829136948169e+00	 7.586564877081273e+00
 7.348408880538514e-01	 1.300923781958409e+00	 7.415260184340304e+00
 7.223690695876908e-01	 1.307890165208112e+00	 7.239457359866616e+00
 7.098481751792464e-01	 1.314727825806627e+00	 7.061695791864411e+00
 6.972801512329527e-01	 1.321436341216434e+00	 6.884534923149015e+00
 6.846669464144590e-01	 1.328015327186250e+00	 6.710333769131820e+00
 6.720105107324037e-01	 1.334464437658099e+00	 6.541219361588540e+00
 6.593127946271679e-01	 1.340783364648703e+00	 6.379058396735064e+00
 6.465757480674172e-01	 1.346971838105572e+00	 6.225432193232576e+00
 7.765009281047821e-01	 1.286811326877398e+00	 7.958314807251227e+00
 7.641152693370783e-01	 1.294204359970631e+00	 7.801768560192430e+00
 7.516743941020281e-01	 1.301469416995727e+00	 7.637929262803637e+00
 7.391802478747633e-01	 1.308605957085606e+00	 7.468880838813439e+00
 7.266347812096058e-01	 1.315613478007577e+00	 7.295971639942546e+00
 7.140399488004410e-01	 1.322491516149347e+00	 7.121168189839732e+00
 7.013977085455552e-01	 1.329239646478238e+00	 6.946840807148644e+00
 6.887100206178017e-01	 1.335857482473890e+00	 6.775141685389643e+00
 6.759788465409552e-01	 1.342344676034792e+00	 6.607972520911800e+00
 6.632061482730812e-01	 1.348700917358970e+00	 6.446955486479567e+00
 6.503938872977449e-01	 1.354925934799222e+00	 6.293407659308654e+00
 7.810593790893557e-01	 1.294365556563339e+00	 8.002154122302690e+00
 7.686010102753500e-01	 1.301801990479030e+00	 7.846488039358610e+00
 7.560871008455708e-01	 1.309109697042756e+00	 7.684581504449584e+00
 7.435196076960728e-01	 1.316288132212268e+00	 7.518306542647951e+00
 7.309004928319163e-01	 1.323336790806513e+00	 7.349035353171320e+00
 7.182317224220268e-01	 1.330255206491554e+00	 7.177914769081710e+00
 7.055152658585422e-01	 1.337042951739551e+00	 7.007023648670592e+00
 6.927530948215209e-01	 1.343699637761070e+00	 6.838239596082957e+00
 6.799471823498716e-01	 1.350224914411064e+00	 6.673169383228492e+00
 6.670995019193453e-01	 1.356618470068859e+00	 6.513119325964957e+00
 6.542120265284048e-01	 1.362880031492542e+00	 6.359069264269593e+00
 7.856178300745293e-01	 1.301919786248680e+00	 8.038955146185597e+00
 7.730867512142211e-01	 1.309399620986794e+00	 7.884662789216283e+00
 7.604998075897130e-01	 1.316749977089128e+00	 7.725289698729416e+00
 7.478589675179800e-01	 1.323970307338262e+00	 7.562425282232621e+00
 7.351662044548206e-01	 1.331060103604779e+00	 7.397381200079371e+00
 7.224234960442003e-01	 1.338018896833099e+00	 7.230641569901435e+00
 7.096328231721077e-01	 1.344846257000220e+00	 7.063740449259133e+00
 6.967961690258050e-01	 1.351541793047631e+00	 6.898214608041348e+00
 6.839155181593362e-01	 1.358105152786750e+00	 6.735307815656716e+00
 6.709928555661349e-01	 1.364536022778204e+00	 6.575940694723208e+00
 6.580301657595633e-01	 1.370834128185364e+00	 6.420684333433058e+00
 7.901762810605031e-01	 1.309474015933302e+00	 8.067376291460835e+00
 7.775724921538926e-01	 1.316997251493802e+00	 7.915031996116116e+00
 7.649125143346542e-01	 1.324390257134714e+00	 7.758845065725689e+00
 7.521983273406831e-01	 1.331652482463453e+00	 7.600062403869545e+00
 7.394319160785158e-01	 1.338783416402234e+00	 7.439764088192132e+00
 7.266152696671564e-01	 1.345782587173835e+00	 7.278074192199517e+00
 7.137503804864437e-01	 1.352649562260090e+00	 7.115665764887584e+00
 7.008392432308426e-01	 1.359383948333415e+00	 6.953669998148818e+00
 6.878838539695308e-01	 1.365985391161689e+00	 6.792901069609421e+00
 6.748862092136254e-01	 1.372453575486838e+00	 6.633825546563306e+00
 6.618483049913858e-01	 1.378788224877522e+00	 6.476535708552309e+00
 6.236669126831258e-01	 1.299247257946061e+00	 5.867723328131374e+00
 6.113429973410696e-01	 1.305091394526528e+00	 5.712619377146133e+00
 5.989848900772535e-01	 1.310809243923031e+00	 5.558405153002710e+00
 5.865944656098293e-01	 1.316400653358761e+00	 5.406117597902282e+00
 5.741735948273184e-01	 1.321865505875329e+00	 5.256534529211545e+00
 5.617241439652630e-01	 1.327203720078967e+00	 5.110168119213991e+00
 5.492479737946393e-01	 1.332415249865001e+00	 4.967261048875374e+00
 5.367469388226653e-01	 1.337500084121130e+00	 4.827785295317280e+00
 5.242228865066125e-01	 1.342458246410058e+00	 4.691443496714090e+00
 5.116776564812040e-01	 1.347289794632056e+00	 4.557672823097668e+00
 4.991130798001508e-01	 1.351994820668021e+00	 4.425651267144843e+00
 6.274850519149480e-01	 1.307201354638196e+00	 5.912451658209593e+00
 6.150856885675712e-01	 1.313081269494886e+00	 5.759317321658582e+00
 6.026519239727491e-01	 1.318834124027283e+00	 5.607938547985414e+00
 5.901856443258018e-01	 1.324459764523265e+00	 5.459196035465032e+00
 5.776887319689732e-01	 1.329958073308410e+00	 5.313696394993831e+00
 5.651630645630416e-01	 1.335328968490650e+00	 5.171765655937043e+00
 5.526105142707654e-01	 1.340572403683049e+00	 5.033445564962793e+00
 5.400329469527970e-01	 1.345688367705273e+00	 4.898492635446535e+00
 5.274322213766837e-01	 1.350676884264278e+00	 4.766379888400294e+00
 5.148101884395320e-01	 1.355538011614798e+00	 4.636301210045075e+00
 5.021686904049041e-01	 1.360271842200233e+00	 4.507178236154640e+00
 6.313031911461059e-01	 1.315155451330999e+00	 5.965532649432135e+00
 6.188283797934524e-01	 1.321071144463957e+00	 5.814159920953878e+00
 6.063189578676741e-01	 1.326859004132288e+00	 5.665029959666916e+00
 5.937768230412560e-01	 1.332518875688554e+00	 5.518926767069392e+00
 5.812038691101622e-01	 1.338050640742303e+00	 5.376345461600287e+00
 5.686019851604048e-01	 1.343454216903165e+00	 5.237485709177463e+00
 5.559730547465216e-01	 1.348729557501946e+00	 5.102248070379856e+00
 5.433189550825979e-01	 1.353876651290278e+00	 4.970233219837253e+00
 5.306415562464522e-01	 1.358895522119367e+00	 4.840743976084147e+00
 5.179427203975739e-01	 1.363786228598419e+00	 4.712790063668666e+00
 5.052243010093732e-01	 1.368548863733329e+00	 4.585095513708993e+00
 6.351213303767658e-01	 1.323109548024305e+00	 6.025161236057778e+00
 6.225710710188684e-01	 1.329061019433578e+00	 5.875217392332338e+00
 6.099859917621709e-01	 1.334883884237883e+00	 5.727650892264483e+00
 5.973680017563212e-01	 1.340577986854469e+00	 5.583207496863823e+00
 5.847190062510004e-01	 1.346143208176854e+00	 5.442329422419053e+00
 5.720409057574538e-01	 1.351579465316364e+00	 5.305148595016107e+00
 5.593355952219958e-01	 1.356886711321549e+00	 5.171482950165494e+00
 5.466049632121427e-01	 1.362064934876010e+00	 5.040835731152862e+00
 5.338508911159829e-01	 1.367114159975201e+00	 4.912397721738523e+00
 5.210752523553858e-01	 1.372034445582796e+00	 4.785052331702358e+00
 5.082799116136081e-01	 1.376825885267193e+00	 4.657383437510221e+00
 6.389394696070935e-01	 1.331063644717947e+00	 6.089541985213538e+00
 6.263137622439744e-01	 1.337050894403583e+00	 5.940570905938280e+00
 6.136530256563820e-01	 1.342908764343907e+00	 5.793784675918900e+00
 6.009591804711257e-01	 1.348637098020852e+00	 5.649948213403748e+00
 5.882341433916033e-01	 1.354235775611909e+00	 5.509508331117164e+00
 5.754798263542896e-01	 1.359704713730101e+00	 5.372586714721128e+00
 5.626981356972761e-01	 1.365043865141720e+00	 5.238976079763141e+00
 5.498909713415072e-01	 1.370253218462333e+00	 5.108139458858762e+00
 5.370602259853408e-01	 1.375332797831649e+00	 4.979212552164656e+00
 5.242077843130235e-01	 1.380282662567807e+00	 4.851009056371863e+00
 5.113355222176582e-01	 1.385102906801707e+00	 4.722028870584133e+00
 6.427576088372554e-01	 1.339017741411759e+00	 6.156890060581560e+00
 6.300564534689254e-01	 1.345040769373805e+00	 6.008313390904652e+00
 6.173200595504501e-01	 1.350933644450194e+00	 5.861427132558596e+00
 6.045503591857989e-01	 1.356696209187545e+00	 5.717071731740093e+00
 5.917492805320858e-01	 1.362328343047314e+00	 5.575755035698789e+00
 5.789187469510138e-01	 1.367829962144227e+00	 5.437644895739950e+00
 5.660606761724502e-01	 1.373201018962316e+00	 5.302565087122744e+00
 5.531769794707670e-01	 1.378441502049116e+00	 5.169994495820803e+00
 5.402695608545897e-01	 1.383551435688585e+00	 5.039069502672957e+00
 5.273403162705431e-01	 1.388530879553331e+00	 4.908589476925247e+00
 5.143911328215734e-01	 1.393379928336755e+00	 4.777025273621772e+00
 6.465757480674172e-01	 1.346971838105572e+00	 6.225432193232574e+00
 6.337991446938762e-01	 1.353030644344081e+00	 6.076550352189802e+00
 6.209870934445172e-01	 1.358958524556584e+00	 5.928587255431663e+00
 6.081415379004701e-01	 1.364755320354388e+00	 5.782514251615609e+00
 5.952644176725624e-01	 1.370420910482918e+00	 5.638955630591244e+00
 5.823576675477273e-01	 1.375955210558597e+00	 5.498180752154592e+00
 5.694232166476056e-01	 1.381358172783197e+00	 5.360099635256177e+00
 5.564629875999976e-01	 1.386629785636222e+00	 5.224261955921351e+00
 5.434788957237950e-01	 1.391770073545879e+00	 5.089859381946578e+00
 5.304728482280007e-01	 1.396779096539246e+00	 4.955731153158299e+00
 5.174467434254035e-01	 1.401656949872221e+00	 4.820372797785016e+00
 6.503938872977449e-01	 1.354925934799222e+00	 6.293407659308658e+00
 6.375418359189817e-01	 1.361020519314243e+00	 6.143400697665820e+00
 6.246541273387267e-01	 1.366983404662914e+00	 5.993287901746443e+00
 6.117327166152677e-01	 1.372814431521223e+00	 5.844225931099844e+00
 5.987795548131486e-01	 1.378513477918565e+00	 5.697009926013452e+00
 5.857965881445312e-01	 1.384080458973060e+00	 5.552065063806548e+00
 5.727857571228303e-01	 1.389515326604221e+00	 5.409441724404084e+00
 5.597489957292741e-01	 1.394818069223517e+00	 5.268814211824930e+00
 5.466882305930215e-01	 1.399988711403406e+00	 5.129482957220288e+00
 5.336053801854517e-01	 1.405027313525431e+00	 4.990380109063077e+00
 5.205023540291984e-01	 1.409933971407990e+00	 4.850078397135159e+00
 6.542120265284048e-01	 1.362880031492542e+00	 6.359069264269584e+00
 6.412845271443978e-01	 1.369010394284127e+00	 6.206997575036153e+00
 6.283211612332199e-01	 1.375008284769019e+00	 6.053566497877595e+00
 6.153238953303212e-01	 1.380873542687891e+00	 5.900171475032908e+00
 6.022946919539597e-01	 1.386606045354103e+00	 5.747831933922207e+00
 5.892355087415264e-01	 1.392205707387471e+00	 5.597182173316599e+00
 5.761482975982123e-01	 1.397672480425248e+00	 5.448466013008953e+00
 5.630350038586721e-01	 1.403006352810868e+00	 5.301535152069691e+00
 5.498975654623333e-01	 1.408207349261036e+00	 5.155851158938117e+00
 5.367379121429527e-01	 1.413275530511763e+00	 5.010490995786075e+00
 5.235579646330074e-01	 1.418210992943944e+00	 4.864155959882225e+00
 6.580301657595633e-01	 1.370834128185364e+00	 6.420684333433053e+00
 6.450272183702787e-01	 1.377000269253567e+00	 6.265489218178496e+00
 6.319881951281403e-01	 1.383033164874738e+00	 6.107475756625544e+00
 6.189150740457597e-01	 1.388932653854234e+00	 5.948330737670567e+00
 6.058098290951102e-01	 1.394698612789377e+00	 5.789350369856190e+00
 5.926744293388148e-01	 1.400330955801682e+00	 5.631430400277540e+00
 5.795108380738389e-01	 1.405829634246136e+00	 5.475060156729086e+00
 5.663210119882670e-01	 1.411194636398138e+00	 5.320320456696253e+00
 5.531069003317955e-01	 1.416425987118642e+00	 5.166885304103812e+00
 5.398704441005593e-01	 1.421523747498121e+00	 5.014027273101298e+00
 5.266135752368805e-01	 1.426488014479967e+00	 4.860626457689810e+00
 6.618483049913858e-01	 1.378788224877522e+00	 6.476535708552296e+00
 6.487699095967796e-01	 1.384990144222397e+00	 6.317039802527804e+00
 6.356552290236301e-01	 1.391058044979909e+00	 6.153084406039035e+00
 6.225062527617115e-01	 1.396991765020092e+00	 5.986699338954983e+00
 6.093249662367155e-01	 1.402791180224235e+00	 5.819509170034685e+00
 5.961133499364965e-01	 1.408456204215545e+00	 5.652722471920005e+00
 5.828733785497980e-01	 1.413986788066745e+00	 5.487125164762455e+00
 5.696070201181347e-01	 1.419382919985196e+00	 5.323077890665035e+00
 5.563162352014727e-01	 1.424644624976096e+00	 5.160517337559681e+00
 5.430029760583274e-01	 1.429771964484383e+00	 4.998961408653136e+00
 5.296691858408672e-01	 1.434765036015944e+00	 4.837518112304250e+00
 4.991130798001508e-01	 1.351994820668021e+00	 4.425651267144843e+00
 4.865331182043390e-01	 1.356572682302293e+00	 4.295231358872732e+00
 4.739374478213425e-01	 1.361024347901707e+00	 4.166774683969873e+00
 4.613278680963599e-01	 1.365350007944089e+00	 4.039936791295775e+00
 4.487061670436159e-01	 1.369549885257692e+00	 3.914165806411274e+00
 4.360741205666026e-01	 1.373624234577360e+00	 3.788717386716524e+00
 4.234334917951887e-01	 1.377573342084982e+00	 3.662671356277125e+00
 4.107860304399624e-01	 1.381397524934933e+00	 3.534949864109998e+00
 3.981334721641456e-01	 1.385097130765164e+00	 3.404336903679991e+00
 3.854775379733910e-01	 1.388672537194630e+00	 3.269499026525398e+00
 3.728199336237416e-01	 1.392124151307731e+00	 3.129007079229900e+00
 5.021686904049041e-01	 1.360271842200233e+00	 4.507178236154640e+00
 4.895117132677779e-01	 1.364877729873223e+00	 4.378806808532278e+00
 4.768389311729586e-01	 1.369356648929030e+00	 4.251673888446403e+00
 4.641521545819990e-01	 1.373708791011600e+00	 4.125431820040297e+00
 4.514531824554971e-01	 1.377934380313367e+00	 3.999513591798951e+00
 4.387438015691752e-01	 1.382033673128686e+00	 3.873148475679007e+00
 4.260257858469319e-01	 1.386006957391479e+00	 3.745379428581808e+00
 4.133008957112301e-01	 1.389854552197771e+00	 3.615082093434209e+00
 4.005708774511679e-01	 1.393576807313784e+00	 3.480985230864030e+00
 3.878374626085394e-01	 1.397174102670292e+00	 3.341692407375503e+00
 3.751023673821690e-01	 1.400646847843902e+00	 3.195704762079438e+00
 5.052243010093732e-01	 1.368548863733329e+00	 4.585095513708993e+00
 4.924903083309190e-01	 1.373182777445042e+00	 4.457464932758255e+00
 4.797404145242506e-01	 1.377688949957241e+00	 4.330564146409005e+00
 4.669764410672796e-01	 1.382067574079997e+00	 4.204083391503374e+00
 4.542001978669820e-01	 1.386318875369919e+00	 4.077481444246633e+00
 4.414134825713155e-01	 1.390443111680873e+00	 3.950001901006403e+00
 4.286180798982113e-01	 1.394440572698812e+00	 3.820691307860065e+00
 4.158157609820129e-01	 1.398311579461406e+00	 3.688418969540314e+00
 4.030082827376984e-01	 1.402056483863154e+00	 3.551898261855967e+00
 3.901973872432076e-01	 1.405675668146641e+00	 3.409709266359506e+00
 3.773848011401508e-01	 1.409169544380683e+00	 3.260322541980382e+00
 5.082799116136081e-01	 1.376825885267193e+00	 4.657383437510221e+00
 4.954689033938086e-01	 1.381487825017637e+00	 4.529271152990070e+00
 4.826418978752635e-01	 1.386021250986234e+00	 4.401615139376620e+00
 4.698007275522475e-01	 1.390426357149176e+00	 4.274183531943844e+00
 4.569472132781189e-01	 1.394703370427249e+00	 4.146500700699995e+00
 4.440831635730731e-01	 1.398852550233825e+00	 4.017864132056474e+00
 4.312103739490798e-01	 1.402874188006889e+00	 3.887363249485229e+00
 4.183306262523653e-01	 1.406768606725761e+00	 3.753899997070781e+00
 4.054456880237921e-01	 1.410536160413200e+00	 3.616211002988546e+00
 3.925573118774490e-01	 1.414177233623615e+00	 3.472891134401872e+00
 3.796672348977365e-01	 1.417692240918024e+00	 3.322418250992751e+00
 5.113355222176582e-01	 1.385102906801707e+00	 4.722028870584133e+00
 4.984474984564929e-01	 1.389792872590896e+00	 4.592295614425259e+00
 4.855433812260426e-01	 1.394353552015900e+00	 4.462999199445315e+00
 4.726250140369492e-01	 1.398785140219034e+00	 4.334024594669266e+00
 4.596942286889552e-01	 1.403087865485256e+00	 4.205000472155345e+00
 4.467528445744989e-01	 1.407261988787448e+00	 4.075316650256747e+00
 4.338026679995901e-01	 1.411307803315623e+00	 3.944143570023575e+00
 4.208454915223415e-01	 1.415225633990746e+00	 3.810453621771186e+00
 4.078830933095035e-01	 1.419015836963849e+00	 3.673044131673016e+00
 3.949172365113172e-01	 1.422678799101151e+00	 3.530561812414833e+00
 3.819496686549754e-01	 1.426214937455878e+00	 3.381528477482372e+00
 5.143911328215734e-01	 1.393379928336755e+00	 4.777025273621772e+00
 5.014260935190180e-01	 1.398097920164706e+00	 4.644613240175101e+00
 4.884448645766332e-01	 1.402685853046131e+00	 4.512891358434930e+00
 4.754493005214303e-01	 1.407143923289465e+00	 4.381899316717730e+00
 4.624412440995391e-01	 1.411472360543840e+00	 4.251407719783190e+00
 4.494225255756428e-01	 1.415671427341645e+00	 4.120936055929254e+00
 4.363949620497943e-01	 1.419741418624923e+00	 3.989772795361257e+00
 4.233603567919959e-01	 1.423682661256284e+00	 3.856997429863687e+00
 4.103204985948876e-01	 1.427495513515027e+00	 3.721504256293241e+00
 3.972771611448651e-01	 1.431180364579188e+00	 3.582027700325242e+00
 3.842321024119175e-01	 1.434737633994194e+00	 3.437168972199809e+00
 5.174467434254035e-01	 1.401656949872221e+00	 4.820372797785008e+00
 5.044046885814306e-01	 1.406402967738958e+00	 4.684303804988879e+00
 4.913463479270809e-01	 1.411018154076820e+00	 4.549469415300240e+00
 4.782735870057369e-01	 1.415502706360367e+00	 4.416100892113598e+00
 4.651882595099187e-01	 1.419856855602901e+00	 4.284147345572985e+00
 4.520922065765555e-01	 1.424080865896321e+00	 4.153294187237974e+00
 4.389872560997457e-01	 1.428175033934699e+00	 4.022983818245613e+00
 4.258752220613828e-01	 1.432139688522289e+00	 3.892438353829259e+00
 4.127579038799990e-01	 1.435975190066661e+00	 3.760684179237928e+00
 3.996370857781466e-01	 1.439681930057661e+00	 3.626578125708042e+00
 3.865145361686117e-01	 1.443260330532925e+00	 3.488835050228249e+00
 5.205023540291984e-01	 1.409933971407990e+00	 4.850078397135158e+00
 5.073832836437766e-01	 1.414708015313537e+00	 4.709452027743802e+00
 4.942478312774308e-01	 1.419350455107859e+00	 4.570914021055510e+00
 4.810978734899151e-01	 1.423861489431633e+00	 4.434923061017628e+00
 4.679352749201415e-01	 1.428241350662339e+00	 4.301642296895920e+00
 4.547618875772868e-01	 1.432490304451380e+00	 4.170958250762967e+00
 4.415795501494966e-01	 1.436608649244861e+00	 4.042502064849849e+00
 4.283900873305568e-01	 1.440596715788680e+00	 3.915672884332233e+00
 4.151953091648925e-01	 1.444454866618676e+00	 3.789663162932303e+00
 4.019970104112149e-01	 1.448183495536511e+00	 3.663485672050113e+00
 3.887969699251081e-01	 1.451783027072022e+00	 3.536001988965017e+00
 5.235579646330074e-01	 1.418210992943944e+00	 4.864155959882225e+00
 5.103618787061026e-01	 1.423013062888333e+00	 4.718147681932486e+00
 4.971493146277278e-01	 1.427682756139139e+00	 4.575408780497130e+00
 4.839221599740112e-01	 1.432220272503161e+00	 4.436660214114381e+00
 4.706822903302555e-01	 1.436625845722054e+00	 4.302313684424088e+00
 4.574315685778877e-01	 1.440899743006728e+00	 4.172490963222391e+00
 4.441718441991001e-01	 1.445042264555320e+00	 4.047045669993932e+00
 4.309049525995721e-01	 1.449053743055374e+00	 3.925587288037906e+00
 4.176327144496232e-01	 1.452934543170999e+00	 3.807507198751171e+00
 4.043569350441231e-01	 1.456685061015672e+00	 3.692006506653533e+00
 3.910794036814558e-01	 1.460305723611435e+00	 3.578125422306210e+00
 5.266135752368805e-01	 1.426488014479967e+00	 4.860626457689810e+00
 5.133404737684552e-01	 1.431318110463235e+00	 4.708485723414995e+00
 5.000507979780178e-01	 1.436015057170554e+00	 4.561140370041182e+00
 4.867464464580708e-01	 1.440579055574847e+00	 4.419607511627151e+00
 4.734293057403088e-01	 1.445010340781943e+00	 4.284580912856497e+00
 4.601012495784080e-01	 1.449309181562269e+00	 4.156450703894538e+00
 4.467641382486084e-01	 1.453475879865985e+00	 4.035325660671040e+00
 4.334198178684830e-01	 1.457510770322289e+00	 3.921057831083903e+00
 4.200701197342454e-01	 1.461414219723556e+00	 3.813269278697344e+00
 4.067168596769248e-01	 1.465186626495083e+00	 3.711380708199830e+00
 3.933618374377046e-01	 1.468828420151117e+00	 3.614641731183863e+00
 5.296691858408672e-01	 1.434765036015944e+00	 4.837518112304251e+00
 5.163190688308803e-01	 1.439623158038130e+00	 4.678566434739503e+00
 5.029522813283460e-01	 1.444347358201994e+00	 4.526298671023323e+00
 4.895707329421400e-01	 1.448937838646585e+00	 4.382061016360961e+00
 4.761763211503492e-01	 1.453394835841910e+00	 4.246861823937541e+00
 4.627709305788981e-01	 1.457718620117905e+00	 4.121391677300972e+00
 4.493564322980741e-01	 1.461909495176767e+00	 4.006046147542022e+00
 4.359346831373438e-01	 1.465967797589339e+00	 3.900951007976844e+00
 4.225075250188142e-01	 1.469893896276274e+00	 3.805989669733200e+00
 4.090767843096734e-01	 1.473688191974680e+00	 3.720832593983487e+00
 3.956442711939038e-01	 1.477351116691019e+00	 3.644968430605606e+00
 3.728199336237416e-01	 1.392124151307731e+00	 3.129007079229900e+00
 3.601623492207781e-01	 1.395452409428825e+00	 2.990277736160106e+00
 3.475064591668398e-01	 1.398657777487031e+00	 2.861029567783071e+00
 3.348539210785312e-01	 1.401740749553137e+00	 2.739672021539027e+00
 3.222063750930237e-01	 1.404701846974463e+00	 2.624808105826751e+00
 3.095654433703703e-01	 1.407541617803216e+00	 2.515268776778466e+00
 2.969327296151564e-01	 1.410260636216053e+00	 2.410118435440051e+00
 2.843098186175781e-01	 1.412859501925538e+00	 2.308658098226965e+00
 2.716982758140161e-01	 1.415338839584173e+00	 2.210426364394896e+00
 2.590996468671465e-01	 1.417699298181683e+00	 2.115198309839735e+00
 2.465154572656048e-01	 1.419941550436234e+00	 2.022982441113284e+00
 3.751023673821690e-01	 1.400646847843902e+00	 3.195704762079438e+00
 3.623672922246058e-01	 1.403995481830190e+00	 3.050520065974348e+00
 3.496339217890197e-01	 1.407220473410729e+00	 2.914419605674536e+00
 3.369039238400812e-01	 1.410322319681046e+00	 2.785966346128848e+00
 3.241789485560170e-01	 1.413301545180189e+00	 2.663857813937697e+00
 3.114606280278794e-01	 1.416158701315581e+00	 2.547037669822050e+00
 2.987505757782659e-01	 1.418894365779036e+00	 2.434700623978411e+00
 2.860503862995896e-01	 1.421509141954604e+00	 2.326294943986694e+00
 2.733616346119624e-01	 1.424003658318955e+00	 2.221522685214267e+00
 2.606858758407357e-01	 1.426378567834983e+00	 2.120337779351872e+00
 2.480246448137129e-01	 1.428634547339286e+00	 2.022942121353051e+00
 3.773848011401508e-01	 1.409169544380683e+00	 3.260322541980382e+00
 3.645722352280478e-01	 1.412538554232072e+00	 3.111362314531610e+00
 3.517613844108948e-01	 1.415783169334836e+00	 2.971523404313396e+00
 3.389539266014226e-01	 1.418903889809247e+00	 2.839494710267201e+00
 3.261515220189089e-01	 1.421901243386087e+00	 2.713986798475831e+00
 3.133558126853977e-01	 1.424775784828000e+00	 2.593974877730360e+00
 3.005684219414941e-01	 1.427528095341957e+00	 2.478703219764013e+00
 2.877909539818225e-01	 1.430158781983499e+00	 2.367687086998364e+00
 2.750249934102211e-01	 1.432668477053471e+00	 2.260712304029926e+00
 2.622721048147107e-01	 1.435057837487939e+00	 2.157832614895138e+00
 2.495338323622575e-01	 1.437327544241933e+00	 2.059364972888767e+00
 3.796672348977365e-01	 1.417692240918024e+00	 3.322418250992751e+00
 3.667771782311469e-01	 1.421081626634435e+00	 3.172583233657538e+00
 3.538888470324986e-01	 1.424345865259336e+00	 3.032311167367341e+00
 3.410039293625786e-01	 1.427485459937747e+00	 2.900389138954718e+00
 3.281240954817088e-01	 1.430500941592184e+00	 2.775460800583220e+00
 3.152509973429217e-01	 1.433392868340518e+00	 2.656453300584113e+00
 3.023862681048236e-01	 1.436161824904879e+00	 2.542581293349889e+00
 2.895315216642460e-01	 1.438808422012302e+00	 2.433348367349009e+00
 2.766883522087478e-01	 1.441333295787813e+00	 2.328546033861899e+00
 2.638583337890147e-01	 1.443737107140646e+00	 2.228250424971053e+00
 2.510430199111707e-01	 1.446020541144276e+00	 2.132816854203513e+00
 3.819496686549754e-01	 1.426214937455878e+00	 3.381528477482372e+00
 3.689821212339457e-01	 1.429624699037249e+00	 3.233934100351325e+00
 3.560163096538653e-01	 1.432908561184218e+00	 3.096724851232706e+00
 3.430539321235716e-01	 1.436067030066553e+00	 2.968753092946016e+00
 3.300966689444273e-01	 1.439100639798507e+00	 2.848517101799600e+00
 3.171461820004478e-01	 1.442009951853179e+00	 2.734817871582893e+00
 3.042041142682372e-01	 1.444795554467864e+00	 2.626762795986220e+00
 2.912720893468286e-01	 1.447458062041092e+00	 2.523766675371960e+00
 2.783517110074977e-01	 1.449998114522070e+00	 2.425550196949438e+00
 2.654445627635908e-01	 1.452416376793205e+00	 2.332136043503556e+00
 2.525522074603853e-01	 1.454713538046414e+00	 2.243842790786064e+00
 3.842321024119175e-01	 1.434737633994194e+00	 3.437168972199809e+00
 3.711870642364873e-01	 1.438167771440482e+00	 3.295136307450687e+00
 3.581437722750282e-01	 1.441471257109468e+00	 3.164678295050826e+00
 3.451039348844241e-01	 1.444648600195670e+00	 3.044661679787212e+00
 3.320692424070742e-01	 1.447700338005082e+00	 2.933364798889682e+00
 3.190413666579729e-01	 1.450627035366032e+00	 2.829385879517033e+00
 3.060219604317175e-01	 1.453429284030977e+00	 2.731648914684178e+00
 2.930126570295394e-01	 1.456107702069947e+00	 2.639404325337067e+00
 2.800150698064265e-01	 1.458662933256330e+00	 2.552227004198866e+00
 2.670307917383822e-01	 1.461095646445711e+00	 2.470011903256196e+00
 2.540613950098334e-01	 1.463406534948448e+00	 2.392967331832469e+00
 3.865145361686117e-01	 1.443260330532925e+00	 3.488835050228249e+00
 3.733920072388143e-01	 1.446710843844101e+00	 3.355858151724959e+00
 3.602712348960211e-01	 1.450033953035072e+00	 3.236057340214161e+00
 3.471539376451588e-01	 1.453230170325105e+00	 3.128161852077304e+00
 3.340418158696596e-01	 1.456300036211934e+00	 3.030185064199481e+00
 3.209365513154934e-01	 1.459244118879119e+00	 2.940447275606730e+00
 3.078398065952469e-01	 1.462063013594280e+00	 2.857614410974844e+00
 2.947532247123467e-01	 1.464757342098945e+00	 2.780698412626329e+00
 2.816784286054896e-01	 1.467327751990686e+00	 2.709054918319755e+00
 2.686170207133323e-01	 1.469774916098262e+00	 2.642378393535386e+00
 2.555705825594477e-01	 1.472099531850478e+00	 2.580694892167129e+00
 3.887969699251081e-01	 1.451783027072022e+00	 3.536001988965017e+00
 3.755969502409698e-01	 1.455253916248075e+00	 3.415762469485355e+00
 3.623986975168776e-01	 1.458596648961016e+00	 3.310719939798666e+00
 3.492039404057984e-01	 1.461811740454865e+00	 3.219272593483864e+00
 3.360143893321938e-01	 1.464899734419093e+00	 3.139131392139999e+00
 3.228317359730058e-01	 1.467861202392487e+00	 3.068264965351867e+00
 3.096576527588085e-01	 1.470696743157837e+00	 3.005007944041377e+00
 2.964937923952194e-01	 1.473406982128165e+00	 2.948061155075904e+00
 2.833417874046426e-01	 1.475992570725226e+00	 2.896489001325884e+00
 2.702032496883841e-01	 1.478454185750956e+00	 2.849714202817772e+00
 2.570797701091607e-01	 1.480792528752603e+00	 2.807510079986703e+00
 3.910794036814558e-01	 1.460305723611435e+00	 3.578125422306210e+00
 3.778018932429966e-01	 1.463796988652372e+00	 3.474497295995109e+00
 3.645261601376318e-01	 1.467159344887289e+00	 3.388496258338536e+00
 3.512539431663655e-01	 1.470393310584955e+00	 3.317985093013219e+00
 3.379869627946864e-01	 1.473499432626582e+00	 3.260329832363308e+00
 3.247269206305067e-01	 1.476478285906183e+00	 3.213075086007021e+00
 3.114754989223844e-01	 1.479330472721710e+00	 3.174152378856223e+00
 2.982343600781267e-01	 1.482056622157686e+00	 3.141560946311268e+00
 2.850051462038407e-01	 1.484657389460041e+00	 3.105108534801512e+00
 2.717894786634808e-01	 1.487133455403891e+00	 3.061392395421315e+00
 2.585889576589047e-01	 1.489485525654923e+00	 3.011928099825250e+00
 3.933618374377046e-01	 1.468828420151117e+00	 3.614641731183863e+00
 3.800068362449374e-01	 1.472340061056958e+00	 3.531688541286472e+00
 3.666536227583171e-01	 1.475722040813875e+00	 3.469188762330218e+00
 3.533039459268826e-01	 1.478974880715383e+00	 3.424262908015979e+00
 3.399595362571478e-01	 1.482099130834428e+00	 3.393509759246442e+00
 3.266221052879927e-01	 1.485095369420250e+00	 3.362234194250732e+00
 3.132933450859577e-01	 1.487964202285965e+00	 3.323953728847274e+00
 2.999749277610369e-01	 1.490706262187585e+00	 3.278848096065655e+00
 2.866685050030396e-01	 1.493322208195222e+00	 3.227506300656656e+00
 2.733757076385657e-01	 1.495812725057163e+00	 3.170881909848283e+00
 2.600981452086121e-01	 1.498178522557537e+00	 3.110250957508006e+00
 3.956442711939038e-01	 1.477351116691019e+00	 3.644968430605606e+00
 3.822117792468353e-01	 1.480883133461804e+00	 3.586940433174766e+00
 3.687810853789673e-01	 1.484284736740762e+00	 3.544919352939724e+00
 3.553539486873725e-01	 1.487556450846154e+00	 3.501843907866705e+00
 3.419321097195881e-01	 1.490698829042657e+00	 3.456206430006533e+00
 3.285172899454604e-01	 1.493712452934736e+00	 3.406960594241768e+00
 3.151111912495110e-01	 1.496597931850662e+00	 3.353557972711211e+00
 3.017154954439191e-01	 1.499355902217940e+00	 3.295897902358597e+00
 2.883318638021947e-01	 1.501987026930858e+00	 3.234280139870455e+00
 2.749619366135821e-01	 1.504491994710871e+00	 3.169360265156605e+00
 2.616073327582157e-01	 1.506871519460547e+00	 3.102107783183520e+00
 2.465154572656048e-01	 1.419941550436234e+00	 2.022982441113292e+00
 2.339450772057051e-01	 1.422066643280715e+00	 1.934901654000941e+00
 2.213921349108230e-01	 1.424074903295569e+00	 1.851643515438118e+00
 2.088580971103485e-01	 1.425967070022836e+00	 1.772852907169723e+00
 1.963444088697830e-01	 1.427743904280846e+00	 1.698385558363243e+00
 1.838524932871508e-01	 1.429406187533840e+00	 1.628298451418622e+00
 1.713837512086717e-01	 1.430954721259390e+00	 1.562839101306172e+00
 1.589395609635559e-01	 1.432390326314207e+00	 1.502433848638695e+00
 1.465212781177617e-01	 1.433713842298944e+00	 1.447675304570323e+00
 1.341302352465411e-01	 1.434926126922566e+00	 1.399309082856333e+00
 1.217677417255753e-01	 1.436028055366862e+00	 1.358219951050651e+00
 2.480246448137129e-01	 1.428634547339286e+00	 2.022942121353050e+00
 2.353773078715000e-01	 1.430772650174154e+00	 1.930535103210916e+00
 2.227475154497405e-01	 1.432793204919373e+00	 1.843690740702543e+00
 2.101367432572491e-01	 1.434696955644506e+00	 1.761979677332897e+00
 1.975464452063245e-01	 1.436484667825658e+00	 1.685195529178860e+00
 1.849780531073011e-01	 1.438157127711246e+00	 1.613344576909535e+00
 1.724329763824818e-01	 1.439715141685539e+00	 1.546634296906366e+00
 1.599126017993094e-01	 1.441159535630586e+00	 1.485460877510211e+00
 1.474182932226162e-01	 1.442491154287129e+00	 1.430395864180258e+00
 1.349513913857771e-01	 1.443710860615085e+00	 1.382172074445082e+00
 1.225132136805673e-01	 1.444819535154164e+00	 1.341668919973416e+00
 2.495338323622575e-01	 1.437327544241933e+00	 2.059364972888767e+00
 2.368095385377553e-01	 1.439478657067154e+00	 1.966496345751276e+00
 2.241028959891169e-01	 1.441511506542723e+00	 1.879643180170289e+00
 2.114153894045854e-01	 1.443426841265723e+00	 1.798294012509449e+00
 1.987484815432586e-01	 1.445225431370035e+00	 1.722173110461774e+00
 1.861036129277844e-01	 1.446908067888245e+00	 1.651229425928438e+00
 1.734822015565518e-01	 1.448475562111318e+00	 1.585624351457163e+00
 1.608856426352384e-01	 1.449928744946638e+00	 1.525718432276696e+00
 1.483153083275534e-01	 1.451268466275035e+00	 1.472057183590855e+00
 1.357725475249974e-01	 1.452495594307371e+00	 1.425356159710224e+00
 1.232586856354421e-01	 1.453611014941279e+00	 1.386485417892491e+00
 2.510430199111707e-01	 1.446020541144276e+00	 2.132816854203521e+00
 2.382417692043942e-01	 1.448184663959809e+00	 2.043338203124351e+00
 2.254582765288696e-01	 1.450229808165704e+00	 1.960035763468281e+00
 2.126940355522703e-01	 1.452156726886562e+00	 1.882308499611590e+00
 1.999505178804973e-01	 1.453966194914036e+00	 1.809804510341372e+00
 1.872291727485147e-01	 1.455659008064883e+00	 1.742409216017455e+00
 1.745314267308005e-01	 1.457235982536756e+00	 1.680232312643721e+00
 1.618586834712703e-01	 1.458697954262377e+00	 1.623593651087872e+00
 1.492123234325130e-01	 1.460045778262658e+00	 1.573008197154353e+00
 1.365937036641581e-01	 1.461280327999410e+00	 1.529170224997762e+00
 1.240041575901763e-01	 1.462402494728179e+00	 1.492936892424229e+00
 2.525522074603853e-01	 1.454713538046414e+00	 2.243842790786064e+00
 2.396739998713409e-01	 1.456890670852216e+00	 2.161594665353285e+00
 2.268136570689155e-01	 1.458948109788406e+00	 2.085386504466447e+00
 2.139726817002172e-01	 1.460886612507100e+00	 2.014520638953940e+00
 2.011525542179526e-01	 1.462706958457724e+00	 1.948562592405468e+00
 1.883547325694058e-01	 1.464409948241202e+00	 1.887328474805261e+00
 1.755806519051467e-01	 1.465996402961881e+00	 1.830871105315417e+00
 1.628317243073325e-01	 1.467467163577811e+00	 1.779465028828229e+00
 1.501093385374348e-01	 1.468823090249994e+00	 1.733590588249414e+00
 1.374148598032152e-01	 1.470065061691183e+00	 1.693917211051839e+00
 1.247496295447467e-01	 1.471193974514840e+00	 1.661286064538353e+00
 2.540613950098334e-01	 1.463406534948448e+00	 2.392967331832469e+00
 2.411062305385188e-01	 1.465596677744473e+00	 2.321781225354499e+00
 2.281690376091720e-01	 1.467666411410917e+00	 2.256196812186825e+00
 2.152513278483389e-01	 1.469616498127414e+00	 2.195413130762440e+00
 2.023545905555364e-01	 1.471447722001160e+00	 2.138907137068136e+00
 1.894802923903711e-01	 1.473160888417249e+00	 2.086420275687141e+00
 1.766298770795092e-01	 1.474756823386719e+00	 2.037943741111288e+00
 1.638047651433523e-01	 1.476236372892955e+00	 1.993702600533809e+00
 1.510063536422585e-01	 1.477600402237040e+00	 1.954138946506502e+00
 1.382360159421248e-01	 1.478849795382675e+00	 1.919894244272439e+00
 1.254951014991298e-01	 1.479985454301237e+00	 1.891791034256127e+00
 2.555705825594477e-01	 1.472099531850478e+00	 2.580694892167130e+00
 2.425384612058516e-01	 1.474302684636676e+00	 2.524395199628147e+00
 2.295244181495562e-01	 1.476384713033325e+00	 2.472951789144015e+00
 2.165299739965491e-01	 1.478346383747577e+00	 2.425454150230289e+00
 2.035566268931606e-01	 1.480188485544405e+00	 2.381285092594942e+00
 1.906058522113247e-01	 1.481911828593068e+00	 2.339941376266179e+00
 1.776791022538068e-01	 1.483517243811300e+00	 2.298127961624735e+00
 1.647778059792572e-01	 1.485005582207817e+00	 2.255684907427043e+00
 1.519033687469240e-01	 1.486377714223790e+00	 2.214122172220494e+00
 1.390571720808430e-01	 1.487634529073867e+00	 2.175034274590806e+00
 1.262405734533023e-01	 1.488776934087341e+00	 2.140080343256008e+00
 2.570797701091607e-01	 1.480792528752603e+00	 2.807510079986695e+00
 2.439706918732630e-01	 1.483008691528920e+00	 2.767694325995866e+00
 2.308797986899852e-01	 1.485103014655718e+00	 2.723695362970162e+00
 2.178086201447604e-01	 1.487076269367669e+00	 2.675735923644983e+00
 2.047586632307373e-01	 1.488929249087520e+00	 2.624708626110216e+00
 1.917314120321801e-01	 1.490662768768704e+00	 2.571680526126123e+00
 1.787283274279582e-01	 1.492277664235650e+00	 2.517866369673694e+00
 1.657508468149745e-01	 1.493774791522410e+00	 2.464603766784910e+00
 1.528003838513708e-01	 1.495155026210242e+00	 2.413330199132718e+00
 1.398783282193259e-01	 1.496419262764743e+00	 2.365561771387925e+00
 1.269860454072408e-01	 1.497568413873128e+00	 2.322873614638377e+00
 2.585889576589047e-01	 1.489485525654923e+00	 3.011928099825250e+00
 2.454029225406767e-01	 1.491714698421302e+00	 2.958343658751603e+00
 2.322351792303761e-01	 1.493821316278184e+00	 2.901442479896144e+00
 2.190872662928865e-01	 1.495806154987764e+00	 2.841865658546477e+00
 2.059606995681781e-01	 1.497670012630567e+00	 2.780450052985625e+00
 1.928569718528511e-01	 1.499413708944202e+00	 2.718199694654485e+00
 1.797775526018825e-01	 1.501038084659796e+00	 2.656259260165971e+00
 1.667238876504317e-01	 1.502544000836743e+00	 2.595889515528501e+00
 1.536973989555389e-01	 1.503932338196390e+00	 2.538444639689753e+00
 1.406994843575295e-01	 1.505203996455287e+00	 2.485351332132089e+00
 1.277315173609220e-01	 1.506359893658572e+00	 2.438089607598165e+00
 2.600981452086121e-01	 1.498178522557537e+00	 3.110250957508006e+00
 2.468351532080165e-01	 1.500420705313920e+00	 3.046916750918827e+00
 2.335905597706462e-01	 1.502539617900812e+00	 2.981490655673135e+00
 2.203659124408400e-01	 1.504536040607938e+00	 2.914556088130698e+00
 2.071627359053952e-01	 1.506410776173607e+00	 2.846884434379620e+00
 1.939825316732516e-01	 1.508164649119607e+00	 2.779406660078303e+00
 1.808267777754982e-01	 1.509798505083768e+00	 2.713187039325926e+00
 1.676969284855562e-01	 1.511313210150828e+00	 2.649398907334853e+00
 1.545944140593678e-01	 1.512709650182231e+00	 2.589302338465746e+00
 1.415206404954100e-01	 1.513988730145483e+00	 2.534223648872421e+00
 1.284769893143224e-01	 1.515151373443647e+00	 2.485536621445328e+00
 2.616073327582157e-01	 1.506871519460547e+00	 3.102107783183520e+00
 2.482673838752059e-01	 1.509126712206869e+00	 3.033464018605054e+00
 2.349459403107126e-01	 1.511257919523690e+00	 2.963848407487201e+00
 2.216445585885345e-01	 1.513265926228268e+00	 2.893777424361790e+00
 2.083647722423004e-01	 1.515151539716700e+00	 2.823947339045271e+00
 1.951080914932949e-01	 1.516915589294963e+00	 2.755206063576291e+00
 1.818760029487244e-01	 1.518558925507594e+00	 2.688527176256768e+00
 1.686699693202753e-01	 1.520082419464677e+00	 2.624986021762438e+00
 1.554914291627973e-01	 1.521486962167761e+00	 2.565737783150722e+00
 1.423417966329233e-01	 1.522773463835312e+00	 2.511997419318896e+00
 1.292224612674189e-01	 1.523942853228325e+00	 2.465021360034441e+00
 1.217677417255753e-01	 1.436028055366862e+00	 1.358219951050659e+00
 1.094371724198060e-01	 1.437020360159012e+00	 1.324311163170048e+00
 9.713766133773548e-02	 1.437904145495773e+00	 1.296272325588647e+00
 8.487041851234521e-02	 1.438680334414162e+00	 1.273367715814927e+00
 7.263663090477897e-02	 1.439349864871708e+00	 1.254964978042488e+00
 6.043746228117610e-02	 1.439913689129008e+00	 1.240522236795625e+00
 4.827405310600610e-02	 1.440372773135193e+00	 1.229575241710259e+00
 3.614752045162955e-02	 1.440728095916790e+00	 1.221724637932326e+00
 2.405895792380075e-02	 1.440980648970397e+00	 1.216623450450381e+00
 1.200943560281591e-02	 1.441131435659619e+00	 1.213964864381345e+00
 0.000000000000000e+00	 1.441181470616666e+00	 1.213470375664917e+00
 1.225132136805673e-01	 1.444819535154164e+00	 1.341668919973416e+00
 1.101071556331183e-01	 1.445817914916131e+00	 1.308703633105671e+00
 9.773234595027336e-02	 1.446707110857748e+00	 1.281846879130171e+00
 8.539000207294824e-02	 1.447488051666967e+00	 1.260316747326511e+00
 7.308131822897321e-02	 1.448161681043600e+00	 1.243439274401357e+00
 6.080746530917232e-02	 1.448728957078083e+00	 1.230634825769032e+00
 4.856959076004481e-02	 1.449190851633198e+00	 1.221404520561081e+00
 3.636881849277245e-02	 1.449548349729178e+00	 1.215316798459499e+00
 2.420624880826609e-02	 1.449802448932670e+00	 1.211994220038286e+00
 1.208295833795353e-02	 1.449954158749978e+00	 1.211100585707225e+00
 0.000000000000000e+00	 1.450004500024999e+00	 1.212328450462255e+00
 1.232586856354421e-01	 1.453611014941279e+00	 1.386485417892483e+00
 1.107771388462124e-01	 1.454615469673103e+00	 1.355171636912939e+00
 9.832703056249870e-02	 1.455510076219609e+00	 1.329876432781373e+00
 8.590958563315816e-02	 1.456295768919688e+00	 1.309789437334017e+00
 7.352600555271452e-02	 1.456973497215430e+00	 1.294213046600546e+00
 6.117746833668336e-02	 1.457544225027118e+00	 1.282548019130200e+00
 4.886512841360040e-02	 1.458008930131178e+00	 1.274279131798485e+00
 3.659011653347526e-02	 1.458368603541552e+00	 1.268960994931717e+00
 2.435353969238192e-02	 1.458624248894937e+00	 1.266204121899942e+00
 1.215648107288622e-02	 1.458776881840336e+00	 1.265661341463999e+00
 0.000000000000000e+00	 1.458827529433332e+00	 1.267014632924095e+00
 1.240041575901763e-01	 1.462402494728179e+00	 1.492936892424229e+00
 1.114471220590894e-01	 1.463413024429894e+00	 1.463942126513457e+00
 9.892171517443898e-02	 1.464313041581324e+00	 1.440550451407293e+00
 8.642916919302808e-02	 1.465103486172293e+00	 1.421940848059919e+00
 7.397069287607830e-02	 1.465785313387171e+00	 1.407410115359596e+00
 6.154747136380100e-02	 1.466359492976088e+00	 1.396357634071180e+00
 4.916066606677269e-02	 1.466827008629116e+00	 1.388270203193995e+00
 3.681141457383508e-02	 1.467188857353902e+00	 1.382707054437839e+00
 2.450083057622936e-02	 1.467446048857193e+00	 1.379285143552773e+00
 1.223000380766352e-02	 1.467599604930691e+00	 1.377664810102488e+00
 0.000000000000000e+00	 1.467650558841666e+00	 1.377535888654144e+00
 1.247496295447467e-01	 1.471193974514840e+00	 1.661286064538353e+00
 1.121171052717505e-01	 1.472210579186476e+00	 1.635238415433848e+00
 9.951639978612176e-02	 1.473116006942859e+00	 1.614055681336771e+00
 8.694875275261116e-02	 1.473911203424750e+00	 1.596924084561915e+00
 7.441538019913987e-02	 1.474597129558798e+00	 1.583152957046815e+00
 6.191747439061700e-02	 1.475174760924974e+00	 1.572158617621920e+00
 4.945620371966154e-02	 1.475645087126997e+00	 1.563448337832763e+00
 3.703271261394902e-02	 1.476009111166218e+00	 1.556604506021889e+00
 2.464812145988957e-02	 1.476267848819432e+00	 1.551269092106508e+00
 1.230352654233498e-02	 1.476422328021041e+00	 1.547128508051500e+00
 0.000000000000000e+00	 1.476473588250000e+00	 1.543898950036602e+00
 1.254951014991298e-01	 1.479985454301237e+00	 1.891791034256120e+00
 1.127870884841970e-01	 1.481008133942816e+00	 1.869280260874662e+00
 1.001110843975746e-01	 1.481918972304183e+00	 1.850426190096485e+00
 8.746833631196044e-02	 1.482718920677030e+00	 1.833697515283027e+00
 7.486006752197466e-02	 1.483408945730283e+00	 1.818727743721199e+00
 6.228747741722318e-02	 1.483990028873754e+00	 1.805354893178282e+00
 4.975174137236683e-02	 1.484463165624805e+00	 1.793422663468887e+00
 3.725401065391418e-02	 1.484829364978490e+00	 1.782770983589245e+00
 2.479541234344365e-02	 1.485089648781651e+00	 1.773227397506584e+00
 1.237704927695015e-02	 1.485245051111386e+00	 1.764599214109003e+00
 0.000000000000000e+00	 1.485296617658333e+00	 1.756666348418713e+00
 1.262405734533023e-01	 1.488776934087341e+00	 2.140080343256008e+00
 1.134570716964298e-01	 1.489805688698884e+00	 2.109360075859148e+00
 1.007057690088250e-01	 1.490721937665264e+00	 2.081646921368872e+00
 8.798791987112910e-02	 1.491526637929102e+00	 2.056689045889394e+00
 7.530475484465803e-02	 1.492220761901599e+00	 2.034258015505668e+00
 6.265748044371126e-02	 1.492805296822406e+00	 2.014137828772891e+00
 5.004727902498833e-02	 1.493281244122523e+00	 1.996114954030426e+00
 3.747530869382763e-02	 1.493649618790708e+00	 1.979969287927123e+00
 2.494270322697275e-02	 1.493911448743844e+00	 1.965465954281728e+00
 1.245057201155858e-02	 1.494067774201724e+00	 1.952347865460492e+00
 0.000000000000000e+00	 1.494119647066666e+00	 1.940328970181597e+00
 1.269860454072408e-01	 1.497568413873128e+00	 2.322873614638377e+00
 1.141270549084503e-01	 1.498603243454648e+00	 2.285212176973307e+00
 1.013004536199004e-01	 1.499524903026068e+00	 2.251230056475092e+00
 8.850750343017022e-02	 1.500334355180935e+00	 2.220636467316378e+00
 7.574944216726533e-02	 1.501032578072720e+00	 2.193159931778194e+00
 6.302748347017310e-02	 1.501620564770908e+00	 2.168537724120755e+00
 5.034281667762593e-02	 1.502099322620138e+00	 2.146506328122700e+00
 3.769660673378654e-02	 1.502469872602863e+00	 2.126792820820049e+00
 2.508999411055800e-02	 1.502733248706007e+00	 2.109107097921615e+00
 1.252409474620982e-02	 1.502890497292054e+00	 2.093134859652993e+00
 0.000000000000000e+00	 1.502942676475000e+00	 2.078531277686445e+00
 1.277315173609220e-01	 1.506359893658572e+00	 2.438089607598165e+00
 1.147970381202595e-01	 1.507400798210079e+00	 2.396450672211438e+00
 1.018951382308284e-01	 1.508327868386564e+00	 2.358977550691749e+00
 8.902708698913693e-02	 1.509142072432499e+00	 2.325347588816892e+00
 7.619412948987196e-02	 1.509844394243618e+00	 2.295253267926701e+00
 6.339748649670046e-02	 1.510435832719239e+00	 2.268392075436652e+00
 5.063835433037947e-02	 1.510917401117631e+00	 2.244457397701222e+00
 3.791790477388794e-02	 1.511290126414943e+00	 2.223130343801767e+00
 2.523728499428053e-02	 1.511555048668135e+00	 2.204072411973087e+00
 1.259761748095341e-02	 1.511713220382374e+00	 2.186918913910378e+00
 0.000000000000000e+00	 1.511765705883333e+00	 2.171273074255015e+00
 1.284769893143224e-01	 1.515151373443647e+00	 2.485536621445328e+00
 1.154670213318587e-01	 1.516198352965144e+00	 2.442876844776613e+00
 1.024898228416366e-01	 1.517130833746721e+00	 2.404690432144232e+00
 8.954667054808234e-02	 1.517949789683762e+00	 2.370629593515742e+00
 7.663881681255330e-02	 1.518656210414267e+00	 2.340357416784299e+00
 6.376748952338508e-02	 1.519251100667377e+00	 2.313538181251550e+00
 5.093389198334878e-02	 1.519735479614989e+00	 2.289828701972423e+00
 3.813920281422896e-02	 1.520110380226940e+00	 2.268870609440018e+00
 2.538457587822146e-02	 1.520376848630222e+00	 2.250283472481245e+00
 1.267114021583890e-02	 1.520535943472684e+00	 2.233658675974030e+00
 0.000000000000000e+00	 1.520588735291667e+00	 2.218553967253761e+00
 1.292224612674189e-01	 1.523942853228325e+00	 2.465021360034441e+00
 1.161370045432490e-01	 1.524995907719813e+00	 2.424290771132586e+00
 1.030845074523524e-01	 1.525933799106504e+00	 2.388168859489367e+00
 9.006625410705957e-02	 1.526757506934695e+00	 2.356289079498089e+00
 7.708350413538470e-02	 1.527468026584641e+00	 2.328291416309785e+00
 6.413749255031878e-02	 1.528066368615300e+00	 2.303813159707706e+00
 5.122942963663374e-02	 1.528553558112195e+00	 2.282480717149308e+00
 3.836050085490671e-02	 1.528930634038844e+00	 2.263902366240959e+00
 2.553186676246194e-02	 1.529198648592264e+00	 2.247661850554284e+00
 1.274466295091584e-02	 1.529358666562981e+00	 2.233312726679488e+00
 0.000000000000000e+00	 1.529411764700000e+00	 2.220373372852285e+00
 1.529411764700000e+00	 0.000000000000000e+00	 1.521204378430477e+01
 1.529358666562982e+00	 1.274466295091500e-02	 1.520201909127287e+01
 1.529198648592264e+00	 2.553186676246121e-02	 1.519481838200447e+01
 1.528930634038844e+00	 3.836050085490612e-02	 1.518998140820671e+01
 1.528553558112195e+00	 5.122942963663325e-02	 1.518708721249045e+01
 1.528066368615300e+00	 6.413749255031843e-02	 1.518575546315546e+01
 1.527468026584641e+00	 7.708350413538451e-02	 1.518564747387281e+01
 1.526757506934695e+00	 9.006625410705946e-02	 1.518646687782991e+01
 1.525933799106504e+00	 1.030845074523524e-01	 1.518795992466375e+01
 1.524995907719813e+00	 1.161370045432491e-01	 1.518991536677848e+01
 1.523942853228325e+00	 1.292224612674189e-01	 1.519216389990599e+01
 1.538234794108333e+00	 0.000000000000000e+00	 1.513698567845355e+01
 1.538181389653267e+00	 1.281818568621664e-02	 1.512734493403687e+01
 1.538020448554259e+00	 2.567915764705614e-02	 1.512068833249046e+01
 1.537750887850649e+00	 3.858179889598697e-02	 1.511652366224440e+01
 1.537371636609242e+00	 5.152496729030299e-02	 1.511440168360454e+01
 1.536881636562999e+00	 6.450749557756599e-02	 1.511391763100096e+01
 1.536279842754725e+00	 7.752819145842066e-02	 1.511471240349858e+01
 1.535565224185284e+00	 9.058583766610895e-02	 1.511647341274383e+01
 1.534736764465901e+00	 1.036791920629995e-01	 1.511893505618774e+01
 1.533793462474074e+00	 1.168069877544365e-01	 1.512187878160987e+01
 1.532734333012602e+00	 1.299679332201999e-01	 1.512513270713446e+01
 1.547057823516667e+00	 0.000000000000000e+00	 1.506196065191718e+01
 1.547004112743540e+00	 1.289170842171107e-02	 1.505258692573963e+01
 1.546842248516213e+00	 2.582644853195545e-02	 1.504633668505984e+01
 1.546571141662372e+00	 3.880309693741444e-02	 1.504268983031627e+01
 1.546189715106154e+00	 5.182050494430411e-02	 1.504117293840609e+01
 1.545696904510509e+00	 6.487749860508427e-02	 1.504136093036853e+01
 1.545091658924568e+00	 7.797287878163378e-02	 1.504287843109001e+01
 1.544372941435584e+00	 9.110542122522094e-02	 1.504540078982995e+01
 1.543539729824974e+00	 1.042738766735866e-01	 1.504865472894089e+01
 1.542591017227994e+00	 1.174769709654459e-01	 1.505241858624666e+01
 1.541525812796541e+00	 1.307134051727029e-01	 1.505652211461448e+01
 1.555880852925000e+00	 0.000000000000000e+00	 1.498688988519025e+01
 1.555826835833806e+00	 1.296523115735006e-02	 1.497768599928233e+01
 1.555664048478137e+00	 2.597373941708294e-02	 1.497172377219675e+01
 1.555391395474032e+00	 3.902439497910137e-02	 1.496845922290746e+01
 1.555007793602967e+00	 5.211604259855248e-02	 1.496739876985326e+01
 1.554512172457877e+00	 6.524750163280306e-02	 1.496810106201379e+01
 1.553903475094228e+00	 7.841756610497526e-02	 1.497017850618029e+01
 1.553180658685667e+00	 9.162500478437288e-02	 1.497329845886842e+01
 1.552342695183805e+00	 1.048685612841183e-01	 1.497718404979517e+01
 1.551388571981657e+00	 1.181469541763072e-01	 1.498161460183674e+01
 1.550317292580228e+00	 1.314588771249771e-01	 1.498642561036100e+01
 1.564703882333334e+00	 0.000000000000000e+00	 1.491169285432308e+01
 1.564649558924067e+00	 1.303875389308542e-02	 1.490258006013016e+01
 1.564485848440042e+00	 2.612103030236232e-02	 1.489680565132077e+01
 1.564211649285652e+00	 3.924569302096055e-02	 1.489380570486504e+01
 1.563825872099711e+00	 5.241158025296400e-02	 1.489307043328892e+01
 1.563327440405151e+00	 6.561750466065225e-02	 1.489414617707961e+01
 1.562715291263768e+00	 7.886225342839656e-02	 1.489663709789723e+01
 1.561988375935605e+00	 9.214458834354233e-02	 1.490020654070844e+01
 1.561145660542473e+00	 1.054632458945994e-01	 1.490457803132960e+01
 1.560186126735150e+00	 1.188169373870501e-01	 1.490953587376756e+01
 1.559108772363745e+00	 1.322043490770718e-01	 1.491492530961573e+01
 1.573526911741667e+00	 0.000000000000000e+00	 1.483628737885321e+01
 1.573472282014323e+00	 1.311227662886893e-02	 1.482720405548484e+01
 1.573307648401937e+00	 2.626832118771735e-02	 1.482153419586082e+01
 1.573031903097250e+00	 3.946699106290481e-02	 1.481869780899208e+01
 1.572643950596423e+00	 5.270711790745457e-02	 1.481817278312770e+01
 1.572142708352377e+00	 6.598750768856169e-02	 1.481949703740363e+01
 1.571527107433246e+00	 7.930694075184921e-02	 1.482227037936943e+01
 1.570796093185471e+00	 9.266417190270682e-02	 1.482615603619919e+01
 1.569948625901061e+00	 1.060579305050347e-01	 1.483088182566097e+01
 1.568983681488556e+00	 1.194869205977046e-01	 1.483624093071389e+01
 1.567900252147179e+00	 1.329498210290364e-01	 1.484209223937363e+01
 1.582349941150001e+00	 0.000000000000000e+00	 1.476058966813047e+01
 1.582295005104582e+00	 1.318579936465236e-02	 1.475149004115770e+01
 1.582129448363831e+00	 2.641561207307176e-02	 1.474585718335133e+01
 1.581852156908849e+00	 3.968828910484695e-02	 1.474309884600104e+01
 1.581462029093134e+00	 5.300265556194007e-02	 1.474268440525780e+01
 1.580957976299604e+00	 6.635751071646118e-02	 1.474414717091365e+01
 1.580338923602726e+00	 7.975162807528464e-02	 1.474708640661268e+01
 1.579603810435338e+00	 9.318375546184382e-02	 1.475116902901771e+01
 1.578751591259648e+00	 1.066526151154288e-01	 1.475613095160881e+01
 1.577781236241964e+00	 1.201569038083003e-01	 1.476177803648423e+01
 1.576691731930612e+00	 1.336952929809201e-01	 1.476798661519736e+01
 1.591172970558334e+00	 0.000000000000000e+00	 1.468451436609834e+01
 1.591117728194842e+00	 1.325932210038751e-02	 1.467536724623369e+01
 1.590951248325736e+00	 2.656290295834931e-02	 1.466971838066734e+01
 1.590672410720468e+00	 3.990958714669979e-02	 1.466696701096849e+01
 1.590280107589879e+00	 5.329819321633645e-02	 1.466657774532335e+01
 1.589773244246877e+00	 6.672751374428061e-02	 1.466808302230112e+01
 1.589150739772265e+00	 8.019631539865428e-02	 1.467108529211324e+01
 1.588411527685275e+00	 9.370333902093092e-02	 1.467525888263001e+01
 1.587554556618317e+00	 1.072472997257866e-01	 1.468035151545441e+01
 1.586578790995455e+00	 1.208268870188671e-01	 1.468618543494388e+01
 1.585483211714131e+00	 1.344407649327723e-01	 1.469265811061763e+01
 1.599995999966668e+00	 0.000000000000000e+00	 1.460797459459098e+01
 1.599940451285107e+00	 1.333284483602616e-02	 1.459876213560967e+01
 1.599773048287660e+00	 2.671019384347373e-02	 1.459305762650720e+01
 1.599492664532128e+00	 4.013088518837613e-02	 1.459025548642640e+01
 1.599098186086692e+00	 5.359373087055953e-02	 1.458981923304640e+01
 1.598588512194245e+00	 6.709751677194979e-02	 1.459128409915563e+01
 1.597962555941925e+00	 8.064100272190966e-02	 1.459425937331048e+01
 1.597219244935359e+00	 9.422292257994562e-02	 1.459843043161164e+01
 1.596357521977147e+00	 1.078419843361127e-01	 1.460356042554040e+01
 1.595376345749119e+00	 1.214968702294347e-01	 1.460949158828347e+01
 1.594274691497817e+00	 1.351862368846424e-01	 1.461614611940649e+01
 1.608819029375000e+00	 0.000000000000000e+00	 1.453088199520308e+01
 1.608763174375381e+00	 1.340636757152011e-02	 1.452159847049158e+01
 1.608594848249615e+00	 2.685748472836876e-02	 1.451581091122997e+01
 1.608312918343851e+00	 4.035218322978882e-02	 1.451291254221776e+01
 1.607916264583604e+00	 5.388926852452527e-02	 1.451236940274096e+01
 1.607403780141754e+00	 6.746751979939858e-02	 1.451372311373361e+01
 1.606774372111768e+00	 8.108569004500223e-02	 1.451659337617520e+01
 1.606026962185658e+00	 9.474250613886548e-02	 1.452068016754515e+01
 1.605160487336220e+00	 1.084366689464120e-01	 1.452576560094755e+01
 1.604173900503039e+00	 1.221668534400330e-01	 1.453171540888727e+01
 1.603066171281756e+00	 1.359317088365797e-01	 1.453848001099711e+01
 1.617642058783334e+00	 0.000000000000000e+00	 1.445314676978677e+01
 1.617585897465666e+00	 1.347989030682115e-02	 1.444379736692479e+01
 1.617416648211609e+00	 2.700477561295814e-02	 1.443791045414762e+01
 1.617133172155657e+00	 4.057348127085064e-02	 1.443488163224171e+01
 1.616734343080650e+00	 5.418480617814950e-02	 1.443418301016339e+01
 1.616219048089453e+00	 6.783752282655682e-02	 1.443536612052933e+01
 1.615586188281852e+00	 8.153037736788341e-02	 1.443806457407145e+01
 1.614834679436247e+00	 9.526208969766795e-02	 1.444199641970004e+01
 1.613963452695617e+00	 1.090313535566891e-01	 1.444696617447497e+01
 1.612971455257299e+00	 1.228368366506917e-01	 1.445286648504553e+01
 1.611857651066033e+00	 1.366771807886334e-01	 1.445967937931106e+01
 1.523942853228325e+00	 1.292224612674189e-01	 1.519216389990598e+01
 1.522773463835312e+00	 1.423417966329227e-01	 1.519345324288173e+01
 1.521486962167761e+00	 1.554914291627968e-01	 1.519277576902906e+01
 1.520082419464678e+00	 1.686699693202748e-01	 1.519038660056143e+01
 1.518558925507593e+00	 1.818760029487239e-01	 1.518657196981124e+01
 1.516915589294964e+00	 1.951080914932945e-01	 1.518164528279280e+01
 1.515151539716700e+00	 2.083647722423001e-01	 1.517594248286394e+01
 1.513265926228268e+00	 2.216445585885343e-01	 1.516981666908175e+01
 1.511257919523691e+00	 2.349459403107124e-01	 1.516363192268097e+01
 1.509126712206869e+00	 2.482673838752059e-01	 1.515775629408059e+01
 1.506871519460547e+00	 2.616073327582156e-01	 1.515255390197857e+01
 1.532734333012602e+00	 1.299679332201999e-01	 1.512513270713446e+01
 1.531558197524774e+00	 1.431629527700425e-01	 1.512737897208630e+01
 1.530264274152987e+00	 1.563884442657875e-01	 1.512752872785815e+01
 1.528851628778306e+00	 1.696430101545384e-01	 1.512581971674071e+01
 1.527319345931298e+00	 1.829252281215018e-01	 1.512252695876443e+01
 1.525666529470308e+00	 1.962336513129165e-01	 1.511795903722997e+01
 1.523892303259896e+00	 2.095668085788252e-01	 1.511245367957335e+01
 1.521995811848809e+00	 2.229232047359000e-01	 1.510637258667585e+01
 1.519976221146880e+00	 2.363013208505065e-01	 1.510009546244394e+01
 1.517832719100216e+00	 2.496996145421798e-01	 1.509401319435101e+01
 1.515564516364018e+00	 2.631165203076562e-01	 1.508852013467258e+01
 1.541525812796541e+00	 1.307134051727029e-01	 1.505652211461448e+01
 1.540342931213930e+00	 1.439841089068119e-01	 1.505959486205012e+01
 1.539041586137960e+00	 1.572854593683831e-01	 1.506047733204136e+01
 1.537620838091754e+00	 1.706160509883859e-01	 1.505939036159321e+01
 1.536079766354907e+00	 1.839744532938632e-01	 1.505659816451703e+01
 1.534417469645651e+00	 1.973592111321385e-01	 1.505240484448196e+01
 1.532633066803184e+00	 2.107688449149806e-01	 1.504715019926624e+01
 1.530725697469535e+00	 2.242018508829359e-01	 1.504120476781564e+01
 1.528694522770340e+00	 2.376567013900171e-01	 1.503496407031209e+01
 1.526538725993905e+00	 2.511318452089189e-01	 1.502884199020324e+01
 1.524257513267884e+00	 2.646257078569091e-01	 1.502326324606588e+01
 1.550317292580228e+00	 1.314588771249771e-01	 1.498642561036100e+01
 1.549127664902857e+00	 1.448052650432917e-01	 1.499020638540939e+01
 1.547818898122744e+00	 1.581824744706480e-01	 1.499173675321908e+01
 1.546390047405068e+00	 1.715890918218794e-01	 1.499122106341709e+01
 1.544840186778444e+00	 1.850236784658628e-01	 1.498891306990962e+01
 1.543168409820990e+00	 1.984847709510043e-01	 1.498511267722358e+01
 1.541373830346542e+00	 2.119708812507966e-01	 1.498016197456773e+01
 1.539455583090400e+00	 2.254804970296583e-01	 1.497444050770292e+01
 1.537412824394003e+00	 2.390120819292469e-01	 1.496835973717994e+01
 1.535244732887851e+00	 2.525640758754146e-01	 1.496235663012916e+01
 1.532950510172048e+00	 2.661348954059583e-01	 1.495688633158549e+01
 1.559108772363745e+00	 1.322043490770718e-01	 1.491492530961572e+01
 1.557912398591630e+00	 1.456264211795426e-01	 1.491930714167734e+01
 1.556596210107402e+00	 1.590794895726466e-01	 1.492140989753399e+01
 1.555159256718291e+00	 1.725621326550807e-01	 1.492142179926712e+01
 1.553600607201934e+00	 1.860729036375550e-01	 1.491958642587888e+01
 1.551919349996329e+00	 1.996103307695573e-01	 1.491619969890947e+01
 1.550114593889945e+00	 2.131729175863033e-01	 1.491160615297584e+01
 1.548185468711358e+00	 2.267591431760834e-01	 1.490619443978689e+01
 1.546131126017801e+00	 2.403674624681988e-01	 1.490039201252869e+01
 1.543950739781968e+00	 2.539963065416586e-01	 1.489465893601048e+01
 1.541643507076409e+00	 2.676440829547878e-01	 1.488948076663359e+01
 1.567900252147179e+00	 1.329498210290364e-01	 1.484209223937363e+01
 1.566697132280327e+00	 1.464475773156253e-01	 1.484697916712293e+01
 1.565373522091997e+00	 1.599765046744435e-01	 1.484958774035870e+01
 1.563928466031469e+00	 1.735351734880518e-01	 1.485009035400506e+01
 1.562361027625399e+00	 1.871221288089941e-01	 1.484872063427910e+01
 1.560670290171667e+00	 2.007358905878409e-01	 1.484577066978778e+01
 1.558855357433371e+00	 2.143749539215312e-01	 1.484158752545914e+01
 1.556915354332362e+00	 2.280377893222275e-01	 1.483656898630857e+01
 1.554849427641667e+00	 2.417228430068758e-01	 1.483115847624985e+01
 1.552656746676170e+00	 2.554285372076424e-01	 1.482583909552148e+01
 1.550336503980869e+00	 2.691532705033813e-01	 1.482112671883662e+01
 1.576691731930612e+00	 1.336952929809201e-01	 1.476798661519736e+01
 1.575481865969024e+00	 1.472687334516005e-01	 1.477329323646314e+01
 1.574150834076592e+00	 1.608735197761031e-01	 1.477634965241695e+01
 1.572697675344646e+00	 1.745082143208546e-01	 1.477731267037442e+01
 1.571121448048864e+00	 1.881713539802348e-01	 1.477640612140813e+01
 1.569421230347005e+00	 2.018614504058985e-01	 1.477391834334957e+01
 1.567596120976798e+00	 2.155769902565102e-01	 1.477019894527345e+01
 1.565645239953366e+00	 2.293164354681070e-01	 1.476565479889839e+01
 1.563567729265533e+00	 2.430782235452809e-01	 1.476074520040685e+01
 1.561362753570373e+00	 2.568607678733579e-01	 1.475597614440654e+01
 1.559029500885329e+00	 2.706624580517230e-01	 1.475189365015780e+01
 1.585483211714131e+00	 1.344407649327723e-01	 1.469265811061763e+01
 1.584266599657797e+00	 1.480898895875289e-01	 1.469830915668957e+01
 1.582928146061250e+00	 1.617705348776899e-01	 1.470176371763313e+01
 1.581466884657870e+00	 1.754812551535511e-01	 1.470316319044594e+01
 1.579881868472353e+00	 1.892205791513314e-01	 1.470272170259812e+01
 1.578172170522343e+00	 2.029870102237736e-01	 1.470072385358473e+01
 1.576336884520201e+00	 2.167790265912708e-01	 1.469752173737537e+01
 1.574375125574324e+00	 2.305950816137379e-01	 1.469353118961157e+01
 1.572286030889332e+00	 2.444336040834169e-01	 1.468922720132481e+01
 1.570068760464489e+00	 2.582929985387966e-01	 1.468513843902527e+01
 1.567722497789690e+00	 2.721716455997967e-01	 1.468184080926550e+01
 1.594274691497817e+00	 1.351862368846424e-01	 1.461614611940649e+01
 1.593051333346724e+00	 1.489110457234711e-01	 1.462207605333110e+01
 1.591705458046034e+00	 1.626675499792682e-01	 1.462588704302845e+01
 1.590236093971183e+00	 1.764542959862032e-01	 1.462770518876849e+01
 1.588642288895891e+00	 1.902698043223387e-01	 1.462773493821528e+01
 1.586923110697683e+00	 2.041125700415096e-01	 1.462625709339934e+01
 1.585077648063559e+00	 2.179810629258432e-01	 1.462362609879791e+01
 1.583105011195189e+00	 2.318737277591367e-01	 1.462026655277161e+01
 1.581004332512994e+00	 2.457889846212868e-01	 1.461666888238273e+01
 1.578774767358435e+00	 2.597252292039502e-01	 1.461338411954142e+01
 1.576415494693854e+00	 2.736808331475863e-01	 1.461101771453484e+01
 1.603066171281756e+00	 1.359317088365797e-01	 1.453848001099711e+01
 1.601836067035879e+00	 1.497322018594880e-01	 1.454463264944288e+01
 1.600482770031007e+00	 1.635645650809027e-01	 1.454876606097007e+01
 1.599005303284632e+00	 1.774273368188728e-01	 1.455099109754324e+01
 1.597402709319500e+00	 1.913190294933108e-01	 1.455150248139909e+01
 1.595674050873025e+00	 2.052381298591499e-01	 1.455057708453399e+01
 1.593818411606847e+00	 2.191830992602576e-01	 1.454857149033266e+01
 1.591834896815916e+00	 2.331523739043194e-01	 1.454591877797382e+01
 1.589722634136455e+00	 2.471443651588933e-01	 1.454312446786332e+01
 1.587480774252124e+00	 2.611574598688103e-01	 1.454076156411426e+01
 1.585108491597720e+00	 2.751900206950757e-01	 1.453946462804157e+01
 1.611857651066033e+00	 1.366771807886334e-01	 1.445967937931106e+01
 1.610620800725342e+00	 1.505533579956402e-01	 1.446600753760063e+01
 1.609260082016233e+00	 1.644615801826577e-01	 1.447043682406420e+01
 1.607774512598260e+00	 1.784003776516219e-01	 1.447306282412473e+01
 1.606163129743204e+00	 1.923682546643022e-01	 1.447407041785651e+01
 1.604424991048371e+00	 2.063636896767381e-01	 1.447373233930723e+01
 1.602559175150043e+00	 2.203851355945442e-01	 1.447240701985277e+01
 1.600564782436457e+00	 2.344310200493024e-01	 1.447053565458715e+01
 1.598440935759645e+00	 2.484997456962395e-01	 1.446863842820461e+01
 1.596186781145472e+00	 2.625896905333687e-01	 1.446730983443645e+01
 1.593801488501192e+00	 2.766992082422489e-01	 1.446721302089214e+01
 1.506871519460547e+00	 2.616073327582156e-01	 1.515255390197857e+01
 1.504491994710871e+00	 2.749619366135812e-01	 1.514829769881377e+01
 1.501987026930858e+00	 2.883318638021939e-01	 1.514530624297611e+01
 1.499355902217941e+00	 3.017154954439185e-01	 1.514396580493384e+01
 1.496597931850662e+00	 3.151111912495104e-01	 1.514459852034127e+01
 1.493712452934736e+00	 3.285172899454601e-01	 1.514744882060819e+01
 1.490698829042657e+00	 3.419321097195878e-01	 1.515266869441900e+01
 1.487556450846153e+00	 3.553539486873724e-01	 1.516030173359973e+01
 1.484284736740762e+00	 3.687810853789671e-01	 1.517026591808016e+01
 1.480883133461804e+00	 3.822117792468355e-01	 1.517748859647459e+01
 1.477351116691019e+00	 3.956442711939038e-01	 1.517129727607265e+01
 1.515564516364018e+00	 2.631165203076562e-01	 1.508852013467258e+01
 1.513171264365079e+00	 2.765481655884783e-01	 1.508375791499893e+01
 1.510651845667007e+00	 2.899952226012651e-01	 1.507990117092017e+01
 1.508005542248800e+00	 3.034560631267443e-01	 1.507736098569812e+01
 1.505231661415838e+00	 3.169290374130278e-01	 1.507649469029353e+01
 1.502329536449663e+00	 3.304124746029069e-01	 1.507759247163650e+01
 1.499298527251279e+00	 3.439046831820169e-01	 1.508086278598416e+01
 1.496138020977260e+00	 3.574039514478567e-01	 1.508641652811963e+01
 1.492847432667928e+00	 3.709085479996148e-01	 1.509424100896837e+01
 1.489426205866871e+00	 3.844167222487312e-01	 1.509742410140175e+01
 1.485873813231091e+00	 3.979267049501003e-01	 1.508979983748618e+01
 1.524257513267884e+00	 2.646257078569091e-01	 1.502326324606588e+01
 1.521850534019712e+00	 2.781343945632309e-01	 1.501826064346957e+01
 1.519316664403591e+00	 2.916585814002298e-01	 1.501389355441814e+01
 1.516655182280088e+00	 3.051966308094968e-01	 1.501060671457493e+01
 1.513865390981419e+00	 3.187468835765006e-01	 1.500880093174833e+01
 1.510946619964957e+00	 3.323076592603330e-01	 1.500881985991645e+01
 1.507898225460224e+00	 3.458772566444446e-01	 1.501093555299899e+01
 1.504719591108642e+00	 3.594539542083549e-01	 1.501533274646003e+01
 1.501410128595314e+00	 3.730360106202865e-01	 1.502185102372030e+01
 1.497969278272108e+00	 3.866216652506579e-01	 1.502199886743906e+01
 1.494396509771284e+00	 4.002091387063300e-01	 1.501130296231324e+01
 1.532950510172048e+00	 2.661348954059583e-01	 1.495688633158549e+01
 1.530529803674665e+00	 2.797206235378198e-01	 1.495188939916633e+01
 1.527981483140501e+00	 2.933219401990699e-01	 1.494733255317809e+01
 1.525304822311696e+00	 3.069371984921623e-01	 1.494370276269642e+01
 1.522499120547301e+00	 3.205647297399217e-01	 1.494145234165666e+01
 1.519563703480526e+00	 3.342028439177395e-01	 1.494098587737375e+01
 1.516497923669408e+00	 3.478498301068810e-01	 1.494264591400742e+01
 1.513301161240221e+00	 3.615039569688852e-01	 1.494669733635922e+01
 1.509972824522857e+00	 3.751634732410087e-01	 1.495252314235057e+01
 1.506512350677455e+00	 3.888266082526465e-01	 1.495066735468918e+01
 1.502919206311548e+00	 4.024915724626263e-01	 1.493807702788722e+01
 1.541643507076409e+00	 2.676440829547878e-01	 1.488948076663359e+01
 1.539209073329832e+00	 2.813068525122256e-01	 1.488471660427620e+01
 1.536646301877631e+00	 2.949852989977672e-01	 1.488025721383999e+01
 1.533954462343517e+00	 3.086777661747270e-01	 1.487664012119627e+01
 1.531132850113384e+00	 3.223825759032839e-01	 1.487437692410288e+01
 1.528180786996274e+00	 3.360980285751274e-01	 1.487394036464894e+01
 1.525097621878746e+00	 3.498224035693362e-01	 1.487575013239977e+01
 1.521882731371925e+00	 3.635539597294664e-01	 1.488015734090261e+01
 1.518535520450489e+00	 3.772909358618070e-01	 1.488578349925789e+01
 1.515055423082858e+00	 3.910315512547280e-01	 1.488283100585694e+01
 1.511441902851829e+00	 4.047740062190222e-01	 1.486938296726509e+01
 1.550336503980869e+00	 2.691532705033813e-01	 1.482112671883662e+01
 1.547888342985106e+00	 2.828930814864292e-01	 1.481680411586287e+01
 1.545311120614868e+00	 2.966486577963034e-01	 1.481269700471282e+01
 1.542604102375442e+00	 3.104183338571770e-01	 1.480940153462791e+01
 1.539766579679564e+00	 3.242004220665801e-01	 1.480749611382937e+01
 1.536797870512107e+00	 3.379932132324981e-01	 1.480752861600839e+01
 1.533697320088152e+00	 3.517949770318198e-01	 1.481000229384821e+01
 1.530464301503676e+00	 3.656039624901167e-01	 1.481536033948151e+01
 1.527098216378146e+00	 3.794183984827072e-01	 1.482116725731395e+01
 1.523598495488259e+00	 3.932364942569337e-01	 1.481790329723239e+01
 1.519964599392081e+00	 4.070564399755509e-01	 1.480449709480901e+01
 1.559029500885329e+00	 2.706624580517230e-01	 1.475189365015780e+01
 1.556567612640379e+00	 2.844793104604115e-01	 1.474820374352199e+01
 1.553975939352105e+00	 2.983120165946605e-01	 1.474467234100145e+01
 1.551253742407366e+00	 3.121589015394983e-01	 1.474196202564279e+01
 1.548400309245738e+00	 3.260182682298032e-01	 1.474072529209973e+01
 1.545414954027930e+00	 3.398883978898523e-01	 1.474159187798440e+01
 1.542297018297540e+00	 3.537675504943419e-01	 1.474515477917719e+01
 1.539045871635399e+00	 3.676539652508549e-01	 1.475195488621096e+01
 1.535660912305761e+00	 3.815458611037352e-01	 1.475821863315282e+01
 1.532141567893601e+00	 3.954414372592944e-01	 1.475530969026958e+01
 1.528487295932251e+00	 4.093388737322460e-01	 1.474271097492339e+01
 1.567722497789690e+00	 2.721716455997967e-01	 1.468184080926550e+01
 1.565246882295545e+00	 2.860655394341532e-01	 1.467895775745096e+01
 1.562640758089232e+00	 2.999753753928205e-01	 1.467619510089390e+01
 1.559903382439181e+00	 3.138994692216772e-01	 1.467428941126770e+01
 1.557034038811805e+00	 3.278361143929458e-01	 1.467397429519804e+01
 1.554032037543648e+00	 3.417835825471916e-01	 1.467596784198783e+01
 1.550896716506826e+00	 3.557401239569126e-01	 1.468095873284521e+01
 1.547627441767019e+00	 3.697039680116990e-01	 1.468959094590521e+01
 1.544223608233268e+00	 3.836733237249167e-01	 1.469649092227837e+01
 1.540684640298826e+00	 3.976463802618416e-01	 1.469448758554841e+01
 1.537009992472289e+00	 4.116213074891404e-01	 1.468333129605498e+01
 1.576415494693854e+00	 2.736808331475863e-01	 1.461101771453484e+01
 1.573926151950498e+00	 2.876517684076353e-01	 1.460909938730161e+01
 1.571305576826140e+00	 3.016387341907649e-01	 1.460726913286146e+01
 1.568553022470778e+00	 3.156400369036998e-01	 1.460634481110696e+01
 1.565667768377662e+00	 3.296539605560009e-01	 1.460714791584819e+01
 1.562649121059167e+00	 3.436787672045165e-01	 1.461049113112573e+01
 1.559496414715924e+00	 3.577126974195415e-01	 1.461716452720839e+01
 1.556209011898460e+00	 3.717539707726680e-01	 1.462786055935938e+01
 1.552786304160604e+00	 3.858007863462778e-01	 1.463554652399580e+01
 1.549227712703878e+00	 3.998513232646058e-01	 1.463488627902825e+01
 1.545532689012145e+00	 4.139037412462675e-01	 1.462567974975311e+01
 1.585108491597720e+00	 2.751900206950757e-01	 1.453946462804156e+01
 1.582605421605131e+00	 2.892379973808384e-01	 1.453865331217034e+01
 1.579970395562720e+00	 3.033020929884759e-01	 1.453789075450890e+01
 1.577202662502051e+00	 3.173806045855524e-01	 1.453808314777811e+01
 1.574301497943207e+00	 3.314718067189618e-01	 1.454014639782592e+01
 1.571266204574391e+00	 3.455739518618284e-01	 1.454499378144705e+01
 1.568096112924747e+00	 3.596852708822387e-01	 1.455352222272819e+01
 1.564790582029647e+00	 3.738039735337799e-01	 1.456622614457097e+01
 1.561349000087700e+00	 3.879282489678443e-01	 1.457495696617582e+01
 1.557770785108700e+00	 4.020562662676186e-01	 1.457596692050518e+01
 1.554055385551768e+00	 4.161861750036604e-01	 1.456909291459586e+01
 1.593801488501192e+00	 2.766992082422489e-01	 1.446721302089214e+01
 1.591284691259338e+00	 2.908242263537434e-01	 1.446763614206496e+01
 1.588635214298862e+00	 3.049654517859350e-01	 1.446804924329790e+01
 1.585852302532892e+00	 3.191211722672210e-01	 1.446945363987885e+01
 1.582935227508338e+00	 3.332896528818207e-01	 1.447286592402346e+01
 1.579883288089227e+00	 3.474691365191284e-01	 1.447930571782940e+01
 1.576695811133212e+00	 3.616578443450141e-01	 1.448978202427816e+01
 1.573372152160505e+00	 3.758539762950537e-01	 1.450434614961779e+01
 1.569911696014492e+00	 3.900557115896419e-01	 1.451430292985619e+01
 1.566313857513235e+00	 4.042612092709107e-01	 1.451720247418930e+01
 1.562578082091108e+00	 4.184686087613524e-01	 1.451292214479705e+01
 1.477351116691019e+00	 3.956442711939038e-01	 1.517129727607265e+01
 1.473688191974681e+00	 4.090767843096721e-01	 1.515753286560013e+01
 1.469893896276274e+00	 4.225075250188132e-01	 1.514384992526802e+01
 1.465967797589340e+00	 4.359346831373429e-01	 1.512998218743003e+01
 1.461909495176767e+00	 4.493564322980735e-01	 1.511567340516854e+01
 1.457718620117905e+00	 4.627709305788975e-01	 1.510068344875253e+01
 1.453394835841910e+00	 4.761763211503487e-01	 1.508479411475576e+01
 1.448937838646586e+00	 4.895707329421396e-01	 1.506781458462701e+01
 1.444347358201994e+00	 5.029522813283457e-01	 1.504958646938097e+01
 1.439623158038130e+00	 5.163190688308801e-01	 1.502998837736362e+01
 1.434765036015943e+00	 5.296691858408672e-01	 1.500893994275539e+01
 1.485873813231091e+00	 3.979267049501003e-01	 1.508979983748618e+01
 1.482189757454407e+00	 4.114367089424172e-01	 1.507877658682481e+01
 1.478373572829083e+00	 4.249449303033787e-01	 1.507042722148121e+01
 1.474424824856452e+00	 4.384495484062021e-01	 1.506138516568103e+01
 1.470343110487583e+00	 4.519487263475422e-01	 1.505133646185283e+01
 1.466128058673551e+00	 4.654406115793988e-01	 1.504006531817545e+01
 1.461779330901862e+00	 4.789233365604130e-01	 1.502737410097956e+01
 1.457296621718283e+00	 4.923950194262511e-01	 1.501308898585597e+01
 1.452679659233362e+00	 5.058537646787410e-01	 1.499706518684359e+01
 1.447928205612917e+00	 5.192976638934051e-01	 1.497919169833931e+01
 1.443042057551770e+00	 5.327247964449955e-01	 1.495939548508266e+01
 1.494396509771284e+00	 4.002091387063300e-01	 1.501130296231324e+01
 1.490691322934210e+00	 4.137966335751939e-01	 1.499680558548636e+01
 1.486853249381933e+00	 4.273823355879717e-01	 1.498593621618633e+01
 1.482881852123574e+00	 4.409644136750840e-01	 1.497886335904134e+01
 1.478776725798381e+00	 4.545410203970290e-01	 1.497446845826774e+01
 1.474537497229151e+00	 4.681102925799150e-01	 1.496859255604475e+01
 1.470163825961741e+00	 4.816703519704926e-01	 1.496071172699737e+01
 1.465655404789880e+00	 4.952193059103833e-01	 1.495065141136064e+01
 1.461011960264602e+00	 5.087552480291690e-01	 1.493826400902469e+01
 1.456233253187544e+00	 5.222762589559825e-01	 1.492343384849449e+01
 1.451319079087398e+00	 5.357804070492050e-01	 1.490608158976711e+01
 1.502919206311548e+00	 4.024915724626263e-01	 1.493807702788723e+01
 1.499192888414045e+00	 4.161565582080342e-01	 1.492135496374510e+01
 1.495332925934780e+00	 4.298197408726190e-01	 1.490753378744036e+01
 1.491338879390661e+00	 4.434792789440071e-01	 1.489686252378615e+01
 1.487210341109111e+00	 4.571333144465414e-01	 1.488951628880785e+01
 1.482946935784657e+00	 4.707799735804412e-01	 1.488559502293527e+01
 1.478548321021499e+00	 4.844173673805686e-01	 1.488375808788484e+01
 1.474014187861330e+00	 4.980435923945019e-01	 1.487944218439149e+01
 1.469344261295668e+00	 5.116567313795788e-01	 1.487213617430987e+01
 1.464538300761969e+00	 5.252548540185451e-01	 1.486170483881983e+01
 1.459596100622796e+00	 5.388360176534135e-01	 1.484804905743717e+01
 1.511441902851829e+00	 4.047740062190222e-01	 1.486938296726509e+01
 1.507694453893865e+00	 4.185164828409695e-01	 1.485154724274988e+01
 1.503812602487579e+00	 4.322571461573475e-01	 1.483588978190785e+01
 1.499795906657667e+00	 4.459941442129894e-01	 1.482272260540265e+01
 1.495643956419731e+00	 4.597256084960870e-01	 1.481228234943207e+01
 1.491356374340022e+00	 4.734496545809723e-01	 1.480472882772422e+01
 1.486932816081087e+00	 4.871643827906212e-01	 1.480014387789401e+01
 1.482372970932584e+00	 5.008678788785714e-01	 1.479853051695009e+01
 1.477676562326512e+00	 5.145582147299196e-01	 1.479764294465542e+01
 1.472843348336149e+00	 5.282334490810264e-01	 1.479300185666705e+01
 1.467873122157928e+00	 5.418916282575386e-01	 1.478435446905448e+01
 1.519964599392081e+00	 4.070564399755509e-01	 1.480449709480901e+01
 1.516196019373624e+00	 4.208764074740315e-01	 1.478652361505738e+01
 1.512292279040284e+00	 4.346945514421832e-01	 1.477003011963300e+01
 1.508252933924546e+00	 4.485090094820496e-01	 1.475537446062440e+01
 1.504077571730192e+00	 4.623179025456737e-01	 1.474283864513441e+01
 1.499765812895198e+00	 4.761193355815033e-01	 1.473262726049929e+01
 1.495317311140457e+00	 4.899113982006308e-01	 1.472486619450357e+01
 1.490731754003591e+00	 5.036921653625575e-01	 1.471960167662434e+01
 1.486008863357089e+00	 5.174596980801405e-01	 1.471679966487114e+01
 1.481148395910044e+00	 5.312120441433594e-01	 1.471632902346025e+01
 1.476150143692762e+00	 5.449472388614981e-01	 1.471405999019249e+01
 1.528487295932251e+00	 4.093388737322460e-01	 1.474271097492339e+01
 1.524697584853275e+00	 4.232363321072520e-01	 1.472544373258398e+01
 1.520771955592850e+00	 4.371319567271527e-01	 1.470900193808791e+01
 1.516709961191254e+00	 4.510238747512060e-01	 1.469377246381498e+01
 1.512511187040448e+00	 4.649101965953087e-01	 1.468006687830843e+01
 1.508175251450137e+00	 4.787890165820285e-01	 1.466811976856685e+01
 1.503701806199560e+00	 4.926584136105780e-01	 1.465808736766378e+01
 1.499090537074308e+00	 5.065164518464248e-01	 1.465004651494408e+01
 1.494341164387353e+00	 5.203611814301908e-01	 1.464399397452368e+01
 1.489453443483610e+00	 5.341906392054776e-01	 1.463984613604205e+01
 1.484427165227262e+00	 5.480028494652097e-01	 1.463743911958180e+01
 1.537009992472289e+00	 4.116213074891404e-01	 1.468333129605498e+01
 1.533199150332770e+00	 4.255962567406624e-01	 1.466748550264342e+01
 1.529251632145231e+00	 4.395693620122826e-01	 1.465187332324464e+01
 1.525166988457745e+00	 4.535387400204767e-01	 1.463689418627918e+01
 1.520944802350455e+00	 4.675024906450000e-01	 1.462287374584063e+01
 1.516584690004791e+00	 4.814586975825433e-01	 1.461006213434340e+01
 1.512086301258349e+00	 4.954054290204439e-01	 1.459863253054792e+01
 1.507449320144682e+00	 5.093407383301388e-01	 1.458868007139574e+01
 1.502673465417256e+00	 5.232626647800198e-01	 1.458022113451263e+01
 1.497758491056808e+00	 5.371692342673142e-01	 1.457319301639717e+01
 1.492704186761395e+00	 5.510584600685913e-01	 1.456745402920231e+01
 1.545532689012145e+00	 4.139037412462675e-01	 1.462567974975311e+01
 1.541700715812064e+00	 4.279561813742943e-01	 1.461184489175684e+01
 1.537731308697385e+00	 4.420067672975994e-01	 1.459773305071293e+01
 1.533624015723975e+00	 4.560536052898805e-01	 1.458374008750840e+01
 1.529378417660164e+00	 4.700947846947551e-01	 1.457019059343579e+01
 1.524994128559113e+00	 4.841283785830425e-01	 1.455733610591982e+01
 1.520470796316772e+00	 4.981524444302082e-01	 1.454535364940569e+01
 1.515808103214667e+00	 5.121650248136645e-01	 1.453434463099752e+01
 1.511005766446753e+00	 5.261641481295766e-01	 1.452433411880686e+01
 1.506063538629595e+00	 5.401478293288025e-01	 1.451527052906699e+01
 1.500981208295128e+00	 5.541140706715605e-01	 1.450702574588125e+01
 1.554055385551768e+00	 4.161861750036604e-01	 1.456909291459586e+01
 1.550202281291109e+00	 4.303161060081796e-01	 1.455773573693853e+01
 1.546210985249265e+00	 4.444441725831297e-01	 1.454569033655915e+01
 1.542081042989899e+00	 4.585684705594355e-01	 1.453333321790221e+01
 1.537812032969530e+00	 4.726870787445818e-01	 1.452097308279896e+01
 1.533403567113055e+00	 4.867980595835208e-01	 1.450884904144048e+01
 1.528855291374783e+00	 5.008994598398521e-01	 1.449712915804828e+01
 1.524166886284214e+00	 5.149893112969672e-01	 1.448590936196228e+01
 1.519338067475797e+00	 5.290656314788104e-01	 1.447521275318076e+01
 1.514368586201928e+00	 5.431264243898751e-01	 1.446498932941629e+01
 1.509258229828425e+00	 5.571696812740350e-01	 1.445511615946624e+01
 1.562578082091108e+00	 4.184686087613524e-01	 1.451292214479705e+01
 1.558703846769861e+00	 4.326760306423498e-01	 1.450438956417030e+01
 1.554690661800825e+00	 4.468815778688999e-01	 1.449487459743592e+01
 1.550538070255469e+00	 4.610833358291598e-01	 1.448471893252867e+01
 1.546245648278505e+00	 4.752793727944876e-01	 1.447420087118336e+01
 1.541813005666570e+00	 4.894677405839732e-01	 1.446353356676977e+01
 1.537239786432334e+00	 5.036464752493558e-01	 1.445286360613095e+01
 1.532525669353274e+00	 5.178135977800120e-01	 1.444226996725226e+01
 1.527670368504342e+00	 5.319671148276703e-01	 1.443176338284673e+01
 1.522673633773767e+00	 5.461050194504661e-01	 1.442128613789957e+01
 1.517535251361254e+00	 5.602252918759326e-01	 1.441071232687331e+01
 1.434765036015943e+00	 5.296691858408672e-01	 1.500893994275539e+01
 1.429771964484384e+00	 5.430029760583268e-01	 1.498671633294682e+01
 1.424644624976097e+00	 5.563162352014722e-01	 1.496328975224911e+01
 1.419382919985196e+00	 5.696070201181342e-01	 1.493819367282150e+01
 1.413986788066745e+00	 5.828733785497976e-01	 1.491102526415484e+01
 1.408456204215545e+00	 5.961133499364961e-01	 1.488144680961994e+01
 1.402791180224236e+00	 6.093249662367151e-01	 1.484918624478150e+01
 1.396991765020092e+00	 6.225062527617111e-01	 1.481403677101093e+01
 1.391058044979909e+00	 6.356552290236296e-01	 1.477585550223689e+01
 1.384990144222398e+00	 6.487699095967792e-01	 1.473456110740899e+01
 1.378788224877522e+00	 6.618483049913858e-01	 1.469013041640673e+01
 1.443042057551770e+00	 5.327247964449955e-01	 1.495939548508265e+01
 1.438020181470444e+00	 5.461355080162867e-01	 1.493810605532054e+01
 1.432863262833292e+00	 5.595255700713999e-01	 1.491545344785388e+01
 1.427571203571930e+00	 5.728930282483168e-01	 1.489098257774960e+01
 1.422143941886962e+00	 5.862359190261399e-01	 1.486430289813321e+01
 1.416581452628946e+00	 5.995522705346319e-01	 1.483508991950691e+01
 1.410883747658562e+00	 6.128401033788453e-01	 1.480308582100126e+01
 1.405050876185350e+00	 6.260974314782569e-01	 1.476809910511029e+01
 1.399082925084413e+00	 6.393222629197791e-01	 1.473000325189703e+01
 1.392980019190502e+00	 6.525126008239998e-01	 1.468873433354649e+01
 1.386742321568902e+00	 6.656664442239804e-01	 1.464428755546852e+01
 1.451319079087398e+00	 5.357804070492050e-01	 1.490608158976711e+01
 1.446268398456265e+00	 5.492680399743678e-01	 1.488680145008127e+01
 1.441081900690200e+00	 5.627349049414969e-01	 1.486589652736652e+01
 1.435759487158325e+00	 5.761790363787239e-01	 1.484291860582147e+01
 1.430301095706789e+00	 5.895984595027685e-01	 1.481748500897620e+01
 1.424706701041903e+00	 6.029911911331179e-01	 1.478928023687000e+01
 1.418976315092390e+00	 6.163552405213902e-01	 1.475805666447076e+01
 1.413109987350058e+00	 6.296886101952824e-01	 1.472363425081714e+01
 1.407107805188320e+00	 6.429892968164693e-01	 1.468589921294005e+01
 1.400969894157965e+00	 6.562552920518180e-01	 1.464480162366964e+01
 1.394696418259602e+00	 6.694845834572226e-01	 1.460035189792609e+01
 1.459596100622796e+00	 5.388360176534135e-01	 1.484804905743717e+01
 1.454516615441825e+00	 5.524005719324726e-01	 1.483192632852077e+01
 1.449300538546812e+00	 5.659442398116526e-01	 1.481381610323961e+01
 1.443947770744394e+00	 5.794650445092336e-01	 1.479327245174579e+01
 1.438458249526254e+00	 5.929609999795480e-01	 1.476991615071547e+01
 1.432831949454466e+00	 6.064301117318081e-01	 1.474343645378336e+01
 1.427068882525793e+00	 6.198703776641961e-01	 1.471359189164263e+01
 1.421169098514310e+00	 6.332797889126242e-01	 1.468021004913775e+01
 1.415132685291742e+00	 6.466563307135295e-01	 1.464318627139951e+01
 1.408959769124917e+00	 6.599979832800562e-01	 1.460248125627536e+01
 1.402650514949769e+00	 6.733027226909291e-01	 1.455811749598091e+01
 1.467873122157928e+00	 5.418916282575386e-01	 1.478435446905448e+01
 1.462764832427099e+00	 5.555331038905043e-01	 1.477260859965737e+01
 1.457519176403125e+00	 5.691535746817571e-01	 1.475841168193381e+01
 1.452136054330145e+00	 5.827510526397216e-01	 1.474131547618695e+01
 1.446615403345389e+00	 5.963235404563441e-01	 1.472093978782395e+01
 1.440957197866686e+00	 6.098690323305578e-01	 1.469697438675770e+01
 1.435161449958843e+00	 6.233855148071071e-01	 1.466917992399020e+01
 1.429228209678199e+00	 6.368709676301186e-01	 1.463738779046852e+01
 1.423157565394793e+00	 6.503233646107893e-01	 1.460149886816926e+01
 1.416949644091493e+00	 6.637406745085374e-01	 1.456148112873680e+01
 1.410604611639553e+00	 6.771208619249164e-01	 1.451736604085223e+01
 1.476150143692762e+00	 5.449472388614981e-01	 1.471405999019249e+01
 1.471013049412068e+00	 5.586656358483663e-01	 1.470798012842261e+01
 1.465737814259127e+00	 5.723629095516990e-01	 1.469888507583713e+01
 1.460324337915590e+00	 5.860370607700659e-01	 1.468631967126521e+01
 1.454772557164222e+00	 5.996860809330222e-01	 1.466989831416887e+01
 1.449082446278614e+00	 6.133079529292218e-01	 1.464930704904291e+01
 1.443254017391610e+00	 6.269006519499691e-01	 1.462430461358411e+01
 1.437287320841819e+00	 6.404621463476019e-01	 1.459472239339536e+01
 1.431182445497588e+00	 6.539903985080776e-01	 1.456046323100516e+01
 1.424939519057823e+00	 6.674833657370838e-01	 1.452149904251647e+01
 1.418558708329102e+00	 6.809390011590023e-01	 1.447786720124040e+01
 1.484427165227262e+00	 5.480028494652097e-01	 1.463743911958180e+01
 1.479261266396708e+00	 5.617981678059614e-01	 1.463717660581782e+01
 1.473956452114813e+00	 5.755722444213687e-01	 1.463444032550817e+01
 1.468512621500738e+00	 5.893230689001427e-01	 1.462755763472781e+01
 1.462929710982784e+00	 6.030486214094474e-01	 1.461613307897438e+01
 1.457207694690301e+00	 6.167468735276552e-01	 1.459984472827010e+01
 1.451346584824168e+00	 6.304157890926269e-01	 1.457844537232500e+01
 1.445346432005262e+00	 6.440533250649119e-01	 1.455176258545661e+01
 1.439207325600238e+00	 6.576574324052227e-01	 1.451969760678261e+01
 1.432929394024040e+00	 6.712260569655181e-01	 1.448222298691175e+01
 1.426512805018568e+00	 6.847571403930037e-01	 1.443937895858334e+01
 1.492704186761395e+00	 5.510584600685913e-01	 1.456745402920231e+01
 1.487509483380995e+00	 5.649306997631929e-01	 1.456420755921007e+01
 1.482175089970177e+00	 5.787815792906554e-01	 1.456434480383304e+01
 1.476700905085600e+00	 5.926090770298296e-01	 1.456430255245405e+01
 1.471086864801106e+00	 6.064111618854858e-01	 1.455898441952170e+01
 1.465332943101795e+00	 6.201857941257121e-01	 1.454799506922493e+01
 1.459439152256588e+00	 6.339309262349258e-01	 1.453107730469268e+01
 1.453405543168622e+00	 6.476445037818844e-01	 1.450805108579284e+01
 1.447232205702859e+00	 6.613244663020543e-01	 1.447881249400024e+01
 1.440919268990278e+00	 6.749687481936627e-01	 1.444333142139055e+01
 1.434466901708098e+00	 6.885752796267373e-01	 1.440164793923119e+01
 1.500981208295128e+00	 5.541140706715605e-01	 1.450702574588125e+01
 1.495757700364910e+00	 5.680632317199641e-01	 1.450088309405002e+01
 1.490393727825208e+00	 5.819909141594484e-01	 1.449784790033542e+01
 1.484889188670185e+00	 5.958950851590029e-01	 1.449725949061547e+01
 1.479244018619216e+00	 6.097737023610023e-01	 1.449779170032700e+01
 1.473458191513149e+00	 6.236247147232478e-01	 1.449316316155512e+01
 1.467531719688943e+00	 6.374460633767114e-01	 1.448167134387403e+01
 1.461464654331994e+00	 6.512356824983567e-01	 1.446312478961167e+01
 1.455257085805564e+00	 6.649915001984019e-01	 1.443741087551952e+01
 1.448909143956669e+00	 6.787114394213397e-01	 1.440449355657130e+01
 1.442420998397841e+00	 6.923934188600199e-01	 1.436440974365804e+01
 1.509258229828425e+00	 5.571696812740350e-01	 1.445511615946624e+01
 1.504005917348429e+00	 5.711957636761779e-01	 1.444689349979543e+01
 1.498612365679901e+00	 5.852002490276377e-01	 1.444138179099521e+01
 1.493077472254505e+00	 5.991810932875401e-01	 1.443798184668670e+01
 1.487401172437143e+00	 6.131362428358620e-01	 1.443602030344473e+01
 1.481583439924415e+00	 6.270636353201173e-01	 1.443475267752974e+01
 1.475624287121304e+00	 6.409612005178288e-01	 1.442969439114227e+01
 1.469523765495467e+00	 6.548268612141651e-01	 1.441651495439738e+01
 1.463281965908466e+00	 6.686585340940939e-01	 1.439508845153243e+01
 1.456899018923344e+00	 6.824541306483726e-01	 1.436536963389987e+01
 1.450375095087947e+00	 6.962115580926687e-01	 1.432738927282487e+01
 1.517535251361254e+00	 5.602252918759326e-01	 1.441071232687331e+01
 1.512254134331529e+00	 5.743282956317375e-01	 1.440128613375076e+01
 1.506831003534249e+00	 5.884095838951129e-01	 1.439405397847084e+01
 1.501265755838570e+00	 6.024671014153181e-01	 1.438847709878440e+01
 1.495558326254919e+00	 6.164987833099306e-01	 1.438393875553536e+01
 1.489708688335641e+00	 6.305025559161748e-01	 1.437974725966382e+01
 1.483716854553744e+00	 6.444763376581230e-01	 1.437513957301362e+01
 1.477582876659139e+00	 6.584180399291462e-01	 1.436774738779883e+01
 1.471306846011681e+00	 6.723255679889599e-01	 1.435143387274820e+01
 1.464888893890439e+00	 6.861968218745834e-01	 1.432561120407316e+01
 1.458329191778564e+00	 7.000296973245008e-01	 1.429030105180273e+01
 1.378788224877522e+00	 6.618483049913858e-01	 1.469013041640674e+01
 1.372453575486838e+00	 6.748862092136243e-01	 1.464450552162903e+01
 1.365985391161689e+00	 6.878838539695299e-01	 1.459971037354362e+01
 1.359383948333416e+00	 7.008392432308417e-01	 1.455597832658432e+01
 1.352649562260090e+00	 7.137503804864426e-01	 1.451362897587807e+01
 1.345782587173836e+00	 7.266152696671558e-01	 1.447305959504332e+01
 1.338783416402234e+00	 7.394319160785153e-01	 1.443473540207934e+01
 1.331652482463453e+00	 7.521983273406829e-01	 1.439476222548229e+01
 1.324390257134714e+00	 7.649125143346539e-01	 1.434796088544199e+01
 1.316997251493802e+00	 7.775724921538925e-01	 1.429607953626985e+01
 1.309474015933302e+00	 7.901762810605032e-01	 1.424104968367105e+01
 1.386742321568902e+00	 6.656664442239804e-01	 1.464428755546852e+01
 1.380371128194650e+00	 6.787795628619303e-01	 1.459906172315974e+01
 1.373865629535772e+00	 6.918521897805751e-01	 1.455547872682734e+01
 1.367226103618319e+00	 7.048823174367571e-01	 1.451370837580025e+01
 1.360452867519065e+00	 7.178679378016770e-01	 1.447401409961905e+01
 1.353546277513669e+00	 7.308070432910249e-01	 1.443674431504915e+01
 1.346506729198790e+00	 7.436976277031334e-01	 1.440200165712141e+01
 1.339334657587757e+00	 7.565376871643147e-01	 1.436247583904622e+01
 1.332030537179435e+00	 7.693252210805265e-01	 1.431620349514344e+01
 1.324594881999977e+00	 7.820582330944966e-01	 1.426496902474021e+01
 1.317028245617134e+00	 7.947347320474100e-01	 1.421069328399541e+01
 1.394696418259602e+00	 6.694845834572226e-01	 1.460035189792609e+01
 1.388288680901750e+00	 6.826729165109249e-01	 1.455546165251015e+01
 1.381745867909117e+00	 6.958205255923418e-01	 1.451302197801244e+01
 1.375068258902466e+00	 7.089253916434194e-01	 1.447315866258147e+01
 1.368256172777272e+00	 7.219854951176778e-01	 1.443609811606375e+01
 1.361309967852731e+00	 7.349988169156747e-01	 1.440215863311168e+01
 1.354230041994578e+00	 7.479633393285418e-01	 1.436977631943153e+01
 1.347016832711303e+00	 7.608770469887427e-01	 1.433050111621933e+01
 1.339670817223418e+00	 7.737379278271983e-01	 1.428471682001830e+01
 1.332192512505436e+00	 7.865439740359003e-01	 1.423420244553619e+01
 1.324582475300281e+00	 7.992931830351171e-01	 1.418088202954074e+01
 1.402650514949769e+00	 6.733027226909291e-01	 1.455811749598091e+01
 1.396206233608299e+00	 6.865662701604206e-01	 1.451356952872681e+01
 1.389626106281897e+00	 6.997888614046390e-01	 1.447226268452890e+01
 1.382910414186040e+00	 7.129684658506356e-01	 1.443429791484216e+01
 1.376059478034899e+00	 7.261030524342491e-01	 1.439988343063823e+01
 1.369073658191210e+00	 7.391905905409075e-01	 1.436932582886505e+01
 1.361953354789785e+00	 7.522290509545413e-01	 1.433788821194133e+01
 1.354699007834274e+00	 7.652164068137669e-01	 1.429872811578524e+01
 1.347311097266834e+00	 7.781506345744689e-01	 1.425338231288119e+01
 1.339790143010344e+00	 7.910297149779046e-01	 1.420363840621102e+01
 1.332136704982894e+00	 8.038516340234235e-01	 1.415143707183472e+01
 1.410604611639553e+00	 6.771208619249164e-01	 1.451736604085223e+01
 1.404123786314461e+00	 6.904596238102296e-01	 1.447323531989784e+01
 1.397506344654285e+00	 7.037571972172749e-01	 1.443310749198528e+01
 1.390752569469218e+00	 7.170115400582103e-01	 1.439707752383732e+01
 1.383862783292130e+00	 7.302206097511948e-01	 1.436535393020242e+01
 1.376837348529294e+00	 7.433823641665254e-01	 1.433795847424593e+01
 1.369676667584597e+00	 7.564947625809333e-01	 1.430621625184238e+01
 1.362381182956852e+00	 7.695557666391879e-01	 1.426704179296905e+01
 1.354951377309859e+00	 7.825633413221388e-01	 1.422207736998216e+01
 1.347387773514863e+00	 7.955154559203084e-01	 1.417313276126833e+01
 1.339690934665124e+00	 8.084100850121306e-01	 1.412217837235473e+01
 1.418558708329102e+00	 6.809390011590023e-01	 1.447786720124040e+01
 1.412041339020397e+00	 6.943529774601643e-01	 1.443429513112447e+01
 1.405386583026458e+00	 7.077255330300590e-01	 1.439544756397652e+01
 1.398594724752184e+00	 7.210546142659503e-01	 1.436143200791968e+01
 1.391666088549151e+00	 7.343381670683184e-01	 1.433247547265843e+01
 1.384601038867169e+00	 7.475741377923304e-01	 1.430694042864267e+01
 1.377399980379199e+00	 7.607604742075187e-01	 1.427463486900351e+01
 1.370063358079217e+00	 7.738951264648061e-01	 1.423532343342558e+01
 1.362591657352667e+00	 7.869760480700073e-01	 1.419067678006691e+01
 1.354985404019159e+00	 8.000011968629120e-01	 1.414254006684300e+01
 1.347245164347121e+00	 8.129685360010375e-01	 1.409292615316299e+01
 1.426512805018568e+00	 6.847571403930037e-01	 1.443937895858334e+01
 1.419958891726272e+00	 6.982463311100371e-01	 1.439657158765649e+01
 1.413266821398584e+00	 7.116938688427993e-01	 1.435915900566594e+01
 1.406436880035119e+00	 7.250976884736610e-01	 1.432727946892906e+01
 1.399469393806150e+00	 7.384557243854234e-01	 1.430119636830571e+01
 1.392364729205024e+00	 7.517659114181249e-01	 1.427603183304181e+01
 1.385123293173778e+00	 7.650261858340986e-01	 1.424301540640129e+01
 1.377745533201551e+00	 7.782344862904220e-01	 1.420345207788887e+01
 1.370231937395432e+00	 7.913887548178756e-01	 1.415905416429408e+01
 1.362583034523394e+00	 8.044869378055158e-01	 1.411171502672078e+01
 1.354799394029036e+00	 8.175269869899446e-01	 1.406350233965641e+01
 1.434466901708098e+00	 6.885752796267373e-01	 1.440164793923119e+01
 1.427876444432247e+00	 7.021396847596603e-01	 1.435987421337859e+01
 1.421147059770840e+00	 7.156622046553046e-01	 1.432410328138431e+01
 1.414279035318203e+00	 7.291407626811482e-01	 1.429452204150162e+01
 1.407272699063309e+00	 7.425732817023141e-01	 1.427129257426368e+01
 1.400128419543044e+00	 7.559576850437106e-01	 1.424508127509258e+01
 1.392846605968520e+00	 7.692918974604742e-01	 1.421122751165352e+01
 1.385427708324037e+00	 7.825738461158362e-01	 1.417130593784301e+01
 1.377872217438328e+00	 7.958014615655431e-01	 1.412708340736295e+01
 1.370180665027733e+00	 8.089726787479194e-01	 1.408051393003237e+01
 1.362353623711018e+00	 8.220854379786513e-01	 1.403373199573405e+01
 1.442420998397841e+00	 6.923934188600199e-01	 1.436440974365804e+01
 1.435793997138486e+00	 7.060330384088467e-01	 1.432399980482825e+01
 1.429027298143399e+00	 7.196305404673842e-01	 1.429012762647556e+01
 1.422121190601619e+00	 7.331838368882182e-01	 1.426304633557218e+01
 1.415076004320817e+00	 7.466908390187935e-01	 1.424151523084183e+01
 1.407892109881419e+00	 7.601494586688904e-01	 1.421393635603077e+01
 1.400569918763610e+00	 7.735576090864466e-01	 1.417914051999699e+01
 1.393109883446856e+00	 7.869132059408491e-01	 1.413876380256065e+01
 1.385512497481530e+00	 8.002141683128107e-01	 1.409464008018919e+01
 1.377778295532340e+00	 8.134584196899231e-01	 1.404879608094087e+01
 1.369907853393219e+00	 8.266438889669586e-01	 1.400344475167420e+01
 1.450375095087947e+00	 6.962115580926687e-01	 1.432738927282487e+01
 1.443711549845151e+00	 7.099263920574083e-01	 1.428873280091658e+01
 1.436907536516434e+00	 7.235988762788464e-01	 1.425706545361250e+01
 1.429963345885546e+00	 7.372269110946765e-01	 1.423272387233126e+01
 1.422879309578859e+00	 7.508083963346656e-01	 1.421145705997968e+01
 1.415655800220335e+00	 7.643412322934658e-01	 1.418244503347461e+01
 1.408293231559236e+00	 7.778233207118169e-01	 1.414662482903793e+01
 1.400792058570189e+00	 7.912525657652609e-01	 1.410570643783788e+01
 1.393152777525212e+00	 8.046268750594778e-01	 1.406160285445192e+01
 1.385375926037378e+00	 8.179441606313270e-01	 1.401642522062932e+01
 1.377462083075788e+00	 8.312023399546654e-01	 1.397247622499964e+01
 1.458329191778564e+00	 7.000296973245008e-01	 1.429030105180273e+01
 1.451629102552406e+00	 7.138197457051577e-01	 1.425384564851632e+01
 1.444787774890119e+00	 7.275672120895003e-01	 1.422473675379174e+01
 1.437805501170166e+00	 7.412699853003292e-01	 1.420339648538559e+01
 1.430682614837620e+00	 7.549259536497341e-01	 1.418093306622553e+01
 1.423419490559979e+00	 7.685330059172392e-01	 1.415045695661044e+01
 1.416016544355583e+00	 7.820890323363864e-01	 1.411355326558526e+01
 1.408474233694218e+00	 7.955919255888726e-01	 1.407201797674171e+01
 1.400793057569549e+00	 8.090395818053450e-01	 1.402785490932063e+01
 1.392973556543012e+00	 8.224299015719309e-01	 1.398327094188046e+01
 1.385016312758878e+00	 8.357607909415733e-01	 1.394066943459655e+01
 1.309474015933302e+00	 7.901762810605032e-01	 1.424104968367105e+01
 1.301821140463702e+00	 8.027219076951697e-01	 1.417889181777128e+01
 1.294039255616013e+00	 8.152074068055490e-01	 1.410588772223919e+01
 1.286129031413138e+00	 8.276308214869168e-01	 1.402452378574493e+01
 1.278091176953135e+00	 8.399902039001789e-01	 1.393737253524204e+01
 1.269926440281931e+00	 8.522836162359335e-01	 1.384707840060127e+01
 1.261635608237728e+00	 8.645091316774267e-01	 1.375634215974995e+01
 1.253219506267087e+00	 8.766648353614377e-01	 1.366790408570114e+01
 1.244678998212643e+00	 8.887488253361341e-01	 1.358452582595304e+01
 1.236014986072517e+00	 9.007592135149234e-01	 1.350897105398833e+01
 1.227228409731459e+00	 9.126941266253302e-01	 1.344398494192577e+01
 1.317028245617134e+00	 7.947347320474100e-01	 1.421069328399541e+01
 1.309331221445109e+00	 8.073527331958290e-01	 1.414935169260389e+01
 1.301504443652370e+00	 8.199102599500554e-01	 1.407722541708232e+01
 1.293548586127093e+00	 8.324053441161684e-01	 1.399686615666474e+01
 1.285464362058033e+00	 8.448360266181746e-01	 1.391091477782197e+01
 1.277252523806497e+00	 8.572003584676333e-01	 1.382208682430887e+01
 1.268913862749860e+00	 8.694964017321672e-01	 1.373315665498865e+01
 1.260449209096579e+00	 8.817222305018921e-01	 1.364694023035129e+01
 1.251859431672694e+00	 8.938759318527958e-01	 1.356627657807550e+01
 1.243145437679840e+00	 9.059556068060929e-01	 1.349400797756903e+01
 1.234308172424851e+00	 9.179593712825771e-01	 1.343295891309767e+01
 1.324582475300281e+00	 7.992931830351171e-01	 1.418088202954074e+01
 1.316841302425870e+00	 8.119835586972877e-01	 1.412064928835394e+01
 1.308969631688123e+00	 8.246131130953608e-01	 1.404972407941627e+01
 1.300968140840490e+00	 8.371798667462164e-01	 1.397070090905038e+01
 1.292837547162419e+00	 8.496818493369616e-01	 1.388626672642624e+01
 1.284578607330597e+00	 8.621171007001166e-01	 1.379918621313406e+01
 1.276192117261567e+00	 8.744836717876796e-01	 1.371228564616823e+01
 1.267678911925683e+00	 8.867796256431015e-01	 1.362843535467357e+01
 1.259039865132385e+00	 8.990030383701902e-01	 1.355053080057838e+01
 1.250275889286823e+00	 9.111520000979663e-01	 1.348147232317512e+01
 1.241387935117909e+00	 9.232246159404913e-01	 1.342414359774178e+01
 1.332136704982894e+00	 8.038516340234235e-01	 1.415143707183472e+01
 1.324351383406119e+00	 8.166143841993467e-01	 1.409256066537777e+01
 1.316434819723388e+00	 8.293159662412655e-01	 1.402311444969042e+01
 1.308387695553425e+00	 8.419543893768620e-01	 1.394571353085016e+01
 1.300210732266370e+00	 8.545276720563417e-01	 1.386306899078757e+01
 1.291904690854288e+00	 8.670338429331873e-01	 1.377797299053806e+01
 1.283470371772889e+00	 8.794709418437703e-01	 1.369328239085057e+01
 1.274908614754424e+00	 8.918370207848774e-01	 1.361190090984037e+01
 1.266220298591729e+00	 9.041301448881338e-01	 1.353675984748896e+01
 1.257406340893468e+00	 9.163483933903669e-01	 1.347079741709539e+01
 1.248467697810633e+00	 9.284898605989058e-01	 1.341693673418401e+01
 1.339690934665124e+00	 8.084100850121306e-01	 1.412217837235473e+01
 1.331861464385989e+00	 8.212452097018050e-01	 1.406486235410828e+01
 1.323900007758282e+00	 8.340188193875695e-01	 1.399712932403382e+01
 1.315807250265996e+00	 8.467289120079050e-01	 1.392159306592866e+01
 1.307583917369962e+00	 8.593734947761186e-01	 1.384096714079565e+01
 1.299230774377627e+00	 8.719505851666497e-01	 1.375804983798120e+01
 1.290748626283865e+00	 8.844582119002470e-01	 1.367570758588163e+01
 1.282138317582823e+00	 8.968944159270301e-01	 1.359685684113150e+01
 1.273400732050734e+00	 9.092572514064431e-01	 1.352444448566613e+01
 1.264536792499779e+00	 9.215447866831195e-01	 1.346142677171912e+01
 1.255547460503024e+00	 9.337551052576544e-01	 1.341074686559754e+01
 1.347245164347121e+00	 8.129685360010375e-01	 1.409292615316298e+01
 1.339371545365616e+00	 8.258760352044638e-01	 1.403733279641016e+01
 1.331365195792919e+00	 8.387216725340733e-01	 1.397150498579011e+01
 1.323226804978296e+00	 8.515034346391478e-01	 1.389803353543878e+01
 1.314957102473272e+00	 8.642193174960928e-01	 1.381961311756229e+01
 1.306556857900669e+00	 8.768673274003077e-01	 1.373902709574094e+01
 1.298026880794533e+00	 8.894454819569168e-01	 1.365913075822346e+01
 1.289368020410903e+00	 9.019518110693714e-01	 1.358283296924743e+01
 1.280581165509415e+00	 9.143843579249360e-01	 1.351307626727148e+01
 1.271667244105759e+00	 9.267411799760478e-01	 1.345281545005007e+01
 1.262627223195081e+00	 9.390203499165696e-01	 1.340499469765649e+01
 1.354799394029036e+00	 8.175269869899446e-01	 1.406350233965640e+01
 1.346881626345133e+00	 8.305068607071227e-01	 1.400975377996471e+01
 1.338830383827416e+00	 8.434245256805770e-01	 1.394598263098341e+01
 1.330646359690425e+00	 8.562779572703907e-01	 1.387473535400245e+01
 1.322330287576376e+00	 8.690651402160674e-01	 1.379866664014286e+01
 1.313882941423474e+00	 8.817840696339661e-01	 1.372052416019195e+01
 1.305305135304933e+00	 8.944327520135860e-01	 1.364313165300822e+01
 1.296597723238691e+00	 9.070092062117130e-01	 1.356937036955130e+01
 1.287761598967780e+00	 9.195114644434285e-01	 1.350215890081271e+01
 1.278797695711410e+00	 9.319375732689762e-01	 1.344443142936666e+01
 1.269706985886806e+00	 9.442855945754851e-01	 1.339911445583406e+01
 1.362353623711018e+00	 8.220854379786513e-01	 1.403373199573405e+01
 1.354391707324675e+00	 8.351376862095812e-01	 1.398191186595491e+01
 1.346295571861889e+00	 8.481273788268814e-01	 1.392030978794996e+01
 1.338065914402476e+00	 8.610524799014340e-01	 1.385140674090018e+01
 1.329703472679351e+00	 8.739109629358442e-01	 1.377779660807961e+01
 1.321209024946097e+00	 8.867008118674287e-01	 1.370217087768467e+01
 1.312583389815104e+00	 8.994200220700627e-01	 1.362730161892330e+01
 1.303827426066207e+00	 9.120666013538659e-01	 1.355602274932011e+01
 1.294942032425843e+00	 9.246385709617381e-01	 1.349120962081399e+01
 1.285928147316737e+00	 9.371339665617289e-01	 1.343575696406214e+01
 1.276786748578197e+00	 9.495508392342334e-01	 1.339255524235482e+01
 1.369907853393219e+00	 8.266438889669586e-01	 1.400344475167421e+01
 1.361901788304375e+00	 8.397685117116401e-01	 1.395359981030665e+01
 1.353760759896453e+00	 8.528302319727858e-01	 1.389424173135937e+01
 1.345485469114547e+00	 8.658270025320798e-01	 1.382776512646252e+01
 1.337076657782270e+00	 8.787567856552245e-01	 1.375668249992771e+01
 1.328535108468596e+00	 8.916175541004997e-01	 1.368360893515321e+01
 1.319861644325085e+00	 9.044072921261535e-01	 1.361124499102629e+01
 1.311057128893476e+00	 9.171239964956415e-01	 1.354235782307905e+01
 1.302122465883613e+00	 9.297656774796815e-01	 1.347976055616683e+01
 1.293058598921742e+00	 9.423303598541299e-01	 1.342628994769323e+01
 1.283866511269256e+00	 9.548160838926484e-01	 1.338478239281786e+01
 1.377462083075788e+00	 8.312023399546654e-01	 1.397247622499964e+01
 1.369411869284369e+00	 8.443993372130992e-01	 1.392461797873347e+01
 1.361225947931225e+00	 8.575330851180918e-01	 1.386754289083973e+01
 1.352905023826734e+00	 8.706015251621280e-01	 1.380353855384320e+01
 1.344449842885214e+00	 8.836026083740119e-01	 1.373501576791806e+01
 1.335861191991027e+00	 8.965342963329830e-01	 1.366449324757628e+01
 1.327139898834915e+00	 9.093945621816663e-01	 1.359458047109107e+01
 1.318286831720522e+00	 9.221813916368512e-01	 1.352795868609369e+01
 1.309302899341102e+00	 9.348927839970761e-01	 1.346736009720926e+01
 1.300189050526428e+00	 9.475267531460032e-01	 1.341554527426981e+01
 1.290946273959983e+00	 9.600813285505631e-01	 1.337527883249891e+01
 1.385016312758878e+00	 8.357607909415733e-01	 1.394066943459655e+01
 1.376921950264790e+00	 8.490301627137588e-01	 1.389477575581862e+01
 1.368691135966320e+00	 8.622359382625984e-01	 1.383998825441035e+01
 1.360324578539134e+00	 8.753760477913800e-01	 1.377846707635259e+01
 1.351823027988257e+00	 8.884484310920081e-01	 1.371250122890082e+01
 1.343187275513448e+00	 9.014510385646831e-01	 1.364449334241058e+01
 1.334418153344632e+00	 9.143818322364075e-01	 1.357694250557537e+01
 1.325516534547367e+00	 9.272387867773062e-01	 1.351242518608849e+01
 1.316483332798322e+00	 9.400198905137382e-01	 1.345357426158225e+01
 1.307319502130800e+00	 9.527231464371733e-01	 1.340305619881114e+01
 1.298026036650376e+00	 9.653465732078103e-01	 1.336354643234649e+01
 1.227228409731459e+00	 9.126941266253302e-01	 1.344398494192577e+01
 1.218318722741866e+00	 9.245537152568284e-01	 1.338006156497915e+01
 1.209288427971361e+00	 9.363340964839008e-01	 1.330649042007249e+01
 1.200138582671100e+00	 9.480334393840433e-01	 1.322401209258885e+01
 1.190870280673080e+00	 9.596499315567852e-01	 1.313316127449110e+01
 1.181484651980107e+00	 9.711817800374664e-01	 1.303424383150464e+01
 1.171982862328630e+00	 9.826272122003074e-01	 1.292731332918241e+01
 1.162366112724793e+00	 9.939844766498344e-01	 1.281214712605611e+01
 1.152635638954060e+00	 1.005251844099736e+00	 1.268822214945036e+01
 1.142792711064822e+00	 1.016427608238230e+00	 1.255469047641075e+01
 1.132838632826431e+00	 1.027510086579036e+00	 1.241035484851581e+01
 1.234308172424851e+00	 9.179593712825771e-01	 1.343295891309768e+01
 1.225347086307702e+00	 9.298873767404560e-01	 1.337291591653010e+01
 1.216264696634833e+00	 9.417357178539901e-01	 1.330241055019221e+01
 1.207062066756604e+00	 9.535025531382606e-01	 1.322219163893330e+01
 1.197740296815246e+00	 9.651860597372364e-01	 1.313280449176805e+01
 1.188300523332462e+00	 9.767844343428165e-01	 1.303456734247240e+01
 1.178743918769747e+00	 9.882958941031162e-01	 1.292754720221102e+01
 1.169071691061755e+00	 9.997186775190332e-01	 1.281153523521346e+01
 1.159285083123101e+00	 1.011051045328170e+00	 1.268602177623537e+01
 1.149385372328986e+00	 1.022291281375197e+00	 1.255017111574440e+01
 1.139373869970101e+00	 1.033437693467736e+00	 1.240279618540766e+01
 1.241387935117909e+00	 9.232246159404913e-01	 1.342414359774179e+01
 1.232375449873197e+00	 9.352210382247070e-01	 1.336764850496163e+01
 1.223240965297948e+00	 9.471373392246524e-01	 1.329982534751690e+01
 1.213985550841725e+00	 9.589716668929941e-01	 1.322147191011706e+01
 1.204610312956998e+00	 9.707221879181396e-01	 1.313318610106890e+01
 1.195116394684370e+00	 9.823870886485513e-01	 1.303534169981973e+01
 1.185504975210384e+00	 9.939645760062389e-01	 1.292806346611943e+01
 1.175777269398207e+00	 1.005452878388470e+00	 1.281120172476865e+01
 1.165934527291609e+00	 1.016850246556763e+00	 1.268430654799930e+01
 1.155978033592601e+00	 1.028154954512245e+00	 1.254660166508069e+01
 1.145909107113222e+00	 1.039365300356437e+00	 1.239695823571721e+01
 1.248467697810633e+00	 9.284898605989058e-01	 1.341693673418402e+01
 1.239403813438355e+00	 9.405546997094260e-01	 1.336362959178390e+01
 1.230217233960716e+00	 9.525389605957433e-01	 1.329809074149841e+01
 1.220909034926485e+00	 9.644407806481131e-01	 1.322120705169687e+01
 1.211480329098371e+00	 9.762583160993819e-01	 1.313367041539056e+01
 1.201932266035883e+00	 9.879897429545742e-01	 1.303595273851786e+01
 1.192266031650608e+00	 9.996332579095951e-01	 1.292828023583154e+01
 1.182482847734234e+00	 1.011187079258084e+00	 1.281060715144147e+01
 1.172583971459682e+00	 1.022649447785477e+00	 1.268258902951774e+01
 1.162570694855779e+00	 1.034018627649354e+00	 1.254355566857455e+01
 1.152444344255910e+00	 1.045292907245138e+00	 1.239248390006005e+01
 1.255547460503024e+00	 9.337551052576544e-01	 1.341074686559754e+01
 1.246432177003179e+00	 9.458883611944567e-01	 1.336024057941424e+01
 1.237193502623148e+00	 9.579405819671213e-01	 1.329657374269584e+01
 1.227832519010907e+00	 9.699098944034904e-01	 1.322076184899529e+01
 1.218350345239403e+00	 9.817944442808502e-01	 1.313363157945875e+01
 1.208748137387051e+00	 9.935923972607894e-01	 1.303579496589753e+01
 1.199027088090488e+00	 1.005301939813108e+00	 1.292762280379507e+01
 1.189188426069918e+00	 1.016921280127817e+00	 1.280921743552764e+01
 1.179233415627417e+00	 1.028448649014271e+00	 1.268038503291506e+01
 1.169163356118627e+00	 1.039882300786502e+00	 1.254060751650993e+01
 1.158979581398281e+00	 1.051220514133840e+00	 1.238901425669973e+01
 1.262627223195081e+00	 9.390203499165696e-01	 1.340499469765649e+01
 1.253460540567672e+00	 9.512220226796436e-01	 1.335687536663084e+01
 1.244169771285253e+00	 9.633422033386418e-01	 1.329465380383599e+01
 1.234756003095011e+00	 9.753790081589960e-01	 1.321951310116224e+01
 1.225220361380129e+00	 9.873305724624319e-01	 1.313245496376758e+01
 1.215564008737927e+00	 9.991950515671001e-01	 1.303427298221952e+01
 1.205788144530093e+00	 1.010970621716699e+00	 1.292552509321034e+01
 1.195894004405344e+00	 1.022655480997609e+00	 1.280650535248649e+01
 1.185882859794912e+00	 1.034247850243104e+00	 1.267721515287481e+01
 1.175756017381255e+00	 1.045745973923671e+00	 1.253733402896435e+01
 1.165514818540451e+00	 1.057148121022542e+00	 1.238619019805660e+01
 1.269706985886806e+00	 9.442855945754851e-01	 1.339911445583406e+01
 1.260488904131836e+00	 9.565556841648301e-01	 1.335294170396849e+01
 1.251146039947044e+00	 9.687438247101628e-01	 1.329172418081263e+01
 1.241679487178819e+00	 9.808481219145021e-01	 1.321685099488168e+01
 1.232090377520585e+00	 9.928667006440136e-01	 1.312953855769399e+01
 1.222379880088564e+00	 1.004797705873412e+00	 1.303080289948998e+01
 1.212549200969489e+00	 1.016639303620289e+00	 1.292143110842681e+01
 1.202599582740595e+00	 1.028389681867401e+00	 1.280195202038340e+01
 1.192532303962266e+00	 1.040047051471937e+00	 1.267260629617499e+01
 1.182348678643772e+00	 1.051609647060840e+00	 1.253331603206403e+01
 1.172050055682539e+00	 1.063075727911243e+00	 1.238365405788711e+01
 1.276786748578197e+00	 9.495508392342334e-01	 1.339255524235482e+01
 1.267517267695675e+00	 9.618893456498609e-01	 1.334786254905823e+01
 1.258122308608529e+00	 9.741454460815405e-01	 1.328719329362467e+01
 1.248602971262355e+00	 9.863172356698795e-01	 1.321218047773647e+01
 1.238960393660808e+00	 9.984028288254821e-01	 1.312429436172358e+01
 1.229195751439012e+00	 1.010400360179626e+00	 1.302481375858784e+01
 1.219310257408746e+00	 1.022307985523802e+00	 1.291479638261599e+01
 1.209305161075755e+00	 1.034123882737134e+00	 1.279504838334810e+01
 1.199181748129577e+00	 1.045846252700731e+00	 1.266609320577186e+01
 1.188941339906288e+00	 1.057473320197989e+00	 1.252813992712075e+01
 1.178585292824659e+00	 1.069003334799945e+00	 1.238105122949567e+01
 1.283866511269256e+00	 9.548160838926484e-01	 1.338478239281786e+01
 1.274545631259191e+00	 9.672230071345801e-01	 1.334107742191179e+01
 1.265098577269720e+00	 9.795470674526320e-01	 1.328048608725800e+01
 1.255526455345638e+00	 9.917863494249991e-01	 1.320492263124453e+01
 1.245830409800833e+00	 1.003938957006725e+00	 1.311614977882298e+01
 1.236011622789324e+00	 1.016003014485649e+00	 1.301574894477192e+01
 1.226071313847931e+00	 1.027976667427159e+00	 1.290508942282571e+01
 1.216010739410909e+00	 1.039858083606749e+00	 1.278529669120407e+01
 1.205831192296940e+00	 1.051645453929444e+00	 1.265721997963654e+01
 1.195534001168910e+00	 1.063336993335098e+00	 1.252139925292214e+01
 1.185120529966928e+00	 1.074930941688647e+00	 1.237803177532467e+01
 1.290946273959983e+00	 9.600813285505631e-01	 1.337527883249891e+01
 1.281573994822387e+00	 9.725566686188315e-01	 1.333204376015403e+01
 1.272074845930627e+00	 9.849486888232941e-01	 1.327104539250982e+01
 1.262449939428692e+00	 9.972554631797322e-01	 1.319451604357797e+01
 1.252700425940696e+00	 1.009475085187628e+00	 1.310454900498880e+01
 1.242827494139551e+00	 1.021605668791384e+00	 1.300306760162655e+01
 1.232832370287113e+00	 1.033645349330281e+00	 1.289179315251718e+01
 1.222716317746139e+00	 1.045592284476185e+00	 1.277221197541504e+01
 1.212480636464455e+00	 1.057444655158037e+00	 1.264554158455423e+01
 1.202126662431749e+00	 1.069200666472146e+00	 1.251269624144138e+01
 1.191655767109463e+00	 1.080858548577347e+00	 1.237425202825665e+01
 1.298026036650376e+00	 9.653465732078103e-01	 1.336354643234649e+01
 1.288602358385265e+00	 9.778903301024591e-01	 1.332023827420274e+01
 1.279051114591260e+00	 9.903503101933834e-01	 1.325833328675926e+01
 1.269373423511538e+00	 1.002724576933950e+00	 1.318041818197819e+01
 1.259570442080433e+00	 1.015011213368079e+00	 1.308895441900780e+01
 1.249643365489745e+00	 1.027208323096735e+00	 1.298624604350809e+01
 1.239593426726359e+00	 1.039314031233090e+00	 1.287440635168070e+01
 1.229421896081530e+00	 1.051326485345384e+00	 1.275532352148912e+01
 1.219130080632221e+00	 1.063243856386471e+00	 1.263062536507097e+01
 1.208719323694913e+00	 1.075064339609113e+00	 1.250164336721708e+01
 1.198191004252381e+00	 1.086786155466048e+00	 1.236937618494350e+01
 1.132838632826431e+00	 1.027510086579036e+00	 1.241035484851581e+01
 1.122776458105517e+00	 1.038495764766839e+00	 1.226480412678669e+01
 1.112605858161041e+00	 1.049384918001987e+00	 1.212944359894536e+01
 1.102328215784825e+00	 1.060175958953205e+00	 1.200334520509188e+01
 1.091944945054995e+00	 1.070867327338678e+00	 1.188396898543680e+01
 1.081457490683039e+00	 1.081457490683039e+00	 1.177212562917548e+01
 1.070867327338677e+00	 1.091944945054995e+00	 1.166858381495262e+01
 1.060175958953205e+00	 1.102328215784825e+00	 1.157400278645685e+01
 1.049384918001987e+00	 1.112605858161041e+00	 1.148843220782894e+01
 1.038495764766839e+00	 1.122776458105517e+00	 1.138391391615215e+01
 1.027510086579036e+00	 1.132838632826431e+00	 1.124546956637701e+01
 1.139373869970101e+00	 1.033437693467736e+00	 1.240279618540766e+01
 1.129253647530560e+00	 1.044486746976497e+00	 1.225445949431489e+01
 1.119024374372843e+00	 1.055438718689437e+00	 1.211774924758314e+01
 1.108687441265957e+00	 1.066292012118133e+00	 1.199392224759683e+01
 1.098244270445701e+00	 1.077045057979658e+00	 1.188025114233296e+01
 1.087696314957954e+00	 1.087696314957954e+00	 1.177616520207356e+01
 1.077045057979658e+00	 1.098244270445701e+00	 1.168269296224546e+01
 1.066292012118133e+00	 1.108687441265958e+00	 1.160075527427943e+01
 1.055438718689437e+00	 1.119024374372843e+00	 1.151742429886508e+01
 1.044486746976496e+00	 1.129253647530560e+00	 1.140235491810365e+01
 1.033437693467736e+00	 1.139373869970101e+00	 1.125644741196683e+01
 1.145909107113222e+00	 1.039365300356437e+00	 1.239695823571721e+01
 1.135730836955065e+00	 1.050477729186075e+00	 1.224698036854295e+01
 1.125442890584133e+00	 1.061492519376731e+00	 1.211043756794448e+01
 1.115046666746616e+00	 1.072408065282828e+00	 1.198900860013730e+01
 1.104543595835981e+00	 1.083222788620335e+00	 1.188290091243552e+01
 1.093935139232501e+00	 1.093935139232501e+00	 1.178903174073431e+01
 1.083222788620335e+00	 1.104543595835981e+00	 1.170820320338127e+01
 1.072408065282828e+00	 1.115046666746616e+00	 1.163814565410581e+01
 1.061492519376731e+00	 1.125442890584134e+00	 1.154504073025621e+01
 1.050477729186075e+00	 1.135730836955066e+00	 1.142153513672843e+01
 1.039365300356437e+00	 1.145909107113222e+00	 1.127004085213335e+01
 1.152444344255910e+00	 1.045292907245138e+00	 1.239248390006006e+01
 1.142208026379153e+00	 1.056468711395594e+00	 1.224206710719783e+01
 1.131861406795029e+00	 1.067546320063906e+00	 1.210723541041126e+01
 1.121405892226911e+00	 1.078524118447347e+00	 1.198987785147709e+01
 1.110842921225937e+00	 1.089400519260783e+00	 1.189153282047179e+01
 1.100173963506769e+00	 1.100173963506769e+00	 1.181030677327260e+01
 1.089400519260783e+00	 1.110842921225936e+00	 1.174463782158446e+01
 1.078524118447347e+00	 1.121405892226911e+00	 1.167272694575123e+01
 1.067546320063906e+00	 1.131861406795029e+00	 1.157074235495022e+01
 1.056468711395593e+00	 1.142208026379153e+00	 1.144078051424644e+01
 1.045292907245138e+00	 1.152444344255910e+00	 1.128541702566664e+01
 1.158979581398281e+00	 1.051220514133840e+00	 1.238901425669973e+01
 1.148685215802940e+00	 1.062459693605073e+00	 1.223941577221893e+01
 1.138279923005648e+00	 1.073600120751002e+00	 1.210786348620129e+01
 1.127765117706955e+00	 1.084640171611749e+00	 1.199640134417068e+01
 1.117142246615671e+00	 1.095578249901076e+00	 1.190671851177089e+01
 1.106412787780847e+00	 1.106412787780847e+00	 1.183954198281538e+01
 1.095578249901076e+00	 1.117142246615671e+00	 1.178367686329783e+01
 1.084640171611749e+00	 1.127765117706955e+00	 1.170283351987496e+01
 1.073600120751001e+00	 1.138279923005648e+00	 1.159403236172800e+01
 1.062459693605073e+00	 1.148685215802941e+00	 1.145946192436383e+01
 1.051220514133840e+00	 1.158979581398281e+00	 1.130179102482898e+01
 1.165514818540451e+00	 1.057148121022542e+00	 1.238619019805660e+01
 1.155162405226548e+00	 1.068450675814532e+00	 1.223871981061614e+01
 1.144698439216106e+00	 1.079653921438058e+00	 1.211203807195633e+01
 1.134124343186860e+00	 1.090756224776091e+00	 1.200828962583435e+01
 1.123441572005285e+00	 1.101755980541289e+00	 1.192925646264392e+01
 1.112651612054825e+00	 1.112651612054825e+00	 1.187581971683163e+01
 1.101755980541289e+00	 1.123441572005284e+00	 1.181577882035258e+01
 1.090756224776090e+00	 1.134124343186860e+00	 1.172811721471612e+01
 1.079653921438057e+00	 1.144698439216106e+00	 1.161445706493469e+01
 1.068450675814532e+00	 1.155162405226549e+00	 1.147699586776891e+01
 1.057148121022542e+00	 1.165514818540452e+00	 1.131842648253640e+01
 1.172050055682539e+00	 1.063075727911243e+00	 1.238365405788711e+01
 1.161639594650095e+00	 1.074441658023991e+00	 1.223967172431814e+01
 1.151116955426522e+00	 1.085707722125113e+00	 1.211947270228988e+01
 1.140483568666735e+00	 1.096872277940430e+00	 1.202524927424976e+01
 1.129740897394881e+00	 1.107933711181497e+00	 1.195882131455216e+01
 1.118890436328793e+00	 1.118890436328793e+00	 1.190892814551123e+01
 1.107933711181497e+00	 1.129740897394881e+00	 1.184070107261103e+01
 1.096872277940430e+00	 1.140483568666735e+00	 1.174827179022927e+01
 1.085707722125113e+00	 1.151116955426522e+00	 1.163160668823838e+01
 1.074441658023991e+00	 1.161639594650096e+00	 1.149284516450838e+01
 1.063075727911243e+00	 1.172050055682539e+00	 1.133463615972629e+01
 1.178585292824659e+00	 1.069003334799945e+00	 1.238105122949567e+01
 1.168116784073700e+00	 1.080432640233470e+00	 1.224196472943921e+01
 1.157535471637011e+00	 1.091761522812206e+00	 1.212987985076436e+01
 1.146842794146693e+00	 1.102988331104825e+00	 1.204698458135459e+01
 1.136040222784560e+00	 1.114111441821773e+00	 1.199324053147112e+01
 1.125129260602840e+00	 1.125129260602840e+00	 1.193477726557609e+01
 1.114111441821773e+00	 1.136040222784560e+00	 1.185849637428556e+01
 1.102988331104825e+00	 1.146842794146693e+00	 1.176303378082211e+01
 1.091761522812206e+00	 1.157535471637012e+00	 1.164511614264922e+01
 1.080432640233470e+00	 1.168116784073701e+00	 1.150651964336196e+01
 1.069003334799945e+00	 1.178585292824659e+00	 1.134978253290122e+01
 1.185120529966928e+00	 1.074930941688647e+00	 1.237803177532467e+01
 1.174593973497482e+00	 1.086423622442988e+00	 1.224529440537472e+01
 1.163953987847693e+00	 1.097815323499378e+00	 1.214297259974431e+01
 1.153202019626845e+00	 1.109104384269333e+00	 1.207319922573881e+01
 1.142339548174426e+00	 1.120289172462195e+00	 1.202069142463555e+01
 1.131368084877056e+00	 1.131368084877056e+00	 1.195343765824127e+01
 1.120289172462194e+00	 1.142339548174426e+00	 1.187059010591122e+01
 1.109104384269333e+00	 1.153202019626845e+00	 1.177218334038016e+01
 1.097815323499378e+00	 1.163953987847693e+00	 1.165466579901404e+01
 1.086423622442988e+00	 1.174593973497482e+00	 1.151757682832903e+01
 1.074930941688647e+00	 1.185120529966928e+00	 1.136327838184069e+01
 1.191655767109463e+00	 1.080858548577347e+00	 1.237425202825666e+01
 1.181071162921560e+00	 1.092414604652565e+00	 1.224936033411503e+01
 1.170372504058683e+00	 1.103869124186667e+00	 1.215846629955399e+01
 1.159561245107302e+00	 1.115220437434012e+00	 1.210029145799455e+01
 1.148638873564579e+00	 1.126466903102834e+00	 1.203928582717167e+01
 1.137606909151529e+00	 1.137606909151529e+00	 1.196504080620711e+01
 1.126466903102834e+00	 1.148638873564579e+00	 1.187729799612312e+01
 1.115220437434012e+00	 1.159561245107302e+00	 1.177598934729599e+01
 1.103869124186666e+00	 1.170372504058683e+00	 1.165998225519924e+01
 1.092414604652565e+00	 1.181071162921561e+00	 1.152562262233392e+01
 1.080858548577348e+00	 1.191655767109464e+00	 1.137458737746819e+01
 1.198191004252381e+00	 1.086786155466048e+00	 1.236937618494350e+01
 1.187548352346055e+00	 1.098405586862223e+00	 1.225386773015259e+01
 1.176791020270100e+00	 1.109922924874111e+00	 1.217608021734768e+01
 1.165920470588176e+00	 1.121336490598920e+00	 1.211771969330856e+01
 1.154938198955122e+00	 1.132644633743766e+00	 1.204926521573170e+01
 1.143845733426350e+00	 1.143845733426350e+00	 1.196977736767499e+01
 1.132644633743766e+00	 1.154938198955122e+00	 1.187873614938960e+01
 1.121336490598919e+00	 1.165920470588176e+00	 1.177580778339929e+01
 1.109922924874111e+00	 1.176791020270100e+00	 1.166083909816001e+01
 1.098405586862222e+00	 1.187548352346055e+00	 1.153031198825568e+01
 1.086786155466048e+00	 1.198191004252381e+00	 1.138322466987035e+01
 1.027510086579036e+00	 1.132838632826431e+00	 1.124546956637701e+01
 1.016427608238230e+00	 1.142792711064822e+00	 1.108813453079377e+01
 1.005251844099737e+00	 1.152635638954059e+00	 1.092604922097255e+01
 9.939844766498350e-01	 1.162366112724792e+00	 1.076021552845193e+01
 9.826272122003075e-01	 1.171982862328630e+00	 1.059196222242551e+01
 9.711817800374670e-01	 1.181484651980107e+00	 1.042292656381135e+01
 9.596499315567855e-01	 1.190870280673080e+00	 1.025503465639478e+01
 9.480334393840437e-01	 1.200138582671100e+00	 1.009048065597938e+01
 9.363340964839015e-01	 1.209288427971361e+00	 9.931704962815884e+00
 9.245537152568286e-01	 1.218318722741866e+00	 9.781371526166907e+00
 9.126941266253301e-01	 1.227228409731459e+00	 9.642344392684953e+00
 1.033437693467736e+00	 1.139373869970101e+00	 1.125644741196683e+01
 1.022291281375197e+00	 1.149385372328985e+00	 1.109475309985343e+01
 1.011051045328171e+00	 1.159285083123100e+00	 1.093094009223111e+01
 9.997186775190335e-01	 1.169071691061754e+00	 1.076559306039872e+01
 9.882958941031171e-01	 1.178743918769747e+00	 1.059961853390513e+01
 9.767844343428174e-01	 1.188300523332462e+00	 1.043422650406240e+01
 9.651860597372367e-01	 1.197740296815246e+00	 1.027091074252093e+01
 9.535025531382613e-01	 1.207062066756603e+00	 1.011142795893477e+01
 9.417357178539907e-01	 1.216264696634832e+00	 9.957775926204658e+00
 9.298873767404562e-01	 1.225347086307701e+00	 9.812170705438128e+00
 9.179593712825768e-01	 1.234308172424850e+00	 9.677023105646509e+00
 1.039365300356437e+00	 1.145909107113222e+00	 1.127004085213335e+01
 1.028154954512246e+00	 1.155978033592601e+00	 1.110541811190279e+01
 1.016850246556764e+00	 1.165934527291609e+00	 1.094075094539783e+01
 1.005452878388470e+00	 1.175777269398208e+00	 1.077627898515601e+01
 9.939645760062396e-01	 1.185504975210383e+00	 1.061256137819220e+01
 9.823870886485516e-01	 1.195116394684369e+00	 1.045045824964314e+01
 9.707221879181400e-01	 1.204610312956998e+00	 1.029111085562834e+01
 9.589716668929942e-01	 1.213985550841725e+00	 1.013592055279130e+01
 9.471373392246524e-01	 1.223240965297948e+00	 9.986526716523448e+00
 9.352210382247075e-01	 1.232375449873196e+00	 9.844783743629081e+00
 9.232246159404913e-01	 1.241387935117908e+00	 9.712737278126433e+00
 1.045292907245138e+00	 1.152444344255910e+00	 1.128541702566664e+01
 1.034018627649354e+00	 1.162570694855779e+00	 1.111914489865877e+01
 1.022649447785478e+00	 1.172583971459681e+00	 1.095438162820638e+01
 1.011187079258085e+00	 1.182482847734234e+00	 1.079109285047409e+01
 9.996332579095959e-01	 1.192266031650607e+00	 1.062956402970182e+01
 9.879897429545744e-01	 1.201932266035882e+00	 1.047038165311570e+01
 9.762583160993820e-01	 1.211480329098371e+00	 1.031441308540206e+01
 9.644407806481138e-01	 1.220909034926485e+00	 1.016278521393919e+01
 9.525389605957438e-01	 1.230217233960716e+00	 1.001686202064411e+01
 9.405546997094262e-01	 1.239403813438355e+00	 9.878221220130882e+00
 9.284898605989058e-01	 1.248467697810633e+00	 9.748630106881198e+00
 1.051220514133840e+00	 1.158979581398281e+00	 1.130179102482898e+01
 1.039882300786503e+00	 1.169163356118626e+00	 1.113499950080185e+01
 1.028448649014271e+00	 1.179233415627417e+00	 1.097078452930422e+01
 1.016921280127817e+00	 1.189188426069917e+00	 1.080890768376585e+01
 1.005301939813108e+00	 1.199027088090488e+00	 1.064945331909734e+01
 9.935923972607900e-01	 1.208748137387051e+00	 1.049280936942803e+01
 9.817944442808508e-01	 1.218350345239403e+00	 1.033964677194147e+01
 9.699098944034910e-01	 1.227832519010907e+00	 1.019089765204770e+01
 9.579405819671214e-01	 1.237193502623147e+00	 1.004773240992746e+01
 9.458883611944573e-01	 1.246432177003179e+00	 9.911535852412428e+00
 9.337551052576544e-01	 1.255547460503023e+00	 9.783882517243743e+00
 1.057148121022542e+00	 1.165514818540452e+00	 1.131842648253641e+01
 1.045745973923672e+00	 1.175756017381254e+00	 1.115209915226319e+01
 1.034247850243104e+00	 1.185882859794912e+00	 1.098896498357313e+01
 1.022655480997610e+00	 1.195894004405343e+00	 1.082865034163050e+01
 1.010970621716699e+00	 1.205788144530092e+00	 1.067110994941257e+01
 9.991950515671009e-01	 1.215564008737927e+00	 1.051660716023084e+01
 9.873305724624323e-01	 1.225220361380129e+00	 1.036569281906658e+01
 9.753790081589967e-01	 1.234756003095011e+00	 1.021918285233266e+01
 9.633422033386424e-01	 1.244169771285253e+00	 1.007813473058800e+01
 9.512220226796441e-01	 1.253460540567672e+00	 9.943822952774863e+00
 9.390203499165697e-01	 1.262627223195081e+00	 9.817713703695057e+00
 1.063075727911243e+00	 1.172050055682539e+00	 1.133463615972629e+01
 1.051609647060841e+00	 1.182348678643772e+00	 1.116961276780627e+01
 1.040047051471938e+00	 1.192532303962266e+00	 1.100798168304389e+01
 1.028389681867402e+00	 1.202599582740594e+00	 1.084930186647926e+01
 1.016639303620290e+00	 1.212549200969488e+00	 1.069346882001909e+01
 1.004797705873412e+00	 1.222379880088564e+00	 1.054069420605216e+01
 9.928667006440139e-01	 1.232090377520585e+00	 1.039148401478812e+01
 9.808481219145028e-01	 1.241679487178819e+00	 1.024661542361597e+01
 9.687438247101636e-01	 1.251146039947044e+00	 1.010711249783065e+01
 9.565556841648307e-01	 1.260488904131836e+00	 9.974220886233567e+00
 9.442855945754851e-01	 1.269706985886806e+00	 9.849381668335093e+00
 1.069003334799945e+00	 1.178585292824659e+00	 1.134978253290122e+01
 1.057473320197990e+00	 1.188941339906287e+00	 1.118676143377681e+01
 1.045846252700731e+00	 1.199181748129576e+00	 1.102694709318165e+01
 1.034123882737135e+00	 1.209305161075755e+00	 1.086989784998230e+01
 1.022307985523803e+00	 1.219310257408746e+00	 1.071551935813217e+01
 1.010400360179627e+00	 1.229195751439012e+00	 1.056404342602391e+01
 9.984028288254823e-01	 1.238960393660807e+00	 1.041600535866100e+01
 9.863172356698798e-01	 1.248602971262355e+00	 1.027221995194850e+01
 9.741454460815411e-01	 1.258122308608529e+00	 1.013375629360823e+01
 9.618893456498615e-01	 1.267517267695675e+00	 1.000191152948587e+01
 9.495508392342339e-01	 1.276786748578197e+00	 9.878183757330257e+00
 1.074930941688647e+00	 1.185120529966928e+00	 1.136327838184069e+01
 1.063336993335098e+00	 1.195534001168910e+00	 1.120281890189207e+01
 1.051645453929444e+00	 1.205831192296939e+00	 1.104502787433497e+01
 1.039858083606749e+00	 1.216010739410908e+00	 1.088952880307003e+01
 1.027976667427159e+00	 1.226071313847931e+00	 1.073630585756167e+01
 1.016003014485650e+00	 1.236011622789324e+00	 1.058568180486437e+01
 1.003938957006725e+00	 1.245830409800832e+00	 1.043829439575230e+01
 9.917863494249995e-01	 1.255526455345638e+00	 1.029507135957996e+01
 9.795470674526328e-01	 1.265098577269720e+00	 1.015720416785785e+01
 9.672230071345804e-01	 1.274545631259191e+00	 1.002612073091419e+01
 9.548160838926487e-01	 1.283866511269256e+00	 9.903457195413960e+00
 1.080858548577348e+00	 1.191655767109464e+00	 1.137458737746818e+01
 1.069200666472146e+00	 1.202126662431748e+00	 1.121711208595133e+01
 1.057444655158038e+00	 1.212480636464455e+00	 1.106144530814538e+01
 1.045592284476185e+00	 1.222716317746139e+00	 1.090734053223740e+01
 1.033645349330281e+00	 1.232832370287112e+00	 1.075492782442744e+01
 1.021605668791385e+00	 1.242827494139550e+00	 1.060469072683285e+01
 1.009475085187628e+00	 1.252700425940695e+00	 1.045744155696633e+01
 9.972554631797325e-01	 1.262449939428692e+00	 1.031429526906717e+01
 9.849486888232947e-01	 1.272074845930627e+00	 1.017664204307956e+01
 9.725566686188319e-01	 1.281573994822386e+00	 1.004611877158683e+01
 9.600813285505632e-01	 1.290946273959983e+00	 9.924579618509314e+00
 1.086786155466048e+00	 1.198191004252381e+00	 1.138322466987035e+01
 1.075064339609114e+00	 1.208719323694913e+00	 1.122902156135565e+01
 1.063243856386472e+00	 1.219130080632220e+00	 1.107547572872667e+01
 1.051326485345384e+00	 1.229421896081530e+00	 1.092253452190358e+01
 1.039314031233091e+00	 1.239593426726358e+00	 1.077054032956923e+01
 1.027208323096735e+00	 1.249643365489745e+00	 1.062020631639274e+01
 1.015011213368080e+00	 1.259570442080433e+00	 1.047259050548246e+01
 1.002724576933951e+00	 1.269373423511538e+00	 1.032906837232134e+01
 9.903503101933842e-01	 1.279051114591260e+00	 1.019130412212593e+01
 9.778903301024598e-01	 1.288602358385265e+00	 1.006122082721079e+01
 9.653465732078104e-01	 1.298026036650377e+00	 9.940969604545336e+00
 9.126941266253301e-01	 1.227228409731459e+00	 9.642344392684947e+00
 9.007592135149235e-01	 1.236014986072517e+00	 9.504583412183475e+00
 8.887488253361341e-01	 1.244678998212643e+00	 9.357225386843002e+00
 8.766648353614378e-01	 1.253219506267087e+00	 9.202162727479697e+00
 8.645091316774273e-01	 1.261635608237728e+00	 9.041349722256047e+00
 8.522836162359341e-01	 1.269926440281931e+00	 8.876780281923564e+00
 8.399902039001794e-01	 1.278091176953135e+00	 8.710465773773285e+00
 8.276308214869176e-01	 1.286129031413138e+00	 8.544413068452529e+00
 8.152074068055497e-01	 1.294039255616013e+00	 8.380602920657847e+00
 8.027219076951706e-01	 1.301821140463702e+00	 8.220968800938998e+00
 7.901762810605031e-01	 1.309474015933302e+00	 8.067376291460835e+00
 9.179593712825768e-01	 1.234308172424850e+00	 9.677023105646516e+00
 9.059556068060932e-01	 1.243145437679841e+00	 9.541605958089631e+00
 8.938759318527958e-01	 1.251859431672693e+00	 9.394905512163307e+00
 8.817222305018924e-01	 1.260449209096579e+00	 9.239170343533150e+00
 8.694964017321677e-01	 1.268913862749860e+00	 9.076723771629489e+00
 8.572003584676338e-01	 1.277252523806497e+00	 8.909940252200318e+00
 8.448360266181751e-01	 1.285464362058033e+00	 8.741221853268334e+00
 8.324053441161692e-01	 1.293548586127093e+00	 8.572974943951483e+00
 8.199102599500563e-01	 1.301504443652369e+00	 8.407587222353785e+00
 8.073527331958299e-01	 1.309331221445109e+00	 8.247405204824167e+00
 7.947347320474101e-01	 1.317028245617134e+00	 8.094712294336624e+00
 9.232246159404913e-01	 1.241387935117908e+00	 9.712737278126426e+00
 9.111520000979662e-01	 1.250275889286824e+00	 9.579196448550146e+00
 8.990030383701904e-01	 1.259039865132385e+00	 9.433112113004002e+00
 8.867796256431019e-01	 1.267678911925684e+00	 9.277014675255559e+00
 8.744836717876799e-01	 1.276192117261567e+00	 9.113519779027195e+00
 8.621171007001169e-01	 1.284578607330597e+00	 8.945303446728811e+00
 8.496818493369620e-01	 1.292837547162419e+00	 8.775077298879861e+00
 8.371798667462170e-01	 1.300968140840489e+00	 8.605563988879865e+00
 8.246131130953616e-01	 1.308969631688123e+00	 8.439472984419501e+00
 8.119835586972889e-01	 1.316841302425870e+00	 8.279476822773084e+00
 7.992931830351171e-01	 1.324582475300281e+00	 8.128187962521748e+00
 9.284898605989058e-01	 1.248467697810633e+00	 9.748630106881189e+00
 9.163483933903672e-01	 1.257406340893469e+00	 9.616621257813676e+00
 9.041301448881336e-01	 1.266220298591729e+00	 9.471191053033952e+00
 8.918370207848774e-01	 1.274908614754423e+00	 9.315078942077468e+00
 8.794709418437707e-01	 1.283470371772889e+00	 9.151117768653702e+00
 8.670338429331876e-01	 1.291904690854288e+00	 8.982207752508609e+00
 8.545276720563426e-01	 1.300210732266370e+00	 8.811290551841472e+00
 8.419543893768623e-01	 1.308387695553425e+00	 8.641323546030943e+00
 8.293159662412662e-01	 1.316434819723388e+00	 8.475254474944080e+00
 8.166143841993475e-01	 1.324351383406118e+00	 8.315996566906314e+00
 8.038516340234237e-01	 1.332136704982894e+00	 8.166404282548548e+00
 9.337551052576544e-01	 1.255547460503023e+00	 9.783882517243740e+00
 9.215447866831196e-01	 1.264536792499779e+00	 9.653180238356065e+00
 9.092572514064435e-01	 1.273400732050735e+00	 9.508518361570117e+00
 8.968944159270301e-01	 1.282138317582822e+00	 9.352774125652028e+00
 8.844582119002473e-01	 1.290748626283865e+00	 9.188924003453343e+00
 8.719505851666500e-01	 1.299230774377626e+00	 9.020016621951754e+00
 8.593734947761192e-01	 1.307583917369962e+00	 8.849145765278255e+00
 8.467289120079058e-01	 1.315807250265995e+00	 8.679423605485013e+00
 8.340188193875699e-01	 1.323900007758281e+00	 8.513954302209454e+00
 8.212452097018060e-01	 1.331861464385989e+00	 8.355808108040168e+00
 8.084100850121306e-01	 1.339690934665124e+00	 8.207996111358661e+00
 9.390203499165697e-01	 1.262627223195081e+00	 9.817713703695061e+00
 9.267411799760478e-01	 1.271667244105759e+00	 9.688207339766866e+00
 9.143843579249360e-01	 1.280581165509415e+00	 9.544500903545764e+00
 9.019518110693717e-01	 1.289368020410903e+00	 9.389539664589844e+00
 8.894454819569170e-01	 1.298026880794533e+00	 9.226371679225412e+00
 8.768673274003085e-01	 1.306556857900669e+00	 9.058119741935604e+00
 8.642193174960935e-01	 1.314957102473272e+00	 8.887953424717011e+00
 8.515034346391487e-01	 1.323226804978296e+00	 8.719061354074842e+00
 8.387216725340740e-01	 1.331365195792919e+00	 8.554623871592899e+00
 8.258760352044646e-01	 1.339371545365615e+00	 8.397786219514654e+00
 8.129685360010376e-01	 1.347245164347121e+00	 8.251632387554361e+00
 9.442855945754851e-01	 1.269706985886806e+00	 9.849381668335093e+00
 9.319375732689762e-01	 1.278797695711410e+00	 9.721071222479242e+00
 9.195114644434282e-01	 1.287761598967780e+00	 9.578577042177276e+00
 9.070092062117132e-01	 1.296597723238690e+00	 9.424844140618651e+00
 8.944327520135863e-01	 1.305305135304933e+00	 9.262921609736129e+00
 8.817840696339667e-01	 1.313882941423474e+00	 9.095933694243000e+00
 8.690651402160680e-01	 1.322330287576376e+00	 8.927050961159310e+00
 8.562779572703911e-01	 1.330646359690425e+00	 8.759461719336340e+00
 8.434245256805779e-01	 1.338830383827416e+00	 8.596343839600973e+00
 8.305068607071231e-01	 1.346881626345132e+00	 8.440837121483433e+00
 8.175269869899446e-01	 1.354799394029036e+00	 8.296016347098195e+00
 9.495508392342339e-01	 1.276786748578197e+00	 9.878183757330259e+00
 9.371339665617289e-01	 1.285928147316737e+00	 9.751175866543695e+00
 9.246385709617380e-01	 1.294942032425842e+00	 9.610217294609184e+00
 9.120666013538661e-01	 1.303827426066207e+00	 9.458185956501346e+00
 8.994200220700630e-01	 1.312583389815105e+00	 9.298062903181748e+00
 8.867008118674292e-01	 1.321209024946097e+00	 9.132902607724482e+00
 8.739109629358442e-01	 1.329703472679350e+00	 8.965803357000055e+00
 8.610524799014349e-01	 1.338065914402476e+00	 8.799877908158422e+00
 8.481273788268821e-01	 1.346295571861889e+00	 8.638224565144984e+00
 8.351376862095822e-01	 1.354391707324674e+00	 8.483898825647833e+00
 8.220854379786514e-01	 1.362353623711018e+00	 8.339885743287054e+00
 9.548160838926487e-01	 1.283866511269256e+00	 9.903457195413960e+00
 9.423303598541299e-01	 1.293058598921742e+00	 9.777961175632299e+00
 9.297656774796816e-01	 1.302122465883613e+00	 9.638924980802862e+00
 9.171239964956415e-01	 1.311057128893476e+00	 9.489094006022716e+00
 9.044072921261541e-01	 1.319861644325085e+00	 9.331313630322599e+00
 8.916175541005001e-01	 1.328535108468596e+00	 9.168498802496291e+00
 8.787567856552255e-01	 1.337076657782270e+00	 9.003603745070155e+00
 8.658270025320803e-01	 1.345485469114547e+00	 8.839591940330909e+00
 8.528302319727866e-01	 1.353760759896453e+00	 8.679406558158561e+00
 8.397685117116412e-01	 1.361901788304374e+00	 8.525941480412806e+00
 8.266438889669584e-01	 1.369907853393219e+00	 8.382013070830361e+00
 9.600813285505632e-01	 1.290946273959983e+00	 9.924579618509318e+00
 9.475267531460031e-01	 1.300189050526428e+00	 9.800903576452029e+00
 9.348927839970761e-01	 1.309302899341102e+00	 9.664236865931091e+00
 9.221813916368514e-01	 1.318286831720522e+00	 9.517128336349577e+00
 9.093945621816664e-01	 1.327139898834914e+00	 9.362221484618791e+00
 8.965342963329834e-01	 1.335861191991027e+00	 9.202223426479300e+00
 8.836026083740131e-01	 1.344449842885214e+00	 9.039874001059328e+00
 8.706015251621286e-01	 1.352905023826733e+00	 8.877915177187971e+00
 8.575330851180926e-01	 1.361225947931225e+00	 8.719060925659241e+00
 8.443993372131001e-01	 1.369411869284368e+00	 8.565967716443989e+00
 8.312023399546657e-01	 1.377462083075788e+00	 8.421205793873147e+00
 9.653465732078104e-01	 1.298026036650377e+00	 9.940969604545332e+00
 9.527231464371734e-01	 1.307319502130800e+00	 9.819516613742520e+00
 9.400198905137386e-01	 1.316483332798322e+00	 9.685723796516665e+00
 9.272387867773065e-01	 1.325516534547367e+00	 9.541880803049672e+00
 9.143818322364077e-01	 1.334418153344632e+00	 9.390364434655435e+00
 9.014510385646834e-01	 1.343187275513448e+00	 9.233607084567605e+00
 8.884484310920087e-01	 1.351823027988257e+00	 9.074065329570526e+00
 8.753760477913806e-01	 1.360324578539132e+00	 8.914188845525041e+00
 8.622359382625994e-01	 1.368691135966320e+00	 8.756389815345747e+00
 8.490301627137596e-01	 1.376921950264789e+00	 8.603012992613206e+00
 8.357607909415732e-01	 1.385016312758878e+00	 8.456306577811915e+00
 7.901762810605031e-01	 1.309474015933302e+00	 8.067376291460835e+00
 7.775724921538926e-01	 1.316997251493802e+00	 7.915031996116116e+00
 7.649125143346542e-01	 1.324390257134714e+00	 7.758845065725684e+00
 7.521983273406831e-01	 1.331652482463453e+00	 7.600062403869545e+00
 7.394319160785158e-01	 1.338783416402234e+00	 7.439764088192132e+00
 7.266152696671564e-01	 1.345782587173835e+00	 7.278074192199518e+00
 7.137503804864437e-01	 1.352649562260090e+00	 7.115665764887584e+00
 7.008392432308426e-01	 1.359383948333415e+00	 6.953669998148825e+00
 6.878838539695308e-01	 1.365985391161689e+00	 6.792901069609421e+00
 6.748862092136254e-01	 1.372453575486838e+00	 6.633825546563306e+00
 6.618483049913858e-01	 1.378788224877522e+00	 6.476535708552312e+00
 7.947347320474101e-01	 1.317028245617134e+00	 8.094712294336624e+00
 7.820582330944967e-01	 1.324594881999977e+00	 7.944739631521084e+00
 7.693252210805268e-01	 1.332030537179435e+00	 7.791936600051953e+00
 7.565376871643154e-01	 1.339334657587757e+00	 7.637233640255973e+00
 7.436976277031341e-01	 1.346506729198790e+00	 7.481388041658663e+00
 7.308070432910254e-01	 1.353546277513669e+00	 7.324520316601372e+00
 7.178679378016779e-01	 1.360452867519065e+00	 7.166311299025134e+00
 7.048823174367581e-01	 1.367226103618319e+00	 7.007467842317864e+00
 6.918521897805761e-01	 1.373865629535772e+00	 6.848402802308320e+00
 6.787795628619315e-01	 1.380371128194650e+00	 6.689156492553316e+00
 6.656664442239804e-01	 1.386742321568902e+00	 6.529369648441246e+00
 7.992931830351171e-01	 1.324582475300281e+00	 8.128187962521748e+00
 7.865439740359006e-01	 1.332192512505436e+00	 7.980672318199961e+00
 7.737379278271984e-01	 1.339670817223418e+00	 7.830861749853705e+00
 7.608770469887430e-01	 1.347016832711303e+00	 7.679480141912574e+00
 7.479633393285424e-01	 1.354230041994578e+00	 7.527066416463576e+00
 7.349988169156754e-01	 1.361309967852731e+00	 7.373795263717941e+00
 7.219854951176785e-01	 1.368256172777272e+00	 7.218752346754767e+00
 7.089253916434206e-01	 1.375068258902466e+00	 7.062132471789036e+00
 6.958205255923428e-01	 1.381745867909116e+00	 6.904068122958048e+00
 6.826729165109264e-01	 1.388288680901750e+00	 6.744295126534169e+00
 6.694845834572227e-01	 1.394696418259602e+00	 6.582125042995158e+00
 8.038516340234237e-01	 1.332136704982894e+00	 8.166404282548548e+00
 7.910297149779048e-01	 1.339790143010344e+00	 8.021230353642220e+00
 7.781506345744692e-01	 1.347311097266834e+00	 7.873870860223843e+00
 7.652164068137673e-01	 1.354699007834274e+00	 7.724951277642838e+00
 7.522290509545420e-01	 1.361953354789784e+00	 7.574902655569607e+00
 7.391905905409083e-01	 1.369073658191210e+00	 7.423933275848762e+00
 7.261030524342501e-01	 1.376059478034898e+00	 7.271051289250721e+00
 7.129684658506364e-01	 1.382910414186039e+00	 7.115798052064248e+00
 6.997888614046400e-01	 1.389626106281897e+00	 6.958144871480703e+00
 6.865662701604218e-01	 1.396206233608299e+00	 6.797643053004272e+00
 6.733027226909291e-01	 1.402650514949769e+00	 6.633395507616070e+00
 8.084100850121306e-01	 1.339690934665124e+00	 8.207996111358661e+00
 7.955154559203086e-01	 1.347387773514863e+00	 8.064850773819325e+00
 7.825633413221392e-01	 1.354951377309859e+00	 7.919252754183637e+00
 7.695557666391883e-01	 1.362381182956852e+00	 7.771835550485866e+00
 7.564947625809341e-01	 1.369676667584597e+00	 7.623031088856225e+00
 7.433823641665259e-01	 1.376837348529294e+00	 7.473053349955563e+00
 7.302206097511953e-01	 1.383862783292129e+00	 7.321309179236424e+00
 7.170115400582112e-01	 1.390752569469217e+00	 7.166632308727469e+00
 7.037571972172763e-01	 1.397506344654285e+00	 7.008908552529682e+00
 6.904596238102308e-01	 1.404123786314460e+00	 6.847622915111178e+00
 6.771208619249167e-01	 1.410604611639553e+00	 6.681788392570777e+00
 8.129685360010376e-01	 1.347245164347121e+00	 8.251632387554361e+00
 8.000011968629125e-01	 1.354985404019159e+00	 8.110007438725869e+00
 7.869760480700081e-01	 1.362591657352667e+00	 7.965334724292233e+00
 7.738951264648064e-01	 1.370063358079217e+00	 7.818360525996811e+00
 7.607604742075191e-01	 1.377399980379199e+00	 7.669624693975789e+00
 7.475741377923311e-01	 1.384601038867169e+00	 7.519443508113904e+00
 7.343381670683192e-01	 1.391666088549151e+00	 7.367666788812089e+00
 7.210546142659512e-01	 1.398594724752184e+00	 7.212837573545266e+00
 7.077255330300599e-01	 1.405386583026457e+00	 7.054663404933033e+00
 6.943529774601656e-01	 1.412041339020397e+00	 6.892679511309412e+00
 6.809390011590026e-01	 1.418558708329103e+00	 6.725925969525299e+00
 8.175269869899446e-01	 1.354799394029036e+00	 8.296016347098195e+00
 8.044869378055161e-01	 1.362583034523394e+00	 8.155211126128401e+00
 7.913887548178761e-01	 1.370231937395432e+00	 8.010482535163568e+00
 7.782344862904226e-01	 1.377745533201551e+00	 7.862792773108744e+00
 7.650261858340990e-01	 1.385123293173777e+00	 7.712895003990876e+00
 7.517659114181253e-01	 1.392364729205023e+00	 7.561315264062264e+00
 7.384557243854243e-01	 1.399469393806149e+00	 7.408305669166035e+00
 7.250976884736618e-01	 1.406436880035118e+00	 7.252651840465847e+00
 7.116938688428003e-01	 1.413266821398584e+00	 7.093743478240953e+00
 6.982463311100385e-01	 1.419958891726272e+00	 6.931280915558322e+00
 6.847571403930037e-01	 1.426512805018568e+00	 6.764446617325152e+00
 8.220854379786514e-01	 1.362353623711018e+00	 8.339885743287054e+00
 8.089726787479197e-01	 1.370180665027734e+00	 8.199009633200278e+00
 7.958014615655435e-01	 1.377872217438328e+00	 8.053100436460252e+00
 7.825738461158364e-01	 1.385427708324037e+00	 7.903437817090142e+00
 7.692918974604748e-01	 1.392846605968519e+00	 7.751092027774366e+00
 7.559576850437113e-01	 1.400128419543043e+00	 7.596904674566983e+00
 7.425732817023147e-01	 1.407272699063309e+00	 7.441470934688605e+00
 7.291407626811492e-01	 1.414279035318203e+00	 7.284349831129985e+00
 7.156622046553058e-01	 1.421147059770840e+00	 7.124513716093759e+00
 7.021396847596617e-01	 1.427876444432247e+00	 6.961919600916451e+00
 6.885752796267371e-01	 1.434466901708098e+00	 6.796006007050831e+00
 8.266438889669584e-01	 1.369907853393219e+00	 8.382013070830361e+00
 8.134584196899231e-01	 1.377778295532340e+00	 8.239987885733534e+00
 8.002141683128110e-01	 1.385512497481530e+00	 8.091631185959544e+00
 7.869132059408492e-01	 1.393109883446855e+00	 7.938640104119647e+00
 7.735576090864471e-01	 1.400569918763610e+00	 7.782504182676580e+00
 7.601494586688906e-01	 1.407892109881418e+00	 7.624484809096677e+00
 7.466908390187942e-01	 1.415076004320817e+00	 7.465596149753257e+00
 7.331838368882193e-01	 1.422121190601618e+00	 7.306244069517486e+00
 7.196305404673856e-01	 1.429027298143399e+00	 7.145371046147225e+00
 7.060330384088480e-01	 1.435793997138485e+00	 6.983113566393879e+00
 6.923934188600199e-01	 1.442420998397841e+00	 6.819278286367041e+00
 8.312023399546657e-01	 1.377462083075788e+00	 8.421205793873147e+00
 8.179441606313274e-01	 1.385375926037378e+00	 8.276768054635969e+00
 8.046268750594782e-01	 1.393152777525212e+00	 8.124556082301494e+00
 7.912525657652613e-01	 1.400792058570189e+00	 7.966782977038180e+00
 7.778233207118174e-01	 1.408293231559235e+00	 7.805458238988907e+00
 7.643412322934664e-01	 1.415655800220334e+00	 7.642365687648371e+00
 7.508083963346665e-01	 1.422879309578859e+00	 7.479042925738265e+00
 7.372269110946775e-01	 1.429963345885546e+00	 7.316685965375473e+00
 7.235988762788474e-01	 1.436907536516434e+00	 7.154745476288801e+00
 7.099263920574095e-01	 1.443711549845151e+00	 6.993407466933974e+00
 6.962115580926688e-01	 1.450375095087947e+00	 6.832957263188866e+00
 8.357607909415732e-01	 1.385016312758878e+00	 8.456306577811915e+00
 8.224299015719309e-01	 1.392973556543011e+00	 8.308009679431073e+00
 8.090395818053454e-01	 1.400793057569549e+00	 8.150395007045951e+00
 7.955919255888730e-01	 1.408474233694218e+00	 7.986288661842154e+00
 7.820890323363869e-01	 1.416016544355583e+00	 7.818319275745702e+00
 7.685330059172397e-01	 1.423419490559979e+00	 7.648894229712797e+00
 7.549259536497352e-01	 1.430682614837620e+00	 7.480177462381610e+00
 7.412699853003305e-01	 1.437805501170166e+00	 7.314068965233959e+00
 7.275672120895014e-01	 1.444787774890119e+00	 7.151101196904498e+00
 7.138197457051589e-01	 1.451629102552406e+00	 6.991373746397656e+00
 7.000296973245008e-01	 1.458329191778564e+00	 6.835757588688343e+00
 6.618483049913858e-01	 1.378788224877522e+00	 6.476535708552309e+00
 6.487699095967796e-01	 1.384990144222397e+00	 6.317039802527804e+00
 6.356552290236301e-01	 1.391058044979909e+00	 6.153084406039039e+00
 6.225062527617115e-01	 1.396991765020092e+00	 5.986699338954983e+00
 6.093249662367155e-01	 1.402791180224235e+00	 5.819509170034685e+00
 5.961133499364965e-01	 1.408456204215545e+00	 5.652722471920010e+00
 5.828733785497980e-01	 1.413986788066745e+00	 5.487125164762455e+00
 5.696070201181347e-01	 1.419382919985196e+00	 5.323077890665035e+00
 5.563162352014727e-01	 1.424644624976096e+00	 5.160517337559681e+00
 5.430029760583274e-01	 1.429771964484383e+00	 4.998961408653120e+00
 5.296691858408672e-01	 1.434765036015944e+00	 4.837518112304250e+00
 6.656664442239804e-01	 1.386742321568902e+00	 6.529369648441246e+00
 6.525126008240003e-01	 1.392980019190503e+00	 6.365281817009599e+00
 6.393222629197794e-01	 1.399082925084413e+00	 6.195432824641384e+00
 6.260974314782574e-01	 1.405050876185350e+00	 6.022211711668508e+00
 6.128401033788459e-01	 1.410883747658563e+00	 5.847586616480667e+00
 5.995522705346324e-01	 1.416581452628946e+00	 5.673093130867661e+00
 5.862359190261404e-01	 1.422143941886962e+00	 5.499826915306484e+00
 5.728930282483172e-01	 1.427571203571930e+00	 5.328440514923956e+00
 5.595255700714005e-01	 1.432863262833292e+00	 5.159144292389667e+00
 5.461355080162874e-01	 1.438020181470444e+00	 4.991711370658088e+00
 5.327247964449955e-01	 1.443042057551770e+00	 4.825486456352930e+00
 6.694845834572227e-01	 1.394696418259602e+00	 6.582125042995158e+00
 6.562552920518185e-01	 1.400969894157965e+00	 6.414259589093803e+00
 6.429892968164699e-01	 1.407107805188320e+00	 6.240169439400209e+00
 6.296886101952830e-01	 1.413109987350059e+00	 6.062584448072162e+00
 6.163552405213909e-01	 1.418976315092390e+00	 5.883796070679722e+00
 6.029911911331183e-01	 1.424706701041903e+00	 5.705644844275669e+00
 5.895984595027690e-01	 1.430301095706788e+00	 5.529512304913601e+00
 5.761790363787246e-01	 1.435759487158326e+00	 5.356317281762016e+00
 5.627349049414975e-01	 1.441081900690199e+00	 5.186516481547971e+00
 5.492680399743685e-01	 1.446268398456265e+00	 5.020109252839495e+00
 5.357804070492048e-01	 1.451319079087398e+00	 4.856646396698017e+00
 6.733027226909291e-01	 1.402650514949769e+00	 6.633395507616063e+00
 6.599979832800569e-01	 1.408959769124917e+00	 6.462771518668208e+00
 6.466563307135300e-01	 1.415132685291741e+00	 6.286286250133884e+00
 6.332797889126243e-01	 1.421169098514310e+00	 6.106992450049745e+00
 6.198703776641965e-01	 1.427068882525793e+00	 5.927485103000230e+00
 6.064301117318085e-01	 1.432831949454466e+00	 5.749888058581204e+00
 5.929609999795484e-01	 1.438458249526254e+00	 5.575845281141532e+00
 5.794650445092341e-01	 1.443947770744395e+00	 5.406516658229789e+00
 5.659442398116531e-01	 1.449300538546813e+00	 5.242578278810447e+00
 5.524005719324733e-01	 1.454516615441825e+00	 5.084227067150811e+00
 5.388360176534135e-01	 1.459596100622796e+00	 4.931189634440030e+00
 6.771208619249167e-01	 1.410604611639553e+00	 6.681788392570778e+00
 6.637406745085377e-01	 1.416949644091492e+00	 6.509622343386555e+00
 6.503233646107899e-01	 1.423157565394793e+00	 6.332774654028489e+00
 6.368709676301190e-01	 1.429228209678199e+00	 6.154603530090855e+00
 6.233855148071075e-01	 1.435161449958841e+00	 5.977988157500919e+00
 6.098690323305584e-01	 1.440957197866686e+00	 5.805314502325888e+00
 5.963235404563446e-01	 1.446615403345389e+00	 5.638465922152597e+00
 5.827510526397223e-01	 1.452136054330145e+00	 5.478818524609839e+00
 5.691535746817576e-01	 1.457519176403124e+00	 5.327241181264716e+00
 5.555331038905049e-01	 1.462764832427100e+00	 5.184100079003676e+00
 5.418916282575384e-01	 1.467873122157929e+00	 5.049267666276307e+00
 6.809390011590026e-01	 1.418558708329103e+00	 6.725925969525290e+00
 6.674833657370843e-01	 1.424939519057822e+00	 6.553624401579954e+00
 6.539903985080778e-01	 1.431182445497587e+00	 6.378626776277898e+00
 6.404621463476025e-01	 1.437287320841818e+00	 6.204579801306867e+00
 6.269006519499696e-01	 1.443254017391609e+00	 6.034627993268553e+00
 6.133079529292226e-01	 1.449082446278614e+00	 5.871398671064197e+00
 5.996860809330227e-01	 1.454772557164222e+00	 5.716991957746227e+00
 5.860370607700663e-01	 1.460324337915590e+00	 5.572975724421417e+00
 5.723629095516996e-01	 1.465737814259127e+00	 5.440385381432717e+00
 5.586656358483669e-01	 1.471013049412068e+00	 5.319728394958174e+00
 5.449472388614981e-01	 1.476150143692762e+00	 5.210993381499348e+00
 6.847571403930037e-01	 1.426512805018568e+00	 6.764446617325151e+00
 6.712260569655186e-01	 1.432929394024040e+00	 6.593598889950661e+00
 6.576574324052233e-01	 1.439207325600238e+00	 6.422836791357740e+00
 6.440533250649124e-01	 1.445346432005262e+00	 6.256079054251550e+00
 6.304157890926273e-01	 1.451346584824167e+00	 6.096717109049509e+00
 6.167468735276558e-01	 1.457207694690300e+00	 5.947599292358851e+00
 6.030486214094480e-01	 1.462929710982785e+00	 5.811020267561814e+00
 5.893230689001431e-01	 1.468512621500738e+00	 5.688715588967598e+00
 5.755722444213691e-01	 1.473956452114813e+00	 5.581861311591187e+00
 5.617981678059620e-01	 1.479261266396707e+00	 5.491078520531986e+00
 5.480028494652096e-01	 1.484427165227262e+00	 5.409841648057872e+00
 6.885752796267371e-01	 1.434466901708098e+00	 6.796006007050824e+00
 6.749687481936630e-01	 1.440919268990278e+00	 6.628377116234629e+00
 6.613244663020548e-01	 1.447232205702859e+00	 6.464402235287161e+00
 6.476445037818852e-01	 1.453405543168623e+00	 6.308256121058605e+00
 6.339309262349262e-01	 1.459439152256587e+00	 6.163559151818584e+00
 6.201857941257128e-01	 1.465332943101795e+00	 6.033360771626310e+00
 6.064111618854863e-01	 1.471086864801106e+00	 5.920128357331524e+00
 5.926090770298299e-01	 1.476700905085600e+00	 5.825741437411095e+00
 5.787815792906560e-01	 1.482175089970176e+00	 5.751156343835854e+00
 5.649306997631937e-01	 1.487509483380995e+00	 5.671498083754818e+00
 5.510584600685913e-01	 1.492704186761395e+00	 5.570264939512953e+00
 6.923934188600199e-01	 1.442420998397841e+00	 6.819278286367041e+00
 6.787114394213402e-01	 1.448909143956669e+00	 6.656801747030263e+00
 6.649915001984027e-01	 1.455257085805564e+00	 6.502325309225904e+00
 6.512356824983572e-01	 1.461464654331993e+00	 6.360264227374142e+00
 6.374460633767118e-01	 1.467531719688942e+00	 6.234450309900076e+00
 6.236247147232484e-01	 1.473458191513149e+00	 6.128114619572678e+00
 6.097737023610023e-01	 1.479244018619215e+00	 6.043875814032925e+00
 5.958950851590034e-01	 1.484889188670185e+00	 5.975927694017210e+00
 5.819909141594490e-01	 1.490393727825208e+00	 5.893452465652403e+00
 5.680632317199648e-01	 1.495757700364909e+00	 5.792557941781697e+00
 5.541140706715604e-01	 1.500981208295127e+00	 5.672635418870932e+00
 6.962115580926688e-01	 1.450375095087947e+00	 6.832957263188866e+00
 6.824541306483731e-01	 1.456899018923345e+00	 6.677728050968796e+00
 6.686585340940945e-01	 1.463281965908467e+00	 6.535614174732459e+00
 6.548268612141656e-01	 1.469523765495468e+00	 6.411256332557772e+00
 6.409612005178291e-01	 1.475624287121304e+00	 6.308680691232630e+00
 6.270636353201177e-01	 1.481583439924414e+00	 6.231275166727130e+00
 6.131362428358624e-01	 1.487401172437143e+00	 6.159399904326963e+00
 5.991810932875407e-01	 1.493077472254505e+00	 6.072615835381203e+00
 5.852002490276385e-01	 1.498612365679901e+00	 5.970559760491154e+00
 5.711957636761784e-01	 1.504005917348428e+00	 5.852873298876117e+00
 5.571696812740350e-01	 1.509258229828425e+00	 5.719228698743779e+00
 7.000296973245008e-01	 1.458329191778564e+00	 6.835757588688351e+00
 6.861968218745838e-01	 1.464888893890438e+00	 6.690025137402791e+00
 6.723255679889603e-01	 1.471306846011681e+00	 6.563284240996330e+00
 6.584180399291466e-01	 1.477582876659139e+00	 6.460386458585152e+00
 6.444763376581236e-01	 1.483716854553744e+00	 6.382663826951122e+00
 6.305025559161753e-01	 1.489708688335640e+00	 6.301316385638737e+00
 6.164987833099310e-01	 1.495558326254919e+00	 6.207940266220769e+00
 6.024671014153186e-01	 1.501265755838569e+00	 6.102450639906667e+00
 5.884095838951133e-01	 1.506831003534249e+00	 5.984742472236475e+00
 5.743282956317380e-01	 1.512254134331529e+00	 5.854719290737054e+00
 5.602252918759325e-01	 1.517535251361254e+00	 5.712318943942535e+00
 5.296691858408672e-01	 1.434765036015944e+00	 4.837518112304251e+00
 5.163190688308803e-01	 1.439623158038130e+00	 4.678566434739496e+00
 5.029522813283460e-01	 1.444347358201994e+00	 4.526298671023322e+00
 4.895707329421400e-01	 1.448937838646585e+00	 4.382061016360954e+00
 4.761763211503492e-01	 1.453394835841910e+00	 4.246861823937534e+00
 4.627709305788981e-01	 1.457718620117905e+00	 4.121391677300979e+00
 4.493564322980741e-01	 1.461909495176767e+00	 4.006046147542015e+00
 4.359346831373438e-01	 1.465967797589339e+00	 3.900951007976837e+00
 4.225075250188142e-01	 1.469893896276274e+00	 3.805989669733200e+00
 4.090767843096734e-01	 1.473688191974680e+00	 3.720832593983487e+00
 3.956442711939038e-01	 1.477351116691019e+00	 3.644968430605613e+00
 5.327247964449955e-01	 1.443042057551770e+00	 4.825486456352921e+00
 5.192976638934053e-01	 1.447928205612917e+00	 4.663450400015359e+00
 5.058537646787414e-01	 1.452679659233363e+00	 4.510440421054924e+00
 4.923950194262516e-01	 1.457296621718283e+00	 4.368080321375900e+00
 4.789233365604134e-01	 1.461779330901862e+00	 4.237640403692625e+00
 4.654406115793993e-01	 1.466128058673551e+00	 4.120057996580544e+00
 4.519487263475430e-01	 1.470343110487583e+00	 4.015960786915947e+00
 4.384495484062030e-01	 1.474424824856452e+00	 3.925692724299649e+00
 4.249449303033795e-01	 1.478373572829082e+00	 3.849342252326001e+00
 4.114367089424183e-01	 1.482189757454407e+00	 3.786303459056308e+00
 3.979267049501003e-01	 1.485873813231091e+00	 3.719166240957436e+00
 5.357804070492048e-01	 1.451319079087398e+00	 4.856646396698010e+00
 5.222762589559826e-01	 1.456233253187544e+00	 4.699677611668784e+00
 5.087552480291694e-01	 1.461011960264603e+00	 4.554587656007581e+00
 4.952193059103838e-01	 1.465655404789880e+00	 4.423144032578604e+00
 4.816703519704932e-01	 1.470163825961741e+00	 4.306743166886979e+00
 4.681102925799156e-01	 1.474537497229151e+00	 4.206431603773776e+00
 4.545410203970298e-01	 1.478776725798380e+00	 4.122930136164269e+00
 4.409644136750849e-01	 1.482881852123574e+00	 4.054868691260138e+00
 4.273823355879728e-01	 1.486853249381933e+00	 3.980842567810638e+00
 4.137966335751952e-01	 1.490691322934210e+00	 3.895879264456063e+00
 4.002091387063301e-01	 1.494396509771284e+00	 3.801794874235672e+00
 5.388360176534135e-01	 1.459596100622796e+00	 4.931189634440030e+00
 5.252548540185452e-01	 1.464538300761968e+00	 4.787538365299802e+00
 5.116567313795790e-01	 1.469344261295668e+00	 4.659096189070070e+00
 4.980435923945024e-01	 1.474014187861330e+00	 4.547642377133572e+00
 4.844173673805691e-01	 1.478548321021499e+00	 4.454565605354743e+00
 4.707799735804418e-01	 1.482946935784657e+00	 4.379000542489574e+00
 4.571333144465422e-01	 1.487210341109111e+00	 4.297730579357843e+00
 4.434792789440081e-01	 1.491338879390661e+00	 4.204993164619558e+00
 4.298197408726202e-01	 1.495332925934780e+00	 4.102633829725443e+00
 4.161565582080354e-01	 1.499192888414045e+00	 3.992632043551459e+00
 4.024915724626263e-01	 1.502919206311548e+00	 3.877103799242891e+00
 5.418916282575384e-01	 1.467873122157929e+00	 5.049267666276299e+00
 5.282334490810263e-01	 1.472843348336149e+00	 4.927280000699700e+00
 5.145582147299198e-01	 1.477676562326513e+00	 4.824277099453069e+00
 5.008678788785720e-01	 1.482372970932583e+00	 4.741259421604610e+00
 4.871643827906217e-01	 1.486932816081087e+00	 4.655896095233869e+00
 4.734496545809729e-01	 1.491356374340022e+00	 4.557935590901875e+00
 4.597256084960878e-01	 1.495643956419731e+00	 4.449154214553234e+00
 4.459941442129904e-01	 1.499795906657666e+00	 4.331453402412764e+00
 4.322571461573484e-01	 1.503812602487578e+00	 4.206864660819191e+00
 4.185164828409708e-01	 1.507694453893865e+00	 4.077552873288535e+00
 4.047740062190222e-01	 1.511441902851830e+00	 3.945818102536695e+00
 5.449472388614981e-01	 1.476150143692762e+00	 5.210993381499348e+00
 5.312120441433595e-01	 1.481148395910043e+00	 5.119108493702562e+00
 5.174596980801408e-01	 1.486008863357090e+00	 5.033724360408694e+00
 5.036921653625578e-01	 1.490731754003592e+00	 4.934724634341948e+00
 4.899113982006313e-01	 1.495317311140457e+00	 4.823635432302179e+00
 4.761193355815037e-01	 1.499765812895197e+00	 4.702185131771095e+00
 4.623179025456745e-01	 1.504077571730192e+00	 4.572221630844638e+00
 4.485090094820507e-01	 1.508252933924546e+00	 4.435718575700278e+00
 4.346945514421844e-01	 1.512292279040283e+00	 4.294779764174075e+00
 4.208764074740328e-01	 1.516196019373624e+00	 4.151641851722685e+00
 4.070564399755510e-01	 1.519964599392081e+00	 4.008675494284576e+00
 5.480028494652096e-01	 1.484427165227262e+00	 5.409841648057879e+00
 5.341906392054778e-01	 1.489453443483611e+00	 5.313206125112897e+00
 5.203611814301912e-01	 1.494341164387353e+00	 5.203738214739744e+00
 5.065164518464250e-01	 1.499090537074308e+00	 5.082911405944747e+00
 4.926584136105788e-01	 1.503701806199560e+00	 4.952301465411025e+00
 4.787890165820292e-01	 1.508175251450136e+00	 4.813596496387336e+00
 4.649101965953096e-01	 1.512511187040449e+00	 4.668604862802444e+00
 4.510238747512069e-01	 1.516709961191254e+00	 4.519261090148278e+00
 4.371319567271537e-01	 1.520771955592849e+00	 4.367629865997404e+00
 4.232363321072532e-01	 1.524697584853274e+00	 4.215908272978424e+00
 4.093388737322460e-01	 1.528487295932251e+00	 4.066426395566176e+00
 5.510584600685913e-01	 1.492704186761395e+00	 5.570264939512953e+00
 5.371692342673143e-01	 1.497758491056808e+00	 5.452496086931490e+00
 5.232626647800200e-01	 1.502673465417256e+00	 5.324610842805845e+00
 5.093407383301393e-01	 1.507449320144682e+00	 5.187932754661484e+00
 4.954054290204444e-01	 1.512086301258349e+00	 5.043888181278923e+00
 4.814586975825439e-01	 1.516584690004791e+00	 4.894016342388733e+00
 4.675024906450008e-01	 1.520944802350454e+00	 4.739977139955021e+00
 4.535387400204777e-01	 1.525166988457745e+00	 4.583556868381874e+00
 4.395693620122836e-01	 1.529251632145231e+00	 4.426671942712913e+00
 4.255962567406635e-01	 1.533199150332770e+00	 4.271370784228981e+00
 4.116213074891404e-01	 1.537009992472289e+00	 4.119834011688613e+00
 5.541140706715604e-01	 1.500981208295127e+00	 5.672635418870932e+00
 5.401478293288025e-01	 1.506063538629595e+00	 5.539142430868570e+00
 5.261641481295767e-01	 1.511005766446753e+00	 5.398540950690215e+00
 5.121650248136650e-01	 1.515808103214667e+00	 5.251899117037302e+00
 4.981524444302087e-01	 1.520470796316772e+00	 5.100387836592178e+00
 4.841283785830433e-01	 1.524994128559112e+00	 4.945290968567026e+00
 4.700947846947560e-01	 1.529378417660163e+00	 4.788013181952622e+00
 4.560536052898813e-01	 1.533624015723974e+00	 4.630085608583223e+00
 4.420067672976006e-01	 1.537731308697385e+00	 4.473169427324192e+00
 4.279561813742956e-01	 1.541700715812063e+00	 4.319057525398494e+00
 4.139037412462674e-01	 1.545532689012144e+00	 4.169674392059016e+00
 5.571696812740350e-01	 1.509258229828425e+00	 5.719228698743786e+00
 5.431264243898752e-01	 1.514368586201928e+00	 5.575397729284910e+00
 5.290656314788106e-01	 1.519338067475797e+00	 5.427724602860686e+00
 5.149893112969677e-01	 1.524166886284214e+00	 5.276918616793925e+00
 5.008994598398526e-01	 1.528855291374784e+00	 5.123791245639093e+00
 4.867980595835216e-01	 1.533403567113055e+00	 4.969266602436649e+00
 4.726870787445826e-01	 1.537812032969529e+00	 4.814389468447184e+00
 4.585684705594363e-01	 1.542081042989898e+00	 4.660331020258281e+00
 4.444441725831308e-01	 1.546210985249264e+00	 4.508392395842407e+00
 4.303161060081809e-01	 1.550202281291109e+00	 4.360006252244990e+00
 4.161861750036603e-01	 1.554055385551768e+00	 4.216736477127533e+00
 5.602252918759325e-01	 1.517535251361254e+00	 5.712318943942535e+00
 5.461050194504662e-01	 1.522673633773767e+00	 5.563512309119647e+00
 5.319671148276707e-01	 1.527670368504342e+00	 5.414355423708892e+00
 5.178135977800125e-01	 1.532525669353275e+00	 5.265097305338909e+00
 5.036464752493562e-01	 1.537239786432333e+00	 5.116088040382462e+00
 4.894677405839741e-01	 1.541813005666570e+00	 4.967789661608451e+00
 4.752793727944883e-01	 1.546245648278505e+00	 4.820784484655043e+00
 4.610833358291607e-01	 1.550538070255469e+00	 4.675781038035058e+00
 4.468815778689010e-01	 1.554690661800824e+00	 4.533617734541881e+00
 4.326760306423511e-01	 1.558703846769861e+00	 4.395264443458048e+00
 4.184686087613524e-01	 1.562578082091108e+00	 4.261822132899859e+00
 3.956442711939038e-01	 1.477351116691019e+00	 3.644968430605613e+00
 3.822117792468353e-01	 1.480883133461804e+00	 3.586940433174758e+00
 3.687810853789673e-01	 1.484284736740762e+00	 3.544919352939731e+00
 3.553539486873725e-01	 1.487556450846154e+00	 3.501843907866713e+00
 3.419321097195881e-01	 1.490698829042657e+00	 3.456206430006540e+00
 3.285172899454604e-01	 1.493712452934736e+00	 3.406960594241776e+00
 3.151111912495110e-01	 1.496597931850662e+00	 3.353557972711203e+00
 3.017154954439191e-01	 1.499355902217940e+00	 3.295897902358598e+00
 2.883318638021947e-01	 1.501987026930858e+00	 3.234280139870462e+00
 2.749619366135821e-01	 1.504491994710871e+00	 3.169360265156605e+00
 2.616073327582157e-01	 1.506871519460547e+00	 3.102107783183505e+00
 3.979267049501003e-01	 1.485873813231091e+00	 3.719166240957436e+00
 3.844167222487311e-01	 1.489426205866871e+00	 3.649154883499105e+00
 3.709085479996148e-01	 1.492847432667928e+00	 3.583442596278103e+00
 3.574039514478568e-01	 1.496138020977261e+00	 3.519678947372314e+00
 3.439046831820171e-01	 1.499298527251279e+00	 3.456557667559426e+00
 3.304124746029072e-01	 1.502329536449662e+00	 3.392774949511963e+00
 3.169290374130285e-01	 1.505231661415839e+00	 3.327514665945293e+00
 3.034560631267449e-01	 1.508005542248799e+00	 3.260399071202632e+00
 2.899952226012659e-01	 1.510651845667006e+00	 3.191441493232058e+00
 2.765481655884793e-01	 1.513171264365078e+00	 3.121001867054996e+00
 2.631165203076562e-01	 1.515564516364017e+00	 3.049745053864463e+00
 4.002091387063301e-01	 1.494396509771284e+00	 3.801794874235672e+00
 3.866216652506577e-01	 1.497969278272107e+00	 3.708822399563524e+00
 3.730360106202864e-01	 1.501410128595314e+00	 3.623502632242180e+00
 3.594539542083551e-01	 1.504719591108642e+00	 3.542854167410422e+00
 3.458772566444450e-01	 1.507898225460224e+00	 3.465382085484844e+00
 3.323076592603333e-01	 1.510946619964957e+00	 3.389615967578193e+00
 3.187468835765012e-01	 1.513865390981419e+00	 3.314542181327631e+00
 3.051966308094975e-01	 1.516655182280088e+00	 3.239575944986800e+00
 2.916585814002307e-01	 1.519316664403590e+00	 3.164513978252104e+00
 2.781343945632320e-01	 1.521850534019712e+00	 3.089490091770258e+00
 2.646257078569091e-01	 1.524257513267884e+00	 3.014933653660212e+00
 4.024915724626263e-01	 1.502919206311548e+00	 3.877103799242891e+00
 3.888266082526464e-01	 1.506512350677455e+00	 3.766037201234655e+00
 3.751634732410087e-01	 1.509972824522856e+00	 3.665301256645681e+00
 3.615039569688854e-01	 1.513301161240222e+00	 3.571383356228736e+00
 3.478498301068813e-01	 1.516497923669408e+00	 3.482531531804342e+00
 3.342028439177397e-01	 1.519563703480526e+00	 3.397199814785258e+00
 3.205647297399223e-01	 1.522499120547302e+00	 3.314246134352162e+00
 3.069371984921631e-01	 1.525304822311696e+00	 3.232947567448064e+00
 2.933219401990707e-01	 1.527981483140502e+00	 3.152952871928773e+00
 2.797206235378206e-01	 1.530529803674665e+00	 3.074238059854111e+00
 2.661348954059583e-01	 1.532950510172047e+00	 2.997064943344268e+00
 4.047740062190222e-01	 1.511441902851830e+00	 3.945818102536695e+00
 3.910315512547278e-01	 1.515055423082858e+00	 3.821263685612103e+00
 3.772909358618069e-01	 1.518535520450489e+00	 3.709068773365036e+00
 3.635539597294665e-01	 1.521882731371924e+00	 3.605296485159522e+00
 3.498224035693366e-01	 1.525097621878746e+00	 3.507874777410010e+00
 3.360980285751278e-01	 1.528180786996274e+00	 3.415259948910824e+00
 3.223825759032845e-01	 1.531132850113384e+00	 3.326249453331868e+00
 3.086777661747279e-01	 1.533954462343517e+00	 3.240049993096910e+00
 2.949852989977679e-01	 1.536646301877630e+00	 3.156229859990587e+00
 2.813068525122265e-01	 1.539209073329832e+00	 3.074674421686410e+00
 2.676440829547879e-01	 1.541643507076409e+00	 2.995544680573472e+00
 4.070564399755510e-01	 1.519964599392081e+00	 4.008675494284576e+00
 3.932364942569336e-01	 1.523598495488259e+00	 3.874982316653755e+00
 3.794183984827072e-01	 1.527098216378146e+00	 3.755054370759034e+00
 3.656039624901168e-01	 1.530464301503675e+00	 3.644639989977819e+00
 3.517949770318200e-01	 1.533697320088152e+00	 3.541297703769371e+00
 3.379932132324985e-01	 1.536797870512107e+00	 3.443547228346358e+00
 3.242004220665807e-01	 1.539766579679563e+00	 3.350192424421842e+00
 3.104183338571776e-01	 1.542604102375442e+00	 3.260436281679346e+00
 2.966486577963042e-01	 1.545311120614868e+00	 3.173832993632913e+00
 2.828930814864300e-01	 1.547888342985105e+00	 3.090243288538372e+00
 2.691532705033814e-01	 1.550336503980869e+00	 3.009792936571262e+00
 4.093388737322460e-01	 1.528487295932251e+00	 4.066426395566176e+00
 3.954414372592944e-01	 1.532141567893601e+00	 3.927689625357304e+00
 3.815458611037352e-01	 1.535660912305761e+00	 3.803526048428946e+00
 3.676539652508549e-01	 1.539045871635399e+00	 3.689477048325557e+00
 3.537675504943423e-01	 1.542297018297540e+00	 3.582703489234397e+00
 3.398883978898529e-01	 1.545414954027931e+00	 3.481830021951463e+00
 3.260182682298037e-01	 1.548400309245738e+00	 3.385732738947201e+00
 3.121589015394989e-01	 1.551253742407367e+00	 3.293676496169463e+00
 2.983120165946614e-01	 1.553975939352105e+00	 3.205266650612975e+00
 2.844793104604125e-01	 1.556567612640378e+00	 3.120404168466188e+00
 2.706624580517231e-01	 1.559029500885329e+00	 3.039244017760611e+00
 4.116213074891404e-01	 1.537009992472289e+00	 4.119834011688613e+00
 3.976463802618413e-01	 1.540684640298826e+00	 3.979898199872656e+00
 3.836733237249167e-01	 1.544223608233268e+00	 3.854770537303746e+00
 3.697039680116991e-01	 1.547627441767019e+00	 3.739887853362327e+00
 3.557401239569128e-01	 1.550896716506826e+00	 3.632012794008783e+00
 3.417835825471919e-01	 1.554032037543648e+00	 3.529894319563811e+00
 3.278361143929464e-01	 1.557034038811805e+00	 3.432545542958931e+00
 3.138994692216779e-01	 1.559903382439181e+00	 3.339357704154425e+00
 2.999753753928214e-01	 1.562640758089232e+00	 3.250051500534359e+00
 2.860655394341541e-01	 1.565246882295545e+00	 3.164631906839954e+00
 2.721716455997967e-01	 1.567722497789690e+00	 3.083346392149854e+00
 4.139037412462674e-01	 1.545532689012144e+00	 4.169674392059016e+00
 3.998513232646057e-01	 1.549227712703878e+00	 4.032136665933285e+00
 3.858007863462779e-01	 1.552786304160603e+00	 3.909093213309109e+00
 3.717539707726681e-01	 1.556209011898460e+00	 3.795964860494276e+00
 3.577126974195418e-01	 1.559496414715923e+00	 3.689163943828938e+00
 3.436787672045168e-01	 1.562649121059167e+00	 3.587543843131106e+00
 3.296539605560016e-01	 1.565667768377662e+00	 3.490323488919116e+00
 3.156400369037006e-01	 1.568553022470778e+00	 3.397083982484675e+00
 3.016387341907656e-01	 1.571305576826140e+00	 3.307724474163009e+00
 2.876517684076362e-01	 1.573926151950498e+00	 3.222416631326718e+00
 2.736808331475863e-01	 1.576415494693853e+00	 3.141562620288322e+00
 4.161861750036603e-01	 1.554055385551768e+00	 4.216736477127533e+00
 4.020562662676184e-01	 1.557770785108700e+00	 4.084949657971948e+00
 3.879282489678443e-01	 1.561349000087700e+00	 3.966818004870775e+00
 3.738039735337803e-01	 1.564790582029647e+00	 3.857812041932927e+00
 3.596852708822389e-01	 1.568096112924747e+00	 3.754113112408026e+00
 3.455739518618289e-01	 1.571266204574392e+00	 3.654600158450400e+00
 3.314718067189623e-01	 1.574301497943207e+00	 3.558776789447866e+00
 3.173806045855531e-01	 1.577202662502051e+00	 3.466476425055966e+00
 3.033020929884768e-01	 1.579970395562720e+00	 3.377838736614732e+00
 2.892379973808393e-01	 1.582605421605131e+00	 3.293263701163172e+00
 2.751900206950757e-01	 1.585108491597720e+00	 3.213369290621086e+00
 4.184686087613524e-01	 1.562578082091108e+00	 4.261822132899859e+00
 4.042612092709105e-01	 1.566313857513235e+00	 4.138897781291377e+00
 3.900557115896419e-01	 1.569911696014492e+00	 4.028287294482306e+00
 3.758539762950538e-01	 1.573372152160505e+00	 3.925574414584068e+00
 3.616578443450143e-01	 1.576695811133211e+00	 3.826834502690417e+00
 3.474691365191289e-01	 1.579883288089228e+00	 3.730902787488350e+00
 3.332896528818214e-01	 1.582935227508337e+00	 3.637633273042087e+00
 3.191211722672218e-01	 1.585852302532892e+00	 3.547173153620708e+00
 3.049654517859358e-01	 1.588635214298862e+00	 3.459963664273278e+00
 2.908242263537443e-01	 1.591284691259338e+00	 3.376693660551512e+00
 2.766992082422489e-01	 1.593801488501192e+00	 3.298256959067686e+00
 2.616073327582157e-01	 1.506871519460547e+00	 3.102107783183520e+00
 2.482673838752059e-01	 1.509126712206869e+00	 3.033464018605061e+00
 2.349459403107126e-01	 1.511257919523690e+00	 2.963848407487201e+00
 2.216445585885345e-01	 1.513265926228268e+00	 2.893777424361798e+00
 2.083647722423004e-01	 1.515151539716700e+00	 2.823947339045271e+00
 1.951080914932949e-01	 1.516915589294963e+00	 2.755206063576298e+00
 1.818760029487244e-01	 1.518558925507594e+00	 2.688527176256768e+00
 1.686699693202753e-01	 1.520082419464677e+00	 2.624986021762438e+00
 1.554914291627973e-01	 1.521486962167761e+00	 2.565737783150730e+00
 1.423417966329233e-01	 1.522773463835312e+00	 2.511997419318903e+00
 1.292224612674189e-01	 1.523942853228325e+00	 2.465021360034441e+00
 2.631165203076562e-01	 1.515564516364017e+00	 3.049745053864464e+00
 2.496996145421800e-01	 1.517832719100216e+00	 2.978274176235217e+00
 2.363013208505068e-01	 1.519976221146880e+00	 2.906836989816754e+00
 2.229232047359003e-01	 1.521995811848809e+00	 2.835880247255281e+00
 2.095668085788256e-01	 1.523892303259896e+00	 2.766021902743449e+00
 1.962336513129168e-01	 1.525666529470308e+00	 2.698023227290476e+00
 1.829252281215022e-01	 1.527319345931298e+00	 2.632763160269383e+00
 1.696430101545389e-01	 1.528851628778306e+00	 2.571214790209676e+00
 1.563884442657881e-01	 1.530264274152987e+00	 2.514423854713275e+00
 1.431629527700431e-01	 1.531558197524774e+00	 2.463489147172644e+00
 1.299679332201999e-01	 1.532734333012601e+00	 2.419544716647023e+00
 2.646257078569091e-01	 1.524257513267884e+00	 3.014933653660212e+00
 2.511318452089191e-01	 1.526538725993905e+00	 2.941185370464458e+00
 2.376567013900173e-01	 1.528694522770340e+00	 2.868353618747496e+00
 2.242018508829361e-01	 1.530725697469535e+00	 2.796818990761387e+00
 2.107688449149809e-01	 1.532633066803184e+00	 2.727124229478314e+00
 1.973592111321389e-01	 1.534417469645651e+00	 2.659946637347447e+00
 1.839744532938637e-01	 1.536079766354907e+00	 2.596072781821137e+00
 1.706160509883864e-01	 1.537620838091754e+00	 2.536375384422442e+00
 1.572854593683837e-01	 1.539041586137960e+00	 2.481792277065712e+00
 1.439841089068125e-01	 1.540342931213930e+00	 2.433307307254881e+00
 1.307134051727029e-01	 1.541525812796541e+00	 2.391933072552761e+00
 2.661348954059583e-01	 1.532950510172047e+00	 2.997064943344268e+00
 2.525640758754147e-01	 1.535244732887851e+00	 2.921579976592849e+00
 2.390120819292470e-01	 1.537412824394003e+00	 2.847777575014650e+00
 2.254804970296585e-01	 1.539455583090400e+00	 2.775975595350724e+00
 2.119708812507968e-01	 1.541373830346541e+00	 2.706644521737812e+00
 1.984847709510047e-01	 1.543168409820991e+00	 2.640380194199609e+00
 1.850236784658633e-01	 1.544840186778444e+00	 2.577878895737050e+00
 1.715890918218799e-01	 1.546390047405068e+00	 2.519914678370339e+00
 1.581824744706486e-01	 1.547818898122745e+00	 2.467318805502333e+00
 1.448052650432924e-01	 1.549127664902857e+00	 2.420961185938308e+00
 1.314588771249771e-01	 1.550317292580228e+00	 2.381733673821211e+00
 2.676440829547879e-01	 1.541643507076409e+00	 2.995544680573472e+00
 2.539963065416587e-01	 1.543950739781967e+00	 2.918853546280957e+00
 2.403674624681990e-01	 1.546131126017801e+00	 2.844500157273520e+00
 2.267591431760836e-01	 1.548185468711358e+00	 2.772742919636226e+00
 2.131729175863037e-01	 1.550114593889945e+00	 2.703982855405057e+00
 1.996103307695577e-01	 1.551919349996329e+00	 2.638736678150477e+00
 1.860729036375554e-01	 1.553600607201934e+00	 2.577612290340046e+00
 1.725621326550812e-01	 1.555159256718291e+00	 2.521286576208387e+00
 1.590794895726473e-01	 1.556596210107402e+00	 2.470485360925683e+00
 1.456264211795432e-01	 1.557912398591630e+00	 2.425965404949631e+00
 1.322043490770718e-01	 1.559108772363745e+00	 2.388498301437770e+00
 2.691532705033814e-01	 1.550336503980869e+00	 3.009792936571262e+00
 2.554285372076425e-01	 1.552656746676170e+00	 2.932414716320030e+00
 2.417228430068760e-01	 1.554849427641667e+00	 2.857924585077463e+00
 2.280377893222278e-01	 1.556915354332362e+00	 2.786524639615434e+00
 2.143749539215315e-01	 1.558855357433372e+00	 2.718549077253411e+00
 2.007358905878413e-01	 1.560670290171667e+00	 2.654437647017111e+00
 1.871221288089945e-01	 1.562361027625399e+00	 2.594711587135087e+00
 1.735351734880523e-01	 1.563928466031469e+00	 2.539951915740201e+00
 1.599765046744442e-01	 1.565373522091998e+00	 2.490779938794383e+00
 1.464475773156259e-01	 1.566697132280327e+00	 2.447839837423011e+00
 1.329498210290364e-01	 1.567900252147179e+00	 2.411783196005314e+00
 2.706624580517231e-01	 1.559029500885329e+00	 3.039244017760611e+00
 2.568607678733580e-01	 1.561362753570373e+00	 2.961685122287661e+00
 2.430782235452811e-01	 1.563567729265533e+00	 2.887465906643854e+00
 2.293164354681073e-01	 1.565645239953367e+00	 2.816735152571050e+00
 2.155769902565106e-01	 1.567596120976798e+00	 2.749762706929165e+00
 2.018614504058989e-01	 1.569421230347005e+00	 2.686913338077539e+00
 1.881713539802353e-01	 1.571121448048864e+00	 2.628623144525752e+00
 1.745082143208551e-01	 1.572697675344647e+00	 2.575378375656159e+00
 1.608735197761037e-01	 1.574150834076592e+00	 2.527696521531166e+00
 1.472687334516011e-01	 1.575481865969024e+00	 2.486109527071044e+00
 1.336952929809201e-01	 1.576691731930613e+00	 2.451148985187661e+00
 2.721716455997967e-01	 1.567722497789690e+00	 3.083346392149854e+00
 2.582929985387967e-01	 1.570068760464489e+00	 3.006099316902385e+00
 2.444336040834171e-01	 1.572286030889331e+00	 2.932550911229971e+00
 2.305950816137382e-01	 1.574375125574324e+00	 2.862799485445811e+00
 2.167790265912712e-01	 1.576336884520202e+00	 2.797052843249290e+00
 2.029870102237739e-01	 1.578172170522343e+00	 2.735602574137363e+00
 1.892205791513319e-01	 1.579881868472354e+00	 2.678800965425713e+00
 1.754812551535516e-01	 1.581466884657869e+00	 2.627040386382558e+00
 1.617705348776905e-01	 1.582928146061250e+00	 2.580734994253546e+00
 1.480898895875295e-01	 1.584266599657797e+00	 2.540304610345807e+00
 1.344407649327723e-01	 1.585483211714131e+00	 2.506160613785887e+00
 2.736808331475863e-01	 1.576415494693853e+00	 3.141562620288322e+00
 2.597252292039504e-01	 1.578774767358436e+00	 3.065104692895956e+00
 2.457889846212869e-01	 1.581004332512994e+00	 2.992618045933092e+00
 2.318737277591369e-01	 1.583105011195190e+00	 2.924153207525818e+00
 2.179810629258437e-01	 1.585077648063559e+00	 2.859858074645421e+00
 2.041125700415098e-01	 1.586923110697683e+00	 2.799952673548003e+00
 1.902698043223391e-01	 1.588642288895891e+00	 2.744706608598578e+00
 1.764542959862037e-01	 1.590236093971183e+00	 2.694419044420182e+00
 1.626675499792689e-01	 1.591705458046034e+00	 2.649401063701517e+00
 1.489110457234718e-01	 1.593051333346724e+00	 2.609960241485553e+00
 1.351862368846424e-01	 1.594274691497817e+00	 2.576387276351095e+00
 2.751900206950757e-01	 1.585108491597720e+00	 3.213369290621086e+00
 2.611574598688104e-01	 1.587480774252124e+00	 3.138161410225682e+00
 2.471443651588935e-01	 1.589722634136455e+00	 3.067117336748912e+00
 2.331523739043196e-01	 1.591834896815916e+00	 3.000242347262151e+00
 2.191830992602580e-01	 1.593818411606847e+00	 2.937626393597405e+00
 2.052381298591504e-01	 1.595674050873026e+00	 2.879419364039628e+00
 1.913190294933112e-01	 1.597402709319500e+00	 2.825809103596528e+00
 1.774273368188733e-01	 1.599005303284631e+00	 2.777002030025903e+00
 1.635645650809033e-01	 1.600482770031007e+00	 2.733206180237050e+00
 1.497322018594886e-01	 1.601836067035880e+00	 2.694616520324442e+00
 1.359317088365796e-01	 1.603066171281757e+00	 2.661402352230220e+00
 2.766992082422489e-01	 1.593801488501192e+00	 3.298256959067686e+00
 2.625896905333688e-01	 1.596186781145472e+00	 3.224742327471503e+00
 2.484997456962398e-01	 1.598440935759645e+00	 3.155510313730164e+00
 2.344310200493027e-01	 1.600564782436457e+00	 3.090523313073341e+00
 2.203851355945446e-01	 1.602559175150043e+00	 3.029815114906966e+00
 2.063636896767386e-01	 1.604424991048371e+00	 2.973466700206880e+00
 1.923682546643027e-01	 1.606163129743204e+00	 2.921584869147799e+00
 1.784003776516225e-01	 1.607774512598260e+00	 2.874283528117879e+00
 1.644615801826584e-01	 1.609260082016233e+00	 2.831667462800370e+00
 1.505533579956408e-01	 1.610620800725342e+00	 2.793818422769616e+00
 1.366771807886333e-01	 1.611857651066033e+00	 2.760783342953161e+00
 1.292224612674189e-01	 1.523942853228325e+00	 2.465021360034441e+00
 1.161370045432490e-01	 1.524995907719813e+00	 2.424290771132586e+00
 1.030845074523524e-01	 1.525933799106504e+00	 2.388168859489367e+00
 9.006625410705957e-02	 1.526757506934695e+00	 2.356289079498097e+00
 7.708350413538470e-02	 1.527468026584641e+00	 2.328291416309778e+00
 6.413749255031878e-02	 1.528066368615300e+00	 2.303813159707706e+00
 5.122942963663374e-02	 1.528553558112195e+00	 2.282480717149300e+00
 3.836050085490671e-02	 1.528930634038844e+00	 2.263902366240959e+00
 2.553186676246194e-02	 1.529198648592264e+00	 2.247661850554284e+00
 1.274466295091584e-02	 1.529358666562981e+00	 2.233312726679488e+00
 0.000000000000000e+00	 1.529411764700000e+00	 2.220373372852293e+00
 1.299679332201999e-01	 1.532734333012601e+00	 2.419544716647015e+00
 1.168069877544363e-01	 1.533793462474074e+00	 2.381926195525630e+00
 1.036791920629995e-01	 1.534736764465901e+00	 2.348935100466008e+00
 9.058583766610906e-02	 1.535565224185284e+00	 2.320198602821373e+00
 7.752819145842089e-02	 1.536279842754725e+00	 2.295345787555557e+00
 6.450749557756634e-02	 1.536881636562999e+00	 2.273998902586909e+00
 5.152496729030349e-02	 1.537371636609242e+00	 2.255765655663104e+00
 3.858179889598756e-02	 1.537750887850650e+00	 2.240232454710592e+00
 2.567915764705685e-02	 1.538020448554258e+00	 2.226958491487442e+00
 1.281818568621749e-02	 1.538181389653266e+00	 2.215470572600188e+00
 0.000000000000000e+00	 1.538234794108333e+00	 2.205258604610311e+00
 1.307134051727029e-01	 1.541525812796541e+00	 2.391933072552745e+00
 1.174769709654458e-01	 1.542591017227994e+00	 2.356874971350801e+00
 1.042738766735866e-01	 1.543539729824975e+00	 2.326399984988728e+00
 9.110542122522107e-02	 1.544372941435584e+00	 2.300147433206654e+00
 7.797287878163402e-02	 1.545091658924567e+00	 2.277753484439951e+00
 6.487749860508464e-02	 1.545696904510509e+00	 2.258842893404385e+00
 5.182050494430460e-02	 1.546189715106154e+00	 2.243021794921809e+00
 3.880309693741504e-02	 1.546571141662372e+00	 2.229871445473877e+00
 2.582644853195619e-02	 1.546842248516213e+00	 2.218942808098344e+00
 1.289170842171192e-02	 1.547004112743540e+00	 2.209751880750583e+00
 0.000000000000000e+00	 1.547057823516667e+00	 2.201775671144492e+00
 1.314588771249771e-01	 1.550317292580228e+00	 2.381733673821219e+00
 1.181469541763070e-01	 1.551388571981657e+00	 2.348726341932978e+00
 1.048685612841183e-01	 1.552342695183805e+00	 2.320198198062323e+00
 9.162500478437302e-02	 1.553180658685667e+00	 2.295818590084582e+00
 7.841756610497545e-02	 1.553903475094228e+00	 2.275248201323189e+00
 6.524750163280341e-02	 1.554512172457876e+00	 2.258131290356162e+00
 5.211604259855294e-02	 1.555007793602966e+00	 2.244088996070926e+00
 3.902439497910197e-02	 1.555391395474033e+00	 2.232713594870630e+00
 2.597373941708367e-02	 1.555664048478137e+00	 2.223563601317573e+00
 1.296523115735092e-02	 1.555826835833806e+00	 2.216159608273532e+00
 0.000000000000000e+00	 1.555880852925000e+00	 2.209980765729716e+00
 1.322043490770718e-01	 1.559108772363745e+00	 2.388498301437770e+00
 1.188169373870500e-01	 1.560186126735149e+00	 2.357073313920698e+00
 1.054632458945994e-01	 1.561145660542473e+00	 2.329967448707167e+00
 9.214458834354247e-02	 1.561988375935605e+00	 2.306897412203580e+00
 7.886225342839680e-02	 1.562715291263768e+00	 2.287565284035476e+00
 6.561750466065261e-02	 1.563327440405150e+00	 2.271651274250115e+00
 5.241158025296448e-02	 1.563825872099712e+00	 2.258807555056331e+00
 3.924569302096115e-02	 1.564211649285652e+00	 2.248653049277993e+00
 2.612103030236307e-02	 1.564485848440041e+00	 2.240769062346471e+00
 1.303875389308628e-02	 1.564649558924066e+00	 2.234695649716103e+00
 0.000000000000000e+00	 1.564703882333334e+00	 2.229928614962694e+00
 1.329498210290364e-01	 1.567900252147179e+00	 2.411783196005314e+00
 1.194869205977044e-01	 1.568983681488557e+00	 2.381512592007073e+00
 1.060579305050347e-01	 1.569948625901061e+00	 2.355348415751092e+00
 9.266417190270691e-02	 1.570796093185471e+00	 2.333071515290709e+00
 7.930694075184948e-02	 1.571527107433247e+00	 2.314441699919623e+00
 6.598750768856204e-02	 1.572142708352377e+00	 2.299191031173023e+00
 5.270711790745506e-02	 1.572643950596423e+00	 2.287018197898900e+00
 3.946699106290542e-02	 1.573031903097251e+00	 2.277583852704561e+00
 2.626832118771809e-02	 1.573307648401937e+00	 2.270506792022084e+00
 1.311227662886979e-02	 1.573472282014324e+00	 2.265360867365975e+00
 0.000000000000000e+00	 1.573526911741667e+00	 2.261672519012826e+00
 1.336952929809201e-01	 1.576691731930613e+00	 2.451148985187661e+00
 1.201569038083001e-01	 1.577781236241964e+00	 2.421644515983084e+00
 1.066526151154288e-01	 1.578751591259648e+00	 2.395984695543437e+00
 9.318375546184397e-02	 1.579603810435338e+00	 2.374030751194085e+00
 7.975162807528487e-02	 1.580338923602726e+00	 2.355616008908965e+00
 6.635751071646155e-02	 1.580957976299603e+00	 2.340539735752231e+00
 5.300265556194057e-02	 1.581462029093134e+00	 2.328562076124302e+00
 3.968828910484756e-02	 1.581852156908849e+00	 2.319399954124477e+00
 2.641561207307251e-02	 1.582129448363831e+00	 2.312723819532478e+00
 1.318579936465323e-02	 1.582295005104581e+00	 2.308155120571203e+00
 0.000000000000000e+00	 1.582349941150001e+00	 2.305264390526899e+00
 1.344407649327723e-01	 1.585483211714131e+00	 2.506160613785895e+00
 1.208268870188669e-01	 1.586578790995455e+00	 2.477073000043436e+00
 1.072472997257866e-01	 1.587554556618316e+00	 2.451522751505343e+00
 9.370333902093100e-02	 1.588411527685276e+00	 2.429467168440449e+00
 8.019631539865456e-02	 1.589150739772266e+00	 2.410828335601616e+00
 6.672751374428097e-02	 1.589773244246877e+00	 2.395487534990365e+00
 5.329819321633694e-02	 1.590280107589879e+00	 2.383280762357750e+00
 3.990958714670042e-02	 1.590672410720468e+00	 2.373995214568533e+00
 2.656290295835006e-02	 1.590951248325736e+00	 2.367366620503975e+00
 1.325932210038839e-02	 1.591117728194842e+00	 2.363077294083326e+00
 0.000000000000000e+00	 1.591172970558334e+00	 2.360754792239157e+00
 1.351862368846424e-01	 1.594274691497817e+00	 2.576387276351095e+00
 1.214968702294345e-01	 1.595376345749119e+00	 2.547405474249412e+00
 1.078419843361127e-01	 1.596357521977147e+00	 2.521611865447134e+00
 9.422292257994572e-02	 1.597219244935359e+00	 2.499074974160469e+00
 8.064100272190992e-02	 1.597962555941926e+00	 2.479820342284202e+00
 6.709751677195017e-02	 1.598588512194245e+00	 2.463825532647061e+00
 5.359373087056002e-02	 1.599098186086691e+00	 2.451016246057227e+00
 4.013088518837676e-02	 1.599492664532128e+00	 2.441263413977893e+00
 2.671019384347448e-02	 1.599773048287660e+00	 2.434381134490661e+00
 1.333284483602705e-02	 1.599940451285107e+00	 2.430125325458375e+00
 0.000000000000000e+00	 1.599995999966668e+00	 2.428192973336829e+00
 1.359317088365796e-01	 1.603066171281757e+00	 2.661402352230220e+00
 1.221668534400328e-01	 1.604173900503038e+00	 2.632252828067014e+00
 1.084366689464120e-01	 1.605160487336221e+00	 2.605904090590956e+00
 9.474250613886555e-02	 1.606026962185658e+00	 2.582550497327762e+00
 8.108569004500246e-02	 1.606774372111768e+00	 2.562335202887248e+00
 6.746751979939895e-02	 1.607403780141754e+00	 2.545345774148021e+00
 5.388926852452577e-02	 1.607916264583604e+00	 2.531610929399385e+00
 4.035218322978945e-02	 1.608312918343851e+00	 2.521098257831459e+00
 2.685748472836951e-02	 1.608594848249614e+00	 2.513712781884880e+00
 1.340636757152100e-02	 1.608763174375381e+00	 2.509296231558175e+00
 0.000000000000000e+00	 1.608819029375000e+00	 2.507626904627944e+00
 1.366771807886333e-01	 1.611857651066033e+00	 2.760783342953161e+00
 1.228368366506916e-01	 1.612971455257300e+00	 2.731229355910814e+00
 1.090313535566891e-01	 1.613963452695617e+00	 2.704054206225605e+00
 9.526208969766804e-02	 1.614834679436247e+00	 2.679592153257196e+00
 8.153037736788364e-02	 1.615586188281853e+00	 2.658117577813652e+00
 6.783752282655720e-02	 1.616219048089453e+00	 2.639841232004832e+00
 5.418480617815002e-02	 1.616734343080651e+00	 2.624907623297688e+00
 4.057348127085128e-02	 1.617133172155657e+00	 2.613393383552309e+00
 2.700477561295891e-02	 1.617416648211609e+00	 2.605306480268856e+00
 1.347989030682204e-02	 1.617585897465666e+00	 2.600586134183231e+00
 0.000000000000000e+00	 1.617642058783334e+00	 2.599103312560502e+00
 1.617642058783334e+00	 0.000000000000000e+00	 1.445314676978677e+01
 1.617585897465666e+00	 1.347989030682115e-02	 1.444379736692479e+01
 1.617416648211609e+00	 2.700477561295814e-02	 1.443791045414762e+01
 1.617133172155657e+00	 4.057348127085064e-02	 1.443488163224171e+01
 1.616734343080650e+00	 5.418480617814950e-02	 1.443418301016339e+01
 1.616219048089453e+00	 6.783752282655682e-02	 1.443536612052933e+01
 1.615586188281852e+00	 8.153037736788341e-02	 1.443806457407145e+01
 1.614834679436247e+00	 9.526208969766795e-02	 1.444199641970005e+01
 1.613963452695617e+00	 1.090313535566891e-01	 1.444696617447497e+01
 1.612971455257299e+00	 1.228368366506917e-01	 1.445286648504553e+01
 1.611857651066033e+00	 1.366771807886334e-01	 1.445967937931106e+01
 1.626466587363230e+00	 0.000000000000000e+00	 1.437655695610219e+01
 1.626410119675477e+00	 1.355342553456704e-02	 1.436714268686753e+01
 1.626239947136310e+00	 2.715209152423106e-02	 1.436115426802894e+01
 1.625954924667503e+00	 4.079481691352500e-02	 1.435798976475654e+01
 1.625553919908178e+00	 5.448039404787752e-02	 1.435712731829120e+01
 1.625035813890140e+00	 6.820758872271934e-02	 1.435812820948056e+01
 1.624399501718476e+00	 8.197514024990128e-02	 1.436063966979237e+01
 1.623643893256957e+00	 9.578176154176929e-02	 1.436439740629615e+01
 1.622767913817755e+00	 1.096261392132306e-01	 1.436922780463253e+01
 1.621770504854973e+00	 1.235069337021329e-01	 1.437504977112609e+01
 1.620650624661481e+00	 1.374227794082651e-01	 1.438187617226737e+01
 1.635291110942501e+00	 0.000000000000000e+00	 1.430294009415449e+01
 1.635234336884848e+00	 1.362696072045005e-02	 1.429346344180830e+01
 1.635063241061123e+00	 2.729940735172182e-02	 1.428738992405580e+01
 1.634776672180379e+00	 4.101615243043206e-02	 1.428411675015112e+01
 1.634373491738018e+00	 5.477598174977760e-02	 1.428312454414091e+01
 1.633852574694785e+00	 6.857765440890817e-02	 1.428398055806794e+01
 1.633212810161064e+00	 8.241990287970458e-02	 1.428634164214067e+01
 1.632453102085998e+00	 9.630143309131031e-02	 1.428995693824611e+01
 1.631572369950946e+00	 1.102209245327511e-01	 1.429467026056800e+01
 1.630569549466778e+00	 1.241770303739671e-01	 1.430042212408966e+01
 1.629443593274491e+00	 1.381683776055684e-01	 1.430725137870016e+01
 1.644115624520522e+00	 0.000000000000000e+00	 1.423222337339288e+01
 1.644058544093324e+00	 1.370049582284849e-02	 1.422270425134412e+01
 1.643886524986109e+00	 2.744672301203027e-02	 1.421657793490888e+01
 1.643598409695212e+00	 4.123748769624271e-02	 1.421323751165242e+01
 1.643193053572317e+00	 5.507156911644759e-02	 1.421216258894643e+01
 1.642669325507112e+00	 6.894771967551033e-02	 1.421292265837382e+01
 1.642026108615282e+00	 8.286466500533883e-02	 1.421518022759231e+01
 1.641262300931342e+00	 9.682110405187060e-02	 1.421869368595079e+01
 1.640376816105841e+00	 1.108157091782467e-01	 1.422331986739570e+01
 1.639368584106420e+00	 1.248471262864970e-01	 1.422901627109384e+01
 1.638236551922202e+00	 1.389139749580493e-01	 1.423584289700602e+01
 1.652940123096667e+00	 0.000000000000000e+00	 1.416433217817154e+01
 1.652882736300451e+00	 1.377403080014068e-02	 1.415480657289814e+01
 1.652709793911329e+00	 2.759403842175629e-02	 1.414867441889451e+01
 1.652420132212929e+00	 4.145882258562784e-02	 1.414532146980320e+01
 1.652012600413221e+00	 5.536715598048526e-02	 1.414422286562680e+01
 1.651486061330844e+00	 6.931778431291304e-02	 1.414494664977925e+01
 1.650839392086791e+00	 8.330942637484934e-02	 1.414715706511468e+01
 1.650071484800959e+00	 9.734077412902960e-02	 1.415061759517995e+01
 1.649181247293090e+00	 1.114104928127139e-01	 1.415519371403256e+01
 1.648167603787603e+00	 1.255172210600252e-01	 1.416085530472774e+01
 1.647029495621756e+00	 1.396595710432135e-01	 1.416767870324154e+01
 1.661764601670313e+00	 0.000000000000000e+00	 1.409919013499875e+01
 1.661706908505775e+00	 1.384756561070495e-02	 1.408970877018357e+01
 1.661533042836846e+00	 2.774135349749974e-02	 1.408363118928151e+01
 1.661241834734455e+00	 4.168015697325835e-02	 1.408033265236104e+01
 1.660832127262873e+00	 5.566274217448843e-02	 1.407928042896813e+01
 1.660302777169703e+00	 6.968784811150329e-02	 1.408003746917809e+01
 1.659652655581256e+00	 8.375418673628164e-02	 1.408226586619143e+01
 1.658880648702818e+00	 9.786044302836691e-02	 1.408573007671271e+01
 1.657985658523342e+00	 1.120052750991488e-01	 1.409029986228857e+01
 1.656966603524032e+00	 1.261873143148546e-01	 1.409595291141150e+01
 1.655822419390292e+00	 1.404051654385669e-01	 1.410277709871740e+01
 1.670589055240833e+00	 0.000000000000000e+00	 1.403671915831758e+01
 1.670531055708842e+00	 1.392110021291962e-02	 1.402734617955578e+01
 1.670356266762721e+00	 2.788866815586049e-02	 1.402139584092748e+01
 1.670063512260718e+00	 4.190149073380513e-02	 1.401822980093123e+01
 1.669651629123421e+00	 5.595832753105487e-02	 1.401730410202564e+01
 1.669119468027414e+00	 7.005791086166832e-02	 1.401817299693825e+01
 1.668465894104338e+00	 8.419894583768114e-02	 1.402049258016142e+01
 1.667689787644890e+00	 9.838011045546205e-02	 1.402402419090087e+01
 1.666790044807246e+00	 1.126000557005478e-01	 1.402863755052433e+01
 1.665765578329411e+00	 1.268574056712876e-01	 1.403431359404586e+01
 1.664615318244948e+00	 1.411507577216153e-01	 1.404114695155933e+01
 1.679413478807604e+00	 0.000000000000000e+00	 1.397683949487276e+01
 1.679355172909198e+00	 1.399463456516301e-02	 1.396765117433093e+01
 1.679179460689016e+00	 2.803598231343839e-02	 1.396191183429474e+01
 1.678885159792644e+00	 4.212282374193910e-02	 1.395896647445435e+01
 1.678471100997010e+00	 5.625391188278244e-02	 1.395825659888462e+01
 1.677936128907697e+00	 7.042797235379507e-02	 1.395932419876755e+01
 1.677279102661701e+00	 8.464370342709324e-02	 1.396181555504629e+01
 1.676498896635147e+00	 9.889977611589459e-02	 1.396548482734061e+01
 1.675594401155452e+00	 1.131948342799072e-01	 1.397019739207560e+01
 1.674564523217445e+00	 1.275274947496271e-01	 1.397593288911987e+01
 1.673408187202868e+00	 1.418963474698645e-01	 1.398278793245537e+01
 1.688237867370000e+00	 0.000000000000000e+00	 1.391946976671458e+01
 1.688179255106389e+00	 1.406816862581345e-02	 1.391055322714529e+01
 1.688002619615791e+00	 2.818329588683332e-02	 1.390511857694994e+01
 1.687706772331160e+00	 4.234415587233111e-02	 1.390249114966166e+01
 1.687290537885786e+00	 5.654949506226892e-02	 1.390209464391396e+01
 1.686752754814276e+00	 7.079803237827080e-02	 1.390345526363304e+01
 1.686092276259008e+00	 8.508845925256343e-02	 1.390620569403018e+01
 1.685307970681557e+00	 9.941943971524404e-02	 1.391008887983169e+01
 1.684398722578610e+00	 1.137896105002232e-01	 1.391496156863539e+01
 1.683363433201838e+00	 1.281975811701757e-01	 1.392079757848273e+01
 1.682201021281189e+00	 1.426419342608202e-01	 1.392769074480381e+01
 1.697062215927397e+00	 0.000000000000000e+00	 1.386452701288988e+01
 1.697003297299960e+00	 1.414170235324925e-02	 1.385597897042617e+01
 1.696825738543109e+00	 2.833060879264513e-02	 1.385095150264184e+01
 1.696528344877194e+00	 4.256548699965210e-02	 1.384874731861085e+01
 1.696109934791894e+00	 5.684507690211212e-02	 1.384876908763971e+01
 1.695569340750875e+00	 7.116809072548257e-02	 1.385052373787811e+01
 1.694905409901922e+00	 8.553321306213711e-02	 1.385362660775074e+01
 1.694117004792092e+00	 9.993910095908996e-02	 1.385780541679629e+01
 1.693203004087369e+00	 1.143843840244923e-01	 1.386290401877666e+01
 1.692162303296296e+00	 1.288676645532361e-01	 1.386888589596912e+01
 1.690993815497055e+00	 1.433875176719886e-01	 1.387583734946208e+01
 1.705886519479168e+00	 0.000000000000000e+00	 1.381192672986699e+01
 1.705827294489459e+00	 1.421523570584876e-02	 1.380385225504350e+01
 1.705648812471032e+00	 2.847792094747371e-02	 1.379934214804160e+01
 1.705349872431669e+00	 4.278681699857291e-02	 1.379767358340663e+01
 1.704929286717479e+00	 5.714065723490981e-02	 1.379822501936166e+01
 1.704385881721215e+00	 7.153814718581744e-02	 1.380048065567533e+01
 1.703718498596106e+00	 8.597796460385973e-02	 1.380403476255246e+01
 1.702925993974722e+00	 1.004587595530119e-01	 1.380859584732076e+01
 1.702007240692379e+00	 1.149791545157106e-01	 1.381399062179241e+01
 1.700961128514523e+00	 1.295377445191110e-01	 1.382016772906795e+01
 1.699786564867602e+00	 1.441330972808752e-01	 1.382720118429358e+01
 1.611857651066033e+00	 1.366771807886334e-01	 1.445967937931105e+01
 1.610620800725342e+00	 1.505533579956402e-01	 1.446600753760063e+01
 1.609260082016233e+00	 1.644615801826577e-01	 1.447043682406420e+01
 1.607774512598260e+00	 1.784003776516219e-01	 1.447306282412473e+01
 1.606163129743204e+00	 1.923682546643022e-01	 1.447407041785652e+01
 1.604424991048371e+00	 2.063636896767381e-01	 1.447373233930723e+01
 1.602559175150043e+00	 2.203851355945442e-01	 1.447240701985277e+01
 1.600564782436457e+00	 2.344310200493024e-01	 1.447053565458714e+01
 1.598440935759645e+00	 2.484997456962395e-01	 1.446863842820460e+01
 1.596186781145472e+00	 2.625896905333687e-01	 1.446730983443645e+01
 1.593801488501192e+00	 2.766992082422489e-01	 1.446721302089213e+01
 1.620650624661481e+00	 1.374227794082651e-01	 1.438187617226737e+01
 1.619407027079671e+00	 1.513746536593318e-01	 1.438834363643567e+01
 1.618038885405196e+00	 1.653587477015729e-01	 1.439303747116247e+01
 1.616545211938770e+00	 1.793735838194572e-01	 1.439603973662800e+01
 1.614925038700317e+00	 1.934176581152332e-01	 1.439752708834617e+01
 1.613177418146170e+00	 2.074894407446446e-01	 1.439776962097381e+01
 1.611301423886408e+00	 2.215873761736283e-01	 1.439712899888952e+01
 1.609296151401727e+00	 2.357098834562133e-01	 1.439605581089835e+01
 1.607160718759159e+00	 2.498553565338243e-01	 1.439508608370851e+01
 1.604894267325988e+00	 2.640221645561615e-01	 1.439483688626099e+01
 1.602495962481167e+00	 2.782086522238208e-01	 1.439600095460963e+01
 1.629443593274491e+00	 1.381683776055684e-01	 1.430725137870016e+01
 1.628193248455343e+00	 1.521959488578245e-01	 1.431382926972728e+01
 1.626817683819643e+00	 1.662559147122843e-01	 1.431874694185946e+01
 1.625315906309269e+00	 1.803467894359614e-01	 1.432207638878319e+01
 1.623686942692302e+00	 1.944670609715952e-01	 1.432398934948809e+01
 1.621929840284107e+00	 2.086151911746459e-01	 1.432475643848869e+01
 1.620043667668570e+00	 2.227896160713845e-01	 1.432474556638738e+01
 1.618027515418851e+00	 2.369887461383005e-01	 1.432441958648322e+01
 1.615880496816994e+00	 2.512109666030279e-01	 1.432433310024425e+01
 1.613601748571710e+00	 2.654546377669675e-01	 1.432512835172174e+01
 1.611190431533655e+00	 2.797180953497652e-01	 1.432753013842804e+01
 1.638236551922202e+00	 1.389139749580493e-01	 1.423584289700602e+01
 1.636979459873319e+00	 1.530172431257230e-01	 1.424250557253301e+01
 1.635596472284742e+00	 1.671530807064029e-01	 1.424760686566985e+01
 1.634086590739525e+00	 1.813199939496616e-01	 1.425121202357828e+01
 1.632448836753914e+00	 1.955164626387451e-01	 1.425349103321693e+01
 1.630682252502318e+00	 2.097409403288453e-01	 1.425471804018321e+01
 1.628785901542440e+00	 2.239918546065830e-01	 1.425527006234059e+01
 1.626758869539914e+00	 2.382676073709237e-01	 1.425562493227033e+01
 1.624600264991807e+00	 2.525665751357271e-01	 1.425635839952532e+01
 1.622309219948267e+00	 2.668871093541108e-01	 1.425814032073847e+01
 1.619884890731665e+00	 2.812275367647870e-01	 1.426172986290553e+01
 1.647029495621756e+00	 1.396595710432135e-01	 1.416767870324154e+01
 1.645765656354561e+00	 1.538385359976326e-01	 1.417440359296138e+01
 1.644375245825661e+00	 1.680502451755395e-01	 1.417964875822512e+01
 1.642857260259301e+00	 1.822931968090853e-01	 1.418347588072998e+01
 1.641210715919905e+00	 1.965658625220402e-01	 1.418605621600272e+01
 1.639434649840937e+00	 2.108666875693464e-01	 1.418767030335798e+01
 1.637528120553928e+00	 2.251940910979935e-01	 1.418870697598626e+01
 1.635490208817002e+00	 2.395464664294424e-01	 1.418966160354245e+01
 1.633320018342258e+00	 2.539221813637981e-01	 1.419113349635222e+01
 1.631016676521292e+00	 2.683195785059148e-01	 1.419382239724517e+01
 1.628579335148205e+00	 2.827369756135909e-01	 1.419852398410284e+01
 1.655822419390292e+00	 1.404051654385669e-01	 1.410277709871741e+01
 1.654551832920027e+00	 1.546598270081577e-01	 1.410954455846367e+01
 1.653153999467569e+00	 1.689474076113055e-01	 1.411489430532320e+01
 1.651627909898363e+00	 1.832663974627599e-01	 1.411888749748727e+01
 1.649972575225027e+00	 1.976152600268374e-01	 1.412169953534580e+01
 1.648187027340098e+00	 2.119924322582525e-01	 1.412362006534080e+01
 1.646270319748946e+00	 2.263963248643860e-01	 1.412505229023449e+01
 1.644221528302200e+00	 2.408253225892167e-01	 1.412651151648080e+01
 1.642039751927005e+00	 2.552777845191178e-01	 1.412862286594605e+01
 1.639724113356420e+00	 2.697520444107033e-01	 1.413211807592146e+01
 1.637273759856283e+00	 2.842464110408821e-01	 1.413783130825194e+01
 1.664615318244948e+00	 1.411507577216153e-01	 1.404114695155933e+01
 1.663337984590680e+00	 1.554811156919036e-01	 1.404794013585739e+01
 1.661932728235633e+00	 1.698445675053118e-01	 1.405335564053296e+01
 1.660398534686476e+00	 1.842395953592128e-01	 1.405745700287961e+01
 1.658734409704035e+00	 1.986646545584939e-01	 1.406042649966732e+01
 1.656939380039935e+00	 2.131181737576670e-01	 1.406256544795795e+01
 1.655012494173407e+00	 2.275985552245304e-01	 1.406429381959314e+01
 1.652952823047595e+00	 2.421041751256061e-01	 1.406614909835304e+01
 1.650759460804705e+00	 2.566333838335624e-01	 1.406878430514501e+01
 1.648431525519279e+00	 2.711845062568001e-01	 1.407296511307427e+01
 1.645968159928908e+00	 2.857558421913653e-01	 1.407956597093424e+01
 1.673408187202868e+00	 1.418963474698645e-01	 1.398278793245538e+01
 1.672124106387480e+00	 1.563024015834751e-01	 1.398959268530950e+01
 1.670711427155022e+00	 1.707417243491695e-01	 1.399503561659272e+01
 1.669169129653405e+00	 1.852127899469711e-01	 1.399918540564919e+01
 1.667496214391682e+00	 1.997140455223665e-01	 1.400223379183605e+01
 1.665691702980585e+00	 2.142439114296938e-01	 1.400449617565493e+01
 1.663754638873219e+00	 2.288007814971963e-01	 1.400641154182136e+01
 1.661684088105270e+00	 2.433830233139704e-01	 1.400854163157527e+01
 1.659479140034019e+00	 2.579889785390085e-01	 1.401156928768333e+01
 1.657138908075503e+00	 2.726169632325287e-01	 1.401629589188040e+01
 1.654662530439087e+00	 2.872652682097453e-01	 1.402363781096394e+01
 1.682201021281189e+00	 1.426419342608202e-01	 1.392769074480381e+01
 1.680910193331387e+00	 1.571236842174772e-01	 1.393449550850034e+01
 1.679490091250905e+00	 1.716388776344895e-01	 1.393992807082495e+01
 1.677939689828916e+00	 1.861859806745624e-01	 1.394406487609520e+01
 1.676257984322722e+00	 2.007634323238126e-01	 1.394710956656239e+01
 1.674443991202181e+00	 2.153696446364358e-01	 1.394939388749972e+01
 1.672496748894298e+00	 2.300030030011540e-01	 1.395137792354138e+01
 1.670415318527312e+00	 2.446618664296693e-01	 1.395364959186734e+01
 1.668198784673604e+00	 2.593445678673327e-01	 1.395692331376627e+01
 1.665846256090725e+00	 2.740494145262128e-01	 1.396203778218980e+01
 1.663356866459828e+00	 2.887746882407271e-01	 1.396995273916547e+01
 1.690993815497055e+00	 1.433875176719886e-01	 1.387583734946208e+01
 1.689696240443363e+00	 1.579449631285147e-01	 1.388263309117874e+01
 1.688268715548449e+00	 1.725360268528830e-01	 1.388801808478629e+01
 1.686710210242772e+00	 1.871591669905140e-01	 1.389207902205195e+01
 1.685019714531905e+00	 2.018128143681890e-01	 1.389503374187967e+01
 1.683196239744859e+00	 2.164953727399969e-01	 1.389723244328591e+01
 1.681238819282553e+00	 2.312052190551732e-01	 1.389915824002094e+01
 1.679146509365806e+00	 2.459407037480627e-01	 1.390142698071429e+01
 1.676918389782119e+00	 2.607001510504113e-01	 1.390478625414380e+01
 1.674553564630576e+00	 2.754818593261764e-01	 1.391011349508416e+01
 1.672051163064140e+00	 2.902841014290156e-01	 1.391841310222482e+01
 1.699786564867602e+00	 1.441330972808752e-01	 1.382720118429358e+01
 1.698482242744367e+00	 1.587662378511926e-01	 1.383398134030974e+01
 1.697047295072823e+00	 1.734331714959610e-01	 1.383928223835813e+01
 1.695480685924739e+00	 1.881323483433532e-01	 1.384320315920871e+01
 1.693781400053988e+00	 2.028621910608528e-01	 1.384597828492538e+01
 1.691948443648752e+00	 2.176210951024801e-01	 1.384797822394843e+01
 1.689980845083896e+00	 2.324074289780237e-01	 1.384971088933849e+01
 1.687877655672838e+00	 2.472195345445101e-01	 1.385182165233460e+01
 1.685637950418222e+00	 2.620557273201210e-01	 1.385509268887780e+01
 1.683260828760689e+00	 2.769142968207428e-01	 1.386044143237514e+01
 1.680745415325032e+00	 2.917935069193159e-01	 1.386891804178757e+01
 1.593801488501192e+00	 2.766992082422489e-01	 1.446721302089214e+01
 1.591284691259338e+00	 2.908242263537434e-01	 1.446763614206496e+01
 1.588635214298862e+00	 3.049654517859350e-01	 1.446804924329790e+01
 1.585852302532892e+00	 3.191211722672210e-01	 1.446945363987886e+01
 1.582935227508338e+00	 3.332896528818207e-01	 1.447286592402347e+01
 1.579883288089227e+00	 3.474691365191284e-01	 1.447930571782940e+01
 1.576695811133212e+00	 3.616578443450141e-01	 1.448978202427816e+01
 1.573372152160505e+00	 3.758539762950537e-01	 1.450434614961779e+01
 1.569911696014492e+00	 3.900557115896419e-01	 1.451430292985620e+01
 1.566313857513235e+00	 4.042612092709107e-01	 1.451720247418930e+01
 1.562578082091108e+00	 4.184686087613524e-01	 1.451292214479705e+01
 1.602495962481167e+00	 2.782086522238208e-01	 1.439600095460963e+01
 1.599965435657536e+00	 2.924107248516120e-01	 1.439771031726753e+01
 1.597301505323543e+00	 3.066290932139739e-01	 1.439931700484306e+01
 1.594503412273176e+00	 3.208620356985422e-01	 1.440191787059963e+01
 1.591570424079493e+00	 3.351078079252470e-01	 1.440663054593657e+01
 1.588501835781692e+00	 3.493646431981160e-01	 1.441458129970044e+01
 1.585296970565304e+00	 3.636307529791469e-01	 1.442689147552819e+01
 1.581955180434782e+00	 3.779043273842289e-01	 1.444294107829304e+01
 1.578475846877712e+00	 3.921835357010632e-01	 1.445402364996592e+01
 1.574858381519876e+00	 4.064665269290135e-01	 1.445870228359957e+01
 1.571102226770384e+00	 4.207514303407746e-01	 1.445689556396138e+01
 1.611190431533655e+00	 2.797180953497652e-01	 1.432753013842804e+01
 1.608646175135986e+00	 2.939972224501950e-01	 1.433049301333375e+01
 1.605967791436650e+00	 3.082927336990454e-01	 1.433322398399672e+01
 1.603154517110488e+00	 3.226028981431904e-01	 1.433690961337244e+01
 1.600205615756710e+00	 3.369259619382693e-01	 1.434276312593784e+01
 1.597120378589678e+00	 3.512601488029425e-01	 1.435201240194302e+01
 1.593898125122802e+00	 3.656036604953347e-01	 1.436588652992815e+01
 1.590538203844771e+00	 3.799546773116462e-01	 1.438288665257971e+01
 1.587039992887372e+00	 3.943113586068852e-01	 1.439478919469806e+01
 1.583402900684101e+00	 4.086718433376451e-01	 1.440089460675233e+01
 1.579626366618807e+00	 4.230342506268229e-01	 1.440116086456388e+01
 1.619884890731665e+00	 2.812275367647870e-01	 1.426172986290552e+01
 1.617326904775478e+00	 2.955837182505238e-01	 1.426588730612421e+01
 1.614634067727157e+00	 3.099563722984526e-01	 1.426965227428179e+01
 1.611805612142400e+00	 3.243437586146905e-01	 1.427429519883009e+01
 1.608840797646567e+00	 3.387441138905927e-01	 1.428111943303061e+01
 1.605738911629190e+00	 3.531556522594577e-01	 1.429144941013879e+01
 1.602499269931555e+00	 3.675765657755433e-01	 1.430661734036733e+01
 1.599121217526589e+00	 3.820050249153675e-01	 1.432406586337525e+01
 1.595604129190281e+00	 3.964391791012510e-01	 1.433650435766657e+01
 1.591947410163843e+00	 4.108771572470237e-01	 1.434371137495383e+01
 1.588150496805859e+00	 4.253170683257905e-01	 1.434568257451442e+01
 1.628579335148205e+00	 2.827369756135909e-01	 1.419852398410284e+01
 1.626007619656798e+00	 2.971702113536303e-01	 1.420379191633835e+01
 1.623300329284035e+00	 3.116200080694980e-01	 1.420848061641694e+01
 1.620456692466479e+00	 3.260846161265676e-01	 1.421393852458950e+01
 1.617475964855642e+00	 3.405622627519219e-01	 1.422155363474992e+01
 1.614357430016230e+00	 3.550511524935114e-01	 1.423274184596946e+01
 1.611100400117410e+00	 3.695494677017393e-01	 1.424893383362710e+01
 1.607704216616352e+00	 3.840553690334547e-01	 1.426636469954097e+01
 1.604168250933248e+00	 3.985669959783040e-01	 1.427907676517231e+01
 1.600491905117031e+00	 4.130824674073677e-01	 1.428708706357639e+01
 1.596674612501020e+00	 4.275998821439713e-01	 1.429042735306254e+01
 1.637273759856283e+00	 2.842464110408821e-01	 1.413783130825194e+01
 1.634688314860732e+00	 2.987567008605458e-01	 1.414410160326210e+01
 1.631966571196259e+00	 3.132836400694843e-01	 1.414958480495032e+01
 1.629107753180294e+00	 3.278254696923462e-01	 1.415570147859422e+01
 1.626111112490514e+00	 3.423804074919620e-01	 1.416391874105429e+01
 1.622975928866803e+00	 3.569466484309533e-01	 1.417573883550755e+01
 1.619701510806219e+00	 3.715223651558893e-01	 1.419265386783029e+01
 1.616287196250179e+00	 3.861057085039698e-01	 1.420967232762568e+01
 1.612732353263084e+00	 4.006948080321880e-01	 1.422241707045618e+01
 1.609036380701594e+00	 4.152877725688949e-01	 1.423095890458056e+01
 1.605198708873770e+00	 4.298826907876586e-01	 1.423536422537661e+01
 1.645968159928908e+00	 2.857558421913653e-01	 1.407956597093424e+01
 1.643368985468068e+00	 3.003431858723023e-01	 1.408670755337133e+01
 1.640632788552800e+00	 3.149472673557145e-01	 1.409283808999686e+01
 1.637758789381415e+00	 3.295663183255516e-01	 1.409944435771180e+01
 1.634746235657761e+00	 3.441985470804180e-01	 1.410806704352034e+01
 1.631594403296914e+00	 3.588421389976334e-01	 1.412028957275761e+01
 1.628302597123831e+00	 3.734952570199594e-01	 1.413748994401027e+01
 1.624870151564186e+00	 3.881560421649748e-01	 1.415388126640179e+01
 1.621296431326598e+00	 4.028226140570464e-01	 1.416643914240200e+01
 1.617580832075464e+00	 4.174930714818240e-01	 1.417526709301134e+01
 1.613722781093592e+00	 4.321654929631462e-01	 1.418046481051610e+01
 1.654662530439087e+00	 2.872652682097453e-01	 1.402363781096394e+01
 1.652049626559594e+00	 3.019296654899313e-01	 1.403149776397429e+01
 1.649298976442632e+00	 3.166108889854911e-01	 1.403811157425445e+01
 1.646409796167410e+00	 3.313071610397084e-01	 1.404502628175248e+01
 1.643381329463962e+00	 3.460166804869948e-01	 1.405385055000559e+01
 1.640212848422567e+00	 3.607376231194011e-01	 1.406624377861141e+01
 1.636903654196095e+00	 3.754681421759162e-01	 1.408330219376597e+01
 1.633453077694489e+00	 3.902063688545312e-01	 1.409888755640008e+01
 1.629860480270600e+00	 4.049504128470224e-01	 1.411106024888518e+01
 1.626125254396569e+00	 4.196983628963729e-01	 1.411995498768701e+01
 1.622246824329965e+00	 4.344482873767272e-01	 1.412570354303303e+01
 1.663356866459828e+00	 2.887746882407271e-01	 1.396995273916547e+01
 1.660730233216095e+00	 3.035161388144645e-01	 1.397835742206854e+01
 1.657965129954727e+00	 3.182745040161170e-01	 1.398527460546408e+01
 1.655060768635849e+00	 3.330479968483417e-01	 1.399230560307033e+01
 1.652016389015695e+00	 3.478348066813974e-01	 1.400112141493734e+01
 1.648831259359766e+00	 3.626330997221065e-01	 1.401345215537935e+01
 1.645504677148861e+00	 3.774410195057262e-01	 1.402997385492165e+01
 1.642035969777207e+00	 3.922566874107016e-01	 1.404459092462137e+01
 1.638424495241900e+00	 4.070782031962595e-01	 1.405620123496158e+01
 1.634669642822839e+00	 4.219036455627596e-01	 1.406496930628691e+01
 1.630770833752373e+00	 4.367310727346956e-01	 1.407105788843213e+01
 1.672051163064140e+00	 2.902841014290156e-01	 1.391841310222482e+01
 1.669410800518359e+00	 3.051026049469336e-01	 1.392716927857968e+01
 1.666631244178060e+00	 3.199381115048950e-01	 1.393419516447300e+01
 1.663711701884300e+00	 3.347888247649764e-01	 1.394114031189851e+01
 1.660651409419539e+00	 3.496529246333306e-01	 1.394973236537740e+01
 1.657449631224517e+00	 3.645285677315994e-01	 1.396176683704643e+01
 1.654105661107979e+00	 3.794138878913558e-01	 1.397739200278198e+01
 1.650618822948456e+00	 3.943069966715473e-01	 1.399089494459669e+01
 1.646988471387306e+00	 4.092059838989013e-01	 1.400178669607711e+01
 1.643213992512206e+00	 4.241089182312025e-01	 1.401026031503764e+01
 1.639294804530294e+00	 4.390138477433446e-01	 1.401650855270718e+01
 1.680745415325032e+00	 2.917935069193159e-01	 1.386891804178757e+01
 1.678091323547173e+00	 3.066890629883703e-01	 1.387781401814306e+01
 1.675297314201602e+00	 3.216017105091277e-01	 1.388474024905300e+01
 1.672362591010333e+00	 3.365296438031375e-01	 1.389138843756719e+01
 1.669286385782073e+00	 3.514710333124996e-01	 1.389953712300830e+01
 1.666067959132822e+00	 3.664240260737297e-01	 1.391104183540096e+01
 1.662706601199298e+00	 3.813867462147712e-01	 1.392544769605318e+01
 1.659201632344353e+00	 3.963572954751306e-01	 1.393770719195909e+01
 1.655552403853629e+00	 4.113337537490910e-01	 1.394774514647520e+01
 1.651758298622600e+00	 4.263141796519203e-01	 1.395578201318839e+01
 1.647818731833210e+00	 4.412966111089680e-01	 1.396203968616246e+01
 1.562578082091108e+00	 4.184686087613524e-01	 1.451292214479705e+01
 1.558703846769861e+00	 4.326760306423498e-01	 1.450438956417030e+01
 1.554690661800825e+00	 4.468815778688999e-01	 1.449487459743592e+01
 1.550538070255469e+00	 4.610833358291598e-01	 1.448471893252867e+01
 1.546245648278505e+00	 4.752793727944876e-01	 1.447420087118336e+01
 1.541813005666570e+00	 4.894677405839732e-01	 1.446353356676977e+01
 1.537239786432334e+00	 5.036464752493558e-01	 1.445286360613095e+01
 1.532525669353274e+00	 5.178135977800120e-01	 1.444226996725226e+01
 1.527670368504342e+00	 5.319671148276703e-01	 1.443176338284673e+01
 1.522673633773767e+00	 5.461050194504661e-01	 1.442128613789957e+01
 1.517535251361254e+00	 5.602252918759326e-01	 1.441071232687331e+01
 1.571102226770384e+00	 4.207514303407746e-01	 1.445689556396138e+01
 1.567206856798041e+00	 4.350363562651544e-01	 1.445111374078541e+01
 1.563171779182520e+00	 4.493193973084392e-01	 1.444415600636380e+01
 1.558996534502674e+00	 4.635986284142490e-01	 1.443632783763420e+01
 1.554680696591020e+00	 4.778721073160304e-01	 1.442787585261080e+01
 1.550223873115576e+00	 4.921378752052116e-01	 1.441898607487466e+01
 1.545625706147051e+00	 5.063939574198565e-01	 1.440978255174421e+01
 1.540885872710607e+00	 5.206383641534992e-01	 1.440032635910051e+01
 1.536004085321435e+00	 5.348690911838103e-01	 1.439061502404009e+01
 1.530980092503372e+00	 5.490841206207129e-01	 1.438058239441209e+01
 1.525813679289818e+00	 5.632814216735341e-01	 1.437009898187650e+01
 1.579626366618807e+00	 4.230342506268229e-01	 1.440116086456388e+01
 1.575709862007344e+00	 4.373966805506522e-01	 1.439773200062137e+01
 1.571652891757734e+00	 4.517572153667169e-01	 1.439299733544356e+01
 1.567454993956215e+00	 4.661139195741107e-01	 1.438723849726275e+01
 1.563115740123116e+00	 4.804648403683796e-01	 1.438068206488599e+01
 1.558634735797844e+00	 4.948080083133009e-01	 1.437349782718541e+01
 1.554011621109148e+00	 5.091414380332737e-01	 1.436579740691025e+01
 1.549246071329882e+00	 5.234631289260001e-01	 1.435763328304257e+01
 1.544337797415481e+00	 5.377710658951049e-01	 1.434899824405182e+01
 1.539286546525394e+00	 5.520632201023093e-01	 1.433982530222011e+01
 1.534092102526720e+00	 5.663375497387464e-01	 1.432998809669852e+01
 1.588150496805859e+00	 4.253170683257905e-01	 1.434568257451443e+01
 1.584212857579237e+00	 4.397570021612192e-01	 1.434423762807085e+01
 1.580133994720345e+00	 4.541950306622045e-01	 1.434140729988577e+01
 1.575913443822824e+00	 4.686292078833300e-01	 1.433746157527133e+01
 1.571550774094812e+00	 4.830575704822554e-01	 1.433261848633628e+01
 1.567045588947110e+00	 4.974781383951229e-01	 1.432704233484749e+01
 1.562397526566516e+00	 5.118889155326829e-01	 1.432084229102974e+01
 1.557606260473578e+00	 5.262878904968218e-01	 1.431407140387163e+01
 1.552671500063979e+00	 5.406730373171337e-01	 1.430672605657851e+01
 1.547592991132789e+00	 5.550423162071548e-01	 1.429874589855026e+01
 1.542370516380803e+00	 5.693936743398390e-01	 1.429001428266795e+01
 1.596674612501020e+00	 4.275998821439713e-01	 1.429042735306254e+01
 1.592715838695181e+00	 4.421173197592319e-01	 1.429062570239224e+01
 1.588615083264239e+00	 4.566328418133744e-01	 1.428939635380046e+01
 1.584371879309232e+00	 4.711444919164912e-01	 1.428700970387613e+01
 1.579985793726124e+00	 4.856502961883770e-01	 1.428368658321882e+01
 1.575456427797111e+00	 5.001482639375592e-01	 1.427959641106069e+01
 1.570783417767045e+00	 5.146363883611601e-01	 1.427485573842665e+01
 1.565966435404172e+00	 5.291126472652710e-01	 1.426952721685121e+01
 1.561005188544430e+00	 5.435750038054763e-01	 1.426361902767439e+01
 1.555899421618507e+00	 5.580214072471477e-01	 1.425708480460390e+01
 1.550648916160909e+00	 5.724497937450826e-01	 1.424982407954077e+01
 1.605198708873770e+00	 4.298826907876586e-01	 1.423536422537660e+01
 1.601218800536641e+00	 4.444776320070666e-01	 1.423689335284830e+01
 1.597096152583294e+00	 4.590706474386978e-01	 1.423697695900204e+01
 1.592830295622173e+00	 4.736597702481790e-01	 1.423589775912560e+01
 1.588420794237072e+00	 4.882430160174646e-01	 1.423389058476302e+01
 1.583867247581586e+00	 5.028183834274921e-01	 1.423114043849355e+01
 1.579169289958625e+00	 5.173838549617816e-01	 1.422778095084460e+01
 1.574326591384141e+00	 5.319373976306545e-01	 1.422389327790881e+01
 1.569338858134331e+00	 5.464769637157119e-01	 1.421950547617345e+01
 1.564205833275506e+00	 5.610004915341873e-01	 1.421459238865321e+01
 1.558927297175879e+00	 5.755059062227464e-01	 1.420907607363614e+01
 1.613722781093592e+00	 4.321654929631462e-01	 1.418046481051610e+01
 1.609721738285084e+00	 4.468379375670998e-01	 1.418304000671174e+01
 1.605577197871394e+00	 4.615084461566470e-01	 1.418416384638323e+01
 1.601288687968381e+00	 4.761750414529781e-01	 1.418414312887711e+01
 1.596855770847671e+00	 4.908357285002375e-01	 1.418323775088584e+01
 1.592278043534270e+00	 5.054884953518033e-01	 1.418165862977875e+01
 1.587555138389146e+00	 5.201313137776232e-01	 1.417956604367041e+01
 1.582686723675965e+00	 5.347621399922793e-01	 1.417706842845038e+01
 1.577672504111181e+00	 5.493789154034200e-01	 1.417422166987097e+01
 1.572512221396736e+00	 5.639795673801717e-01	 1.417102892628597e+01
 1.567205654734554e+00	 5.785620100411010e-01	 1.416744101476307e+01
 1.622246824329965e+00	 4.344482873767272e-01	 1.412570354303304e+01
 1.618224647121973e+00	 4.491982351017074e-01	 1.412906763039402e+01
 1.614058214322420e+00	 4.639462365856935e-01	 1.413097427012588e+01
 1.609747051554588e+00	 4.786903041054734e-01	 1.413176597354705e+01
 1.605290718777939e+00	 4.934284321674158e-01	 1.413173863284257e+01
 1.600688810888898e+00	 5.081585981973746e-01	 1.413113928133476e+01
 1.595940958306500e+00	 5.228787632517605e-01	 1.413016428610975e+01
 1.591046827542119e+00	 5.375868727494517e-01	 1.412895801498651e+01
 1.586006121752479e+00	 5.522808572241801e-01	 1.412761201761444e+01
 1.580818581275152e+00	 5.669586330970007e-01	 1.412616475789789e+01
 1.575483984145777e+00	 5.816181034684160e-01	 1.412460193197517e+01
 1.630770833752373e+00	 4.367310727346956e-01	 1.407105788843213e+01
 1.626727522228772e+00	 4.515585232732663e-01	 1.407498096394472e+01
 1.622539197130253e+00	 4.663840173443090e-01	 1.407742825500581e+01
 1.618205381587525e+00	 4.812055567802494e-01	 1.407878947989178e+01
 1.613725633247896e+00	 4.960211255497193e-01	 1.407940732706565e+01
 1.609099544879210e+00	 5.108286904510881e-01	 1.407957502075418e+01
 1.604326744958575e+00	 5.256262018272696e-01	 1.407953433553003e+01
 1.599406898245083e+00	 5.404115943014789e-01	 1.407947410375251e+01
 1.594339706335727e+00	 5.551827875335718e-01	 1.407952925744666e+01
 1.589124908203710e+00	 5.699376869965725e-01	 1.407978044352557e+01
 1.583762280718390e+00	 5.846741847729618e-01	 1.408025424818977e+01
 1.639294804530294e+00	 4.390138477433446e-01	 1.401650855270718e+01
 1.635230358786947e+00	 4.539188007441525e-01	 1.402078774915600e+01
 1.631020141488776e+00	 4.688217870509657e-01	 1.402354883703577e+01
 1.626663673273927e+00	 4.837207980518907e-01	 1.402524010806902e+01
 1.622160509477558e+00	 4.986138071778677e-01	 1.402626172243339e+01
 1.617510240738942e+00	 5.134987705998255e-01	 1.402696304798430e+01
 1.612712493593262e+00	 5.283736279472265e-01	 1.402764046617507e+01
 1.607766931047334e+00	 5.432363030476676e-01	 1.402853569049966e+01
 1.602673253138420e+00	 5.580847046871741e-01	 1.402983464093689e+01
 1.597431197475362e+00	 5.729167273907858e-01	 1.403166691511051e+01
 1.592040539761233e+00	 5.877302522230078e-01	 1.403410589370455e+01
 1.647818731833210e+00	 4.412966111089680e-01	 1.396203968616246e+01
 1.643733151977962e+00	 4.562790661767426e-01	 1.396649895149914e+01
 1.639501042591871e+00	 4.712595443241352e-01	 1.396936229768330e+01
 1.635121921820524e+00	 4.862360264949822e-01	 1.397114783221568e+01
 1.630595342686944e+00	 5.012064755825806e-01	 1.397232374120058e+01
 1.625920893701830e+00	 5.161688371304689e-01	 1.397330537052024e+01
 1.621098199458452e+00	 5.311210400547071e-01	 1.397445279245026e+01
 1.616126921211349e+00	 5.460609973873246e-01	 1.397606890562449e+01
 1.611006757438059e+00	 5.609866070405668e-01	 1.397839811383275e+01
 1.605737444383062e+00	 5.758957525915405e-01	 1.398162562627934e+01
 1.600318756583150e+00	 5.907863040868249e-01	 1.398587741864597e+01
 1.517535251361254e+00	 5.602252918759326e-01	 1.441071232687331e+01
 1.512254134331529e+00	 5.743282956317375e-01	 1.440128613375076e+01
 1.506831003534249e+00	 5.884095838951129e-01	 1.439405397847084e+01
 1.501265755838570e+00	 6.024671014153181e-01	 1.438847709878440e+01
 1.495558326254919e+00	 6.164987833099306e-01	 1.438393875553537e+01
 1.489708688335641e+00	 6.305025559161748e-01	 1.437974725966382e+01
 1.483716854553744e+00	 6.444763376581230e-01	 1.437513957301362e+01
 1.477582876659139e+00	 6.584180399291462e-01	 1.436774738779883e+01
 1.471306846011681e+00	 6.723255679889599e-01	 1.435143387274820e+01
 1.464888893890439e+00	 6.861968218745834e-01	 1.432561120407316e+01
 1.458329191778564e+00	 7.000296973245008e-01	 1.429030105180273e+01
 1.525813679289818e+00	 5.632814216735341e-01	 1.437009898187651e+01
 1.520503752816078e+00	 5.774613598530635e-01	 1.436027883029731e+01
 1.515051037864169e+00	 5.916194640783085e-01	 1.435207768253807e+01
 1.509455430740640e+00	 6.057536678867566e-01	 1.434501344460479e+01
 1.503716866101382e+00	 6.198618951316699e-01	 1.433852254814735e+01
 1.497835317354450e+00	 6.339420608380589e-01	 1.433196295892982e+01
 1.491810797040888e+00	 6.479920720746154e-01	 1.432461778588659e+01
 1.485643357192900e+00	 6.620098288409743e-01	 1.431569949306776e+01
 1.479333089668717e+00	 6.759932249696560e-01	 1.430391415801116e+01
 1.472880126463550e+00	 6.899401490419939e-01	 1.428306607744632e+01
 1.466284639996011e+00	 7.038484853173357e-01	 1.425142492906225e+01
 1.534092102526720e+00	 5.663375497387464e-01	 1.432998809669852e+01
 1.528753366625351e+00	 5.805944222983290e-01	 1.432041096647172e+01
 1.523271067535659e+00	 5.948293424418540e-01	 1.431189056732300e+01
 1.517645101001581e+00	 6.090402324950414e-01	 1.430399504631527e+01
 1.511875401324467e+00	 6.232250050468431e-01	 1.429620825121398e+01
 1.505961941768080e+00	 6.373815638100609e-01	 1.428793273910561e+01
 1.499904734941495e+00	 6.515078044980087e-01	 1.427849341249644e+01
 1.493703833159206e+00	 6.656016157165922e-01	 1.426714178570003e+01
 1.487359328777816e+00	 6.796608798711410e-01	 1.425306087960750e+01
 1.480871354508670e+00	 6.936834740873061e-01	 1.423533699156988e+01
 1.474240083705840e+00	 7.076672711453058e-01	 1.420876473974422e+01
 1.542370516380803e+00	 5.693936743398390e-01	 1.429001428266796e+01
 1.537002971084515e+00	 5.837274811922245e-01	 1.428121952884970e+01
 1.531491087890640e+00	 5.980392171669248e-01	 1.427294424836148e+01
 1.525834761980506e+00	 6.123267933779026e-01	 1.426480052274659e+01
 1.520033927300916e+00	 6.265881111498114e-01	 1.425631396948995e+01
 1.514088556971340e+00	 6.408210628832548e-01	 1.424692676926710e+01
 1.507998663668878e+00	 6.550235329361828e-01	 1.423600134771338e+01
 1.501764299990313e+00	 6.691933985207813e-01	 1.422282471500130e+01
 1.495385558790614e+00	 6.833285306152008e-01	 1.420661346162888e+01
 1.488862573497258e+00	 6.974267948894225e-01	 1.418651940375224e+01
 1.482195518399771e+00	 7.114860526445453e-01	 1.416163586616911e+01
 1.550648916160909e+00	 5.724497937450826e-01	 1.424982407954077e+01
 1.545252561518732e+00	 5.868605347594412e-01	 1.424225580707086e+01
 1.539711094271035e+00	 6.012490864346952e-01	 1.423470676179995e+01
 1.534024409036530e+00	 6.156133486730686e-01	 1.422682677108296e+01
 1.528192439407473e+00	 6.299512115349341e-01	 1.421817768138226e+01
 1.522215158359038e+00	 6.442605561087159e-01	 1.420823642243676e+01
 1.516092578636350e+00	 6.585392553970166e-01	 1.419639875316263e+01
 1.509824753118475e+00	 6.727851752183220e-01	 1.418198369303751e+01
 1.503411775158746e+00	 6.869961751236214e-01	 1.416423863765405e+01
 1.496853778900772e+00	 7.011701093272450e-01	 1.414234515186861e+01
 1.490150939569523e+00	 7.153048276511899e-01	 1.411542542855528e+01
 1.558927297175879e+00	 5.755059062227464e-01	 1.420907607363614e+01
 1.553502133253170e+00	 5.899935812246702e-01	 1.420308546688704e+01
 1.547931082018768e+00	 6.044589484263408e-01	 1.419666259984791e+01
 1.542214037528769e+00	 6.188998965182695e-01	 1.418948897227100e+01
 1.536350933020881e+00	 6.333143042965717e-01	 1.418115722192659e+01
 1.530341741325984e+00	 6.477000415375185e-01	 1.417117424378702e+01
 1.524186475257223e+00	 6.620549698883894e-01	 1.415896501836072e+01
 1.517885187975948e+00	 6.763769437739950e-01	 1.414387715337148e+01
 1.511437973333853e+00	 6.906638113181893e-01	 1.412518613772669e+01
 1.504844966190669e+00	 7.049134152796751e-01	 1.410210130126811e+01
 1.498106342706818e+00	 7.191235940013742e-01	 1.407377246818138e+01
 1.567205654734554e+00	 5.785620100411010e-01	 1.416744101476307e+01
 1.561751681612993e+00	 5.931266188126015e-01	 1.416328862365837e+01
 1.556151046475760e+00	 6.076688013230365e-01	 1.415831274810767e+01
 1.550403642816337e+00	 6.221864350512336e-01	 1.415222059951014e+01
 1.544509403517884e+00	 6.366773875290850e-01	 1.414463026981753e+01
 1.538468301266987e+00	 6.511395172207374e-01	 1.413507392363986e+01
 1.532280348944810e+00	 6.655706744181810e-01	 1.412300172715694e+01
 1.525945599994987e+00	 6.799687021525819e-01	 1.410778651845451e+01
 1.519464148767568e+00	 6.943314371206906e-01	 1.408872921846589e+01
 1.512836130838410e+00	 7.086567106256150e-01	 1.406506497605082e+01
 1.506061723303376e+00	 7.229423495312334e-01	 1.403597003492341e+01
 1.575483984145777e+00	 5.816181034684160e-01	 1.412460193197517e+01
 1.570001201923368e+00	 5.962596457479266e-01	 1.412245991627270e+01
 1.564370982983933e+00	 6.108786433059569e-01	 1.411917472470676e+01
 1.558593220258347e+00	 6.254729624096913e-01	 1.411447342970297e+01
 1.552667846275225e+00	 6.400404593268340e-01	 1.410799433833599e+01
 1.546594833576855e+00	 6.545789812094476e-01	 1.409929027507781e+01
 1.540374195112425e+00	 6.690863669942703e-01	 1.408783262927503e+01
 1.534005984607846e+00	 6.835604483188631e-01	 1.407301617238288e+01
 1.527490296911529e+00	 6.979990504529110e-01	 1.405416464434965e+01
 1.520827268315452e+00	 7.123999932439664e-01	 1.403053710269666e+01
 1.514017076850916e+00	 7.267610920769028e-01	 1.400133502180655e+01
 1.583762280718390e+00	 5.846741847729618e-01	 1.408025424818977e+01
 1.578250689509457e+00	 5.993926602553357e-01	 1.408020858146613e+01
 1.572590886885210e+00	 6.140884725562775e-01	 1.407878262115825e+01
 1.566782765213917e+00	 6.287594767313712e-01	 1.407571755775014e+01
 1.560826256669648e+00	 6.434035177841784e-01	 1.407066677002451e+01
 1.554721333650398e+00	 6.580184315547234e-01	 1.406319921598996e+01
 1.548468009173378e+00	 6.726020456245368e-01	 1.405280361676122e+01
 1.542066337246781e+00	 6.871521802376196e-01	 1.403889343881317e+01
 1.535516413217374e+00	 7.016666492366371e-01	 1.402081267419312e+01
 1.528818374093255e+00	 7.161432610136317e-01	 1.399784241222301e+01
 1.521972398841161e+00	 7.305798194745170e-01	 1.396920818997623e+01
 1.592040539761233e+00	 5.877302522230078e-01	 1.403410589370455e+01
 1.586500139696427e+00	 6.025256605595203e-01	 1.403615852852277e+01
 1.580810753521514e+00	 6.172982872551731e-01	 1.403668714487903e+01
 1.574972273042159e+00	 6.320459761540024e-01	 1.403544141357809e+01
 1.568984630077895e+00	 6.467665609954794e-01	 1.403208473496422e+01
 1.562847796882426e+00	 6.614578663076398e-01	 1.402619775538227e+01
 1.556561786540984e+00	 6.761177083168597e-01	 1.401728270515073e+01
 1.550126653344047e+00	 6.907438958736325e-01	 1.400476856384103e+01
 1.543542493136738e+00	 7.053342313936549e-01	 1.398801705262150e+01
 1.536809443643275e+00	 7.198865118135123e-01	 1.396632944715784e+01
 1.529927684765830e+00	 7.343985295602113e-01	 1.393895419809397e+01
 1.600318756583150e+00	 5.907863040868249e-01	 1.398587741864597e+01
 1.594749547809442e+00	 6.056586448851704e-01	 1.398994841433228e+01
 1.589030578234766e+00	 6.205080855838191e-01	 1.399245566329894e+01
 1.583161739102190e+00	 6.353324588153144e-01	 1.399315178179364e+01
 1.577142961876711e+00	 6.501295870550968e-01	 1.399170523251620e+01
 1.570974218667745e+00	 6.648972835192715e-01	 1.398770398379088e+01
 1.564655522628555e+00	 6.796333530791189e-01	 1.398066001917402e+01
 1.558186928331899e+00	 6.943355931916823e-01	 1.397001470365312e+01
 1.551568532121260e+00	 7.090017948457507e-01	 1.395514500634891e+01
 1.544800472436973e+00	 7.236297435225104e-01	 1.393537057314579e+01
 1.537882930116643e+00	 7.382172201701207e-01	 1.390996163598615e+01
 1.458329191778564e+00	 7.000296973245008e-01	 1.429030105180273e+01
 1.451629102552406e+00	 7.138197457051577e-01	 1.425384564851632e+01
 1.444787774890119e+00	 7.275672120895003e-01	 1.422473675379173e+01
 1.437805501170166e+00	 7.412699853003292e-01	 1.420339648538559e+01
 1.430682614837620e+00	 7.549259536497341e-01	 1.418093306622553e+01
 1.423419490559979e+00	 7.685330059172392e-01	 1.415045695661044e+01
 1.416016544355583e+00	 7.820890323363864e-01	 1.411355326558526e+01
 1.408474233694218e+00	 7.955919255888726e-01	 1.407201797674171e+01
 1.400793057569549e+00	 8.090395818053450e-01	 1.402785490932063e+01
 1.392973556543012e+00	 8.224299015719309e-01	 1.398327094188046e+01
 1.385016312758878e+00	 8.357607909415733e-01	 1.394066943459655e+01
 1.466284639996011e+00	 7.038484853173357e-01	 1.425142492906225e+01
 1.459548000577180e+00	 7.177137608940228e-01	 1.421809333981454e+01
 1.452669352241098e+00	 7.315362221819188e-01	 1.419239484664368e+01
 1.445648988961213e+00	 7.453137464869757e-01	 1.417384616194039e+01
 1.438487246001606e+00	 7.590442106016481e-01	 1.415014175192414e+01
 1.431184500073661e+00	 7.727254917883754e-01	 1.411865465713072e+01
 1.423741169465178e+00	 7.863554687715474e-01	 1.408104655810734e+01
 1.416157714141530e+00	 7.999320227370634e-01	 1.403919454548125e+01
 1.408434635818488e+00	 8.134530383385862e-01	 1.399518823310991e+01
 1.400572478006355e+00	 8.269164047095668e-01	 1.395132507875645e+01
 1.392571826025109e+00	 8.403200164800926e-01	 1.391010384497618e+01
 1.474240083705840e+00	 7.076672711453058e-01	 1.420876473974422e+01
 1.467466894115124e+00	 7.216077738753871e-01	 1.417993031965202e+01
 1.460550925126458e+00	 7.355052300243319e-01	 1.415897203731953e+01
 1.453492472308269e+00	 7.493575053812495e-01	 1.414287202697971e+01
 1.446291872743647e+00	 7.631624652189664e-01	 1.411895368123146e+01
 1.438949505187860e+00	 7.769179752828448e-01	 1.408738988953984e+01
 1.431465790198168e+00	 7.906219027881273e-01	 1.404989734758840e+01
 1.423841190235528e+00	 8.042721174249227e-01	 1.400841273397171e+01
 1.416076209737817e+00	 8.178664923699179e-01	 1.396509001921802e+01
 1.408171395164201e+00	 8.314029053038924e-01	 1.392229592626916e+01
 1.400127335010365e+00	 8.448792394340858e-01	 1.388260347155841e+01
 1.482195518399771e+00	 7.114860526445453e-01	 1.416163586616911e+01
 1.475385778678659e+00	 7.255017824427503e-01	 1.413865083490402e+01
 1.468432489079756e+00	 7.394742333677343e-01	 1.412377921550183e+01
 1.461335946766467e+00	 7.534012596917782e-01	 1.410976169364323e+01
 1.454096490640893e+00	 7.672807151680944e-01	 1.408669009438475e+01
 1.446714501502178e+00	 7.811104540249799e-01	 1.405601455325248e+01
 1.439190402177040e+00	 7.948883319685445e-01	 1.401948534818533e+01
 1.431524657622020e+00	 8.086122071931201e-01	 1.397907736154659e+01
 1.423717774997096e+00	 8.222799413984306e-01	 1.393698762936074e+01
 1.415770303710294e+00	 8.358894008125978e-01	 1.389563098487625e+01
 1.407682835433004e+00	 8.494384572200259e-01	 1.385763372187398e+01
 1.490150939569523e+00	 7.153048276511899e-01	 1.411542542855528e+01
 1.483304649780203e+00	 7.293957843896119e-01	 1.409380360049727e+01
 1.476314039634549e+00	 7.434432299631210e-01	 1.408575468166087e+01
 1.469179407890946e+00	 7.574450071271901e-01	 1.407381904459380e+01
 1.461901095270492e+00	 7.713989581154368e-01	 1.405268931154233e+01
 1.454479484616214e+00	 7.853029256391135e-01	 1.402389844691633e+01
 1.446915001024281e+00	 7.991547538952182e-01	 1.398920899087466e+01
 1.439208111946813e+00	 8.129522895823248e-01	 1.395061276967373e+01
 1.431359327265885e+00	 8.266933829232151e-01	 1.391032872999829e+01
 1.423369199338379e+00	 8.403758886933724e-01	 1.387079880938049e+01
 1.415238323011382e+00	 8.539976672543874e-01	 1.383468176423305e+01
 1.498106342706818e+00	 7.191235940013742e-01	 1.407377246818138e+01
 1.491223502932177e+00	 7.332897775094712e-01	 1.405125024038817e+01
 1.484195572324397e+00	 7.474122175614871e-01	 1.404360887487925e+01
 1.477022851236836e+00	 7.614887453961123e-01	 1.403436517853037e+01
 1.469705682209594e+00	 7.755171917273981e-01	 1.401630771476578e+01
 1.462244450129569e+00	 7.894953877495785e-01	 1.399043028381028e+01
 1.454639582362379e+00	 8.034211661505669e-01	 1.395848647033443e+01
 1.446891548855716e+00	 8.172923621332060e-01	 1.392246389851333e+01
 1.439000862213744e+00	 8.311068144433613e-01	 1.388458239688619e+01
 1.430968077742198e+00	 8.448623664039067e-01	 1.384729013992117e+01
 1.422793793463853e+00	 8.585568669536435e-01	 1.381325768373834e+01
 1.506061723303376e+00	 7.229423495312334e-01	 1.403597003492341e+01
 1.499142333646998e+00	 7.371837595958279e-01	 1.401318331400069e+01
 1.492077082682854e+00	 7.513811939138264e-01	 1.400303940920474e+01
 1.484866272359275e+00	 7.655324722071728e-01	 1.399149466765997e+01
 1.477510247035349e+00	 7.796354136703829e-01	 1.397692073322655e+01
 1.470009393641844e+00	 7.936878379807087e-01	 1.395501871013367e+01
 1.462364141813821e+00	 8.076875663170096e-01	 1.392675679442062e+01
 1.454574963994535e+00	 8.216324223864327e-01	 1.389409736580471e+01
 1.446642375510236e+00	 8.355202334579608e-01	 1.385924022171818e+01
 1.438566934615496e+00	 8.493488314018902e-01	 1.382461903484238e+01
 1.430349242508775e+00	 8.631160537342678e-01	 1.379289563997416e+01
 1.514017076850916e+00	 7.267610920769028e-01	 1.400133502180655e+01
 1.507061137437086e+00	 7.410777284421817e-01	 1.397893298515726e+01
 1.499958566243481e+00	 7.553501567711348e-01	 1.396532795975850e+01
 1.492709666813395e+00	 7.695761852689991e-01	 1.395065067038252e+01
 1.485314785324906e+00	 7.837536216107969e-01	 1.393481384948903e+01
 1.477774310752641e+00	 7.978802739568360e-01	 1.391709332604681e+01
 1.470088675001094e+00	 8.119539519769651e-01	 1.389348083610881e+01
 1.462258353009080e+00	 8.259724678826740e-01	 1.386500254796340e+01
 1.454283862824919e+00	 8.399336374661037e-01	 1.383381742074969e+01
 1.446165765652017e+00	 8.538352811450131e-01	 1.380232400533271e+01
 1.437904665864503e+00	 8.676752250127346e-01	 1.377315502627554e+01
 1.521972398841161e+00	 7.305798194745170e-01	 1.396920818997623e+01
 1.514979909814860e+00	 7.449716818420312e-01	 1.394697815407223e+01
 1.507840018539832e+00	 7.593191038844065e-01	 1.392988060420966e+01
 1.500553030154332e+00	 7.736198822902188e-01	 1.391259489618493e+01
 1.493119292655413e+00	 7.878718132150444e-01	 1.389498101039220e+01
 1.485539197061559e+00	 8.020726933022940e-01	 1.387701670399066e+01
 1.477813177546687e+00	 8.162203207128523e-01	 1.385814238777853e+01
 1.469941711545156e+00	 8.303124961625994e-01	 1.383469266327369e+01
 1.461925319827353e+00	 8.443470239668803e-01	 1.380785394529430e+01
 1.453764566545504e+00	 8.583217130909651e-01	 1.377996915173707e+01
 1.445460059249392e+00	 8.722343782055169e-01	 1.375362163048220e+01
 1.529927684765830e+00	 7.343985295602113e-01	 1.393895419809397e+01
 1.522898646292739e+00	 7.488656175888769e-01	 1.391610320066667e+01
 1.515721435105468e+00	 7.632880330046365e-01	 1.389614303524394e+01
 1.508396357937219e+00	 7.776635609794600e-01	 1.387681258247708e+01
 1.500923764604023e+00	 7.919899861495301e-01	 1.385790209930217e+01
 1.493304048168200e+00	 8.062650936414156e-01	 1.383931222871994e+01
 1.485537645073085e+00	 8.204866701070902e-01	 1.382107532227219e+01
 1.477625035248573e+00	 8.346525047668775e-01	 1.380270585706540e+01
 1.469566742187101e+00	 8.487603904593822e-01	 1.378091559399076e+01
 1.461363332989701e+00	 8.628081246974364e-01	 1.375714530144300e+01
 1.453015418381801e+00	 8.767935107290888e-01	 1.373390879708691e+01
 1.537882930116643e+00	 7.382172201701207e-01	 1.390996163598615e+01
 1.530817342383143e+00	 7.527595334762179e-01	 1.388575054947940e+01
 1.523602811473945e+00	 7.672569418828201e-01	 1.386359954150319e+01
 1.516239645717194e+00	 7.817072190453502e-01	 1.384282700595384e+01
 1.508728196747882e+00	 7.961081380806593e-01	 1.382313679031918e+01
 1.501068859672164e+00	 8.104574725985342e-01	 1.380433529660859e+01
 1.493262073202777e+00	 8.247529977420973e-01	 1.378635320247303e+01
 1.485308319765139e+00	 8.389924912361780e-01	 1.376926852910345e+01
 1.477208125573723e+00	 8.531737344426989e-01	 1.375259512673831e+01
 1.468962060678353e+00	 8.672945134221165e-01	 1.373347114824677e+01
 1.460570738980083e+00	 8.813526199999246e-01	 1.371365859068903e+01
 1.385016312758878e+00	 8.357607909415733e-01	 1.394066943459655e+01
 1.376921950264790e+00	 8.490301627137588e-01	 1.389477575581862e+01
 1.368691135966320e+00	 8.622359382625984e-01	 1.383998825441035e+01
 1.360324578539134e+00	 8.753760477913800e-01	 1.377846707635259e+01
 1.351823027988257e+00	 8.884484310920081e-01	 1.371250122890082e+01
 1.343187275513448e+00	 9.014510385646831e-01	 1.364449334241058e+01
 1.334418153344632e+00	 9.143818322364075e-01	 1.357694250557538e+01
 1.325516534547367e+00	 9.272387867773062e-01	 1.351242518608849e+01
 1.316483332798322e+00	 9.400198905137382e-01	 1.345357426158225e+01
 1.307319502130800e+00	 9.527231464371733e-01	 1.340305619881114e+01
 1.298026036650376e+00	 9.653465732078103e-01	 1.336354643234649e+01
 1.392571826025109e+00	 8.403200164800926e-01	 1.391010384497618e+01
 1.384433307326690e+00	 8.536617750635985e-01	 1.386612449660143e+01
 1.376157592454760e+00	 8.669395904949169e-01	 1.381350882749089e+01
 1.367745393950933e+00	 8.801513816862189e-01	 1.375429393399560e+01
 1.359197465911648e+00	 8.932950771906035e-01	 1.369065208739183e+01
 1.350514603852795e+00	 9.063686162273336e-01	 1.362487555361716e+01
 1.341697644544260e+00	 9.193699497059010e-01	 1.355935941432707e+01
 1.332747465814330e+00	 9.322970412478896e-01	 1.349658239978586e+01
 1.323664986323940e+00	 9.451478682056157e-01	 1.343908575737965e+01
 1.314451165310814e+00	 9.579204226765062e-01	 1.338945019310219e+01
 1.305107002303551e+00	 9.706127125121943e-01	 1.335027093712993e+01
 1.400127335010365e+00	 8.448792394340858e-01	 1.388260347155841e+01
 1.391944660132547e+00	 8.582933847878872e-01	 1.384049390440652e+01
 1.383624044712497e+00	 8.716432400608570e-01	 1.378985181613060e+01
 1.375166205157784e+00	 8.849267128740599e-01	 1.373261999709383e+01
 1.366571899656258e+00	 8.981417205417938e-01	 1.367088370140027e+01
 1.357841928039947e+00	 9.112861911023913e-01	 1.360685549560942e+01
 1.348977131618701e+00	 9.243580643478408e-01	 1.354285803322378e+01
 1.339978392983535e+00	 9.373552928511949e-01	 1.348130476394397e+01
 1.330846635779655e+00	 9.502758429907313e-01	 1.342467860040724e+01
 1.321582824449209e+00	 9.631176959698434e-01	 1.337550857915279e+01
 1.312187963943819e+00	 9.758788488316039e-01	 1.333634456679972e+01
 1.407682835433004e+00	 8.494384572200259e-01	 1.385763372187398e+01
 1.399456004425755e+00	 8.629249892620728e-01	 1.381736906303734e+01
 1.391090488508389e+00	 8.763468842950405e-01	 1.376852725024820e+01
 1.382587007954426e+00	 8.897020386488994e-01	 1.371298494731622e+01
 1.373946325043128e+00	 9.029883583991610e-01	 1.365276955214358e+01
 1.365169243922662e+00	 9.162037604032416e-01	 1.359004404623191e+01
 1.356256610442838e+00	 9.293461733356397e-01	 1.352708969091321e+01
 1.347209311957400e+00	 9.424135387208866e-01	 1.346628657775408e+01
 1.338028277095824e+00	 9.554038119632393e-01	 1.341009205476864e+01
 1.328714475504677e+00	 9.683149633720676e-01	 1.336101706458187e+01
 1.319268917558604e+00	 9.811449791818985e-01	 1.332160044542060e+01
 1.415238323011382e+00	 8.539976672543874e-01	 1.383468176423305e+01
 1.406967335949710e+00	 8.675565858616047e-01	 1.379625738889413e+01
 1.398556919611293e+00	 8.810505205320885e-01	 1.374906784935915e+01
 1.390007798135601e+00	 8.944773563047353e-01	 1.369495130523575e+01
 1.381320737893303e+00	 9.078349880162894e-01	 1.363590590886126e+01
 1.372496547348698e+00	 9.211213213432713e-01	 1.357407462816472e+01
 1.363536076891557e+00	 9.343342738427080e-01	 1.351172783365433e+01
 1.354440218638345e+00	 9.474717759906313e-01	 1.345124365540541e+01
 1.345209906202802e+00	 9.605317722172934e-01	 1.339508613059336e+01
 1.335846114435910e+00	 9.735122219380624e-01	 1.334578117711371e+01
 1.326349859135333e+00	 9.864111005789371e-01	 1.330589044407864e+01
 1.422793793463853e+00	 8.585568669536435e-01	 1.381325768373834e+01
 1.414478650447807e+00	 8.721881719619314e-01	 1.377668981288786e+01
 1.406023333790067e+00	 8.857541461066222e-01	 1.373103023328335e+01
 1.397428571496050e+00	 8.992526631355648e-01	 1.367810567242500e+01
 1.388695134027825e+00	 9.126816066467631e-01	 1.361991310459181e+01
 1.379823834165816e+00	 9.260388711358668e-01	 1.355860452037430e+01
 1.370815526839743e+00	 9.393223630424579e-01	 1.349646937413198e+01
 1.361671108928788e+00	 9.525300017940931e-01	 1.343591471365145e+01
 1.352391519030945e+00	 9.656597208470472e-01	 1.337944301143961e+01
 1.342977737201602e+00	 9.787094687227104e-01	 1.332962773259728e+01
 1.333430784661431e+00	 9.916772100385802e-01	 1.328908668999495e+01
 1.430349242508775e+00	 8.631160537342678e-01	 1.379289563997415e+01
 1.421989943663440e+00	 8.768197449385009e-01	 1.375822196377426e+01
 1.413489726813570e+00	 8.904577583532622e-01	 1.371399613389423e+01
 1.404849323830514e+00	 9.040279564353855e-01	 1.366205997409996e+01
 1.396069509267736e+00	 9.175282115441656e-01	 1.360443681190037e+01
 1.387151100221771e+00	 9.309564069944144e-01	 1.354331616882015e+01
 1.378094956162280e+00	 9.443104381083003e-01	 1.348103603874550e+01
 1.368901978731147e+00	 9.575882132649376e-01	 1.342006275698867e+01
 1.359573111510609e+00	 9.707876549466550e-01	 1.336296847837624e+01
 1.350109339760446e+00	 9.839067007808964e-01	 1.331240629871235e+01
 1.340511690124322e+00	 9.969433045766869e-01	 1.327108307028097e+01
 1.437904665864503e+00	 8.676752250127346e-01	 1.377315502627554e+01
 1.429501211340003e+00	 8.814513021667627e-01	 1.374043535281922e+01
 1.420956094450658e+00	 8.951613546066303e-01	 1.369757360783325e+01
 1.412270050933736e+00	 9.088032334981945e-01	 1.364645270225441e+01
 1.403443859434079e+00	 9.223747999620809e-01	 1.358914931851996e+01
 1.394478341364324e+00	 9.358739261323001e-01	 1.352791849640586e+01
 1.385374360734054e+00	 9.492984962136471e-01	 1.346517571338715e+01
 1.376132823947842e+00	 9.626464075368303e-01	 1.340347646049399e+01
 1.366754679572149e+00	 9.759155716102704e-01	 1.334549333082689e+01
 1.357240918071134e+00	 9.891039151675020e-01	 1.329399065447937e+01
 1.347592571511432e+00	 1.002209381209118e+00	 1.325179673049052e+01
 1.445460059249392e+00	 8.722343782055169e-01	 1.375362163048220e+01
 1.437012449220893e+00	 8.860828410221652e-01	 1.372293855970981e+01
 1.428422432470189e+00	 8.998649322013471e-01	 1.368139825011726e+01
 1.419690748600457e+00	 9.135784916179892e-01	 1.363095015922865e+01
 1.410818180347898e+00	 9.272213691540918e-01	 1.357375080287045e+01
 1.401805553441232e+00	 9.407914257629103e-01	 1.351214821216278e+01
 1.392653736429950e+00	 9.542865345319089e-01	 1.344866378772581e+01
 1.383363640481291e+00	 9.677045817434362e-01	 1.338597155036792e+01
 1.373936219145922e+00	 9.810434679320476e-01	 1.332687480425319e+01
 1.364372468092358e+00	 9.943011089374115e-01	 1.327428024568755e+01
 1.354673424810187e+00	 1.007475436951730e+00	 1.323116956811876e+01
 1.453015418381801e+00	 8.767935107290888e-01	 1.373390879708691e+01
 1.444523653049504e+00	 8.907143588801568e-01	 1.370536841962725e+01
 1.435888736641022e+00	 9.045684884720345e-01	 1.366513440856699e+01
 1.427111412625418e+00	 9.183537280887676e-01	 1.361524770165680e+01
 1.418192467830235e+00	 9.320679163737829e-01	 1.355797060942143e+01
 1.409132732300255e+00	 9.457089030996315e-01	 1.349577111965369e+01
 1.399933079124852e+00	 9.592745502364981e-01	 1.343130449800990e+01
 1.390594424233912e+00	 9.727627330184206e-01	 1.336739218222463e+01
 1.381117726162284e+00	 9.861713410061395e-01	 1.330699798475029e+01
 1.371503985782812e+00	 9.994982791455084e-01	 1.325320163634588e+01
 1.361754246008011e+00	 1.012741468820386e+00	 1.320916972118923e+01
 1.460570738980083e+00	 8.813526199999246e-01	 1.371365859068903e+01
 1.452034818569231e+00	 8.953458531161863e-01	 1.368739121140198e+01
 1.443355002732013e+00	 9.092720207533125e-01	 1.364847639898812e+01
 1.434532038803360e+00	 9.231289402045261e-01	 1.359907098474001e+01
 1.425566717702133e+00	 9.369144388747375e-01	 1.354156852386154e+01
 1.416459873789150e+00	 9.506263553558497e-01	 1.347858342458287e+01
 1.407212384693646e+00	 9.642625405008262e-01	 1.341293226840044e+01
 1.397825171108125e+00	 9.778208584954495e-01	 1.334761231716856e+01
 1.388299196551591e+00	 9.912991879267010e-01	 1.328577722062582e+01
 1.378635467101188e+00	 1.004695422846675e+00	 1.323070995625915e+01
 1.368835031092330e+00	 1.018007473830945e+00	 1.318579305206363e+01
 1.298026036650376e+00	 9.653465732078103e-01	 1.336354643234649e+01
 1.288602358385265e+00	 9.778903301024591e-01	 1.332023827420274e+01
 1.279051114591260e+00	 9.903503101933834e-01	 1.325833328675927e+01
 1.269373423511538e+00	 1.002724576933950e+00	 1.318041818197818e+01
 1.259570442080433e+00	 1.015011213368079e+00	 1.308895441900780e+01
 1.249643365489745e+00	 1.027208323096735e+00	 1.298624604350809e+01
 1.239593426726359e+00	 1.039314031233090e+00	 1.287440635168070e+01
 1.229421896081530e+00	 1.051326485345384e+00	 1.275532352148911e+01
 1.219130080632221e+00	 1.063243856386471e+00	 1.263062536507097e+01
 1.208719323694913e+00	 1.075064339609113e+00	 1.250164336721708e+01
 1.198191004252381e+00	 1.086786155466048e+00	 1.236937618494350e+01
 1.305107002303551e+00	 9.706127125121943e-01	 1.335027093712993e+01
 1.295631916177420e+00	 9.832248978583730e-01	 1.330653831643069e+01
 1.286028568629475e+00	 9.957528493832745e-01	 1.324353531059667e+01
 1.276298084003108e+00	 1.008194619976057e+00	 1.316421027386299e+01
 1.266441625543942e+00	 1.020548282223301e+00	 1.307140041979552e+01
 1.256460394963762e+00	 1.032811929380773e+00	 1.296779841785031e+01
 1.246355631975619e+00	 1.044983676333802e+00	 1.285591773151910e+01
 1.236128613800440e+00	 1.057061660545278e+00	 1.273805684467113e+01
 1.225780654645524e+00	 1.069044042990277e+00	 1.261626253471602e+01
 1.215313105155390e+00	 1.080929009076339e+00	 1.249229236257446e+01
 1.204727351835412e+00	 1.092714769548452e+00	 1.236757656005993e+01
 1.312187963943819e+00	 9.758788488316039e-01	 1.333634456679972e+01
 1.302661469985817e+00	 9.885594625905887e-01	 1.329207153011085e+01
 1.293006018713498e+00	 1.001155385511013e+00	 1.322811406796956e+01
 1.283222740570472e+00	 1.013664659917829e+00	 1.314776084447058e+01
 1.273312805113630e+00	 1.026085347940282e+00	 1.305420291479420e+01
 1.263277420574739e+00	 1.038415532488947e+00	 1.295049909072795e+01
 1.253117833393007e+00	 1.050653318221314e+00	 1.283953996347141e+01
 1.242835327719017e+00	 1.062796832494929e+00	 1.272401073447824e+01
 1.232431224890399e+00	 1.074844226307089e+00	 1.260635301761532e+01
 1.221906882879699e+00	 1.086793675220122e+00	 1.248872578778275e+01
 1.211263695714876e+00	 1.098643380271268e+00	 1.237296566222857e+01
 1.319268917558604e+00	 9.811449791818985e-01	 1.332160044542060e+01
 1.309691015827007e+00	 9.938940212761895e-01	 1.327671086642780e+01
 1.299983460889407e+00	 1.006557915515162e+00	 1.321196678562722e+01
 1.290147389289607e+00	 1.019134693659575e+00	 1.313097628981976e+01
 1.280183976895768e+00	 1.031622407381351e+00	 1.303726283284894e+01
 1.270094438459620e+00	 1.044019129245879e+00	 1.293422938130768e+01
 1.259880027146516e+00	 1.056322953682820e+00	 1.282512113196202e+01
 1.249542034036682e+00	 1.068531997944388e+00	 1.271298695580945e+01
 1.239081787598070e+00	 1.080644403050114e+00	 1.260063973674339e+01
 1.228500653131234e+00	 1.092658334717119e+00	 1.249061578516691e+01
 1.217800032186712e+00	 1.104571984274907e+00	 1.238513351848030e+01
 1.326349859135333e+00	 9.864111005789371e-01	 1.330589044407864e+01
 1.316720549717547e+00	 9.992285708922567e-01	 1.326034698569801e+01
 1.306960891203272e+00	 1.011960436334287e+00	 1.319500756683570e+01
 1.297072026236494e+00	 1.024604718101607e+00	 1.311377924621087e+01
 1.287055136996626e+00	 1.037159457408831e+00	 1.302049689440534e+01
 1.276911444755347e+00	 1.049622716476184e+00	 1.291888613047831e+01
 1.266642209404138e+00	 1.061992579505511e+00	 1.281252474338880e+01
 1.256248728952858e+00	 1.074267153643709e+00	 1.270480275732935e+01
 1.245732338999760e+00	 1.086444569932559e+00	 1.259888131366957e+01
 1.235094412173392e+00	 1.098522984243988e+00	 1.249765055509919e+01
 1.224336357546852e+00	 1.110500578199781e+00	 1.240368670964623e+01
 1.333430784661431e+00	 9.916772100385802e-01	 1.328908668999495e+01
 1.323750067673990e+00	 1.004563108415874e+00	 1.324288980318406e+01
 1.313938305701167e+00	 1.017362944906950e+00	 1.317716896495226e+01
 1.303996647487112e+00	 1.030074730144233e+00	 1.309611018284060e+01
 1.293926281522473e+00	 1.042696494885050e+00	 1.300383921467317e+01
 1.283728435598860e+00	 1.055226291004481e+00	 1.290438330630835e+01
 1.273404376333869e+00	 1.067662192476579e+00	 1.280163132586470e+01
 1.262955408666967e+00	 1.080002296342945e+00	 1.269929245773533e+01
 1.252382875326693e+00	 1.092244723667627e+00	 1.260085363385406e+01
 1.241688156269569e+00	 1.104387620477386e+00	 1.250953589309688e+01
 1.230872668091234e+00	 1.116429158686304e+00	 1.242370231451880e+01
 1.340511690124322e+00	 9.969433045766869e-01	 1.327108307028097e+01
 1.330779565712892e+00	 1.009897630824122e+00	 1.322427002860418e+01
 1.320915700429165e+00	 1.022765438171716e+00	 1.315840354999525e+01
 1.310921249117441e+00	 1.035544726687763e+00	 1.307792898695032e+01
 1.300797406579578e+00	 1.048233516672332e+00	 1.298724289909152e+01
 1.290545407127104e+00	 1.060829849655387e+00	 1.289065360179453e+01
 1.280166524103702e+00	 1.073331789383216e+00	 1.279234002145230e+01
 1.269662069378431e+00	 1.085737422792146e+00	 1.269630902492795e+01
 1.259033392810093e+00	 1.098044860968527e+00	 1.260635140545676e+01
 1.248281881683161e+00	 1.110252240093970e+00	 1.252599672123022e+01
 1.237408960115793e+00	 1.122357722374885e+00	 1.243861776715434e+01
 1.347592571511432e+00	 1.002209381209118e+00	 1.325179673049051e+01
 1.337809039850808e+00	 1.015232135094084e+00	 1.320444069953065e+01
 1.327893071433340e+00	 1.028167913067147e+00	 1.313868546842926e+01
 1.317845827203458e+00	 1.041014704632506e+00	 1.305921654174331e+01
 1.307668508274213e+00	 1.053770519633005e+00	 1.297068163133729e+01
 1.297362355477020e+00	 1.066433389253523e+00	 1.287765002514221e+01
 1.286928648881630e+00	 1.079001367012613e+00	 1.278457017112843e+01
 1.276368707286673e+00	 1.091472529741369e+00	 1.269572564830693e+01
 1.265683887681183e+00	 1.103844978548464e+00	 1.261518971185594e+01
 1.254875584677564e+00	 1.116116839770399e+00	 1.254309660020592e+01
 1.243945229916464e+00	 1.128286265905938e+00	 1.244883473380247e+01
 1.354673424810187e+00	 1.007475436951730e+00	 1.323116956811876e+01
 1.344838486104291e+00	 1.020566618202843e+00	 1.318337870885684e+01
 1.334870414759766e+00	 1.033570366531807e+00	 1.311801199636897e+01
 1.324770377821145e+00	 1.046484660878773e+00	 1.303997629729236e+01
 1.314539582712644e+00	 1.059307500629393e+00	 1.295415125410892e+01
 1.304179276785549e+00	 1.072036906623503e+00	 1.286534748281294e+01
 1.293690746835649e+00	 1.084670922151964e+00	 1.277826289270374e+01
 1.283075318591113e+00	 1.097207613940664e+00	 1.269743730440162e+01
 1.272334356171187e+00	 1.109645073120645e+00	 1.262720555806826e+01
 1.261469261516174e+00	 1.121981416183330e+00	 1.255477149006156e+01
 1.250481473789183e+00	 1.134214785919873e+00	 1.245486226422637e+01
 1.361754246008011e+00	 1.012741468820386e+00	 1.320916972118923e+01
 1.351867900489896e+00	 1.025901077127479e+00	 1.316108632650907e+01
 1.341847726454515e+00	 1.038972795504262e+00	 1.309640508640151e+01
 1.331694897046479e+00	 1.051954592326871e+00	 1.302023583465108e+01
 1.321410626001145e+00	 1.064844456523824e+00	 1.293767134290528e+01
 1.310996167189634e+00	 1.077640398589949e+00	 1.285374435555765e+01
 1.300452814133752e+00	 1.090340451588458e+00	 1.277338265191127e+01
 1.289781899491176e+00	 1.102942672140085e+00	 1.270136231604011e+01
 1.278984794511330e+00	 1.115445141398275e+00	 1.263977267177531e+01
 1.268062908462387e+00	 1.127845966009419e+00	 1.256152754872507e+01
 1.257017688029886e+00	 1.140143279057105e+00	 1.245725475580728e+01
 1.368835031092330e+00	 1.018007473830945e+00	 1.318579305206363e+01
 1.358897279024179e+00	 1.031235508845077e+00	 1.313759271556539e+01
 1.348825002563662e+00	 1.044375196923073e+00	 1.307391290821323e+01
 1.338619380955441e+00	 1.057424495877113e+00	 1.300004842337158e+01
 1.328281634245983e+00	 1.070381384178622e+00	 1.292128677301202e+01
 1.317813022826219e+00	 1.083243861977478e+00	 1.284286406764745e+01
 1.307214846943933e+00	 1.096009952109289e+00	 1.276991882686884e+01
 1.296488446186282e+00	 1.108677701089683e+00	 1.270744390524555e+01
 1.285635198932836e+00	 1.121245180094562e+00	 1.264708300708593e+01
 1.274656521779600e+00	 1.133710485925326e+00	 1.256402278969798e+01
 1.263553868934508e+00	 1.146071741958044e+00	 1.245660996449588e+01
 1.198191004252381e+00	 1.086786155466048e+00	 1.236937618494350e+01
 1.187548352346055e+00	 1.098405586862223e+00	 1.225386773015259e+01
 1.176791020270100e+00	 1.109922924874111e+00	 1.217608021734768e+01
 1.165920470588176e+00	 1.121336490598920e+00	 1.211771969330856e+01
 1.154938198955122e+00	 1.132644633743766e+00	 1.204926521573170e+01
 1.143845733426350e+00	 1.143845733426350e+00	 1.196977736767499e+01
 1.132644633743766e+00	 1.154938198955122e+00	 1.187873614938961e+01
 1.121336490598919e+00	 1.165920470588176e+00	 1.177580778339929e+01
 1.109922924874111e+00	 1.176791020270100e+00	 1.166083909816001e+01
 1.098405586862222e+00	 1.187548352346055e+00	 1.153031198825568e+01
 1.086786155466048e+00	 1.198191004252381e+00	 1.138322466987035e+01
 1.204727351835412e+00	 1.092714769548452e+00	 1.236757656005993e+01
 1.194026642347475e+00	 1.104397587034142e+00	 1.226293332087885e+01
 1.183210627088950e+00	 1.115977754197759e+00	 1.219531687365025e+01
 1.172280776602042e+00	 1.127453582977790e+00	 1.212883748562781e+01
 1.161238594700656e+00	 1.138823414078712e+00	 1.205433052234952e+01
 1.150085617776020e+00	 1.150085617776020e+00	 1.197084247726609e+01
 1.138823414078712e+00	 1.161238594700656e+00	 1.187757017007649e+01
 1.127453582977790e+00	 1.172280776602042e+00	 1.177389197724538e+01
 1.115977754197758e+00	 1.183210627088951e+00	 1.165939903112143e+01
 1.104397587034142e+00	 1.194026642347476e+00	 1.153284951373526e+01
 1.092714769548452e+00	 1.204727351835411e+00	 1.139018555115908e+01
 1.211263695714876e+00	 1.098643380271268e+00	 1.237296566222857e+01
 1.200504928678265e+00	 1.110389583810643e+00	 1.228052839306374e+01
 1.189630230270434e+00	 1.122032580090466e+00	 1.221130663221215e+01
 1.178641079012137e+00	 1.133570671890515e+00	 1.213759525361068e+01
 1.167538986876340e+00	 1.145002190912624e+00	 1.205797605542962e+01
 1.156325498590087e+00	 1.156325498590087e+00	 1.197123333342722e+01
 1.145002190912624e+00	 1.167538986876340e+00	 1.187629593351372e+01
 1.133570671890515e+00	 1.178641079012137e+00	 1.177227008890575e+01
 1.122032580090466e+00	 1.189630230270434e+00	 1.165847225831790e+01
 1.110389583810642e+00	 1.200504928678265e+00	 1.153444909738351e+01
 1.098643380271268e+00	 1.211263695714876e+00	 1.139657162875450e+01
 1.217800032186712e+00	 1.104571984274907e+00	 1.238513351848030e+01
 1.206983207667255e+00	 1.116381573796204e+00	 1.230133438007132e+01
 1.196049826176641e+00	 1.128087399121099e+00	 1.222390884171348e+01
 1.185001374214159e+00	 1.139687753870663e+00	 1.214406182326391e+01
 1.173839371911833e+00	 1.151180960744101e+00	 1.206022476778981e+01
 1.162565372332510e+00	 1.162565372332510e+00	 1.197093417081566e+01
 1.151180960744100e+00	 1.173839371911833e+00	 1.187486576206288e+01
 1.139687753870664e+00	 1.185001374214159e+00	 1.177086897152352e+01
 1.128087399121098e+00	 1.196049826176641e+00	 1.165800142974623e+01
 1.116381573796204e+00	 1.206983207667256e+00	 1.153556324705621e+01
 1.104571984274908e+00	 1.217800032186712e+00	 1.140213893767457e+01
 1.224336357546852e+00	 1.110500578199781e+00	 1.240368670964623e+01
 1.213461475643280e+00	 1.122373553595308e+00	 1.231777092317577e+01
 1.202469411169660e+00	 1.134142207858521e+00	 1.223330331730103e+01
 1.191361658603809e+00	 1.145804825451803e+00	 1.214836466616092e+01
 1.180139746236791e+00	 1.157359720071738e+00	 1.206115915737699e+01
 1.168805235467249e+00	 1.168805235467249e+00	 1.196998955117062e+01
 1.157359720071739e+00	 1.180139746236792e+00	 1.187329297108140e+01
 1.145804825451803e+00	 1.191361658603810e+00	 1.176967702253668e+01
 1.134142207858521e+00	 1.202469411169661e+00	 1.165795597960577e+01
 1.122373553595307e+00	 1.213461475643280e+00	 1.153718677480394e+01
 1.110500578199782e+00	 1.224336357546852e+00	 1.140669575951228e+01
 1.230872668091234e+00	 1.116429158686304e+00	 1.242370231451880e+01
 1.219939728935172e+00	 1.128365519812435e+00	 1.233004182848352e+01
 1.208888981611582e+00	 1.140197002871597e+00	 1.223972550773367e+01
 1.197721928576787e+00	 1.151921883167503e+00	 1.215068790268601e+01
 1.186440106280875e+00	 1.163538465394137e+00	 1.206091927341645e+01
 1.175045084458263e+00	 1.175045084458263e+00	 1.196850237879171e+01
 1.163538465394137e+00	 1.186440106280875e+00	 1.187164989996278e+01
 1.151921883167503e+00	 1.197721928576787e+00	 1.176874223631502e+01
 1.140197002871598e+00	 1.208888981611583e+00	 1.165836540443099e+01
 1.128365519812435e+00	 1.219939728935172e+00	 1.153934876483680e+01
 1.116429158686304e+00	 1.230872668091235e+00	 1.141080229733830e+01
 1.237408960115793e+00	 1.122357722374885e+00	 1.243861776715434e+01
 1.226417963871765e+00	 1.134357469052068e+00	 1.233849396202775e+01
 1.215308533864497e+00	 1.146251780729193e+00	 1.224346449892292e+01
 1.204082180528792e+00	 1.158038923551330e+00	 1.215127030252469e+01
 1.192740448473742e+00	 1.169717193209894e+00	 1.205970072031057e+01
 1.181284915769513e+00	 1.181284915769513e+00	 1.196663191412547e+01
 1.169717193209894e+00	 1.192740448473742e+00	 1.187006594150215e+01
 1.158038923551331e+00	 1.204082180528792e+00	 1.176817025519814e+01
 1.146251780729193e+00	 1.215308533864497e+00	 1.165931734149344e+01
 1.134357469052067e+00	 1.226417963871766e+00	 1.154212421167543e+01
 1.122357722374885e+00	 1.237408960115793e+00	 1.141549145691275e+01
 1.243945229916464e+00	 1.128286265905938e+00	 1.244883473380246e+01
 1.232896176781893e+00	 1.140349397918687e+00	 1.234352471619118e+01
 1.221728064290493e+00	 1.152306538000173e+00	 1.224486101420479e+01
 1.210442410855525e+00	 1.164155943136855e+00	 1.215040328251786e+01
 1.199040769245050e+00	 1.175895900017607e+00	 1.205775265938891e+01
 1.187524725864957e+00	 1.187524725864957e+00	 1.196459178554680e+01
 1.175895900017607e+00	 1.199040769245051e+00	 1.186872556966034e+01
 1.164155943136855e+00	 1.210442410855525e+00	 1.176812241900561e+01
 1.152306538000173e+00	 1.221728064290494e+00	 1.166095564562352e+01
 1.140349397918687e+00	 1.232896176781894e+00	 1.154564475179726e+01
 1.128286265905937e+00	 1.243945229916464e+00	 1.142089629418434e+01
 1.250481473789183e+00	 1.134214785919873e+00	 1.245486226422637e+01
 1.239374363994389e+00	 1.146341303016773e+00	 1.234558001499851e+01
 1.228147569251661e+00	 1.158361271253401e+00	 1.224430541148552e+01
 1.216802615952685e+00	 1.170272938457645e+00	 1.214842890199733e+01
 1.205341065024458e+00	 1.182074582315874e+00	 1.205537580860562e+01
 1.193764511208554e+00	 1.193764511208554e+00	 1.196264799941927e+01
 1.182074582315875e+00	 1.205341065024458e+00	 1.186786636580692e+01
 1.170272938457645e+00	 1.216802615952685e+00	 1.176881381309490e+01
 1.158361271253401e+00	 1.228147569251662e+00	 1.166347846452402e+01
 1.146341303016773e+00	 1.239374363994389e+00	 1.155009677144851e+01
 1.134214785919873e+00	 1.250481473789183e+00	 1.142719621796899e+01
 1.257017688029886e+00	 1.140143279057105e+00	 1.245725475580728e+01
 1.245852521838084e+00	 1.152333180950808e+00	 1.234515231569045e+01
 1.234567045110091e+00	 1.164415977057743e+00	 1.224223567739433e+01
 1.223162792215972e+00	 1.176389906047268e+00	 1.214573785571665e+01
 1.211641332241624e+00	 1.188253236603295e+00	 1.205292044028444e+01
 1.200004268264265e+00	 1.200004268264265e+00	 1.196111694851869e+01
 1.188253236603295e+00	 1.211641332241624e+00	 1.186777704351519e+01
 1.176389906047268e+00	 1.223162792215972e+00	 1.177051131503733e+01
 1.164415977057743e+00	 1.234567045110091e+00	 1.166713631264935e+01
 1.152333180950808e+00	 1.245852521838085e+00	 1.155571951285312e+01
 1.140143279057105e+00	 1.257017688029886e+00	 1.143462389701028e+01
 1.263553868934508e+00	 1.146071741958044e+00	 1.245660996449588e+01
 1.252330646641814e+00	 1.158325028325273e+00	 1.234277860674055e+01
 1.240986488227872e+00	 1.170470651982062e+00	 1.223913541857925e+01
 1.229522936041086e+00	 1.182506842439293e+00	 1.214276746448713e+01
 1.217941567326206e+00	 1.194431859378467e+00	 1.205078437699983e+01
 1.206243993496050e+00	 1.206243993496050e+00	 1.196036341890249e+01
 1.194431859378466e+00	 1.217941567326207e+00	 1.186879547198600e+01
 1.182506842439293e+00	 1.229522936041086e+00	 1.177353163998699e+01
 1.170470651982062e+00	 1.240986488227873e+00	 1.167223014372335e+01
 1.158325028325273e+00	 1.252330646641815e+00	 1.156280317889712e+01
 1.146071741958044e+00	 1.263553868934508e+00	 1.144346340165072e+01
 1.086786155466048e+00	 1.198191004252381e+00	 1.138322466987035e+01
 1.075064339609114e+00	 1.208719323694913e+00	 1.122902156135564e+01
 1.063243856386472e+00	 1.219130080632220e+00	 1.107547572872666e+01
 1.051326485345384e+00	 1.229421896081530e+00	 1.092253452190357e+01
 1.039314031233091e+00	 1.239593426726358e+00	 1.077054032956923e+01
 1.027208323096735e+00	 1.249643365489745e+00	 1.062020631639274e+01
 1.015011213368080e+00	 1.259570442080433e+00	 1.047259050548246e+01
 1.002724576933951e+00	 1.269373423511538e+00	 1.032906837232134e+01
 9.903503101933842e-01	 1.279051114591260e+00	 1.019130412212593e+01
 9.778903301024598e-01	 1.288602358385265e+00	 1.006122082721079e+01
 9.653465732078104e-01	 1.298026036650377e+00	 9.940969604545332e+00
 1.092714769548452e+00	 1.204727351835411e+00	 1.139018555115908e+01
 1.080929009076340e+00	 1.215313105155390e+00	 1.123951674197622e+01
 1.069044042990278e+00	 1.225780654645523e+00	 1.108824123170557e+01
 1.057061660545279e+00	 1.236128613800439e+00	 1.093652509589445e+01
 1.044983676333803e+00	 1.246355631975619e+00	 1.078494908225127e+01
 1.032811929380773e+00	 1.256460394963761e+00	 1.063448312111347e+01
 1.020548282223301e+00	 1.266441625543941e+00	 1.048645912261514e+01
 1.008194619976057e+00	 1.276298084003107e+00	 1.034254223300732e+01
 9.957528493832748e-01	 1.286028568629474e+00	 1.020470072843367e+01
 9.832248978583736e-01	 1.295631916177421e+00	 1.007517472925341e+01
 9.706127125121946e-01	 1.305107002303552e+00	 9.956443921706800e+00
 1.098643380271268e+00	 1.211263695714876e+00	 1.139657162875449e+01
 1.086793675220123e+00	 1.221906882879699e+00	 1.124976430786420e+01
 1.074844226307090e+00	 1.232431224890399e+00	 1.110112433156048e+01
 1.062796832494929e+00	 1.242835327719016e+00	 1.095102315637140e+01
 1.050653318221315e+00	 1.253117833393007e+00	 1.080026635408778e+01
 1.038415532488948e+00	 1.263277420574739e+00	 1.065006688954561e+01
 1.026085347940283e+00	 1.273312805113630e+00	 1.050201662602947e+01
 1.013664659917829e+00	 1.283222740570471e+00	 1.035805623705876e+01
 1.001155385511013e+00	 1.293006018713498e+00	 1.022044370934429e+01
 9.885594625905887e-01	 1.302661469985816e+00	 1.009172162662951e+01
 9.758788488316041e-01	 1.312187963943819e+00	 9.974683427938487e+00
 1.104571984274908e+00	 1.217800032186712e+00	 1.140213893767458e+01
 1.092658334717119e+00	 1.228500653131234e+00	 1.125952471279866e+01
 1.080644403050115e+00	 1.239081787598070e+00	 1.111387741378913e+01
 1.068531997944389e+00	 1.249542034036681e+00	 1.096576093091626e+01
 1.056322953682821e+00	 1.259880027146515e+00	 1.081619253840196e+01
 1.044019129245879e+00	 1.270094438459620e+00	 1.066661493266122e+01
 1.031622407381351e+00	 1.280183976895768e+00	 1.051886643850855e+01
 1.019134693659576e+00	 1.290147389289606e+00	 1.037514956851441e+01
 1.006557915515163e+00	 1.299983460889407e+00	 1.023799812690326e+01
 9.938940212761899e-01	 1.309691015827007e+00	 1.011024305445239e+01
 9.811449791818985e-01	 1.319268917558604e+00	 9.994977214762658e+00
 1.110500578199782e+00	 1.224336357546852e+00	 1.140669575951228e+01
 1.098522984243988e+00	 1.235094412173392e+00	 1.126860967284731e+01
 1.086444569932559e+00	 1.245732338999760e+00	 1.112630329058938e+01
 1.074267153643709e+00	 1.256248728952857e+00	 1.098052038367282e+01
 1.061992579505512e+00	 1.266642209404137e+00	 1.083247721710886e+01
 1.049622716476184e+00	 1.276911444755346e+00	 1.068383334090453e+01
 1.037159457408832e+00	 1.287055136996625e+00	 1.053666048867954e+01
 1.024604718101608e+00	 1.297072026236494e+00	 1.039340977571241e+01
 1.011960436334287e+00	 1.306960891203271e+00	 1.025687739453465e+01
 9.992285708922573e-01	 1.316720549717546e+00	 1.013016901140185e+01
 9.864111005789371e-01	 1.326349859135333e+00	 1.001666307098264e+01
 1.116429158686304e+00	 1.230872668091235e+00	 1.141080229733830e+01
 1.104387620477386e+00	 1.241688156269569e+00	 1.127688280238182e+01
 1.092244723667627e+00	 1.252382875326692e+00	 1.113825582973592e+01
 1.080002296342945e+00	 1.262955408666967e+00	 1.099513383134212e+01
 1.067662192476579e+00	 1.273404376333868e+00	 1.084891975826873e+01
 1.055226291004481e+00	 1.283728435598860e+00	 1.070147755792745e+01
 1.042696494885051e+00	 1.293926281522472e+00	 1.055509975574319e+01
 1.030074730144233e+00	 1.303996647487111e+00	 1.041247328202096e+01
 1.017362944906951e+00	 1.313938305701166e+00	 1.027664374897823e+01
 1.004563108415874e+00	 1.323750067673990e+00	 1.015097838826707e+01
 9.916772100385803e-01	 1.333430784661431e+00	 1.003912786343900e+01
 1.122357722374885e+00	 1.237408960115793e+00	 1.141549145691275e+01
 1.110252240093970e+00	 1.248281881683160e+00	 1.128426024780592e+01
 1.098044860968527e+00	 1.259033392810092e+00	 1.114964058107881e+01
 1.085737422792147e+00	 1.269662069378431e+00	 1.100948455687856e+01
 1.073331789383216e+00	 1.280166524103701e+00	 1.086536991158500e+01
 1.060829849655388e+00	 1.290545407127104e+00	 1.071935295267352e+01
 1.048233516672333e+00	 1.300797406579578e+00	 1.057393481311355e+01
 1.035544726687763e+00	 1.310921249117440e+00	 1.043202589618998e+01
 1.022765438171716e+00	 1.320915700429164e+00	 1.029690872269674e+01
 1.009897630824123e+00	 1.330779565712892e+00	 1.017219939795577e+01
 9.969433045766871e-01	 1.340511690124322e+00	 1.006180792035686e+01
 1.128286265905937e+00	 1.243945229916464e+00	 1.142089629418434e+01
 1.116116839770399e+00	 1.254875584677563e+00	 1.129131003391831e+01
 1.103844978548465e+00	 1.265683887681182e+00	 1.116041540071047e+01
 1.091472529741369e+00	 1.276368707286672e+00	 1.102350742093351e+01
 1.079001367012614e+00	 1.286928648881630e+00	 1.088172840188746e+01
 1.066433389253523e+00	 1.297362355477019e+00	 1.073731538983903e+01
 1.053770519633005e+00	 1.307668508274211e+00	 1.059296637097349e+01
 1.041014704632506e+00	 1.317845827203458e+00	 1.045180332230041e+01
 1.028167913067147e+00	 1.327893071433339e+00	 1.031733361670705e+01
 1.015232135094085e+00	 1.337809039850808e+00	 1.019341000687930e+01
 1.002209381209118e+00	 1.347592571511432e+00	 1.008418941715483e+01
 1.134214785919873e+00	 1.250481473789183e+00	 1.142719621796899e+01
 1.121981416183330e+00	 1.261469261516173e+00	 1.129916313104545e+01
 1.109645073120645e+00	 1.272334356171187e+00	 1.117059107285351e+01
 1.097207613940664e+00	 1.283075318591113e+00	 1.103718947109311e+01
 1.084670922151964e+00	 1.293690746835649e+00	 1.089794752063607e+01
 1.072036906623504e+00	 1.304179276785548e+00	 1.075527179873190e+01
 1.059307500629394e+00	 1.314539582712644e+00	 1.061204581774969e+01
 1.046484660878773e+00	 1.324770377821144e+00	 1.047159166929348e+01
 1.033570366531808e+00	 1.334870414759765e+00	 1.033762997378471e+01
 1.020566618202843e+00	 1.344838486104291e+00	 1.021423836763553e+01
 1.007475436951731e+00	 1.354673424810187e+00	 1.010580876459571e+01
 1.140143279057105e+00	 1.257017688029886e+00	 1.143462389701028e+01
 1.127845966009420e+00	 1.268062908462386e+00	 1.130805955591330e+01
 1.115445141398276e+00	 1.278984794511330e+00	 1.118066271314649e+01
 1.102942672140085e+00	 1.289781899491176e+00	 1.105057054895236e+01
 1.090340451588459e+00	 1.300452814133751e+00	 1.091403171548401e+01
 1.077640398589949e+00	 1.310996167189634e+00	 1.077318074055183e+01
 1.064844456523824e+00	 1.321410626001144e+00	 1.063107576051026e+01
 1.051954592326872e+00	 1.331694897046479e+00	 1.049122796006053e+01
 1.038972795504262e+00	 1.341847726454515e+00	 1.035756005199139e+01
 1.025901077127480e+00	 1.351867900489896e+00	 1.023436325290491e+01
 1.012741468820386e+00	 1.361754246008010e+00	 1.012625299916069e+01
 1.146071741958044e+00	 1.263553868934508e+00	 1.144346340165072e+01
 1.133710485925327e+00	 1.274656521779599e+00	 1.131827439371257e+01
 1.121245180094562e+00	 1.285635198932835e+00	 1.119187787624979e+01
 1.108677701089684e+00	 1.296488446186282e+00	 1.106374389506702e+01
 1.096009952109290e+00	 1.307214846943932e+00	 1.093003817793031e+01
 1.083243861977478e+00	 1.317813022826219e+00	 1.079105297411285e+01
 1.070381384178622e+00	 1.328281634245983e+00	 1.065001056429177e+01
 1.057424495877114e+00	 1.338619380955441e+00	 1.051060064007367e+01
 1.044375196923074e+00	 1.348825002563662e+00	 1.037693729848603e+01
 1.031235508845077e+00	 1.358897279024178e+00	 1.025351449048534e+01
 1.018007473830945e+00	 1.368835031092329e+00	 1.014516017553259e+01
 9.653465732078104e-01	 1.298026036650377e+00	 9.940969604545332e+00
 9.527231464371734e-01	 1.307319502130800e+00	 9.819516613742520e+00
 9.400198905137386e-01	 1.316483332798322e+00	 9.685723796516660e+00
 9.272387867773065e-01	 1.325516534547367e+00	 9.541880803049665e+00
 9.143818322364077e-01	 1.334418153344632e+00	 9.390364434655435e+00
 9.014510385646834e-01	 1.343187275513448e+00	 9.233607084567611e+00
 8.884484310920087e-01	 1.351823027988257e+00	 9.074065329570519e+00
 8.753760477913806e-01	 1.360324578539132e+00	 8.914188845525040e+00
 8.622359382625994e-01	 1.368691135966320e+00	 8.756389815345756e+00
 8.490301627137596e-01	 1.376921950264789e+00	 8.603012992613214e+00
 8.357607909415732e-01	 1.385016312758878e+00	 8.456306577811919e+00
 9.706127125121946e-01	 1.305107002303552e+00	 9.956443921706800e+00
 9.579204226765063e-01	 1.314451165310814e+00	 9.837466152944206e+00
 9.451478682056158e-01	 1.323664986323940e+00	 9.706703535357978e+00
 9.322970412478898e-01	 1.332747465814330e+00	 9.566188299945429e+00
 9.193699497059011e-01	 1.341697644544260e+00	 9.418032191788145e+00
 9.063686162273341e-01	 1.350514603852795e+00	 9.264394357775490e+00
 8.932950771906041e-01	 1.359197465911647e+00	 9.107449403330305e+00
 8.801513816862198e-01	 1.367745393950933e+00	 8.949355795837809e+00
 8.669395904949175e-01	 1.376157592454760e+00	 8.792224787831175e+00
 8.536617750635996e-01	 1.384433307326689e+00	 8.638090027409437e+00
 8.403200164800926e-01	 1.392571826025108e+00	 8.488878016962905e+00
 9.758788488316041e-01	 1.312187963943819e+00	 9.974683427938487e+00
 9.631176959698434e-01	 1.321582824449209e+00	 9.858165130188720e+00
 9.502758429907315e-01	 1.330846635779655e+00	 9.730167808453359e+00
 9.373552928511951e-01	 1.339978392983535e+00	 9.592531143994112e+00
 9.243580643478413e-01	 1.348977131618700e+00	 9.447168548737384e+00
 9.112861911023920e-01	 1.357841928039947e+00	 9.296034372344401e+00
 8.981417205417940e-01	 1.366571899656257e+00	 9.141091295041196e+00
 8.849267128740603e-01	 1.375166205157783e+00	 8.984278088889123e+00
 8.716432400608579e-01	 1.383624044712497e+00	 8.827477925349324e+00
 8.582933847878884e-01	 1.391944660132546e+00	 8.672487401230367e+00
 8.448792394340859e-01	 1.400127335010365e+00	 8.520986448480118e+00
 9.811449791818985e-01	 1.319268917558604e+00	 9.994977214762665e+00
 9.683149633720676e-01	 1.328714475504677e+00	 9.880820486293926e+00
 9.554038119632393e-01	 1.338028277095824e+00	 9.755270027068793e+00
 9.424135387208870e-01	 1.347209311957400e+00	 9.620037047464482e+00
 9.293461733356401e-01	 1.356256610442838e+00	 9.476902541261779e+00
 9.162037604032420e-01	 1.365169243922661e+00	 9.327683684568731e+00
 9.029883583991613e-01	 1.373946325043128e+00	 9.174200435883769e+00
 8.897020386489001e-01	 1.382587007954425e+00	 9.018242525283686e+00
 8.763468842950412e-01	 1.391090488508388e+00	 8.861537015708535e+00
 8.629249892620739e-01	 1.399456004425755e+00	 8.705716613358263e+00
 8.494384572200260e-01	 1.407682835433004e+00	 8.552288897353151e+00
 9.864111005789371e-01	 1.326349859135333e+00	 1.001666307098264e+01
 9.735122219380625e-01	 1.335846114435911e+00	 9.904687811691609e+00
 9.605317722172935e-01	 1.345209906202802e+00	 9.781211538587179e+00
 9.474717759906314e-01	 1.354440218638345e+00	 9.647880303643218e+00
 9.343342738427083e-01	 1.363536076891557e+00	 9.506407814090991e+00
 9.211213213432717e-01	 1.372496547348698e+00	 9.358540895759443e+00
 9.078349880162899e-01	 1.381320737893303e+00	 9.206025171590465e+00
 8.944773563047360e-01	 1.390007798135600e+00	 9.050571148932967e+00
 8.810505205320893e-01	 1.398556919611293e+00	 8.893820904026422e+00
 8.675565858616057e-01	 1.406967335949710e+00	 8.737315545930294e+00
 8.539976672543873e-01	 1.415238323011382e+00	 8.582463635056078e+00
 9.916772100385803e-01	 1.333430784661431e+00	 1.003912786343900e+01
 9.787094687227104e-01	 1.342977737201603e+00	 9.929071685819689e+00
 9.656597208470472e-01	 1.352391519030944e+00	 9.807241941267764e+00
 9.525300017940932e-01	 1.361671108928788e+00	 9.675282093175863e+00
 9.393223630424582e-01	 1.370815526839742e+00	 9.534902934517573e+00
 9.260388711358674e-01	 1.379823834165815e+00	 9.387846988209617e+00
 9.126816066467638e-01	 1.388695134027825e+00	 9.235853135353455e+00
 8.992526631355656e-01	 1.397428571496049e+00	 9.080621670902728e+00
 8.857541461066231e-01	 1.406023333790067e+00	 8.923779980938784e+00
 8.721881719619323e-01	 1.414478650447806e+00	 8.766849029349769e+00
 8.585568669536435e-01	 1.422793793463853e+00	 8.611210834400332e+00
 9.969433045766871e-01	 1.340511690124322e+00	 1.006180792035686e+01
 9.839067007808963e-01	 1.350109339760446e+00	 9.953326020019553e+00
 9.707876549466550e-01	 1.359573111510609e+00	 9.832659402899356e+00
 9.575882132649380e-01	 1.368901978731147e+00	 9.701510794164321e+00
 9.443104381083008e-01	 1.378094956162280e+00	 9.561651709116301e+00
 9.309564069944146e-01	 1.387151100221770e+00	 9.414885663180840e+00
 9.175282115441665e-01	 1.396069509267736e+00	 9.263011621178762e+00
 9.040279564353864e-01	 1.404849323830514e+00	 9.107787891694588e+00
 8.904577583532634e-01	 1.413489726813569e+00	 8.950896666805557e+00
 8.768197449385021e-01	 1.421989943663439e+00	 8.793909400845317e+00
 8.631160537342678e-01	 1.430349242508775e+00	 8.638253214311002e+00
 1.002209381209118e+00	 1.347592571511432e+00	 1.008418941715484e+01
 9.891039151675021e-01	 1.357240918071134e+00	 9.976854403781360e+00
 9.759155716102704e-01	 1.366754679572149e+00	 9.856810983168877e+00
 9.626464075368305e-01	 1.376132823947842e+00	 9.725882295858890e+00
 9.492984962136473e-01	 1.385374360734054e+00	 9.585963503450552e+00
 9.358739261323006e-01	 1.394478341364323e+00	 9.438983680804355e+00
 9.223747999620814e-01	 1.403443859434079e+00	 9.286867957646670e+00
 9.088032334981953e-01	 1.412270050933735e+00	 9.131500121989180e+00
 8.951613546066312e-01	 1.420956094450657e+00	 8.974685892030116e+00
 8.814513021667640e-01	 1.429501211340003e+00	 8.818117056409815e+00
 8.676752250127349e-01	 1.437904665864503e+00	 8.663336674868670e+00
 1.007475436951731e+00	 1.354673424810187e+00	 1.010580876459571e+01
 9.943011089374117e-01	 1.364372468092358e+00	 9.999110454183182e+00
 9.810434679320473e-01	 1.373936219145922e+00	 9.879092959582312e+00
 9.677045817434365e-01	 1.383363640481290e+00	 9.747760315777533e+00
 9.542865345319093e-01	 1.392653736429950e+00	 9.607193564623918e+00
 9.407914257629109e-01	 1.401805553441232e+00	 9.459511201801117e+00
 9.272213691540926e-01	 1.410818180347898e+00	 9.306829882029833e+00
 9.135784916179900e-01	 1.419690748600456e+00	 9.151225601884214e+00
 8.998649322013481e-01	 1.428422432470189e+00	 8.994695573609976e+00
 8.860828410221659e-01	 1.437012449220892e+00	 8.839120996331221e+00
 8.722343782055170e-01	 1.445460059249393e+00	 8.686230922950978e+00
 1.012741468820386e+00	 1.361754246008010e+00	 1.012625299916069e+01
 9.994982791455084e-01	 1.371503985782812e+00	 1.001959816837374e+01
 9.861713410061398e-01	 1.381117726162284e+00	 9.898951156776477e+00
 9.727627330184212e-01	 1.390594424233912e+00	 9.766556720102582e+00
 9.592745502364989e-01	 1.399933079124852e+00	 9.624743346545943e+00
 9.457089030996320e-01	 1.409132732300254e+00	 9.475882130926127e+00
 9.320679163737833e-01	 1.418192467830235e+00	 9.322345914733507e+00
 9.183537280887681e-01	 1.427111412625417e+00	 9.166468918651674e+00
 9.045684884720355e-01	 1.435888736641021e+00	 9.010507088030108e+00
 8.907143588801576e-01	 1.444523653049503e+00	 8.856599364525088e+00
 8.767935107290891e-01	 1.453015418381801e+00	 8.706730088788616e+00
 1.018007473830945e+00	 1.368835031092329e+00	 1.014516017553259e+01
 1.004695422846676e+00	 1.378635467101188e+00	 1.003787227896077e+01
 9.912991879267010e-01	 1.388299196551591e+00	 9.915881279067790e+00
 9.778208584954495e-01	 1.397825171108125e+00	 9.781731847202389e+00
 9.642625405008268e-01	 1.407212384693646e+00	 9.638060837787053e+00
 9.506263553558507e-01	 1.416459873789150e+00	 9.487554462045360e+00
 9.369144388747381e-01	 1.425566717702133e+00	 9.332905734016432e+00
 9.231289402045267e-01	 1.434532038803360e+00	 9.176772423042722e+00
 9.092720207533138e-01	 1.443355002732014e+00	 9.021735740603157e+00
 8.953458531161874e-01	 1.452034818569230e+00	 8.870259981865924e+00
 8.813526199999249e-01	 1.460570738980084e+00	 8.724653333742415e+00
 8.357607909415732e-01	 1.385016312758878e+00	 8.456306577811919e+00
 8.224299015719309e-01	 1.392973556543011e+00	 8.308009679431066e+00
 8.090395818053454e-01	 1.400793057569549e+00	 8.150395007045951e+00
 7.955919255888730e-01	 1.408474233694218e+00	 7.986288661842154e+00
 7.820890323363869e-01	 1.416016544355583e+00	 7.818319275745708e+00
 7.685330059172397e-01	 1.423419490559979e+00	 7.648894229712804e+00
 7.549259536497352e-01	 1.430682614837620e+00	 7.480177462381610e+00
 7.412699853003305e-01	 1.437805501170166e+00	 7.314068965233952e+00
 7.275672120895014e-01	 1.444787774890119e+00	 7.151101196904514e+00
 7.138197457051589e-01	 1.451629102552406e+00	 6.991373746397655e+00
 7.000296973245008e-01	 1.458329191778564e+00	 6.835757588688350e+00
 8.403200164800926e-01	 1.392571826025108e+00	 8.488878016962905e+00
 8.269164047095671e-01	 1.400572478006355e+00	 8.336272362833181e+00
 8.134530383385865e-01	 1.408434635818488e+00	 8.173135991024463e+00
 7.999320227370638e-01	 1.416157714141530e+00	 8.002939542313676e+00
 7.863554687715479e-01	 1.423741169465177e+00	 7.828962520747110e+00
 7.727254917883762e-01	 1.431184500073661e+00	 7.654267737946988e+00
 7.590442106016489e-01	 1.438487246001606e+00	 7.481677395097115e+00
 7.453137464869763e-01	 1.445648988961212e+00	 7.313750903499842e+00
 7.315362221819197e-01	 1.452669352241097e+00	 7.152220180650507e+00
 7.177137608940241e-01	 1.459548000577179e+00	 6.997292438311200e+00
 7.038484853173357e-01	 1.466284639996012e+00	 6.850319908103470e+00
 8.448792394340859e-01	 1.400127335010365e+00	 8.520986448480118e+00
 8.314029053038926e-01	 1.408171395164200e+00	 8.364840204878439e+00
 8.178664923699180e-01	 1.416076209737817e+00	 8.197667380324081e+00
 8.042721174249234e-01	 1.423841190235528e+00	 8.023550502197113e+00
 7.906219027881279e-01	 1.431465790198168e+00	 7.846385579137155e+00
 7.769179752828455e-01	 1.438949505187860e+00	 7.669854810101283e+00
 7.631624652189676e-01	 1.446291872743647e+00	 7.497400981186846e+00
 7.493575053812503e-01	 1.453492472308268e+00	 7.332203655805914e+00
 7.355052300243327e-01	 1.460550925126457e+00	 7.176978456883273e+00
 7.216077738753884e-01	 1.467466894115123e+00	 7.032434281018471e+00
 7.076672711453056e-01	 1.474240083705840e+00	 6.900138445629935e+00
 8.494384572200260e-01	 1.407682835433004e+00	 8.552288897353151e+00
 8.358894008125980e-01	 1.415770303710294e+00	 8.393513566916420e+00
 8.222799413984310e-01	 1.423717774997096e+00	 8.223907853618178e+00
 8.086122071931203e-01	 1.431524657622020e+00	 8.048134364693523e+00
 7.948883319685447e-01	 1.439190402177039e+00	 7.870672101331284e+00
 7.811104540249806e-01	 1.446714501502177e+00	 7.695787470013599e+00
 7.672807151680953e-01	 1.454096490640892e+00	 7.527507034484258e+00
 7.534012596917795e-01	 1.461335946766468e+00	 7.369592118602768e+00
 7.394742333677352e-01	 1.468432489079755e+00	 7.225505193642189e+00
 7.255017824427517e-01	 1.475385778678658e+00	 7.096875500701330e+00
 7.114860526445453e-01	 1.482195518399771e+00	 6.985000414768577e+00
 8.539976672543873e-01	 1.415238323011382e+00	 8.582463635056078e+00
 8.403758886933725e-01	 1.423369199338379e+00	 8.422108978011142e+00
 8.266933829232153e-01	 1.431359327265884e+00	 8.251787730228369e+00
 8.129522895823253e-01	 1.439208111946813e+00	 8.076711606545151e+00
 7.991547538952187e-01	 1.446915001024281e+00	 7.901909931995418e+00
 7.853029256391143e-01	 1.454479484616213e+00	 7.732198991746738e+00
 7.713989581154376e-01	 1.461901095270491e+00	 7.572153177344580e+00
 7.574450071271909e-01	 1.469179407890945e+00	 7.426078044156290e+00
 7.434432299631220e-01	 1.476314039634548e+00	 7.297985382705988e+00
 7.293957843896132e-01	 1.483304649780203e+00	 7.189357994497454e+00
 7.153048276511897e-01	 1.490150939569523e+00	 7.073078614453088e+00
 8.585568669536435e-01	 1.422793793463853e+00	 8.611210834400332e+00
 8.448623664039071e-01	 1.430968077742198e+00	 8.450459877799068e+00
 8.311068144433615e-01	 1.439000862213744e+00	 8.281249786526580e+00
 8.172923621332062e-01	 1.446891548855715e+00	 8.109311233935564e+00
 8.034211661505677e-01	 1.454639582362379e+00	 7.940192031803905e+00
 7.894953877495794e-01	 1.462244450129568e+00	 7.779224853991639e+00
 7.755171917273989e-01	 1.469705682209594e+00	 7.631496814910830e+00
 7.614887453961133e-01	 1.477022851236836e+00	 7.501821022322849e+00
 7.474122175614880e-01	 1.484195572324396e+00	 7.392003766957266e+00
 7.332897775094723e-01	 1.491223502932176e+00	 7.276355118085574e+00
 7.191235940013743e-01	 1.498106342706818e+00	 7.143766216442177e+00
 8.631160537342678e-01	 1.430349242508775e+00	 8.638253214311002e+00
 8.493488314018908e-01	 1.438566934615497e+00	 8.478417346086035e+00
 8.355202334579608e-01	 1.446642375510236e+00	 8.312250056357424e+00
 8.216324223864331e-01	 1.454574963994535e+00	 8.145971640130492e+00
 8.076875663170102e-01	 1.462364141813821e+00	 7.985617379103882e+00
 7.936878379807095e-01	 1.470009393641845e+00	 7.837003672961474e+00
 7.796354136703839e-01	 1.477510247035349e+00	 7.705696086858520e+00
 7.655324722071737e-01	 1.484866272359274e+00	 7.593168157237359e+00
 7.513811939138275e-01	 1.492077082682854e+00	 7.475326999796700e+00
 7.371837595958292e-01	 1.499142333646997e+00	 7.345521066309633e+00
 7.229423495312334e-01	 1.506061723303375e+00	 7.199994101775355e+00
 8.676752250127349e-01	 1.437904665864503e+00	 8.663336674868670e+00
 8.538352811450133e-01	 1.446165765652017e+00	 8.505850819648767e+00
 8.399336374661037e-01	 1.454283862824918e+00	 8.344758616042151e+00
 8.259724678826744e-01	 1.462258353009079e+00	 8.186741445517887e+00
 8.119539519769657e-01	 1.470088675001095e+00	 8.038291852202130e+00
 7.978802739568368e-01	 1.477774310752640e+00	 7.905678114543155e+00
 7.837536216107979e-01	 1.485314785324906e+00	 7.790526729282231e+00
 7.695761852690001e-01	 1.492709666813394e+00	 7.670648556496337e+00
 7.553501567711358e-01	 1.499958566243480e+00	 7.540894314570814e+00
 7.410777284421829e-01	 1.507061137437085e+00	 7.399845663832717e+00
 7.267610920769029e-01	 1.514017076850916e+00	 7.244677570061798e+00
 8.722343782055170e-01	 1.445460059249393e+00	 8.686230922950978e+00
 8.583217130909654e-01	 1.453764566545504e+00	 8.532648796683500e+00
 8.443470239668807e-01	 1.461925319827353e+00	 8.378760354508859e+00
 8.303124961625998e-01	 1.469941711545156e+00	 8.231680320656185e+00
 8.162203207128530e-01	 1.477813177546687e+00	 8.098329092960494e+00
 8.020726933022949e-01	 1.485539197061559e+00	 7.981038384522213e+00
 7.878718132150452e-01	 1.493119292655414e+00	 7.859854161480893e+00
 7.736198822902197e-01	 1.500553030154331e+00	 7.730452626046151e+00
 7.593191038844079e-01	 1.507840018539832e+00	 7.591695181015004e+00
 7.449716818420326e-01	 1.514979909814860e+00	 7.442415310055876e+00
 7.305798194745172e-01	 1.521972398841161e+00	 7.280715657560609e+00
 8.767935107290891e-01	 1.453015418381801e+00	 8.706730088788616e+00
 8.628081246974363e-01	 1.461363332989701e+00	 8.558719529327341e+00
 8.487603904593822e-01	 1.469566742187101e+00	 8.414255729058926e+00
 8.346525047668777e-01	 1.477625035248573e+00	 8.280859792936294e+00
 8.204866701070908e-01	 1.485537645073084e+00	 8.162040077693089e+00
 8.062650936414162e-01	 1.493304048168199e+00	 8.040313778998453e+00
 7.919899861495309e-01	 1.500923764604022e+00	 7.911777004127206e+00
 7.776635609794609e-01	 1.508396357937219e+00	 7.775546066966202e+00
 7.632880330046380e-01	 1.515721435105468e+00	 7.630688519256996e+00
 7.488656175888779e-01	 1.522898646292738e+00	 7.476247657443611e+00
 7.343985295602115e-01	 1.529927684765830e+00	 7.310990435201187e+00
 8.813526199999249e-01	 1.460570738980084e+00	 8.724653333742415e+00
 8.672945134221165e-01	 1.468962060678352e+00	 8.583991704658178e+00
 8.531737344426994e-01	 1.477208125573723e+00	 8.451261507274527e+00
 8.389924912361787e-01	 1.485308319765138e+00	 8.331442865342188e+00
 8.247529977420975e-01	 1.493262073202776e+00	 8.209822502791095e+00
 8.104574725985347e-01	 1.501068859672163e+00	 8.082629824982154e+00
 7.961081380806602e-01	 1.508728196747882e+00	 7.949217057914646e+00
 7.817072190453511e-01	 1.516239645717194e+00	 7.808863730800617e+00
 7.672569418828216e-01	 1.523602811473945e+00	 7.660802943741746e+00
 7.527595334762194e-01	 1.530817342383143e+00	 7.504246367910631e+00
 7.382172201701207e-01	 1.537882930116643e+00	 7.338366287294453e+00
 7.000296973245008e-01	 1.458329191778564e+00	 6.835757588688351e+00
 6.861968218745838e-01	 1.464888893890438e+00	 6.690025137402798e+00
 6.723255679889603e-01	 1.471306846011681e+00	 6.563284240996323e+00
 6.584180399291466e-01	 1.477582876659139e+00	 6.460386458585159e+00
 6.444763376581236e-01	 1.483716854553744e+00	 6.382663826951115e+00
 6.305025559161753e-01	 1.489708688335640e+00	 6.301316385638737e+00
 6.164987833099310e-01	 1.495558326254919e+00	 6.207940266220762e+00
 6.024671014153186e-01	 1.501265755838569e+00	 6.102450639906653e+00
 5.884095838951133e-01	 1.506831003534249e+00	 5.984742472236491e+00
 5.743282956317380e-01	 1.512254134331529e+00	 5.854719290737039e+00
 5.602252918759325e-01	 1.517535251361254e+00	 5.712318943942535e+00
 7.038484853173357e-01	 1.466284639996012e+00	 6.850319908103470e+00
 6.899401490419942e-01	 1.472880126463550e+00	 6.718471419677050e+00
 6.759932249696565e-01	 1.479333089668717e+00	 6.611976081366678e+00
 6.620098288409746e-01	 1.485643357192899e+00	 6.526494645401111e+00
 6.479920720746157e-01	 1.491810797040887e+00	 6.433650240396580e+00
 6.339420608380593e-01	 1.497835317354450e+00	 6.331321707596039e+00
 6.198618951316702e-01	 1.503716866101382e+00	 6.219685206941852e+00
 6.057536678867569e-01	 1.509455430740640e+00	 6.098868456913452e+00
 5.916194640783091e-01	 1.515051037864169e+00	 5.968982786806574e+00
 5.774613598530639e-01	 1.520503752816078e+00	 5.830152045164795e+00
 5.632814216735341e-01	 1.525813679289818e+00	 5.682538367960190e+00
 7.076672711453056e-01	 1.474240083705840e+00	 6.900138445629921e+00
 6.936834740873067e-01	 1.480871354508670e+00	 6.788542698712661e+00
 6.796608798711417e-01	 1.487359328777816e+00	 6.691429862941130e+00
 6.656016157165926e-01	 1.493703833159206e+00	 6.586467023650041e+00
 6.515078044980092e-01	 1.499904734941495e+00	 6.473989429352885e+00
 6.373815638100612e-01	 1.505961941768080e+00	 6.354393916103925e+00
 6.232250050468437e-01	 1.511875401324467e+00	 6.227997023821857e+00
 6.090402324950419e-01	 1.517645101001581e+00	 6.095070692410067e+00
 5.948293424418547e-01	 1.523271067535658e+00	 5.955874693071415e+00
 5.805944222983297e-01	 1.528753366625351e+00	 5.810685775356232e+00
 5.663375497387463e-01	 1.534092102526720e+00	 5.659823536060848e+00
 7.114860526445453e-01	 1.482195518399771e+00	 6.985000414768577e+00
 6.974267948894233e-01	 1.488862573497258e+00	 6.874637259458229e+00
 6.833285306152012e-01	 1.495385558790613e+00	 6.757570497681761e+00
 6.691933985207817e-01	 1.501764299990313e+00	 6.634542177633393e+00
 6.550235329361833e-01	 1.507998663668878e+00	 6.506134906921496e+00
 6.408210628832554e-01	 1.514088556971340e+00	 6.372814841373923e+00
 6.265881111498115e-01	 1.520033927300915e+00	 6.234971379676607e+00
 6.123267933779030e-01	 1.525834761980506e+00	 6.092953490221195e+00
 5.980392171669252e-01	 1.531491087890640e+00	 5.947102624801323e+00
 5.837274811922253e-01	 1.537002971084514e+00	 5.797782201251476e+00
 5.693936743398391e-01	 1.542370516380803e+00	 5.645403663625387e+00
 7.153048276511897e-01	 1.490150939569523e+00	 7.073078614453088e+00
 7.011701093272453e-01	 1.496853778900771e+00	 6.944255841661352e+00
 6.869961751236221e-01	 1.503411775158746e+00	 6.810757852029556e+00
 6.727851752183224e-01	 1.509824753118475e+00	 6.673324586616202e+00
 6.585392553970170e-01	 1.516092578636349e+00	 6.532538388103590e+00
 6.442605561087161e-01	 1.522215158359038e+00	 6.388868039395069e+00
 6.299512115349345e-01	 1.528192439407473e+00	 6.242709353328846e+00
 6.156133486730692e-01	 1.534024409036530e+00	 6.094422239328482e+00
 6.012490864346958e-01	 1.539711094271035e+00	 5.944364202109113e+00
 5.868605347594419e-01	 1.545252561518732e+00	 5.792920256020924e+00
 5.724497937450824e-01	 1.550648916160909e+00	 5.640529266100979e+00
 7.191235940013743e-01	 1.498106342706818e+00	 7.143766216442192e+00
 7.049134152796757e-01	 1.504844966190669e+00	 7.000065643605321e+00
 6.906638113181898e-01	 1.511437973333853e+00	 6.853723942479565e+00
 6.763769437739957e-01	 1.517885187975948e+00	 6.705413068796737e+00
 6.620549698883899e-01	 1.524186475257223e+00	 6.555649263810547e+00
 6.477000415375186e-01	 1.530341741325984e+00	 6.404838264053645e+00
 6.333143042965722e-01	 1.536350933020881e+00	 6.253316901129503e+00
 6.188998965182698e-01	 1.542214037528769e+00	 6.101391016673793e+00
 6.044589484263413e-01	 1.547931082018767e+00	 5.949369647993676e+00
 5.899935812246709e-01	 1.553502133253170e+00	 5.797595469406760e+00
 5.755059062227464e-01	 1.558927297175879e+00	 5.646471502802750e+00
 7.229423495312334e-01	 1.506061723303375e+00	 7.199994101775355e+00
 7.086567106256154e-01	 1.512836130838410e+00	 7.044902394192644e+00
 6.943314371206910e-01	 1.519464148767568e+00	 6.889191429124127e+00
 6.799687021525825e-01	 1.525945599994986e+00	 6.733400228703889e+00
 6.655706744181815e-01	 1.532280348944810e+00	 6.577914057312459e+00
 6.511395172207378e-01	 1.538468301266987e+00	 6.423010923603059e+00
 6.366773875290852e-01	 1.544509403517884e+00	 6.268904304972337e+00
 6.221864350512342e-01	 1.550403642816336e+00	 6.115782018796745e+00
 6.076688013230372e-01	 1.556151046475759e+00	 5.963841196254767e+00
 5.931266188126023e-01	 1.561751681612993e+00	 5.813319345144551e+00
 5.785620100411009e-01	 1.567205654734554e+00	 5.664521517644337e+00
 7.267610920769029e-01	 1.514017076850916e+00	 7.244677570061791e+00
 7.123999932439670e-01	 1.520827268315453e+00	 7.081588933383921e+00
 6.979990504529114e-01	 1.527490296911529e+00	 6.919873024577386e+00
 6.835604483188636e-01	 1.534005984607846e+00	 6.759871886097806e+00
 6.690863669942707e-01	 1.540374195112425e+00	 6.601775863793730e+00
 6.545789812094478e-01	 1.546594833576855e+00	 6.445671522079486e+00
 6.400404593268342e-01	 1.552667846275225e+00	 6.291585607306214e+00
 6.254729624096917e-01	 1.558593220258347e+00	 6.139524982729915e+00
 6.108786433059578e-01	 1.564370982983933e+00	 5.989512491106827e+00
 5.962596457479271e-01	 1.570001201923367e+00	 5.841618732680566e+00
 5.816181034684160e-01	 1.575483984145777e+00	 5.695989776913074e+00
 7.305798194745172e-01	 1.521972398841161e+00	 7.280715657560609e+00
 7.161432610136320e-01	 1.528818374093254e+00	 7.112934571192541e+00
 7.016666492366378e-01	 1.535516413217374e+00	 6.948470883811003e+00
 6.871521802376204e-01	 1.542066337246781e+00	 6.787406487070850e+00
 6.726020456245372e-01	 1.548468009173378e+00	 6.629673773644515e+00
 6.580184315547238e-01	 1.554721333650398e+00	 6.475105086215882e+00
 6.434035177841789e-01	 1.560826256669648e+00	 6.323478033631475e+00
 6.287594767313717e-01	 1.566782765213916e+00	 6.174556596554366e+00
 6.140884725562782e-01	 1.572590886885209e+00	 6.028127978799951e+00
 5.993926602553366e-01	 1.578250689509457e+00	 5.884035193405600e+00
 5.846741847729616e-01	 1.583762280718389e+00	 5.742205404201052e+00
 7.343985295602115e-01	 1.529927684765830e+00	 7.310990435201173e+00
 7.198865118135128e-01	 1.536809443643275e+00	 7.141734427322090e+00
 7.053342313936555e-01	 1.543542493136738e+00	 6.977675975613904e+00
 6.907438958736327e-01	 1.550126653344047e+00	 6.818574498009941e+00
 6.761177083168599e-01	 1.556561786540984e+00	 6.664042280091687e+00
 6.614578663076400e-01	 1.562847796882425e+00	 6.513595578405395e+00
 6.467665609954798e-01	 1.568984630077895e+00	 6.366701402948646e+00
 6.320459761540028e-01	 1.574972273042159e+00	 6.222819900001936e+00
 6.172982872551739e-01	 1.580810753521514e+00	 6.081442291552046e+00
 6.025256605595208e-01	 1.586500139696426e+00	 5.942124361613856e+00
 5.877302522230080e-01	 1.592040539761234e+00	 5.804515512606549e+00
 7.382172201701207e-01	 1.537882930116643e+00	 7.338366287294462e+00
 7.236297435225110e-01	 1.544800472436972e+00	 7.170768752171532e+00
 7.090017948457513e-01	 1.551568532121260e+00	 7.010167436360879e+00
 6.943355931916827e-01	 1.558186928331899e+00	 6.855937783059977e+00
 6.796333530791191e-01	 1.564655522628554e+00	 6.707310671756204e+00
 6.648972835192718e-01	 1.570974218667745e+00	 6.563425296225043e+00
 6.501295870550970e-01	 1.577142961876710e+00	 6.423377526608881e+00
 6.353324588153149e-01	 1.583161739102190e+00	 6.286263675473716e+00
 6.205080855838198e-01	 1.589030578234767e+00	 6.151219624079275e+00
 6.056586448851712e-01	 1.594749547809442e+00	 6.017455300379448e+00
 5.907863040868248e-01	 1.600318756583150e+00	 5.884284534312928e+00
 5.602252918759325e-01	 1.517535251361254e+00	 5.712318943942542e+00
 5.461050194504662e-01	 1.522673633773767e+00	 5.563512309119647e+00
 5.319671148276707e-01	 1.527670368504342e+00	 5.414355423708892e+00
 5.178135977800125e-01	 1.532525669353275e+00	 5.265097305338895e+00
 5.036464752493562e-01	 1.537239786432333e+00	 5.116088040382462e+00
 4.894677405839741e-01	 1.541813005666570e+00	 4.967789661608443e+00
 4.752793727944883e-01	 1.546245648278505e+00	 4.820784484655035e+00
 4.610833358291607e-01	 1.550538070255469e+00	 4.675781038035066e+00
 4.468815778689010e-01	 1.554690661800824e+00	 4.533617734541881e+00
 4.326760306423511e-01	 1.558703846769861e+00	 4.395264443458040e+00
 4.184686087613524e-01	 1.562578082091108e+00	 4.261822132899851e+00
 5.632814216735341e-01	 1.525813679289818e+00	 5.682538367960190e+00
 5.490841206207130e-01	 1.530980092503372e+00	 5.532183739970304e+00
 5.348690911838104e-01	 1.536004085321435e+00	 5.384748201285109e+00
 5.206383641534996e-01	 1.540885872710607e+00	 5.240008317995954e+00
 5.063939574198570e-01	 1.545625706147051e+00	 5.097841204324679e+00
 4.921378752052123e-01	 1.550223873115576e+00	 4.958235818903590e+00
 4.778721073160311e-01	 1.554680696591020e+00	 4.821301605787295e+00
 4.635986284142499e-01	 1.558996534502674e+00	 4.687274620928561e+00
 4.493193973084404e-01	 1.563171779182520e+00	 4.556521298504387e+00
 4.350363562651558e-01	 1.567206856798041e+00	 4.429540023470681e+00
 4.207514303407747e-01	 1.571102226770384e+00	 4.306960687022991e+00
 5.663375497387463e-01	 1.534092102526720e+00	 5.659823536060848e+00
 5.520632201023095e-01	 1.539286546525394e+00	 5.509280311790787e+00
 5.377710658951050e-01	 1.544337797415481e+00	 5.364293467849532e+00
 5.234631289260004e-01	 1.549246071329882e+00	 5.224242380078351e+00
 5.091414380332743e-01	 1.554011621109148e+00	 5.088608135041488e+00
 4.948080083133017e-01	 1.558634735797844e+00	 4.956985111175779e+00
 4.804648403683806e-01	 1.563115740123116e+00	 4.829089787162152e+00
 4.661139195741118e-01	 1.567454993956215e+00	 4.704766924670373e+00
 4.517572153667179e-01	 1.571652891757733e+00	 4.583993286798218e+00
 4.373966805506534e-01	 1.575709862007345e+00	 4.466879065981225e+00
 4.230342506268229e-01	 1.579626366618807e+00	 4.353667205818350e+00
 5.693936743398391e-01	 1.542370516380803e+00	 5.645403663625386e+00
 5.550423162071549e-01	 1.547592991132789e+00	 5.495808058099058e+00
 5.406730373171339e-01	 1.552671500063979e+00	 5.353800918341316e+00
 5.262878904968222e-01	 1.557606260473578e+00	 5.218438665187788e+00
 5.118889155326835e-01	 1.562397526566516e+00	 5.088882290476945e+00
 4.974781383951237e-01	 1.567045588947110e+00	 4.964409089586244e+00
 4.830575704822563e-01	 1.571550774094812e+00	 4.844421500133240e+00
 4.686292078833309e-01	 1.575913443822823e+00	 4.728453200834494e+00
 4.541950306622056e-01	 1.580133994720345e+00	 4.616172639198121e+00
 4.397570021612204e-01	 1.584212857579236e+00	 4.507384169638598e+00
 4.253170683257905e-01	 1.588150496805859e+00	 4.402026994674097e+00
 5.724497937450824e-01	 1.550648916160909e+00	 5.640529266100964e+00
 5.580214072471477e-01	 1.555899421618508e+00	 5.492798052627542e+00
 5.435750038054766e-01	 1.561005188544430e+00	 5.354108309820130e+00
 5.291126472652714e-01	 1.565966435404172e+00	 5.223266738510085e+00
 5.146363883611608e-01	 1.570783417767045e+00	 5.099189183751474e+00
 5.001482639375601e-01	 1.575456427797112e+00	 4.980912385483579e+00
 4.856502961883779e-01	 1.579985793726124e+00	 4.867602710661024e+00
 4.711444919164921e-01	 1.584371879309231e+00	 4.758562028080007e+00
 4.566328418133755e-01	 1.588615083264238e+00	 4.653230902367536e+00
 4.421173197592332e-01	 1.592715838695180e+00	 4.551189296963256e+00
 4.275998821439713e-01	 1.596674612501019e+00	 4.452154987412824e+00
 5.755059062227464e-01	 1.558927297175879e+00	 5.646471502802750e+00
 5.610004915341872e-01	 1.564205833275505e+00	 5.501305717969550e+00
 5.464769637157124e-01	 1.569338858134331e+00	 5.366080749185171e+00
 5.319373976306551e-01	 1.574326591384141e+00	 5.239425837146253e+00
 5.173838549617822e-01	 1.579169289958625e+00	 5.120085668938562e+00
 5.028183834274927e-01	 1.583867247581586e+00	 5.006932013775514e+00
 4.882430160174654e-01	 1.588420794237071e+00	 4.898972211730654e+00
 4.736597702481799e-01	 1.592830295622174e+00	 4.795354684370837e+00
 4.590706474386991e-01	 1.597096152583294e+00	 4.695371651950804e+00
 4.444776320070679e-01	 1.601218800536641e+00	 4.598459255695859e+00
 4.298826907876586e-01	 1.605198708873770e+00	 4.504195295586166e+00
 5.785620100411009e-01	 1.567205654734554e+00	 5.664521517644337e+00
 5.639795673801719e-01	 1.572512221396735e+00	 5.522410133813885e+00
 5.493789154034203e-01	 1.577672504111181e+00	 5.390609982637312e+00
 5.347621399922795e-01	 1.582686723675964e+00	 5.267644153851988e+00
 5.201313137776238e-01	 1.587555138389146e+00	 5.152159231465826e+00
 5.054884953518040e-01	 1.592278043534268e+00	 5.042936681687451e+00
 4.908357285002384e-01	 1.596855770847669e+00	 4.938900961504641e+00
 4.761750414529792e-01	 1.601288687968382e+00	 4.839124524886084e+00
 4.615084461566480e-01	 1.605577197871394e+00	 4.742829919933696e+00
 4.468379375671011e-01	 1.609721738285083e+00	 4.649389184633079e+00
 4.321654929631460e-01	 1.613722781093591e+00	 4.558320761154721e+00
 5.816181034684160e-01	 1.575483984145777e+00	 5.695989776913074e+00
 5.669586330970008e-01	 1.580818581275152e+00	 5.557213344779814e+00
 5.522808572241804e-01	 1.586006121752480e+00	 5.428613686817908e+00
 5.375868727494523e-01	 1.591046827542120e+00	 5.308678124065220e+00
 5.228787632517612e-01	 1.595940958306500e+00	 5.196027282956873e+00
 5.081585981973755e-01	 1.600688810888898e+00	 5.089426102711443e+00
 4.934284321674168e-01	 1.605290718777939e+00	 4.987791426999345e+00
 4.786903041054745e-01	 1.609747051554588e+00	 4.890196365404923e+00
 4.639462365856944e-01	 1.614058214322419e+00	 4.795871627072791e+00
 4.491982351017086e-01	 1.618224647121972e+00	 4.704204043785952e+00
 4.344482873767272e-01	 1.622246824329965e+00	 4.614732512422969e+00
 5.846741847729616e-01	 1.583762280718389e+00	 5.742205404201052e+00
 5.699376869965725e-01	 1.589124908203710e+00	 5.606839667876743e+00
 5.551827875335719e-01	 1.594339706335727e+00	 5.481034761564954e+00
 5.404115943014792e-01	 1.599406898245083e+00	 5.363311716097270e+00
 5.256262018272702e-01	 1.604326744958575e+00	 5.252336460370090e+00
 5.108286904510888e-01	 1.609099544879210e+00	 5.146930315550803e+00
 4.960211255497203e-01	 1.613725633247896e+00	 5.046076933088348e+00
 4.812055567802505e-01	 1.618205381587525e+00	 4.948925870976305e+00
 4.663840173443101e-01	 1.622539197130253e+00	 4.854793020210425e+00
 4.515585232732676e-01	 1.626727522228771e+00	 4.763158108707730e+00
 4.367310727346956e-01	 1.630770833752372e+00	 4.673659523111816e+00
 5.877302522230080e-01	 1.592040539761234e+00	 5.804515512606564e+00
 5.729167273907859e-01	 1.597431197475362e+00	 5.672434999606446e+00
 5.580847046871743e-01	 1.602673253138420e+00	 5.548840624237647e+00
 5.432363030476680e-01	 1.607766931047333e+00	 5.432355724386496e+00
 5.283736279472270e-01	 1.612712493593261e+00	 5.321761929265580e+00
 5.134987705998262e-01	 1.617510240738941e+00	 5.216009007891506e+00
 4.986138071778686e-01	 1.622160509477558e+00	 5.114221016632129e+00
 4.837207980518917e-01	 1.626663673273926e+00	 5.015698949670264e+00
 4.688217870509668e-01	 1.631020141488776e+00	 4.919920114298611e+00
 4.539188007441537e-01	 1.635230358786946e+00	 4.826534468826974e+00
 4.390138477433446e-01	 1.639294804530294e+00	 4.735358174446603e+00
 5.907863040868248e-01	 1.600318756583150e+00	 5.884284534312913e+00
 5.758957525915404e-01	 1.605737444383062e+00	 5.755166122727992e+00
 5.609866070405670e-01	 1.611006757438059e+00	 5.633022505556300e+00
 5.460609973873252e-01	 1.616126921211349e+00	 5.516647065701841e+00
 5.311210400547076e-01	 1.621098199458451e+00	 5.405006691070826e+00
 5.161688371304696e-01	 1.625920893701830e+00	 5.297250844818894e+00
 5.012064755825815e-01	 1.630595342686943e+00	 5.192716785561738e+00
 4.862360264949831e-01	 1.635121921820524e+00	 5.090931151234604e+00
 4.712595443241364e-01	 1.639501042591871e+00	 4.991608138957266e+00
 4.562790661767438e-01	 1.643733151977961e+00	 4.894644529648882e+00
 4.412966111089681e-01	 1.647818731833210e+00	 4.800111820160183e+00
 4.184686087613524e-01	 1.562578082091108e+00	 4.261822132899851e+00
 4.042612092709105e-01	 1.566313857513235e+00	 4.138897781291377e+00
 3.900557115896419e-01	 1.569911696014492e+00	 4.028287294482306e+00
 3.758539762950538e-01	 1.573372152160505e+00	 3.925574414584068e+00
 3.616578443450143e-01	 1.576695811133211e+00	 3.826834502690417e+00
 3.474691365191289e-01	 1.579883288089228e+00	 3.730902787488343e+00
 3.332896528818214e-01	 1.582935227508337e+00	 3.637633273042087e+00
 3.191211722672218e-01	 1.585852302532892e+00	 3.547173153620693e+00
 3.049654517859358e-01	 1.588635214298862e+00	 3.459963664273277e+00
 2.908242263537443e-01	 1.591284691259338e+00	 3.376693660551505e+00
 2.766992082422489e-01	 1.593801488501192e+00	 3.298256959067686e+00
 4.207514303407747e-01	 1.571102226770384e+00	 4.306960687022991e+00
 4.064665269290134e-01	 1.574858381519876e+00	 4.193706203524345e+00
 3.921835357010634e-01	 1.578475846877712e+00	 4.091293388974099e+00
 3.779043273842290e-01	 1.581955180434782e+00	 3.995444168886181e+00
 3.636307529791473e-01	 1.585296970565305e+00	 3.902211984535645e+00
 3.493646431981165e-01	 1.588501835781693e+00	 3.810299942001151e+00
 3.351078079252475e-01	 1.591570424079493e+00	 3.719921707256741e+00
 3.208620356985429e-01	 1.594503412273176e+00	 3.631558677345891e+00
 3.066290932139747e-01	 1.597301505323544e+00	 3.545973258163725e+00
 2.924107248516131e-01	 1.599965435657535e+00	 3.464161971052976e+00
 2.782086522238209e-01	 1.602495962481166e+00	 3.387312449507853e+00
 4.230342506268229e-01	 1.579626366618807e+00	 4.353667205818350e+00
 4.086718433376451e-01	 1.583402900684102e+00	 4.248733276046962e+00
 3.943113586068853e-01	 1.587039992887372e+00	 4.153386979196345e+00
 3.799546773116462e-01	 1.590538203844771e+00	 4.063475707639084e+00
 3.656036604953350e-01	 1.593898125122802e+00	 3.975071961099752e+00
 3.512601488029429e-01	 1.597120378589678e+00	 3.886645189673267e+00
 3.369259619382698e-01	 1.600205615756710e+00	 3.798720570947871e+00
 3.226028981431911e-01	 1.603154517110489e+00	 3.712093921684272e+00
 3.082927336990464e-01	 1.605967791436651e+00	 3.627827814004259e+00
 2.939972224501960e-01	 1.608646175135986e+00	 3.547204270988640e+00
 2.797180953497652e-01	 1.611190431533655e+00	 3.471681484408548e+00
 4.253170683257905e-01	 1.588150496805859e+00	 4.402026994674097e+00
 4.108771572470237e-01	 1.591947410163843e+00	 4.304050275761254e+00
 3.964391791012510e-01	 1.595604129190281e+00	 4.214613902757261e+00
 3.820050249153676e-01	 1.599121217526589e+00	 4.129678781465555e+00
 3.675765657755436e-01	 1.602499269931554e+00	 4.045370686635567e+00
 3.531556522594581e-01	 1.605738911629189e+00	 3.959854649597805e+00
 3.387441138905933e-01	 1.608840797646567e+00	 3.873900617530803e+00
 3.243437586146913e-01	 1.611805612142400e+00	 3.788599449122840e+00
 3.099563722984534e-01	 1.614634067727157e+00	 3.705293262325475e+00
 2.955837182505248e-01	 1.617326904775478e+00	 3.625527781764649e+00
 2.812275367647871e-01	 1.619884890731665e+00	 3.551008843120943e+00
 4.275998821439713e-01	 1.596674612501019e+00	 4.452154987412824e+00
 4.130824674073675e-01	 1.600491905117031e+00	 4.359756228629342e+00
 3.985669959783042e-01	 1.604168250933248e+00	 4.275046048425379e+00
 3.840553690334549e-01	 1.607704216616352e+00	 4.194087672084180e+00
 3.695494677017397e-01	 1.611100400117410e+00	 4.113085258427744e+00
 3.550511524935119e-01	 1.614357430016230e+00	 4.029862915536047e+00
 3.405622627519225e-01	 1.617475964855642e+00	 3.945349072065563e+00
 3.260846161265684e-01	 1.620456692466479e+00	 3.860910644249095e+00
 3.116200080694989e-01	 1.623300329284035e+00	 3.778149047388726e+00
 2.971702113536312e-01	 1.626007619656798e+00	 3.698852258616507e+00
 2.827369756135910e-01	 1.628579335148205e+00	 3.624951174301748e+00
 4.298826907876586e-01	 1.605198708873770e+00	 4.504195295586166e+00
 4.152877725688948e-01	 1.609036380701594e+00	 4.415977526503463e+00
 4.006948080321881e-01	 1.612732353263084e+00	 4.334781031575019e+00
 3.861057085039700e-01	 1.616287196250179e+00	 4.256760917719912e+00
 3.715223651558897e-01	 1.619701510806219e+00	 4.178211056385642e+00
 3.569466484309538e-01	 1.622975928866803e+00	 4.096623184472313e+00
 3.423804074919626e-01	 1.626111112490514e+00	 4.012969748117666e+00
 3.278254696923469e-01	 1.629107753180294e+00	 3.928877814161901e+00
 3.132836400694852e-01	 1.631966571196258e+00	 3.846188206611030e+00
 2.987567008605469e-01	 1.634688314860732e+00	 3.766910044703476e+00
 2.842464110408821e-01	 1.637273759856283e+00	 3.693177020547216e+00
 4.321654929631460e-01	 1.613722781093591e+00	 4.558320761154721e+00
 4.174930714818238e-01	 1.617580832075464e+00	 4.472867546182066e+00
 4.028226140570464e-01	 1.621296431326598e+00	 4.393941870941100e+00
 3.881560421649748e-01	 1.624870151564185e+00	 4.317781039115052e+00
 3.734952570199596e-01	 1.628302597123831e+00	 4.240760621360195e+00
 3.588421389976337e-01	 1.631594403296914e+00	 4.160107385007381e+00
 3.441985470804185e-01	 1.634746235657761e+00	 4.076683164362954e+00
 3.295663183255523e-01	 1.637758789381415e+00	 3.992366288737382e+00
 3.149472673557154e-01	 1.640632788552800e+00	 3.909217450117000e+00
 3.003431858723034e-01	 1.643368985468068e+00	 3.829446125790972e+00
 2.857558421913652e-01	 1.645968159928908e+00	 3.755366844228779e+00
 4.344482873767272e-01	 1.622246824329965e+00	 4.614732512422969e+00
 4.196983628963727e-01	 1.626125254396569e+00	 4.530606270620805e+00
 4.049504128470223e-01	 1.629860480270600e+00	 4.452676666627541e+00
 3.902063688545315e-01	 1.633453077694489e+00	 4.377254266120604e+00
 3.754681421759165e-01	 1.636903654196095e+00	 4.300787122205323e+00
 3.607376231194017e-01	 1.640212848422567e+00	 4.220306305587988e+00
 3.460166804869954e-01	 1.643381329463962e+00	 4.136426660959163e+00
 3.313071610397092e-01	 1.646409796167410e+00	 4.051256520749096e+00
 3.166108889854919e-01	 1.649298976442632e+00	 3.967057240423896e+00
 3.019296654899323e-01	 1.652049626559593e+00	 3.886218185489926e+00
 2.872652682097454e-01	 1.654662530439087e+00	 3.811213054474871e+00
 4.367310727346956e-01	 1.630770833752372e+00	 4.673659523111816e+00
 4.219036455627593e-01	 1.634669642822839e+00	 4.589399912202407e+00
 4.070782031962595e-01	 1.638424495241900e+00	 4.511158279329182e+00
 3.922566874107019e-01	 1.642035969777207e+00	 4.435310264837740e+00
 3.774410195057264e-01	 1.645504677148861e+00	 4.358367953584009e+00
 3.626330997221071e-01	 1.648831259359767e+00	 4.277229722566965e+00
 3.478348066813979e-01	 1.652016389015695e+00	 4.192154515666488e+00
 3.330479968483425e-01	 1.655060768635849e+00	 4.105444185839271e+00
 3.182745040161179e-01	 1.657965129954727e+00	 4.019541872236260e+00
 3.035161388144657e-01	 1.660730233216094e+00	 3.936996661029775e+00
 2.887746882407271e-01	 1.663356866459827e+00	 3.860420035266131e+00
 4.390138477433446e-01	 1.639294804530294e+00	 4.735358174446603e+00
 4.241089182312024e-01	 1.643213992512207e+00	 4.649480538003648e+00
 4.092059838989013e-01	 1.646988471387306e+00	 4.569584010712518e+00
 3.943069966715474e-01	 1.650618822948456e+00	 4.492101865291350e+00
 3.794138878913559e-01	 1.654105661107979e+00	 4.413602531605211e+00
 3.645285677315999e-01	 1.657449631224517e+00	 4.330906528090170e+00
 3.496529246333312e-01	 1.660651409419539e+00	 4.243838059722384e+00
 3.347888247649772e-01	 1.663711701884300e+00	 4.154840282344052e+00
 3.199381115048958e-01	 1.666631244178060e+00	 4.066519552343894e+00
 3.051026049469347e-01	 1.669410800518359e+00	 3.981564799543546e+00
 2.902841014290157e-01	 1.672051163064140e+00	 3.902704174580564e+00
 4.412966111089681e-01	 1.647818731833210e+00	 4.800111820160183e+00
 4.263141796519200e-01	 1.651758298622600e+00	 4.711105696973632e+00
 4.113337537490910e-01	 1.655552403853629e+00	 4.628175284912320e+00
 3.963572954751309e-01	 1.659201632344353e+00	 4.547804789609083e+00
 3.813867462147714e-01	 1.662706601199298e+00	 4.466612061273079e+00
 3.664240260737301e-01	 1.666067959132822e+00	 4.381384857815464e+00
 3.514710333125002e-01	 1.669286385782073e+00	 4.291465793482173e+00
 3.365296438031382e-01	 1.672362591010333e+00	 4.199371230961249e+00
 3.216017105091286e-01	 1.675297314201602e+00	 4.107852479613845e+00
 3.066890629883714e-01	 1.678091323547173e+00	 4.019718714832668e+00
 2.917935069193159e-01	 1.680745415325032e+00	 3.937793894561565e+00
 2.766992082422489e-01	 1.593801488501192e+00	 3.298256959067686e+00
 2.625896905333688e-01	 1.596186781145472e+00	 3.224742327471503e+00
 2.484997456962398e-01	 1.598440935759645e+00	 3.155510313730179e+00
 2.344310200493027e-01	 1.600564782436457e+00	 3.090523313073348e+00
 2.203851355945446e-01	 1.602559175150043e+00	 3.029815114906944e+00
 2.063636896767386e-01	 1.604424991048371e+00	 2.973466700206880e+00
 1.923682546643027e-01	 1.606163129743204e+00	 2.921584869147814e+00
 1.784003776516225e-01	 1.607774512598260e+00	 2.874283528117894e+00
 1.644615801826584e-01	 1.609260082016233e+00	 2.831667462800369e+00
 1.505533579956408e-01	 1.610620800725342e+00	 2.793818422769616e+00
 1.366771807886333e-01	 1.611857651066033e+00	 2.760783342953161e+00
 2.782086522238209e-01	 1.602495962481166e+00	 3.387312449507846e+00
 2.640221645561616e-01	 1.604894267325989e+00	 3.315578269243259e+00
 2.498553565338244e-01	 1.607160718759159e+00	 3.248180616097563e+00
 2.357098834562135e-01	 1.609296151401727e+00	 3.185049140864295e+00
 2.215873761736286e-01	 1.611301423886408e+00	 3.126171062717708e+00
 2.074894407446450e-01	 1.613177418146170e+00	 3.071567526340392e+00
 1.934176581152337e-01	 1.614925038700317e+00	 3.021272862636866e+00
 1.793735838194578e-01	 1.616545211938770e+00	 2.975316573919510e+00
 1.653587477015736e-01	 1.618038885405196e+00	 2.933707862067557e+00
 1.513746536593325e-01	 1.619407027079671e+00	 2.896422517067563e+00
 1.374227794082650e-01	 1.620650624661481e+00	 2.863391983416418e+00
 2.797180953497652e-01	 1.611190431533655e+00	 3.471681484408563e+00
 2.654546377669676e-01	 1.613601748571710e+00	 3.401432325000274e+00
 2.512109666030281e-01	 1.615880496816994e+00	 3.335521291469577e+00
 2.369887461383008e-01	 1.618027515418851e+00	 3.273863016549171e+00
 2.227896160713848e-01	 1.620043667668570e+00	 3.216415375578438e+00
 2.086151911746463e-01	 1.621929840284108e+00	 3.163156416946702e+00
 1.944670609715957e-01	 1.623686942692302e+00	 3.114064271391808e+00
 1.803467894359619e-01	 1.625315906309269e+00	 3.069099852522219e+00
 1.662559147122849e-01	 1.626817683819643e+00	 3.028192158671220e+00
 1.521959488578252e-01	 1.628193248455343e+00	 2.991225985207332e+00
 1.381683776055684e-01	 1.629443593274491e+00	 2.958031856711164e+00
 2.812275367647871e-01	 1.619884890731665e+00	 3.551008843120943e+00
 2.668871093541109e-01	 1.622309219948267e+00	 3.481891263036163e+00
 2.525665751357273e-01	 1.624600264991807e+00	 3.417073201346701e+00
 2.382676073709239e-01	 1.626758869539914e+00	 3.356471545752338e+00
 2.239918546065833e-01	 1.628785901542439e+00	 3.300031582494718e+00
 2.097409403288457e-01	 1.630682252502318e+00	 3.247704515214341e+00
 1.955164626387456e-01	 1.632448836753914e+00	 3.199428039846809e+00
 1.813199939496622e-01	 1.634086590739525e+00	 3.155109779186057e+00
 1.671530807064034e-01	 1.635596472284742e+00	 3.114613378565802e+00
 1.530172431257238e-01	 1.636979459873319e+00	 3.077747063308609e+00
 1.389139749580493e-01	 1.638236551922203e+00	 3.044254459016635e+00
 2.827369756135910e-01	 1.628579335148205e+00	 3.624951174301748e+00
 2.683195785059148e-01	 1.631016676521293e+00	 3.556553190706090e+00
 2.539221813637983e-01	 1.633320018342258e+00	 3.492387979732441e+00
 2.395464664294427e-01	 1.635490208817003e+00	 3.432391505667259e+00
 2.251940910979939e-01	 1.637528120553927e+00	 3.376512750464317e+00
 2.108666875693468e-01	 1.639434649840937e+00	 3.324691837630257e+00
 1.965658625220407e-01	 1.641210715919905e+00	 3.276841291272987e+00
 1.822931968090859e-01	 1.642857260259301e+00	 3.232830224947913e+00
 1.680502451755402e-01	 1.644375245825661e+00	 3.192471252863752e+00
 1.538385359976332e-01	 1.645765656354560e+00	 3.155509915363077e+00
 1.396595710432135e-01	 1.647029495621756e+00	 3.121616411218541e+00
 2.842464110408821e-01	 1.637273759856283e+00	 3.693177020547216e+00
 2.697520444107036e-01	 1.639724113356420e+00	 3.625027550119998e+00
 2.552777845191180e-01	 1.642039751927004e+00	 3.561028004772746e+00
 2.408253225892169e-01	 1.644221528302201e+00	 3.501149797321377e+00
 2.263963248643863e-01	 1.646270319748946e+00	 3.445361421820144e+00
 2.119924322582529e-01	 1.648187027340098e+00	 3.393607200631746e+00
 1.976152600268379e-01	 1.649972575225027e+00	 3.345789247738292e+00
 1.832663974627605e-01	 1.651627909898363e+00	 3.301752433678408e+00
 1.689474076113062e-01	 1.653153999467569e+00	 3.261272135531579e+00
 1.546598270081584e-01	 1.654551832920027e+00	 3.224044554899434e+00
 1.404051654385669e-01	 1.655822419390291e+00	 3.189679387637183e+00
 2.857558421913652e-01	 1.645968159928908e+00	 3.755366844228779e+00
 2.711845062568002e-01	 1.648431525519280e+00	 3.686935115660186e+00
 2.566333838335626e-01	 1.650759460804705e+00	 3.622566372726840e+00
 2.421041751256064e-01	 1.652952823047595e+00	 3.562283400555025e+00
 2.275985552245307e-01	 1.655012494173407e+00	 3.506089554555619e+00
 2.131181737576675e-01	 1.656939380039935e+00	 3.453948150397840e+00
 1.986646545584943e-01	 1.658734409704035e+00	 3.405765153269461e+00
 1.842395953592133e-01	 1.660398534686476e+00	 3.361374942286915e+00
 1.698445675053125e-01	 1.661932728235633e+00	 3.320528924108104e+00
 1.554811156919043e-01	 1.663337984590680e+00	 3.282886769446802e+00
 1.411507577216152e-01	 1.664615318244948e+00	 3.248010047256646e+00
 2.872652682097454e-01	 1.654662530439087e+00	 3.811213054474871e+00
 2.726169632325288e-01	 1.657138908075503e+00	 3.741907993253623e+00
 2.579889785390088e-01	 1.659479140034020e+00	 3.676586874180519e+00
 2.433830233139706e-01	 1.661684088105270e+00	 3.615339331609796e+00
 2.288007814971968e-01	 1.663754638873220e+00	 3.558218465515774e+00
 2.142439114296942e-01	 1.665691702980585e+00	 3.505220895662104e+00
 1.997140455223670e-01	 1.667496214391682e+00	 3.456270200085977e+00
 1.852127899469717e-01	 1.669169129653405e+00	 3.411203503973177e+00
 1.707417243491701e-01	 1.670711427155022e+00	 3.369760983332255e+00
 1.563024015834758e-01	 1.672124106387480e+00	 3.331578047700203e+00
 1.418963474698644e-01	 1.673408187202868e+00	 3.296179967358784e+00
 2.887746882407271e-01	 1.663356866459827e+00	 3.860420035266131e+00
 2.740494145262130e-01	 1.665846256090725e+00	 3.789589621338214e+00
 2.593445678673329e-01	 1.668198784673604e+00	 3.722683972410771e+00
 2.446618664296696e-01	 1.670415318527313e+00	 3.659874603227861e+00
 2.300030030011544e-01	 1.672496748894298e+00	 3.601278776353915e+00
 2.153696446364362e-01	 1.674443991202181e+00	 3.546940243439612e+00
 2.007634323238131e-01	 1.676257984322721e+00	 3.496813457806248e+00
 1.861859806745630e-01	 1.677939689828916e+00	 3.450751014396807e+00
 1.716388776344902e-01	 1.679490091250905e+00	 3.408494071576377e+00
 1.571236842174779e-01	 1.680910193331387e+00	 3.369665509280181e+00
 1.426419342608202e-01	 1.682201021281190e+00	 3.333765579475052e+00
 2.902841014290157e-01	 1.672051163064140e+00	 3.902704174580564e+00
 2.754818593261765e-01	 1.674553564630576e+00	 3.829634773447010e+00
 2.607001510504114e-01	 1.676918389782119e+00	 3.760462783832593e+00
 2.459407037480629e-01	 1.679146509365806e+00	 3.695456187172042e+00
 2.312052190551735e-01	 1.681238819282553e+00	 3.634810362149023e+00
 2.164953727399972e-01	 1.683196239744858e+00	 3.578629537555862e+00
 2.018128143681895e-01	 1.685019714531905e+00	 3.526911805500600e+00
 1.871591669905145e-01	 1.686710210242772e+00	 3.479537440671061e+00
 1.725360268528837e-01	 1.688268715548449e+00	 3.436260269969536e+00
 1.579449631285154e-01	 1.689696240443363e+00	 3.396701836993853e+00
 1.433875176719885e-01	 1.690993815497054e+00	 3.360348107572580e+00
 2.917935069193159e-01	 1.680745415325032e+00	 3.937793894561565e+00
 2.769142968207429e-01	 1.683260828760689e+00	 3.861709562354257e+00
 2.620557273201212e-01	 1.685637950418222e+00	 3.789539060432870e+00
 2.472195345445104e-01	 1.687877655672838e+00	 3.721660979073082e+00
 2.324074289780241e-01	 1.689980845083896e+00	 3.658362302578717e+00
 2.176210951024806e-01	 1.691948443648752e+00	 3.599820599875919e+00
 2.028621910608533e-01	 1.693781400053988e+00	 3.546089866497426e+00
 1.881323483433538e-01	 1.695480685924739e+00	 3.497089753069796e+00
 1.734331714959617e-01	 1.697047295072823e+00	 3.452597914132924e+00
 1.587662378511934e-01	 1.698482242744367e+00	 3.412245211511604e+00
 1.441330972808751e-01	 1.699786564867602e+00	 3.375513508391684e+00
 1.366771807886333e-01	 1.611857651066033e+00	 2.760783342953161e+00
 1.228368366506916e-01	 1.612971455257300e+00	 2.731229355910829e+00
 1.090313535566891e-01	 1.613963452695617e+00	 2.704054206225605e+00
 9.526208969766804e-02	 1.614834679436247e+00	 2.679592153257196e+00
 8.153037736788364e-02	 1.615586188281853e+00	 2.658117577813645e+00
 6.783752282655720e-02	 1.616219048089453e+00	 2.639841232004831e+00
 5.418480617815002e-02	 1.616734343080651e+00	 2.624907623297688e+00
 4.057348127085128e-02	 1.617133172155657e+00	 2.613393383552302e+00
 2.700477561295891e-02	 1.617416648211609e+00	 2.605306480268856e+00
 1.347989030682204e-02	 1.617585897465666e+00	 2.600586134183231e+00
 0.000000000000000e+00	 1.617642058783334e+00	 2.599103312560502e+00
 1.374227794082650e-01	 1.620650624661481e+00	 2.863391983416433e+00
 1.235069337021328e-01	 1.621770504854973e+00	 2.833276453657179e+00
 1.096261392132307e-01	 1.622767913817755e+00	 2.805143574049047e+00
 9.578176154176940e-02	 1.623643893256957e+00	 2.779463793610772e+00
 8.197514024990150e-02	 1.624399501718475e+00	 2.756638720797870e+00
 6.820758872271974e-02	 1.625035813890140e+00	 2.736998049010515e+00
 5.448039404787802e-02	 1.625553919908178e+00	 2.720797625929709e+00
 4.079481691352561e-02	 1.625954924667502e+00	 2.708218511689103e+00
 2.715209152423184e-02	 1.626239947136311e+00	 2.699366877667490e+00
 1.355342553456794e-02	 1.626410119675477e+00	 2.694274604945621e+00
 0.000000000000000e+00	 1.626466587363230e+00	 2.692900447045827e+00
 1.381683776055684e-01	 1.629443593274491e+00	 2.958031856711164e+00
 1.241770303739670e-01	 1.630569549466778e+00	 2.927279026545246e+00
 1.102209245327511e-01	 1.631572369950946e+00	 2.898197444656170e+00
 9.630143309131045e-02	 1.632453102085998e+00	 2.871372578415705e+00
 8.241990287970483e-02	 1.633212810161064e+00	 2.847311974483458e+00
 6.857765440890855e-02	 1.633852574694785e+00	 2.826442918803847e+00
 5.477598174977812e-02	 1.634373491738018e+00	 2.809111248757144e+00
 4.101615243043270e-02	 1.634776672180379e+00	 2.795581156517384e+00
 2.729940735172260e-02	 1.635063241061123e+00	 2.786035829806252e+00
 1.362696072045095e-02	 1.635234336884847e+00	 2.780578783839286e+00
 0.000000000000000e+00	 1.635291110942501e+00	 2.779235744227999e+00
 1.389139749580493e-01	 1.638236551922203e+00	 3.044254459016635e+00
 1.248471262864969e-01	 1.639368584106420e+00	 3.012826480753878e+00
 1.108157091782467e-01	 1.640376816105841e+00	 2.982844776100932e+00
 9.682110405187071e-02	 1.641262300931342e+00	 2.954988667341853e+00
 8.286466500533905e-02	 1.642026108615281e+00	 2.929850351280443e+00
 6.894771967551071e-02	 1.642669325507112e+00	 2.907933353627784e+00
 5.507156911644809e-02	 1.643193053572317e+00	 2.889652142539735e+00
 4.123748769624335e-02	 1.643598409695213e+00	 2.875332734222608e+00
 2.744672301203106e-02	 1.643886524986108e+00	 2.865214131040805e+00
 1.370049582284940e-02	 1.644058544093324e+00	 2.859450440530589e+00
 0.000000000000000e+00	 1.644115624520522e+00	 2.858113530083705e+00
 1.396595710432135e-01	 1.647029495621756e+00	 3.121616411218534e+00
 1.255172210600251e-01	 1.648167603787604e+00	 3.089512579479932e+00
 1.114104928127138e-01	 1.649181247293090e+00	 3.058718203962044e+00
 9.734077412902969e-02	 1.650071484800958e+00	 3.029985294433940e+00
 8.330942637484956e-02	 1.650839392086791e+00	 3.003969399341615e+00
 6.931778431291342e-02	 1.651486061330844e+00	 2.981228915574603e+00
 5.536715598048577e-02	 1.652012600413220e+00	 2.962225563016895e+00
 4.145882258562848e-02	 1.652420132212929e+00	 2.947325850495527e+00
 2.759403842175708e-02	 1.652709793911330e+00	 2.936803367635650e+00
 1.377403080014159e-02	 1.652882736300450e+00	 2.930841745478670e+00
 0.000000000000000e+00	 1.652940123096667e+00	 2.929538135505350e+00
 1.404051654385669e-01	 1.655822419390291e+00	 3.189679387637168e+00
 1.261873143148544e-01	 1.656966603524032e+00	 3.156935379994765e+00
 1.120052750991488e-01	 1.657985658523342e+00	 3.125453986362521e+00
 9.786044302836701e-02	 1.658880648702817e+00	 3.096038720837078e+00
 8.375418673628189e-02	 1.659652655581255e+00	 3.069387162837143e+00
 6.968784811150369e-02	 1.660302777169703e+00	 3.046091184346793e+00
 5.566274217448894e-02	 1.660832127262873e+00	 3.026638346186791e+00
 4.168015697325902e-02	 1.661241834734456e+00	 3.011414283459065e+00
 2.774135349750053e-02	 1.661533042836846e+00	 3.000705908556173e+00
 1.384756561070587e-02	 1.661706908505775e+00	 2.994705268911978e+00
 0.000000000000000e+00	 1.661764601670313e+00	 2.993513903864283e+00
 1.411507577216152e-01	 1.664615318244948e+00	 3.248010047256653e+00
 1.268574056712874e-01	 1.665765578329411e+00	 3.214697172867657e+00
 1.126000557005477e-01	 1.666790044807246e+00	 3.182691950858653e+00
 9.838011045546215e-02	 1.667689787644890e+00	 3.152828189112738e+00
 8.419894583768139e-02	 1.668465894104338e+00	 3.125824143551898e+00
 7.005791086166871e-02	 1.669119468027414e+00	 3.102283726080221e+00
 5.595832753105540e-02	 1.669651629123421e+00	 3.082698884396687e+00
 4.190149073380579e-02	 1.670063512260719e+00	 3.067452967150449e+00
 2.788866815586128e-02	 1.670356266762721e+00	 3.056824896563792e+00
 1.392110021292054e-02	 1.670531055708842e+00	 3.050993979841733e+00
 0.000000000000000e+00	 1.670589055240833e+00	 3.050045198338475e+00
 1.418963474698644e-01	 1.673408187202868e+00	 3.296179967358784e+00
 1.275274947496269e-01	 1.674564523217445e+00	 3.262404423280751e+00
 1.131948342799072e-01	 1.675594401155453e+00	 3.230075443129109e+00
 9.889977611589473e-02	 1.676498896635146e+00	 3.200035879082580e+00
 8.464370342709347e-02	 1.677279102661701e+00	 3.173003263750631e+00
 7.042797235379547e-02	 1.677936128907696e+00	 3.149572063191736e+00
 5.625391188278296e-02	 1.678471100997010e+00	 3.130217103210978e+00
 4.212282374193975e-02	 1.678885159792645e+00	 3.115297975543372e+00
 2.803598231343919e-02	 1.679179460689016e+00	 3.105064239605100e+00
 1.399463456516394e-02	 1.679355172909198e+00	 3.099661245115096e+00
 0.000000000000000e+00	 1.679413478807604e+00	 3.099136409013687e+00
 1.426419342608202e-01	 1.682201021281190e+00	 3.333765579475052e+00
 1.281975811701755e-01	 1.683363433201838e+00	 3.299667714363252e+00
 1.137896105002232e-01	 1.684398722578610e+00	 3.267251277399513e+00
 9.941943971524417e-02	 1.685307970681557e+00	 3.237346865143954e+00
 8.508845925256367e-02	 1.686092276259008e+00	 3.210649830268506e+00
 7.079803237827123e-02	 1.686752754814276e+00	 3.187723645207801e+00
 5.654949506226945e-02	 1.687290537885786e+00	 3.169004439030648e+00
 4.234415587233178e-02	 1.687706772331161e+00	 3.154806507086681e+00
 2.818329588683412e-02	 1.688002619615791e+00	 3.145328602480501e+00
 1.406816862581438e-02	 1.688179255106389e+00	 3.140660828504938e+00
 0.000000000000000e+00	 1.688237867370000e+00	 3.140791959764329e+00
 1.433875176719885e-01	 1.690993815497054e+00	 3.360348107572580e+00
 1.288676645532359e-01	 1.692162303296296e+00	 3.326101692461242e+00
 1.143843840244923e-01	 1.693203004087369e+00	 3.293869688537425e+00
 9.993910095909007e-02	 1.694117004792092e+00	 3.264449075004154e+00
 8.553321306213733e-02	 1.694905409901922e+00	 3.238491499781303e+00
 7.116809072548295e-02	 1.695569340750875e+00	 3.216507820545980e+00
 5.684507690211263e-02	 1.696109934791894e+00	 3.198873817439496e+00
 4.256548699965275e-02	 1.696528344877193e+00	 3.185836869743583e+00
 2.833060879264594e-02	 1.696825738543109e+00	 3.177523398786236e+00
 1.414170235325019e-02	 1.697003297299960e+00	 3.173946889837637e+00
 0.000000000000000e+00	 1.697062215927397e+00	 3.175016314924295e+00
 1.441330972808751e-01	 1.699786564867602e+00	 3.375513508391684e+00
 1.295377445191109e-01	 1.700961128514523e+00	 3.341325014282870e+00
 1.149791545157106e-01	 1.702007240692378e+00	 3.309584285758186e+00
 1.004587595530120e-01	 1.702925993974722e+00	 3.281033249780965e+00
 8.597796460385999e-02	 1.703718498596106e+00	 3.256258245211857e+00
 7.153814718581784e-02	 1.704385881721215e+00	 3.235695809211859e+00
 5.714065723491034e-02	 1.704929286717479e+00	 3.219639632243565e+00
 4.278681699857358e-02	 1.705349872431669e+00	 3.208248466511501e+00
 2.847792094747452e-02	 1.705648812471032e+00	 3.201554783113695e+00
 1.421523570584970e-02	 1.705827294489458e+00	 3.199473984152833e+00
 0.000000000000000e+00	 1.705886519479168e+00	 3.201813985754021e+00
 1.705886519479168e+00	 0.000000000000000e+00	 1.381192672986699e+01
 1.705827294489459e+00	 1.421523570584876e-02	 1.380385225504350e+01
 1.705648812471032e+00	 2.847792094747371e-02	 1.379934214804160e+01
 1.705349872431669e+00	 4.278681699857291e-02	 1.379767358340662e+01
 1.704929286717479e+00	 5.714065723490981e-02	 1.379822501936166e+01
 1.704385881721215e+00	 7.153814718581744e-02	 1.380048065567533e+01
 1.703718498596106e+00	 8.597796460385973e-02	 1.380403476255246e+01
 1.702925993974722e+00	 1.004587595530119e-01	 1.380859584732075e+01
 1.702007240692379e+00	 1.149791545157106e-01	 1.381399062179241e+01
 1.700961128514523e+00	 1.295377445191110e-01	 1.382016772906795e+01
 1.699786564867602e+00	 1.441330972808752e-01	 1.382720118429358e+01
 1.714709275570436e+00	 0.000000000000000e+00	 1.376031268666037e+01
 1.714649744272165e+00	 1.428875616361442e-02	 1.375273327212490e+01
 1.714470339154033e+00	 2.862520726952074e-02	 1.374875365782580e+01
 1.714169853012344e+00	 4.300810818478416e-02	 1.374762839271236e+01
 1.713747092050717e+00	 5.743618573424850e-02	 1.374871437532783e+01
 1.713200876592064e+00	 7.190813875230691e-02	 1.375147546497027e+01
 1.712530041796110e+00	 8.642263815292325e-02	 1.375548698308340e+01
 1.711733438381984e+00	 1.009783270182689e-01	 1.376044007189028e+01
 1.710809933355354e+00	 1.155738207063259e-01	 1.376614587320254e+01
 1.709758410739589e+00	 1.302077069777980e-01	 1.377253948607277e+01
 1.708577772310391e+00	 1.448785461426520e-01	 1.377968365752235e+01
 1.723531991670303e+00	 0.000000000000000e+00	 1.370837604059406e+01
 1.723472154064846e+00	 1.436227628832694e-02	 1.370123388622948e+01
 1.723291825851158e+00	 2.877249292428796e-02	 1.369770397332967e+01
 1.722989793614098e+00	 4.322939836835290e-02	 1.369702682101136e+01
 1.722564857414828e+00	 5.773171289448438e-02	 1.369854612017141e+01
 1.722015831506448e+00	 7.227812864217469e-02	 1.370171348529680e+01
 1.721341545055211e+00	 8.686730968682753e-02	 1.370609311655735e+01
 1.720540842866837e+00	 1.014978921288509e-01	 1.371136633948452e+01
 1.719612586117377e+00	 1.161684842018142e-01	 1.371733598527725e+01
 1.718555653088150e+00	 1.308776664000112e-01	 1.372393057034274e+01
 1.717368939904148e+00	 1.456239916257571e-01	 1.373120822907535e+01
 1.732354677776619e+00	 0.000000000000000e+00	 1.365612604896640e+01
 1.732294533865007e+00	 1.443579616324962e-02	 1.364937594747511e+01
 1.732113282558871e+00	 2.891977807859532e-02	 1.364622531692402e+01
 1.731809704231650e+00	 4.345068779993982e-02	 1.364590910770825e+01
 1.731382592802073e+00	 5.802723905039318e-02	 1.364776601288013e+01
 1.730830756453453e+00	 7.264811727457615e-02	 1.365124334795589e+01
 1.730153018358598e+00	 8.731197970936237e-02	 1.365590186193139e+01
 1.729348217409838e+00	 1.020174554734268e-01	 1.366142044716166e+01
 1.728415208953636e+00	 1.167631456759571e-01	 1.366760071129796e+01
 1.727352865529281e+00	 1.315476235448692e-01	 1.367437136988333e+01
 1.726160077611077e+00	 1.463694345748584e-01	 1.368179241341989e+01
 1.741177343887234e+00	 0.000000000000000e+00	 1.360356879784048e+01
 1.741116893670152e+00	 1.450931587164573e-02	 1.359717681566243e+01
 1.740934719273633e+00	 2.906706289926280e-02	 1.359434426331853e+01
 1.740629594859717e+00	 4.367197673020553e-02	 1.359430885183171e+01
 1.740200308204713e+00	 5.832276453675059e-02	 1.359641234665748e+01
 1.739645661422168e+00	 7.301810506866685e-02	 1.360010556281774e+01
 1.738964471691459e+00	 8.775664872431757e-02	 1.360495331307983e+01
 1.738155571991545e+00	 1.025370176406653e-01	 1.361063927723866e+01
 1.737217811839318e+00	 1.173578058025365e-01	 1.361697075590672e+01
 1.736150058032053e+00	 1.322175791714904e-01	 1.362388326744901e+01
 1.734951195393385e+00	 1.471148758346237e-01	 1.363144494173459e+01
 1.750000000000000e+00	 0.000000000000000e+00	 1.355070728386648e+01
 1.749939243477787e+00	 1.458283549677856e-02	 1.354464946132551e+01
 1.749756145991908e+00	 2.921434755311032e-02	 1.354208185892978e+01
 1.749449475493014e+00	 4.389326540981060e-02	 1.354225314874023e+01
 1.749018013615008e+00	 5.861828968833231e-02	 1.354451610191452e+01
 1.748460556401677e+00	 7.338809244360212e-02	 1.354833268647774e+01
 1.747775915038981e+00	 8.820131723548300e-02	 1.355327914091536e+01
 1.746962916592515e+00	 1.030565792192351e-01	 1.355905099210614e+01
 1.746020404749609e+00	 1.179524652553341e-01	 1.356546798126464e+01
 1.744947240565538e+00	 1.328875340389930e-01	 1.357247885661800e+01
 1.743742303213276e+00	 1.478603162497211e-01	 1.358016598639037e+01
 1.758822656112766e+00	 0.000000000000000e+00	 1.349754149356644e+01
 1.758761593285413e+00	 1.465635512191138e-02	 1.349180256365699e+01
 1.758577572710158e+00	 2.936163220695785e-02	 1.348945373759891e+01
 1.758269356126260e+00	 4.411455408941568e-02	 1.348976272271687e+01
 1.757835719025220e+00	 5.891381483991402e-02	 1.349210109475871e+01
 1.757275451381068e+00	 7.375807981853734e-02	 1.349594948558496e+01
 1.756587358386351e+00	 8.864598574664836e-02	 1.350090277043239e+01
 1.755770261193304e+00	 1.035761407978049e-01	 1.350667522378610e+01
 1.754822997659698e+00	 1.185471247081317e-01	 1.351310560784985e+01
 1.753744423098810e+00	 1.335574889064958e-01	 1.352016215248034e+01
 1.752533411032956e+00	 1.486057566648185e-01	 1.352794738010229e+01
 1.767645322223381e+00	 0.000000000000000e+00	 1.344406848017126e+01
 1.767583953090539e+00	 1.472987483030750e-02	 1.343864060541647e+01
 1.767399009424846e+00	 2.950891702762532e-02	 1.343647023278487e+01
 1.767089246754171e+00	 4.433584301968137e-02	 1.343685205559636e+01
 1.766653434427608e+00	 5.920934032627143e-02	 1.343918412113562e+01
 1.766090356349428e+00	 7.412806761262804e-02	 1.344297309551186e+01
 1.765398811718757e+00	 8.909065476160360e-02	 1.344783955284784e+01
 1.764577615774469e+00	 1.040957029650434e-01	 1.345352325841606e+01
 1.763625600544772e+00	 1.191417848347111e-01	 1.345988841008496e+01
 1.762541615600941e+00	 1.342274445331169e-01	 1.346692879713202e+01
 1.761324528814632e+00	 1.493511979245839e-01	 1.347477282993799e+01
 1.776468008329698e+00	 0.000000000000000e+00	 1.339028243809484e+01
 1.776406332890666e+00	 1.480339470523017e-02	 1.338516396492764e+01
 1.776220466132433e+00	 2.965620218193269e-02	 1.338313648635716e+01
 1.775909157371466e+00	 4.455713245126831e-02	 1.338352951156182e+01
 1.775471169814435e+00	 5.950486648218025e-02	 1.338577509677532e+01
 1.774905281295844e+00	 7.449805624502953e-02	 1.338941317452747e+01
 1.774210285021387e+00	 8.953532478413845e-02	 1.339409693301132e+01
 1.773384990316567e+00	 1.046152663096193e-01	 1.339959821583756e+01
 1.772428223380018e+00	 1.197364463088540e-01	 1.340581290697165e+01
 1.771338828041004e+00	 1.348974016779749e-01	 1.341276626015422e+01
 1.770115666520508e+00	 1.500966408736851e-01	 1.342061812636589e+01
 1.785290724429565e+00	 0.000000000000000e+00	 1.333617477512789e+01
 1.785228742683300e+00	 1.487691482994270e-02	 1.333136900526565e+01
 1.785041952829383e+00	 2.980348783669991e-02	 1.332945255410517e+01
 1.784729097972858e+00	 4.477842263483706e-02	 1.332979745824485e+01
 1.784288935177959e+00	 5.980039364241613e-02	 1.333187719308743e+01
 1.783720236209402e+00	 7.486804613489732e-02	 1.333527205362917e+01
 1.783021788279429e+00	 8.997999631804272e-02	 1.333967461224818e+01
 1.782192394800156e+00	 1.051348314202014e-01	 1.334489522445715e+01
 1.781230876140625e+00	 1.203311098043423e-01	 1.335086754790860e+01
 1.780136070388071e+00	 1.355673611001882e-01	 1.335765403425487e+01
 1.778906834112791e+00	 1.508420863567903e-01	 1.336545134751344e+01
 1.794113480520832e+00	 0.000000000000000e+00	 1.328173418243084e+01
 1.794051192465945e+00	 1.495043528770836e-02	 1.327724816073011e+01
 1.793863479512158e+00	 2.995077415874692e-02	 1.327541350807730e+01
 1.793549078553066e+00	 4.499971382104827e-02	 1.327565238425505e+01
 1.793106740510443e+00	 6.009592214175480e-02	 1.327748696914515e+01
 1.792535231079187e+00	 7.523803770138675e-02	 1.328054488218280e+01
 1.791833331478071e+00	 9.042466986710623e-02	 1.328456470679295e+01
 1.790999839205791e+00	 1.056543988854583e-01	 1.328940159154385e+01
 1.790033568801779e+00	 1.209257759949575e-01	 1.329503289385756e+01
 1.788933352611214e+00	 1.362373235588751e-01	 1.330156382623738e+01
 1.787698041553686e+00	 1.515875352185671e-01	 1.330923305880525e+01
 1.699786564867602e+00	 1.441330972808752e-01	 1.382720118429358e+01
 1.698482242744367e+00	 1.587662378511926e-01	 1.383398134030974e+01
 1.697047295072823e+00	 1.734331714959610e-01	 1.383928223835813e+01
 1.695480685924739e+00	 1.881323483433532e-01	 1.384320315920871e+01
 1.693781400053988e+00	 2.028621910608528e-01	 1.384597828492538e+01
 1.691948443648752e+00	 2.176210951024801e-01	 1.384797822394844e+01
 1.689980845083896e+00	 2.324074289780237e-01	 1.384971088933849e+01
 1.687877655672838e+00	 2.472195345445101e-01	 1.385182165233460e+01
 1.685637950418222e+00	 2.620557273201210e-01	 1.385509268887780e+01
 1.683260828760689e+00	 2.769142968207428e-01	 1.386044143237513e+01
 1.680745415325032e+00	 2.917935069193159e-01	 1.386891804178757e+01
 1.708577772310391e+00	 1.448785461426520e-01	 1.377968365752234e+01
 1.707266704300739e+00	 1.595873685525808e-01	 1.378648367614289e+01
 1.705824335154196e+00	 1.743301588129325e-01	 1.379174001828500e+01
 1.704249623584781e+00	 1.891053590360332e-01	 1.379556232681440e+01
 1.702541549095582e+00	 2.039113837314954e-01	 1.379819871052208e+01
 1.700699112734855e+00	 2.187466200547206e-01	 1.380003759177524e+01
 1.698721337852288e+00	 2.336094280775254e-01	 1.380160892012096e+01
 1.696607270854759e+00	 2.484981410811179e-01	 1.380358467225904e+01
 1.694355981960888e+00	 2.634110658716374e-01	 1.380677855406150e+01
 1.691966565953688e+00	 2.783464831184465e-01	 1.381214481570841e+01
 1.689438142930575e+00	 2.933026477153374e-01	 1.382077608657404e+01
 1.717368939904148e+00	 1.456239916257571e-01	 1.373120822907535e+01
 1.716051126038605e+00	 1.604084955322307e-01	 1.373809424979607e+01
 1.714601335450664e+00	 1.752271420643226e-01	 1.374341194555179e+01
 1.713018521496617e+00	 1.900783653185445e-01	 1.374727462543641e+01
 1.711301658428788e+00	 2.049605716466695e-01	 1.374993744605569e+01
 1.709449742155527e+00	 2.198721399055145e-01	 1.375179959848730e+01
 1.707461791001365e+00	 2.348114217289573e-01	 1.375340587542482e+01
 1.705336846466656e+00	 2.497767418224219e-01	 1.375544753716182e+01
 1.703073973986022e+00	 2.647663982800406e-01	 1.375876239009407e+01
 1.700672263684863e+00	 2.797786629246871e-01	 1.376433398656430e+01
 1.698130831133237e+00	 2.948117816710418e-01	 1.377328985019324e+01
 1.726160077611077e+00	 1.463694345748584e-01	 1.368179241341989e+01
 1.724835517912544e+00	 1.612296197205770e-01	 1.368881630286983e+01
 1.723378305908415e+00	 1.761241222665267e-01	 1.369428783396203e+01
 1.721787389597272e+00	 1.910513682934287e-01	 1.369831728443416e+01
 1.720061737980688e+00	 2.060097559952411e-01	 1.370115997097931e+01
 1.718200341827125e+00	 2.209976559302208e-01	 1.370321879245060e+01
 1.716202214435967e+00	 2.360134112943326e-01	 1.370504616895444e+01
 1.714066392401066e+00	 2.510553382172411e-01	 1.370734529371123e+01
 1.711791936373050e+00	 2.661217260810984e-01	 1.371097060933334e+01
 1.709377931819725e+00	 2.812108378623158e-01	 1.371692741506203e+01
 1.706823489783799e+00	 2.963209104964882e-01	 1.372637050657029e+01
 1.734951195393385e+00	 1.471148758346237e-01	 1.363144494173458e+01
 1.733619889877132e+00	 1.620507420480541e-01	 1.363864464861456e+01
 1.732155256473636e+00	 1.770211004359399e-01	 1.364434950820840e+01
 1.730556237823766e+00	 1.920243690632273e-01	 1.364866006406302e+01
 1.728821797678364e+00	 2.070589379660760e-01	 1.365182489265393e+01
 1.726950921666006e+00	 2.221231694041990e-01	 1.365424351996369e+01
 1.724942618060941e+00	 2.372153981356642e-01	 1.365646875116899e+01
 1.722795918550523e+00	 2.523339317143948e-01	 1.365920832851669e+01
 1.720509879001397e+00	 2.674770508105788e-01	 1.366332582698118e+01
 1.718083580223781e+00	 2.826430095541833e-01	 1.366984069192742e+01
 1.715516128733043e+00	 2.978300359017357e-01	 1.367992731780304e+01
 1.743742303213276e+00	 1.478603162497211e-01	 1.358016598639037e+01
 1.742404251886952e+00	 1.628718634450967e-01	 1.358756590440939e+01
 1.740932197092512e+00	 1.779180775889574e-01	 1.359357104510442e+01
 1.739325076113126e+00	 1.929973687304822e-01	 1.359826550623537e+01
 1.737581847448898e+00	 2.081081187480401e-01	 1.360188420743327e+01
 1.735701491588527e+00	 2.232486816028079e-01	 1.360481619748071e+01
 1.733683011781130e+00	 2.384173836149654e-01	 1.360760739347489e+01
 1.731525434807559e+00	 2.536125237627017e-01	 1.361096266513471e+01
 1.729227811750488e+00	 2.688323740042501e-01	 1.361574717175971e+01
 1.726789218762543e+00	 2.840751796231408e-01	 1.362298685370964e+01
 1.724208757831753e+00	 2.993391595968430e-01	 1.363386797479783e+01
 1.752533411032956e+00	 1.486057566648185e-01	 1.352794738010229e+01
 1.751188613896581e+00	 1.636929848421391e-01	 1.353555871901250e+01
 1.749709137711230e+00	 1.788150547419742e-01	 1.354191900969727e+01
 1.748093914402372e+00	 1.939703683977349e-01	 1.354708918028120e+01
 1.746341897219373e+00	 2.091572995299990e-01	 1.355128355687582e+01
 1.744452061511046e+00	 2.243741938014068e-01	 1.355487357909441e+01
 1.742423405501375e+00	 2.396193690942492e-01	 1.355839096781383e+01
 1.740254951064713e+00	 2.548911158109811e-01	 1.356253025661075e+01
 1.737945744499749e+00	 2.701876971978801e-01	 1.356815059226748e+01
 1.735494857301518e+00	 2.855073496920395e-01	 1.357627670382001e+01
 1.732901386930710e+00	 3.008482832918692e-01	 1.358809893387023e+01
 1.761324528814632e+00	 1.493511979245839e-01	 1.347477282993799e+01
 1.759972985860596e+00	 1.645141071696161e-01	 1.348259399476571e+01
 1.758486088275977e+00	 1.797120329113855e-01	 1.348935268644420e+01
 1.756862762628529e+00	 1.949433691675272e-01	 1.349507992388788e+01
 1.755101956916870e+00	 2.102064815008186e-01	 1.349996247925891e+01
 1.753202641349922e+00	 2.254997072753549e-01	 1.350434701944994e+01
 1.751163809126523e+00	 2.408213559355289e-01	 1.350874372181548e+01
 1.748984477214517e+00	 2.561697093080520e-01	 1.351382927372263e+01
 1.746663687128603e+00	 2.715430219272368e-01	 1.352044915917442e+01
 1.744200505706216e+00	 2.869395213837301e-01	 1.352961912955060e+01
 1.741594025880697e+00	 3.023574086968733e-01	 1.354252574946287e+01
 1.770115666520508e+00	 1.500966408736851e-01	 1.342061812636589e+01
 1.768757377733578e+00	 1.653352313579620e-01	 1.342863510493405e+01
 1.767263058732940e+00	 1.806090131135865e-01	 1.343582430562596e+01
 1.765631630728619e+00	 1.959163721424007e-01	 1.344218007939061e+01
 1.763862036468471e+00	 2.112556658493647e-01	 1.344785465656208e+01
 1.761953241021510e+00	 2.266252233000113e-01	 1.345316273225324e+01
 1.759904232561414e+00	 2.420233455008174e-01	 1.345858554967588e+01
 1.757714023149506e+00	 2.574483057027334e-01	 1.346477438908216e+01
 1.755381649516477e+00	 2.728983497280881e-01	 1.347255336341153e+01
 1.752906173842148e+00	 2.883716963210640e-01	 1.348292141522189e+01
 1.750286684532495e+00	 3.038665375219142e-01	 1.349705340312923e+01
 1.778906834112791e+00	 1.508420863567903e-01	 1.336545134751344e+01
 1.777541799470105e+00	 1.661563583376114e-01	 1.337363810634710e+01
 1.776040059028305e+00	 1.815059963649723e-01	 1.338127926516507e+01
 1.774400528639666e+00	 1.968893784248969e-01	 1.338832572557662e+01
 1.772622145801259e+00	 2.123048537645031e-01	 1.339488815708234e+01
 1.770703870442168e+00	 2.277507431507352e-01	 1.340124204453402e+01
 1.768644685710895e+00	 2.432253391521282e-01	 1.340783225891564e+01
 1.766443598762214e+00	 2.587269064438442e-01	 1.341527705724762e+01
 1.764099641542794e+00	 2.742536821362022e-01	 1.342437141050284e+01
 1.761611871574821e+00	 2.898038761268918e-01	 1.343608955160546e+01
 1.758979372736888e+00	 3.053756714770509e-01	 1.345158662892299e+01
 1.787698041553686e+00	 1.515875352185671e-01	 1.330923305880525e+01
 1.786326261024755e+00	 1.669774890389988e-01	 1.331755194751030e+01
 1.784817099108259e+00	 1.824029836819379e-01	 1.332565634801255e+01
 1.783169466298693e+00	 1.978623891175576e-01	 1.333344690516430e+01
 1.781382294842314e+00	 2.133540464350997e-01	 1.334098567383667e+01
 1.779454539528256e+00	 2.288762681028857e-01	 1.334850164681447e+01
 1.777385178479808e+00	 2.444273382514740e-01	 1.335639583316767e+01
 1.775173213945176e+00	 2.600055129802037e-01	 1.336524579099182e+01
 1.772817673086980e+00	 2.756090206873468e-01	 1.337580951118082e+01
 1.770317608769745e+00	 2.912360624240647e-01	 1.338902854176105e+01
 1.767672100344656e+00	 3.068848122723423e-01	 1.340603023533155e+01
 1.680745415325032e+00	 2.917935069193159e-01	 1.386891804178757e+01
 1.678091323547173e+00	 3.066890629883703e-01	 1.387781401814306e+01
 1.675297314201602e+00	 3.216017105091277e-01	 1.388474024905299e+01
 1.672362591010333e+00	 3.365296438031375e-01	 1.389138843756720e+01
 1.669286385782073e+00	 3.514710333124996e-01	 1.389953712300830e+01
 1.666067959132822e+00	 3.664240260737297e-01	 1.391104183540095e+01
 1.662706601199298e+00	 3.813867462147712e-01	 1.392544769605318e+01
 1.659201632344353e+00	 3.963572954751306e-01	 1.393770719195909e+01
 1.655552403853629e+00	 4.113337537490910e-01	 1.394774514647520e+01
 1.651758298622600e+00	 4.263141796519203e-01	 1.395578201318839e+01
 1.647818731833210e+00	 4.412966111089680e-01	 1.396203968616246e+01
 1.689438142930575e+00	 2.933026477153374e-01	 1.382077608657404e+01
 1.686770324328197e+00	 3.082752428232585e-01	 1.382978323007375e+01
 1.683961864511827e+00	 3.232650177790162e-01	 1.383658602215891e+01
 1.681011963085166e+00	 3.382701575652768e-01	 1.384291366560007e+01
 1.677919847883867e+00	 3.532888231617539e-01	 1.385059106701905e+01
 1.674684775699870e+00	 3.683191520215244e-01	 1.386152939722879e+01
 1.671306032998505e+00	 3.833592585706100e-01	 1.387462932263607e+01
 1.667782936627572e+00	 3.984072347308051e-01	 1.388573197963970e+01
 1.664114834517587e+00	 4.134611504656967e-01	 1.389500361917016e+01
 1.660301106372383e+00	 4.285190543498037e-01	 1.390269124308140e+01
 1.656341164349248e+00	 4.435789741607188e-01	 1.390904507852184e+01
 1.698130831133237e+00	 2.948117816710418e-01	 1.377328985019324e+01
 1.695449285768520e+00	 3.098614154685692e-01	 1.378256840717142e+01
 1.692626375546808e+00	 3.249283175096468e-01	 1.378940953013526e+01
 1.689661295953505e+00	 3.400106634381059e-01	 1.379557666973940e+01
 1.686553270851235e+00	 3.551066047713227e-01	 1.380293776378643e+01
 1.683301553207896e+00	 3.702142693789844e-01	 1.381345622464691e+01
 1.679905425817454e+00	 3.853317619852417e-01	 1.382538143998725e+01
 1.676364202012672e+00	 4.004571646942260e-01	 1.383560516664225e+01
 1.672677226368962e+00	 4.155885375388806e-01	 1.384439117333025e+01
 1.668843875398534e+00	 4.307239190530262e-01	 1.385201243841308e+01
 1.664863558234037e+00	 4.458613268665516e-01	 1.385874674645263e+01
 1.706823489783799e+00	 2.963209104964882e-01	 1.372637050657029e+01
 1.704128217703386e+00	 3.114475827216699e-01	 1.373607261169023e+01
 1.701290857125424e+00	 3.265916115857996e-01	 1.374310338981038e+01
 1.698310599417042e+00	 3.417511633939107e-01	 1.374925715419368e+01
 1.695186664467848e+00	 3.569243802010779e-01	 1.375644140200122e+01
 1.691918301421715e+00	 3.721093802936368e-01	 1.376662644528956e+01
 1.688504789401261e+00	 3.873042586939051e-01	 1.377756299080619e+01
 1.684945438224232e+00	 4.025070876883903e-01	 1.378716654722957e+01
 1.681239589110945e+00	 4.177159173794298e-01	 1.379572530268786e+01
 1.677386615382003e+00	 4.329287762601861e-01	 1.380353772373679e+01
 1.673385923145432e+00	 4.481436718128828e-01	 1.381090845959994e+01
 1.715516128733043e+00	 2.978300359017357e-01	 1.367992731780304e+01
 1.712807129968037e+00	 3.130337463799280e-01	 1.369019803461438e+01
 1.709955319066555e+00	 3.282549018922546e-01	 1.369756048462715e+01
 1.706959883277467e+00	 3.434916594049757e-01	 1.370383632086523e+01
 1.703820038517378e+00	 3.587421515108909e-01	 1.371096898800052e+01
 1.700535030106145e+00	 3.740044869130089e-01	 1.372084763848803e+01
 1.697104133495052e+00	 3.892767509318406e-01	 1.373103861457212e+01
 1.693526654986833e+00	 4.045570060362953e-01	 1.374026238576638e+01
 1.689801932446728e+00	 4.198432923981320e-01	 1.374883080152003e+01
 1.685929336003742e+00	 4.351336284698814e-01	 1.375706741229770e+01
 1.681908268741285e+00	 4.504260115861295e-01	 1.376530312263188e+01
 1.724208757831753e+00	 2.993391595968430e-01	 1.363386797479782e+01
 1.721486032397711e+00	 3.146199082407106e-01	 1.364484635187500e+01
 1.718619771189080e+00	 3.299181903137919e-01	 1.365267433586485e+01
 1.715609157336470e+00	 3.452321534435868e-01	 1.365919725496737e+01
 1.712453402783494e+00	 3.605599207606334e-01	 1.366639074513631e+01
 1.709151749026000e+00	 3.758995913846277e-01	 1.367600417911262e+01
 1.705703467843944e+00	 3.912492409342873e-01	 1.368567874556419e+01
 1.702107862025056e+00	 4.066069220609381e-01	 1.369474550521348e+01
 1.698364266079504e+00	 4.219706650057746e-01	 1.370353984264791e+01
 1.694472046944702e+00	 4.373384781807103e-01	 1.371241007259064e+01
 1.690430604679450e+00	 4.527083487727079e-01	 1.372171282943257e+01
 1.732901386930710e+00	 3.008482832918692e-01	 1.358809893387023e+01
 1.730164934827652e+00	 3.162060701013855e-01	 1.359991907669392e+01
 1.727284223311878e+00	 3.315814787351915e-01	 1.360833947018966e+01
 1.724258431395744e+00	 3.469726474820292e-01	 1.361522530721325e+01
 1.721086767049868e+00	 3.623776900101769e-01	 1.362258050999908e+01
 1.717768467946097e+00	 3.777946958560200e-01	 1.363198617909119e+01
 1.714302802193058e+00	 3.932217309364849e-01	 1.364135970842383e+01
 1.710689069063482e+00	 4.086568380853161e-01	 1.365047537354717e+01
 1.706926599712465e+00	 4.240980376131451e-01	 1.365969205378156e+01
 1.703014757885835e+00	 4.395433278912708e-01	 1.366938259372123e+01
 1.698952940617783e+00	 4.549906859590346e-01	 1.367992891659485e+01
 1.741594025880697e+00	 3.023574086968733e-01	 1.354252574946287e+01
 1.738843847093102e+00	 3.177922337593199e-01	 1.355531790820217e+01
 1.735948685253829e+00	 3.332447690412335e-01	 1.356445178367776e+01
 1.732907715256979e+00	 3.487131434925884e-01	 1.357180847271268e+01
 1.729720141100172e+00	 3.641954613193933e-01	 1.357941612562492e+01
 1.726385196631251e+00	 3.796898024747132e-01	 1.358868904161019e+01
 1.722902146287515e+00	 3.951942231736733e-01	 1.359796381135399e+01
 1.719270285826692e+00	 4.107067564324263e-01	 1.360731818818483e+01
 1.715488943048805e+00	 4.262254126310313e-01	 1.361713459227669e+01
 1.711557478508091e+00	 4.417481801001611e-01	 1.362781024962283e+01
 1.707475286214137e+00	 4.572730257315262e-01	 1.363975201624700e+01
 1.750286684532495e+00	 3.038665375219142e-01	 1.349705340312923e+01
 1.747522779029300e+00	 3.193784010118813e-01	 1.351094507647789e+01
 1.744613166833812e+00	 3.349080631166978e-01	 1.352090890244852e+01
 1.741557018721864e+00	 3.504536434475494e-01	 1.352883776670906e+01
 1.738353534718078e+00	 3.660132367481540e-01	 1.353677983180877e+01
 1.735001944846279e+00	 3.815849133882341e-01	 1.354601355957696e+01
 1.731501509872435e+00	 3.971667198810918e-01	 1.355537943704588e+01
 1.727851522039264e+00	 4.127566794252661e-01	 1.356514695849498e+01
 1.724051305791712e+00	 4.283527924702203e-01	 1.357572221836903e+01
 1.720100218492421e+00	 4.439530373059796e-01	 1.358752676217715e+01
 1.715997651126365e+00	 4.595553706765994e-01	 1.360099210824628e+01
 1.758979372736888e+00	 3.053756714770509e-01	 1.345158662892299e+01
 1.756201740471491e+00	 3.209645736564372e-01	 1.346670368413959e+01
 1.753277677870706e+00	 3.365713628463647e-01	 1.347761054004017e+01
 1.750206351592092e+00	 3.521941493191978e-01	 1.348620759728251e+01
 1.746986957687255e+00	 3.678310183563307e-01	 1.349455865264431e+01
 1.743618722355998e+00	 3.834800307441098e-01	 1.350386601158604e+01
 1.740100902692939e+00	 3.991392232939802e-01	 1.351350113141980e+01
 1.736432787425782e+00	 4.148066093868323e-01	 1.352384158646636e+01
 1.732613697644382e+00	 4.304801795414998e-01	 1.353531736694606e+01
 1.728642987519778e+00	 4.461579020073241e-01	 1.354837436328650e+01
 1.724520045012323e+00	 4.618377233806708e-01	 1.356346857176959e+01
 1.767672100344656e+00	 3.068848122723423e-01	 1.340603023533155e+01
 1.764880741254913e+00	 3.225507534903543e-01	 1.342249804462930e+01
 1.761942228183390e+00	 3.382346701150138e-01	 1.343445885165787e+01
 1.758855723669352e+00	 3.539346630798190e-01	 1.344381613514123e+01
 1.755620419791376e+00	 3.696488082037950e-01	 1.345264478140382e+01
 1.752235538925222e+00	 3.853751566898675e-01	 1.346215825548298e+01
 1.748700334494149e+00	 4.011117356475780e-01	 1.347222969026438e+01
 1.745014091710825e+00	 4.168565486401224e-01	 1.348328894560767e+01
 1.741176128310005e+00	 4.326075762556573e-01	 1.349579021791690e+01
 1.737185795271111e+00	 4.483627767027928e-01	 1.351020385594213e+01
 1.733042477529863e+00	 4.641200864301568e-01	 1.352701023633290e+01
 1.647818731833210e+00	 4.412966111089680e-01	 1.396203968616246e+01
 1.643733151977962e+00	 4.562790661767426e-01	 1.396649895149914e+01
 1.639501042591871e+00	 4.712595443241352e-01	 1.396936229768330e+01
 1.635121921820524e+00	 4.862360264949822e-01	 1.397114783221568e+01
 1.630595342686944e+00	 5.012064755825806e-01	 1.397232374120058e+01
 1.625920893701830e+00	 5.161688371304689e-01	 1.397330537052025e+01
 1.621098199458452e+00	 5.311210400547071e-01	 1.397445279245026e+01
 1.616126921211349e+00	 5.460609973873246e-01	 1.397606890562449e+01
 1.611006757438059e+00	 5.609866070405668e-01	 1.397839811383274e+01
 1.605737444383062e+00	 5.758957525915405e-01	 1.398162562627934e+01
 1.600318756583150e+00	 5.907863040868249e-01	 1.398587741864597e+01
 1.656341164349248e+00	 4.435789741607188e-01	 1.390904507852184e+01
 1.652234454088311e+00	 4.586389177044359e-01	 1.391374497181848e+01
 1.647980456453456e+00	 4.736968741032095e-01	 1.391672279322045e+01
 1.643578687098146e+00	 4.887508138584320e-01	 1.391857030522189e+01
 1.639028696733660e+00	 5.037986893275994e-01	 1.391982728810227e+01
 1.634330071742502e+00	 5.188384354287178e-01	 1.392097834758719e+01
 1.629482434776356e+00	 5.338679703663182e-01	 1.392245022748132e+01
 1.624485445337789e+00	 5.488851963787497e-01	 1.392460967734007e+01
 1.619338800344882e+00	 5.638880005063789e-01	 1.392776192274600e+01
 1.614042234677985e+00	 5.788742553802928e-01	 1.393214978280389e+01
 1.608595521707807e+00	 5.938418200310728e-01	 1.393795347607388e+01
 1.664863558234037e+00	 4.458613268665516e-01	 1.385874674645263e+01
 1.660735717663242e+00	 4.609987585349868e-01	 1.386394746249422e+01
 1.656459831878910e+00	 4.761341928339932e-01	 1.386724860131543e+01
 1.652035414042385e+00	 4.912655898225607e-01	 1.386931220651007e+01
 1.647462012553212e+00	 5.063908913224280e-01	 1.387074641856046e+01
 1.642739211665698e+00	 5.215080216261104e-01	 1.387210200946279e+01
 1.637866632089948e+00	 5.366148882266542e-01	 1.387386944238077e+01
 1.632843931576560e+00	 5.517093825687712e-01	 1.387647650860455e+01
 1.627670805484157e+00	 5.667893808209925e-01	 1.388028659150933e+01
 1.622346987328963e+00	 5.818527446684303e-01	 1.388559760415721e+01
 1.616872249315604e+00	 5.968973221257119e-01	 1.389264164368061e+01
 1.673385923145432e+00	 4.481436718128828e-01	 1.381090845959994e+01
 1.669236952336652e+00	 4.633585913426253e-01	 1.381684205246007e+01
 1.664939178477311e+00	 4.785715032785140e-01	 1.382065065539073e+01
 1.660492112236637e+00	 4.937803572371674e-01	 1.382306334419059e+01
 1.655895299702445e+00	 5.089830845045967e-01	 1.382475350500477e+01
 1.651148323000847e+00	 5.241775987478600e-01	 1.382633509605259e+01
 1.646250800900371e+00	 5.393617967485482e-01	 1.382835945498412e+01
 1.641202389399645e+00	 5.545335591577688e-01	 1.383131270640312e+01
 1.636002782297841e+00	 5.696907512722504e-01	 1.383561382142755e+01
 1.630651711747051e+00	 5.848312238311610e-01	 1.384161337800812e+01
 1.625148948785818e+00	 5.999528138332071e-01	 1.384959306710382e+01
 1.681908268741285e+00	 4.504260115861295e-01	 1.376530312263188e+01
 1.677738167742438e+00	 4.657184188015822e-01	 1.377217444737326e+01
 1.673418505857737e+00	 4.810088081988005e-01	 1.377665083908726e+01
 1.668948791264298e+00	 4.962951189520506e-01	 1.377952528110568e+01
 1.664328567738204e+00	 5.115752718116370e-01	 1.378153340930677e+01
 1.659557415277376e+00	 5.268471698191787e-01	 1.378334950074127e+01
 1.654634950708765e+00	 5.421086990448331e-01	 1.378558302904951e+01
 1.649560828279031e+00	 5.573577293461230e-01	 1.378877584351901e+01
 1.644334740227887e+00	 5.725921151479938e-01	 1.379340002588195e+01
 1.638956417343301e+00	 5.878096962436918e-01	 1.379985647569776e+01
 1.633425629497728e+00	 6.030082986160218e-01	 1.380847427142285e+01
 1.690430604679450e+00	 4.527083487727079e-01	 1.372171282943257e+01
 1.686239373514498e+00	 4.680782435860881e-01	 1.372970047213881e+01
 1.681897823629267e+00	 4.834461103568807e-01	 1.373498201944945e+01
 1.677405460708763e+00	 4.988098778170094e-01	 1.373841136105280e+01
 1.672761826217336e+00	 5.141674561810792e-01	 1.374078350446455e+01
 1.667966498024715e+00	 5.295167378652795e-01	 1.374283029000453e+01
 1.663019091016273e+00	 5.448555982283418e-01	 1.374521669430353e+01
 1.657919257686699e+00	 5.601818963342132e-01	 1.374853778155938e+01
 1.652666688716252e+00	 5.754934757360649e-01	 1.375331635891918e+01
 1.647261113528766e+00	 5.907881652812301e-01	 1.376000138900821e+01
 1.641702300830611e+00	 6.060637799366203e-01	 1.376896720875654e+01
 1.698952940617783e+00	 4.549906859590346e-01	 1.367992891659485e+01
 1.694740579286728e+00	 4.704380683703731e-01	 1.368918611321740e+01
 1.690377141400980e+00	 4.858834125147833e-01	 1.369538808031817e+01
 1.685862130153426e+00	 5.013246366818425e-01	 1.369944673557744e+01
 1.681195084696685e+00	 5.167596405504542e-01	 1.370221369715519e+01
 1.676375580772290e+00	 5.321863059113747e-01	 1.370447572412234e+01
 1.671403231324035e+00	 5.476024974119074e-01	 1.370695076775765e+01
 1.666277687094635e+00	 5.630060633224198e-01	 1.371028469535467e+01
 1.660998637204889e+00	 5.783948363243064e-01	 1.371504874524836e+01
 1.655565809714499e+00	 5.937666343189831e-01	 1.372173776830616e+01
 1.649978972163745e+00	 6.091192612574668e-01	 1.373076930713244e+01
 1.707475286214137e+00	 4.572730257315262e-01	 1.363975201624700e+01
 1.703241794693026e+00	 4.727978958286677e-01	 1.365040756073513e+01
 1.698856468781952e+00	 4.883207174345360e-01	 1.365762395593387e+01
 1.694318809181683e+00	 5.038393983963487e-01	 1.366236839132587e+01
 1.689628352733099e+00	 5.193518278572928e-01	 1.366554645113568e+01
 1.684784673049533e+00	 5.348558769826773e-01	 1.366799727896820e+01
 1.679787381133194e+00	 5.503493997083625e-01	 1.367048937626384e+01
 1.674636125974823e+00	 5.658302335111224e-01	 1.367371709869610e+01
 1.669330595135754e+00	 5.812962002005597e-01	 1.367829791161066e+01
 1.663870515311554e+00	 5.967451067321586e-01	 1.368477046202718e+01
 1.658255652876409e+00	 6.121747460410251e-01	 1.369359352059882e+01
 1.715997651126365e+00	 4.595553706765994e-01	 1.360099210824627e+01
 1.711743029367289e+00	 4.751577286352023e-01	 1.361315125041136e+01
 1.707335815381264e+00	 4.907580278781677e-01	 1.362145566475347e+01
 1.702775507376929e+00	 5.063541658103270e-01	 1.362692517794911e+01
 1.698061639883421e+00	 5.219440210391257e-01	 1.363051681147374e+01
 1.693193784385869e+00	 5.375254541043998e-01	 1.363311966884685e+01
 1.688171549944891e+00	 5.530963082305402e-01	 1.363555048027732e+01
 1.682994583799245e+00	 5.686544101007009e-01	 1.363854987137702e+01
 1.677662571950802e+00	 5.841975706526670e-01	 1.364277941948717e+01
 1.672175239730982e+00	 5.997235858959632e-01	 1.364881955746867e+01
 1.666532352347879e+00	 6.152302377497595e-01	 1.365716838055032e+01
 1.724520045012323e+00	 4.618377233806708e-01	 1.356346857176959e+01
 1.720244292943415e+00	 4.775175694642075e-01	 1.357721390532117e+01
 1.715815190807992e+00	 4.931953466077065e-01	 1.358666034348342e+01
 1.711232234322559e+00	 5.088689417735761e-01	 1.359287783654916e+01
 1.706494955704498e+00	 5.245362230334839e-01	 1.359687242959111e+01
 1.701602924310728e+00	 5.401950403017549e-01	 1.359958087035641e+01
 1.696555747260267e+00	 5.558432260912735e-01	 1.360186589879702e+01
 1.691353070039889e+00	 5.714785962915360e-01	 1.360451228750624e+01
 1.685994577091986e+00	 5.870989509684701e-01	 1.360822369911120e+01
 1.680479992383838e+00	 6.027020751856048e-01	 1.361362042285908e+01
 1.674809079957435e+00	 6.182857398461339e-01	 1.362123804823981e+01
 1.733042477529863e+00	 4.641200864301568e-01	 1.352701023633291e+01
 1.728745595055301e+00	 4.798774209899135e-01	 1.354240257750688e+01
 1.724294604671216e+00	 4.956326763851802e-01	 1.355302628133196e+01
 1.719688999601968e+00	 5.113837291358949e-01	 1.355999902866039e+01
 1.714928309753177e+00	 5.271284367778979e-01	 1.356437358910211e+01
 1.710012102353537e+00	 5.428646385999550e-01	 1.356713214725152e+01
 1.704939982580465e+00	 5.585901564033950e-01	 1.356918133545578e+01
 1.699711594168736e+00	 5.743027952840064e-01	 1.357134804506152e+01
 1.694326620001263e+00	 5.900003444358111e-01	 1.357437608475445e+01
 1.688784782681174e+00	 6.056805779762906e-01	 1.357892375067399e+01
 1.683085845084354e+00	 6.213412557926126e-01	 1.358556236845047e+01
 1.600318756583150e+00	 5.907863040868249e-01	 1.398587741864597e+01
 1.594749547809442e+00	 6.056586448851704e-01	 1.398994841433228e+01
 1.589030578234766e+00	 6.205080855838191e-01	 1.399245566329894e+01
 1.583161739102190e+00	 6.353324588153144e-01	 1.399315178179364e+01
 1.577142961876711e+00	 6.501295870550968e-01	 1.399170523251620e+01
 1.570974218667745e+00	 6.648972835192715e-01	 1.398770398379088e+01
 1.564655522628555e+00	 6.796333530791189e-01	 1.398066001917402e+01
 1.558186928331899e+00	 6.943355931916823e-01	 1.397001470365312e+01
 1.551568532121260e+00	 7.090017948457507e-01	 1.395514500634891e+01
 1.544800472436973e+00	 7.236297435225104e-01	 1.393537057314579e+01
 1.537882930116643e+00	 7.382172201701207e-01	 1.390996163598615e+01
 1.608595521707807e+00	 5.938418200310728e-01	 1.393795347607387e+01
 1.602997509277234e+00	 6.087910798001855e-01	 1.394380209939844e+01
 1.597248961490656e+00	 6.237173210315192e-01	 1.394811401292566e+01
 1.591349769028650e+00	 6.386183651480929e-01	 1.395064679356621e+01
 1.585299863001743e+00	 6.534920233632905e-01	 1.395107625059647e+01
 1.579099215375095e+00	 6.683360975832727e-01	 1.394900023096416e+01
 1.572747839369985e+00	 6.831483813262159e-01	 1.394394330457409e+01
 1.566245789841413e+00	 6.979266606577132e-01	 1.393536233608011e+01
 1.559593163631132e+00	 7.126687151416503e-01	 1.392265294325621e+01
 1.552790099895475e+00	 7.273723188058236e-01	 1.390515683530635e+01
 1.545836780407322e+00	 7.420352411215599e-01	 1.388208457456169e+01
 1.616872249315604e+00	 5.968973221257119e-01	 1.389264164368061e+01
 1.611245433358750e+00	 6.119235005170082e-01	 1.389992645229856e+01
 1.605467307494346e+00	 6.269265419329606e-01	 1.390572407830587e+01
 1.599537761840478e+00	 6.419042565871179e-01	 1.390980647388420e+01
 1.593456727153211e+00	 6.568544444308595e-01	 1.391186617666738e+01
 1.587224175253451e+00	 6.717748960604545e-01	 1.391152025105949e+01
 1.580840119430500e+00	 6.866633936410271e-01	 1.390831513995650e+01
 1.574304614821597e+00	 7.015177118467740e-01	 1.390173243381074e+01
 1.567617758766773e+00	 7.163356188167297e-01	 1.389119555729880e+01
 1.560779691138358e+00	 7.311148771253555e-01	 1.387607736691790e+01
 1.553790594644505e+00	 7.458532447671977e-01	 1.385443913083597e+01
 1.625148948785818e+00	 5.999528138332071e-01	 1.384959306710382e+01
 1.619493329400616e+00	 6.150559105852523e-01	 1.385798161953329e+01
 1.613685625558930e+00	 6.301357519247762e-01	 1.386495488938206e+01
 1.607725726816363e+00	 6.451901368558953e-01	 1.387030849538337e+01
 1.601613563574521e+00	 6.602168540680251e-01	 1.387376095605922e+01
 1.595349107510062e+00	 6.752136828475820e-01	 1.387495775698553e+01
 1.588932371980313e+00	 6.901783940066796e-01	 1.387347635979782e+01
 1.582363412404756e+00	 7.051087508281577e-01	 1.386883216032482e+01
 1.575642326621699e+00	 7.200025100262405e-01	 1.386048539633380e+01
 1.568769255219473e+00	 7.348574227220940e-01	 1.384784899820155e+01
 1.561744381841501e+00	 7.496712354335255e-01	 1.382649241258012e+01
 1.633425629497728e+00	 6.030082986160218e-01	 1.380847427142285e+01
 1.627741206749456e+00	 6.181883135545332e-01	 1.381764339046499e+01
 1.621903924997503e+00	 6.333449546435992e-01	 1.382549139576104e+01
 1.615913673234995e+00	 6.484760096779303e-01	 1.383184674280517e+01
 1.609770381509082e+00	 6.635792560850070e-01	 1.383646305644160e+01
 1.603474021352178e+00	 6.786524618414203e-01	 1.383902331406737e+01
 1.597024606189638e+00	 6.936933864063001e-01	 1.383914500285604e+01
 1.590422191723191e+00	 7.086997816711573e-01	 1.383638625887489e+01
 1.583666876289425e+00	 7.236693929254333e-01	 1.383025298883708e+01
 1.576758801192669e+00	 7.385999598370276e-01	 1.382020696781804e+01
 1.569698151011624e+00	 7.534892174470363e-01	 1.379804547355734e+01
 1.641702300830611e+00	 6.060637799366203e-01	 1.376896720875654e+01
 1.635989074751892e+00	 6.213207129744660e-01	 1.377860325729596e+01
 1.630122215123158e+00	 6.365541537260619e-01	 1.378703453946103e+01
 1.624101610375062e+00	 6.517618787767294e-01	 1.379413139883208e+01
 1.617927190200303e+00	 6.669416542920266e-01	 1.379969156699776e+01
 1.611598925987050e+00	 6.820912369387343e-01	 1.380344445273949e+01
 1.605116831228692e+00	 6.972083748230155e-01	 1.380505643849001e+01
 1.598480961909206e+00	 7.122908084450653e-01	 1.380413719246534e+01
 1.591691416863465e+00	 7.273362716695597e-01	 1.380024699750166e+01
 1.584748338111799e+00	 7.423424927111454e-01	 1.379278312185832e+01
 1.577651911168186e+00	 7.573071951342214e-01	 1.376892920602499e+01
 1.649978972163745e+00	 6.091192612574668e-01	 1.373076930713245e+01
 1.644236942754549e+00	 6.244531123946657e-01	 1.374056847618020e+01
 1.638340505248992e+00	 6.397633528087979e-01	 1.374930132865204e+01
 1.632289547515254e+00	 6.550477478757979e-01	 1.375688903077727e+01
 1.626083998891588e+00	 6.703040524993036e-01	 1.376318229831759e+01
 1.619723830621925e+00	 6.855300120362899e-01	 1.376796578182644e+01
 1.613209056267688e+00	 7.007233632399521e-01	 1.377096349344223e+01
 1.606539732095105e+00	 7.158818352191755e-01	 1.377184528418061e+01
 1.599715957437335e+00	 7.310031504138707e-01	 1.377023437308049e+01
 1.592737875030714e+00	 7.460850255854347e-01	 1.376442012833882e+01
 1.585605671324500e+00	 7.611251728215738e-01	 1.373900348742822e+01
 1.658255652876409e+00	 6.121747460410251e-01	 1.369359352059882e+01
 1.652484820104049e+00	 6.275855153647469e-01	 1.370326212944428e+01
 1.646558804688096e+00	 6.429725555284406e-01	 1.371202491237119e+01
 1.640477493934259e+00	 6.583336206986412e-01	 1.371986267811647e+01
 1.634240816826348e+00	 6.736664545170594e-01	 1.372668788300159e+01
 1.627848744464055e+00	 6.889687910308514e-01	 1.373234910240874e+01
 1.621301290476840e+00	 7.042383556402374e-01	 1.373663657908826e+01
 1.614598511413189e+00	 7.194728660627809e-01	 1.373928885786905e+01
 1.607740507104548e+00	 7.346700333136170e-01	 1.374000050848546e+01
 1.600727421003264e+00	 7.498275627008844e-01	 1.373477612987945e+01
 1.593559440493879e+00	 7.649431548355849e-01	 1.370815632745430e+01
 1.666532352347879e+00	 6.152302377497595e-01	 1.365716838055032e+01
 1.660732716147017e+00	 6.307179254343253e-01	 1.366642318889363e+01
 1.654777122753566e+00	 6.461817655216219e-01	 1.367495465619461e+01
 1.648665458910769e+00	 6.616195009687654e-01	 1.368281194084803e+01
 1.642397653247990e+00	 6.770288641555141e-01	 1.368997787696887e+01
 1.635973676720688e+00	 6.924075778191846e-01	 1.369637352227289e+01
 1.629393543026364e+00	 7.077533560069982e-01	 1.370186381915564e+01
 1.622657308995762e+00	 7.230639050451743e-01	 1.370626437919091e+01
 1.615765074958621e+00	 7.383369245240503e-01	 1.370934939315476e+01
 1.608716985083301e+00	 7.535701082984831e-01	 1.370374299299263e+01
 1.601513227689634e+00	 7.687611455027475e-01	 1.367630301542564e+01
 1.674809079957435e+00	 6.182857398461339e-01	 1.362123804823981e+01
 1.668980640230075e+00	 6.338503461530152e-01	 1.362980658018255e+01
 1.662995468758496e+00	 6.493909864249758e-01	 1.363785621884953e+01
 1.656853451723470e+00	 6.649053924096762e-01	 1.364551306867058e+01
 1.650554517399921e+00	 6.803912852248885e-01	 1.365283886146236e+01
 1.644098636599075e+00	 6.958463762980542e-01	 1.365983557094258e+01
 1.637485823086475e+00	 7.112683683233613e-01	 1.366645117791563e+01
 1.630716133975127e+00	 7.266549562356488e-01	 1.367258659703807e+01
 1.623789670093067e+00	 7.420038282004217e-01	 1.367803388340911e+01
 1.616706576324676e+00	 7.573126666192189e-01	 1.367123950639695e+01
 1.609467041925078e+00	 7.725791491495535e-01	 1.364338526800772e+01
 1.683085845084354e+00	 6.213412557926126e-01	 1.358556236845047e+01
 1.677228601699849e+00	 6.369827810704320e-01	 1.359318324822618e+01
 1.671213852015979e+00	 6.526002218751347e-01	 1.360051162974931e+01
 1.665041481651053e+00	 6.681912987448789e-01	 1.360775905096657e+01
 1.658711418525549e+00	 6.837537215354029e-01	 1.361507454574475e+01
 1.652223633306464e+00	 6.992851903642255e-01	 1.362254931529063e+01
 1.645578139827386e+00	 7.147833965724529e-01	 1.363022258885065e+01
 1.638774995483586e+00	 7.302460237034971e-01	 1.363808868533271e+01
 1.631814301601403e+00	 7.456707484979819e-01	 1.364510651844498e+01
 1.624696203781240e+00	 7.610552419040804e-01	 1.363721054843208e+01
 1.617420892213523e+00	 7.763971701024949e-01	 1.360937037720801e+01
 1.537882930116643e+00	 7.382172201701207e-01	 1.390996163598615e+01
 1.530817342383143e+00	 7.527595334762179e-01	 1.388575054947940e+01
 1.523602811473945e+00	 7.672569418828201e-01	 1.386359954150319e+01
 1.516239645717194e+00	 7.817072190453502e-01	 1.384282700595384e+01
 1.508728196747882e+00	 7.961081380806593e-01	 1.382313679031918e+01
 1.501068859672164e+00	 8.104574725985342e-01	 1.380433529660859e+01
 1.493262073202777e+00	 8.247529977420973e-01	 1.378635320247303e+01
 1.485308319765139e+00	 8.389924912361780e-01	 1.376926852910345e+01
 1.477208125573723e+00	 8.531737344426989e-01	 1.375259512673831e+01
 1.468962060678353e+00	 8.672945134221165e-01	 1.373347114824676e+01
 1.460570738980083e+00	 8.813526199999246e-01	 1.371365859068903e+01
 1.545836780407322e+00	 7.420352411215599e-01	 1.388208457456169e+01
 1.538734649822780e+00	 7.566527665132639e-01	 1.385566990123906e+01
 1.531482805736143e+00	 7.712251547596105e-01	 1.383179823543147e+01
 1.524081558070217e+00	 7.857501680014974e-01	 1.381000230502611e+01
 1.516531260278639e+00	 8.002255678384668e-01	 1.378988849735010e+01
 1.508832309511039e+00	 8.146491163655438e-01	 1.377115756305108e+01
 1.500985146749157e+00	 8.290185772190212e-01	 1.375362674578912e+01
 1.492990256913498e+00	 8.433317166302503e-01	 1.373725331948193e+01
 1.484848168940095e+00	 8.575863044864871e-01	 1.372215950495372e+01
 1.476559455827043e+00	 8.717801153978217e-01	 1.370779751372287e+01
 1.468124734650470e+00	 8.859109297691988e-01	 1.369182014290634e+01
 1.553790594644505e+00	 7.458532447671977e-01	 1.385443913083597e+01
 1.546651921374522e+00	 7.605459819035407e-01	 1.382580075512849e+01
 1.539362764279550e+00	 7.751933496497118e-01	 1.380046440257443e+01
 1.531923434877050e+00	 7.897930986321384e-01	 1.377786860552895e+01
 1.524334288439294e+00	 8.043429789331048e-01	 1.375751673159670e+01
 1.516595724159373e+00	 8.188407411329298e-01	 1.373899803778700e+01
 1.508708185288027e+00	 8.332841373611287e-01	 1.372201021155400e+01
 1.500672159240829e+00	 8.476709223556291e-01	 1.370638338189343e+01
 1.492488177675361e+00	 8.619988545290729e-01	 1.369210557346536e+01
 1.484156816537980e+00	 8.762656970412377e-01	 1.367934956609554e+01
 1.475678696079867e+00	 8.904692188765717e-01	 1.366745862443406e+01
 1.561744381841501e+00	 7.496712354335255e-01	 1.382649241258012e+01
 1.554569166010277e+00	 7.644391840587833e-01	 1.379593774702206e+01
 1.547242696033798e+00	 7.791615310498432e-01	 1.376941582709936e+01
 1.539765285024175e+00	 7.938360155187009e-01	 1.374626583549738e+01
 1.532137290072307e+00	 8.084603760304231e-01	 1.372588267721250e+01
 1.524359112414744e+00	 8.230323516506624e-01	 1.370773838463067e+01
 1.516431197571211e+00	 8.375496830021967e-01	 1.369140507224144e+01
 1.508354035452344e+00	 8.520101133295683e-01	 1.367657942566699e+01
 1.500128160437264e+00	 8.664113895708461e-01	 1.366310869917325e+01
 1.491754151420574e+00	 8.807512634355336e-01	 1.365101818487775e+01
 1.483232631828501e+00	 8.950274924876223e-01	 1.364054010552163e+01
 1.569698151011624e+00	 7.534892174470363e-01	 1.379804547355734e+01
 1.562486392701951e+00	 7.683323773907269e-01	 1.376590583678016e+01
 1.555122609928514e+00	 7.831297034567219e-01	 1.373850027992265e+01
 1.547607117398071e+00	 7.978789232426116e-01	 1.371506360502600e+01
 1.539940274020142e+00	 8.125777637962718e-01	 1.369487692971914e+01
 1.532122483074731e+00	 8.272239526687130e-01	 1.367728944338075e+01
 1.524154192350537e+00	 8.418152189760019e-01	 1.366174177738852e+01
 1.516035894253259e+00	 8.563492944693228e-01	 1.364779097573030e+01
 1.507768125883542e+00	 8.708239146121964e-01	 1.363513704141909e+01
 1.499351469084235e+00	 8.852368196638790e-01	 1.362365102285899e+01
 1.490786550456598e+00	 8.995857557679301e-01	 1.361340459259992e+01
 1.577651911168186e+00	 7.573071951342214e-01	 1.376892920602498e+01
 1.570403610421449e+00	 7.722255663111065e-01	 1.373555943565137e+01
 1.563002514893328e+00	 7.870978713670665e-01	 1.370759462737505e+01
 1.555448940885220e+00	 8.019218263852984e-01	 1.368416029644509e+01
 1.547743249125264e+00	 8.166951468964999e-01	 1.366441856802105e+01
 1.539885844936908e+00	 8.314155489370509e-01	 1.364759028407640e+01
 1.531877178377833e+00	 8.460807501163210e-01	 1.363297879057322e+01
 1.523717744348785e+00	 8.606884706921472e-01	 1.361999539286304e+01
 1.515408082671938e+00	 8.752364346535142e-01	 1.360818645611370e+01
 1.506948778138374e+00	 8.897223708094435e-01	 1.359726211591424e+01
 1.498340460524385e+00	 9.041440138830750e-01	 1.358712655212986e+01
 1.585605671324500e+00	 7.611251728215738e-01	 1.373900348742822e+01
 1.578320828140682e+00	 7.761187552316575e-01	 1.370478153397666e+01
 1.570882419857871e+00	 7.910660392775954e-01	 1.367660394009906e+01
 1.563290764372101e+00	 8.059647295281894e-01	 1.365348215467197e+01
 1.555546224230132e+00	 8.208125299969571e-01	 1.363445422654683e+01
 1.547649206798856e+00	 8.356071452056480e-01	 1.361860726134237e+01
 1.539600164404925e+00	 8.503462812569315e-01	 1.360510162645037e+01
 1.531399594444139e+00	 8.650276469152958e-01	 1.359319689398441e+01
 1.523048039460192e+00	 8.796489546951893e-01	 1.358227949990967e+01
 1.514546087192402e+00	 8.942079219553957e-01	 1.357189208558765e+01
 1.505894370592088e+00	 9.087022719986346e-01	 1.356176447550921e+01
 1.593559440493879e+00	 7.649431548355849e-01	 1.370815632745430e+01
 1.586238054831554e+00	 7.800119485641144e-01	 1.367348282917560e+01
 1.578762333751769e+00	 7.950342116850261e-01	 1.364546060216064e+01
 1.571132596745197e+00	 8.100076372527115e-01	 1.362298237771894e+01
 1.563349208177210e+00	 8.249299177634930e-01	 1.360495716750108e+01
 1.555412577458151e+00	 8.397987462244746e-01	 1.359033306880521e+01
 1.547323159183641e+00	 8.546118172316092e-01	 1.357812188782826e+01
 1.539081453244534e+00	 8.693668280560232e-01	 1.356742557245879e+01
 1.530688004906044e+00	 8.840614797376110e-01	 1.355746443437482e+01
 1.522143404855727e+00	 8.986934781849051e-01	 1.354760712784207e+01
 1.513448289219931e+00	 9.132605352801891e-01	 1.353740233975496e+01
 1.601513227689634e+00	 7.687611455027475e-01	 1.367630301542564e+01
 1.594155299465974e+00	 7.839051507202124e-01	 1.364160085399235e+01
 1.586642265504654e+00	 7.990023930860769e-01	 1.361412342035460e+01
 1.578974446890986e+00	 8.140505541402923e-01	 1.359264020733940e+01
 1.571152209808963e+00	 8.290473148619573e-01	 1.357592635320678e+01
 1.563175965712369e+00	 8.439903567435010e-01	 1.356278579356328e+01
 1.555046171465808e+00	 8.588773628741321e-01	 1.355207630276914e+01
 1.546763329455181e+00	 8.737060190315838e-01	 1.354273641840053e+01
 1.538327987667236e+00	 8.884740147811697e-01	 1.353381423014685e+01
 1.529740739737763e+00	 9.031790445811413e-01	 1.352449800177772e+01
 1.521002224968144e+00	 9.178188088933179e-01	 1.351414858156619e+01
 1.609467041925078e+00	 7.725791491495535e-01	 1.364338526800772e+01
 1.602072571015848e+00	 7.877983661116872e-01	 1.360909910498082e+01
 1.594522224046154e+00	 8.029705879774656e-01	 1.358257673368321e+01
 1.586816323695951e+00	 8.180934847723598e-01	 1.356246001979150e+01
 1.578955237967851e+00	 8.331647259582001e-01	 1.354738551852029e+01
 1.570939380359091e+00	 8.481819815126986e-01	 1.353600797069131e+01
 1.562769210003252e+00	 8.631429230182764e-01	 1.352702576169367e+01
 1.554445231781298e+00	 8.780452247592319e-01	 1.351920833896070e+01
 1.545967996401508e+00	 8.928865648262553e-01	 1.351142557105209e+01
 1.537338100447917e+00	 9.076646262272738e-01	 1.350267901830062e+01
 1.528556186396950e+00	 9.223770980035991e-01	 1.349213507132662e+01
 1.617420892213523e+00	 7.763971701024949e-01	 1.360937037720801e+01
 1.609989878453082e+00	 7.916915991502730e-01	 1.357596617120589e+01
 1.602402218305899e+00	 8.069388008559107e-01	 1.355082952298709e+01
 1.594658236046571e+00	 8.221364337303407e-01	 1.353247041670031e+01
 1.586758301496337e+00	 8.372821557180704e-01	 1.351938224329904e+01
 1.578702830195891e+00	 8.523736252820372e-01	 1.351006563776045e+01
 1.570492283547801e+00	 8.674085024978190e-01	 1.350305435447156e+01
 1.562127168928098e+00	 8.823844501562221e-01	 1.349694317857479e+01
 1.553608039766600e+00	 8.972991348732569e-01	 1.349041785816699e+01
 1.544935495595602e+00	 9.121502282064712e-01	 1.348228702872069e+01
 1.536110182066576e+00	 9.269354077766122e-01	 1.347151608702748e+01
 1.460570738980083e+00	 8.813526199999246e-01	 1.371365859068903e+01
 1.452034818569231e+00	 8.953458531161863e-01	 1.368739121140198e+01
 1.443355002732013e+00	 9.092720207533125e-01	 1.364847639898812e+01
 1.434532038803360e+00	 9.231289402045261e-01	 1.359907098474001e+01
 1.425566717702133e+00	 9.369144388747375e-01	 1.354156852386155e+01
 1.416459873789150e+00	 9.506263553558497e-01	 1.347858342458287e+01
 1.407212384693646e+00	 9.642625405008262e-01	 1.341293226840044e+01
 1.397825171108125e+00	 9.778208584954495e-01	 1.334761231716855e+01
 1.388299196551591e+00	 9.912991879267010e-01	 1.328577722062582e+01
 1.378635467101188e+00	 1.004695422846675e+00	 1.323070995625915e+01
 1.368835031092330e+00	 1.018007473830945e+00	 1.318579305206363e+01
 1.468124734650470e+00	 8.859109297691988e-01	 1.369182014290634e+01
 1.459544666904305e+00	 8.999765351569259e-01	 1.366811686473314e+01
 1.450819959512134e+00	 9.139747282064182e-01	 1.363074991616181e+01
 1.441951363674070e+00	 9.279033149220556e-01	 1.358200264293781e+01
 1.432939674399574e+00	 9.417601114722038e-01	 1.352441128472486e+01
 1.423785730364742e+00	 9.555429452700802e-01	 1.346074892385897e+01
 1.414490413737870e+00	 9.692496560533729e-01	 1.339400651678269e+01
 1.405054649973241e+00	 9.828780969615490e-01	 1.332737100201952e+01
 1.395479407573138e+00	 9.964261356097552e-01	 1.326420049699743e+01
 1.385765697818091e+00	 1.009891655158237e+00	 1.320799661495694e+01
 1.375914574465458e+00	 1.023272555376175e+00	 1.316237395246936e+01
 1.475678696079867e+00	 8.904692188765717e-01	 1.366745862443406e+01
 1.467054481198550e+00	 9.046071962076796e-01	 1.364676588136927e+01
 1.458284882454965e+00	 9.186774143430325e-01	 1.361138197327440e+01
 1.449370654914387e+00	 9.326776679982201e-01	 1.356371390168267e+01
 1.440312597676858e+00	 9.466057621051132e-01	 1.350643834197201e+01
 1.431111553733727e+00	 9.604595128982916e-01	 1.344248542443013e+01
 1.421768409792328e+00	 9.742367490002224e-01	 1.337501948643343e+01
 1.412284096068702e+00	 9.879353125041045e-01	 1.330741678763442e+01
 1.402659586048385e+00	 1.001553060053302e+00	 1.324324019910644e+01
 1.392895896215265e+00	 1.015087863916258e+00	 1.318621089694750e+01
 1.382994085748618e+00	 1.028537613055813e+00	 1.314017711077934e+01
 1.483232631828501e+00	 8.950274924876223e-01	 1.364054010552163e+01
 1.474564269962160e+00	 9.092378415160540e-01	 1.362322539046935e+01
 1.465749780019818e+00	 9.233800844923938e-01	 1.359027427136911e+01
 1.456789920931904e+00	 9.374520048434779e-01	 1.354411935965273e+01
 1.447685495889017e+00	 9.514513962647224e-01	 1.348757541729038e+01
 1.438437352197751e+00	 9.653760638121085e-01	 1.342372791114964e+01
 1.429046381104456e+00	 9.792238249929172e-01	 1.335591349590348e+01
 1.419513517586915e+00	 9.929925108541201e-01	 1.328769734312908e+01
 1.409839740113895e+00	 1.006679967067332e+00	 1.322284732609755e+01
 1.400026070372627e+00	 1.020284055009235e+00	 1.316530508995048e+01
 1.390073572964280e+00	 1.033802652836363e+00	 1.311915405755672e+01
 1.490786550456598e+00	 8.995857557679301e-01	 1.361340459259992e+01
 1.482074041705324e+00	 9.138684763296547e-01	 1.359742325061085e+01
 1.473214660666004e+00	 9.280827439837377e-01	 1.356736094146404e+01
 1.464209170134208e+00	 9.422263308682883e-01	 1.352316687885953e+01
 1.455058377391087e+00	 9.562970194422910e-01	 1.346778222881610e+01
 1.445763134058461e+00	 9.702926035831553e-01	 1.340444599519551e+01
 1.436324335921691e+00	 9.842108896830017e-01	 1.333666601400853e+01
 1.426742922720285e+00	 9.980496977425981e-01	 1.326819590349941e+01
 1.417019877906233e+00	 1.011806862461838e+00	 1.320300874820942e+01
 1.407156228370093e+00	 1.025480234325661e+00	 1.314526754583749e+01
 1.397153044134917e+00	 1.039067680684324e+00	 1.309929246699111e+01
 1.498340460524385e+00	 9.041440138830750e-01	 1.358712655212986e+01
 1.489583804938235e+00	 9.184991058960881e-01	 1.357105737550241e+01
 1.480679532852836e+00	 9.327853981463010e-01	 1.354260981691028e+01
 1.471628410928892e+00	 9.470006514831086e-01	 1.350083887437735e+01
 1.462431250538099e+00	 9.611426371290773e-01	 1.344705379752935e+01
 1.453088907617503e+00	 9.752091377830566e-01	 1.338464523640392e+01
 1.443602282491466e+00	 9.891979487220194e-01	 1.331729099734977e+01
 1.433972319661219e+00	 1.003106878900542e+00	 1.324893262155591e+01
 1.424200007561964e+00	 1.016933752046808e+00	 1.318374857233302e+01
 1.414286378287581e+00	 1.030676407754032e+00	 1.312612405900932e+01
 1.404232507283000e+00	 1.044332702566201e+00	 1.308061754727686e+01
 1.505894370592088e+00	 9.087022719986346e-01	 1.356176447550921e+01
 1.497093568171084e+00	 9.231297354629593e-01	 1.354547428748652e+01
 1.488144405039622e+00	 9.374880523093198e-01	 1.351703379668744e+01
 1.479047651723543e+00	 9.517749720983979e-01	 1.347715360402007e+01
 1.469804123685088e+00	 9.659882548163403e-01	 1.342542175357015e+01
 1.460414681176524e+00	 9.801256719834367e-01	 1.336436846548000e+01
 1.450880229061219e+00	 9.941850077615138e-01	 1.329784022765239e+01
 1.441201716602122e+00	 1.008164060058956e+00	 1.322996591960420e+01
 1.431380137217650e+00	 1.022060641632236e+00	 1.316512950723000e+01
 1.421416528205009e+00	 1.035872581182843e+00	 1.310793924433155e+01
 1.411311970431000e+00	 1.049597724448495e+00	 1.306319343043118e+01
 1.513448289219931e+00	 9.132605352801891e-01	 1.353740233975496e+01
 1.504603339914063e+00	 9.277603702778745e-01	 1.352077606034739e+01
 1.495609285685678e+00	 9.421907118020318e-01	 1.349223363578345e+01
 1.486466900925753e+00	 9.565492981246134e-01	 1.345262994372604e+01
 1.477177005187087e+00	 9.708338779953380e-01	 1.340295564255274e+01
 1.467740463037171e+00	 9.850422117559205e-01	 1.334369710616608e+01
 1.458158183878383e+00	 9.991720724530285e-01	 1.327840464900879e+01
 1.448431121735399e+00	 1.013221246948842e+00	 1.321139384096181e+01
 1.438560275009860e+00	 1.027187537028112e+00	 1.314725422850315e+01
 1.428546686202294e+00	 1.041068760500588e+00	 1.309081791472361e+01
 1.418391441601388e+00	 1.054862752297708e+00	 1.304712456165474e+01
 1.521002224968144e+00	 9.178188088933179e-01	 1.351414858156619e+01
 1.512113128677363e+00	 9.323910155884400e-01	 1.349708915919342e+01
 1.503074183250311e+00	 9.468933819536728e-01	 1.346836929037223e+01
 1.493886166943114e+00	 9.613236349722156e-01	 1.342887466208965e+01
 1.484549903399128e+00	 9.756795121573290e-01	 1.337990284813780e+01
 1.475066261501091e+00	 9.899587626721326e-01	 1.332275249744984e+01
 1.465436155190395e+00	 1.004159148448107e+00	 1.325911570510908e+01
 1.455660543253458e+00	 1.018278445301203e+00	 1.319335540139624e+01
 1.445740429075154e+00	 1.032314444044426e+00	 1.313026674340948e+01
 1.435676860359353e+00	 1.046264951595763e+00	 1.307490645849757e+01
 1.425470928816637e+00	 1.060127792080343e+00	 1.303255708833278e+01
 1.528556186396950e+00	 9.223770980035991e-01	 1.349213507132662e+01
 1.519622942971177e+00	 9.370216766422617e-01	 1.347456340083539e+01
 1.510539106192834e+00	 9.515960680934792e-01	 1.344560931957328e+01
 1.501305458183212e+00	 9.660979880516606e-01	 1.340618576328433e+01
 1.491922826676247e+00	 9.805251627935724e-01	 1.335762236611250e+01
 1.482392084869929e+00	 9.948753303036967e-01	 1.330170628117612e+01
 1.472714151244691e+00	 1.009146241398292e+00	 1.324014667654148e+01
 1.462889989348705e+00	 1.023335660847044e+00	 1.317603194057209e+01
 1.452920607550100e+00	 1.037441368491171e+00	 1.311435375560633e+01
 1.442807058756104e+00	 1.051461160356861e+00	 1.306039421653990e+01
 1.432550440099217e+00	 1.065392849762901e+00	 1.301968024877593e+01
 1.536110182066576e+00	 9.269354077766122e-01	 1.347151608702747e+01
 1.527132791305695e+00	 9.416523586869447e-01	 1.345337091407025e+01
 1.518004062972558e+00	 9.562987755506877e-01	 1.342414452963863e+01
 1.508724783053639e+00	 9.708723627734075e-01	 1.338477355836097e+01
 1.499295783373475e+00	 9.853708353953261e-01	 1.333661597778510e+01
 1.489717941445333e+00	 9.997919202222378e-01	 1.328149279885876e+01
 1.479992180288704e+00	 1.014133356955129e+00	 1.322171401824437e+01
 1.470119468213546e+00	 1.028392899317367e+00	 1.315964847358946e+01
 1.460100818571260e+00	 1.042568316178337e+00	 1.309974602991674e+01
 1.449937289472463e+00	 1.056657392672377e+00	 1.304751485942779e+01
 1.439629983471600e+00	 1.070657931311884e+00	 1.300872776079615e+01
 1.368835031092330e+00	 1.018007473830945e+00	 1.318579305206363e+01
 1.358897279024179e+00	 1.031235508845077e+00	 1.313759271556538e+01
 1.348825002563662e+00	 1.044375196923073e+00	 1.307391290821322e+01
 1.338619380955441e+00	 1.057424495877113e+00	 1.300004842337158e+01
 1.328281634245983e+00	 1.070381384178622e+00	 1.292128677301202e+01
 1.317813022826219e+00	 1.083243861977478e+00	 1.284286406764746e+01
 1.307214846943933e+00	 1.096009952109289e+00	 1.276991882686884e+01
 1.296488446186282e+00	 1.108677701089683e+00	 1.270744390524555e+01
 1.285635198932836e+00	 1.121245180094562e+00	 1.264708300708593e+01
 1.274656521779600e+00	 1.133710485925326e+00	 1.256402278969798e+01
 1.263553868934508e+00	 1.146071741958044e+00	 1.245660996449588e+01
 1.375914574465458e+00	 1.023272555376175e+00	 1.316237395246935e+01
 1.365925424862099e+00	 1.036569005097845e+00	 1.311429727881089e+01
 1.355801055113290e+00	 1.049776650957703e+00	 1.305191925026064e+01
 1.345542650562677e+00	 1.062893440205820e+00	 1.298070922331929e+01
 1.335151437566738e+00	 1.075917340858361e+00	 1.290613898402620e+01
 1.324628683035069e+00	 1.088846342722065e+00	 1.283363747067557e+01
 1.313975693940261e+00	 1.101678458406729e+00	 1.276854332812227e+01
 1.303193816797736e+00	 1.114411724324639e+00	 1.271477661085173e+01
 1.292284437115965e+00	 1.127044201675902e+00	 1.264973125332869e+01
 1.281248978817504e+00	 1.139573977418654e+00	 1.256281326536123e+01
 1.270088903631367e+00	 1.151999165223144e+00	 1.245314538802398e+01
 1.382994085748618e+00	 1.028537613055813e+00	 1.314017711077934e+01
 1.372953538843014e+00	 1.041902477174947e+00	 1.309250449673094e+01
 1.362777076042019e+00	 1.055178080508667e+00	 1.303169322444130e+01
 1.352465888788236e+00	 1.068362359744984e+00	 1.296338432570808e+01
 1.342021209748127e+00	 1.081453272444846e+00	 1.289323121409932e+01
 1.331444312349928e+00	 1.094448798071896e+00	 1.282685323779655e+01
 1.320736510291013e+00	 1.107346939010167e+00	 1.276978696215857e+01
 1.309899157015040e+00	 1.120145721568647e+00	 1.271821871924084e+01
 1.298933645159349e+00	 1.132843196971690e+00	 1.264848238916322e+01
 1.287841405973020e+00	 1.145437442334210e+00	 1.255834470212432e+01
 1.276623908706116e+00	 1.157926561620675e+00	 1.244698233479017e+01
 1.390073572964280e+00	 1.033802652836363e+00	 1.311915405755672e+01
 1.379981628931149e+00	 1.047235931120395e+00	 1.307216078004071e+01
 1.369753073255039e+00	 1.060579491696971e+00	 1.301316951790142e+01
 1.359389103477492e+00	 1.073831260692069e+00	 1.294799022685724e+01
 1.348890958574938e+00	 1.086989185211458e+00	 1.288245545804147e+01
 1.338259918494237e+00	 1.100051234375721e+00	 1.282237272802880e+01
 1.327497303657517e+00	 1.113015400343153e+00	 1.277310350022899e+01
 1.316604474436657e+00	 1.125879699319483e+00	 1.271767321466321e+01
 1.305582830597845e+00	 1.138642172553339e+00	 1.264392294324747e+01
 1.294433810716664e+00	 1.151300887316448e+00	 1.255116991002372e+01
 1.283158891564200e+00	 1.163853937867530e+00	 1.243863712401430e+01
 1.397153044134917e+00	 1.039067680684324e+00	 1.309929246699111e+01
 1.387009703090728e+00	 1.052569372978205e+00	 1.305324869506596e+01
 1.376729054657538e+00	 1.065980890643620e+00	 1.299631896315892e+01
 1.366312302475823e+00	 1.079300149244544e+00	 1.293447953379124e+01
 1.355760691831964e+00	 1.092525085431585e+00	 1.287373976033575e+01
 1.345075509191430e+00	 1.105653657982287e+00	 1.282009326099495e+01
 1.334258081701098e+00	 1.118683848829236e+00	 1.277386978840275e+01
 1.323309776661051e+00	 1.131613664074918e+00	 1.271379515948221e+01
 1.312232000966312e+00	 1.144441134992262e+00	 1.263667740230476e+01
 1.301026200518949e+00	 1.157164319009825e+00	 1.254188011543754e+01
 1.289693859611062e+00	 1.169781300680601e+00	 1.242866509960688e+01
 1.404232507283000e+00	 1.044332702566201e+00	 1.308061754727686e+01
 1.394037769285973e+00	 1.057902808792391e+00	 1.303578836410493e+01
 1.383705028154707e+00	 1.071382283469621e+00	 1.298114994526289e+01
 1.373235493628604e+00	 1.084769031599873e+00	 1.292284237505003e+01
 1.362630417303992e+00	 1.098060979378610e+00	 1.286704962649825e+01
 1.351891092164948e+00	 1.111256075240345e+00	 1.281994756683727e+01
 1.341018852083084e+00	 1.124352290891966e+00	 1.277130686576798e+01
 1.330015071286687e+00	 1.137347622332728e+00	 1.270727517598002e+01
 1.318881163799606e+00	 1.150240090859871e+00	 1.262740611516122e+01
 1.307618582850391e+00	 1.163027744058796e+00	 1.253110286398836e+01
 1.296228820252147e+00	 1.175708656776781e+00	 1.241765853244052e+01
 1.411311970431000e+00	 1.049597724448495e+00	 1.306319343043119e+01
 1.401065835481108e+00	 1.063236244606966e+00	 1.301983886513339e+01
 1.390681001651735e+00	 1.076783676295980e+00	 1.296770980825449e+01
 1.380158684781212e+00	 1.090237913955525e+00	 1.291310781081468e+01
 1.369500142775814e+00	 1.103596873325917e+00	 1.286238943382051e+01
 1.358706675138226e+00	 1.116858492498644e+00	 1.281919346941438e+01
 1.347779622464802e+00	 1.130020732954891e+00	 1.276616634775529e+01
 1.336720365912028e+00	 1.143081580590686e+00	 1.269883735185586e+01
 1.325530326632585e+00	 1.156039046727581e+00	 1.261680319690906e+01
 1.314210965181505e+00	 1.168891169107819e+00	 1.251949992388961e+01
 1.302763780892899e+00	 1.181636012872962e+00	 1.240624452342575e+01
 1.418391441601388e+00	 1.054862752297708e+00	 1.304712456165473e+01
 1.408093909640356e+00	 1.068569686465945e+00	 1.300549963095982e+01
 1.397656983053812e+00	 1.082185075243703e+00	 1.295608626103869e+01
 1.387081883779023e+00	 1.095706802508965e+00	 1.290534524245568e+01
 1.376369876032220e+00	 1.109132773546891e+00	 1.285980384159664e+01
 1.365522265834702e+00	 1.122460916105931e+00	 1.281594231306036e+01
 1.354540400507578e+00	 1.135689181441560e+00	 1.275923108062457e+01
 1.343425668135538e+00	 1.148815545346567e+00	 1.268923714553817e+01
 1.332179497000107e+00	 1.161838009166804e+00	 1.260559443314272e+01
 1.320803354982806e+00	 1.174754600801347e+00	 1.250776518966833e+01
 1.309298748938762e+00	 1.187563375686034e+00	 1.239508290731542e+01
 1.425470928816637e+00	 1.060127792080343e+00	 1.303255708833278e+01
 1.415121999727941e+00	 1.073903140413343e+00	 1.299291184793169e+01
 1.404632980266128e+00	 1.087586486433797e+00	 1.294640878277010e+01
 1.394005098467412e+00	 1.101175703457661e+00	 1.289966582160899e+01
 1.383239624857998e+00	 1.114668686314918e+00	 1.285852384130142e+01
 1.372337871977815e+00	 1.128063352410956e+00	 1.281103112477984e+01
 1.361301193872737e+00	 1.141357642775523e+00	 1.275131304794945e+01
 1.350130985555682e+00	 1.154549523098144e+00	 1.267925929126395e+01
 1.338828682437029e+00	 1.167636984748952e+00	 1.259453518421157e+01
 1.327395759724808e+00	 1.180618045783837e+00	 1.249662258620124e+01
 1.315833731795180e+00	 1.193490751932892e+00	 1.238486415716046e+01
 1.432550440099217e+00	 1.065392849762901e+00	 1.301968024877594e+01
 1.422150113708087e+00	 1.079236612493172e+00	 1.298225985429635e+01
 1.411609001193872e+00	 1.092987915987266e+00	 1.293885002785725e+01
 1.400928336691757e+00	 1.106644622999078e+00	 1.289622385888275e+01
 1.390109397037940e+00	 1.120204617903380e+00	 1.285600467970602e+01
 1.379153501291003e+00	 1.133665807762470e+00	 1.280532400195386e+01
 1.368062010221609e+00	 1.147026123380327e+00	 1.274325127662419e+01
 1.356836325770924e+00	 1.160283520343190e+00	 1.266971570387769e+01
 1.345477890478210e+00	 1.173435980045439e+00	 1.258440828943471e+01
 1.333988186878027e+00	 1.186481510699745e+00	 1.248682397299846e+01
 1.322368736867599e+00	 1.199418148330425e+00	 1.237630728933935e+01
 1.439629983471600e+00	 1.070657931311884e+00	 1.300872776079615e+01
 1.429178259545016e+00	 1.084570108749448e+00	 1.297377253831498e+01
 1.418585053742233e+00	 1.098389370025116e+00	 1.293362723068681e+01
 1.407851606297432e+00	 1.112113567330683e+00	 1.289516422473163e+01
 1.396979200356835e+00	 1.125740574585664e+00	 1.285288028296041e+01
 1.385969161497703e+00	 1.139268288509219e+00	 1.279971001948340e+01
 1.374822857215517e+00	 1.152694629679524e+00	 1.273590974235314e+01
 1.363541696379728e+00	 1.166017543579481e+00	 1.266144338330229e+01
 1.352127128658505e+00	 1.179235001627677e+00	 1.257602197122048e+01
 1.340580643912978e+00	 1.192345002193526e+00	 1.247914704866568e+01
 1.328903771561460e+00	 1.205345571595528e+00	 1.237015776908585e+01
 1.263553868934508e+00	 1.146071741958044e+00	 1.245660996449588e+01
 1.252330646641814e+00	 1.158325028325273e+00	 1.234277860674054e+01
 1.240986488227872e+00	 1.170470651982062e+00	 1.223913541857925e+01
 1.229522936041086e+00	 1.182506842439293e+00	 1.214276746448713e+01
 1.217941567326206e+00	 1.194431859378467e+00	 1.205078437699982e+01
 1.206243993496050e+00	 1.206243993496050e+00	 1.196036341890249e+01
 1.194431859378466e+00	 1.217941567326207e+00	 1.186879547198601e+01
 1.182506842439293e+00	 1.229522936041086e+00	 1.177353163998699e+01
 1.170470651982062e+00	 1.240986488227873e+00	 1.167223014372336e+01
 1.158325028325273e+00	 1.252330646641815e+00	 1.156280317889712e+01
 1.146071741958044e+00	 1.263553868934508e+00	 1.144346340165072e+01
 1.270088903631367e+00	 1.151999165223144e+00	 1.245314538802398e+01
 1.258807635418717e+00	 1.164315824948562e+00	 1.233834447317687e+01
 1.247404805609481e+00	 1.176524265137518e+00	 1.223457727569082e+01
 1.235881964529000e+00	 1.188622706144024e+00	 1.213880027071556e+01
 1.224240697579443e+00	 1.200609398648756e+00	 1.204798675456763e+01
 1.212482624507759e+00	 1.212482624507759e+00	 1.195917364005282e+01
 1.200609398648756e+00	 1.224240697579443e+00	 1.186950924177867e+01
 1.188622706144024e+00	 1.235881964529000e+00	 1.177630172824915e+01
 1.176524265137517e+00	 1.247404805609482e+00	 1.167706790748185e+01
 1.164315824948561e+00	 1.258807635418717e+00	 1.156958200495956e+01
 1.151999165223144e+00	 1.270088903631367e+00	 1.145192408703408e+01
 1.276623908706116e+00	 1.157926561620675e+00	 1.244698233479017e+01
 1.265284594836632e+00	 1.170306594417003e+00	 1.233165564681048e+01
 1.253823093898073e+00	 1.182577850853358e+00	 1.222807040862812e+01
 1.242240964192679e+00	 1.194738542126929e+00	 1.213307162118506e+01
 1.230539799279995e+00	 1.206786909917608e+00	 1.204351558518823e+01
 1.218721227241065e+00	 1.218721227241065e+00	 1.195631844951327e+01
 1.206786909917608e+00	 1.230539799279995e+00	 1.186850581489910e+01
 1.194738542126929e+00	 1.242240964192679e+00	 1.177726305866611e+01
 1.182577850853358e+00	 1.253823093898074e+00	 1.167998603566439e+01
 1.170306594417002e+00	 1.265284594836632e+00	 1.157433180234537e+01
 1.157926561620675e+00	 1.276623908706116e+00	 1.145826900481871e+01
 1.283158891564200e+00	 1.163853937867530e+00	 1.243863712401431e+01
 1.271761532235222e+00	 1.176297343519296e+00	 1.232319415833120e+01
 1.260241360366823e+00	 1.188631415989463e+00	 1.222006942916948e+01
 1.248599942238107e+00	 1.200854357318428e+00	 1.212601517766066e+01
 1.236838879565968e+00	 1.212964400185335e+00	 1.203778962953801e+01
 1.224959808765511e+00	 1.224959808765511e+00	 1.195220731794051e+01
 1.212964400185335e+00	 1.236838879565968e+00	 1.186619052876999e+01
 1.200854357318428e+00	 1.248599942238107e+00	 1.177682152302464e+01
 1.188631415989462e+00	 1.260241360366824e+00	 1.168139517952762e+01
 1.176297343519296e+00	 1.271761532235223e+00	 1.157747169274159e+01
 1.163853937867530e+00	 1.283158891564200e+00	 1.146292895399722e+01
 1.289693859611062e+00	 1.169781300680601e+00	 1.242866509960688e+01
 1.278238454954155e+00	 1.182288079044142e+00	 1.231348171687996e+01
 1.266659612288909e+00	 1.194684967405711e+00	 1.221106922741820e+01
 1.254958905871271e+00	 1.206970158648941e+00	 1.211810542894576e+01
 1.243137945575468e+00	 1.219141876452249e+00	 1.203126897534221e+01
 1.231198376150641e+00	 1.231198376150641e+00	 1.194729149654936e+01
 1.219141876452249e+00	 1.243137945575468e+00	 1.186301091033781e+01
 1.206970158648941e+00	 1.254958905871272e+00	 1.177542556879385e+01
 1.194684967405710e+00	 1.266659612288908e+00	 1.168174887088596e+01
 1.182288079044141e+00	 1.278238454954156e+00	 1.157946396332066e+01
 1.169781300680601e+00	 1.289693859611061e+00	 1.146637814519034e+01
 1.296228820252147e+00	 1.175708656776781e+00	 1.241765853244052e+01
 1.284715370333094e+00	 1.188278807780237e+00	 1.230307761473161e+01
 1.273077856937502e+00	 1.200738511961980e+00	 1.220160288433870e+01
 1.261317862298157e+00	 1.213085953048889e+00	 1.210985561651835e+01
 1.249437004446598e+00	 1.225319345718662e+00	 1.202445298115456e+01
 1.237436936465997e+00	 1.237436936465997e+00	 1.194206198387020e+01
 1.225319345718662e+00	 1.249437004446599e+00	 1.185945467043167e+01
 1.213085953048889e+00	 1.261317862298158e+00	 1.177356422548455e+01
 1.200738511961980e+00	 1.273077856937503e+00	 1.168154158464631e+01
 1.188278807780237e+00	 1.284715370333095e+00	 1.158081216939461e+01
 1.175708656776781e+00	 1.296228820252147e+00	 1.146913234712770e+01
 1.302763780892899e+00	 1.181636012872962e+00	 1.240624452342575e+01
 1.291192285711706e+00	 1.194269536516284e+00	 1.229257663311557e+01
 1.279496101585782e+00	 1.206792056518153e+00	 1.219223958565594e+01
 1.267676818724751e+00	 1.219201747448692e+00	 1.210181566165325e+01
 1.255736063317465e+00	 1.231496814984886e+00	 1.201787822165102e+01
 1.243675496781125e+00	 1.243675496781125e+00	 1.193704749395912e+01
 1.231496814984886e+00	 1.255736063317465e+00	 1.185604769942305e+01
 1.219201747448691e+00	 1.267676818724751e+00	 1.177176513207918e+01
 1.206792056518152e+00	 1.279496101585782e+00	 1.168130680210712e+01
 1.194269536516284e+00	 1.291192285711706e+00	 1.158205923745344e+01
 1.181636012872962e+00	 1.302763780892899e+00	 1.147174703306666e+01
 1.309298748938762e+00	 1.187563375686034e+00	 1.239508290731543e+01
 1.297669208429653e+00	 1.200260272040981e+00	 1.228260694908256e+01
 1.285914353506923e+00	 1.212845607934105e+00	 1.218358253701931e+01
 1.274035782357038e+00	 1.225317548778769e+00	 1.209457009393159e+01
 1.262035129326172e+00	 1.237674291251232e+00	 1.201211643433936e+01
 1.249914064165568e+00	 1.249914064165567e+00	 1.193281242596396e+01
 1.237674291251232e+00	 1.262035129326172e+00	 1.185335206409992e+01
 1.225317548778769e+00	 1.274035782357039e+00	 1.177059256545260e+01
 1.212845607934105e+00	 1.285914353506924e+00	 1.168161507495005e+01
 1.200260272040981e+00	 1.297669208429654e+00	 1.158378556853285e+01
 1.187563375686034e+00	 1.309298748938762e+00	 1.147481552711261e+01
 1.315833731795180e+00	 1.193490751932892e+00	 1.238486415716046e+01
 1.304146145826603e+00	 1.206251021143027e+00	 1.227382804333366e+01
 1.292332619974102e+00	 1.218899173069718e+00	 1.217626688034017e+01
 1.280394760401003e+00	 1.231433363969541e+00	 1.208873598104057e+01
 1.268334209610826e+00	 1.243851781518014e+00	 1.200777246758720e+01
 1.256152645688868e+00	 1.256152645688868e+00	 1.192995483495178e+01
 1.243851781518013e+00	 1.268334209610826e+00	 1.185196400566424e+01
 1.231433363969541e+00	 1.280394760401004e+00	 1.177064546970683e+01
 1.218899173069718e+00	 1.292332619974102e+00	 1.168307208986461e+01
 1.206251021143026e+00	 1.304146145826603e+00	 1.158660714186348e+01
 1.193490751932891e+00	 1.315833731795180e+00	 1.147896715040739e+01
 1.322368736867599e+00	 1.199418148330425e+00	 1.237630728933935e+01
 1.310623105242220e+00	 1.212241790611122e+00	 1.226692860892228e+01
 1.298750908260492e+00	 1.224952758784869e+00	 1.217095761120725e+01
 1.286753760062633e+00	 1.237549199951429e+00	 1.208496085976562e+01
 1.274633311309532e+00	 1.250029292785542e+00	 1.200548222987192e+01
 1.262391248420571e+00	 1.262391248420571e+00	 1.192910440390573e+01
 1.250029292785542e+00	 1.274633311309532e+00	 1.185251193877050e+01
 1.237549199951429e+00	 1.286753760062633e+00	 1.177255548634046e+01
 1.224952758784869e+00	 1.298750908260493e+00	 1.168631673373341e+01
 1.212241790611121e+00	 1.310623105242220e+00	 1.159117361874490e+01
 1.199418148330425e+00	 1.322368736867598e+00	 1.148486536714840e+01
 1.328903771561460e+00	 1.205345571595528e+00	 1.237015776908585e+01
 1.317100094016168e+00	 1.218232587233964e+00	 1.226262446074304e+01
 1.305169225639270e+00	 1.231006371939438e+00	 1.216834749728785e+01
 1.293112788547912e+00	 1.243665063654852e+00	 1.208392066808204e+01
 1.280932441560393e+00	 1.256206832054128e+00	 1.200591064015742e+01
 1.268629879430219e+00	 1.268629879430219e+00	 1.193092041679898e+01
 1.256206832054128e+00	 1.280932441560393e+00	 1.185565445151432e+01
 1.243665063654852e+00	 1.293112788547913e+00	 1.177698498517476e+01
 1.231006371939438e+00	 1.305169225639270e+00	 1.169201915931406e+01
 1.218232587233963e+00	 1.317100094016168e+00	 1.159816644659355e+01
 1.205345571595528e+00	 1.328903771561460e+00	 1.149320593040036e+01
 1.146071741958044e+00	 1.263553868934508e+00	 1.144346340165072e+01
 1.133710485925327e+00	 1.274656521779599e+00	 1.131827439371257e+01
 1.121245180094562e+00	 1.285635198932835e+00	 1.119187787624979e+01
 1.108677701089684e+00	 1.296488446186282e+00	 1.106374389506703e+01
 1.096009952109290e+00	 1.307214846943932e+00	 1.093003817793031e+01
 1.083243861977478e+00	 1.317813022826219e+00	 1.079105297411285e+01
 1.070381384178622e+00	 1.328281634245983e+00	 1.065001056429178e+01
 1.057424495877114e+00	 1.338619380955441e+00	 1.051060064007367e+01
 1.044375196923074e+00	 1.348825002563662e+00	 1.037693729848603e+01
 1.031235508845077e+00	 1.358897279024178e+00	 1.025351449048534e+01
 1.018007473830945e+00	 1.368835031092329e+00	 1.014516017553258e+01
 1.151999165223144e+00	 1.270088903631367e+00	 1.145192408703408e+01
 1.139573977418655e+00	 1.281248978817504e+00	 1.132803736889109e+01
 1.127044201675902e+00	 1.292284437115965e+00	 1.120257296195428e+01
 1.114411724324640e+00	 1.303193816797736e+00	 1.107520307071654e+01
 1.101678458406729e+00	 1.313975693940260e+00	 1.094435922208214e+01
 1.088846342722065e+00	 1.324628683035068e+00	 1.080745565958347e+01
 1.075917340858362e+00	 1.335151437566738e+00	 1.066763082300655e+01
 1.062893440205821e+00	 1.345542650562677e+00	 1.052874314153887e+01
 1.049776650957704e+00	 1.355801055113290e+00	 1.039508842020468e+01
 1.036569005097846e+00	 1.365925424862099e+00	 1.027135374348026e+01
 1.023272555376175e+00	 1.375914574465458e+00	 1.016257005030987e+01
 1.157926561620675e+00	 1.276623908706116e+00	 1.145826900481871e+01
 1.145437442334210e+00	 1.287841405973020e+00	 1.133564541843151e+01
 1.132843196971690e+00	 1.298933645159349e+00	 1.121112162854946e+01
 1.120145721568648e+00	 1.309899157015040e+00	 1.108443162942445e+01
 1.107346939010167e+00	 1.320736510291012e+00	 1.095552202089199e+01
 1.094448798071897e+00	 1.331444312349929e+00	 1.082111858604360e+01
 1.081453272444846e+00	 1.342021209748126e+00	 1.068291116439887e+01
 1.068362359744984e+00	 1.352465888788236e+00	 1.054491802887860e+01
 1.055178080508667e+00	 1.362777076042019e+00	 1.041160810812961e+01
 1.041902477174947e+00	 1.372953538843014e+00	 1.028785332513331e+01
 1.028537613055813e+00	 1.382994085748617e+00	 1.017887957173420e+01
 1.163853937867530e+00	 1.283158891564200e+00	 1.146292895399722e+01
 1.151300887316449e+00	 1.294433810716663e+00	 1.134154053585401e+01
 1.138642172553339e+00	 1.305582830597845e+00	 1.121797326665515e+01
 1.125879699319483e+00	 1.316604474436656e+00	 1.109200720804207e+01
 1.113015400343154e+00	 1.327497303657516e+00	 1.096393172803144e+01
 1.100051234375721e+00	 1.338259918494236e+00	 1.083236455889864e+01
 1.086989185211459e+00	 1.348890958574938e+00	 1.069616312319059e+01
 1.073831260692070e+00	 1.359389103477492e+00	 1.055942198509631e+01
 1.060579491696971e+00	 1.369753073255038e+00	 1.042677505171919e+01
 1.047235931120395e+00	 1.379981628931149e+00	 1.030327123494414e+01
 1.033802652836363e+00	 1.390073572964280e+00	 1.019432380346356e+01
 1.169781300680601e+00	 1.289693859611061e+00	 1.146637814519034e+01
 1.157164319009826e+00	 1.301026200518948e+00	 1.134620839919766e+01
 1.144441134992262e+00	 1.312232000966311e+00	 1.122362130869895e+01
 1.131613664074918e+00	 1.323309776661050e+00	 1.109842732807758e+01
 1.118683848829237e+00	 1.334258081701098e+00	 1.097096066845054e+01
 1.105653657982288e+00	 1.345075509191430e+00	 1.084156720376146e+01
 1.092525085431586e+00	 1.355760691831963e+00	 1.070774755825475e+01
 1.079300149244544e+00	 1.366312302475822e+00	 1.057259949478551e+01
 1.065980890643620e+00	 1.376729054657537e+00	 1.044091419149907e+01
 1.052569372978206e+00	 1.387009703090727e+00	 1.031791014360129e+01
 1.039067680684324e+00	 1.397153044134917e+00	 1.020918086977832e+01
 1.175708656776781e+00	 1.296228820252147e+00	 1.146913234712771e+01
 1.163027744058797e+00	 1.307618582850391e+00	 1.135017656317937e+01
 1.150240090859872e+00	 1.318881163799605e+00	 1.122860146692064e+01
 1.137347622332729e+00	 1.330015071286686e+00	 1.110423226779752e+01
 1.124352290891966e+00	 1.341018852083083e+00	 1.097743252412910e+01
 1.111256075240345e+00	 1.351891092164947e+00	 1.084915204535979e+01
 1.098060979378610e+00	 1.362630417303992e+00	 1.071807529293923e+01
 1.084769031599873e+00	 1.373235493628604e+00	 1.058484348259955e+01
 1.071382283469622e+00	 1.383705028154706e+00	 1.045439735495776e+01
 1.057902808792391e+00	 1.394037769285972e+00	 1.033211802573812e+01
 1.044332702566201e+00	 1.404232507283000e+00	 1.022377258478367e+01
 1.181636012872962e+00	 1.302763780892899e+00	 1.147174703306666e+01
 1.168891169107819e+00	 1.314210965181504e+00	 1.135401265082910e+01
 1.156039046727581e+00	 1.325530326632585e+00	 1.123348997043341e+01
 1.143081580590687e+00	 1.336720365912027e+00	 1.111000334496239e+01
 1.130020732954891e+00	 1.347779622464801e+00	 1.098393021068788e+01
 1.116858492498644e+00	 1.358706675138226e+00	 1.085625098035597e+01
 1.103596873325918e+00	 1.369500142775814e+00	 1.072760775312866e+01
 1.090237913955525e+00	 1.380158684781211e+00	 1.059659594911649e+01
 1.076783676295981e+00	 1.390681001651735e+00	 1.046764388950479e+01
 1.063236244606966e+00	 1.401065835481107e+00	 1.034628878942619e+01
 1.049597724448495e+00	 1.411311970431000e+00	 1.023846507802546e+01
 1.187563375686034e+00	 1.309298748938762e+00	 1.147481552711261e+01
 1.174754600801347e+00	 1.320803354982805e+00	 1.135832254458941e+01
 1.161838009166804e+00	 1.332179497000106e+00	 1.123890180134108e+01
 1.148815545346567e+00	 1.343425668135537e+00	 1.111636119824592e+01
 1.135689181441561e+00	 1.354540400507577e+00	 1.099107659609336e+01
 1.122460916105931e+00	 1.365522265834702e+00	 1.086404378768716e+01
 1.109132773546892e+00	 1.376369876032219e+00	 1.073685760318837e+01
 1.095706802508965e+00	 1.387081883779022e+00	 1.060834860424806e+01
 1.082185075243703e+00	 1.397656983053812e+00	 1.048112129265093e+01
 1.068569686465946e+00	 1.408093909640356e+00	 1.036086290257199e+01
 1.054862752297708e+00	 1.418391441601388e+00	 1.025366941670215e+01
 1.193490751932891e+00	 1.315833731795180e+00	 1.147896715040738e+01
 1.180618045783838e+00	 1.327395759724808e+00	 1.136374857685749e+01
 1.167636984748952e+00	 1.338828682437029e+00	 1.124548892991006e+01
 1.154549523098144e+00	 1.350130985555682e+00	 1.112396406735051e+01
 1.141357642775523e+00	 1.361301193872737e+00	 1.099953282606334e+01
 1.128063352410957e+00	 1.372337871977816e+00	 1.087319116229597e+01
 1.114668686314918e+00	 1.383239624857997e+00	 1.074662342930299e+01
 1.101175703457661e+00	 1.394005098467411e+00	 1.062064349834115e+01
 1.087586486433797e+00	 1.404632980266128e+00	 1.049534583956281e+01
 1.073903140413343e+00	 1.415121999727941e+00	 1.037632801638736e+01
 1.060127792080343e+00	 1.425470928816637e+00	 1.026984222464623e+01
 1.199418148330425e+00	 1.322368736867598e+00	 1.148486536714840e+01
 1.186481510699746e+00	 1.333988186878026e+00	 1.137096771995268e+01
 1.173435980045439e+00	 1.345477890478209e+00	 1.125393854879246e+01
 1.160283520343191e+00	 1.356836325770923e+00	 1.113350607182641e+01
 1.147026123380328e+00	 1.368062010221608e+00	 1.100999664786154e+01
 1.133665807762470e+00	 1.379153501291003e+00	 1.088439117570006e+01
 1.120204617903381e+00	 1.390109397037939e+00	 1.075837856794576e+01
 1.106644622999078e+00	 1.400928336691756e+00	 1.063407365110839e+01
 1.092987915987266e+00	 1.411609001193872e+00	 1.051088320814794e+01
 1.079236612493173e+00	 1.422150113708087e+00	 1.039321958608875e+01
 1.065392849762901e+00	 1.432550440099217e+00	 1.028748629824386e+01
 1.205345571595528e+00	 1.328903771561460e+00	 1.149320593040037e+01
 1.192345002193527e+00	 1.340580643912977e+00	 1.138068977548495e+01
 1.179235001627678e+00	 1.352127128658504e+00	 1.126497130629109e+01
 1.166017543579482e+00	 1.363541696379727e+00	 1.114571548860559e+01
 1.152694629679524e+00	 1.374822857215517e+00	 1.102320073249764e+01
 1.139268288509220e+00	 1.385969161497703e+00	 1.089837764328636e+01
 1.125740574585664e+00	 1.396979200356834e+00	 1.077292478339234e+01
 1.112113567330684e+00	 1.407851606297432e+00	 1.064930099752961e+01
 1.098389370025117e+00	 1.418585053742233e+00	 1.052834910181092e+01
 1.084570108749449e+00	 1.429178259545016e+00	 1.041212148898178e+01
 1.070657931311884e+00	 1.439629983471600e+00	 1.030715121945529e+01
 1.018007473830945e+00	 1.368835031092329e+00	 1.014516017553258e+01
 1.004695422846676e+00	 1.378635467101188e+00	 1.003787227896077e+01
 9.912991879267010e-01	 1.388299196551591e+00	 9.915881279067786e+00
 9.778208584954495e-01	 1.397825171108125e+00	 9.781731847202382e+00
 9.642625405008268e-01	 1.407212384693646e+00	 9.638060837787057e+00
 9.506263553558507e-01	 1.416459873789150e+00	 9.487554462045360e+00
 9.369144388747381e-01	 1.425566717702133e+00	 9.332905734016427e+00
 9.231289402045267e-01	 1.434532038803360e+00	 9.176772423042722e+00
 9.092720207533138e-01	 1.443355002732014e+00	 9.021735740603157e+00
 8.953458531161874e-01	 1.452034818569230e+00	 8.870259981865924e+00
 8.813526199999249e-01	 1.460570738980084e+00	 8.724653333742415e+00
 1.023272555376175e+00	 1.375914574465458e+00	 1.016257005030988e+01
 1.009891655158237e+00	 1.385765697818092e+00	 1.005440529929921e+01
 9.964261356097555e-01	 1.395479407573138e+00	 9.930841256554842e+00
 9.828780969615492e-01	 1.405054649973241e+00	 9.794762126925145e+00
 9.692496560533734e-01	 1.414490413737869e+00	 9.649153577892260e+00
 9.555429452700807e-01	 1.423785730364742e+00	 9.497058118782086e+00
 9.417601114722048e-01	 1.432939674399574e+00	 9.341530758443319e+00
 9.279033149220564e-01	 1.441951363674069e+00	 9.185595183447150e+00
 9.139747282064189e-01	 1.450819959512134e+00	 9.032200692336087e+00
 8.999765351569268e-01	 1.459544666904304e+00	 8.884180113721410e+00
 8.859109297691987e-01	 1.468124734650470e+00	 8.744208927156407e+00
 1.028537613055813e+00	 1.382994085748617e+00	 1.017887957173420e+01
 1.015087863916258e+00	 1.392895896215265e+00	 1.007006610682769e+01
 1.001553060053302e+00	 1.402659586048384e+00	 9.945206270118414e+00
 9.879353125041048e-01	 1.412284096068702e+00	 9.807544380845156e+00
 9.742367490002228e-01	 1.421768409792328e+00	 9.660435448478598e+00
 9.604595128982922e-01	 1.431111553733727e+00	 9.507298695890608e+00
 9.466057621051136e-01	 1.440312597676857e+00	 9.351571367935403e+00
 9.326776679982206e-01	 1.449370654914388e+00	 9.196663075567862e+00
 9.186774143430335e-01	 1.458284882454964e+00	 9.045910918893176e+00
 9.046071962076807e-01	 1.467054481198550e+00	 8.902535624565822e+00
 8.904692188765717e-01	 1.475678696079867e+00	 8.769598923806551e+00
 1.033802652836363e+00	 1.390073572964280e+00	 1.019432380346356e+01
 1.020284055009235e+00	 1.400026070372627e+00	 1.008506425995186e+01
 1.006679967067333e+00	 1.409839740113895e+00	 9.959157188528080e+00
 9.929925108541205e-01	 1.419513517586915e+00	 9.820227635532630e+00
 9.792238249929176e-01	 1.429046381104456e+00	 9.672020516662920e+00
 9.653760638121091e-01	 1.438437352197751e+00	 9.518352221828266e+00
 9.514513962647230e-01	 1.447685495889017e+00	 9.363062513121974e+00
 9.374520048434789e-01	 1.456789920931903e+00	 9.209966974331891e+00
 9.233800844923945e-01	 1.465749780019818e+00	 9.062810263454296e+00
 9.092378415160550e-01	 1.474564269962159e+00	 8.925220411451182e+00
 8.950274924876224e-01	 1.483232631828501e+00	 8.800331751970702e+00
 1.039067680684324e+00	 1.397153044134917e+00	 1.020918086977832e+01
 1.025480234325661e+00	 1.407156228370093e+00	 1.009965075128113e+01
 1.011806862461838e+00	 1.417019877906233e+00	 9.972914692474159e+00
 9.980496977425986e-01	 1.426742922720285e+00	 9.832999118572165e+00
 9.842108896830023e-01	 1.436324335921691e+00	 9.684059458262777e+00
 9.702926035831555e-01	 1.445763134058460e+00	 9.530329767198323e+00
 9.562970194422918e-01	 1.455058377391087e+00	 9.376072653091265e+00
 9.422263308682891e-01	 1.464209170134207e+00	 9.225529769341614e+00
 9.280827439837385e-01	 1.473214660666003e+00	 9.082873136944066e+00
 9.138684763296557e-01	 1.482074041705323e+00	 8.952129606148137e+00
 8.995857557679303e-01	 1.490786550456598e+00	 8.828427430054527e+00
 1.044332702566201e+00	 1.404232507283000e+00	 1.022377258478367e+01
 1.030676407754032e+00	 1.414286378287581e+00	 1.011411863261279e+01
 1.016933752046808e+00	 1.424200007561963e+00	 9.986739894270507e+00
 1.003106878900542e+00	 1.433972319661218e+00	 9.846084871862519e+00
 9.891979487220198e-01	 1.443602282491466e+00	 9.696740163500062e+00
 9.752091377830571e-01	 1.453088907617503e+00	 9.543378041602587e+00
 9.611426371290783e-01	 1.462431250538098e+00	 9.390704342074027e+00
 9.470006514831094e-01	 1.471628410928890e+00	 9.243406940007691e+00
 9.327853981463018e-01	 1.480679532852835e+00	 9.106105080169966e+00
 9.184991058960887e-01	 1.489583804938234e+00	 8.978420184791755e+00
 9.041440138830749e-01	 1.498340460524385e+00	 8.852198805769037e+00
 1.049597724448495e+00	 1.411311970431000e+00	 1.023846507802546e+01
 1.035872581182843e+00	 1.421416528205009e+00	 1.012880363602146e+01
 1.022060641632236e+00	 1.431380137217650e+00	 1.000093495338647e+01
 1.008164060058956e+00	 1.441201716602121e+00	 9.859750360490123e+00
 9.941850077615139e-01	 1.450880229061218e+00	 9.710288338058390e+00
 9.801256719834371e-01	 1.460414681176524e+00	 9.557679985663460e+00
 9.659882548163409e-01	 1.469804123685087e+00	 9.407094811149060e+00
 9.517749720983987e-01	 1.479047651723542e+00	 9.263687125598409e+00
 9.374880523093211e-01	 1.488144405039623e+00	 9.130423308233476e+00
 9.231297354629600e-01	 1.497093568171083e+00	 9.002101077276974e+00
 9.087022719986347e-01	 1.505894370592087e+00	 8.873851423069151e+00
 1.054862752297708e+00	 1.418391441601388e+00	 1.025366941670215e+01
 1.041068760500589e+00	 1.428546686202294e+00	 1.014408479124772e+01
 1.027187537028111e+00	 1.438560275009859e+00	 1.001584368800231e+01
 1.013221246948842e+00	 1.448431121735399e+00	 9.874301077383880e+00
 9.991720724530286e-01	 1.458158183878383e+00	 9.724968099708985e+00
 9.850422117559210e-01	 1.467740463037170e+00	 9.573455358433403e+00
 9.708338779953384e-01	 1.477177005187086e+00	 9.425416545192510e+00
 9.565492981246145e-01	 1.486466900925753e+00	 9.285932634538188e+00
 9.421907118020330e-01	 1.495609285685677e+00	 9.153977404170622e+00
 9.277603702778756e-01	 1.504603339914062e+00	 9.025363865732610e+00
 9.132605352801892e-01	 1.513448289219931e+00	 8.895565792792372e+00
 1.060127792080343e+00	 1.425470928816637e+00	 1.026984222464623e+01
 1.046264951595763e+00	 1.435676860359353e+00	 1.016038503956721e+01
 1.032314444044426e+00	 1.445740429075154e+00	 1.003185218278009e+01
 1.018278445301203e+00	 1.455660543253458e+00	 9.890083143947509e+00
 1.004159148448107e+00	 1.465436155190395e+00	 9.741082570706489e+00
 9.899587626721327e-01	 1.475066261501090e+00	 9.590961320400609e+00
 9.756795121573298e-01	 1.484549903399127e+00	 9.445889424521958e+00
 9.613236349722157e-01	 1.493886166943112e+00	 9.309436591413533e+00
 9.468933819536737e-01	 1.503074183250311e+00	 9.178904348501682e+00
 9.323910155884413e-01	 1.512113128677363e+00	 9.050373703210644e+00
 9.178188088933178e-01	 1.521002224968144e+00	 8.919497065633005e+00
 1.065392849762901e+00	 1.432550440099217e+00	 1.028748629824386e+01
 1.051461160356861e+00	 1.442807058756104e+00	 1.017817184431558e+01
 1.037441368491171e+00	 1.452920607550099e+00	 1.004938939303632e+01
 1.023335660847045e+00	 1.462889989348706e+00	 9.907483906862423e+00
 1.009146241398293e+00	 1.472714151244691e+00	 9.758974466152855e+00
 9.948753303036972e-01	 1.482392084869929e+00	 9.610512288718624e+00
 9.805251627935732e-01	 1.491922826676246e+00	 9.469481830524172e+00
 9.660979880516615e-01	 1.501305458183212e+00	 9.336176383224624e+00
 9.515960680934802e-01	 1.510539106192833e+00	 9.207348682617496e+00
 9.370216766422629e-01	 1.519622942971177e+00	 9.079268962559492e+00
 9.223770980035991e-01	 1.528556186396949e+00	 8.947774699413376e+00
 1.070657931311884e+00	 1.439629983471600e+00	 1.030715121945529e+01
 1.056657392672377e+00	 1.449937289472463e+00	 1.019795779824468e+01
 1.042568316178337e+00	 1.460100818571260e+00	 1.006892774549275e+01
 1.028392899317367e+00	 1.470119468213545e+00	 9.926932531244415e+00
 1.014133356955129e+00	 1.479992180288705e+00	 9.779026678518521e+00
 9.997919202222384e-01	 1.489717941445333e+00	 9.634343844425867e+00
 9.853708353953267e-01	 1.499295783373474e+00	 9.498228110552970e+00
 9.708723627734085e-01	 1.508724783053639e+00	 9.368271114201704e+00
 9.562987755506887e-01	 1.518004062972557e+00	 9.241426763885011e+00
 9.416523586869459e-01	 1.527132791305695e+00	 9.114160879675421e+00
 9.269354077766124e-01	 1.536110182066576e+00	 8.982502120815452e+00
 8.813526199999249e-01	 1.460570738980084e+00	 8.724653333742415e+00
 8.672945134221165e-01	 1.468962060678352e+00	 8.583991704658171e+00
 8.531737344426994e-01	 1.477208125573723e+00	 8.451261507274534e+00
 8.389924912361787e-01	 1.485308319765138e+00	 8.331442865342179e+00
 8.247529977420975e-01	 1.493262073202776e+00	 8.209822502791095e+00
 8.104574725985347e-01	 1.501068859672163e+00	 8.082629824982154e+00
 7.961081380806602e-01	 1.508728196747882e+00	 7.949217057914653e+00
 7.817072190453511e-01	 1.516239645717194e+00	 7.808863730800617e+00
 7.672569418828216e-01	 1.523602811473945e+00	 7.660802943741738e+00
 7.527595334762194e-01	 1.530817342383143e+00	 7.504246367910631e+00
 7.382172201701207e-01	 1.537882930116643e+00	 7.338366287294461e+00
 8.859109297691987e-01	 1.468124734650470e+00	 8.744208927156407e+00
 8.717801153978220e-01	 1.476559455827043e+00	 8.612639964093553e+00
 8.575863044864874e-01	 1.484848168940095e+00	 8.491829936471470e+00
 8.433317166302509e-01	 1.492990256913498e+00	 8.370261472829529e+00
 8.290185772190218e-01	 1.500985146749157e+00	 8.244109353721402e+00
 8.146491163655446e-01	 1.508832309511038e+00	 8.112953814655151e+00
 8.002255678384677e-01	 1.516531260278639e+00	 7.976275674468559e+00
 7.857501680014982e-01	 1.524081558070216e+00	 7.833484419963410e+00
 7.712251547596115e-01	 1.531482805736142e+00	 7.683945091510763e+00
 7.566527665132655e-01	 1.538734649822780e+00	 7.527003846322613e+00
 7.420352411215601e-01	 1.545836780407322e+00	 7.362012088861990e+00
 8.904692188765717e-01	 1.475678696079867e+00	 8.769598923806551e+00
 8.762656970412380e-01	 1.484156816537981e+00	 8.647741508831508e+00
 8.619988545290732e-01	 1.492488177675362e+00	 8.525890402952035e+00
 8.476709223556296e-01	 1.500672159240829e+00	 8.400097109134165e+00
 8.332841373611295e-01	 1.508708185288026e+00	 8.270171100774050e+00
 8.188407411329303e-01	 1.516595724159373e+00	 8.135793302062103e+00
 8.043429789331058e-01	 1.524334288439293e+00	 7.996546014890990e+00
 7.897930986321395e-01	 1.531923434877049e+00	 7.851941732361766e+00
 7.751933496497130e-01	 1.539362764279550e+00	 7.701450699427084e+00
 7.605459819035419e-01	 1.546651921374522e+00	 7.544527094046195e+00
 7.458532447671977e-01	 1.553790594644504e+00	 7.380633715401451e+00
 8.950274924876224e-01	 1.483232631828501e+00	 8.800331751970702e+00
 8.807512634355339e-01	 1.491754151420575e+00	 8.678195208928255e+00
 8.664113895708463e-01	 1.500128160437264e+00	 8.552456637299240e+00
 8.520101133295689e-01	 1.508354035452344e+00	 8.423159457381063e+00
 8.375496830021971e-01	 1.516431197571210e+00	 8.290186822927623e+00
 8.230323516506631e-01	 1.524359112414744e+00	 8.153293398099525e+00
 8.084603760304244e-01	 1.532137290072307e+00	 8.012136124980387e+00
 7.938360155187019e-01	 1.539765285024174e+00	 7.866303825557931e+00
 7.791615310498444e-01	 1.547242696033797e+00	 7.715345494783656e+00
 7.644391840587847e-01	 1.554569166010276e+00	 7.558797154601786e+00
 7.496712354335257e-01	 1.561744381841501e+00	 7.396207152475105e+00
 8.995857557679303e-01	 1.490786550456598e+00	 8.828427430054527e+00
 8.852368196638791e-01	 1.499351469084235e+00	 8.702703793322016e+00
 8.708239146121972e-01	 1.507768125883543e+00	 8.573743433574521e+00
 8.563492944693235e-01	 1.516035894253259e+00	 8.441637543990504e+00
 8.418152189760024e-01	 1.524154192350537e+00	 8.306316209019146e+00
 8.272239526687135e-01	 1.532122483074730e+00	 8.167581133719294e+00
 8.125777637962726e-01	 1.539940274020142e+00	 8.025137313937329e+00
 7.978789232426124e-01	 1.547607117398071e+00	 7.878623486681411e+00
 7.831297034567231e-01	 1.555122609928513e+00	 7.727641213238913e+00
 7.683323773907280e-01	 1.562486392701949e+00	 7.571782461298440e+00
 7.534892174470363e-01	 1.569698151011624e+00	 7.410655566467179e+00
 9.041440138830749e-01	 1.498340460524385e+00	 8.852198805769037e+00
 8.897223708094438e-01	 1.506948778138374e+00	 8.723480701404361e+00
 8.752364346535145e-01	 1.515408082671938e+00	 8.591943438028208e+00
 8.606884706921478e-01	 1.523717744348785e+00	 8.457699471946110e+00
 8.460807501163218e-01	 1.531877178377833e+00	 8.320699301276372e+00
 8.314155489370515e-01	 1.539885844936908e+00	 8.180765212100166e+00
 8.166951468965006e-01	 1.547743249125263e+00	 8.037623913716235e+00
 8.019218263852995e-01	 1.555448940885219e+00	 7.890937897657827e+00
 7.870978713670681e-01	 1.563002514893328e+00	 7.740335368789703e+00
 7.722255663111076e-01	 1.570403610421449e+00	 7.585438610982846e+00
 7.573071951342214e-01	 1.577651911168186e+00	 7.425890664493105e+00
 9.087022719986347e-01	 1.505894370592087e+00	 8.873851423069151e+00
 8.942079219553956e-01	 1.514546087192401e+00	 8.742715764526645e+00
 8.796489546951897e-01	 1.523048039460192e+00	 8.609226864423110e+00
 8.650276469152963e-01	 1.531399594444139e+00	 8.473492148423261e+00
 8.503462812569321e-01	 1.539600164404925e+00	 8.335456233518112e+00
 8.356071452056488e-01	 1.547649206798855e+00	 8.194935755835424e+00
 8.208125299969579e-01	 1.555546224230132e+00	 8.051653033773384e+00
 8.059647295281903e-01	 1.563290764372100e+00	 7.905268396249308e+00
 7.910660392775967e-01	 1.570882419857870e+00	 7.755411019993909e+00
 7.761187552316586e-01	 1.578320828140681e+00	 7.601708134491329e+00
 7.611251728215739e-01	 1.585605671324500e+00	 7.443812468291762e+00
 9.132605352801892e-01	 1.513448289219931e+00	 8.895565792792372e+00
 8.986934781849053e-01	 1.522143404855727e+00	 8.762574901219736e+00
 8.840614797376112e-01	 1.530688004906044e+00	 8.627741203649183e+00
 8.693668280560238e-01	 1.539081453244533e+00	 8.491141006958436e+00
 8.546118172316102e-01	 1.547323159183640e+00	 8.352686964185313e+00
 8.397987462244753e-01	 1.555412577458151e+00	 8.212164049287200e+00
 8.249299177634937e-01	 1.563349208177210e+00	 8.069264311352418e+00
 8.100076372527125e-01	 1.571132596745196e+00	 7.923620233029820e+00
 7.950342116850274e-01	 1.578762333751769e+00	 7.774836532549244e+00
 7.800119485641155e-01	 1.586238054831553e+00	 7.622520263900475e+00
 7.649431548355849e-01	 1.593559440493879e+00	 7.466309085369737e+00
 9.178188088933178e-01	 1.521002224968144e+00	 8.919497065633005e+00
 9.031790445811415e-01	 1.529740739737763e+00	 8.785199806678385e+00
 8.884740147811701e-01	 1.538327987667236e+00	 8.649610927788761e+00
 8.737060190315843e-01	 1.546763329455182e+00	 8.512749724311329e+00
 8.588773628741327e-01	 1.555046171465807e+00	 8.374471004356000e+00
 8.439903567435021e-01	 1.563175965712369e+00	 8.234502276247316e+00
 8.290473148619583e-01	 1.571152209808962e+00	 8.092479657435286e+00
 8.140505541402934e-01	 1.578974446890986e+00	 7.947982324416014e+00
 7.990023930860779e-01	 1.586642265504654e+00	 7.800565338337552e+00
 7.839051507202141e-01	 1.594155299465974e+00	 7.649790696667885e+00
 7.687611455027474e-01	 1.601513227689634e+00	 7.495256477474003e+00
 9.223770980035991e-01	 1.528556186396949e+00	 8.947774699413376e+00
 9.076646262272738e-01	 1.537338100447917e+00	 8.812707636677027e+00
 8.928865648262556e-01	 1.545967996401507e+00	 8.676937188802338e+00
 8.780452247592323e-01	 1.554445231781298e+00	 8.540399932180813e+00
 8.631429230182767e-01	 1.562769210003252e+00	 8.402867140886599e+00
 8.481819815126992e-01	 1.570939380359090e+00	 8.263983253044906e+00
 8.331647259582009e-01	 1.578955237967850e+00	 8.123302998486150e+00
 8.180934847723605e-01	 1.586816323695950e+00	 7.980327001863097e+00
 8.029705879774670e-01	 1.594522224046154e+00	 7.834535691031896e+00
 7.877983661116885e-01	 1.602072571015847e+00	 7.685421356752377e+00
 7.725791491495536e-01	 1.609467041925078e+00	 7.532518226467568e+00
 9.269354077766124e-01	 1.536110182066576e+00	 8.982502120815452e+00
 9.121502282064713e-01	 1.544935495595601e+00	 8.847190686071595e+00
 8.972991348732574e-01	 1.553608039766600e+00	 8.711797511982752e+00
 8.823844501562227e-01	 1.562127168928098e+00	 8.576150923916812e+00
 8.674085024978194e-01	 1.570492283547801e+00	 8.439913154824147e+00
 8.523736252820379e-01	 1.578702830195891e+00	 8.302620157225094e+00
 8.372821557180713e-01	 1.586758301496337e+00	 8.163720014108270e+00
 8.221364337303418e-01	 1.594658236046570e+00	 8.022609757338703e+00
 8.069388008559120e-01	 1.602402218305899e+00	 7.878670418364534e+00
 7.916915991502745e-01	 1.609989878453082e+00	 7.731300152791387e+00
 7.763971701024950e-01	 1.617420892213523e+00	 7.579945297674263e+00
 7.382172201701207e-01	 1.537882930116643e+00	 7.338366287294462e+00
 7.236297435225110e-01	 1.544800472436972e+00	 7.170768752171515e+00
 7.090017948457513e-01	 1.551568532121260e+00	 7.010167436360888e+00
 6.943355931916827e-01	 1.558186928331899e+00	 6.855937783059984e+00
 6.796333530791191e-01	 1.564655522628554e+00	 6.707310671756204e+00
 6.648972835192718e-01	 1.570974218667745e+00	 6.563425296225043e+00
 6.501295870550970e-01	 1.577142961876710e+00	 6.423377526608881e+00
 6.353324588153149e-01	 1.583161739102190e+00	 6.286263675473732e+00
 6.205080855838198e-01	 1.589030578234767e+00	 6.151219624079260e+00
 6.056586448851712e-01	 1.594749547809442e+00	 6.017455300379440e+00
 5.907863040868248e-01	 1.600318756583150e+00	 5.884284534312913e+00
 7.420352411215601e-01	 1.545836780407322e+00	 7.362012088861990e+00
 7.273723188058242e-01	 1.552790099895475e+00	 7.197605858384346e+00
 7.126687151416508e-01	 1.559593163631131e+00	 7.041846996374812e+00
 6.979266606577137e-01	 1.566245789841412e+00	 6.893701501672897e+00
 6.831483813262161e-01	 1.572747839369985e+00	 6.752005420846890e+00
 6.683360975832732e-01	 1.579099215375095e+00	 6.615508181948966e+00
 6.534920233632909e-01	 1.585299863001742e+00	 6.482922580045344e+00
 6.386183651480936e-01	 1.591349769028650e+00	 6.352969963581368e+00
 6.237173210315201e-01	 1.597248961490656e+00	 6.224420577814602e+00
 6.087910798001863e-01	 1.602997509277233e+00	 6.096129058129908e+00
 5.938418200310727e-01	 1.608595521707807e+00	 5.967065101265392e+00
 7.458532447671977e-01	 1.553790594644504e+00	 7.380633715401468e+00
 7.311148771253558e-01	 1.560779691138358e+00	 7.219245940316383e+00
 7.163356188167301e-01	 1.567617758766773e+00	 7.068076652208875e+00
 7.015177118467748e-01	 1.574304614821597e+00	 6.925574541800627e+00
 6.866633936410276e-01	 1.580840119430500e+00	 6.790214138758390e+00
 6.717748960604549e-01	 1.587224175253450e+00	 6.660389544832121e+00
 6.568544444308601e-01	 1.593456727153210e+00	 6.534466018660538e+00
 6.419042565871184e-01	 1.599537761840478e+00	 6.410826551828954e+00
 6.269265419329615e-01	 1.605467307494346e+00	 6.287913392567168e+00
 6.119235005170091e-01	 1.611245433358750e+00	 6.164264511318773e+00
 5.968973221257120e-01	 1.616872249315604e+00	 6.038545038912430e+00
 7.496712354335257e-01	 1.561744381841501e+00	 7.396207152475098e+00
 7.348574227220943e-01	 1.568769255219472e+00	 7.237589367435159e+00
 7.200025100262408e-01	 1.575642326621699e+00	 7.090699802397003e+00
 7.051087508281582e-01	 1.582363412404755e+00	 6.953349040396891e+00
 6.901783940066800e-01	 1.588932371980312e+00	 6.823682765881644e+00
 6.752136828475825e-01	 1.595349107510062e+00	 6.699773577866382e+00
 6.602168540680257e-01	 1.601613563574521e+00	 6.579674150758202e+00
 6.451901368558957e-01	 1.607725726816363e+00	 6.461465170267196e+00
 6.301357519247769e-01	 1.613685625558930e+00	 6.343298001046115e+00
 6.150559105852531e-01	 1.619493329400616e+00	 6.223432081901805e+00
 5.999528138332071e-01	 1.625148948785818e+00	 6.100267082182716e+00
 7.534892174470363e-01	 1.569698151011624e+00	 7.410655566467179e+00
 7.385999598370280e-01	 1.576758801192669e+00	 7.254534520723205e+00
 7.236693929254339e-01	 1.583666876289425e+00	 7.111560290571186e+00
 7.086997816711579e-01	 1.590422191723191e+00	 6.978819740224850e+00
 6.936933864063007e-01	 1.597024606189638e+00	 6.854161741126509e+00
 6.786524618414209e-01	 1.603474021352178e+00	 6.735370602798277e+00
 6.635792560850077e-01	 1.609770381509082e+00	 6.620220787364248e+00
 6.484760096779308e-01	 1.615913673234994e+00	 6.506526176216166e+00
 6.333449546435997e-01	 1.621903924997502e+00	 6.392183845882236e+00
 6.181883135545339e-01	 1.627741206749455e+00	 6.275212350684374e+00
 6.030082986160217e-01	 1.633425629497728e+00	 6.153784548877695e+00
 7.573071951342214e-01	 1.577651911168186e+00	 7.425890664493105e+00
 7.423424927111456e-01	 1.584748338111799e+00	 7.271992728066506e+00
 7.273362716695602e-01	 1.591691416863465e+00	 7.132501303537500e+00
 7.122908084450659e-01	 1.598480961909206e+00	 7.003782945046137e+00
 6.972083748230158e-01	 1.605116831228691e+00	 6.883405016805259e+00
 6.820912369387350e-01	 1.611598925987050e+00	 6.768896146960005e+00
 6.669416542920269e-01	 1.617927190200302e+00	 6.657786382906679e+00
 6.517618787767300e-01	 1.624101610375061e+00	 6.547657760389640e+00
 6.365541537260625e-01	 1.630122215123159e+00	 6.436189152457078e+00
 6.213207129744667e-01	 1.635989074751893e+00	 6.321195397800382e+00
 6.060637799366202e-01	 1.641702300830610e+00	 6.200660748433095e+00
 7.611251728215739e-01	 1.585605671324500e+00	 7.443812468291755e+00
 7.460850255854350e-01	 1.592737875030713e+00	 7.291969144253810e+00
 7.310031504138708e-01	 1.599715957437334e+00	 7.155364267428991e+00
 7.158818352191763e-01	 1.606539732095104e+00	 7.030035473045654e+00
 7.007233632399525e-01	 1.613209056267687e+00	 6.913169071793799e+00
 6.855300120362904e-01	 1.619723830621925e+00	 6.802070018292002e+00
 6.703040524993042e-01	 1.626083998891588e+00	 6.694057173915662e+00
 6.550477478757982e-01	 1.632289547515253e+00	 6.586515150749407e+00
 6.397633528087988e-01	 1.638340505248991e+00	 6.476940199085043e+00
 6.244531123946662e-01	 1.644236942754548e+00	 6.362980140084603e+00
 6.091192612574667e-01	 1.649978972163745e+00	 6.242468387039729e+00
 7.649431548355849e-01	 1.593559440493879e+00	 7.466309085369737e+00
 7.498275627008849e-01	 1.600727421003264e+00	 7.316341781696631e+00
 7.346700333136174e-01	 1.607740507104548e+00	 7.181987741961425e+00
 7.194728660627816e-01	 1.614598511413189e+00	 7.059373608523334e+00
 7.042383556402380e-01	 1.621301290476840e+00	 6.945211922997071e+00
 6.889687910308518e-01	 1.627848744464054e+00	 6.836615378605655e+00
 6.736664545170600e-01	 1.634240816826348e+00	 6.730724315778186e+00
 6.583336206986419e-01	 1.640477493934260e+00	 6.624759814147694e+00
 6.429725555284411e-01	 1.646558804688096e+00	 6.516070584624883e+00
 6.275855153647476e-01	 1.652484820104049e+00	 6.402173665435669e+00
 6.121747460410250e-01	 1.658255652876409e+00	 6.280788969244327e+00
 7.687611455027474e-01	 1.601513227689634e+00	 7.495256477474003e+00
 7.535701082984835e-01	 1.608716985083301e+00	 7.346949422875819e+00
 7.383369245240510e-01	 1.615765074958621e+00	 7.214206312812173e+00
 7.230639050451747e-01	 1.622657308995762e+00	 7.093592051864574e+00
 7.077533560069987e-01	 1.629393543026364e+00	 6.981292135140143e+00
 6.924075778191850e-01	 1.635973676720688e+00	 6.874257815101396e+00
 6.770288641555144e-01	 1.642397653247990e+00	 6.769483017589839e+00
 6.616195009687661e-01	 1.648665458910769e+00	 6.664058655807800e+00
 6.461817655216227e-01	 1.654777122753565e+00	 6.555220493583592e+00
 6.307179254343258e-01	 1.660732716147016e+00	 6.440390564248476e+00
 6.152302377497595e-01	 1.666532352347879e+00	 6.317212196127509e+00
 7.725791491495536e-01	 1.609467041925078e+00	 7.532518226467552e+00
 7.573126666192194e-01	 1.616706576324677e+00	 7.385619759087412e+00
 7.420038282004221e-01	 1.623789670093067e+00	 7.253858728361905e+00
 7.266549562356495e-01	 1.630716133975127e+00	 7.134482867811034e+00
 7.112683683233616e-01	 1.637485823086475e+00	 7.023167828900760e+00
 6.958463762980548e-01	 1.644098636599074e+00	 6.916724410175670e+00
 6.803912852248891e-01	 1.650554517399922e+00	 6.812031675136476e+00
 6.649053924096767e-01	 1.656853451723470e+00	 6.706083216685555e+00
 6.493909864249762e-01	 1.662995468758495e+00	 6.596035958779979e+00
 6.338503461530158e-01	 1.668980640230076e+00	 6.479252258004047e+00
 6.182857398461339e-01	 1.674809079957435e+00	 6.353335360165568e+00
 7.763971701024950e-01	 1.617420892213523e+00	 7.579945297674263e+00
 7.610552419040807e-01	 1.624696203781240e+00	 7.434169160446867e+00
 7.456707484979823e-01	 1.631814301601403e+00	 7.302864695601427e+00
 7.302460237034977e-01	 1.638774995483586e+00	 7.183834432041836e+00
 7.147833965724535e-01	 1.645578139827385e+00	 7.072595687406545e+00
 6.992851903642262e-01	 1.652223633306464e+00	 6.965742809535772e+00
 6.837537215354034e-01	 1.658711418525549e+00	 6.860071002038863e+00
 6.681912987448795e-01	 1.665041481651053e+00	 6.752508868766627e+00
 6.526002218751353e-01	 1.671213852015979e+00	 6.640168121622796e+00
 6.369827810704327e-01	 1.677228601699848e+00	 6.520386325086623e+00
 6.213412557926123e-01	 1.683085845084353e+00	 6.390762736874670e+00
 5.907863040868248e-01	 1.600318756583150e+00	 5.884284534312912e+00
 5.758957525915404e-01	 1.605737444383062e+00	 5.755166122727992e+00
 5.609866070405670e-01	 1.611006757438059e+00	 5.633022505556285e+00
 5.460609973873252e-01	 1.616126921211349e+00	 5.516647065701841e+00
 5.311210400547076e-01	 1.621098199458451e+00	 5.405006691070826e+00
 5.161688371304696e-01	 1.625920893701830e+00	 5.297250844818909e+00
 5.012064755825815e-01	 1.630595342686943e+00	 5.192716785561723e+00
 4.862360264949831e-01	 1.635121921820524e+00	 5.090931151234603e+00
 4.712595443241364e-01	 1.639501042591871e+00	 4.991608138957266e+00
 4.562790661767438e-01	 1.643733151977961e+00	 4.894644529648882e+00
 4.412966111089681e-01	 1.647818731833210e+00	 4.800111820160175e+00
 5.938418200310727e-01	 1.608595521707807e+00	 5.967065101265400e+00
 5.788742553802930e-01	 1.614042234677985e+00	 5.840394393255554e+00
 5.638880005063792e-01	 1.619338800344882e+00	 5.719093876431190e+00
 5.488851963787501e-01	 1.624485445337789e+00	 5.602153920849307e+00
 5.338679703663187e-01	 1.629482434776356e+00	 5.488754672747188e+00
 5.188384354287184e-01	 1.634330071742502e+00	 5.378274281137462e+00
 5.037986893276002e-01	 1.639028696733660e+00	 5.270293120559328e+00
 4.887508138584330e-01	 1.643578687098145e+00	 5.164594233853817e+00
 4.736968741032108e-01	 1.647980456453455e+00	 5.061160238127870e+00
 4.586389177044372e-01	 1.652234454088310e+00	 4.960166954007439e+00
 4.435789741607188e-01	 1.656341164349249e+00	 4.861974032734969e+00
 5.968973221257120e-01	 1.616872249315604e+00	 6.038545038912430e+00
 5.818527446684305e-01	 1.622346987328963e+00	 5.913724743938639e+00
 5.667893808209928e-01	 1.627670805484157e+00	 5.792896447539737e+00
 5.517093825687714e-01	 1.632843931576559e+00	 5.675234614588168e+00
 5.366148882266547e-01	 1.637866632089948e+00	 5.560120066301518e+00
 5.215080216261112e-01	 1.642739211665698e+00	 5.447147363777399e+00
 5.063908913224290e-01	 1.647462012553212e+00	 5.336128028787189e+00
 4.912655898225618e-01	 1.652035414042385e+00	 5.227089836143498e+00
 4.761341928339942e-01	 1.656459831878909e+00	 5.120272431905058e+00
 4.609987585349881e-01	 1.660735717663242e+00	 5.016119549134562e+00
 4.458613268665516e-01	 1.664863558234037e+00	 4.915268107908916e+00
 5.999528138332071e-01	 1.625148948785818e+00	 6.100267082182702e+00
 5.848312238311610e-01	 1.630651711747050e+00	 5.976666331026780e+00
 5.696907512722506e-01	 1.636002782297840e+00	 5.855892782273539e+00
 5.545335591577693e-01	 1.641202389399646e+00	 5.737292593350714e+00
 5.393617967485489e-01	 1.646250800900371e+00	 5.620435201336042e+00
 5.241775987478607e-01	 1.651148323000847e+00	 5.505119862870774e+00
 5.089830845045978e-01	 1.655895299702445e+00	 5.391377867225724e+00
 4.937803572371684e-01	 1.660492112236637e+00	 5.279470667550830e+00
 4.785715032785152e-01	 1.664939178477311e+00	 5.169884195940233e+00
 4.633585913426267e-01	 1.669236952336652e+00	 5.063319645980716e+00
 4.481436718128829e-01	 1.673385923145431e+00	 4.960681021906877e+00
 6.030082986160217e-01	 1.633425629497728e+00	 6.153784548877695e+00
 5.878096962436921e-01	 1.638956417343300e+00	 6.030739249967713e+00
 5.725921151479941e-01	 1.644334740227887e+00	 5.909556818417540e+00
 5.573577293461232e-01	 1.649560828279030e+00	 5.789743185582567e+00
 5.421086990448337e-01	 1.654634950708765e+00	 5.671044863598278e+00
 5.268471698191795e-01	 1.659557415277376e+00	 5.553454639951162e+00
 5.115752718116380e-01	 1.664328567738204e+00	 5.437212775764661e+00
 4.962951189520516e-01	 1.668948791264298e+00	 5.322803963815388e+00
 4.810088081988015e-01	 1.673418505857737e+00	 5.210950323572674e+00
 4.657184188015836e-01	 1.677738167742438e+00	 5.102600729194541e+00
 4.504260115861295e-01	 1.681908268741285e+00	 4.998916782348642e+00
 6.060637799366202e-01	 1.641702300830610e+00	 6.200660748433095e+00
 5.907881652812302e-01	 1.647261113528765e+00	 6.077474009043720e+00
 5.754934757360652e-01	 1.652666688716251e+00	 5.955373399521030e+00
 5.601818963342136e-01	 1.657919257686699e+00	 5.834013183865650e+00
 5.448555982283425e-01	 1.663019091016272e+00	 5.713305921025993e+00
 5.295167378652802e-01	 1.667966498024714e+00	 5.593427311251484e+00
 5.141674561810801e-01	 1.672761826217335e+00	 5.474816371254526e+00
 4.988098778170105e-01	 1.677405460708763e+00	 5.358171205463178e+00
 4.834461103568818e-01	 1.681897823629267e+00	 5.244440662625523e+00
 4.680782435860895e-01	 1.686239373514497e+00	 5.134812186277022e+00
 4.527083487727080e-01	 1.690430604679451e+00	 5.030696184024984e+00
 6.091192612574667e-01	 1.649978972163745e+00	 6.242468387039729e+00
 5.937666343189832e-01	 1.655565809714499e+00	 6.118410998877420e+00
 5.783948363243070e-01	 1.660998637204889e+00	 5.994837801816341e+00
 5.630060633224202e-01	 1.666277687094635e+00	 5.871540422410957e+00
 5.476024974119078e-01	 1.671403231324035e+00	 5.748586945132430e+00
 5.321863059113755e-01	 1.676375580772290e+00	 5.626325906458008e+00
 5.167596405504552e-01	 1.681195084696685e+00	 5.505385437268061e+00
 5.013246366818435e-01	 1.685862130153426e+00	 5.386667832385766e+00
 4.858834125147845e-01	 1.690377141400979e+00	 5.271339848797965e+00
 4.704380683703745e-01	 1.694740579286728e+00	 5.160819053971061e+00
 4.549906859590346e-01	 1.698952940617783e+00	 5.056756562652833e+00
 6.121747460410250e-01	 1.658255652876409e+00	 6.280788969244334e+00
 5.967451067321587e-01	 1.663870515311554e+00	 6.155099957946875e+00
 5.812962002005601e-01	 1.669330595135754e+00	 6.029455256825861e+00
 5.658302335111228e-01	 1.674636125974823e+00	 5.903773350076245e+00
 5.503493997083629e-01	 1.679787381133194e+00	 5.778267827890708e+00
 5.348558769826780e-01	 1.684784673049532e+00	 5.653450523072132e+00
 5.193518278572937e-01	 1.689628352733098e+00	 5.530129609716309e+00
 5.038393983963497e-01	 1.694318809181683e+00	 5.409402954652999e+00
 4.883207174345374e-01	 1.698856468781952e+00	 5.292647035789016e+00
 4.727978958286690e-01	 1.703241794693026e+00	 5.181501761991029e+00
 4.572730257315263e-01	 1.707475286214137e+00	 5.077851546698247e+00
 6.152302377497595e-01	 1.666532352347879e+00	 6.317212196127509e+00
 5.997235858959635e-01	 1.672175239730982e+00	 6.189099434231298e+00
 5.841975706526672e-01	 1.677662571950801e+00	 6.060740469801682e+00
 5.686544101007016e-01	 1.682994583799245e+00	 5.932170599051987e+00
 5.530963082305408e-01	 1.688171549944890e+00	 5.803739394267932e+00
 5.375254541044006e-01	 1.693193784385869e+00	 5.676112976540699e+00
 5.219440210391266e-01	 1.698061639883421e+00	 5.550271058470049e+00
 5.063541658103280e-01	 1.702775507376928e+00	 5.427499059689641e+00
 4.907580278781689e-01	 1.707335815381264e+00	 5.309375622262126e+00
 4.751577286352038e-01	 1.711743029367290e+00	 5.197755874186036e+00
 4.595553706765995e-01	 1.715997651126365e+00	 5.094750807329335e+00
 6.182857398461339e-01	 1.674809079957435e+00	 6.353335360165584e+00
 6.027020751856050e-01	 1.680479992383838e+00	 6.221976243114190e+00
 5.870989509684704e-01	 1.685994577091986e+00	 6.090217134130164e+00
 5.714785962915362e-01	 1.691353070039888e+00	 5.958200549366985e+00
 5.558432260912740e-01	 1.696555747260267e+00	 5.826403010558435e+00
 5.401950403017557e-01	 1.701602924310728e+00	 5.695636446285137e+00
 5.245362230334848e-01	 1.706494955704498e+00	 5.567044165117325e+00
 5.088689417735772e-01	 1.711232234322558e+00	 5.442091715937433e+00
 4.931953466077078e-01	 1.715815190807992e+00	 5.322552975763324e+00
 4.775175694642090e-01	 1.720244292943415e+00	 5.210491827230218e+00
 4.618377233806708e-01	 1.724520045012323e+00	 5.108239806573558e+00
 6.213412557926123e-01	 1.683085845084353e+00	 6.390762736874677e+00
 6.056805779762906e-01	 1.688784782681174e+00	 6.255304921648815e+00
 5.900003444358113e-01	 1.694326620001263e+00	 6.119417441827885e+00
 5.743027952840069e-01	 1.699711594168735e+00	 5.983340889339033e+00
 5.585901564033956e-01	 1.704939982580464e+00	 5.847670188645815e+00
 5.428646385999558e-01	 1.710012102353537e+00	 5.713355117777771e+00
 5.271284367778988e-01	 1.714928309753176e+00	 5.581695196986225e+00
 5.113837291358960e-01	 1.719688999601967e+00	 5.454329273129442e+00
 4.956326763851813e-01	 1.724294604671215e+00	 5.333220153696642e+00
 4.798774209899149e-01	 1.728745595055301e+00	 5.220634666922918e+00
 4.641200864301568e-01	 1.733042477529863e+00	 5.119119543743649e+00
 4.412966111089681e-01	 1.647818731833210e+00	 4.800111820160175e+00
 4.263141796519200e-01	 1.651758298622600e+00	 4.711105696973632e+00
 4.113337537490910e-01	 1.655552403853629e+00	 4.628175284912306e+00
 3.963572954751309e-01	 1.659201632344353e+00	 4.547804789609083e+00
 3.813867462147714e-01	 1.662706601199298e+00	 4.466612061273079e+00
 3.664240260737301e-01	 1.666067959132822e+00	 4.381384857815480e+00
 3.514710333125002e-01	 1.669286385782073e+00	 4.291465793482173e+00
 3.365296438031382e-01	 1.672362591010333e+00	 4.199371230961249e+00
 3.216017105091286e-01	 1.675297314201602e+00	 4.107852479613830e+00
 3.066890629883714e-01	 1.678091323547173e+00	 4.019718714832669e+00
 2.917935069193159e-01	 1.680745415325032e+00	 3.937793894561565e+00
 4.435789741607188e-01	 1.656341164349249e+00	 4.861974032734969e+00
 4.285190543498036e-01	 1.660301106372383e+00	 4.769656694783722e+00
 4.134611504656968e-01	 1.664114834517588e+00	 4.683579186680184e+00
 3.984072347308053e-01	 1.667782936627572e+00	 4.600273068686911e+00
 3.833592585706105e-01	 1.671306032998505e+00	 4.516402350417004e+00
 3.683191520215247e-01	 1.674684775699870e+00	 4.428759565365675e+00
 3.532888231617544e-01	 1.677919847883867e+00	 4.336196087128223e+00
 3.382701575652775e-01	 1.681011963085166e+00	 4.241222137025217e+00
 3.232650177790171e-01	 1.683961864511827e+00	 4.146720839345533e+00
 3.082752428232595e-01	 1.686770324328196e+00	 4.055607572281336e+00
 2.933026477153374e-01	 1.689438142930575e+00	 3.970787210347821e+00
 4.458613268665516e-01	 1.664863558234037e+00	 4.915268107908916e+00
 4.307239190530261e-01	 1.668843875398534e+00	 4.820713427105852e+00
 4.155885375388807e-01	 1.672677226368962e+00	 4.732581775676963e+00
 4.004571646942260e-01	 1.676364202012672e+00	 4.647451528809079e+00
 3.853317619852419e-01	 1.679905425817453e+00	 4.562033168968901e+00
 3.702142693789848e-01	 1.683301553207896e+00	 4.473152956602982e+00
 3.551066047713233e-01	 1.686553270851235e+00	 4.379198807428581e+00
 3.400106634381067e-01	 1.689661295953505e+00	 4.282584688749555e+00
 3.249283175096477e-01	 1.692626375546808e+00	 4.186317435574214e+00
 3.098614154685703e-01	 1.695449285768520e+00	 4.093410034332091e+00
 2.948117816710419e-01	 1.698130831133236e+00	 4.006839233431996e+00
 4.481436718128829e-01	 1.673385923145431e+00	 4.960681021906877e+00
 4.329287762601861e-01	 1.677386615382004e+00	 4.864831851045084e+00
 4.177159173794299e-01	 1.681239589110945e+00	 4.775614782058260e+00
 4.025070876883904e-01	 1.684945438224232e+00	 4.689655059705855e+00
 3.873042586939053e-01	 1.688504789401261e+00	 4.603710557700674e+00
 3.721093802936372e-01	 1.691918301421715e+00	 4.514653831497994e+00
 3.569243802010784e-01	 1.695186664467848e+00	 4.420481758783596e+00
 3.417511633939113e-01	 1.698310599417042e+00	 4.323396408950961e+00
 3.265916115858005e-01	 1.701290857125424e+00	 4.226524057651335e+00
 3.114475827216708e-01	 1.704128217703386e+00	 4.132966753221824e+00
 2.963209104964883e-01	 1.706823489783799e+00	 4.045764091948742e+00
 4.504260115861295e-01	 1.681908268741285e+00	 4.998916782348642e+00
 4.351336284698812e-01	 1.685929336003742e+00	 4.902585733769950e+00
 4.198432923981320e-01	 1.689801932446728e+00	 4.813128287626401e+00
 4.045570060362953e-01	 1.693526654986833e+00	 4.727217209101355e+00
 3.892767509318409e-01	 1.697104133495052e+00	 4.641659288881167e+00
 3.740044869130095e-01	 1.700535030106144e+00	 4.553375779944985e+00
 3.587421515108914e-01	 1.703820038517377e+00	 4.460069313980517e+00
 3.434916594049765e-01	 1.706959883277466e+00	 4.363609630115700e+00
 3.282549018922555e-01	 1.709955319066555e+00	 4.267235531938510e+00
 3.130337463799290e-01	 1.712807129968036e+00	 4.174129624820640e+00
 2.978300359017357e-01	 1.715516128733043e+00	 4.087385336571312e+00
 4.527083487727080e-01	 1.690430604679451e+00	 5.030696184024984e+00
 4.373384781807100e-01	 1.694472046944703e+00	 4.934566412850791e+00
 4.219706650057747e-01	 1.698364266079504e+00	 4.845590492330075e+00
 4.066069220609382e-01	 1.702107862025056e+00	 4.760489957097475e+00
 3.912492409342875e-01	 1.705703467843943e+00	 4.676122650383585e+00
 3.758995913846281e-01	 1.709151749026000e+00	 4.589461478230235e+00
 3.605599207606341e-01	 1.712453402783493e+00	 4.498002514258390e+00
 3.452321534435876e-01	 1.715609157336470e+00	 4.403191576284437e+00
 3.299181903137928e-01	 1.718619771189080e+00	 4.308359790666286e+00
 3.146199082407117e-01	 1.721486032397711e+00	 4.216761849664220e+00
 2.993391595968430e-01	 1.724208757831753e+00	 4.131535998929735e+00
 4.549906859590346e-01	 1.698952940617783e+00	 5.056756562652833e+00
 4.395433278912707e-01	 1.703014757885835e+00	 4.961382555343357e+00
 4.240980376131453e-01	 1.706926599712466e+00	 4.873487480155777e+00
 4.086568380853162e-01	 1.710689069063482e+00	 4.789843490479592e+00
 3.932217309364851e-01	 1.714302802193057e+00	 4.707362230150904e+00
 3.777946958560204e-01	 1.717768467946096e+00	 4.623071836630727e+00
 3.623776900101776e-01	 1.721086767049868e+00	 4.534339170217910e+00
 3.469726474820300e-01	 1.724258431395743e+00	 4.442124445833594e+00
 3.315814787351925e-01	 1.727284223311878e+00	 4.349817941634857e+00
 3.162060701013867e-01	 1.730164934827652e+00	 4.260737994644108e+00
 3.008482832918693e-01	 1.732901386930710e+00	 4.178058650407362e+00
 4.572730257315263e-01	 1.707475286214137e+00	 5.077851546698247e+00
 4.417481801001611e-01	 1.711557478508091e+00	 4.983659915657192e+00
 4.262254126310313e-01	 1.715488943048804e+00	 4.897322984433492e+00
 4.107067564324265e-01	 1.719270285826692e+00	 4.815665976969790e+00
 3.951942231736736e-01	 1.722902146287515e+00	 4.735657701020112e+00
 3.796898024747137e-01	 1.726385196631251e+00	 4.654385729926862e+00
 3.641954613193938e-01	 1.729720141100172e+00	 4.569153963556880e+00
 3.487131434925890e-01	 1.732907715256978e+00	 4.480405495140984e+00
 3.332447690412345e-01	 1.735948685253828e+00	 4.391544338740862e+00
 3.177922337593210e-01	 1.738843847093101e+00	 4.305944055364740e+00
 3.023574086968734e-01	 1.741594025880697e+00	 4.226805461307470e+00
 4.595553706765995e-01	 1.715997651126365e+00	 5.094750807329335e+00
 4.439530373059795e-01	 1.720100218492422e+00	 5.002041092265651e+00
 4.283527924702204e-01	 1.724051305791712e+00	 4.917618152587230e+00
 4.127566794252662e-01	 1.727851522039265e+00	 4.838363339423680e+00
 3.971667198810920e-01	 1.731501509872435e+00	 4.761306605900601e+00
 3.815849133882345e-01	 1.735001944846279e+00	 4.683599795206946e+00
 3.660132367481546e-01	 1.738353534718077e+00	 4.602538549632959e+00
 3.504536434475501e-01	 1.741557018721864e+00	 4.518047123126085e+00
 3.349080631166989e-01	 1.744613166833812e+00	 4.433486653320790e+00
 3.193784010118823e-01	 1.747522779029301e+00	 4.352277519141285e+00
 3.038665375219142e-01	 1.750286684532495e+00	 4.277638260387274e+00
 4.618377233806708e-01	 1.724520045012323e+00	 5.108239806573558e+00
 4.461579020073239e-01	 1.728642987519778e+00	 5.017185283299836e+00
 4.304801795414998e-01	 1.732613697644382e+00	 4.934911310357515e+00
 4.148066093868325e-01	 1.736432787425782e+00	 4.858359029991647e+00
 3.991392232939805e-01	 1.740100902692939e+00	 4.784624143295506e+00
 3.834800307441104e-01	 1.743618722355998e+00	 4.710928230303726e+00
 3.678310183563314e-01	 1.746986957687255e+00	 4.634601660833047e+00
 3.521941493191987e-01	 1.750206351592091e+00	 4.555076956643295e+00
 3.365713628463656e-01	 1.753277677870706e+00	 4.475605946293223e+00
 3.209645736564382e-01	 1.756201740471491e+00	 4.399647428640432e+00
 3.053756714770509e-01	 1.758979372736888e+00	 4.330428594765859e+00
 4.641200864301568e-01	 1.733042477529863e+00	 5.119119543743649e+00
 4.483627767027926e-01	 1.737185795271111e+00	 5.029768041064421e+00
 4.326075762556573e-01	 1.741176128310005e+00	 4.949757725511725e+00
 4.168565486401227e-01	 1.745014091710825e+00	 4.876093804240867e+00
 4.011117356475782e-01	 1.748700334494148e+00	 4.805942953172057e+00
 3.853751566898679e-01	 1.752235538925222e+00	 4.736602592857661e+00
 3.696488082037957e-01	 1.755620419791376e+00	 4.665469210748984e+00
 3.539346630798197e-01	 1.758855723669352e+00	 4.591537936725802e+00
 3.382346701150147e-01	 1.761942228183390e+00	 4.517876741090920e+00
 3.225507534903555e-01	 1.764880741254913e+00	 4.447974446148567e+00
 3.068848122723423e-01	 1.767672100344656e+00	 4.385057790198145e+00
 2.917935069193159e-01	 1.680745415325032e+00	 3.937793894561565e+00
 2.769142968207429e-01	 1.683260828760689e+00	 3.861709562354242e+00
 2.620557273201212e-01	 1.685637950418222e+00	 3.789539060432855e+00
 2.472195345445104e-01	 1.687877655672838e+00	 3.721660979073082e+00
 2.324074289780241e-01	 1.689980845083896e+00	 3.658362302578717e+00
 2.176210951024806e-01	 1.691948443648752e+00	 3.599820599875919e+00
 2.028621910608533e-01	 1.693781400053988e+00	 3.546089866497426e+00
 1.881323483433538e-01	 1.695480685924739e+00	 3.497089753069796e+00
 1.734331714959617e-01	 1.697047295072823e+00	 3.452597914132909e+00
 1.587662378511934e-01	 1.698482242744367e+00	 3.412245211511604e+00
 1.441330972808751e-01	 1.699786564867602e+00	 3.375513508391684e+00
 2.933026477153374e-01	 1.689438142930575e+00	 3.970787210347821e+00
 2.783464831184466e-01	 1.691966565953688e+00	 3.891847823840147e+00
 2.634110658716375e-01	 1.694355981960888e+00	 3.816860803534528e+00
 2.484981410811182e-01	 1.696607270854758e+00	 3.746312530460123e+00
 2.336094280775258e-01	 1.698721337852289e+00	 3.680577983968688e+00
 2.187466200547211e-01	 1.700699112734856e+00	 3.619903721981043e+00
 2.039113837314958e-01	 1.702541549095582e+00	 3.564394605269750e+00
 1.891053590360338e-01	 1.704249623584780e+00	 3.514003989958918e+00
 1.743301588129330e-01	 1.705824335154196e+00	 3.468527111298238e+00
 1.595873685525815e-01	 1.707266704300739e+00	 3.427597382365227e+00
 1.448785461426520e-01	 1.708577772310391e+00	 3.390685333513983e+00
 2.948117816710419e-01	 1.698130831133236e+00	 4.006839233431996e+00
 2.797786629246872e-01	 1.700672263684863e+00	 3.926169607399207e+00
 2.647663982800408e-01	 1.703073973986022e+00	 3.849484013026616e+00
 2.497767418224222e-01	 1.705336846466656e+00	 3.777357252594655e+00
 2.348114217289577e-01	 1.707461791001365e+00	 3.710231992817034e+00
 2.198721399055148e-01	 1.709449742155527e+00	 3.648402612448868e+00
 2.049605716466700e-01	 1.711301658428788e+00	 3.592002887766035e+00
 1.900783653185451e-01	 1.713018521496616e+00	 3.540997228837244e+00
 1.752271420643233e-01	 1.714601335450664e+00	 3.495175178526401e+00
 1.604084955322314e-01	 1.716051126038605e+00	 3.454148886984513e+00
 1.456239916257571e-01	 1.717368939904149e+00	 3.417353276810047e+00
 2.963209104964883e-01	 1.706823489783799e+00	 4.045764091948742e+00
 2.812108378623159e-01	 1.709377931819725e+00	 3.964470328520506e+00
 2.661217260810986e-01	 1.711791936373050e+00	 3.887186489916981e+00
 2.510553382172414e-01	 1.714066392401066e+00	 3.814556531428795e+00
 2.360134112943329e-01	 1.716202214435967e+00	 3.747070581517566e+00
 2.209976559302213e-01	 1.718200341827125e+00	 3.685049735780375e+00
 2.060097559952416e-01	 1.720061737980688e+00	 3.628634783843244e+00
 1.910513682934293e-01	 1.721787389597271e+00	 3.577778570479976e+00
 1.761241222665274e-01	 1.723378305908415e+00	 3.532241691458086e+00
 1.612296197205777e-01	 1.724835517912544e+00	 3.491591225614475e+00
 1.463694345748583e-01	 1.726160077611077e+00	 3.455202207401026e+00
 2.978300359017357e-01	 1.715516128733043e+00	 4.087385336571312e+00
 2.826430095541834e-01	 1.718083580223782e+00	 4.006553106444445e+00
 2.674770508105791e-01	 1.720509879001397e+00	 3.929752250755191e+00
 2.523339317143950e-01	 1.722795918550522e+00	 3.857676699817524e+00
 2.372153981356646e-01	 1.724942618060942e+00	 3.790843889028089e+00
 2.221231694041994e-01	 1.726950921666006e+00	 3.729580579489496e+00
 2.070589379660766e-01	 1.728821797678364e+00	 3.674012707866974e+00
 1.920243690632279e-01	 1.730556237823766e+00	 3.624058954796091e+00
 1.770211004359405e-01	 1.732155256473636e+00	 3.579427720533639e+00
 1.620507420480548e-01	 1.733619889877132e+00	 3.539617197795289e+00
 1.471148758346237e-01	 1.734951195393385e+00	 3.503918234709379e+00
 2.993391595968430e-01	 1.724208757831753e+00	 4.131535998929735e+00
 2.840751796231410e-01	 1.726789218762543e+00	 4.052228821758946e+00
 2.688323740042503e-01	 1.729227811750488e+00	 3.976971582785884e+00
 2.536125237627020e-01	 1.731525434807560e+00	 3.906489088722742e+00
 2.384173836149657e-01	 1.733683011781130e+00	 3.841305986715179e+00
 2.232486816028083e-01	 1.735701491588526e+00	 3.781733693267936e+00
 2.081081187480406e-01	 1.737581847448899e+00	 3.727861449986619e+00
 1.929973687304829e-01	 1.739325076113126e+00	 3.679551183088216e+00
 1.779180775889581e-01	 1.740932197092512e+00	 3.636435843223120e+00
 1.628718634450974e-01	 1.742404251886952e+00	 3.597920903626455e+00
 1.478603162497211e-01	 1.743742303213276e+00	 3.563188697920668e+00
 3.008482832918693e-01	 1.732901386930710e+00	 4.178058650407362e+00
 2.855073496920396e-01	 1.735494857301518e+00	 4.101316174057793e+00
 2.701876971978803e-01	 1.737945744499749e+00	 4.028641098938461e+00
 2.548911158109815e-01	 1.740254951064713e+00	 3.960770078101620e+00
 2.396193690942495e-01	 1.742423405501375e+00	 3.898214923802942e+00
 2.243741938014072e-01	 1.744452061511047e+00	 3.841250727757822e+00
 2.091572995299995e-01	 1.746341897219373e+00	 3.789908207076475e+00
 1.939703683977355e-01	 1.748093914402372e+00	 3.743969940108411e+00
 1.788150547419749e-01	 1.749709137711230e+00	 3.702970156215386e+00
 1.636929848421399e-01	 1.751188613896581e+00	 3.666197745222640e+00
 1.486057566648185e-01	 1.752533411032956e+00	 3.632702155911752e+00
 3.023574086968734e-01	 1.741594025880697e+00	 4.226805461307485e+00
 2.869395213837304e-01	 1.744200505706217e+00	 4.153641739661746e+00
 2.715430219272370e-01	 1.746663687128603e+00	 4.084563792664550e+00
 2.561697093080523e-01	 1.748984477214517e+00	 4.020301147500719e+00
 2.408213559355292e-01	 1.751163809126522e+00	 3.961332772460327e+00
 2.254997072753554e-01	 1.753202641349921e+00	 3.907876472952299e+00
 2.102064815008191e-01	 1.755101956916870e+00	 3.859882613364124e+00
 1.949433691675278e-01	 1.756862762628529e+00	 3.817031815912783e+00
 1.797120329113862e-01	 1.758486088275977e+00	 3.778736287592491e+00
 1.645141071696168e-01	 1.759972985860596e+00	 3.744144428365507e+00
 1.493511979245838e-01	 1.761324528814632e+00	 3.712148377637244e+00
 3.038665375219142e-01	 1.750286684532495e+00	 4.277638260387259e+00
 2.883716963210641e-01	 1.752906173842148e+00	 4.209040029425502e+00
 2.728983497280884e-01	 1.755381649516476e+00	 4.144549092638609e+00
 2.574483057027337e-01	 1.757714023149505e+00	 4.084868926371191e+00
 2.420233455008178e-01	 1.759904232561414e+00	 4.030425672536875e+00
 2.266252233000118e-01	 1.761953241021510e+00	 3.981358896241830e+00
 2.112556658493652e-01	 1.763862036468471e+00	 3.937516770762898e+00
 1.959163721424012e-01	 1.765631630728619e+00	 3.898455327532301e+00
 1.806090131135872e-01	 1.767263058732940e+00	 3.863441408973841e+00
 1.653352313579627e-01	 1.768757377733578e+00	 3.831458964343632e+00
 1.500966408736851e-01	 1.770115666520508e+00	 3.801218332958018e+00
 3.053756714770509e-01	 1.758979372736888e+00	 4.330428594765866e+00
 2.898038761268919e-01	 1.761611871574821e+00	 4.267353546624122e+00
 2.742536821362024e-01	 1.764099641542793e+00	 4.208412917334462e+00
 2.587269064438446e-01	 1.766443598762214e+00	 4.154265244125768e+00
 2.432253391521285e-01	 1.768644685710895e+00	 4.105263875970227e+00
 2.277507431507357e-01	 1.770703870442168e+00	 4.061449180128947e+00
 2.123048537645037e-01	 1.772622145801259e+00	 4.022545278919960e+00
 1.968893784248975e-01	 1.774400528639667e+00	 3.987960940468914e+00
 1.815059963649729e-01	 1.776040059028305e+00	 3.956794247647299e+00
 1.661563583376121e-01	 1.777541799470105e+00	 3.927840671978812e+00
 1.508420863567902e-01	 1.778906834112791e+00	 3.899604183900635e+00
 3.068848122723423e-01	 1.767672100344656e+00	 4.385057790198159e+00
 2.912360624240649e-01	 1.770317608769745e+00	 4.328432844932641e+00
 2.756090206873471e-01	 1.772817673086979e+00	 4.275977729491605e+00
 2.600055129802040e-01	 1.775173213945177e+00	 4.228287179951076e+00
 2.444273382514744e-01	 1.777385178479808e+00	 4.185621790881680e+00
 2.288762681028862e-01	 1.779454539528256e+00	 4.147901759618469e+00
 2.133540464351001e-01	 1.781382294842315e+00	 4.114705264995711e+00
 1.978623891175583e-01	 1.783169466298693e+00	 4.085271090025514e+00
 1.824029836819386e-01	 1.784817099108259e+00	 4.058505098680161e+00
 1.669774890389995e-01	 1.786326261024755e+00	 4.032990179829572e+00
 1.515875352185671e-01	 1.787698041553686e+00	 4.006999276332126e+00
 1.441330972808751e-01	 1.699786564867602e+00	 3.375513508391684e+00
 1.295377445191109e-01	 1.700961128514523e+00	 3.341325014282870e+00
 1.149791545157106e-01	 1.702007240692378e+00	 3.309584285758186e+00
 1.004587595530120e-01	 1.702925993974722e+00	 3.281033249780950e+00
 8.597796460385999e-02	 1.703718498596106e+00	 3.256258245211857e+00
 7.153814718581784e-02	 1.704385881721215e+00	 3.235695809211874e+00
 5.714065723491034e-02	 1.704929286717479e+00	 3.219639632243581e+00
 4.278681699857358e-02	 1.705349872431669e+00	 3.208248466511501e+00
 2.847792094747452e-02	 1.705648812471032e+00	 3.201554783113703e+00
 1.421523570584970e-02	 1.705827294489458e+00	 3.199473984152833e+00
 0.000000000000000e+00	 1.705886519479168e+00	 3.201813985754021e+00
 1.448785461426520e-01	 1.708577772310391e+00	 3.390685333513983e+00
 1.302077069777978e-01	 1.709758410739589e+00	 3.356712165711855e+00
 1.155738207063259e-01	 1.710809933355354e+00	 3.325569030961387e+00
 1.009783270182690e-01	 1.711733438381984e+00	 3.297949505232994e+00
 8.642263815292352e-02	 1.712530041796110e+00	 3.274380983666359e+00
 7.190813875230727e-02	 1.713200876592063e+00	 3.255231751108552e+00
 5.743618573424903e-02	 1.713747092050717e+00	 3.240719217628047e+00
 4.300810818478481e-02	 1.714169853012343e+00	 3.230919096212205e+00
 2.862520726952154e-02	 1.714470339154033e+00	 3.225775310754706e+00
 1.428875616361536e-02	 1.714649744272164e+00	 3.225110433897312e+00
 0.000000000000000e+00	 1.714709275570436e+00	 3.228636464554413e+00
 1.456239916257571e-01	 1.717368939904149e+00	 3.417353276810047e+00
 1.308776664000111e-01	 1.718555653088151e+00	 3.383681922506677e+00
 1.161684842018141e-01	 1.719612586117377e+00	 3.353025472245887e+00
 1.014978921288511e-01	 1.720540842866837e+00	 3.326063373698671e+00
 8.686730968682779e-02	 1.721341545055211e+00	 3.303297798886225e+00
 7.227812864217506e-02	 1.722015831506447e+00	 3.285062009197572e+00
 5.773171289448491e-02	 1.722564857414828e+00	 3.271529882186579e+00
 4.322939836835357e-02	 1.722989793614098e+00	 3.262726369540808e+00
 2.877249292428877e-02	 1.723291825851158e+00	 3.258538666990503e+00
 1.436227628832789e-02	 1.723472154064845e+00	 3.258727888892450e+00
 0.000000000000000e+00	 1.723531991670303e+00	 3.262941051055148e+00
 1.463694345748583e-01	 1.726160077611077e+00	 3.455202207401026e+00
 1.315476235448691e-01	 1.727352865529281e+00	 3.421918436513736e+00
 1.167631456759571e-01	 1.728415208953636e+00	 3.391646791900790e+00
 1.020174554734269e-01	 1.729348217409838e+00	 3.365085850355937e+00
 8.731197970936264e-02	 1.730153018358599e+00	 3.342745315413808e+00
 7.264811727457655e-02	 1.730830756453453e+00	 3.324955688969880e+00
 5.802723905039373e-02	 1.731382592802073e+00	 3.311879101868635e+00
 4.345068779994050e-02	 1.731809704231651e+00	 3.303521064828926e+00
 2.891977807859615e-02	 1.732113282558871e+00	 3.299742912995297e+00
 1.443579616325058e-02	 1.732294533865007e+00	 3.300274729835180e+00
 0.000000000000000e+00	 1.732354677776619e+00	 3.304728547559607e+00
 1.471148758346237e-01	 1.734951195393385e+00	 3.503918234709379e+00
 1.322175791714902e-01	 1.736150058032052e+00	 3.471107074025936e+00
 1.173578058025364e-01	 1.737217811839318e+00	 3.441127302933400e+00
 1.025370176406654e-01	 1.738155571991545e+00	 3.414728925567039e+00
 8.775664872431782e-02	 1.738964471691459e+00	 3.392460971598701e+00
 7.301810506866725e-02	 1.739645661422167e+00	 3.374682488387123e+00
 5.832276453675114e-02	 1.740200308204714e+00	 3.361574689590037e+00
 4.367197673020620e-02	 1.740629594859717e+00	 3.353154013448044e+00
 2.906706289926362e-02	 1.740934719273633e+00	 3.349285856316113e+00
 1.450931587164670e-02	 1.741116893670152e+00	 3.349698760036778e+00
 0.000000000000000e+00	 1.741177343887234e+00	 3.353998843763581e+00
 1.478603162497211e-01	 1.743742303213276e+00	 3.563188697920668e+00
 1.328875340389929e-01	 1.744947240565538e+00	 3.530934394991132e+00
 1.179524652553341e-01	 1.746020404749609e+00	 3.501162421631773e+00
 1.030565792192352e-01	 1.746962916592514e+00	 3.474705554018257e+00
 8.820131723548325e-02	 1.747775915038981e+00	 3.452182988162334e+00
 7.338809244360252e-02	 1.748460556401677e+00	 3.434012668316268e+00
 5.861828968833286e-02	 1.749018013615008e+00	 3.420424769624152e+00
 4.389326540981127e-02	 1.749449475493014e+00	 3.411476079847384e+00
 2.921434755311115e-02	 1.749756145991908e+00	 3.407065037887669e+00
 1.458283549677953e-02	 1.749939243477786e+00	 3.406947200372490e+00
 0.000000000000000e+00	 1.750000000000000e+00	 3.410750920225555e+00
 1.486057566648185e-01	 1.752533411032956e+00	 3.632702155911737e+00
 1.335574889064956e-01	 1.753744423098810e+00	 3.601088132930165e+00
 1.185471247081317e-01	 1.754822997659698e+00	 3.571448640995057e+00
 1.035761407978050e-01	 1.755770261193304e+00	 3.544729624804717e+00
 8.864598574664863e-02	 1.756587358386351e+00	 3.521650337692900e+00
 7.375807981853776e-02	 1.757275451381068e+00	 3.502717023837069e+00
 5.891381483991457e-02	 1.757835719025220e+00	 3.488237752732743e+00
 4.411455408941636e-02	 1.758269356126260e+00	 3.478338142171457e+00
 2.936163220695867e-02	 1.758577572710158e+00	 3.472977719420684e+00
 1.465635512191236e-02	 1.758761593285413e+00	 3.471966684372641e+00
 0.000000000000000e+00	 1.758822656112766e+00	 3.474982851736387e+00
 1.493511979245838e-01	 1.761324528814632e+00	 3.712148377637259e+00
 1.342274445331167e-01	 1.762541615600941e+00	 3.681257175554489e+00
 1.191417848347111e-01	 1.763625600544772e+00	 3.651683505005439e+00
 1.040957029650435e-01	 1.764577615774469e+00	 3.624515932416211e+00
 8.909065476160387e-02	 1.765398811718757e+00	 3.600602715042922e+00
 7.412806761262845e-02	 1.766090356349429e+00	 3.580566856379644e+00
 5.920934032627197e-02	 1.766653434427608e+00	 3.564822312017160e+00
 4.433584301968205e-02	 1.767089246754171e+00	 3.553591073430314e+00
 2.950891702762615e-02	 1.767399009424845e+00	 3.546920871152470e+00
 1.472987483030848e-02	 1.767583953090539e+00	 3.544703253454319e+00
 0.000000000000000e+00	 1.767645322223381e+00	 3.546691810588137e+00
 1.500966408736851e-01	 1.770115666520508e+00	 3.801218332958018e+00
 1.348974016779748e-01	 1.771338828041004e+00	 3.771131546049077e+00
 1.197364463088540e-01	 1.772428223380018e+00	 3.741565583709908e+00
 1.046152663096194e-01	 1.773384990316567e+00	 3.713780148599357e+00
 8.953532478413871e-02	 1.774210285021388e+00	 3.688780508600211e+00
 7.449805624502995e-02	 1.774905281295844e+00	 3.667333946670743e+00
 5.950486648218080e-02	 1.775471169814435e+00	 3.649987359461194e+00
 4.455713245126898e-02	 1.775909157371465e+00	 3.637085723208946e+00
 2.965620218193353e-02	 1.776220466132433e+00	 3.628791159944407e+00
 1.480339470523116e-02	 1.776406332890666e+00	 3.625102352287388e+00
 0.000000000000000e+00	 1.776468008329698e+00	 3.625874069749456e+00
 1.508420863567902e-01	 1.778906834112791e+00	 3.899604183900635e+00
 1.355673611001880e-01	 1.780136070388071e+00	 3.870402385006105e+00
 1.203311098043423e-01	 1.781230876140625e+00	 3.840794449087644e+00
 1.051348314202015e-01	 1.782192394800156e+00	 3.812238795068132e+00
 8.997999631804297e-02	 1.783021788279429e+00	 3.785924772399024e+00
 7.486804613489774e-02	 1.783720236209401e+00	 3.762790528461760e+00
 5.980039364241670e-02	 1.784288935177960e+00	 3.743542023144072e+00
 4.477842263483776e-02	 1.784729097972858e+00	 3.728672899896628e+00
 2.980348783670076e-02	 1.785041952829383e+00	 3.718484937714250e+00
 1.487691482994369e-02	 1.785228742683300e+00	 3.713108824290435e+00
 0.000000000000000e+00	 1.785290724429565e+00	 3.712525005950868e+00
 1.515875352185671e-01	 1.787698041553686e+00	 4.006999276332126e+00
 1.362373235588749e-01	 1.788933352611214e+00	 3.978761932987922e+00
 1.209257759949575e-01	 1.790033568801779e+00	 3.949070651676687e+00
 1.056543988854585e-01	 1.790999839205792e+00	 3.919609217032152e+00
 9.042466986710648e-02	 1.791833331478070e+00	 3.891777199043404e+00
 7.523803770138718e-02	 1.792535231079186e+00	 3.866709263010371e+00
 6.009592214175536e-02	 1.793106740510443e+00	 3.845295625099278e+00
 4.499971382104898e-02	 1.793549078553067e+00	 3.828203353411190e+00
 2.995077415874777e-02	 1.793863479512159e+00	 3.815898230193607e+00
 1.495043528770935e-02	 1.794051192465945e+00	 3.808666907253176e+00
 0.000000000000000e+00	 1.794113480520832e+00	 3.806639102680241e+00
 1.794113480520832e+00	 0.000000000000000e+00	 1.328173418243084e+01
 1.794051192465945e+00	 1.495043528770836e-02	 1.327724816073011e+01
 1.793863479512158e+00	 2.995077415874692e-02	 1.327541350807731e+01
 1.793549078553066e+00	 4.499971382104827e-02	 1.327565238425505e+01
 1.793106740510443e+00	 6.009592214175480e-02	 1.327748696914515e+01
 1.792535231079187e+00	 7.523803770138675e-02	 1.328054488218280e+01
 1.791833331478071e+00	 9.042466986710623e-02	 1.328456470679295e+01
 1.790999839205791e+00	 1.056543988854583e-01	 1.328940159154385e+01
 1.790033568801779e+00	 1.209257759949575e-01	 1.329503289385756e+01
 1.788933352611214e+00	 1.362373235588751e-01	 1.330156382623738e+01
 1.787698041553686e+00	 1.515875352185671e-01	 1.330923305880525e+01
 1.802937784072603e+00	 0.000000000000000e+00	 1.322957280611021e+01
 1.802875189655369e+00	 1.502396864030362e-02	 1.322553508190776e+01
 1.802686553439808e+00	 3.009808631356830e-02	 1.322388135256317e+01
 1.802370606106978e+00	 4.522104381996007e-02	 1.322408376726976e+01
 1.801926092435116e+00	 6.039150247454263e-02	 1.322571282234998e+01
 1.801351772048239e+00	 7.560809416171167e-02	 1.322844281754532e+01
 1.800646420170603e+00	 9.086942140881944e-02	 1.323205744662401e+01
 1.799808828386452e+00	 1.061740574793719e-01	 1.323645549486463e+01
 1.798837805404581e+00	 1.215205464861688e-01	 1.324165660986056e+01
 1.797732177827113e+00	 1.369074035247444e-01	 1.324780710600530e+01
 1.796490790921936e+00	 1.523331148274494e-01	 1.325518575663754e+01
 1.811762132630000e+00	 0.000000000000000e+00	 1.318227469833247e+01
 1.811699231848858e+00	 1.509750236770970e-02	 1.317892944249038e+01
 1.811509672366819e+00	 3.024539921932970e-02	 1.317768221196085e+01
 1.811192178652375e+00	 4.544237494721785e-02	 1.317804742811759e+01
 1.810745489340192e+00	 6.068708431431658e-02	 1.317963598825113e+01
 1.810168357983385e+00	 7.597815250885374e-02	 1.318216076778078e+01
 1.809459553811654e+00	 9.131417521832746e-02	 1.318544228770064e+01
 1.808617862494764e+00	 1.066937187231593e-01	 1.318941452069000e+01
 1.807642086910848e+00	 1.221153200103886e-01	 1.319413080297794e+01
 1.806531047918943e+00	 1.375774869077655e-01	 1.319976981275502e+01
 1.805283585135210e+00	 1.530786982385879e-01	 1.320664156932676e+01
 1.820586521192396e+00	 0.000000000000000e+00	 1.313975548480946e+01
 1.820523314045960e+00	 1.517103642827948e-02	 1.313734027337209e+01
 1.820332831293267e+00	 3.039271279258782e-02	 1.313672340905024e+01
 1.820013791190213e+00	 4.566370707743835e-02	 1.313745399907572e+01
 1.819564926227870e+00	 6.098266749361515e-02	 1.313917554664390e+01
 1.818984983888418e+00	 7.634821253314039e-02	 1.314163150788472e+01
 1.818272727406976e+00	 9.175893104361936e-02	 1.314467104660057e+01
 1.817426936538807e+00	 1.072133823223500e-01	 1.314825496112133e+01
 1.816446408331353e+00	 1.227100962305709e-01	 1.315246175105062e+01
 1.815329957900539e+00	 1.382475733282074e-01	 1.315749378516851e+01
 1.814076419210772e+00	 1.538242850294628e-01	 1.316368352492815e+01
 1.829410944759166e+00	 0.000000000000000e+00	 1.310192938604472e+01
 1.829347431246227e+00	 1.524457078036579e-02	 1.310067417057351e+01
 1.829156025219229e+00	 3.054002694989930e-02	 1.310090885099627e+01
 1.828835438721452e+00	 4.588504008523830e-02	 1.310220976271271e+01
 1.828384398100345e+00	 6.127825184497686e-02	 1.310424533767311e+01
 1.827801644767130e+00	 7.671827402489902e-02	 1.310678172469815e+01
 1.827085935962325e+00	 9.220368863268434e-02	 1.310968864174715e+01
 1.826236045526661e+00	 1.077330479824734e-01	 1.311294543545335e+01
 1.825250764676867e+00	 1.233048748096698e-01	 1.311664731643072e+01
 1.824128902785732e+00	 1.389176624063391e-01	 1.312101173212678e+01
 1.822869288165890e+00	 1.545698747775544e-01	 1.312638483193125e+01
 1.838235398329687e+00	 0.000000000000000e+00	 1.306870925078964e+01
 1.838171578449207e+00	 1.531810538232149e-02	 1.306883534038198e+01
 1.837979249144781e+00	 3.068734160782080e-02	 1.307013908831095e+01
 1.837657116247048e+00	 4.610637384523443e-02	 1.307221672686449e+01
 1.837203899959812e+00	 6.157383720094010e-02	 1.307475405507481e+01
 1.836618335623317e+00	 7.708833677445702e-02	 1.307753213072382e+01
 1.835899174483453e+00	 9.264844773351147e-02	 1.308043323016079e+01
 1.835045184466402e+00	 1.082527154090590e-01	 1.308344705227390e+01
 1.834055150958159e+00	 1.238996554106393e-01	 1.308667713589145e+01
 1.832927877588356e+00	 1.395877537624296e-01	 1.309034745293813e+01
 1.831662187017830e+00	 1.553154670603430e-01	 1.309480913236199e+01
 1.847059876903333e+00	 0.000000000000000e+00	 1.304000658856736e+01
 1.846995750654451e+00	 1.539164019249942e-02	 1.304172564325325e+01
 1.846802498070001e+00	 3.083465668290898e-02	 1.304431137223405e+01
 1.846478818767959e+00	 4.632770823204344e-02	 1.304737269765810e+01
 1.846023426808468e+00	 6.186942339404342e-02	 1.305060533706165e+01
 1.845435051460771e+00	 7.745840057214178e-02	 1.305379757514312e+01
 1.844712437976115e+00	 9.309320809408997e-02	 1.305683634093164e+01
 1.843854348366112e+00	 1.087723843076360e-01	 1.305971356776560e+01
 1.842859562186001e+00	 1.244944376964336e-01	 1.306253280617788e+01
 1.841726877322242e+00	 1.402578470167478e-01	 1.306551605260544e+01
 1.840455110783858e+00	 1.560610614553088e-01	 1.306901074927477e+01
 1.855884375479479e+00	 0.000000000000000e+00	 1.301462015938979e+01
 1.855819942861508e+00	 1.546517516925245e-02	 1.301805976783872e+01
 1.855625766994964e+00	 3.098197209172050e-02	 1.302215244936106e+01
 1.855300541285142e+00	 4.654904312028212e-02	 1.302651960942178e+01
 1.854842973648509e+00	 6.216501025682523e-02	 1.303085148625762e+01
 1.854251787283286e+00	 7.782846520828068e-02	 1.303490941628177e+01
 1.853525721446064e+00	 9.353796946240889e-02	 1.303852863037953e+01
 1.852663532233867e+00	 1.092920543837340e-01	 1.304162162256863e+01
 1.851663993371164e+00	 1.250892213300065e-01	 1.304418806534327e+01
 1.850525897001225e+00	 1.409279417895628e-01	 1.304652415229516e+01
 1.849248054481242e+00	 1.568066575399323e-01	 1.304903492882154e+01
 1.864708889057499e+00	 0.000000000000000e+00	 1.298441102405795e+01
 1.864644150069929e+00	 1.553871027093341e-02	 1.298889054751954e+01
 1.864449050919747e+00	 3.112928775081202e-02	 1.299395670400333e+01
 1.864122278799557e+00	 4.677037838456715e-02	 1.299927821380815e+01
 1.863662535482128e+00	 6.246059762182402e-02	 1.300458785264777e+01
 1.863068538094658e+00	 7.819853047320120e-02	 1.300968452164361e+01
 1.862339019899055e+00	 9.398273158645745e-02	 1.301443584852761e+01
 1.861472731077748e+00	 1.098117253428823e-01	 1.301878136217604e+01
 1.860468439524420e+00	 1.256840059743123e-01	 1.302273628398693e+01
 1.859324931639138e+00	 1.415980377011436e-01	 1.302639598160095e+01
 1.858041013127248e+00	 1.575522548916935e-01	 1.302994113243895e+01
 1.873533412636770e+00	 0.000000000000000e+00	 1.294779239346841e+01
 1.873468367279264e+00	 1.561224545589516e-02	 1.295244573186150e+01
 1.873272344844427e+00	 3.127660357674020e-02	 1.295765403797969e+01
 1.872944026312159e+00	 4.699171389951528e-02	 1.296312726493655e+01
 1.872482107311525e+00	 6.275618532157827e-02	 1.296863464972374e+01
 1.871885298898677e+00	 7.856859615723068e-02	 1.297400659478065e+01
 1.871152328340842e+00	 9.442749421422478e-02	 1.297913708088053e+01
 1.870281939905831e+00	 1.103313968906103e-01	 1.298398665408114e+01
 1.869272895656538e+00	 1.262787912923049e-01	 1.298858603093574e+01
 1.868123976249811e+00	 1.422681343717592e-01	 1.299304036823815e+01
 1.866833981739142e+00	 1.582978530880728e-01	 1.299753424565462e+01
 1.882357941216666e+00	 0.000000000000000e+00	 1.290480081814320e+01
 1.882292589489063e+00	 1.568578068249056e-02	 1.290879021560239e+01
 1.882095643769081e+00	 3.142391948606171e-02	 1.291333980285222e+01
 1.881765778823908e+00	 4.721304953974327e-02	 1.291819479032759e+01
 1.881301684138893e+00	 6.305177318862648e-02	 1.292315490972746e+01
 1.880702064699139e+00	 7.893866205069652e-02	 1.292807611411821e+01
 1.879965641777177e+00	 9.487225709369997e-02	 1.293287280923297e+01
 1.879091153726199e+00	 1.108510687324475e-01	 1.293752065931648e+01
 1.878077356778291e+00	 1.268735769469385e-01	 1.294206001237523e+01
 1.876923025847079e+00	 1.429382314216786e-01	 1.294659999186645e+01
 1.875626955334190e+00	 1.590434517065505e-01	 1.295132330403570e+01
 1.787698041553686e+00	 1.515875352185671e-01	 1.330923305880524e+01
 1.786326261024755e+00	 1.669774890389988e-01	 1.331755194751030e+01
 1.784817099108259e+00	 1.824029836819379e-01	 1.332565634801255e+01
 1.783169466298693e+00	 1.978623891175576e-01	 1.333344690516430e+01
 1.781382294842314e+00	 2.133540464350997e-01	 1.334098567383666e+01
 1.779454539528256e+00	 2.288762681028857e-01	 1.334850164681447e+01
 1.777385178479808e+00	 2.444273382514740e-01	 1.335639583316767e+01
 1.775173213945176e+00	 2.600055129802037e-01	 1.336524579099182e+01
 1.772817673086980e+00	 2.756090206873468e-01	 1.337580951118082e+01
 1.770317608769745e+00	 2.912360624240647e-01	 1.338902854176105e+01
 1.767672100344656e+00	 3.068848122723423e-01	 1.340603023533155e+01
 1.796490790921936e+00	 1.523331148274494e-01	 1.325518575663754e+01
 1.795112263323674e+00	 1.677987637616727e-01	 1.326345372083987e+01
 1.793595678630914e+00	 1.833001283250068e-01	 1.327183816977366e+01
 1.791939941979431e+00	 1.988355704703719e-01	 1.328019203200052e+01
 1.790143980363745e+00	 2.144034231277070e-01	 1.328853087981176e+01
 1.788206743432129e+00	 2.300019904652596e-01	 1.329703894094952e+01
 1.786127204281779e+00	 2.456295481741353e-01	 1.330607468961745e+01
 1.783904360253470e+00	 2.612843437763503e-01	 1.331617591875968e+01
 1.781537233724924e+00	 2.769645969566062e-01	 1.332806418804172e+01
 1.779024872902189e+00	 2.926684999179882e-01	 1.334264853450209e+01
 1.776366352608243e+00	 3.083942177617580e-01	 1.336102832552448e+01
 1.805283585135210e+00	 1.530786982385879e-01	 1.320664156932676e+01
 1.803898310433295e+00	 1.686200426726874e-01	 1.321456511512479e+01
 1.802374302926518e+00	 1.841972775433771e-01	 1.322288114779414e+01
 1.800710462391899e+00	 1.998087567862867e-01	 1.323140658741744e+01
 1.798905710572194e+00	 2.154528051720141e-01	 1.324012166197551e+01
 1.796958991974783e+00	 2.311277185686937e-01	 1.324917639131343e+01
 1.794869274670746e+00	 2.468317642279395e-01	 1.325889668074993e+01
 1.792635551093389e+00	 2.625631810944035e-01	 1.326978992441786e+01
 1.790256838835518e+00	 2.783201801391766e-01	 1.328255001055125e+01
 1.787732181444672e+00	 2.941009447172261e-01	 1.329806161312679e+01
 1.785060649215598e+00	 3.099036309490485e-01	 1.331740364661668e+01
 1.814076419210772e+00	 1.538242850294628e-01	 1.316368352492815e+01
 1.812684397374696e+00	 1.694413253066293e-01	 1.317100991891959e+01
 1.811152967020335e+00	 1.850944308286472e-01	 1.317894308698287e+01
 1.809481022565932e+00	 2.007819475138219e-01	 1.318727532349149e+01
 1.807667480502450e+00	 2.165021919733756e-01	 1.319596231833254e+01
 1.805711280196355e+00	 2.322534517752947e-01	 1.320513010200603e+01
 1.803611384692580e+00	 2.480339857316648e-01	 1.321508163230796e+01
 1.801366781516948e+00	 2.638420242097387e-01	 1.322630292082188e+01
 1.798976483477317e+00	 2.796757694669589e-01	 1.323946858921854e+01
 1.796439529462697e+00	 2.955333960101377e-01	 1.325544673722487e+01
 1.793754985239578e+00	 3.114130509789675e-01	 1.327530299610938e+01
 1.822869288165890e+00	 1.545698747775544e-01	 1.312638483193125e+01
 1.821470519168950e+00	 1.702626111980846e-01	 1.313290154970066e+01
 1.819931665937626e+00	 1.859915876724152e-01	 1.314017112612951e+01
 1.818251617531361e+00	 2.017551421014973e-01	 1.314797228982986e+01
 1.816429285189302e+00	 2.175515829371460e-01	 1.315624666868382e+01
 1.814463603136981e+00	 2.333791894471684e-01	 1.316510618542760e+01
 1.812353529393162e+00	 2.492362120040901e-01	 1.317484012840359e+01
 1.810098046576164e+00	 2.651208723977317e-01	 1.318592179385172e+01
 1.807696162708878e+00	 2.810313641718543e-01	 1.319901458754622e+01
 1.805146912021767e+00	 2.969658529850817e-01	 1.321497746508638e+01
 1.802449355753047e+00	 3.129224769962685e-01	 1.323486958177831e+01
 1.831662187017830e+00	 1.553154670603430e-01	 1.309480913236199e+01
 1.830256670837134e+00	 1.710838998816394e-01	 1.310034333961608e+01
 1.828710394703656e+00	 1.868887475662795e-01	 1.310670205317895e+01
 1.827022242318018e+00	 2.027283399978324e-01	 1.311366117512500e+01
 1.825191119667539e+00	 2.186009774686797e-01	 1.312115841909169e+01
 1.823215955836795e+00	 2.345049309464211e-01	 1.312930114616691e+01
 1.821095703818368e+00	 2.504384423639941e-01	 1.313837391121592e+01
 1.818829341323052e+00	 2.663997249337579e-01	 1.314884561418758e+01
 1.816415871588759e+00	 2.823869634857640e-01	 1.316137614202492e+01
 1.813854324187387e+00	 2.983983148304172e-01	 1.317682237793556e+01
 1.811143755828862e+00	 3.144319081457049e-01	 1.319624344604388e+01
 1.840455110783858e+00	 1.560610614553088e-01	 1.306901074927477e+01
 1.839042847400324e+00	 1.719051908918804e-01	 1.307342881501456e+01
 1.837489148343687e+00	 1.877859100018383e-01	 1.307866261378831e+01
 1.835792891955739e+00	 2.037015406513474e-01	 1.308449564161455e+01
 1.833952978971950e+00	 2.196503749733315e-01	 1.309087151900067e+01
 1.831968333335933e+00	 2.356306756351590e-01	 1.309790225741783e+01
 1.829837903014075e+00	 2.516406761301552e-01	 1.310587627322028e+01
 1.827560660809629e+00	 2.676785810931931e-01	 1.311526604174757e+01
 1.825135605175517e+00	 2.837425666405889e-01	 1.312673527505693e+01
 1.822561761025060e+00	 2.998307807345035e-01	 1.314114549749723e+01
 1.819838180539883e+00	 3.159413435720306e-01	 1.315956188421837e+01
 1.849248054481242e+00	 1.568066575399323e-01	 1.304903492882154e+01
 1.847829043879594e+00	 1.727264837633934e-01	 1.305224196995718e+01
 1.846267921882982e+00	 1.886830744706899e-01	 1.305616981338925e+01
 1.844563561474353e+00	 2.046747435105618e-01	 1.306061965268343e+01
 1.842714858137325e+00	 2.206997748564558e-01	 1.306555051125410e+01
 1.840720730674533e+00	 2.367564228754885e-01	 1.307108793016779e+01
 1.838580122026158e+00	 2.528429126213521e-01	 1.307753244219047e+01
 1.836292000087911e+00	 2.689574401514129e-01	 1.308536772302670e+01
 1.833855358527708e+00	 2.850981728682301e-01	 1.309526830103895e+01
 1.831269217600288e+00	 3.012632498856995e-01	 1.310810669711254e+01
 1.828532624958970e+00	 3.174507824199989e-01	 1.312495985682584e+01
 1.858041013127248e+00	 1.575522548916935e-01	 1.302994113243895e+01
 1.856615255296021e+00	 1.735477780307652e-01	 1.303380507115780e+01
 1.855046710346803e+00	 1.895802404644325e-01	 1.303791923547500e+01
 1.853334245903695e+00	 2.056479480239954e-01	 1.304186160321566e+01
 1.851476752198452e+00	 2.217491765234071e-01	 1.304535087523841e+01
 1.849473142892728e+00	 2.378821720295156e-01	 1.304902807539539e+01
 1.847322355900494e+00	 2.540451511563633e-01	 1.305351995920992e+01
 1.845023354209912e+00	 2.702363013837927e-01	 1.305932868156899e+01
 1.842575126703891e+00	 2.864537814005889e-01	 1.306714622582597e+01
 1.839976688978579e+00	 3.026957214723643e-01	 1.307786210661146e+01
 1.837227084158984e+00	 3.189602238343635e-01	 1.309257039618545e+01
 1.866833981739142e+00	 1.582978530880728e-01	 1.299753424565462e+01
 1.865401476670680e+00	 1.743690732285816e-01	 1.300258170656293e+01
 1.863825508760415e+00	 1.904774074746644e-01	 1.300823701197928e+01
 1.862104940273597e+00	 2.066211536401683e-01	 1.301413421098197e+01
 1.860238656190121e+00	 2.227985793795398e-01	 1.302001345477603e+01
 1.858225565030656e+00	 2.390079224593465e-01	 1.302573136455029e+01
 1.856064599682962e+00	 2.552473910539676e-01	 1.303127246578610e+01
 1.853754718227649e+00	 2.715151640657081e-01	 1.303676174845561e+01
 1.851294904762621e+00	 2.878093914695661e-01	 1.304253513978826e+01
 1.848684170225434e+00	 3.041281946828569e-01	 1.305056451114197e+01
 1.845921553212783e+00	 3.204696669598779e-01	 1.306252500744099e+01
 1.875626955334190e+00	 1.590434517065505e-01	 1.295132330403570e+01
 1.874187703024645e+00	 1.751903688914292e-01	 1.295679023453767e+01
 1.872604312149079e+00	 1.913745749929839e-01	 1.296315609707619e+01
 1.870875639613893e+00	 2.075943598076000e-01	 1.297012363664616e+01
 1.869000565147121e+00	 2.238479828302088e-01	 1.297749167563134e+01
 1.866977992128452e+00	 2.401336735270876e-01	 1.298516515055298e+01
 1.864806848419438e+00	 2.564496316329435e-01	 1.299316622574558e+01
 1.862486087193140e+00	 2.727940274725351e-01	 1.300164654534273e+01
 1.860014687762457e+00	 2.891650023070629e-01	 1.301090068617958e+01
 1.857391656406358e+00	 3.055606687055365e-01	 1.302138087521289e+01
 1.854616027193228e+00	 3.219791109412959e-01	 1.303371303579254e+01
 1.767672100344656e+00	 3.068848122723423e-01	 1.340603023533155e+01
 1.764880741254913e+00	 3.225507534903543e-01	 1.342249804462931e+01
 1.761942228183390e+00	 3.382346701150138e-01	 1.343445885165787e+01
 1.758855723669352e+00	 3.539346630798190e-01	 1.344381613514123e+01
 1.755620419791376e+00	 3.696488082037950e-01	 1.345264478140382e+01
 1.752235538925222e+00	 3.853751566898675e-01	 1.346215825548298e+01
 1.748700334494149e+00	 4.011117356475780e-01	 1.347222969026438e+01
 1.745014091710825e+00	 4.168565486401224e-01	 1.348328894560767e+01
 1.741176128310005e+00	 4.326075762556573e-01	 1.349579021791690e+01
 1.737185795271111e+00	 4.483627767027928e-01	 1.351020385594214e+01
 1.733042477529863e+00	 4.641200864301568e-01	 1.352701023633291e+01
 1.776366352608243e+00	 3.083942177617580e-01	 1.336102832552448e+01
 1.773561264286633e+00	 3.241372115306150e-01	 1.337873260160818e+01
 1.770608298209911e+00	 3.398982691177453e-01	 1.339164590936750e+01
 1.767506612798326e+00	 3.556754821161409e-01	 1.340167042295334e+01
 1.764255396156726e+00	 3.714669168807957e-01	 1.341088539688162e+01
 1.760853866836163e+00	 3.872706150295302e-01	 1.342063571580315e+01
 1.757301274587891e+00	 4.030845939682787e-01	 1.343120596599557e+01
 1.753596901108929e+00	 4.189068474408174e-01	 1.344305207380674e+01
 1.749740060778345e+00	 4.347353461028813e-01	 1.345665281248726e+01
 1.745730101383382e+00	 4.505680381205852e-01	 1.347250310627693e+01
 1.741566404834599e+00	 4.664028497930368e-01	 1.349110756011924e+01
 1.785060649215598e+00	 3.099036309490485e-01	 1.331740364661668e+01
 1.782241831592177e+00	 3.257236776617571e-01	 1.333596315863270e+01
 1.779274412436605e+00	 3.415618766048292e-01	 1.334948714732546e+01
 1.776157546050095e+00	 3.574163100307003e-01	 1.335987213486274e+01
 1.772890416563749e+00	 3.732850348302820e-01	 1.336919652618061e+01
 1.769472238703889e+00	 3.891660830362387e-01	 1.337907700255522e+01
 1.765902258549744e+00	 4.050574623508447e-01	 1.339007180858797e+01
 1.762179754282671e+00	 4.209571566984042e-01	 1.340266179665579e+01
 1.758304036926028e+00	 4.368631268021764e-01	 1.341735072834763e+01
 1.754274451074868e+00	 4.527733107857277e-01	 1.343465820526614e+01
 1.750090375614572e+00	 4.686856247985898e-01	 1.345511283552916e+01
 1.793754985239578e+00	 3.114130509789675e-01	 1.327530299610939e+01
 1.790922438252172e+00	 3.273101509848771e-01	 1.329429818111829e+01
 1.787940565952282e+00	 3.432254916336510e-01	 1.330804997100101e+01
 1.784808518522069e+00	 3.591571458371234e-01	 1.331844469099555e+01
 1.781525476118869e+00	 3.751031610220786e-01	 1.332757808043309e+01
 1.778090649644257e+00	 3.910615596359786e-01	 1.333743072747921e+01
 1.774503281505424e+00	 4.070303396773920e-01	 1.334871845426344e+01
 1.770762646368043e+00	 4.230074752511032e-01	 1.336194781614459e+01
 1.766868051899751e+00	 4.389909171478490e-01	 1.337764804824691e+01
 1.762818839503396e+00	 4.549785934485991e-01	 1.339636360469372e+01
 1.758614385039166e+00	 4.709684101532610e-01	 1.341864694418332e+01
 1.802449355753047e+00	 3.129224769962685e-01	 1.323486958177830e+01
 1.799603079347242e+00	 3.288966306010713e-01	 1.325384455028617e+01
 1.796606753845749e+00	 3.448891132615959e-01	 1.326740232737235e+01
 1.793459525311652e+00	 3.608979885490363e-01	 1.327741429479739e+01
 1.790160569928509e+00	 3.769212944260097e-01	 1.328603559806785e+01
 1.786709094773127e+00	 3.929570437547357e-01	 1.329565079551116e+01
 1.783104338580646e+00	 4.090032248300363e-01	 1.330704401748050e+01
 1.779345572501041e+00	 4.250578019371356e-01	 1.332074837434550e+01
 1.775432100846214e+00	 4.411187159342062e-01	 1.333731913485415e+01
 1.771363261826792e+00	 4.571838848595787e-01	 1.335732585516322e+01
 1.767138428277760e+00	 4.732512045634946e-01	 1.338134476543630e+01
 1.811143755828862e+00	 3.144319081457049e-01	 1.319624344604388e+01
 1.808283749958020e+00	 3.304831156114362e-01	 1.321470798516055e+01
 1.805272971205817e+00	 3.465527405460495e-01	 1.322761312368429e+01
 1.802110561516253e+00	 3.626388371800650e-01	 1.323681034764340e+01
 1.798795693099089e+00	 3.787394340118994e-01	 1.324457852467561e+01
 1.795327569206358e+00	 3.948525343184955e-01	 1.325369650146290e+01
 1.791705424901127e+00	 4.109761166908936e-01	 1.326495355946890e+01
 1.787928527817661e+00	 4.271081355947222e-01	 1.327891029248156e+01
 1.783996178912116e+00	 4.432465219555545e-01	 1.329614863904643e+01
 1.779907713202884e+00	 4.593891837690459e-01	 1.331726358230508e+01
 1.775662500499735e+00	 4.755340067357352e-01	 1.334285511921433e+01
 1.819838180539883e+00	 3.159413435720306e-01	 1.315956188421837e+01
 1.816964445165127e+00	 3.320696051170678e-01	 1.317699345907698e+01
 1.813939213121292e+00	 3.482163725443969e-01	 1.318875264139835e+01
 1.810761622233280e+00	 3.643796907438359e-01	 1.319666585936788e+01
 1.807430840737038e+00	 3.805575787495722e-01	 1.320322033318921e+01
 1.803946068059810e+00	 3.967480302532436e-01	 1.321153262421775e+01
 1.800306535592583e+00	 4.129490141420798e-01	 1.322235915515359e+01
 1.796511507453898e+00	 4.291584750620841e-01	 1.323628900929951e+01
 1.792560281244154e+00	 4.453743340062008e-01	 1.325393150846473e+01
 1.788452188789497e+00	 4.615944889273798e-01	 1.327590746426064e+01
 1.784186596874472e+00	 4.778168153764275e-01	 1.330284071118295e+01
 1.828532624958970e+00	 3.174507824199989e-01	 1.312495985682584e+01
 1.825645160049192e+00	 3.336560982190630e-01	 1.314080561087988e+01
 1.822605474680987e+00	 3.498800083140239e-01	 1.315089294548936e+01
 1.819412702560138e+00	 3.661205482539751e-01	 1.315701785484078e+01
 1.816066007948776e+00	 3.823757276088526e-01	 1.316197864086086e+01
 1.812564586449340e+00	 3.986435304849657e-01	 1.316912951852147e+01
 1.808907665780729e+00	 4.149219160657105e-01	 1.317917995851458e+01
 1.805094506545749e+00	 4.312088191774424e-01	 1.319274861876651e+01
 1.801124402989027e+00	 4.475021508804514e-01	 1.321047299632567e+01
 1.796996683744460e+00	 4.637997990849598e-01	 1.323300021039606e+01
 1.792710712571352e+00	 4.800996291920159e-01	 1.326097808016484e+01
 1.837227084158984e+00	 3.189602238343635e-01	 1.309257039618546e+01
 1.834325889690843e+00	 3.352425940185181e-01	 1.310624915097505e+01
 1.831271750973707e+00	 3.515436469123155e-01	 1.311410828923289e+01
 1.828063797594234e+00	 3.678614087241088e-01	 1.311790777671386e+01
 1.824701189840726e+00	 3.841938795595647e-01	 1.312087532313758e+01
 1.821183119490811e+00	 4.005390339396475e-01	 1.312646320444368e+01
 1.817508810591282e+00	 4.168948213439020e-01	 1.313534226643360e+01
 1.813677520229209e+00	 4.332591667790174e-01	 1.314816190711077e+01
 1.809688539293435e+00	 4.496299713726133e-01	 1.316558867047535e+01
 1.805541193225597e+00	 4.660051129921649e-01	 1.318829654120245e+01
 1.801234842759755e+00	 4.823824468889450e-01	 1.321695754772817e+01
 1.845921553212783e+00	 3.204696669598779e-01	 1.306252500744099e+01
 1.843006629170708e+00	 3.368290916165294e-01	 1.307342926240250e+01
 1.839938037088262e+00	 3.532072873966573e-01	 1.307847551462583e+01
 1.836714902432977e+00	 3.696022711678629e-01	 1.307938188445387e+01
 1.833336381519313e+00	 3.860120335715329e-01	 1.307993662453484e+01
 1.829801662300079e+00	 4.024345395432744e-01	 1.308351545458292e+01
 1.826109965149958e+00	 4.188677288587697e-01	 1.309077958107111e+01
 1.822260543640271e+00	 4.353095167050305e-01	 1.310241038922130e+01
 1.818252685304075e+00	 4.517577942769935e-01	 1.311910442267462e+01
 1.814085712390736e+00	 4.682104293993746e-01	 1.314156316933877e+01
 1.809758982609063e+00	 4.846652671736595e-01	 1.317048316987111e+01
 1.854616027193228e+00	 3.219791109412959e-01	 1.303371303579254e+01
 1.851687373569412e+00	 3.384155901141933e-01	 1.304245199708275e+01
 1.848604328113462e+00	 3.548709288244347e-01	 1.304407444857518e+01
 1.845366012173774e+00	 3.713431345988638e-01	 1.304149997886247e+01
 1.841971578090960e+00	 3.878301886145815e-01	 1.303919326660271e+01
 1.838420209993003e+00	 4.043300462218324e-01	 1.304027387908680e+01
 1.834711124582473e+00	 4.208406374924301e-01	 1.304543267082044e+01
 1.830843571914933e+00	 4.373598677937027e-01	 1.305538434442703e+01
 1.826816836167647e+00	 4.538856183878984e-01	 1.307085647810448e+01
 1.822630236397704e+00	 4.704157470569681e-01	 1.309257878177555e+01
 1.818283127288656e+00	 4.869480887526040e-01	 1.312127269072911e+01
 1.733042477529863e+00	 4.641200864301568e-01	 1.352701023633291e+01
 1.728745595055301e+00	 4.798774209899135e-01	 1.354240257750688e+01
 1.724294604671216e+00	 4.956326763851802e-01	 1.355302628133196e+01
 1.719688999601968e+00	 5.113837291358949e-01	 1.355999902866039e+01
 1.714928309753177e+00	 5.271284367778979e-01	 1.356437358910211e+01
 1.710012102353537e+00	 5.428646385999550e-01	 1.356713214725152e+01
 1.704939982580465e+00	 5.585901564033950e-01	 1.356918133545578e+01
 1.699711594168736e+00	 5.743027952840064e-01	 1.357134804506153e+01
 1.694326620001263e+00	 5.900003444358111e-01	 1.357437608475445e+01
 1.688784782681174e+00	 6.056805779762906e-01	 1.357892375067399e+01
 1.683085845084354e+00	 6.213412557926126e-01	 1.358556236845047e+01
 1.741566404834599e+00	 4.664028497930368e-01	 1.349110756011924e+01
 1.737248388248177e+00	 4.822376864200964e-01	 1.350823979018622e+01
 1.732775505776295e+00	 4.980704336564107e-01	 1.352013708327940e+01
 1.728147248150731e+00	 5.138989575776163e-01	 1.352795786096463e+01
 1.723363142964937e+00	 5.297211051818782e-01	 1.353279505820596e+01
 1.718422755319014e+00	 5.455347051305395e-01	 1.353567017694067e+01
 1.713325688448433e+00	 5.613375685114939e-01	 1.353752807153190e+01
 1.708071584335666e+00	 5.771274896249299e-01	 1.353923254074354e+01
 1.702660124303875e+00	 5.929022467910560e-01	 1.354156279745647e+01
 1.697091029591799e+00	 6.086596031793869e-01	 1.354521088328978e+01
 1.691364061909009e+00	 6.243973076591316e-01	 1.355078009060841e+01
 1.750090375614572e+00	 4.686856247985898e-01	 1.345511283552916e+01
 1.745751224808450e+00	 4.845979638882660e-01	 1.347407671573362e+01
 1.741256450137057e+00	 5.005082033608793e-01	 1.348737937939823e+01
 1.736605539839576e+00	 5.164141988477118e-01	 1.349620848733705e+01
 1.731798019197280e+00	 5.323137868091998e-01	 1.350168640164370e+01
 1.726833451181668e+00	 5.482047852792105e-01	 1.350486398692618e+01
 1.721711437086255e+00	 5.640849946321488e-01	 1.350671516893757e+01
 1.716431617141206e+00	 5.799521983725480e-01	 1.350813232797740e+01
 1.710993671109924e+00	 5.958041639467488e-01	 1.350992260090420e+01
 1.705397318866751e+00	 6.116386435762436e-01	 1.351280516141761e+01
 1.699642320954944e+00	 6.274533751122271e-01	 1.351740954343910e+01
 1.758614385039166e+00	 4.709684101532610e-01	 1.341864694418332e+01
 1.754254099917486e+00	 4.869582520569317e-01	 1.343946556300739e+01
 1.749737432947277e+00	 5.029459841171647e-01	 1.345425057738262e+01
 1.745063869875115e+00	 5.189294515208410e-01	 1.346420765500433e+01
 1.740232933670093e+00	 5.349064801906228e-01	 1.347047810342888e+01
 1.735244185175092e+00	 5.508748775328534e-01	 1.347413243871441e+01
 1.730097223741669e+00	 5.668324332084014e-01	 1.347616473718312e+01
 1.724791687847675e+00	 5.827769199260977e-01	 1.347748785043098e+01
 1.719327255696745e+00	 5.987060942583666e-01	 1.347892956006762e+01
 1.713703645798822e+00	 6.146176974786299e-01	 1.348122974435589e+01
 1.707920617530850e+00	 6.305094564200207e-01	 1.348503862394042e+01
 1.767138428277760e+00	 4.732512045634946e-01	 1.338134476543630e+01
 1.762757008756646e+00	 4.893185495886022e-01	 1.340397434922503e+01
 1.758218449400724e+00	 5.053837745438453e-01	 1.342026544448162e+01
 1.753522233463964e+00	 5.214447141716648e-01	 1.343143075916968e+01
 1.748667881603261e+00	 5.374991838569074e-01	 1.343862031791889e+01
 1.743654952532881e+00	 5.535449803783530e-01	 1.344291481725462e+01
 1.738483043662412e+00	 5.695798826832934e-01	 1.344531978990395e+01
 1.733151791717387e+00	 5.856016526848158e-01	 1.344676066108137e+01
 1.727660873341673e+00	 6.016080360813869e-01	 1.344807877589946e+01
 1.722010005680807e+00	 6.175967631983170e-01	 1.345002847260532e+01
 1.716198946945416e+00	 6.335655498506330e-01	 1.345327527120626e+01
 1.775662500499735e+00	 4.755340067357352e-01	 1.334285511921433e+01
 1.771259946507290e+00	 4.916788551457862e-01	 1.336718681221140e+01
 1.766699494691173e+00	 5.078215732594996e-01	 1.338495599607450e+01
 1.761980625812735e+00	 5.239599853748425e-01	 1.339737171493650e+01
 1.757102858216673e+00	 5.400918963388135e-01	 1.340558273221023e+01
 1.752065748488628e+00	 5.562150923025945e-01	 1.341067069102428e+01
 1.746868892096222e+00	 5.723273414998669e-01	 1.341364410994638e+01
 1.741511924012661e+00	 5.884263950479396e-01	 1.341543329969733e+01
 1.735994519322042e+00	 6.045099877712874e-01	 1.341688628269121e+01
 1.730316393805499e+00	 6.205758390470735e-01	 1.341876579265145e+01
 1.724477304507334e+00	 6.366216536721855e-01	 1.342174742625899e+01
 1.784186596874472e+00	 4.778168153764275e-01	 1.330284071118295e+01
 1.779762908350782e+00	 4.940391673909927e-01	 1.332870232596199e+01
 1.775180564012395e+00	 5.102593788827063e-01	 1.334787138835620e+01
 1.770439042128041e+00	 5.264752637050345e-01	 1.336154283394787e+01
 1.765537858730214e+00	 5.426846161671013e-01	 1.337085443365996e+01
 1.760476568275929e+00	 5.588852117924632e-01	 1.337687977745545e+01
 1.755254764290835e+00	 5.750748081011636e-01	 1.338062211980936e+01
 1.749872079995814e+00	 5.912511454147059e-01	 1.338300917549207e+01
 1.744328188915190e+00	 6.074119476835451e-01	 1.338488895021085e+01
 1.738622805465689e+00	 6.235549233366698e-01	 1.338702668593413e+01
 1.732755685525294e+00	 6.396777661527995e-01	 1.339010299526579e+01
 1.792710712571352e+00	 4.800996291920159e-01	 1.326097808016484e+01
 1.788265889468485e+00	 4.963994849867308e-01	 1.328813581940590e+01
 1.783661652558164e+00	 5.126971900320439e-01	 1.330857781499319e+01
 1.778897477616497e+00	 5.289905477369012e-01	 1.332347470557961e+01
 1.773972878363771e+00	 5.452773418725307e-01	 1.333394378235885e+01
 1.768887407128378e+00	 5.615553373348441e-01	 1.334104181351936e+01
 1.763640655493990e+00	 5.778222809302256e-01	 1.334575875726030e+01
 1.758232254929163e+00	 5.940759021843520e-01	 1.334901245476984e+01
 1.752661877398449e+00	 6.103139141736381e-01	 1.335164439045693e+01
 1.746929235954171e+00	 6.265340143788759e-01	 1.335441660185822e+01
 1.741034085307989e+00	 6.427338855605964e-01	 1.335800981602071e+01
 1.801234842759755e+00	 4.823824468889450e-01	 1.321695754772817e+01
 1.796768885041758e+00	 4.987598065955091e-01	 1.324511769826052e+01
 1.792142755522252e+00	 5.151350053260909e-01	 1.326665840761307e+01
 1.787355927484714e+00	 5.315058360451024e-01	 1.328271608253316e+01
 1.782407912337233e+00	 5.478700719858620e-01	 1.329437828838639e+01
 1.777298260279568e+00	 5.642254674166222e-01	 1.330267643129391e+01
 1.772026560953423e+00	 5.805697584300946e-01	 1.330857935594709e+01
 1.766592444075025e+00	 5.969006637561151e-01	 1.331298795339523e+01
 1.760995580049157e+00	 6.132158855970431e-01	 1.331673086887177e+01
 1.755235680563738e+00	 6.295131104854617e-01	 1.332056139470629e+01
 1.749312499164107e+00	 6.457900101636972e-01	 1.332515562757692e+01
 1.809758982609063e+00	 4.846652671736595e-01	 1.317048316987111e+01
 1.805271890251967e+00	 5.011201308798364e-01	 1.319929376987036e+01
 1.800623868098430e+00	 5.175728233834260e-01	 1.322171313999811e+01
 1.795814386939307e+00	 5.340211272042982e-01	 1.323883377067807e+01
 1.790842955870483e+00	 5.504628050378552e-01	 1.325170449368788e+01
 1.785709122963095e+00	 5.668956005246829e-01	 1.326132303834567e+01
 1.780412475916871e+00	 5.833172390438123e-01	 1.326862953083831e+01
 1.774952642695718e+00	 5.997254285292316e-01	 1.327450103392138e+01
 1.769329292144649e+00	 6.161178603092384e-01	 1.327974721986062e+01
 1.763542134587182e+00	 6.324922099681967e-01	 1.328510726431825e+01
 1.757590922402342e+00	 6.488461382302234e-01	 1.329124804291998e+01
 1.818283127288656e+00	 4.869480887526040e-01	 1.312127269072911e+01
 1.813774900280472e+00	 5.034804565022218e-01	 1.315032517092899e+01
 1.809104985480471e+00	 5.200106428226275e-01	 1.317335873585675e+01
 1.804272851186890e+00	 5.365364197891487e-01	 1.319141252300032e+01
 1.799278004183412e+00	 5.530555395592704e-01	 1.320548785841533e+01
 1.794119990412552e+00	 5.695657351459109e-01	 1.321654070276268e+01
 1.788798395632072e+00	 5.860647212144210e-01	 1.322547506832721e+01
 1.783312846053559e+00	 6.025501949029394e-01	 1.323313750721910e+01
 1.777663008962260e+00	 6.190198366657010e-01	 1.324031276646954e+01
 1.771848593317296e+00	 6.354713111388515e-01	 1.324772070040922e+01
 1.765869350331383e+00	 6.519022680282957e-01	 1.325601452457530e+01
 1.683085845084354e+00	 6.213412557926126e-01	 1.358556236845047e+01
 1.677228601699849e+00	 6.369827810704320e-01	 1.359318324822618e+01
 1.671213852015979e+00	 6.526002218751347e-01	 1.360051162974931e+01
 1.665041481651053e+00	 6.681912987448789e-01	 1.360775905096657e+01
 1.658711418525549e+00	 6.837537215354029e-01	 1.361507454574475e+01
 1.652223633306464e+00	 6.992851903642255e-01	 1.362254931529063e+01
 1.645578139827386e+00	 7.147833965724529e-01	 1.363022258885064e+01
 1.638774995483586e+00	 7.302460237034971e-01	 1.363808868533271e+01
 1.631814301601403e+00	 7.456707484979819e-01	 1.364510651844497e+01
 1.624696203781240e+00	 7.610552419040804e-01	 1.363721054843208e+01
 1.617420892213523e+00	 7.763971701024949e-01	 1.360937037720801e+01
 1.691364061909009e+00	 6.243973076591316e-01	 1.355078009060841e+01
 1.685478009815265e+00	 6.401157653989908e-01	 1.355734582157582e+01
 1.679433676731163e+00	 6.558100202067585e-01	 1.356385693392524e+01
 1.673230947712444e+00	 6.714777814091277e-01	 1.357061521383404e+01
 1.666869750325086e+00	 6.871167475978315e-01	 1.357786123850380e+01
 1.660350055091832e+00	 7.027246075784859e-01	 1.358577909360927e+01
 1.653671875914328e+00	 7.182990413371282e-01	 1.359450232046830e+01
 1.646835270470162e+00	 7.338377210237484e-01	 1.360412110536419e+01
 1.639840340584065e+00	 7.493383119520894e-01	 1.361175080381824e+01
 1.632687232572591e+00	 7.647984736149539e-01	 1.360303298108299e+01
 1.625376137561633e+00	 7.802158607142236e-01	 1.357553562373610e+01
 1.699642320954944e+00	 6.274533751122271e-01	 1.351740954343910e+01
 1.693727460004945e+00	 6.432487657064578e-01	 1.352300385831593e+01
 1.687653543369646e+00	 6.590198349090151e-01	 1.352877384060442e+01
 1.681420455542223e+00	 6.747642808350729e-01	 1.353511270106417e+01
 1.675028123734150e+00	 6.904797908123047e-01	 1.354235267855390e+01
 1.668476518323915e+00	 7.061640423343688e-01	 1.355076979148340e+01
 1.661765653281227e+00	 7.218147040321778e-01	 1.356058986193888e+01
 1.654895586565994e+00	 7.374294366622454e-01	 1.357199582576677e+01
 1.647866420501339e+00	 7.530058941113775e-01	 1.357933527254139e+01
 1.640678302119975e+00	 7.685417244169505e-01	 1.356999954398721e+01
 1.633331423483267e+00	 7.840345708019715e-01	 1.354303601914097e+01
 1.707920617530850e+00	 6.305094564200207e-01	 1.348503862394042e+01
 1.701976947593920e+00	 6.463817802173634e-01	 1.348981158058499e+01
 1.695873447273244e+00	 6.622296641629146e-01	 1.349497029018452e+01
 1.689610000499428e+00	 6.780507951602820e-01	 1.350100055418060e+01
 1.683186534129443e+00	 6.938428492730280e-01	 1.350832638365850e+01
 1.676603018397522e+00	 7.096034926828038e-01	 1.351731477284166e+01
 1.669859467341436e+00	 7.253303826653485e-01	 1.352828179074459e+01
 1.662955939203413e+00	 7.410211685836475e-01	 1.354149639624002e+01
 1.655892536804974e+00	 7.566734928975217e-01	 1.354772207442037e+01
 1.648669407894992e+00	 7.722849921888694e-01	 1.353795044858619e+01
 1.641286745470310e+00	 7.878532982017723e-01	 1.351167708333226e+01
 1.716198946945416e+00	 6.335655498506330e-01	 1.345327527120626e+01
 1.710226467907224e+00	 6.495148071562377e-01	 1.345744260068228e+01
 1.704093383783774e+00	 6.654395061494696e-01	 1.346217322219273e+01
 1.697799577943102e+00	 6.813373225223234e-01	 1.346804668362370e+01
 1.691344976887671e+00	 6.972059210742070e-01	 1.347557887072068e+01
 1.684729550707461e+00	 7.130429566747216e-01	 1.348522679072355e+01
 1.677953313508303e+00	 7.288460752443860e-01	 1.349739472220701e+01
 1.671016323814749e+00	 7.446129147526156e-01	 1.351190074696148e+01
 1.663918684946717e+00	 7.603411062321973e-01	 1.351679932603113e+01
 1.656660545369243e+00	 7.760282748095092e-01	 1.350675210598813e+01
 1.649242099014651e+00	 7.916720407496621e-01	 1.348129102184901e+01
 1.724477304507334e+00	 6.366216536721855e-01	 1.342174742625899e+01
 1.718476016269890e+00	 6.526478447476121e-01	 1.342558991706016e+01
 1.712313348243052e+00	 6.686493590496899e-01	 1.343012860197090e+01
 1.705989183232283e+00	 6.846238610587631e-01	 1.343603792065489e+01
 1.699503447385540e+00	 7.005690043100479e-01	 1.344392572742580e+01
 1.692856110648541e+00	 7.164824323610515e-01	 1.345433807317877e+01
 1.686047187195182e+00	 7.323617797770374e-01	 1.346776540416262e+01
 1.679076735832334e+00	 7.482046731338077e-01	 1.348272477414774e+01
 1.671944860378315e+00	 7.640087320370795e-01	 1.348648023617049e+01
 1.664651710014327e+00	 7.797715701576683e-01	 1.347629621191868e+01
 1.657197479608172e+00	 7.954907962816750e-01	 1.345173576505209e+01
 1.732755685525294e+00	 6.396777661527995e-01	 1.339010299526579e+01
 1.726725588006950e+00	 6.557808912160165e-01	 1.339396591287632e+01
 1.720533335992895e+00	 6.718592210445868e-01	 1.339860144926261e+01
 1.714178811726014e+00	 6.879104089071703e-01	 1.340478007066922e+01
 1.707661940999752e+00	 7.039320970747547e-01	 1.341320168496589e+01
 1.700982693615570e+00	 7.199219177927243e-01	 1.342450041008769e+01
 1.694141083815422e+00	 7.358774942710485e-01	 1.343925081256385e+01
 1.687137170688498e+00	 7.517964416918844e-01	 1.345391509342402e+01
 1.679971058551517e+00	 7.676763682338440e-01	 1.345670223266323e+01
 1.672642897301842e+00	 7.835148761121460e-01	 1.344649883353835e+01
 1.665152882742761e+00	 7.993095626338458e-01	 1.342289400985753e+01
 1.741034085307989e+00	 6.427338855605964e-01	 1.335800981602071e+01
 1.734975178443437e+00	 6.589139447859820e-01	 1.336230235701370e+01
 1.728753342375118e+00	 6.750690903151718e-01	 1.336737586863070e+01
 1.722368458783333e+00	 6.911969642051115e-01	 1.337409796786175e+01
 1.715820453107013e+00	 7.072951974625338e-01	 1.338326069180205e+01
 1.709109295003357e+00	 7.233614110206694e-01	 1.339558524086353e+01
 1.702234998782373e+00	 7.393932167341655e-01	 1.341172824796682e+01
 1.695197623815573e+00	 7.553882183915052e-01	 1.342544178958226e+01
 1.687997274918069e+00	 7.713440127441658e-01	 1.342742609048679e+01
 1.680634102703389e+00	 7.872581905517401e-01	 1.341729949807122e+01
 1.673108303910304e+00	 8.031283376422097e-01	 1.339467226393350e+01
 1.749312499164107e+00	 6.457900101636972e-01	 1.332515562757692e+01
 1.743224782904385e+00	 6.620470036820394e-01	 1.333035040747975e+01
 1.736973362731538e+00	 6.782789650424554e-01	 1.333625508163756e+01
 1.730558119763282e+00	 6.944835250901548e-01	 1.334383553119614e+01
 1.723978979084028e+00	 7.106583035675909e-01	 1.335397598842225e+01
 1.717235910206709e+00	 7.268009100958163e-01	 1.336748374299937e+01
 1.710328927509388e+00	 7.429089451741350e-01	 1.338495047578217e+01
 1.703258090645889e+00	 7.589800011973302e-01	 1.339729758015205e+01
 1.696023504929720e+00	 7.750116634897204e-01	 1.339863506117592e+01
 1.688625321690569e+00	 7.910015113552501e-01	 1.338866028319258e+01
 1.681063738602686e+00	 8.069471191428014e-01	 1.336699989228742e+01
 1.757590922402342e+00	 6.488461382302234e-01	 1.329124804291998e+01
 1.751474396714826e+00	 6.651800661287188e-01	 1.329788061710013e+01
 1.745193392403971e+00	 6.814888434074490e-01	 1.330506146072342e+01
 1.738747790024900e+00	 6.977700896998675e-01	 1.331385582162395e+01
 1.732137514307501e+00	 7.140214134841311e-01	 1.332524018305374e+01
 1.725362534620436e+00	 7.302404130690962e-01	 1.334010692142303e+01
 1.718422865409816e+00	 7.464246775987030e-01	 1.335833478863288e+01
 1.711318566611778e+00	 7.625717880740187e-01	 1.336949697990211e+01
 1.704049744038217e+00	 7.786793183921834e-01	 1.337033400347285e+01
 1.696616549734979e+00	 7.947448364014740e-01	 1.336056490912509e+01
 1.689019182311793e+00	 8.107659049716559e-01	 1.333982816617286e+01
 1.765869350331383e+00	 6.519022680282957e-01	 1.325601452457530e+01
 1.759724015199794e+00	 6.683131303505517e-01	 1.326468294142430e+01
 1.753413426734233e+00	 6.846987235911637e-01	 1.327363656471936e+01
 1.746937464927228e+00	 7.010566561718174e-01	 1.328404110050658e+01
 1.740296054154137e+00	 7.173845253063597e-01	 1.329696532829110e+01
 1.733489163639346e+00	 7.336799179914384e-01	 1.331338569862516e+01
 1.726516807897010e+00	 7.499404120156162e-01	 1.333186125980666e+01
 1.719379047145570e+00	 7.661635769862305e-01	 1.334207546624907e+01
 1.712075987695309e+00	 7.823469753732302e-01	 1.334254851518979e+01
 1.704607782308222e+00	 7.984881635692114e-01	 1.333301783239584e+01
 1.696974630529512e+00	 8.145846929648082e-01	 1.331312931424904e+01
 1.617420892213523e+00	 7.763971701024949e-01	 1.360937037720801e+01
 1.609989878453082e+00	 7.916915991502730e-01	 1.357596617120588e+01
 1.602402218305899e+00	 8.069388008559107e-01	 1.355082952298710e+01
 1.594658236046571e+00	 8.221364337303407e-01	 1.353247041670031e+01
 1.586758301496337e+00	 8.372821557180704e-01	 1.351938224329904e+01
 1.578702830195891e+00	 8.523736252820372e-01	 1.351006563776045e+01
 1.570492283547801e+00	 8.674085024978190e-01	 1.350305435447156e+01
 1.562127168928098e+00	 8.823844501562221e-01	 1.349694317857479e+01
 1.553608039766600e+00	 8.972991348732569e-01	 1.349041785816699e+01
 1.544935495595602e+00	 9.121502282064712e-01	 1.348228702872069e+01
 1.536110182066576e+00	 9.269354077766122e-01	 1.347151608702748e+01
 1.625376137561633e+00	 7.802158607142236e-01	 1.357553562373610e+01
 1.617908574540580e+00	 7.955855150394799e-01	 1.354332368224971e+01
 1.610283594671409e+00	 8.109077097360987e-01	 1.351979973468880e+01
 1.602501523823640e+00	 8.261800917984519e-01	 1.350334646172349e+01
 1.594562733637453e+00	 8.414003076516984e-01	 1.349231899695287e+01
 1.586467641697350e+00	 8.565660042419762e-01	 1.348506909581934e+01
 1.578216711675283e+00	 8.716748301359977e-01	 1.347997141890055e+01
 1.569810453442782e+00	 8.867244366290573e-01	 1.347545192964594e+01
 1.561249423151682e+00	 9.017124788604670e-01	 1.347001839335280e+01
 1.552534223283045e+00	 9.166366169353817e-01	 1.346229295025763e+01
 1.543665502663949e+00	 9.314945170519777e-01	 1.345104672112001e+01
 1.633331423483267e+00	 7.840345708019715e-01	 1.354303601914097e+01
 1.625827311015202e+00	 7.994794507884304e-01	 1.351213426019978e+01
 1.618165011233726e+00	 8.148766388585917e-01	 1.349022046365233e+01
 1.610344851603284e+00	 8.302237704901996e-01	 1.347556329959999e+01
 1.602367205583006e+00	 8.455184805890036e-01	 1.346639391683322e+01
 1.594232492801211e+00	 8.607584045842814e-01	 1.346093042746792e+01
 1.585941179199240e+00	 8.759411795338146e-01	 1.345740458214740e+01
 1.577493777144135e+00	 8.910644452373244e-01	 1.345409063825598e+01
 1.568890845509755e+00	 9.061258453573618e-01	 1.344933640994605e+01
 1.560132989725942e+00	 9.211230285466261e-01	 1.344159647445582e+01
 1.551220861795396e+00	 9.360536495806617e-01	 1.342946749426715e+01
 1.641286745470310e+00	 7.878532982017723e-01	 1.351167708333226e+01
 1.633746083389548e+00	 8.033734041905228e-01	 1.348217019270393e+01
 1.626046463526597e+00	 8.188455859742730e-01	 1.346184625773798e+01
 1.618188214940832e+00	 8.342674675140894e-01	 1.344887312737615e+01
 1.610171712910338e+00	 8.496366721962542e-01	 1.344137211555935e+01
 1.601997379107259e+00	 8.649508239331301e-01	 1.343744278511161e+01
 1.593665681742335e+00	 8.802075482735139e-01	 1.343518999839775e+01
 1.585177135678125e+00	 8.954044735214981e-01	 1.343275323969323e+01
 1.576532302510527e+00	 9.105392318628177e-01	 1.342833820017932e+01
 1.567731790618172e+00	 9.256094604976628e-01	 1.342025060174416e+01
 1.558776255179390e+00	 9.406128027788884e-01	 1.340693222040518e+01
 1.649242099014651e+00	 7.916720407496621e-01	 1.348129102184901e+01
 1.641664887176220e+00	 8.072673730391527e-01	 1.345323092332914e+01
 1.633927947083770e+00	 8.228145488340280e-01	 1.343445900981859e+01
 1.626031609391615e+00	 8.383111805786261e-01	 1.342305540204574e+01
 1.617976251196791e+00	 8.537548801397167e-01	 1.341704561362366e+01
 1.609762296215283e+00	 8.691432599127000e-01	 1.341442561718909e+01
 1.601390214927231e+00	 8.844739339373399e-01	 1.341318925359256e+01
 1.592860524690725e+00	 8.997445190220527e-01	 1.341135799168254e+01
 1.584173789823706e+00	 9.149526358757109e-01	 1.340701303181750e+01
 1.575330621653610e+00	 9.300959102459478e-01	 1.339832973109438e+01
 1.566331678534406e+00	 9.451719740628823e-01	 1.338361431247220e+01
 1.657197479608172e+00	 7.954907962816750e-01	 1.345173576505209e+01
 1.649583717887820e+00	 8.111613551277174e-01	 1.342514204632119e+01
 1.641809457438996e+00	 8.267835251887402e-01	 1.340786691592248e+01
 1.633875030510958e+00	 8.423549073923153e-01	 1.339791576985030e+01
 1.625780816019710e+00	 8.578731020856597e-01	 1.339323224757097e+01
 1.617527239725068e+00	 8.733357101471682e-01	 1.339172356289566e+01
 1.609114774376592e+00	 8.887403341075366e-01	 1.339128825429613e+01
 1.600543939827905e+00	 9.040845792794623e-01	 1.338984636492717e+01
 1.591815303119002e+00	 9.193660548949177e-01	 1.338537204782397e+01
 1.582929478526133e+00	 9.345823752489378e-01	 1.337592857617689e+01
 1.573887127578916e+00	 9.497311608488682e-01	 1.335970572232700e+01
 1.665152882742761e+00	 7.993095626338458e-01	 1.342289400985753e+01
 1.657502571036947e+00	 8.150553482496138e-01	 1.339775430455585e+01
 1.649690990126024e+00	 8.307525127892950e-01	 1.338190343701275e+01
 1.641718473854194e+00	 8.463986456636626e-01	 1.337328499945435e+01
 1.633585402956432e+00	 8.619913357003486e-01	 1.336977458209040e+01
 1.625292205236402e+00	 8.775281722607137e-01	 1.336920535065733e+01
 1.616839355713080e+00	 8.930067463663480e-01	 1.336939611995601e+01
 1.608227376735635e+00	 9.084246518342023e-01	 1.336818193649053e+01
 1.599456838066123e+00	 9.237794864193145e-01	 1.336344716812518e+01
 1.590528356929616e+00	 9.390688529640905e-01	 1.335316108268727e+01
 1.581442598031394e+00	 9.542903605530698e-01	 1.333541588072679e+01
 1.673108303910304e+00	 8.031283376422097e-01	 1.339467226393350e+01
 1.665421442136204e+00	 8.189493501982381e-01	 1.337094259058386e+01
 1.657572540678602e+00	 8.347215093865761e-01	 1.335642626429008e+01
 1.649561934976651e+00	 8.504423931011736e-01	 1.334901791887651e+01
 1.641390007584303e+00	 8.661095786500523e-01	 1.334653882589939e+01
 1.633057188349071e+00	 8.817206438775129e-01	 1.334676270024019e+01
 1.624563954559359e+00	 8.972731682960193e-01	 1.334744407845250e+01
 1.615910831059886e+00	 9.127647342267473e-01	 1.334634928593466e+01
 1.607098390334780e+00	 9.281929279477776e-01	 1.334128999341490e+01
 1.598127252557938e+00	 9.435553408488627e-01	 1.333015934681407e+01
 1.588998085610311e+00	 9.588495705917116e-01	 1.331097063737169e+01
 1.681063738602686e+00	 8.069471191428014e-01	 1.336699989228742e+01
 1.673340326698193e+00	 8.228433587669878e-01	 1.334460495067617e+01
 1.665454104630480e+00	 8.386905127314682e-01	 1.333131628791154e+01
 1.657405409433659e+00	 8.544861474133527e-01	 1.332499235606092e+01
 1.649194625480663e+00	 8.702278286010372e-01	 1.332341375130379e+01
 1.640822184662861e+00	 8.859131226217444e-01	 1.332430922838604e+01
 1.632288566538091e+00	 9.015395974787935e-01	 1.332538436483954e+01
 1.623594298446628e+00	 9.171048239975716e-01	 1.332435289413449e+01
 1.614739955594678e+00	 9.326063769791830e-01	 1.331897071094137e+01
 1.605726161104973e+00	 9.480418363607115e-01	 1.330707253482289e+01
 1.596553586034144e+00	 9.634087883810178e-01	 1.328661120102719e+01
 1.689019182311793e+00	 8.107659049716559e-01	 1.333982816617287e+01
 1.681259220235513e+00	 8.267373717492592e-01	 1.331866159177897e+01
 1.673335677515406e+00	 8.426595205748560e-01	 1.330647656902263e+01
 1.665248892780547e+00	 8.585299063087067e-01	 1.330110808298003e+01
 1.656999252222854e+00	 8.743460832195703e-01	 1.330030961732444e+01
 1.648587189777560e+00	 8.901056061175850e-01	 1.330177935786825e+01
 1.640013187271940e+00	 9.058060314969151e-01	 1.330318912318365e+01
 1.631277774541833e+00	 9.214449186871494e-01	 1.330221604469305e+01
 1.622381529515527e+00	 9.370198310124075e-01	 1.329657700222543e+01
 1.613325078264600e+00	 9.525283369570938e-01	 1.328406580373243e+01
 1.604109095021363e+00	 9.679680113372132e-01	 1.326259307973370e+01
 1.696974630529512e+00	 8.145846929648082e-01	 1.331312931424904e+01
 1.689178118260765e+00	 8.306313869384492e-01	 1.329305389129316e+01
 1.681217254867131e+00	 8.466285306676240e-01	 1.328183131500402e+01
 1.673092380572644e+00	 8.625736674957397e-01	 1.327728576316349e+01
 1.664803883388218e+00	 8.784643401719195e-01	 1.327715709628399e+01
 1.656352199292954e+00	 8.942980919892130e-01	 1.327912722986885e+01
 1.647737812383569e+00	 9.100724679326290e-01	 1.328084931141126e+01
 1.638961254991470e+00	 9.257850158359557e-01	 1.327997972788325e+01
 1.630023107767036e+00	 9.414332875463270e-01	 1.327421295265833e+01
 1.620923999730693e+00	 9.570148400954669e-01	 1.326131922305902e+01
 1.611664608290443e+00	 9.725272368765220e-01	 1.323918502111394e+01
 1.536110182066576e+00	 9.269354077766122e-01	 1.347151608702748e+01
 1.527132791305695e+00	 9.416523586869447e-01	 1.345337091407025e+01
 1.518004062972558e+00	 9.562987755506877e-01	 1.342414452963863e+01
 1.508724783053639e+00	 9.708723627734075e-01	 1.338477355836097e+01
 1.499295783373475e+00	 9.853708353953261e-01	 1.333661597778510e+01
 1.489717941445333e+00	 9.997919202222378e-01	 1.328149279885876e+01
 1.479992180288704e+00	 1.014133356955129e+00	 1.322171401824437e+01
 1.470119468213546e+00	 1.028392899317367e+00	 1.315964847358946e+01
 1.460100818571260e+00	 1.042568316178337e+00	 1.309974602991674e+01
 1.449937289472463e+00	 1.056657392672377e+00	 1.304751485942779e+01
 1.439629983471600e+00	 1.070657931311884e+00	 1.300872776079615e+01
 1.543665502663949e+00	 9.314945170519777e-01	 1.345104672112001e+01
 1.534643956824760e+00	 9.462838529277522e-01	 1.343210014991690e+01
 1.525470329063080e+00	 9.610023078369365e-01	 1.340244187664385e+01
 1.516145409231251e+00	 9.756475748942754e-01	 1.336302288349822e+01
 1.506670033245125e+00	 9.902173579014734e-01	 1.331521936632981e+01
 1.497045082934008e+00	 1.004709372483678e+00	 1.326087529268428e+01
 1.487271485857252e+00	 1.019121347224653e+00	 1.320234624243876e+01
 1.477350215087430e+00	 1.033451024799512e+00	 1.314247001299912e+01
 1.467282288960102e+00	 1.047696163103880e+00	 1.308469740627389e+01
 1.457068770790184e+00	 1.061854536378336e+00	 1.303449890861928e+01
 1.446710768555018e+00	 1.075923936326990e+00	 1.299788467801702e+01
 1.551220861795396e+00	 9.360536495806617e-01	 1.342946749426715e+01
 1.542155160652689e+00	 9.509153707911350e-01	 1.340938112890349e+01
 1.532936633233446e+00	 9.657058641132331e-01	 1.337905537101253e+01
 1.523566073255896e+00	 9.804228113708188e-01	 1.333944057389986e+01
 1.514044320727234e+00	 9.950639051270245e-01	 1.329191474111660e+01
 1.504372261792829e+00	 1.009626849826293e+00	 1.323832698432201e+01
 1.494550828551916e+00	 1.024109362935106e+00	 1.318104233369570e+01
 1.484580998839716e+00	 1.038509176080270e+00	 1.312298774700113e+01
 1.474463795975967e+00	 1.052824036183593e+00	 1.306763111758315e+01
 1.464200288479920e+00	 1.067051706591839e+00	 1.301972119446123e+01
 1.453791589751842e+00	 1.081189968200777e+00	 1.298544571682427e+01
 1.558776255179390e+00	 9.406128027788884e-01	 1.340693222040518e+01
 1.549666398532978e+00	 9.555469096522795e-01	 1.338546802346978e+01
 1.540402971252602e+00	 9.704094417139244e-01	 1.335432482626381e+01
 1.530986770922394e+00	 9.851980694967543e-01	 1.331443755235891e+01
 1.521418641640915e+00	 9.999104743252769e-01	 1.326716978897818e+01
 1.511699473869616e+00	 1.014544349463179e+00	 1.321435816674971e+01
 1.501830204247639e+00	 1.029097401259614e+00	 1.315835816618779e+01
 1.491811815372873e+00	 1.043567350293024e+00	 1.310209119489265e+01
 1.481645335549267e+00	 1.057951932511356e+00	 1.304909276283700e+01
 1.471331838500422e+00	 1.072248900367507e+00	 1.300369451621155e+01
 1.460872443049564e+00	 1.086456023948855e+00	 1.297187382292597e+01
 1.566331678534406e+00	 9.451719740628823e-01	 1.338361431247220e+01
 1.557177666209127e+00	 9.601784668863710e-01	 1.336063286628264e+01
 1.547869338889494e+00	 9.751130379733581e-01	 1.332860651523480e+01
 1.538407498025565e+00	 9.899733465657978e-01	 1.328844013583079e+01
 1.528792991807278e+00	 1.004757062749529e+00	 1.324146685894148e+01
 1.519026715012187e+00	 1.019461868607437e+00	 1.318949339333588e+01
 1.509109608819361e+00	 1.034085459371301e+00	 1.313484685438010e+01
 1.499042660589376e+00	 1.048625544571160e+00	 1.308042293979288e+01
 1.488826903610410e+00	 1.063079849181050e+00	 1.302973527714446e+01
 1.478463416810444e+00	 1.077446114759960e+00	 1.298697908799712e+01
 1.467953324435676e+00	 1.091722100586833e+00	 1.295768053616795e+01
 1.573887127578916e+00	 9.497311608488682e-01	 1.335970572232701e+01
 1.564688959424633e+00	 9.648100398685951e-01	 1.333516451447526e+01
 1.555335731913071e+00	 9.798166502258812e-01	 1.330227215262273e+01
 1.545828250360228e+00	 9.947486398716654e-01	 1.326188903037561e+01
 1.536167367047434e+00	 1.009603667653077e+00	 1.321530196378725e+01
 1.526353981068362e+00	 1.024379404472165e+00	 1.316427048035410e+01
 1.516389038142021e+00	 1.039073534443294e+00	 1.311107469593798e+01
 1.506273530391697e+00	 1.053683756048060e+00	 1.305856461939853e+01
 1.496008496089809e+00	 1.068207783286553e+00	 1.301021070693033e+01
 1.485595019368734e+00	 1.082643346823816e+00	 1.297015547060549e+01
 1.475034229897670e+00	 1.096988195130322e+00	 1.294342741288309e+01
 1.581442598031394e+00	 9.542903605530698e-01	 1.333541588072679e+01
 1.572200273922992e+00	 9.694416259741379e-01	 1.330936761284310e+01
 1.562802146092280e+00	 9.845202758058416e-01	 1.327570787557912e+01
 1.553249023721202e+00	 9.995239467080732e-01	 1.323523832344425e+01
 1.543541763182496e+00	 1.014450286289221e+00	 1.318918377843569e+01
 1.533681267885961e+00	 1.029296954270462e+00	 1.313923950599758e+01
 1.523668488090563e+00	 1.044061623648717e+00	 1.308762016602033e+01
 1.513504420682306e+00	 1.058741981857107e+00	 1.303711027657342e+01
 1.503190108917871e+00	 1.073335731921745e+00	 1.299111600965839e+01
 1.492726642134045e+00	 1.087840593613695e+00	 1.295371812016152e+01
 1.482115155423036e+00	 1.102254304594929e+00	 1.292972579150580e+01
 1.588998085610311e+00	 9.588495705917116e-01	 1.331097063737169e+01
 1.579711605447703e+00	 9.740732225781839e-01	 1.328356155604097e+01
 1.570268577196068e+00	 9.892239120475869e-01	 1.324931322243122e+01
 1.560669813903308e+00	 1.004299264368737e+00	 1.320895447360517e+01
 1.550916176033572e+00	 1.019296915911257e+00	 1.316363263527602e+01
 1.541008571312801e+00	 1.034214515215427e+00	 1.311496180602168e+01
 1.530947954539925e+00	 1.049049724160696e+00	 1.306507290806596e+01
 1.520735327363677e+00	 1.063800219131686e+00	 1.301666534023153e+01
 1.510371738025008e+00	 1.078463692180506e+00	 1.297306004963732e+01
 1.499858281065129e+00	 1.093037852184217e+00	 1.293825381996467e+01
 1.489196096999267e+00	 1.107520425996264e+00	 1.291697455580516e+01
 1.596553586034144e+00	 9.634087883810178e-01	 1.328661120102718e+01
 1.587222949742264e+00	 9.787048270559200e-01	 1.325807944982852e+01
 1.577735020993383e+00	 9.939275562854638e-01	 1.322350010960624e+01
 1.568090616701363e+00	 1.009074590147373e+00	 1.318351529781309e+01
 1.558290601421774e+00	 1.024143553772483e+00	 1.313917951655293e+01
 1.548335887196703e+00	 1.039132084520157e+00	 1.309200896613879e+01
 1.538227433365048e+00	 1.054037833152356e+00	 1.304403272120190e+01
 1.527966246338281e+00	 1.068858465005180e+00	 1.299784560288321e+01
 1.517553379341630e+00	 1.083591661156715e+00	 1.295666256095052e+01
 1.506989932120735e+00	 1.098235119590002e+00	 1.292437436028601e+01
 1.496277050613855e+00	 1.112786556349938e+00	 1.290557137503516e+01
 1.604109095021363e+00	 9.679680113372132e-01	 1.326259307973370e+01
 1.594734302550172e+00	 9.833364367825309e-01	 1.323326707140608e+01
 1.585201473253172e+00	 9.986312058538210e-01	 1.319869180682968e+01
 1.575511427910188e+00	 1.013849921337697e+00	 1.315940895630969e+01
 1.565665035168214e+00	 1.028990197126197e+00	 1.311636504392085e+01
 1.555663211385484e+00	 1.044049659397754e+00	 1.307096181128537e+01
 1.545506920440873e+00	 1.059025947796823e+00	 1.302510854439848e+01
 1.535197173508592e+00	 1.073916716610972e+00	 1.298127619496784e+01
 1.524735028798148e+00	 1.088719635944252e+00	 1.294255310737564e+01
 1.514121591259616e+00	 1.103432392885668e+00	 1.291270214229581e+01
 1.503358012254291e+00	 1.118052692671558e+00	 1.289577676968736e+01
 1.611664608290443e+00	 9.725272368765220e-01	 1.323918502111394e+01
 1.602245659614925e+00	 9.879680491332032e-01	 1.320948182888618e+01
 1.592667929744381e+00	 1.003334858087005e+00	 1.317532191066859e+01
 1.582932243324602e+00	 1.018625255233427e+00	 1.313713293525097e+01
 1.573039473094003e+00	 1.033836843225697e+00	 1.309573846527229e+01
 1.562990539726966e+00	 1.048967237061314e+00	 1.305240939187896e+01
 1.552786411642341e+00	 1.064014065267221e+00	 1.300891743749148e+01
 1.542428104777079e+00	 1.078974971082447e+00	 1.296759055609304e+01
 1.531916682324971e+00	 1.093847613636997e+00	 1.293137003940651e+01
 1.521253254440523e+00	 1.108629669125836e+00	 1.290386911655307e+01
 1.510438977908069e+00	 1.123318831976734e+00	 1.288842032853402e+01
 1.439629983471600e+00	 1.070657931311884e+00	 1.300872776079615e+01
 1.429178259545016e+00	 1.084570108749448e+00	 1.297377253831498e+01
 1.418585053742233e+00	 1.098389370025116e+00	 1.293362723068681e+01
 1.407851606297432e+00	 1.112113567330683e+00	 1.289516422473163e+01
 1.396979200356835e+00	 1.125740574585664e+00	 1.285288028296041e+01
 1.385969161497703e+00	 1.139268288509219e+00	 1.279971001948340e+01
 1.374822857215517e+00	 1.152694629679524e+00	 1.273590974235313e+01
 1.363541696379728e+00	 1.166017543579481e+00	 1.266144338330229e+01
 1.352127128658505e+00	 1.179235001627677e+00	 1.257602197122047e+01
 1.340580643912978e+00	 1.192345002193526e+00	 1.247914704866569e+01
 1.328903771561460e+00	 1.205345571595528e+00	 1.237015776908585e+01
 1.446710768555018e+00	 1.075923936326990e+00	 1.299788467801702e+01
 1.436207638078101e+00	 1.089904540471294e+00	 1.296555904111084e+01
 1.425562329849847e+00	 1.103791771447829e+00	 1.292874425095785e+01
 1.414776090204504e+00	 1.117583470884436e+00	 1.289245423076964e+01
 1.403850208599420e+00	 1.131277502243543e+00	 1.284758525178225e+01
 1.392786017131682e+00	 1.144871751899366e+00	 1.279246173314803e+01
 1.381584890022769e+00	 1.158364130202484e+00	 1.272739146803846e+01
 1.370248243071623e+00	 1.171752572530697e+00	 1.265237341501305e+01
 1.358777533076577e+00	 1.185035040325052e+00	 1.256713833384626e+01
 1.347174257226612e+00	 1.198209522109982e+00	 1.247119352476943e+01
 1.335439952462451e+00	 1.211274034496471e+00	 1.236387140127381e+01
 1.453791589751842e+00	 1.081189968200777e+00	 1.298544571682427e+01
 1.443237052462367e+00	 1.095238999400726e+00	 1.295580137740147e+01
 1.432539641542876e+00	 1.109194200424686e+00	 1.292224617323786e+01
 1.421700609427711e+00	 1.123053402336496e+00	 1.288553094298827e+01
 1.410721251885383e+00	 1.136814458141450e+00	 1.283852386204012e+01
 1.399602907532831e+00	 1.150475243868766e+00	 1.278180718431852e+01
 1.388346957317566e+00	 1.164033659641381e+00	 1.271574578734133e+01
 1.376954823968062e+00	 1.177487630731942e+00	 1.264037892255040e+01
 1.365427971412847e+00	 1.190835108603911e+00	 1.255546203723146e+01
 1.353767904168788e+00	 1.204074071936691e+00	 1.246051286485674e+01
 1.341976166699057e+00	 1.217202527633707e+00	 1.235486150629761e+01
 1.460872443049564e+00	 1.086456023948855e+00	 1.297187382292597e+01
 1.450266498714448e+00	 1.100573482514591e+00	 1.294490472542959e+01
 1.439516984867485e+00	 1.114596653894036e+00	 1.291403967942446e+01
 1.428625160043144e+00	 1.128523358586982e+00	 1.287534390481782e+01
 1.417592326321118e+00	 1.142351439141542e+00	 1.282659408020240e+01
 1.406419828838237e+00	 1.156078761241895e+00	 1.276859885737857e+01
 1.395109055268068e+00	 1.169703214783290e+00	 1.270178576591566e+01
 1.383661435268645e+00	 1.183222714933180e+00	 1.262623955677669e+01
 1.372078439898727e+00	 1.196635203177400e+00	 1.254174523465053e+01
 1.360361581003097e+00	 1.209938648350282e+00	 1.244783552846475e+01
 1.348512410567412e+00	 1.223131047647648e+00	 1.234384251466302e+01
 1.467953324435676e+00	 1.091722100586833e+00	 1.295768053616795e+01
 1.457295972850974e+00	 1.105907986789738e+00	 1.293332400419655e+01
 1.446494355869842e+00	 1.119999128794229e+00	 1.290325835734730e+01
 1.435549738126890e+00	 1.133993336536009e+00	 1.286286102933948e+01
 1.424463428013025e+00	 1.147888442105974e+00	 1.281271244054676e+01
 1.413236777184987e+00	 1.161682300843225e+00	 1.275370802734278e+01
 1.401871180042429e+00	 1.175372792415285e+00	 1.268634350812671e+01
 1.390368073172970e+00	 1.188957821884376e+00	 1.261075428077550e+01
 1.378728934765629e+00	 1.202435320758665e+00	 1.252675969028732e+01
 1.366955283993134e+00	 1.215803248027381e+00	 1.243391190924556e+01
 1.355048680363653e+00	 1.229059591178706e+00	 1.233154913764979e+01
 1.475034229897670e+00	 1.096988195130322e+00	 1.294342741288308e+01
 1.464325470888582e+00	 1.111242509203015e+00	 1.292156482095553e+01
 1.453471750596112e+00	 1.125401622063611e+00	 1.289079814336797e+01
 1.442474339755039e+00	 1.139463333083694e+00	 1.284906646603070e+01
 1.431334553067501e+00	 1.153425463896903e+00	 1.279781189598916e+01
 1.420053748710169e+00	 1.167285859497232e+00	 1.273802259907288e+01
 1.408633327808805e+00	 1.181042389324441e+00	 1.267026798892532e+01
 1.397074733880639e+00	 1.194692948335492e+00	 1.259473919861394e+01
 1.385379452244967e+00	 1.208235458060854e+00	 1.251129460907209e+01
 1.373549009402492e+00	 1.221667867644615e+00	 1.241951017001229e+01
 1.361584972383916e+00	 1.234988154867292e+00	 1.231873421164623e+01
 1.482115155423036e+00	 1.102254304594929e+00	 1.292972579150580e+01
 1.471354988843903e+00	 1.116577046731271e+00	 1.290954659071735e+01
 1.460449165092463e+00	 1.130804130640535e+00	 1.287771450100980e+01
 1.449398961003681e+00	 1.144933345130152e+00	 1.283495846672568e+01
 1.438205697590944e+00	 1.158962501376486e+00	 1.278283966856996e+01
 1.426870739550870e+00	 1.172889434028388e+00	 1.272244494652671e+01
 1.415395494735353e+00	 1.186712002297834e+00	 1.265442288606463e+01
 1.403781413591250e+00	 1.200428091036492e+00	 1.257902538469534e+01
 1.392029988568154e+00	 1.214035611797111e+00	 1.249615446729289e+01
 1.380142753494762e+00	 1.227532503878613e+00	 1.240541407868292e+01
 1.368121282924333e+00	 1.240916735353818e+00	 1.230616654344051e+01
 1.489196096999267e+00	 1.107520425996264e+00	 1.291697455580516e+01
 1.478384522733568e+00	 1.121911596351353e+00	 1.289765087162995e+01
 1.467426595405061e+00	 1.136206651463346e+00	 1.286507474609898e+01
 1.456323597948904e+00	 1.150403369575501e+00	 1.282154725085249e+01
 1.445076857689750e+00	 1.164499551406878e+00	 1.276875509964403e+01
 1.433687745844180e+00	 1.178493021261167e+00	 1.270788975207537e+01
 1.422157676990231e+00	 1.192381628122537e+00	 1.263968441268730e+01
 1.410488108504401e+00	 1.206163246737341e+00	 1.256445671372048e+01
 1.398680539966603e+00	 1.219835778680583e+00	 1.248215684399318e+01
 1.386736512533540e+00	 1.233397153406000e+00	 1.239242084512484e+01
 1.374657608281044e+00	 1.246845329278696e+00	 1.229462875647102e+01
 1.496277050613855e+00	 1.112786556349938e+00	 1.290557137503516e+01
 1.485414068574213e+00	 1.127246155040111e+00	 1.288691282478031e+01
 1.474404037580072e+00	 1.141609181470395e+00	 1.285395593011193e+01
 1.463248246666797e+00	 1.155873403319857e+00	 1.280985287000949e+01
 1.451948029470316e+00	 1.170036610850236e+00	 1.275652749982387e+01
 1.440504763727184e+00	 1.184096618020045e+00	 1.269528184592492e+01
 1.428919870741593e+00	 1.198051263585625e+00	 1.262693915030757e+01
 1.417194814819693e+00	 1.211898412188002e+00	 1.255188769127546e+01
 1.405331102671727e+00	 1.225635955424417e+00	 1.247013025316627e+01
 1.393330282782418e+00	 1.239261812903405e+00	 1.238133895891230e+01
 1.381193944750181e+00	 1.252773933282339e+00	 1.228491513804373e+01
 1.503358012254291e+00	 1.118052692671558e+00	 1.289577676968736e+01
 1.492443622382469e+00	 1.132580719774393e+00	 1.287791297573616e+01
 1.481381487663662e+00	 1.147011717600031e+00	 1.284544272246287e+01
 1.470172903233450e+00	 1.161343443263336e+00	 1.280090307194319e+01
 1.458819209039041e+00	 1.175573676568716e+00	 1.274713399872348e+01
 1.447321789336972e+00	 1.189700221129493e+00	 1.268555404568017e+01
 1.435682072157595e+00	 1.203720905474172e+00	 1.261708188221680e+01
 1.423901528736725e+00	 1.217633584138439e+00	 1.254218128506618e+01
 1.411981672914939e+00	 1.231436138741759e+00	 1.246091197676448e+01
 1.399924060504986e+00	 1.245126479047455e+00	 1.237298602800394e+01
 1.387730288627881e+00	 1.258702544005156e+00	 1.227782948752378e+01
 1.510438977908069e+00	 1.123318831976734e+00	 1.288842032853402e+01
 1.499473180174970e+00	 1.137915287531046e+00	 1.287156460907655e+01
 1.488358941701999e+00	 1.152414256790601e+00	 1.284018648541215e+01
 1.477097563724953e+00	 1.166813486306054e+00	 1.279573116398646e+01
 1.465690392502321e+00	 1.181110745424474e+00	 1.274155739455130e+01
 1.454138818810631e+00	 1.195303827413987e+00	 1.267964499608638e+01
 1.442444277406394e+00	 1.209390550575254e+00	 1.261101342734029e+01
 1.430608246455096e+00	 1.223368759338615e+00	 1.253620675681921e+01
 1.418632246927650e+00	 1.237236325345754e+00	 1.245534589853274e+01
 1.406517841964842e+00	 1.250991148514776e+00	 1.236818661835280e+01
 1.394266636210279e+00	 1.264631158087561e+00	 1.227418296550997e+01
 1.328903771561460e+00	 1.205345571595528e+00	 1.237015776908584e+01
 1.317100094016168e+00	 1.218232587233964e+00	 1.226262446074304e+01
 1.305169225639270e+00	 1.231006371939438e+00	 1.216834749728785e+01
 1.293112788547912e+00	 1.243665063654852e+00	 1.208392066808204e+01
 1.280932441560393e+00	 1.256206832054128e+00	 1.200591064015743e+01
 1.268629879430219e+00	 1.268629879430219e+00	 1.193092041679897e+01
 1.256206832054128e+00	 1.280932441560393e+00	 1.185565445151432e+01
 1.243665063654852e+00	 1.293112788547913e+00	 1.177698498517475e+01
 1.231006371939438e+00	 1.305169225639270e+00	 1.169201915931406e+01
 1.218232587233963e+00	 1.317100094016168e+00	 1.159816644659355e+01
 1.205345571595528e+00	 1.328903771561460e+00	 1.149320593040036e+01
 1.335439952462451e+00	 1.211274034496471e+00	 1.236387140127381e+01
 1.323578218816319e+00	 1.224224434607888e+00	 1.225824814420564e+01
 1.311588668753623e+00	 1.237061046862685e+00	 1.216567045638345e+01
 1.299472932369836e+00	 1.249782000045293e+00	 1.208277219797668e+01
 1.287232676642098e+00	 1.262385454827237e+00	 1.200615570443179e+01
 1.274869604659506e+00	 1.274869604659506e+00	 1.193245724555924e+01
 1.262385454827237e+00	 1.287232676642098e+00	 1.185841422605361e+01
 1.249782000045293e+00	 1.299472932369836e+00	 1.178093368169964e+01
 1.237061046862685e+00	 1.311588668753623e+00	 1.169716161010774e+01
 1.224224434607888e+00	 1.323578218816319e+00	 1.160455266232253e+01
 1.211274034496471e+00	 1.335439952462451e+00	 1.150093971217113e+01
 1.341976166699057e+00	 1.217202527633707e+00	 1.235486150629760e+01
 1.330056376655977e+00	 1.230216312541315e+00	 1.225110165318614e+01
 1.318008144608183e+00	 1.243115752665815e+00	 1.216014166931043e+01
 1.305833108629521e+00	 1.255898967633128e+00	 1.207866524894969e+01
 1.293532943856018e+00	 1.268564109112330e+00	 1.200332016024864e+01
 1.281109361712400e+00	 1.281109361712400e+00	 1.193078574743794e+01
 1.268564109112330e+00	 1.293532943856017e+00	 1.185784226330083e+01
 1.255898967633128e+00	 1.305833108629521e+00	 1.178144157228531e+01
 1.243115752665815e+00	 1.318008144608184e+00	 1.169877874862273e+01
 1.230216312541315e+00	 1.330056376655977e+00	 1.160736408077554e+01
 1.217202527633707e+00	 1.341976166699057e+00	 1.150509498361162e+01
 1.348512410567412e+00	 1.223131047647648e+00	 1.234384251466302e+01
 1.336534563864171e+00	 1.236208217638752e+00	 1.224188941936712e+01
 1.324427649565231e+00	 1.249170485917754e+00	 1.215246188077158e+01
 1.312193313722846e+00	 1.262015962952014e+00	 1.207230289618340e+01
 1.299833239631967e+00	 1.274742791408118e+00	 1.199811511422428e+01
 1.287349147052996e+00	 1.287349147052996e+00	 1.192663042425769e+01
 1.274742791408118e+00	 1.299833239631967e+00	 1.185468146773520e+01
 1.262015962952014e+00	 1.312193313722847e+00	 1.177927459767902e+01
 1.249170485917754e+00	 1.324427649565231e+00	 1.169766379583545e+01
 1.236208217638751e+00	 1.336534563864170e+00	 1.160742504343220e+01
 1.223131047647648e+00	 1.348512410567413e+00	 1.150653063109434e+01
 1.355048680363653e+00	 1.229059591178706e+00	 1.233154913764979e+01
 1.343012776769932e+00	 1.242200146504712e+00	 1.223133651360789e+01
 1.330847179987044e+00	 1.255225243187424e+00	 1.214335283391856e+01
 1.318553544045686e+00	 1.268132982535606e+00	 1.206440957290811e+01
 1.306133560399765e+00	 1.280921498213315e+00	 1.199127339007983e+01
 1.293588957145393e+00	 1.293588957145393e+00	 1.192073785227766e+01
 1.280921498213315e+00	 1.306133560399765e+00	 1.184969717240256e+01
 1.268132982535605e+00	 1.318553544045686e+00	 1.177522147637428e+01
 1.255225243187424e+00	 1.330847179987044e+00	 1.169463309269167e+01
 1.242200146504711e+00	 1.343012776769932e+00	 1.160558334477123e+01
 1.229059591178706e+00	 1.355048680363653e+00	 1.150612931538244e+01
 1.361584972383916e+00	 1.234988154867292e+00	 1.231873421164623e+01
 1.349491011702289e+00	 1.248192095743705e+00	 1.222018650382558e+01
 1.337266732235900e+00	 1.261280021043750e+00	 1.213355514618789e+01
 1.324913795993914e+00	 1.274250022917558e+00	 1.205572896849083e+01
 1.312433902589228e+00	 1.287100226026631e+00	 1.198354745315848e+01
 1.299828788453687e+00	 1.299828788453687e+00	 1.191387463719372e+01
 1.287100226026631e+00	 1.312433902589228e+00	 1.184367512832337e+01
 1.274250022917558e+00	 1.324913795993915e+00	 1.177009173221301e+01
 1.261280021043750e+00	 1.337266732235901e+00	 1.169052416955330e+01
 1.248192095743705e+00	 1.349491011702289e+00	 1.160270834706822e+01
 1.234988154867292e+00	 1.361584972383916e+00	 1.150479563513221e+01
 1.368121282924333e+00	 1.240916735353818e+00	 1.230616654344051e+01
 1.355969264990275e+00	 1.254184061960244e+00	 1.220919931382293e+01
 1.343686302674079e+00	 1.267334816055656e+00	 1.212382618600462e+01
 1.331274065963408e+00	 1.280367080631528e+00	 1.204702192723870e+01
 1.318734262630171e+00	 1.293278971346777e+00	 1.197570733544060e+01
 1.306068637441975e+00	 1.306068637441975e+00	 1.190682536935013e+01
 1.293278971346777e+00	 1.318734262630171e+00	 1.183741949376067e+01
 1.280367080631528e+00	 1.331274065963408e+00	 1.176471372143956e+01
 1.267334816055655e+00	 1.343686302674080e+00	 1.168619381462769e+01
 1.254184061960244e+00	 1.355969264990276e+00	 1.159968909364598e+01
 1.240916735353818e+00	 1.368121282924333e+00	 1.150345428826738e+01
 1.374657608281044e+00	 1.246845329278696e+00	 1.229462875647102e+01
 1.362447532962918e+00	 1.260176041758838e+00	 1.219914908307017e+01
 1.350105887663859e+00	 1.273389624792064e+00	 1.211493795035902e+01
 1.337634350350043e+00	 1.286484152211171e+00	 1.203906434792976e+01
 1.325034636952411e+00	 1.299457730672467e+00	 1.196853856106996e+01
 1.312308500574354e+00	 1.312308500574354e+00	 1.190039057918720e+01
 1.299457730672467e+00	 1.325034636952411e+00	 1.183175082338644e+01
 1.286484152211171e+00	 1.337634350350043e+00	 1.175993265925308e+01
 1.273389624792063e+00	 1.350105887663859e+00	 1.168251614143880e+01
 1.260176041758837e+00	 1.362447532962919e+00	 1.159743242065952e+01
 1.246845329278697e+00	 1.374657608281044e+00	 1.150304823132599e+01
 1.381193944750181e+00	 1.252773933282339e+00	 1.228491513804373e+01
 1.368925811949249e+00	 1.266168031743997e+00	 1.219082202744350e+01
 1.356525483567518e+00	 1.279444443821899e+00	 1.210767494326528e+01
 1.343994645549694e+00	 1.292601234190142e+00	 1.203264508408266e+01
 1.331335021985766e+00	 1.305636500502410e+00	 1.196284007241400e+01
 1.318548374314922e+00	 1.318548374314922e+00	 1.189538469295220e+01
 1.305636500502410e+00	 1.331335021985766e+00	 1.182750405738263e+01
 1.292601234190142e+00	 1.343994645549694e+00	 1.175660864590912e+01
 1.279444443821899e+00	 1.356525483567518e+00	 1.168038065540679e+01
 1.266168031743997e+00	 1.368925811949250e+00	 1.159686106749386e+01
 1.252773933282338e+00	 1.381193944750181e+00	 1.150453683687700e+01
 1.387730288627881e+00	 1.258702544005156e+00	 1.227782948752377e+01
 1.375404098278298e+00	 1.272160028520235e+00	 1.218501430092952e+01
 1.362945086747335e+00	 1.285499269714085e+00	 1.210283205511189e+01
 1.350354947958237e+00	 1.298718323102097e+00	 1.202856384497940e+01
 1.337635414160051e+00	 1.311815277335320e+00	 1.195942215667592e+01
 1.324788255127775e+00	 1.324788255127775e+00	 1.189263398870228e+01
 1.311815277335320e+00	 1.337635414160052e+00	 1.182552651051518e+01
 1.298718323102097e+00	 1.350354947958238e+00	 1.175561469241893e+01
 1.285499269714085e+00	 1.362945086747336e+00	 1.168069031959957e+01
 1.272160028520235e+00	 1.375404098278298e+00	 1.159891178585603e+01
 1.258702544005156e+00	 1.387730288627881e+00	 1.150889404910063e+01
 1.394266636210279e+00	 1.264631158087561e+00	 1.227418296550997e+01
 1.381882388279096e+00	 1.278152028692061e+00	 1.218252985830622e+01
 1.369364693565589e+00	 1.291554099037546e+00	 1.210121244291410e+01
 1.356715253971548e+00	 1.304835415480692e+00	 1.202762909745553e+01
 1.343935809905084e+00	 1.317994057669907e+00	 1.195910437307987e+01
 1.331028139477010e+00	 1.331028139477010e+00	 1.189297455262769e+01
 1.317994057669907e+00	 1.343935809905085e+00	 1.182667586121938e+01
 1.304835415480692e+00	 1.356715253971548e+00	 1.175783474589982e+01
 1.291554099037545e+00	 1.369364693565589e+00	 1.168435961971671e+01
 1.278152028692060e+00	 1.381882388279097e+00	 1.160453344763362e+01
 1.264631158087562e+00	 1.394266636210279e+00	 1.151710653762576e+01
 1.205345571595528e+00	 1.328903771561460e+00	 1.149320593040036e+01
 1.192345002193527e+00	 1.340580643912977e+00	 1.138068977548495e+01
 1.179235001627678e+00	 1.352127128658504e+00	 1.126497130629108e+01
 1.166017543579482e+00	 1.363541696379727e+00	 1.114571548860559e+01
 1.152694629679524e+00	 1.374822857215517e+00	 1.102320073249765e+01
 1.139268288509220e+00	 1.385969161497703e+00	 1.089837764328636e+01
 1.125740574585664e+00	 1.396979200356834e+00	 1.077292478339234e+01
 1.112113567330684e+00	 1.407851606297432e+00	 1.064930099752962e+01
 1.098389370025117e+00	 1.418585053742233e+00	 1.052834910181093e+01
 1.084570108749449e+00	 1.429178259545016e+00	 1.041212148898178e+01
 1.070657931311884e+00	 1.439629983471600e+00	 1.030715121945530e+01
 1.211274034496471e+00	 1.335439952462451e+00	 1.150093971217113e+01
 1.198209522109982e+00	 1.347174257226611e+00	 1.138984166525836e+01
 1.185035040325052e+00	 1.358777533076577e+00	 1.127547570467452e+01
 1.171752572530697e+00	 1.370248243071622e+00	 1.115742464036913e+01
 1.158364130202485e+00	 1.381584890022768e+00	 1.103589980457503e+01
 1.144871751899366e+00	 1.392786017131682e+00	 1.091180225509659e+01
 1.131277502243543e+00	 1.403850208599420e+00	 1.078678092574228e+01
 1.117583470884436e+00	 1.414776090204503e+00	 1.066328726034740e+01
 1.103791771447830e+00	 1.425562329849847e+00	 1.054380008109279e+01
 1.089904540471294e+00	 1.436207638078100e+00	 1.042881626214151e+01
 1.075923936326989e+00	 1.446710768555017e+00	 1.032429554406948e+01
 1.217202527633707e+00	 1.341976166699057e+00	 1.150509498361162e+01
 1.204074071936692e+00	 1.353767904168787e+00	 1.139543726074666e+01
 1.190835108603912e+00	 1.365427971412846e+00	 1.128243036600085e+01
 1.177487630731942e+00	 1.376954823968060e+00	 1.116555283928228e+01
 1.164033659641382e+00	 1.388346957317566e+00	 1.104492622681260e+01
 1.150475243868767e+00	 1.399602907532831e+00	 1.092137884474637e+01
 1.136814458141450e+00	 1.410721251885382e+00	 1.079650642654082e+01
 1.123053402336496e+00	 1.421700609427711e+00	 1.067272917401683e+01
 1.109194200424686e+00	 1.432539641542875e+00	 1.055328738344361e+01
 1.095238999400726e+00	 1.443237052462367e+00	 1.043903861626782e+01
 1.081189968200777e+00	 1.453791589751842e+00	 1.033428187866603e+01
 1.223131047647648e+00	 1.348512410567413e+00	 1.150653063109434e+01
 1.209938648350283e+00	 1.360361581003097e+00	 1.139836528907126e+01
 1.196635203177400e+00	 1.372078439898725e+00	 1.128674132673094e+01
 1.183222714933181e+00	 1.383661435268644e+00	 1.117101094989493e+01
 1.169703214783291e+00	 1.395109055268068e+00	 1.105118326702751e+01
 1.156078761241896e+00	 1.406419828838236e+00	 1.092799072280531e+01
 1.142351439141542e+00	 1.417592326321117e+00	 1.080295235239763e+01
 1.128523358586982e+00	 1.428625160043143e+00	 1.067843335937364e+01
 1.114596653894037e+00	 1.439516984867485e+00	 1.055770053712755e+01
 1.100573482514591e+00	 1.450266498714447e+00	 1.044338782913750e+01
 1.086456023948855e+00	 1.460872443049564e+00	 1.033760195536082e+01
 1.229059591178706e+00	 1.355048680363653e+00	 1.150612931538244e+01
 1.215803248027382e+00	 1.366955283993134e+00	 1.139953870763840e+01
 1.202435320758666e+00	 1.378728934765628e+00	 1.128933958358352e+01
 1.188957821884376e+00	 1.390368073172970e+00	 1.117473578853285e+01
 1.175372792415286e+00	 1.401871180042428e+00	 1.105560138501586e+01
 1.161682300843226e+00	 1.413236777184986e+00	 1.093254986757028e+01
 1.147888442105974e+00	 1.424463428013025e+00	 1.080700013554831e+01
 1.133993336536010e+00	 1.435549738126889e+00	 1.068123870932338e+01
 1.119999128794229e+00	 1.446494355869842e+00	 1.055847769259734e+01
 1.105907986789738e+00	 1.457295972850975e+00	 1.044251719927524e+01
 1.091722100586834e+00	 1.467953324435676e+00	 1.033480120183967e+01
 1.234988154867292e+00	 1.361584972383916e+00	 1.150479563513221e+01
 1.221667867644616e+00	 1.373549009402491e+00	 1.139989291598697e+01
 1.208235458060854e+00	 1.385379452244967e+00	 1.129117934978654e+01
 1.194692948335492e+00	 1.397074733880638e+00	 1.117768842007085e+01
 1.181042389324442e+00	 1.408633327808805e+00	 1.105913656604173e+01
 1.167285859497232e+00	 1.420053748710168e+00	 1.093599529152784e+01
 1.153425463896904e+00	 1.431334553067501e+00	 1.080955996962427e+01
 1.139463333083695e+00	 1.442474339755039e+00	 1.068201481031911e+01
 1.125401622063612e+00	 1.453471750596112e+00	 1.055649347611105e+01
 1.111242509203016e+00	 1.464325470888582e+00	 1.043713485177077e+01
 1.096988195130322e+00	 1.475034229897669e+00	 1.032647923675431e+01
 1.240916735353818e+00	 1.368121282924333e+00	 1.150345428826738e+01
 1.227532503878613e+00	 1.380142753494762e+00	 1.140038396498083e+01
 1.214035611797111e+00	 1.392029988568154e+00	 1.129323630829015e+01
 1.200428091036492e+00	 1.403781413591249e+00	 1.118085245144015e+01
 1.186712002297834e+00	 1.415395494735354e+00	 1.106276865096804e+01
 1.172889434028388e+00	 1.426870739550870e+00	 1.093929140451145e+01
 1.158962501376486e+00	 1.438205697590943e+00	 1.081156920229906e+01
 1.144933345130153e+00	 1.449398961003680e+00	 1.068166036103672e+01
 1.130804130640535e+00	 1.460449165092463e+00	 1.055259640695103e+01
 1.116577046731271e+00	 1.471354988843902e+00	 1.042844049638178e+01
 1.102254304594929e+00	 1.482115155423035e+00	 1.031333599151614e+01
 1.246845329278697e+00	 1.374657608281044e+00	 1.150304823132599e+01
 1.233397153406001e+00	 1.386736512533540e+00	 1.140198676345702e+01
 1.219835778680584e+00	 1.398680539966603e+00	 1.129650586207279e+01
 1.206163246737342e+00	 1.410488108504401e+00	 1.118523232199995e+01
 1.192381628122537e+00	 1.422157676990230e+00	 1.106749966316886e+01
 1.178493021261168e+00	 1.433687745844179e+00	 1.094342637368399e+01
 1.164499551406879e+00	 1.445076857689749e+00	 1.081399072494118e+01
 1.150403369575502e+00	 1.456323597948904e+00	 1.068110158835643e+01
 1.136206651463347e+00	 1.467426595405061e+00	 1.054766470168443e+01
 1.121911596351354e+00	 1.478384522733568e+00	 1.041764385501855e+01
 1.107520425996265e+00	 1.489196096999267e+00	 1.030299175538231e+01
 1.252773933282338e+00	 1.381193944750181e+00	 1.150453683687700e+01
 1.239261812903406e+00	 1.393330282782417e+00	 1.140569328244885e+01
 1.225635955424418e+00	 1.405331102671726e+00	 1.130200138166166e+01
 1.211898412188003e+00	 1.417194814819693e+00	 1.119185159090607e+01
 1.198051263585625e+00	 1.428919870741592e+00	 1.107435213234999e+01
 1.184096618020045e+00	 1.440504763727184e+00	 1.094941048047605e+01
 1.170036610850236e+00	 1.451948029470316e+00	 1.081781135939148e+01
 1.155873403319858e+00	 1.463248246666797e+00	 1.068129066076463e+01
 1.141609181470396e+00	 1.474404037580072e+00	 1.054260471103443e+01
 1.127246155040112e+00	 1.485414068574213e+00	 1.040757468024364e+01
 1.112786556349938e+00	 1.496277050613855e+00	 1.030179353842397e+01
 1.258702544005156e+00	 1.387730288627881e+00	 1.150889404910063e+01
 1.245126479047455e+00	 1.399924060504985e+00	 1.141251075708929e+01
 1.231436138741759e+00	 1.411981672914938e+00	 1.131075244998894e+01
 1.217633584138439e+00	 1.423901528736724e+00	 1.120175122160200e+01
 1.203720905474172e+00	 1.435682072157594e+00	 1.108436741540921e+01
 1.189700221129493e+00	 1.447321789336972e+00	 1.095827447460426e+01
 1.175573676568716e+00	 1.458819209039040e+00	 1.082404024198428e+01
 1.161343443263336e+00	 1.470172903233450e+00	 1.068320409927987e+01
 1.147011717600031e+00	 1.481381487663662e+00	 1.053834935467286e+01
 1.132580719774393e+00	 1.492443622382469e+00	 1.040885674207374e+01
 1.118052692671557e+00	 1.503358012254291e+00	 1.031185282054849e+01
 1.264631158087562e+00	 1.394266636210279e+00	 1.151710653762576e+01
 1.250991148514777e+00	 1.406517841964841e+00	 1.142345988630402e+01
 1.237236325345755e+00	 1.418632246927651e+00	 1.132380310470262e+01
 1.223368759338615e+00	 1.430608246455096e+00	 1.121598786355575e+01
 1.209390550575255e+00	 1.442444277406394e+00	 1.109860401445981e+01
 1.195303827413988e+00	 1.454138818810630e+00	 1.097106792529171e+01
 1.181110745424474e+00	 1.465690392502321e+00	 1.083370720492829e+01
 1.166813486306055e+00	 1.477097563724952e+00	 1.068784118600998e+01
 1.152414256790601e+00	 1.488358941701999e+00	 1.054237036100549e+01
 1.137915287531047e+00	 1.499473180174970e+00	 1.042423158018333e+01
 1.123318831976734e+00	 1.510438977908068e+00	 1.033486116688783e+01
 1.070657931311884e+00	 1.439629983471600e+00	 1.030715121945530e+01
 1.056657392672377e+00	 1.449937289472463e+00	 1.019795779824469e+01
 1.042568316178337e+00	 1.460100818571260e+00	 1.006892774549275e+01
 1.028392899317367e+00	 1.470119468213545e+00	 9.926932531244415e+00
 1.014133356955129e+00	 1.479992180288705e+00	 9.779026678518528e+00
 9.997919202222384e-01	 1.489717941445333e+00	 9.634343844425860e+00
 9.853708353953267e-01	 1.499295783373474e+00	 9.498228110552970e+00
 9.708723627734085e-01	 1.508724783053639e+00	 9.368271114201704e+00
 9.562987755506887e-01	 1.518004062972557e+00	 9.241426763885011e+00
 9.416523586869459e-01	 1.527132791305695e+00	 9.114160879675421e+00
 9.269354077766124e-01	 1.536110182066576e+00	 8.982502120815452e+00
 1.075923936326989e+00	 1.446710768555017e+00	 1.032429554406948e+01
 1.061854536378336e+00	 1.457068770790184e+00	 1.021482547951890e+01
 1.047696163103880e+00	 1.467282288960102e+00	 1.008512774946202e+01
 1.033451024799512e+00	 1.477350215087430e+00	 9.942628438406730e+00
 1.019121347224654e+00	 1.487271485857252e+00	 9.796594359375128e+00
 1.004709372483679e+00	 1.497045082934007e+00	 9.658106694712767e+00
 9.902173579014739e-01	 1.506670033245124e+00	 9.526561330553680e+00
 9.756475748942761e-01	 1.516145409231250e+00	 9.399674735834530e+00
 9.610023078369375e-01	 1.525470329063079e+00	 9.274617909937746e+00
 9.462838529277534e-01	 1.534643956824760e+00	 9.148068397645648e+00
 9.314945170519781e-01	 1.543665502663949e+00	 9.016262411704714e+00
 1.081189968200777e+00	 1.453791589751842e+00	 1.033428187866603e+01
 1.067051706591839e+00	 1.464200288479920e+00	 1.022371591522437e+01
 1.052824036183593e+00	 1.474463795975967e+00	 1.009247315813639e+01
 1.038509176080270e+00	 1.484580998839715e+00	 9.949218884652172e+00
 1.024109362935107e+00	 1.494550828551916e+00	 9.809467008686291e+00
 1.009626849826293e+00	 1.504372261792829e+00	 9.676412524861986e+00
 9.950639051270254e-01	 1.514044320727234e+00	 9.548623987075070e+00
 9.804228113708195e-01	 1.523566073255896e+00	 9.424065773189170e+00
 9.657058641132339e-01	 1.532936633233445e+00	 9.300150920396513e+00
 9.509153707911361e-01	 1.542155160652688e+00	 9.173794352703341e+00
 9.360536495806618e-01	 1.551220861795396e+00	 9.041466193836069e+00
 1.086456023948855e+00	 1.460872443049564e+00	 1.033760195536082e+01
 1.072248900367507e+00	 1.471331838500423e+00	 1.022501396108447e+01
 1.057951932511357e+00	 1.481645335549267e+00	 1.009125607878135e+01
 1.043567350293024e+00	 1.491811815372873e+00	 9.952677130256596e+00
 1.029097401259614e+00	 1.501830204247639e+00	 9.819391132030184e+00
 1.014544349463180e+00	 1.511699473869615e+00	 9.690908513832166e+00
 9.999104743252775e-01	 1.521418641640915e+00	 9.566075772994839e+00
 9.851980694967550e-01	 1.530986770922394e+00	 9.443128836871880e+00
 9.704094417139253e-01	 1.540402971252601e+00	 9.319747124739074e+00
 9.555469096522805e-01	 1.549666398532978e+00	 9.193107986284147e+00
 9.406128027788887e-01	 1.558776255179391e+00	 9.059941201598814e+00
 1.091722100586834e+00	 1.467953324435676e+00	 1.033480120183966e+01
 1.077446114759960e+00	 1.478463416810444e+00	 1.021915775460633e+01
 1.063079849181050e+00	 1.488826903610410e+00	 1.008659404440242e+01
 1.048625544571160e+00	 1.499042660589376e+00	 9.955720000989984e+00
 1.034085459371302e+00	 1.509109608819360e+00	 9.827988382310027e+00
 1.019461868607437e+00	 1.519026715012187e+00	 9.703216849102827e+00
 1.004757062749529e+00	 1.528792991807277e+00	 9.580552195094796e+00
 9.899733465657985e-01	 1.538407498025565e+00	 9.458524945750980e+00
 9.751130379733587e-01	 1.547869338889493e+00	 9.335104648191729e+00
 9.601784668863719e-01	 1.557177666209127e+00	 9.207755520544485e+00
 9.451719740628828e-01	 1.566331678534407e+00	 9.073492137124244e+00
 1.096988195130322e+00	 1.475034229897669e+00	 1.032647923675431e+01
 1.082643346823816e+00	 1.485595019368734e+00	 1.020838079725011e+01
 1.068207783286553e+00	 1.496008496089809e+00	 1.008408902286890e+01
 1.053683756048060e+00	 1.506273530391696e+00	 9.959954022442545e+00
 1.039073534443295e+00	 1.516389038142022e+00	 9.836853705623778e+00
 1.024379404472166e+00	 1.526353981068362e+00	 9.714934053190557e+00
 1.009603667653078e+00	 1.536167367047434e+00	 9.593663927801996e+00
 9.947486398716660e-01	 1.545828250360228e+00	 9.471890913447957e+00
 9.798166502258819e-01	 1.555335731913070e+00	 9.347897836268057e+00
 9.648100398685961e-01	 1.564688959424632e+00	 9.219459626011183e+00
 9.497311608488682e-01	 1.573887127578916e+00	 9.083900185865810e+00
 1.102254304594929e+00	 1.482115155423035e+00	 1.031333599151614e+01
 1.087840593613695e+00	 1.492726642134045e+00	 1.020147800940433e+01
 1.073335731921745e+00	 1.503190108917871e+00	 1.008534269535156e+01
 1.058741981857107e+00	 1.513504420682307e+00	 9.966957049540319e+00
 1.044061623648717e+00	 1.523668488090562e+00	 9.847554647637718e+00
 1.029296954270462e+00	 1.533681267885960e+00	 9.727630311441800e+00
 1.014450286289221e+00	 1.543541763182495e+00	 9.606996167996222e+00
 9.995239467080739e-01	 1.553249023721201e+00	 9.484838735535030e+00
 9.845202758058428e-01	 1.562802146092279e+00	 9.359776679502991e+00
 9.694416259741384e-01	 1.572200273922991e+00	 9.229918888764244e+00
 9.542903605530698e-01	 1.581442598031394e+00	 9.092922530918869e+00
 1.107520425996265e+00	 1.489196096999267e+00	 1.030299175538231e+01
 1.093037852184217e+00	 1.499858281065129e+00	 1.020096706749445e+01
 1.078463692180506e+00	 1.510371738025008e+00	 1.009192587409213e+01
 1.063800219131686e+00	 1.520735327363677e+00	 9.978277558497687e+00
 1.049049724160697e+00	 1.530947954539924e+00	 9.861630661258044e+00
 1.034214515215427e+00	 1.541008571312801e+00	 9.742848801079155e+00
 1.019296915911257e+00	 1.550916176033571e+00	 9.622107990873349e+00
 1.004299264368738e+00	 1.560669813903307e+00	 9.498954977436604e+00
 9.892239120475878e-01	 1.570268577196068e+00	 9.372366238389558e+00
 9.740732225781852e-01	 1.579711605447702e+00	 9.240807277187058e+00
 9.588495705917117e-01	 1.588998085610312e+00	 9.102291866130997e+00
 1.112786556349938e+00	 1.496277050613855e+00	 1.030179353842397e+01
 1.098235119590002e+00	 1.506989932120735e+00	 1.020842169985477e+01
 1.083591661156715e+00	 1.517553379341630e+00	 1.010537778539723e+01
 1.068858465005180e+00	 1.527966246338281e+00	 9.995433939935015e+00
 1.054037833152356e+00	 1.538227433365047e+00	 9.880592415579812e+00
 1.039132084520158e+00	 1.548335887196702e+00	 9.762105021482476e+00
 1.024143553772484e+00	 1.558290601421774e+00	 9.640531706847298e+00
 1.009074590147374e+00	 1.568090616701362e+00	 9.515800163025025e+00
 9.939275562854648e-01	 1.577735020993382e+00	 9.387266068532021e+00
 9.787048270559210e-01	 1.587222949742263e+00	 9.253773608316024e+00
 9.634087883810180e-01	 1.596553586034144e+00	 9.113715908068942e+00
 1.118052692671557e+00	 1.503358012254291e+00	 1.031185282054848e+01
 1.103432392885668e+00	 1.514121591259616e+00	 1.022538162663505e+01
 1.088719635944252e+00	 1.524735028798148e+00	 1.012720535351449e+01
 1.073916716610972e+00	 1.535197173508591e+00	 1.001991379314364e+01
 1.059025947796823e+00	 1.545506920440872e+00	 9.905921106091535e+00
 1.044049659397754e+00	 1.555663211385484e+00	 9.786886125682505e+00
 1.028990197126198e+00	 1.565665035168214e+00	 9.663772219474879e+00
 1.013849921337699e+00	 1.575511427910187e+00	 9.536908163913523e+00
 9.986312058538218e-01	 1.585201473253171e+00	 9.406049646024904e+00
 9.833364367825321e-01	 1.594734302550171e+00	 9.270441013816956e+00
 9.679680113372134e-01	 1.604109095021363e+00	 9.128876906886187e+00
 1.123318831976734e+00	 1.510438977908068e+00	 1.033486116688783e+01
 1.108629669125836e+00	 1.521253254440523e+00	 1.025335183950797e+01
 1.093847613636997e+00	 1.531916682324970e+00	 1.015888248538885e+01
 1.078974971082447e+00	 1.542428104777079e+00	 1.005317322148394e+01
 1.064014065267222e+00	 1.552786411642340e+00	 9.939067766118384e+00
 1.048967237061315e+00	 1.562990539726966e+00	 9.818650253048922e+00
 1.033836843225698e+00	 1.573039473094003e+00	 9.693306384390764e+00
 1.018625255233428e+00	 1.582932243324601e+00	 9.563785589435369e+00
 1.003334858087006e+00	 1.592667929744381e+00	 9.430263793071241e+00
 9.879680491332047e-01	 1.602245659614925e+00	 9.292406405623144e+00
 9.725272368765219e-01	 1.611664608290443e+00	 9.149431156151877e+00
 9.269354077766124e-01	 1.536110182066576e+00	 8.982502120815452e+00
 9.121502282064713e-01	 1.544935495595601e+00	 8.847190686071588e+00
 8.972991348732574e-01	 1.553608039766600e+00	 8.711797511982752e+00
 8.823844501562227e-01	 1.562127168928098e+00	 8.576150923916797e+00
 8.674085024978194e-01	 1.570492283547801e+00	 8.439913154824147e+00
 8.523736252820379e-01	 1.578702830195891e+00	 8.302620157225101e+00
 8.372821557180713e-01	 1.586758301496337e+00	 8.163720014108270e+00
 8.221364337303418e-01	 1.594658236046570e+00	 8.022609757338703e+00
 8.069388008559120e-01	 1.602402218305899e+00	 7.878670418364534e+00
 7.916915991502745e-01	 1.609989878453082e+00	 7.731300152791387e+00
 7.763971701024950e-01	 1.617420892213523e+00	 7.579945297674270e+00
 9.314945170519781e-01	 1.543665502663949e+00	 9.016262411704714e+00
 9.166366169353819e-01	 1.552534223283045e+00	 8.880828217712544e+00
 9.017124788604672e-01	 1.561249423151681e+00	 8.746002615648802e+00
 8.867244366290579e-01	 1.569810453442782e+00	 8.611484051813441e+00
 8.716748301359981e-01	 1.578216711675283e+00	 8.476803779107055e+00
 8.565660042419773e-01	 1.586467641697350e+00	 8.341367081175413e+00
 8.414003076516988e-01	 1.594562733637452e+00	 8.204493031285828e+00
 8.261800917984530e-01	 1.602501523823640e+00	 8.065452588790276e+00
 8.109077097360999e-01	 1.610283594671408e+00	 7.923504852760368e+00
 7.955855150394812e-01	 1.617908574540580e+00	 7.777931309738396e+00
 7.802158607142238e-01	 1.625376137561632e+00	 7.628067930397956e+00
 9.360536495806618e-01	 1.551220861795396e+00	 9.041466193836069e+00
 9.211230285466265e-01	 1.560132989725943e+00	 8.905672349938580e+00
 9.061258453573621e-01	 1.568890845509755e+00	 8.771275656121372e+00
 8.910644452373246e-01	 1.577493777144135e+00	 8.637826935899053e+00
 8.759411795338151e-01	 1.585941179199239e+00	 8.504708076311887e+00
 8.607584045842821e-01	 1.594232492801210e+00	 8.371174730138167e+00
 8.455184805890048e-01	 1.602367205583006e+00	 8.236397487301593e+00
 8.302237704902008e-01	 1.610344851603284e+00	 8.099501312386421e+00
 8.148766388585932e-01	 1.618165011233725e+00	 7.959603062478070e+00
 7.994794507884322e-01	 1.625827311015201e+00	 7.815846917472328e+00
 7.840345708019715e-01	 1.633331423483266e+00	 7.667437573452428e+00
 9.406128027788887e-01	 1.558776255179391e+00	 9.059941201598814e+00
 9.256094604976632e-01	 1.567731790618172e+00	 8.923608526125724e+00
 9.105392318628179e-01	 1.576532302510526e+00	 8.789548086983414e+00
 8.954044735214983e-01	 1.585177135678125e+00	 8.657145411706061e+00
 8.802075482735146e-01	 1.593665681742335e+00	 8.525614719483865e+00
 8.649508239331309e-01	 1.601997379107259e+00	 8.394043167894708e+00
 8.496366721962550e-01	 1.610171712910337e+00	 8.261433501881541e+00
 8.342674675140902e-01	 1.618188214940832e+00	 8.126744895755433e+00
 8.188455859742743e-01	 1.626046463526596e+00	 7.988931796893719e+00
 8.033734041905242e-01	 1.633746083389547e+00	 7.846980598314111e+00
 7.878532982017724e-01	 1.641286745470310e+00	 7.699943986372876e+00
 9.451719740628828e-01	 1.566331678534407e+00	 9.073492137124244e+00
 9.300959102459481e-01	 1.575330621653610e+00	 8.936499158637769e+00
 9.149526358757110e-01	 1.584173789823705e+00	 8.802728549842637e+00
 8.997445190220529e-01	 1.592860524690725e+00	 8.671382931409441e+00
 8.844739339373405e-01	 1.601390214927231e+00	 8.541490628279275e+00
 8.691432599127007e-01	 1.609762296215283e+00	 8.411951527927156e+00
 8.537548801397180e-01	 1.617976251196792e+00	 8.281581272451277e+00
 8.383111805786272e-01	 1.626031609391613e+00	 8.149153568951675e+00
 8.228145488340287e-01	 1.633927947083769e+00	 8.013440421127926e+00
 8.072673730391542e-01	 1.641664887176219e+00	 7.873250104156786e+00
 7.916720407496620e-01	 1.649242099014650e+00	 7.727462724593181e+00
 9.497311608488682e-01	 1.573887127578916e+00	 9.083900185865810e+00
 9.345823752489382e-01	 1.582929478526132e+00	 8.946183191942959e+00
 9.193660548949181e-01	 1.591815303119002e+00	 8.812702479582871e+00
 9.040845792794627e-01	 1.600543939827904e+00	 8.682460205879359e+00
 8.887403341075369e-01	 1.609114774376591e+00	 8.554280642568203e+00
 8.733357101471693e-01	 1.617527239725068e+00	 8.426857713403379e+00
 8.578731020856605e-01	 1.625780816019709e+00	 8.298800795424235e+00
 8.423549073923166e-01	 1.633875030510957e+00	 8.168678562057682e+00
 8.267835251887414e-01	 1.641809457438995e+00	 8.035060665066165e+00
 8.111613551277187e-01	 1.649583717887819e+00	 7.896557072111599e+00
 7.954907962816750e-01	 1.657197479608172e+00	 7.751854897030725e+00
 9.542903605530698e-01	 1.581442598031394e+00	 9.092922530918869e+00
 9.390688529640909e-01	 1.590528356929616e+00	 8.954475663682606e+00
 9.237794864193151e-01	 1.599456838066124e+00	 8.821331706925555e+00
 9.084246518342031e-01	 1.608227376735635e+00	 8.692274843555074e+00
 8.930067463663489e-01	 1.616839355713080e+00	 8.565907192512741e+00
 8.775281722607142e-01	 1.625292205236401e+00	 8.440698093434364e+00
 8.619913357003499e-01	 1.633585402956432e+00	 8.315031583694605e+00
 8.463986456636637e-01	 1.641718473854193e+00	 8.187251839059639e+00
 8.307525127892962e-01	 1.649690990126023e+00	 8.055706368854018e+00
 8.150553482496149e-01	 1.657502571036946e+00	 7.918786776958902e+00
 7.993095626338458e-01	 1.665152882742761e+00	 7.774966920924776e+00
 9.588495705917117e-01	 1.588998085610312e+00	 9.102291866130997e+00
 9.435553408488632e-01	 1.598127252557937e+00	 8.963167263768346e+00
 9.281929279477784e-01	 1.607098390334780e+00	 8.830454058404683e+00
 9.127647342267482e-01	 1.615910831059886e+00	 8.702700986257856e+00
 8.972731682960196e-01	 1.624563954559358e+00	 8.578269965251437e+00
 8.817206438775137e-01	 1.633057188349071e+00	 8.455387195739087e+00
 8.661095786500534e-01	 1.641390007584303e+00	 8.332192380474199e+00
 8.504423931011745e-01	 1.649561934976651e+00	 8.206785828130844e+00
 8.347215093865773e-01	 1.657572540678602e+00	 8.077273224996089e+00
 8.189493501982394e-01	 1.665421442136204e+00	 7.941807880517775e+00
 8.031283376422099e-01	 1.673108303910304e+00	 7.798630274032874e+00
 9.634087883810180e-01	 1.596553586034144e+00	 9.113715908068942e+00
 9.480418363607116e-01	 1.605726161104973e+00	 8.974023891593204e+00
 9.326063769791836e-01	 1.614739955594677e+00	 8.841882953857041e+00
 9.171048239975721e-01	 1.623594298446629e+00	 8.715588942056968e+00
 9.015395974787940e-01	 1.632288566538091e+00	 8.593245568312406e+00
 8.859131226217450e-01	 1.640822184662861e+00	 8.472817395847485e+00
 8.702278286010379e-01	 1.649194625480662e+00	 8.352180869604510e+00
 8.544861474133538e-01	 1.657405409433658e+00	 8.229173148456521e+00
 8.386905127314694e-01	 1.665454104630480e+00	 8.101638517178396e+00
 8.228433587669889e-01	 1.673340326698192e+00	 7.967472178044517e+00
 8.069471191428015e-01	 1.681063738602686e+00	 7.824661244277475e+00
 9.679680113372134e-01	 1.604109095021363e+00	 9.128876906886187e+00
 9.525283369570939e-01	 1.613325078264599e+00	 8.988786211431650e+00
 9.370198310124079e-01	 1.622381529515527e+00	 8.857407001522571e+00
 9.214449186871499e-01	 1.631277774541833e+00	 8.732764815306126e+00
 9.058060314969160e-01	 1.640013187271940e+00	 8.612687189879484e+00
 8.901056061175857e-01	 1.648587189777560e+00	 8.494858602968169e+00
 8.743460832195711e-01	 1.656999252222853e+00	 8.376873382471780e+00
 8.585299063087077e-01	 1.665248892780546e+00	 8.256286333721418e+00
 8.426595205748574e-01	 1.673335677515406e+00	 8.130660855934847e+00
 8.267373717492604e-01	 1.681259220235511e+00	 7.997614341772687e+00
 8.107659049716560e-01	 1.689019182311793e+00	 7.854860676938821e+00
 9.725272368765219e-01	 1.611664608290443e+00	 9.149431156151877e+00
 9.570148400954672e-01	 1.620923999730693e+00	 9.009169206106298e+00
 9.414332875463274e-01	 1.630023107767037e+00	 8.878789590850632e+00
 9.257850158359563e-01	 1.638961254991470e+00	 8.756030133946823e+00
 9.100724679326296e-01	 1.647737812383568e+00	 8.638424256025782e+00
 8.942980919892135e-01	 1.656352199292953e+00	 8.523357942643770e+00
 8.784643401719208e-01	 1.664803883388219e+00	 8.408124601652359e+00
 8.625736674957413e-01	 1.673092380572644e+00	 8.289977552383007e+00
 8.466285306676252e-01	 1.681217254867130e+00	 8.166179911272250e+00
 8.306313869384504e-01	 1.689178118260764e+00	 8.034051661691475e+00
 8.145846929648080e-01	 1.696974630529512e+00	 7.891013719482071e+00
 7.763971701024950e-01	 1.617420892213523e+00	 7.579945297674270e+00
 7.610552419040807e-01	 1.624696203781240e+00	 7.434169160446874e+00
 7.456707484979823e-01	 1.631814301601403e+00	 7.302864695601436e+00
 7.302460237034977e-01	 1.638774995483586e+00	 7.183834432041836e+00
 7.147833965724535e-01	 1.645578139827385e+00	 7.072595687406545e+00
 6.992851903642262e-01	 1.652223633306464e+00	 6.965742809535779e+00
 6.837537215354034e-01	 1.658711418525549e+00	 6.860071002038863e+00
 6.681912987448795e-01	 1.665041481651053e+00	 6.752508868766628e+00
 6.526002218751353e-01	 1.671213852015979e+00	 6.640168121622812e+00
 6.369827810704327e-01	 1.677228601699848e+00	 6.520386325086629e+00
 6.213412557926123e-01	 1.683085845084353e+00	 6.390762736874670e+00
 7.802158607142238e-01	 1.625376137561632e+00	 7.628067930397947e+00
 7.647984736149546e-01	 1.632687232572591e+00	 7.483218903831849e+00
 7.493383119520900e-01	 1.639840340584065e+00	 7.352046728813626e+00
 7.338377210237491e-01	 1.646835270470162e+00	 7.232715690245547e+00
 7.182990413371285e-01	 1.653671875914327e+00	 7.120975907141149e+00
 7.027246075784864e-01	 1.660350055091831e+00	 7.013142027122472e+00
 6.871167475978319e-01	 1.666869750325087e+00	 6.905964405534128e+00
 6.714777814091282e-01	 1.673230947712444e+00	 6.796347235514160e+00
 6.558100202067592e-01	 1.679433676731162e+00	 6.681399115626922e+00
 6.401157653989918e-01	 1.685478009815265e+00	 6.558476383219507e+00
 6.243973076591317e-01	 1.691364061909010e+00	 6.425219277466523e+00
 7.840345708019715e-01	 1.633331423483266e+00	 7.667437573452428e+00
 7.685417244169512e-01	 1.640678302119976e+00	 7.523404873440008e+00
 7.530058941113781e-01	 1.647866420501339e+00	 7.392207752688575e+00
 7.374294366622458e-01	 1.654895586565994e+00	 7.272217992169802e+00
 7.218147040321784e-01	 1.661765653281227e+00	 7.159742657866057e+00
 7.061640423343696e-01	 1.668476518323915e+00	 7.050801756458972e+00
 6.904797908123053e-01	 1.675028123734150e+00	 6.942147665178990e+00
 6.747642808350736e-01	 1.681420455542223e+00	 6.830708832549265e+00
 6.590198349090155e-01	 1.687653543369646e+00	 6.713641145280684e+00
 6.432487657064586e-01	 1.693727460004945e+00	 6.588371781902246e+00
 6.274533751122271e-01	 1.699642320954944e+00	 6.452635621919721e+00
 7.878532982017724e-01	 1.641286745470310e+00	 7.699943986372869e+00
 7.722849921888700e-01	 1.648669407894992e+00	 7.556574974616158e+00
 7.566734928975223e-01	 1.655892536804974e+00	 7.425167965753410e+00
 7.410211685836481e-01	 1.662955939203413e+00	 7.304182458557806e+00
 7.253303826653491e-01	 1.669859467341436e+00	 7.190725417737514e+00
 7.096034926828045e-01	 1.676603018397521e+00	 7.080549926807135e+00
 6.938428492730284e-01	 1.683186534129443e+00	 6.970455966051256e+00
 6.780507951602825e-01	 1.689610000499428e+00	 6.857444137481178e+00
 6.622296641629153e-01	 1.695873447273244e+00	 6.738767283250596e+00
 6.463817802173640e-01	 1.701976947593920e+00	 6.611974791634605e+00
 6.305094564200205e-01	 1.707920617530850e+00	 6.474949176480219e+00
 7.916720407496620e-01	 1.649242099014650e+00	 7.727462724593172e+00
 7.760282748095095e-01	 1.656660545369243e+00	 7.584564477408465e+00
 7.603411062321977e-01	 1.663918684946716e+00	 7.452736164453320e+00
 7.446129147526158e-01	 1.671016323814749e+00	 7.330508072094114e+00
 7.288460752443867e-01	 1.677953313508303e+00	 7.215747639553185e+00
 7.130429566747222e-01	 1.684729550707461e+00	 7.104210313034583e+00
 6.972059210742078e-01	 1.691344976887671e+00	 6.992721826028697e+00
 6.813373225223240e-01	 1.697799577943102e+00	 6.878402073524275e+00
 6.654395061494700e-01	 1.704093383783774e+00	 6.758649796392747e+00
 6.495148071562385e-01	 1.710226467907224e+00	 6.631187272412071e+00
 6.335655498506328e-01	 1.716198946945416e+00	 6.494096990613594e+00
 7.954907962816750e-01	 1.657197479608172e+00	 7.751854897030725e+00
 7.797715701576688e-01	 1.664651710014326e+00	 7.609195777326427e+00
 7.640087320370800e-01	 1.671944860378315e+00	 7.476709513946881e+00
 7.482046731338080e-01	 1.679076735832334e+00	 7.353037978592464e+00
 7.323617797770379e-01	 1.686047187195182e+00	 7.236625756676603e+00
 7.164824323610521e-01	 1.692856110648541e+00	 7.123601613108579e+00
 7.005690043100482e-01	 1.699503447385540e+00	 7.010774249346588e+00
 6.846238610587639e-01	 1.705989183232284e+00	 6.895429243240799e+00
 6.686493590496905e-01	 1.712313348243052e+00	 6.775159463427714e+00
 6.526478447476127e-01	 1.718476016269890e+00	 6.647910078699664e+00
 6.366216536721854e-01	 1.724477304507334e+00	 6.512015252275900e+00
 7.993095626338458e-01	 1.665152882742761e+00	 7.774966920924776e+00
 7.835148761121464e-01	 1.672642897301841e+00	 7.632278153757040e+00
 7.676763682338448e-01	 1.679971058551517e+00	 7.498873316764618e+00
 7.517964416918849e-01	 1.687137170688498e+00	 7.373545951639048e+00
 7.358774942710489e-01	 1.694141083815421e+00	 7.255168186570415e+00
 7.199219177927247e-01	 1.700982693615570e+00	 7.140536522805900e+00
 7.039320970747552e-01	 1.707661940999752e+00	 7.026437876820403e+00
 6.879104089071707e-01	 1.714178811726014e+00	 6.910369158241892e+00
 6.718592210445877e-01	 1.720533335992894e+00	 6.790164887707986e+00
 6.557808912160171e-01	 1.726725588006950e+00	 6.664042458491226e+00
 6.396777661527996e-01	 1.732755685525294e+00	 6.530638776131791e+00
 8.031283376422099e-01	 1.673108303910304e+00	 7.798630274032874e+00
 7.872581905517405e-01	 1.680634102703388e+00	 7.655607526132733e+00
 7.713440127441661e-01	 1.687997274918069e+00	 7.521000779405424e+00
 7.553882183915058e-01	 1.695197623815573e+00	 7.393794627265084e+00
 7.393932167341662e-01	 1.702234998782373e+00	 7.273174332029758e+00
 7.233614110206696e-01	 1.709109295003356e+00	 7.156820807759105e+00
 7.072951974625343e-01	 1.715820453107013e+00	 7.041532132871453e+00
 6.911969642051119e-01	 1.722368458783333e+00	 6.925061464992019e+00
 6.750690903151726e-01	 1.728753342375117e+00	 6.805531805250324e+00
 6.589139447859829e-01	 1.734975178443437e+00	 6.681481446661667e+00
 6.427338855605965e-01	 1.741034085307989e+00	 6.551900484961197e+00
 8.069471191428015e-01	 1.681063738602686e+00	 7.824661244277483e+00
 7.910015113552504e-01	 1.688625321690568e+00	 7.680966207927547e+00
 7.750116634897211e-01	 1.696023504929720e+00	 7.544852776951052e+00
 7.589800011973308e-01	 1.703258090645889e+00	 7.415535285138306e+00
 7.429089451741354e-01	 1.710328927509388e+00	 7.292452628640370e+00
 7.268009100958170e-01	 1.717235910206709e+00	 7.174252372937625e+00
 7.106583035675916e-01	 1.723978979084028e+00	 7.057870369464208e+00
 6.944835250901553e-01	 1.730558119763281e+00	 6.941341166861381e+00
 6.782789650424560e-01	 1.736973362731537e+00	 6.823122388204943e+00
 6.620470036820399e-01	 1.743224782904384e+00	 6.702121252809894e+00
 6.457900101636972e-01	 1.749312499164107e+00	 6.577730884494137e+00
 8.107659049716560e-01	 1.689019182311793e+00	 7.854860676938814e+00
 7.947448364014750e-01	 1.696616549734980e+00	 7.710122658565513e+00
 7.786793183921839e-01	 1.704049744038217e+00	 7.572177615769334e+00
 7.625717880740189e-01	 1.711318566611777e+00	 7.440507627843878e+00
 7.464246775987037e-01	 1.718422865409816e+00	 7.314836833442715e+00
 7.302404130690966e-01	 1.725362534620436e+00	 7.194620329672544e+00
 7.140214134841314e-01	 1.732137514307500e+00	 7.077259007083717e+00
 6.977700896998681e-01	 1.738747790024899e+00	 6.961037842565129e+00
 6.814888434074495e-01	 1.745193392403969e+00	 6.844794543925481e+00
 6.651800661287196e-01	 1.751474396714826e+00	 6.727852643788188e+00
 6.488461382302230e-01	 1.757590922402342e+00	 6.610057531890297e+00
 8.145846929648080e-01	 1.696974630529512e+00	 7.891013719482078e+00
 7.984881635692119e-01	 1.704607782308222e+00	 7.744831233317914e+00
 7.823469753732306e-01	 1.712075987695308e+00	 7.604710794379399e+00
 7.661635769862309e-01	 1.719379047145569e+00	 7.470439558324556e+00
 7.499404120156170e-01	 1.726516807897009e+00	 7.342065485885369e+00
 7.336799179914387e-01	 1.733489163639346e+00	 7.219704060320028e+00
 7.173845253063604e-01	 1.740296054154137e+00	 7.101496672860012e+00
 7.010566561718182e-01	 1.746937464927227e+00	 6.985974861119425e+00
 6.846987235911640e-01	 1.753413426734232e+00	 6.872401209794562e+00
 6.683131303505522e-01	 1.759724015199794e+00	 6.760562321101268e+00
 6.519022680282955e-01	 1.765869350331382e+00	 6.650804498092983e+00
 6.213412557926123e-01	 1.683085845084353e+00	 6.390762736874670e+00
 6.056805779762906e-01	 1.688784782681174e+00	 6.255304921648815e+00
 5.900003444358113e-01	 1.694326620001263e+00	 6.119417441827871e+00
 5.743027952840069e-01	 1.699711594168735e+00	 5.983340889339040e+00
 5.585901564033956e-01	 1.704939982580464e+00	 5.847670188645815e+00
 5.428646385999558e-01	 1.710012102353537e+00	 5.713355117777756e+00
 5.271284367778988e-01	 1.714928309753176e+00	 5.581695196986232e+00
 5.113837291358960e-01	 1.719688999601967e+00	 5.454329273129457e+00
 4.956326763851813e-01	 1.724294604671215e+00	 5.333220153696642e+00
 4.798774209899149e-01	 1.728745595055301e+00	 5.220634666922903e+00
 4.641200864301568e-01	 1.733042477529863e+00	 5.119119543743649e+00
 6.243973076591317e-01	 1.691364061909010e+00	 6.425219277466537e+00
 6.086596031793871e-01	 1.697091029591799e+00	 6.285983590702566e+00
 5.929022467910563e-01	 1.702660124303875e+00	 6.146502300875934e+00
 5.771274896249304e-01	 1.708071584335666e+00	 6.007061962890932e+00
 5.613375685114946e-01	 1.713325688448432e+00	 5.868324297542486e+00
 5.455347051305403e-01	 1.718422755319014e+00	 5.731325882762547e+00
 5.297211051818791e-01	 1.723363142964937e+00	 5.597472000990162e+00
 5.138989575776174e-01	 1.728147248150730e+00	 5.468524983804238e+00
 4.980704336564119e-01	 1.732775505776294e+00	 5.346587421609228e+00
 4.822376864200977e-01	 1.737248388248176e+00	 5.234080629428717e+00
 4.664028497930368e-01	 1.741566404834599e+00	 5.133718779764588e+00
 6.274533751122271e-01	 1.699642320954944e+00	 6.452635621919721e+00
 6.116386435762436e-01	 1.705397318866750e+00	 6.311152707445909e+00
 5.958041639467491e-01	 1.710993671109925e+00	 6.169901387155299e+00
 5.799521983725485e-01	 1.716431617141206e+00	 6.029119928029683e+00
 5.640849946321495e-01	 1.721711437086255e+00	 5.889443005419839e+00
 5.482047852792112e-01	 1.726833451181668e+00	 5.751900673851304e+00
 5.323137868092009e-01	 1.731798019197281e+00	 5.617911274140399e+00
 5.164141988477129e-01	 1.736605539839575e+00	 5.489268631199572e+00
 5.005082033608804e-01	 1.741256450137056e+00	 5.368123924395588e+00
 4.845979638882673e-01	 1.745751224808450e+00	 5.256962636376843e+00
 4.686856247985899e-01	 1.750090375614572e+00	 5.158577006811680e+00
 6.305094564200205e-01	 1.707920617530850e+00	 6.474949176480219e+00
 6.146176974786302e-01	 1.713703645798822e+00	 6.332773176514904e+00
 5.987060942583668e-01	 1.719327255696745e+00	 6.191571451449434e+00
 5.827769199260981e-01	 1.724791687847674e+00	 6.051441443473136e+00
 5.668324332084019e-01	 1.730097223741669e+00	 5.912898694843818e+00
 5.508748775328540e-01	 1.735244185175092e+00	 5.776875205417741e+00
 5.349064801906237e-01	 1.740232933670093e+00	 5.644711498251587e+00
 5.189294515208421e-01	 1.745063869875114e+00	 5.518142761065797e+00
 5.029459841171660e-01	 1.749737432947276e+00	 5.399279459760534e+00
 4.869582520569332e-01	 1.754254099917486e+00	 5.290582844997930e+00
 4.709684101532611e-01	 1.758614385039167e+00	 5.194835794042151e+00
 6.335655498506328e-01	 1.716198946945416e+00	 6.494096990613594e+00
 6.175967631983170e-01	 1.722010005680807e+00	 6.352805597165348e+00
 6.016080360813871e-01	 1.727660873341673e+00	 6.213469298684776e+00
 5.856016526848165e-01	 1.733151791717387e+00	 6.075953859263247e+00
 5.695798826832941e-01	 1.738483043662412e+00	 5.940565324657901e+00
 5.535449803783536e-01	 1.743654952532880e+00	 5.808047871561813e+00
 5.374991838569083e-01	 1.748667881603261e+00	 5.679575128125744e+00
 5.214447141716657e-01	 1.753522233463964e+00	 5.556735347160339e+00
 5.053837745438465e-01	 1.758218449400724e+00	 5.441510842758984e+00
 4.893185495886034e-01	 1.762757008756645e+00	 5.336252126708845e+00
 4.732512045634947e-01	 1.767138428277760e+00	 5.243647202950744e+00
 6.366216536721854e-01	 1.724477304507334e+00	 6.512015252275900e+00
 6.205758390470735e-01	 1.730316393805499e+00	 6.373209843614578e+00
 6.045099877712876e-01	 1.735994519322042e+00	 6.237551440629231e+00
 5.884263950479400e-01	 1.741511924012661e+00	 6.104584929794539e+00
 5.723273414998675e-01	 1.746868892096221e+00	 5.974318192025388e+00
 5.562150923025951e-01	 1.752065748488628e+00	 5.847219546545760e+00
 5.400918963388144e-01	 1.757102858216673e+00	 5.724208420489094e+00
 5.239599853748436e-01	 1.761980625812735e+00	 5.606639639503456e+00
 5.078215732595008e-01	 1.766699494691173e+00	 5.496281764903399e+00
 4.916788551457875e-01	 1.771259946507289e+00	 5.395289929358642e+00
 4.755340067357353e-01	 1.775662500499735e+00	 5.306173645743636e+00
 6.396777661527996e-01	 1.732755685525294e+00	 6.530638776131777e+00
 6.235549233366701e-01	 1.738622805465690e+00	 6.395944637292017e+00
 6.074119476835455e-01	 1.744328188915189e+00	 6.265773739771790e+00
 5.912511454147064e-01	 1.749872079995813e+00	 6.139262517597247e+00
 5.750748081011644e-01	 1.755254764290835e+00	 6.016033685064542e+00
 5.588852117924640e-01	 1.760476568275929e+00	 5.896193375923804e+00
 5.426846161671021e-01	 1.765537858730214e+00	 5.780321253944833e+00
 5.264752637050356e-01	 1.770439042128041e+00	 5.669454004184835e+00
 5.102593788827076e-01	 1.775180564012396e+00	 5.565062645563334e+00
 4.940391673909943e-01	 1.779762908350782e+00	 5.469024132650327e+00
 4.778168153764275e-01	 1.784186596874472e+00	 5.383587737944263e+00
 6.427338855605965e-01	 1.741034085307989e+00	 6.551900484961196e+00
 6.265340143788761e-01	 1.746929235954171e+00	 6.422967111275861e+00
 6.103139141736383e-01	 1.752661877398449e+00	 6.300091044689189e+00
 5.940759021843525e-01	 1.758232254929162e+00	 6.181914288189505e+00
 5.778222809302264e-01	 1.763640655493990e+00	 6.067589026399289e+00
 5.615553373348446e-01	 1.768887407128377e+00	 5.956774558676059e+00
 5.452773418725317e-01	 1.773972878363771e+00	 5.849626940247224e+00
 5.289905477369020e-01	 1.778897477616496e+00	 5.746781755009867e+00
 5.126971900320451e-01	 1.783661652558164e+00	 5.649330475903227e+00
 4.963994849867320e-01	 1.788265889468484e+00	 5.558790896976992e+00
 4.800996291920160e-01	 1.792710712571352e+00	 5.477072145414747e+00
 6.457900101636972e-01	 1.749312499164107e+00	 6.577730884494121e+00
 6.295131104854617e-01	 1.755235680563737e+00	 6.456232367179249e+00
 6.132158855970437e-01	 1.760995580049157e+00	 6.342456817181802e+00
 5.969006637561154e-01	 1.766592444075025e+00	 6.234467396290974e+00
 5.805697584300950e-01	 1.772026560953422e+00	 6.130862007929221e+00
 5.642254674166229e-01	 1.777298260279568e+00	 6.030770120647568e+00
 5.478700719858631e-01	 1.782407912337232e+00	 5.933842027183371e+00
 5.315058360451034e-01	 1.787355927484714e+00	 5.840230977258276e+00
 5.151350053260922e-01	 1.792142755522251e+00	 5.750568655606659e+00
 4.987598065955106e-01	 1.796768885041758e+00	 5.665934505879198e+00
 4.823824468889452e-01	 1.801234842759755e+00	 5.587819425983787e+00
 6.488461382302230e-01	 1.757590922402342e+00	 6.610057531890297e+00
 6.324922099681970e-01	 1.763542134587182e+00	 6.497693024746020e+00
 6.161178603092389e-01	 1.769329292144649e+00	 6.394822751463364e+00
 5.997254285292322e-01	 1.774952642695718e+00	 6.298848163701048e+00
 5.833172390438129e-01	 1.780412475916870e+00	 6.207730717108845e+00
 5.668956005246835e-01	 1.785709122963094e+00	 6.119988679581951e+00
 5.504628050378562e-01	 1.790842955870483e+00	 6.034686093342611e+00
 5.340211272042992e-01	 1.795814386939306e+00	 5.951414343810104e+00
 5.175728233834274e-01	 1.800623868098429e+00	 5.870266822631588e+00
 5.011201308798379e-01	 1.805271890251967e+00	 5.791807202340270e+00
 4.846652671736595e-01	 1.809758982609063e+00	 5.717031865852922e+00
 6.519022680282955e-01	 1.765869350331382e+00	 6.650804498092990e+00
 6.354713111388517e-01	 1.771848593317297e+00	 6.549298764401467e+00
 6.190198366657016e-01	 1.777663008962260e+00	 6.459138385663350e+00
 6.025501949029400e-01	 1.783312846053559e+00	 6.376981749108825e+00
 5.860647212144215e-01	 1.788798395632072e+00	 6.300073255022619e+00
 5.695657351459118e-01	 1.794119990412552e+00	 6.226240202028533e+00
 5.530555395592713e-01	 1.799278004183412e+00	 6.153881535039621e+00
 5.365364197891498e-01	 1.804272851186889e+00	 6.081948923894535e+00
 5.200106428226289e-01	 1.809104985480471e+00	 6.009920676218775e+00
 5.034804565022232e-01	 1.813774900280471e+00	 5.937769019121614e+00
 4.869480887526040e-01	 1.818283127288656e+00	 5.865921310953493e+00
 4.641200864301568e-01	 1.733042477529863e+00	 5.119119543743649e+00
 4.483627767027926e-01	 1.737185795271111e+00	 5.029768041064421e+00
 4.326075762556573e-01	 1.741176128310005e+00	 4.949757725511717e+00
 4.168565486401227e-01	 1.745014091710825e+00	 4.876093804240867e+00
 4.011117356475782e-01	 1.748700334494148e+00	 4.805942953172057e+00
 3.853751566898679e-01	 1.752235538925222e+00	 4.736602592857661e+00
 3.696488082037957e-01	 1.755620419791376e+00	 4.665469210748961e+00
 3.539346630798197e-01	 1.758855723669352e+00	 4.591537936725809e+00
 3.382346701150147e-01	 1.761942228183390e+00	 4.517876741090912e+00
 3.225507534903555e-01	 1.764880741254913e+00	 4.447974446148567e+00
 3.068848122723423e-01	 1.767672100344656e+00	 4.385057790198159e+00
 4.664028497930368e-01	 1.741566404834599e+00	 5.133718779764588e+00
 4.505680381205852e-01	 1.745730101383383e+00	 5.046270946296548e+00
 4.347353461028813e-01	 1.749740060778345e+00	 4.968525532779847e+00
 4.189068474408177e-01	 1.753596901108930e+00	 4.897573312372489e+00
 4.030845939682791e-01	 1.757301274587891e+00	 4.830674197640483e+00
 3.872706150295307e-01	 1.760853866836164e+00	 4.765224376711913e+00
 3.714669168807962e-01	 1.764255396156726e+00	 4.698721624221977e+00
 3.556754821161418e-01	 1.767506612798326e+00	 4.629821605179680e+00
 3.398982691177462e-01	 1.770608298209911e+00	 4.561340199279652e+00
 3.241372115306161e-01	 1.773561264286633e+00	 4.496803945853928e+00
 3.083942177617581e-01	 1.776366352608244e+00	 4.439444796677895e+00
 4.686856247985899e-01	 1.750090375614572e+00	 5.158577006811680e+00
 4.527733107857274e-01	 1.754274451074868e+00	 5.073358094144611e+00
 4.368631268021764e-01	 1.758304036926028e+00	 4.997735659881639e+00
 4.209571566984043e-01	 1.762179754282670e+00	 4.928924439944877e+00
 4.050574623508451e-01	 1.765902258549744e+00	 4.864316550772067e+00
 3.891660830362392e-01	 1.769472238703889e+00	 4.801446371881168e+00
 3.732850348302827e-01	 1.772890416563749e+00	 4.737953538273729e+00
 3.574163100307011e-01	 1.776157546050095e+00	 4.672289041537224e+00
 3.415618766048302e-01	 1.779274412436605e+00	 4.606960649514713e+00
 3.257236776617582e-01	 1.782241831592177e+00	 4.545554851710432e+00
 3.099036309490487e-01	 1.785060649215597e+00	 4.491328964433976e+00
 4.709684101532611e-01	 1.758614385039167e+00	 5.194835794042151e+00
 4.549785934485989e-01	 1.762818839503396e+00	 5.112006044270180e+00
 4.389909171478490e-01	 1.766868051899751e+00	 5.038202546667844e+00
 4.230074752511032e-01	 1.770762646368043e+00	 4.970802553783988e+00
 4.070303396773924e-01	 1.774503281505424e+00	 4.907369532295982e+00
 3.910615596359792e-01	 1.778090649644257e+00	 4.845615676274407e+00
 3.751031610220792e-01	 1.781525476118869e+00	 4.783362463840502e+00
 3.591571458371241e-01	 1.784808518522068e+00	 4.718981323349977e+00
 3.432254916336520e-01	 1.787940565952282e+00	 4.654642445004310e+00
 3.273101509848783e-01	 1.790922438252171e+00	 4.594004721101479e+00
 3.114130509789675e-01	 1.793754985239579e+00	 4.540370516681631e+00
 4.732512045634947e-01	 1.767138428277760e+00	 5.243647202950744e+00
 4.571838848595786e-01	 1.771363261826792e+00	 5.163203556068309e+00
 4.411187159342062e-01	 1.775432100846214e+00	 5.090754341995167e+00
 4.250578019371358e-01	 1.779345572501041e+00	 5.023878052549629e+00
 4.090032248300366e-01	 1.783104338580646e+00	 4.960348842269870e+00
 3.929570437547362e-01	 1.786709094773127e+00	 4.898096554822317e+00
 3.769212944260102e-01	 1.790160569928508e+00	 4.835164724777491e+00
 3.608979885490370e-01	 1.793459525311652e+00	 4.769958018338603e+00
 3.448891132615969e-01	 1.796606753845749e+00	 4.704307743450818e+00
 3.288966306010724e-01	 1.799603079347243e+00	 4.641948342266309e+00
 3.129224769962685e-01	 1.802449355753047e+00	 4.586246447026905e+00
 4.755340067357353e-01	 1.775662500499735e+00	 5.306173645743636e+00
 4.593891837690458e-01	 1.779907713202884e+00	 5.227951439945557e+00
 4.432465219555546e-01	 1.783996178912116e+00	 5.156232747887612e+00
 4.271081355947225e-01	 1.787928527817661e+00	 5.088836203632663e+00
 4.109761166908940e-01	 1.791705424901127e+00	 5.023786190463987e+00
 3.948525343184959e-01	 1.795327569206358e+00	 4.959270260979931e+00
 3.787394340118999e-01	 1.798795693099090e+00	 4.893594462922674e+00
 3.626388371800658e-01	 1.802110561516254e+00	 4.825297245068959e+00
 3.465527405460505e-01	 1.805272971205816e+00	 4.755896526411548e+00
 3.304831156114372e-01	 1.808283749958018e+00	 4.689197714247453e+00
 3.144319081457050e-01	 1.811143755828862e+00	 4.628650461703367e+00
 4.778168153764275e-01	 1.784186596874472e+00	 5.383587737944263e+00
 4.615944889273797e-01	 1.788452188789497e+00	 5.307262403918408e+00
 4.453743340062008e-01	 1.792560281244154e+00	 5.235492860050964e+00
 4.291584750620844e-01	 1.796511507453899e+00	 5.166376977403454e+00
 4.129490141420800e-01	 1.800306535592582e+00	 5.098229124041753e+00
 3.967480302532441e-01	 1.803946068059810e+00	 5.029534857451572e+00
 3.805575787495729e-01	 1.807430840737038e+00	 4.958903451356519e+00
 3.643796907438367e-01	 1.810761622233279e+00	 4.885095734591499e+00
 3.482163725443980e-01	 1.813939213121293e+00	 4.809366620474583e+00
 3.320696051170690e-01	 1.816964445165126e+00	 4.735582029448699e+00
 3.159413435720306e-01	 1.819838180539884e+00	 4.667292925218970e+00
 4.800996291920160e-01	 1.792710712571352e+00	 5.477072145414747e+00
 4.637997990849597e-01	 1.796996683744460e+00	 5.402160895681134e+00
 4.475021508804515e-01	 1.801124402989027e+00	 5.329403004865054e+00
 4.312088191774423e-01	 1.805094506545749e+00	 5.257214878893617e+00
 4.149219160657108e-01	 1.808907665780728e+00	 5.184240853601862e+00
 3.986435304849662e-01	 1.812564586449341e+00	 5.109305036152127e+00
 3.823757276088534e-01	 1.816066007948775e+00	 5.031360907757216e+00
 3.661205482539759e-01	 1.819412702560137e+00	 4.949468893012730e+00
 3.498800083140248e-01	 1.822605474680986e+00	 4.864693720159295e+00
 3.336560982190642e-01	 1.825645160049192e+00	 4.780947658726676e+00
 3.174507824199989e-01	 1.828532624958971e+00	 4.701900809296476e+00
 4.823824468889452e-01	 1.801234842759755e+00	 5.587819425983787e+00
 4.660051129921649e-01	 1.805541193225597e+00	 5.513682940292582e+00
 4.496299713726133e-01	 1.809688539293435e+00	 5.438844572964989e+00
 4.332591667790175e-01	 1.813677520229208e+00	 5.362078776998216e+00
 4.168948213439022e-01	 1.817508810591282e+00	 5.282400077628948e+00
 4.005390339396478e-01	 1.821183119490810e+00	 5.199011937434551e+00
 3.841938795595654e-01	 1.824701189840726e+00	 5.111253307848068e+00
 3.678614087241095e-01	 1.828063797594234e+00	 5.018550864950311e+00
 3.515436469123164e-01	 1.831271750973706e+00	 4.921871412503773e+00
 3.352425940185192e-01	 1.834325889690844e+00	 4.825158138913810e+00
 3.189602238343636e-01	 1.837227084158984e+00	 4.732217644991919e+00
 4.846652671736595e-01	 1.809758982609063e+00	 5.717031865852922e+00
 4.682104293993744e-01	 1.814085712390736e+00	 5.642875973627495e+00
 4.517577942769935e-01	 1.818252685304075e+00	 5.564711849521655e+00
 4.353095167050307e-01	 1.822260543640271e+00	 5.481711731277840e+00
 4.188677288587699e-01	 1.826109965149957e+00	 5.393300805397951e+00
 4.024345395432750e-01	 1.829801662300079e+00	 5.299102968600971e+00
 3.860120335715336e-01	 1.833336381519313e+00	 5.198884198918589e+00
 3.696022711678638e-01	 1.836714902432977e+00	 5.092494597847862e+00
 3.532072873966583e-01	 1.839938037088262e+00	 4.980911203254109e+00
 3.368290916165305e-01	 1.843006629170708e+00	 4.868094162692268e+00
 3.204696669598779e-01	 1.845921553212783e+00	 4.758003477886053e+00
 4.869480887526040e-01	 1.818283127288656e+00	 5.865921310953493e+00
 4.704157470569679e-01	 1.822630236397705e+00	 5.790798671728049e+00
 4.538856183878984e-01	 1.826816836167647e+00	 5.707911841332438e+00
 4.373598677937028e-01	 1.830843571914933e+00	 5.616870816430596e+00
 4.208406374924303e-01	 1.834711124582473e+00	 5.517552178390625e+00
 4.043300462218327e-01	 1.838420209993003e+00	 5.410041621723631e+00
 3.878301886145822e-01	 1.841971578090959e+00	 5.294574013431479e+00
 3.713431345988646e-01	 1.845366012173774e+00	 5.171471604986552e+00
 3.548709288244357e-01	 1.848604328113462e+00	 5.041842544616826e+00
 3.384155901141945e-01	 1.851687373569411e+00	 4.909653570739122e+00
 3.219791109412959e-01	 1.854616027193228e+00	 4.785803156454763e+00
 3.068848122723423e-01	 1.767672100344656e+00	 4.385057790198168e+00
 2.912360624240649e-01	 1.770317608769745e+00	 4.328432844932626e+00
 2.756090206873471e-01	 1.772817673086979e+00	 4.275977729491605e+00
 2.600055129802040e-01	 1.775173213945177e+00	 4.228287179951076e+00
 2.444273382514744e-01	 1.777385178479808e+00	 4.185621790881680e+00
 2.288762681028862e-01	 1.779454539528256e+00	 4.147901759618469e+00
 2.133540464351001e-01	 1.781382294842315e+00	 4.114705264995711e+00
 1.978623891175583e-01	 1.783169466298693e+00	 4.085271090025529e+00
 1.824029836819386e-01	 1.784817099108259e+00	 4.058505098680161e+00
 1.669774890389995e-01	 1.786326261024755e+00	 4.032990179829580e+00
 1.515875352185671e-01	 1.787698041553686e+00	 4.006999276332126e+00
 3.083942177617581e-01	 1.776366352608244e+00	 4.439444796677895e+00
 2.926684999179884e-01	 1.779024872902190e+00	 4.388455566203033e+00
 2.769645969566065e-01	 1.781537233724924e+00	 4.341601955182033e+00
 2.612843437763506e-01	 1.783904360253470e+00	 4.299441586014929e+00
 2.456295481741357e-01	 1.786127204281780e+00	 4.262167926495183e+00
 2.300019904652600e-01	 1.788206743432129e+00	 4.229605602830325e+00
 2.144034231277075e-01	 1.790143980363745e+00	 4.201210454152356e+00
 1.988355704703725e-01	 1.791939941979430e+00	 4.176073923355085e+00
 1.833001283250075e-01	 1.793595678630914e+00	 4.152931380032012e+00
 1.677987637616735e-01	 1.795112263323673e+00	 4.130173974479108e+00
 1.523331148274494e-01	 1.796490790921936e+00	 4.105863627053642e+00
 3.099036309490487e-01	 1.785060649215597e+00	 4.491328964433983e+00
 2.941009447172263e-01	 1.787732181444672e+00	 4.443371722194154e+00
 2.783201801391768e-01	 1.790256838835518e+00	 4.399381718546511e+00
 2.625631810944037e-01	 1.792635551093389e+00	 4.359950786847398e+00
 2.468317642279399e-01	 1.794869274670746e+00	 4.325275583468859e+00
 2.311277185686942e-01	 1.796958991974783e+00	 4.295154442934733e+00
 2.154528051720147e-01	 1.798905710572194e+00	 4.268989085705930e+00
 1.998087567862874e-01	 1.800710462391899e+00	 4.245790758517529e+00
 1.841972775433778e-01	 1.802374302926518e+00	 4.224190388318899e+00
 1.686200426726882e-01	 1.803898310433295e+00	 4.202452334405558e+00
 1.530786982385879e-01	 1.805283585135209e+00	 4.178491329033100e+00
 3.114130509789675e-01	 1.793754985239579e+00	 4.540370516681638e+00
 2.955333960101378e-01	 1.796439529462697e+00	 4.492740593936283e+00
 2.796757694669592e-01	 1.798976483477317e+00	 4.448798137563937e+00
 2.638420242097390e-01	 1.801366781516948e+00	 4.409239141697725e+00
 2.480339857316652e-01	 1.803611384692580e+00	 4.374332371689996e+00
 2.322534517752951e-01	 1.805711280196355e+00	 4.343917737230381e+00
 2.165021919733761e-01	 1.807667480502450e+00	 4.317409633426140e+00
 2.007819475138224e-01	 1.809481022565931e+00	 4.293804814460139e+00
 1.850944308286478e-01	 1.811152967020334e+00	 4.271694365874807e+00
 1.694413253066301e-01	 1.812684397374696e+00	 4.249279345365137e+00
 1.538242850294628e-01	 1.814076419210772e+00	 4.224389668053416e+00
 3.129224769962685e-01	 1.802449355753047e+00	 4.586246447026905e+00
 2.969658529850819e-01	 1.805146912021767e+00	 4.536137742725435e+00
 2.810313641718545e-01	 1.807696162708877e+00	 4.489347958511733e+00
 2.651208723977320e-01	 1.810098046576164e+00	 4.446745840662669e+00
 2.492362120040906e-01	 1.812353529393163e+00	 4.408739805001547e+00
 2.333791894471688e-01	 1.814463603136980e+00	 4.375277806384331e+00
 2.175515829371465e-01	 1.816429285189302e+00	 4.345852295603372e+00
 2.017551421014978e-01	 1.818251617531361e+00	 4.319509812712445e+00
 1.859915876724159e-01	 1.819931665937626e+00	 4.294864767484270e+00
 1.702626111980854e-01	 1.821470519168950e+00	 4.270116961865321e+00
 1.545698747775543e-01	 1.822869288165889e+00	 4.243072415777447e+00
 3.144319081457050e-01	 1.811143755828862e+00	 4.628650461703367e+00
 2.983983148304175e-01	 1.813854324187387e+00	 4.573154919618679e+00
 2.823869634857643e-01	 1.816415871588759e+00	 4.520543440704814e+00
 2.663997249337583e-01	 1.818829341323053e+00	 4.471924772086899e+00
 2.504384423639945e-01	 1.821095703818368e+00	 4.427913158114218e+00
 2.345049309464215e-01	 1.823215955836794e+00	 4.388629687129527e+00
 2.186009774686803e-01	 1.825191119667539e+00	 4.353708849252471e+00
 2.027283399978331e-01	 1.827022242318018e+00	 4.322309838239445e+00
 1.868887475662803e-01	 1.828710394703656e+00	 4.293132132457646e+00
 1.710838998816402e-01	 1.830256670837135e+00	 4.264434894488605e+00
 1.553154670603430e-01	 1.831662187017830e+00	 4.234059735776452e+00
 3.159413435720306e-01	 1.819838180539884e+00	 4.667292925218970e+00
 2.998307807345036e-01	 1.822561761025059e+00	 4.603399979025162e+00
 2.837425666405891e-01	 1.825135605175517e+00	 4.541912245809269e+00
 2.676785810931935e-01	 1.827560660809629e+00	 4.484244394826594e+00
 2.516406761301556e-01	 1.829837903014074e+00	 4.431281328495018e+00
 2.356306756351595e-01	 1.831968333335933e+00	 4.383380989901474e+00
 2.196503749733321e-01	 1.833952978971950e+00	 4.340382509064235e+00
 2.037015406513480e-01	 1.835792891955738e+00	 4.301619204731852e+00
 1.877859100018390e-01	 1.837489148343687e+00	 4.265935960732527e+00
 1.719051908918811e-01	 1.839042847400324e+00	 4.231710500722480e+00
 1.560610614553088e-01	 1.840455110783858e+00	 4.196878092464202e+00
 3.174507824199989e-01	 1.828532624958971e+00	 4.701900809296483e+00
 3.012632498856996e-01	 1.831269217600288e+00	 4.626496796241867e+00
 2.850981728682304e-01	 1.833855358527709e+00	 4.552997331561291e+00
 2.689574401514132e-01	 1.836292000087910e+00	 4.483187615200694e+00
 2.528429126213524e-01	 1.838580122026157e+00	 4.418286703061121e+00
 2.367564228754889e-01	 1.840720730674532e+00	 4.358951761245915e+00
 2.206997748564563e-01	 1.842714858137325e+00	 4.305287790960771e+00
 2.046747435105624e-01	 1.844563561474353e+00	 4.256862324198060e+00
 1.886830744706905e-01	 1.846267921882982e+00	 4.212724592864241e+00
 1.727264837633943e-01	 1.847829043879594e+00	 4.171428679173016e+00
 1.568066575399322e-01	 1.849248054481242e+00	 4.131060162831464e+00
 3.189602238343636e-01	 1.837227084158984e+00	 4.732217644991919e+00
 3.026957214723645e-01	 1.839976688978579e+00	 4.642085188806779e+00
 2.864537814005891e-01	 1.842575126703891e+00	 4.553356849752550e+00
 2.702363013837929e-01	 1.845023354209911e+00	 4.468251668481566e+00
 2.540451511563637e-01	 1.847322355900495e+00	 4.388385029521453e+00
 2.378821720295160e-01	 1.849473142892728e+00	 4.314774350837585e+00
 2.217491765234075e-01	 1.851476752198452e+00	 4.247850380087383e+00
 2.056479480239961e-01	 1.853334245903695e+00	 4.189126222060608e+00
 1.895802404644332e-01	 1.855046710346803e+00	 4.140582561682152e+00
 1.735477780307659e-01	 1.856615255296021e+00	 4.099587185269299e+00
 1.575522548916935e-01	 1.858041013127248e+00	 4.063086879174450e+00
 3.204696669598779e-01	 1.845921553212783e+00	 4.758003477886053e+00
 3.041281946828570e-01	 1.848684170225434e+00	 4.649820841538232e+00
 2.878093914695663e-01	 1.851294904762620e+00	 4.542564048332973e+00
 2.715151640657085e-01	 1.853754718227649e+00	 4.441980501256317e+00
 2.552473910539679e-01	 1.856064599682962e+00	 4.355901703754267e+00
 2.390079224593470e-01	 1.858225565030656e+00	 4.283721613579610e+00
 2.227985793795404e-01	 1.860238656190121e+00	 4.224085300555875e+00
 2.066211536401689e-01	 1.862104940273597e+00	 4.175240797640893e+00
 1.904774074746651e-01	 1.863825508760415e+00	 4.135080582130895e+00
 1.743690732285824e-01	 1.865401476670680e+00	 4.101180391120702e+00
 1.582978530880727e-01	 1.866833981739142e+00	 4.070835491872614e+00
 3.219791109412959e-01	 1.854616027193228e+00	 4.785803156454771e+00
 3.055606687055367e-01	 1.857391656406358e+00	 4.676568030711188e+00
 2.891650023070632e-01	 1.860014687762456e+00	 4.578620856804579e+00
 2.727940274725352e-01	 1.862486087193140e+00	 4.492439100375659e+00
 2.564496316329439e-01	 1.864806848419438e+00	 4.417970531774152e+00
 2.401336735270881e-01	 1.866977992128452e+00	 4.354682941023366e+00
 2.238479828302094e-01	 1.869000565147120e+00	 4.301610788415617e+00
 2.075943598076006e-01	 1.870875639613892e+00	 4.257398902741320e+00
 1.913745749929846e-01	 1.872604312149079e+00	 4.220343345306426e+00
 1.751903688914300e-01	 1.874187703024645e+00	 4.188429562830089e+00
 1.590434517065504e-01	 1.875626955334190e+00	 4.159367956107713e+00
 1.515875352185671e-01	 1.787698041553686e+00	 4.006999276332126e+00
 1.362373235588749e-01	 1.788933352611214e+00	 3.978761932987906e+00
 1.209257759949575e-01	 1.790033568801779e+00	 3.949070651676687e+00
 1.056543988854585e-01	 1.790999839205792e+00	 3.919609217032152e+00
 9.042466986710648e-02	 1.791833331478070e+00	 3.891777199043397e+00
 7.523803770138718e-02	 1.792535231079186e+00	 3.866709263010355e+00
 6.009592214175536e-02	 1.793106740510443e+00	 3.845295625099286e+00
 4.499971382104898e-02	 1.793549078553067e+00	 3.828203353411175e+00
 2.995077415874777e-02	 1.793863479512159e+00	 3.815898230193614e+00
 1.495043528770935e-02	 1.794051192465945e+00	 3.808666907253184e+00
 0.000000000000000e+00	 1.794113480520832e+00	 3.806639102680241e+00
 1.523331148274494e-01	 1.796490790921936e+00	 4.105863627053642e+00
 1.369074035247442e-01	 1.797732177827113e+00	 4.078180323919488e+00
 1.215205464861688e-01	 1.798837805404580e+00	 4.048164543798825e+00
 1.061740574793720e-01	 1.799808828386452e+00	 4.017709045874923e+00
 9.086942140881972e-02	 1.800646420170603e+00	 3.988406924060278e+00
 7.560809416171207e-02	 1.801351772048239e+00	 3.961572432512545e+00
 6.039150247454317e-02	 1.801926092435115e+00	 3.938262953658243e+00
 4.522104381996076e-02	 1.802370606106978e+00	 3.919301799002510e+00
 3.009808631356915e-02	 1.802686553439808e+00	 3.905301549335757e+00
 1.502396864030461e-02	 1.802875189655369e+00	 3.896687657971518e+00
 0.000000000000000e+00	 1.802937784072603e+00	 3.893722057477530e+00
 1.530786982385879e-01	 1.805283585135209e+00	 4.178491329033100e+00
 1.375774869077654e-01	 1.806531047918943e+00	 4.150501084646661e+00
 1.221153200103886e-01	 1.807642086910848e+00	 4.119751948279902e+00
 1.066937187231594e-01	 1.808617862494764e+00	 4.088286974546676e+00
 9.131417521832773e-02	 1.809459553811653e+00	 4.057834001725951e+00
 7.597815250885417e-02	 1.810168357983386e+00	 4.029828112889366e+00
 6.068708431431715e-02	 1.810745489340192e+00	 4.005435233404564e+00
 4.544237494721856e-02	 1.811192178652375e+00	 3.985576545194575e+00
 3.024539921933057e-02	 1.811509672366819e+00	 3.970953415085738e+00
 1.509750236771070e-02	 1.811699231848858e+00	 3.962072552251768e+00
 0.000000000000000e+00	 1.811762132630000e+00	 3.959271127362970e+00
 1.538242850294628e-01	 1.814076419210772e+00	 4.224389668053416e+00
 1.382475733282073e-01	 1.815329957900539e+00	 4.195288830222815e+00
 1.227100962305709e-01	 1.816446408331353e+00	 4.163452918207145e+00
 1.072133823223502e-01	 1.817426936538807e+00	 4.131016909853495e+00
 9.175893104361964e-02	 1.818272727406976e+00	 4.099784905899758e+00
 7.634821253314082e-02	 1.818984983888418e+00	 4.071254347992849e+00
 6.098266749361573e-02	 1.819564926227870e+00	 4.046641363881625e+00
 4.566370707743905e-02	 1.820013791190213e+00	 4.026906909993378e+00
 3.039271279258867e-02	 1.820332831293267e+00	 4.012783399207575e+00
 1.517103642828048e-02	 1.820523314045961e+00	 4.004801519972164e+00
 0.000000000000000e+00	 1.820586521192396e+00	 4.003316971319399e+00
 1.545698747775543e-01	 1.822869288165889e+00	 4.243072415777454e+00
 1.389176624063389e-01	 1.824128902785731e+00	 4.212113364807474e+00
 1.233048748096698e-01	 1.825250764676867e+00	 4.178891586541870e+00
 1.077330479824736e-01	 1.826236045526661e+00	 4.145575895994656e+00
 9.220368863268462e-02	 1.827085935962324e+00	 4.113988451376034e+00
 7.671827402489943e-02	 1.827801644767130e+00	 4.085630851537524e+00
 6.127825184497742e-02	 1.828384398100345e+00	 4.061711348292382e+00
 4.588504008523901e-02	 1.828835438721451e+00	 4.043172833376244e+00
 3.054002694990016e-02	 1.829156025219229e+00	 4.030721278079931e+00
 1.524457078036680e-02	 1.829347431246227e+00	 4.024854322618515e+00
 0.000000000000000e+00	 1.829410944759166e+00	 4.025889731536185e+00
 1.553154670603430e-01	 1.831662187017830e+00	 4.234059735776459e+00
 1.395877537624294e-01	 1.832927877588356e+00	 4.200549606640550e+00
 1.238996554106393e-01	 1.834055150958159e+00	 4.165696107615057e+00
 1.082527154090591e-01	 1.835045184466403e+00	 4.131644070422185e+00
 9.264844773351176e-02	 1.835899174483453e+00	 4.100175762214868e+00
 7.708833677445745e-02	 1.836618335623317e+00	 4.072738986277082e+00
 6.157383720094068e-02	 1.837203899959812e+00	 4.050476282168888e+00
 4.610637384523512e-02	 1.837657116247048e+00	 4.034254874352403e+00
 3.068734160782166e-02	 1.837979249144782e+00	 4.024697037304291e+00
 1.531810538232251e-02	 1.838171578449207e+00	 4.022210564861577e+00
 0.000000000000000e+00	 1.838235398329687e+00	 4.027019051625346e+00
 1.560610614553088e-01	 1.840455110783858e+00	 4.196878092464202e+00
 1.402578470167476e-01	 1.841726877322242e+00	 4.160177515322276e+00
 1.244944376964336e-01	 1.842859562186001e+00	 4.123498600408697e+00
 1.087723843076361e-01	 1.843854348366112e+00	 4.088904621036860e+00
 9.309320809409025e-02	 1.844712437976115e+00	 4.058080241029399e+00
 7.745840057214219e-02	 1.845435051460771e+00	 4.032361743818087e+00
 6.186942339404398e-02	 1.846023426808468e+00	 4.012768342390101e+00
 4.632770823204415e-02	 1.846478818767959e+00	 4.000034208120167e+00
 3.083465668290985e-02	 1.846802498070001e+00	 3.994640876193696e+00
 1.539164019250044e-02	 1.846995750654450e+00	 3.996849705808619e+00
 0.000000000000000e+00	 1.847059876903333e+00	 4.006734094319578e+00
 1.568066575399322e-01	 1.849248054481242e+00	 4.131060162831464e+00
 1.409279417895626e-01	 1.850525897001225e+00	 4.090582021318881e+00
 1.250892213300065e-01	 1.851663993371164e+00	 4.051935093563556e+00
 1.092920543837341e-01	 1.852663532233867e+00	 4.017420973641208e+00
 9.353796946240919e-02	 1.853525721446064e+00	 3.989029801768630e+00
 7.782846520828113e-02	 1.854251787283287e+00	 3.967418543242078e+00
 6.216501025682580e-02	 1.854842973648508e+00	 3.953031471946003e+00
 4.654904312028284e-02	 1.855300541285142e+00	 3.946151032131392e+00
 3.098197209172137e-02	 1.855625766994964e+00	 3.946915407214960e+00
 1.546517516925347e-02	 1.855819942861508e+00	 3.955334841257408e+00
 0.000000000000000e+00	 1.855884375479479e+00	 3.971306817630865e+00
 1.575522548916935e-01	 1.858041013127248e+00	 4.063086879174450e+00
 1.415980377011434e-01	 1.859324931639138e+00	 4.029156902332891e+00
 1.256840059743122e-01	 1.860468439524419e+00	 3.998817118312806e+00
 1.098117253428824e-01	 1.861472731077748e+00	 3.973078939049955e+00
 9.398273158645773e-02	 1.862339019899055e+00	 3.952736580835543e+00
 7.819853047320163e-02	 1.863068538094658e+00	 3.938388720609292e+00
 6.246059762182463e-02	 1.863662535482129e+00	 3.930458548930623e+00
 4.677037838456789e-02	 1.864122278799557e+00	 3.929212338651209e+00
 3.112928775081290e-02	 1.864449050919747e+00	 3.934776645241566e+00
 1.553871027093444e-02	 1.864644150069929e+00	 3.947154251140708e+00
 0.000000000000000e+00	 1.864708889057499e+00	 3.966238962597771e+00
 1.582978530880727e-01	 1.866833981739142e+00	 4.070835491872614e+00
 1.422681343717590e-01	 1.868123976249811e+00	 4.042501032856884e+00
 1.262787912923049e-01	 1.869272895656538e+00	 4.017288153869391e+00
 1.103313968906104e-01	 1.870281939905831e+00	 3.996129566060791e+00
 9.442749421422506e-02	 1.871152328340841e+00	 3.979747167979573e+00
 7.856859615723111e-02	 1.871885298898677e+00	 3.968673406113728e+00
 6.275618532157888e-02	 1.872482107311525e+00	 3.963271009174723e+00
 4.699171389951602e-02	 1.872944026312160e+00	 3.963751219754600e+00
 3.127660357674109e-02	 1.873272344844427e+00	 3.970190643698852e+00
 1.561224545589620e-02	 1.873468367279264e+00	 3.982546833713375e+00
 0.000000000000000e+00	 1.873533412636770e+00	 4.000672719751949e+00
 1.590434517065504e-01	 1.875626955334190e+00	 4.159367956107713e+00
 1.429382314216784e-01	 1.876923025847079e+00	 4.132018217174648e+00
 1.268735769469384e-01	 1.878077356778291e+00	 4.107534509129088e+00
 1.108510687324477e-01	 1.879091153726199e+00	 4.086730762891143e+00
 9.487225709370022e-02	 1.879965641777177e+00	 4.070216939399455e+00
 7.893866205069694e-02	 1.880702064699139e+00	 4.058420114736455e+00
 6.305177318862708e-02	 1.881301684138893e+00	 4.051603914707277e+00
 4.721304953974399e-02	 1.881765778823908e+00	 4.049886427203253e+00
 3.142391948606261e-02	 1.882095643769081e+00	 4.053256717169726e+00
 1.568578068249159e-02	 1.882292589489063e+00	 4.061590064947124e+00
 0.000000000000000e+00	 1.882357941216666e+00	 4.074662044679407e+00
 1.882357941216666e+00	 0.000000000000000e+00	 1.290480081814320e+01
 1.882292589489063e+00	 1.568578068249056e-02	 1.290879021560239e+01
 1.882095643769081e+00	 3.142391948606171e-02	 1.291333980285222e+01
 1.881765778823908e+00	 4.721304953974327e-02	 1.291819479032759e+01
 1.881301684138893e+00	 6.305177318862648e-02	 1.292315490972746e+01
 1.880702064699139e+00	 7.893866205069652e-02	 1.292807611411821e+01
 1.879965641777177e+00	 9.487225709369997e-02	 1.293287280923297e+01
 1.879091153726199e+00	 1.108510687324475e-01	 1.293752065931648e+01
 1.878077356778291e+00	 1.268735769469385e-01	 1.294206001237523e+01
 1.876923025847079e+00	 1.429382314216786e-01	 1.294659999186645e+01
 1.875626955334190e+00	 1.590434517065505e-01	 1.295132330403570e+01
 1.891180970624999e+00	 0.000000000000000e+00	 1.285962469276738e+01
 1.891115312579360e+00	 1.575930341640359e-02	 1.286266485244970e+01
 1.890917443731123e+00	 3.157121036829688e-02	 1.286627885686354e+01
 1.890586032635812e+00	 4.743434757785371e-02	 1.287024537684178e+01
 1.890119762636100e+00	 6.334731083901778e-02	 1.287439280408653e+01
 1.889517332647063e+00	 7.930866507460144e-02	 1.287860076988807e+01
 1.888777457947550e+00	 9.531694441351364e-02	 1.288280219455966e+01
 1.887898870977132e+00	 1.113706522885186e-01	 1.288698591152012e+01
 1.886880322138074e+00	 1.274682615549137e-01	 1.289119991153574e+01
 1.885720580601748e+00	 1.436082146305012e-01	 1.289555525490387e+01
 1.884418435118870e+00	 1.597889236572119e-01	 1.290023070163988e+01
 1.900004000033333e+00	 0.000000000000000e+00	 1.281639234827413e+01
 1.899938035669670e+00	 1.583282615033130e-02	 1.281872213779876e+01
 1.899739243693211e+00	 3.171850125053537e-02	 1.282161710046024e+01
 1.899406286447809e+00	 4.765564561593599e-02	 1.282489166056969e+01
 1.898937841133457e+00	 6.364284848933535e-02	 1.282840507726465e+01
 1.898332600595200e+00	 7.967866809837910e-02	 1.283206277507011e+01
 1.897589274118200e+00	 9.576163173314470e-02	 1.283581820420005e+01
 1.896706588228396e+00	 1.118902358443561e-01	 1.283967527510733e+01
 1.895683287498230e+00	 1.280629461626155e-01	 1.284369141343649e+01
 1.894518135356813e+00	 1.442781978390277e-01	 1.284798128390887e+01
 1.893209914903944e+00	 1.605343956075780e-01	 1.285272123405345e+01
 1.908827029441666e+00	 0.000000000000000e+00	 1.277507298896765e+01
 1.908760758759990e+00	 1.590634888430188e-02	 1.277691842843316e+01
 1.908561043655338e+00	 3.186579213283049e-02	 1.277929662280054e+01
 1.908226540259889e+00	 4.787694365406539e-02	 1.278205999885991e+01
 1.907755919630951e+00	 6.393838613967308e-02	 1.278510085046961e+01
 1.907147868543532e+00	 8.004867112213844e-02	 1.278835247427407e+01
 1.906401090289097e+00	 9.620631905271350e-02	 1.279179083367879e+01
 1.905514305479960e+00	 1.124098194000881e-01	 1.279543679615323e+01
 1.904486252858727e+00	 1.286576307701752e-01	 1.279935899065475e+01
 1.903315690112244e+00	 1.449481810473887e-01	 1.280367733444471e+01
 1.902001394689388e+00	 1.612798675577750e-01	 1.280856728106169e+01
 1.917650058849999e+00	 0.000000000000000e+00	 1.273563593576664e+01
 1.917583481850319e+00	 1.597987161834349e-02	 1.273721105688920e+01
 1.917382843617501e+00	 3.201308301523558e-02	 1.273926133636717e+01
 1.917046794072044e+00	 4.809824169231717e-02	 1.274167940893753e+01
 1.916573998128565e+00	 6.423392379012477e-02	 1.274439273096106e+01
 1.915963136492034e+00	 8.041867414598838e-02	 1.274736451470049e+01
 1.915212906460218e+00	 9.665100637234036e-02	 1.275059518885103e+01
 1.914322022731792e+00	 1.129294029558424e-01	 1.275412443094169e+01
 1.913289218219532e+00	 1.292523153777245e-01	 1.275803381902968e+01
 1.912113244868009e+00	 1.456181642557153e-01	 1.276245015270083e+01
 1.910792874475175e+00	 1.620253395079285e-01	 1.276754949598811e+01
 1.926473088258333e+00	 0.000000000000000e+00	 1.269805062353342e+01
 1.926406204940658e+00	 1.605339435248433e-02	 1.269955831926890e+01
 1.926204643579694e+00	 3.216037389780393e-02	 1.270145695405034e+01
 1.925867047884262e+00	 4.831953973076658e-02	 1.270368153302810e+01
 1.925392076626284e+00	 6.452946144078428e-02	 1.270619676396764e+01
 1.924778404440686e+00	 8.078867717003781e-02	 1.270899778358785e+01
 1.924024722631534e+00	 9.709569369214555e-02	 1.271211140760393e+01
 1.923129739983864e+00	 1.134489865117469e-01	 1.271559795063028e+01
 1.922092183580612e+00	 1.298469999853945e-01	 1.271955366398999e+01
 1.920910799624076e+00	 1.462881474641382e-01	 1.272411384217283e+01
 1.919584354261279e+00	 1.627708114581646e-01	 1.272945665140680e+01
 1.935296117666666e+00	 0.000000000000000e+00	 1.266228659847715e+01
 1.935228928031002e+00	 1.612691708675258e-02	 1.266391946337673e+01
 1.935026443541912e+00	 3.230766478058891e-02	 1.266583096682492e+01
 1.934687301696533e+00	 4.854083776948886e-02	 1.266800060435955e+01
 1.934210155124092e+00	 6.482499909174548e-02	 1.267043238578501e+01
 1.933593672389465e+00	 8.115868019439562e-02	 1.267315534716182e+01
 1.932836538803020e+00	 9.754038101224943e-02	 1.267622458339703e+01
 1.931937457236144e+00	 1.139685700679294e-01	 1.267972284811316e+01
 1.930895148941935e+00	 1.304416845933169e-01	 1.268376276945659e+01
 1.929708354380417e+00	 1.469581306727882e-01	 1.268848973331288e+01
 1.928375834047675e+00	 1.635162834086093e-01	 1.269408548824146e+01
 1.944119147074999e+00	 0.000000000000000e+00	 1.262831351562664e+01
 1.944051651121354e+00	 1.620043982117643e-02	 1.263025467717312e+01
 1.943848243504153e+00	 3.245495566364379e-02	 1.263233262200150e+01
 1.943507555508850e+00	 4.876213580855929e-02	 1.263457341401539e+01
 1.943028233621972e+00	 6.512053674310217e-02	 1.263702237801760e+01
 1.942408940338352e+00	 8.152868321917076e-02	 1.263974439103817e+01
 1.941648354974646e+00	 9.798506833277225e-02	 1.264282469058639e+01
 1.940745174488602e+00	 1.144881536245179e-01	 1.264637024701165e+01
 1.939698114303471e+00	 1.310363692016230e-01	 1.265051174923718e+01
 1.938505909136998e+00	 1.476281138817963e-01	 1.265540625605585e+01
 1.937167313834337e+00	 1.642617553593884e-01	 1.266124056814263e+01
 1.952942176483333e+00	 0.000000000000000e+00	 1.259610113637224e+01
 1.952874374211709e+00	 1.627396255578405e-02	 1.259852507753019e+01
 1.952670043466408e+00	 3.260224654702193e-02	 1.260091290203390e+01
 1.952327809321199e+00	 4.898343384805312e-02	 1.260333927861179e+01
 1.951846312119910e+00	 6.541607439494819e-02	 1.260589282292810e+01
 1.951224208287323e+00	 8.189868624447208e-02	 1.260867616203366e+01
 1.950460171146388e+00	 9.842975565383434e-02	 1.261180651147320e+01
 1.949552891741205e+00	 1.150077371816401e-01	 1.261541681272553e+01
 1.948501079665185e+00	 1.316310538104442e-01	 1.261965748083422e+01
 1.947303463893790e+00	 1.482980970912932e-01	 1.262469881513008e+01
 1.945958793621237e+00	 1.650072273106281e-01	 1.263073412903987e+01
 1.961765205891666e+00	 0.000000000000000e+00	 1.256561932607423e+01
 1.961697097302065e+00	 1.634748529060362e-02	 1.256869269928489e+01
 1.961491843428675e+00	 3.274953743077662e-02	 1.257152450386612e+01
 1.961148063133574e+00	 4.920473188804563e-02	 1.257424000877263e+01
 1.960664390617890e+00	 6.571161204737740e-02	 1.257697305986010e+01
 1.960039476236356e+00	 8.226868927040855e-02	 1.257986591134136e+01
 1.959271987318218e+00	 9.887444297555595e-02	 1.258306956502395e+01
 1.958360608993926e+00	 1.155273207394240e-01	 1.258674466548053e+01
 1.957304045027047e+00	 1.322257384199121e-01	 1.259106300159153e+01
 1.956101018650761e+00	 1.489680803014100e-01	 1.259620966806593e+01
 1.954750273408352e+00	 1.657526992624541e-01	 1.260238594376853e+01
 1.970588235300000e+00	 0.000000000000000e+00	 1.253683805173497e+01
 1.970519820392425e+00	 1.642100802566334e-02	 1.254072048457701e+01
 1.970313643390948e+00	 3.289682831496119e-02	 1.254412181880061e+01
 1.969968316945962e+00	 4.942602992861205e-02	 1.254721987837710e+01
 1.969482469115896e+00	 6.600714970048366e-02	 1.255019564269933e+01
 1.968854744185433e+00	 8.263869229708914e-02	 1.255323283902650e+01
 1.968083803490109e+00	 9.931913029805751e-02	 1.255651803720967e+01
 1.967168326246733e+00	 1.160469042979975e-01	 1.256024129530819e+01
 1.966107010389023e+00	 1.328204230301581e-01	 1.256459740710379e+01
 1.964898573407881e+00	 1.496380635122773e-01	 1.256978780581618e+01
 1.963541753195655e+00	 1.664981712149926e-01	 1.257602318167511e+01
 1.875626955334190e+00	 1.590434517065505e-01	 1.295132330403570e+01
 1.874187703024645e+00	 1.751903688914292e-01	 1.295679023453767e+01
 1.872604312149079e+00	 1.913745749929839e-01	 1.296315609707619e+01
 1.870875639613893e+00	 2.075943598076000e-01	 1.297012363664616e+01
 1.869000565147121e+00	 2.238479828302088e-01	 1.297749167563133e+01
 1.866977992128452e+00	 2.401336735270876e-01	 1.298516515055298e+01
 1.864806848419438e+00	 2.564496316329435e-01	 1.299316622574558e+01
 1.862486087193140e+00	 2.727940274725351e-01	 1.300164654534273e+01
 1.860014687762457e+00	 2.891650023070629e-01	 1.301090068617958e+01
 1.857391656406358e+00	 3.055606687055365e-01	 1.302138087521290e+01
 1.854616027193228e+00	 3.219791109412959e-01	 1.303371303579254e+01
 1.884418435118870e+00	 1.597889236572119e-01	 1.290023070163988e+01
 1.882972436714475e+00	 1.760115250265634e-01	 1.290579623499059e+01
 1.881381624134609e+00	 1.922715900940228e-01	 1.291247402310758e+01
 1.879644848927742e+00	 2.085674006398712e-01	 1.292003683620810e+01
 1.877760985570946e+00	 2.248972080009056e-01	 1.292834357181683e+01
 1.875728932303808e+00	 2.412592333445181e-01	 1.293734895389557e+01
 1.873547611962533e+00	 2.576516679671723e-01	 1.294711431876803e+01
 1.871215972813470e+00	 2.740726736175319e-01	 1.295781955118655e+01
 1.868732989385335e+00	 2.905203828444762e-01	 1.296977623524133e+01
 1.866097663299309e+00	 3.069928993702055e-01	 1.298344208593368e+01
 1.863309024096240e+00	 3.234882984886234e-01	 1.299943672810308e+01
 1.893209914903944e+00	 1.605343956075780e-01	 1.285272123405345e+01
 1.891757170404670e+00	 1.768326811614318e-01	 1.285846030379618e+01
 1.890158936120451e+00	 1.931686051948514e-01	 1.286544913456909e+01
 1.888414058241827e+00	 2.095404414720083e-01	 1.287352081867403e+01
 1.886521405994919e+00	 2.259464331715612e-01	 1.288258520580285e+01
 1.884479872479216e+00	 2.423847931620121e-01	 1.289263828270176e+01
 1.882288375505576e+00	 2.588537043015761e-01	 1.290377264881011e+01
 1.879945858433651e+00	 2.753513197628177e-01	 1.291618915316116e+01
 1.877451291007973e+00	 2.918757633822889e-01	 1.293020975931639e+01
 1.874803670191940e+00	 3.084251300353768e-01	 1.294629170636961e+01
 1.872002020998873e+00	 3.249974860365428e-01	 1.296504303504408e+01
 1.902001394689388e+00	 1.612798675577750e-01	 1.280856728106169e+01
 1.900541904095215e+00	 1.776538372961512e-01	 1.281453302500203e+01
 1.898936248106599e+00	 1.940656202955728e-01	 1.282182218495175e+01
 1.897183267556163e+00	 2.105134823040985e-01	 1.283031866379801e+01
 1.895281826419069e+00	 2.269956583422437e-01	 1.283997432960474e+01
 1.893230812654720e+00	 2.435103529796167e-01	 1.285081809362129e+01
 1.891029139048634e+00	 2.600557406361796e-01	 1.286296609273329e+01
 1.888675744053763e+00	 2.766299659083937e-01	 1.287663304356260e+01
 1.886169592630466e+00	 2.932311439204797e-01	 1.289214483704457e+01
 1.883509677084360e+00	 3.098573607010063e-01	 1.290995244371045e+01
 1.880695017901244e+00	 3.265066735849895e-01	 1.293064720103182e+01
 1.910792874475175e+00	 1.620253395079285e-01	 1.276754949598812e+01
 1.909326637786092e+00	 1.784749934308381e-01	 1.277377391180577e+01
 1.907713560093051e+00	 1.949626353962909e-01	 1.278134325975321e+01
 1.905952476870757e+00	 2.114865231362290e-01	 1.279018293139497e+01
 1.904042246843425e+00	 2.280448835130215e-01	 1.280027806672241e+01
 1.901981752830368e+00	 2.446359127973791e-01	 1.281168234796998e+01
 1.899769902591771e+00	 2.612577769710079e-01	 1.282452790561374e+01
 1.897405629673888e+00	 2.779086120542619e-01	 1.283903640565222e+01
 1.894887894252909e+00	 2.945865244590271e-01	 1.285553138903815e+01
 1.892215683976677e+00	 3.112895913670508e-01	 1.287445193566645e+01
 1.889388014803469e+00	 3.280158611338988e-01	 1.289636772659742e+01
 1.919584354261279e+00	 1.627708114581646e-01	 1.272945665140680e+01
 1.918111371477284e+00	 1.792961495656094e-01	 1.273595123281753e+01
 1.916490872079803e+00	 1.958596504971091e-01	 1.274377158770529e+01
 1.914721686185623e+00	 2.124595639684870e-01	 1.275287546202928e+01
 1.912802667268015e+00	 2.290941086839626e-01	 1.276327270686040e+01
 1.910732693006208e+00	 2.457614726153465e-01	 1.277503380512873e+01
 1.908510666135051e+00	 2.624598133060859e-01	 1.278829951754235e+01
 1.906135515294109e+00	 2.791872582004242e-01	 1.280329171864981e+01
 1.903606195875401e+00	 2.959419049979102e-01	 1.282032549593406e+01
 1.900921690869000e+00	 3.127218220334664e-01	 1.283982258651172e+01
 1.898081011705663e+00	 3.295250486832059e-01	 1.286232622742468e+01
 1.928375834047675e+00	 1.635162834086093e-01	 1.269408548824147e+01
 1.926896105168775e+00	 1.801173057005816e-01	 1.270084184206583e+01
 1.925268184066851e+00	 1.967566655981312e-01	 1.270887535596790e+01
 1.923490895500773e+00	 2.134326048009596e-01	 1.271816718175264e+01
 1.921563087692869e+00	 2.301433338551352e-01	 1.272874350464159e+01
 1.919483633182285e+00	 2.468870324335661e-01	 1.274068381973745e+01
 1.917251429678539e+00	 2.636618496414380e-01	 1.275413033387661e+01
 1.914865400914505e+00	 2.804659043468823e-01	 1.276929856569154e+01
 1.912324497498038e+00	 2.972972855371075e-01	 1.278648921877613e+01
 1.909627697761435e+00	 3.141540527002096e-01	 1.280610140467738e+01
 1.906774008607944e+00	 3.310342362328462e-01	 1.282864729400554e+01
 1.937167313834337e+00	 1.642617553593884e-01	 1.266124056814263e+01
 1.935680838860548e+00	 1.809384618358714e-01	 1.266823101262891e+01
 1.934045496054190e+00	 1.976536806994605e-01	 1.267643152916285e+01
 1.932260104816218e+00	 2.144056456337339e-01	 1.268583791076283e+01
 1.930323508118016e+00	 2.311925590266076e-01	 1.269648448218642e+01
 1.928234573358647e+00	 2.480125922520850e-01	 1.270845214256300e+01
 1.925992193222301e+00	 2.648638859770895e-01	 1.272187753883459e+01
 1.923595286535160e+00	 2.817445504936383e-01	 1.273696344465938e+01
 1.921042799120914e+00	 2.986526660765980e-01	 1.275399042165454e+01
 1.918333704654092e+00	 3.155862833672365e-01	 1.277332984184329e+01
 1.915467005510425e+00	 3.325434237827546e-01	 1.279545835189128e+01
 1.945958793621237e+00	 1.650072273106281e-01	 1.263073412903987e+01
 1.944465572552588e+00	 1.817596179715958e-01	 1.263791227377763e+01
 1.942822808041816e+00	 1.985506958012007e-01	 1.264622567212744e+01
 1.941029314131968e+00	 2.153786864668973e-01	 1.265567617586001e+01
 1.939083928543483e+00	 2.322417841984477e-01	 1.266629823543648e+01
 1.936985513535340e+00	 2.491381520709504e-01	 1.267816672492421e+01
 1.934732956766399e+00	 2.660659223130650e-01	 1.269140590232624e+01
 1.932325172156156e+00	 2.830231966406935e-01	 1.270619958178885e+01
 1.929761100744129e+00	 3.000080466163604e-01	 1.272280259652967e+01
 1.927039711547079e+00	 3.170185140345035e-01	 1.274155363348204e+01
 1.924160002413225e+00	 3.340526113328665e-01	 1.276288952252346e+01
 1.954750273408352e+00	 1.657526992624541e-01	 1.260238594376853e+01
 1.953250306244875e+00	 1.825807741078712e-01	 1.260968725151781e+01
 1.951600120029727e+00	 1.994477109034553e-01	 1.261805177626857e+01
 1.949798523448037e+00	 2.163517273005370e-01	 1.262747902658061e+01
 1.947844348969299e+00	 2.332910093707239e-01	 1.263799574410425e+01
 1.945736453712412e+00	 2.502637118902095e-01	 1.264966352656318e+01
 1.943473720310901e+00	 2.672679586493892e-01	 1.266258758991937e+01
 1.941055057777571e+00	 2.843018427880500e-01	 1.267692674797019e+01
 1.938479402367777e+00	 3.013634271563733e-01	 1.269290469017347e+01
 1.935745718440505e+00	 3.184507447019673e-01	 1.271082264080839e+01
 1.932852999316459e+00	 3.355617988831173e-01	 1.273107348462339e+01
 1.963541753195655e+00	 1.664981712149926e-01	 1.257602318167511e+01
 1.962035039937395e+00	 1.834019302448144e-01	 1.258336551242715e+01
 1.960377432017917e+00	 2.003447260063280e-01	 1.259171208940677e+01
 1.958567732764435e+00	 2.173247681347400e-01	 1.260105185489322e+01
 1.956604769395495e+00	 2.343402345435043e-01	 1.261139618513463e+01
 1.954487393889909e+00	 2.513892717099096e-01	 1.262278632685373e+01
 1.952214483855871e+00	 2.684699949860874e-01	 1.263530197584173e+01
 1.949784943399491e+00	 2.855804889357098e-01	 1.264907107765713e+01
 1.947197703991955e+00	 3.027188076966157e-01	 1.266428093315961e+01
 1.944451725334479e+00	 3.198829753695840e-01	 1.268119069409084e+01
 1.941545996220244e+00	 3.370709864334422e-01	 1.270014533612509e+01
 1.854616027193228e+00	 3.219791109412959e-01	 1.303371303579254e+01
 1.851687373569412e+00	 3.384155901141933e-01	 1.304245199708275e+01
 1.848604328113462e+00	 3.548709288244347e-01	 1.304407444857518e+01
 1.845366012173774e+00	 3.713431345988638e-01	 1.304149997886248e+01
 1.841971578090960e+00	 3.878301886145815e-01	 1.303919326660271e+01
 1.838420209993003e+00	 4.043300462218324e-01	 1.304027387908679e+01
 1.834711124582473e+00	 4.208406374924301e-01	 1.304543267082044e+01
 1.830843571914933e+00	 4.373598677937027e-01	 1.305538434442703e+01
 1.826816836167647e+00	 4.538856183878984e-01	 1.307085647810447e+01
 1.822630236397704e+00	 4.704157470569681e-01	 1.309257878177555e+01
 1.818283127288656e+00	 4.869480887526040e-01	 1.312127269072911e+01
 1.863309024096240e+00	 3.234882984886234e-01	 1.299943672810308e+01
 1.860366643223122e+00	 3.400018190873033e-01	 1.301237065577500e+01
 1.857269146849096e+00	 3.565342876221557e-01	 1.301691923403407e+01
 1.854015652204112e+00	 3.730837022808532e-01	 1.301417512394315e+01
 1.850605307655608e+00	 3.896480347778188e-01	 1.300894816441583e+01
 1.847037293507387e+00	 4.062252308795626e-01	 1.300662644554452e+01
 1.843310822790522e+00	 4.228132109556790e-01	 1.300871015714999e+01
 1.839425142045411e+00	 4.394098705554803e-01	 1.301595429447830e+01
 1.835379532094092e+00	 4.560130810102132e-01	 1.302912423588295e+01
 1.831173308801916e+00	 4.726206900607705e-01	 1.304898444350681e+01
 1.826805823827681e+00	 4.892305225107746e-01	 1.307628751675163e+01
 1.872002020998873e+00	 3.249974860365428e-01	 1.296504303504408e+01
 1.869045912876419e+00	 3.415880480610784e-01	 1.298116444730274e+01
 1.865933965584301e+00	 3.581976464205966e-01	 1.298936819247862e+01
 1.862665292234023e+00	 3.748242699636000e-01	 1.299077995785716e+01
 1.859239037219846e+00	 3.914658809418339e-01	 1.299044563326825e+01
 1.855654377021386e+00	 4.081204155380744e-01	 1.299020742356161e+01
 1.851910520998216e+00	 4.247857844196964e-01	 1.299024334520234e+01
 1.848006712175566e+00	 4.414598733179969e-01	 1.299330304439134e+01
 1.843942228020241e+00	 4.581405436332218e-01	 1.300258933474996e+01
 1.839716381205850e+00	 4.748256330652056e-01	 1.301891381565349e+01
 1.835328520366439e+00	 4.915129562695016e-01	 1.304307234115826e+01
 1.880695017901244e+00	 3.265066735849895e-01	 1.293064720103182e+01
 1.877725182529421e+00	 3.431742770354342e-01	 1.294904068678466e+01
 1.874598784319196e+00	 3.598610052196566e-01	 1.295991110760383e+01
 1.871314932263623e+00	 3.765648376469893e-01	 1.296451264318774e+01
 1.867872766783782e+00	 3.932837271065004e-01	 1.296830744710854e+01
 1.864271460535099e+00	 4.100156001972329e-01	 1.297273839186970e+01
 1.860510219205645e+00	 4.267583578843425e-01	 1.297795206516163e+01
 1.856588282305478e+00	 4.435098760811119e-01	 1.298416451137955e+01
 1.852504923946168e+00	 4.602680062567869e-01	 1.299166068198566e+01
 1.848259453609578e+00	 4.770305760701435e-01	 1.300291768536446e+01
 1.843851216904998e+00	 4.937953900286675e-01	 1.302225392525705e+01
 1.889388014803469e+00	 3.280158611338988e-01	 1.289636772659742e+01
 1.886404452182247e+00	 3.447605060102871e-01	 1.291621472081615e+01
 1.883263603053897e+00	 3.615243640192350e-01	 1.292885888167722e+01
 1.879964572293025e+00	 3.783054053309060e-01	 1.293578705145756e+01
 1.876506496347521e+00	 3.951015732716919e-01	 1.294275341816200e+01
 1.872888544048626e+00	 4.119107848569036e-01	 1.295082862578569e+01
 1.869109917412900e+00	 4.287309313494783e-01	 1.296013588566363e+01
 1.865169852435230e+00	 4.455598788446854e-01	 1.297086357605512e+01
 1.861067619871948e+00	 4.623954688807709e-01	 1.298326473946296e+01
 1.856802526013169e+00	 4.792355190754544e-01	 1.299765641950964e+01
 1.852373913443422e+00	 4.960778237881541e-01	 1.301441881271212e+01
 1.898081011705663e+00	 3.295250486832059e-01	 1.286232622742468e+01
 1.895083721835017e+00	 3.463467349855531e-01	 1.288290323574425e+01
 1.891928421788526e+00	 3.631877228192311e-01	 1.289652199344915e+01
 1.888614212322343e+00	 3.800459730152350e-01	 1.290501258557403e+01
 1.885140225911173e+00	 3.969194194372820e-01	 1.291427453039196e+01
 1.881505627562064e+00	 4.138059695169516e-01	 1.292504903914520e+01
 1.877709615620070e+00	 4.307035048149640e-01	 1.293744386486491e+01
 1.873751422564904e+00	 4.476098816085765e-01	 1.295162756443720e+01
 1.869630315797655e+00	 4.645229315050365e-01	 1.296782903637331e+01
 1.865345598416690e+00	 4.814404620810083e-01	 1.298633689627717e+01
 1.860896609981780e+00	 4.983602575478439e-01	 1.300749866431179e+01
 1.906774008607944e+00	 3.310342362328462e-01	 1.282864729400554e+01
 1.903762991487849e+00	 3.479329639611483e-01	 1.284932414124677e+01
 1.900593240523198e+00	 3.648510816195437e-01	 1.286321040447233e+01
 1.897263852351691e+00	 3.817865406998611e-01	 1.287259423064563e+01
 1.893773955474843e+00	 3.987372656031441e-01	 1.288335586460002e+01
 1.890122711075513e+00	 4.157011541772421e-01	 1.289596318776116e+01
 1.886309313827246e+00	 4.326760782806602e-01	 1.291051628003386e+01
 1.882332992694578e+00	 4.496598843726447e-01	 1.292717159080989e+01
 1.878193011723362e+00	 4.666503941294464e-01	 1.294614151091789e+01
 1.873888670820212e+00	 4.836454050866755e-01	 1.296769378005478e+01
 1.869419306520137e+00	 5.006426913076192e-01	 1.299215070294378e+01
 1.915467005510425e+00	 3.325434237827546e-01	 1.279545835189128e+01
 1.912442261140863e+00	 3.495191929369890e-01	 1.281569645354205e+01
 1.909258059258034e+00	 3.665144404200725e-01	 1.282923346411027e+01
 1.905913492381182e+00	 3.835271083846696e-01	 1.283893260256335e+01
 1.902407685038640e+00	 4.005551117691519e-01	 1.285047667572696e+01
 1.898739794589072e+00	 4.175963388376407e-01	 1.286412737436144e+01
 1.894909012034517e+00	 4.346486517464275e-01	 1.287998475899854e+01
 1.890914562824337e+00	 4.517098871367495e-01	 1.289820075601796e+01
 1.886755707649143e+00	 4.687778567538631e-01	 1.291897875773723e+01
 1.882431743223803e+00	 4.858503480923257e-01	 1.294257305541115e+01
 1.877942003058562e+00	 5.029251250673622e-01	 1.296928807729731e+01
 1.924160002413225e+00	 3.340526113328665e-01	 1.276288952252346e+01
 1.921121530794179e+00	 3.511054219129908e-01	 1.278224017824335e+01
 1.917922877993149e+00	 3.681777992207165e-01	 1.279489981327463e+01
 1.914563132410930e+00	 3.852676760695452e-01	 1.280442399441895e+01
 1.911041414602669e+00	 4.023729579351785e-01	 1.281611046711848e+01
 1.907356878102840e+00	 4.194915234980123e-01	 1.283009074964614e+01
 1.903508710241975e+00	 4.366212252121263e-01	 1.284647240689350e+01
 1.899496132954261e+00	 4.537598899007507e-01	 1.286541029875432e+01
 1.895318403575075e+00	 4.709053193781491e-01	 1.288710620255244e+01
 1.890974815627531e+00	 4.880552910978292e-01	 1.291180826543781e+01
 1.886464699597119e+00	 5.052075588269552e-01	 1.293981025779822e+01
 1.932852999316459e+00	 3.355617988831173e-01	 1.273107348462339e+01
 1.929800800447914e+00	 3.526916508890702e-01	 1.274917619286821e+01
 1.926587696728664e+00	 3.698411580213750e-01	 1.276051728693244e+01
 1.923212772441050e+00	 3.870082437543728e-01	 1.276946042082829e+01
 1.919675144167039e+00	 4.041908041010981e-01	 1.278072506185346e+01
 1.915973961616915e+00	 4.213867081582223e-01	 1.279439540958574e+01
 1.912108408449707e+00	 4.385937986776169e-01	 1.281059392834921e+01
 1.908077703084432e+00	 4.558098926645076e-01	 1.282948574152205e+01
 1.903881099501229e+00	 4.730327820021673e-01	 1.285127827073466e+01
 1.899517888031467e+00	 4.902602341030561e-01	 1.287622070172184e+01
 1.894987396135878e+00	 5.074899925862805e-01	 1.290460324673933e+01
 1.941545996220244e+00	 3.370709864334422e-01	 1.270014533612509e+01
 1.938480070102190e+00	 3.542778798651433e-01	 1.271672612901346e+01
 1.935252515464695e+00	 3.715045168219472e-01	 1.272641098887777e+01
 1.931862412471655e+00	 3.887488114390375e-01	 1.273442966022464e+01
 1.928308873731856e+00	 4.060086502667835e-01	 1.274478267122476e+01
 1.924591045131398e+00	 4.232818928181366e-01	 1.275757648907817e+01
 1.920708106657807e+00	 4.405663721427606e-01	 1.277295574527117e+01
 1.916659273214932e+00	 4.578598954278800e-01	 1.279110303143693e+01
 1.912443795427681e+00	 4.751602446257804e-01	 1.281223854999391e+01
 1.908060960435679e+00	 4.924651771078769e-01	 1.283661958774254e+01
 1.903510092674904e+00	 5.097724263452202e-01	 1.286453978116718e+01
 1.818283127288656e+00	 4.869480887526040e-01	 1.312127269072911e+01
 1.813774900280472e+00	 5.034804565022218e-01	 1.315032517092899e+01
 1.809104985480471e+00	 5.200106428226275e-01	 1.317335873585675e+01
 1.804272851186890e+00	 5.365364197891487e-01	 1.319141252300033e+01
 1.799278004183412e+00	 5.530555395592704e-01	 1.320548785841532e+01
 1.794119990412552e+00	 5.695657351459109e-01	 1.321654070276269e+01
 1.788798395632072e+00	 5.860647212144210e-01	 1.322547506832721e+01
 1.783312846053559e+00	 6.025501949029394e-01	 1.323313750721910e+01
 1.777663008962260e+00	 6.190198366657010e-01	 1.324031276646954e+01
 1.771848593317296e+00	 6.354713111388515e-01	 1.324772070040922e+01
 1.765869350331383e+00	 6.519022680282957e-01	 1.325601452457530e+01
 1.826805823827681e+00	 4.892305225107746e-01	 1.307628751675163e+01
 1.822276465758901e+00	 5.058403811368120e-01	 1.310446465448446e+01
 1.817584662031687e+00	 5.224480481087361e-01	 1.312712974327468e+01
 1.812729878452084e+00	 5.390512850591123e-01	 1.314527488541939e+01
 1.807711619491975e+00	 5.556478336093043e-01	 1.315985970848765e+01
 1.802529428965615e+00	 5.722354161463736e-01	 1.317180367716565e+01
 1.797182890689137e+00	 5.888117366238169e-01	 1.318197940520801e+01
 1.791671629122110e+00	 6.053744813857633e-01	 1.319120707078639e+01
 1.785995309990285e+00	 6.219213200142381e-01	 1.320025003390294e+01
 1.780153640888623e+00	 6.384499061990339e-01	 1.320981174905753e+01
 1.774146371863731e+00	 6.549578786297220e-01	 1.322053406002615e+01
 1.835328520366439e+00	 4.915129562695016e-01	 1.304307234115826e+01
 1.830778031237056e+00	 5.082003057718679e-01	 1.306862727278679e+01
 1.826064338582611e+00	 5.248854533952091e-01	 1.308927813836323e+01
 1.821186905716960e+00	 5.415661503293331e-01	 1.310599173162631e+01
 1.816145234800188e+00	 5.582401276594871e-01	 1.311970603871285e+01
 1.810938867518299e+00	 5.749050971468807e-01	 1.313132235230798e+01
 1.805567385745794e+00	 5.915587520331596e-01	 1.314169841722149e+01
 1.800030412190233e+00	 6.081987678684503e-01	 1.315164271397327e+01
 1.794327611017873e+00	 6.248228033625711e-01	 1.316190998220706e+01
 1.788458688459521e+00	 6.414285012589674e-01	 1.317319808011161e+01
 1.782423393395677e+00	 6.580134892308822e-01	 1.318614626950831e+01
 1.843851216904998e+00	 4.937953900286675e-01	 1.302225392525704e+01
 1.839279596715006e+00	 5.105602304072889e-01	 1.304350246344638e+01
 1.834544015133317e+00	 5.273228586819669e-01	 1.306053235713325e+01
 1.829643932981598e+00	 5.440810155997551e-01	 1.307430658020527e+01
 1.824578850108139e+00	 5.608324217097863e-01	 1.308576130480585e+01
 1.819348306070697e+00	 5.775747781474236e-01	 1.309579775433852e+01
 1.813951880802146e+00	 5.943057674424644e-01	 1.310527512143038e+01
 1.808389195258034e+00	 6.110230543510344e-01	 1.311500466092728e+01
 1.802659912045135e+00	 6.277242867107512e-01	 1.312574506309074e+01
 1.796763736030097e+00	 6.444070963187151e-01	 1.313819920635750e+01
 1.790700414927322e+00	 6.610690998318429e-01	 1.315301238231120e+01
 1.852373913443422e+00	 4.960778237881541e-01	 1.301441881271212e+01
 1.847781162192821e+00	 5.129201550429737e-01	 1.302977671143854e+01
 1.843023691683877e+00	 5.297602639689291e-01	 1.304161776689782e+01
 1.838100960246077e+00	 5.465958808703203e-01	 1.305096022177052e+01
 1.833012465415917e+00	 5.634247157601698e-01	 1.305875803812625e+01
 1.827757744622905e+00	 5.802444591479938e-01	 1.306593025728174e+01
 1.822336375858294e+00	 5.970527828517453e-01	 1.307335362896895e+01
 1.816747978325622e+00	 6.138473408335514e-01	 1.308185645498565e+01
 1.810992213072177e+00	 6.306257700588299e-01	 1.309221375604745e+01
 1.805068783600458e+00	 6.473856913783389e-01	 1.310514386457898e+01
 1.798977436458766e+00	 6.641247104326712e-01	 1.312130653927237e+01
 1.860896609981780e+00	 4.983602575478439e-01	 1.300749866431179e+01
 1.856282727670566e+00	 5.152800796788221e-01	 1.302513883328757e+01
 1.851503368234364e+00	 5.321976692560152e-01	 1.303325703732767e+01
 1.846557987510477e+00	 5.491107461409722e-01	 1.303669109704141e+01
 1.841446080723607e+00	 5.660170098106045e-01	 1.303942722096510e+01
 1.836167183175018e+00	 5.829141401485834e-01	 1.304241994561732e+01
 1.830720870914339e+00	 5.997997982610178e-01	 1.304657948489188e+01
 1.825106761393103e+00	 6.166716273160361e-01	 1.305276526566967e+01
 1.819324514099112e+00	 6.335272534068580e-01	 1.306178083227708e+01
 1.813373831170712e+00	 6.503642864379001e-01	 1.307437022609975e+01
 1.807254457990109e+00	 6.671803210334327e-01	 1.309121593954886e+01
 1.869419306520137e+00	 5.006426913076192e-01	 1.299215070294378e+01
 1.864784293148312e+00	 5.176400043147329e-01	 1.301359949911384e+01
 1.859983044784852e+00	 5.346350745431454e-01	 1.302626442765937e+01
 1.855015014774876e+00	 5.516256114116537e-01	 1.303078973725838e+01
 1.849879696031298e+00	 5.686093038610581e-01	 1.302849865280768e+01
 1.844576621727132e+00	 5.855838211491839e-01	 1.302596696833123e+01
 1.839105365970385e+00	 6.025468136702953e-01	 1.302560000027277e+01
 1.833465544460584e+00	 6.194959137985229e-01	 1.302830218899349e+01
 1.827656815126045e+00	 6.364287367548868e-01	 1.303491761327576e+01
 1.821678878740966e+00	 6.533428814974618e-01	 1.304622610363880e+01
 1.815531479521452e+00	 6.702359316341945e-01	 1.306294098564206e+01
 1.877942003058562e+00	 5.029251250673622e-01	 1.296928807729731e+01
 1.873285858626127e+00	 5.199999289506052e-01	 1.299350687595624e+01
 1.868462721335411e+00	 5.370724798302392e-01	 1.300974037835464e+01
 1.863472042039355e+00	 5.541404766823075e-01	 1.301859669980422e+01
 1.858313311339076e+00	 5.712015979114976e-01	 1.302078282813998e+01
 1.852986060279340e+00	 5.882535021497867e-01	 1.301710316907806e+01
 1.847489861026533e+00	 6.052938290795933e-01	 1.301106457679810e+01
 1.841824327528172e+00	 6.223202002810472e-01	 1.300904254129977e+01
 1.835989116153088e+00	 6.393302201029678e-01	 1.301210222426405e+01
 1.829983926311327e+00	 6.563214765570854e-01	 1.302106915459721e+01
 1.823808501052896e+00	 6.732915422350229e-01	 1.303669542673123e+01
 1.886464699597119e+00	 5.052075588269552e-01	 1.293981025779822e+01
 1.881787424104077e+00	 5.223598535863381e-01	 1.296581474554334e+01
 1.876942397886117e+00	 5.395098851172165e-01	 1.298464969791293e+01
 1.871929069303992e+00	 5.566553419528767e-01	 1.299690325671937e+01
 1.866746926647027e+00	 5.737938919618902e-01	 1.300325947148988e+01
 1.861395498831739e+00	 5.909231831503838e-01	 1.300449684702037e+01
 1.855874356082885e+00	 6.080408444889259e-01	 1.300148648519933e+01
 1.850183110595975e+00	 6.251444867636436e-01	 1.299556614682710e+01
 1.844321417180349e+00	 6.422317034511513e-01	 1.299381984261575e+01
 1.838288973881903e+00	 6.593000716168336e-01	 1.299926708088957e+01
 1.832085522584540e+00	 6.763471528359838e-01	 1.301270650037003e+01
 1.894987396135878e+00	 5.074899925862805e-01	 1.290460324673933e+01
 1.890288989582232e+00	 5.247197782218312e-01	 1.293146240839139e+01
 1.885422074437041e+00	 5.419472904039975e-01	 1.295196419520984e+01
 1.880386096568869e+00	 5.591702072233043e-01	 1.296669264892578e+01
 1.875180541955240e+00	 5.763861860122034e-01	 1.297632335874441e+01
 1.869804937384422e+00	 5.935928641509662e-01	 1.298162196825422e+01
 1.864258851139542e+00	 6.107878598983075e-01	 1.298344226547190e+01
 1.858541893664097e+00	 6.279687732463468e-01	 1.298272383627795e+01
 1.852653718207937e+00	 6.451331867994891e-01	 1.298048926459725e+01
 1.846594021452801e+00	 6.622786666767680e-01	 1.298119782542870e+01
 1.840362544116487e+00	 6.794027634371440e-01	 1.299121507259849e+01
 1.903510092674904e+00	 5.097724263452202e-01	 1.286453978116718e+01
 1.898790555060662e+00	 5.270797028569836e-01	 1.289137490117614e+01
 1.893901750988258e+00	 5.443846956905017e-01	 1.291264078272270e+01
 1.888843123834064e+00	 5.616850724935336e-01	 1.292893295920993e+01
 1.883614157263803e+00	 5.789784800624048e-01	 1.294093277045742e+01
 1.878214375937486e+00	 5.962625451515265e-01	 1.294940578656430e+01
 1.872643346196608e+00	 6.135348753077534e-01	 1.295519980434704e+01
 1.866900676732649e+00	 6.307930597291920e-01	 1.295924239591089e+01
 1.860986019235964e+00	 6.480346701480327e-01	 1.296253799211312e+01
 1.854899069024128e+00	 6.652572617369513e-01	 1.296616448717491e+01
 1.848639565648836e+00	 6.824583740385707e-01	 1.297247577651955e+01
 1.765869350331383e+00	 6.519022680282957e-01	 1.325601452457530e+01
 1.759724015199794e+00	 6.683131303505517e-01	 1.326468294142430e+01
 1.753413426734233e+00	 6.846987235911637e-01	 1.327363656471936e+01
 1.746937464927228e+00	 7.010566561718174e-01	 1.328404110050659e+01
 1.740296054154137e+00	 7.173845253063597e-01	 1.329696532829110e+01
 1.733489163639346e+00	 7.336799179914384e-01	 1.331338569862516e+01
 1.726516807897010e+00	 7.499404120156162e-01	 1.333186125980665e+01
 1.719379047145570e+00	 7.661635769862305e-01	 1.334207546624907e+01
 1.712075987695309e+00	 7.823469753732302e-01	 1.334254851518979e+01
 1.704607782308222e+00	 7.984881635692114e-01	 1.333301783239583e+01
 1.696974630529512e+00	 8.145846929648082e-01	 1.331312931424904e+01
 1.774146371863731e+00	 6.549578786297220e-01	 1.322053406002615e+01
 1.767972232182473e+00	 6.714456623056039e-01	 1.323158301713225e+01
 1.761632064588246e+00	 6.879080584581186e-01	 1.324261385398654e+01
 1.755125748511073e+00	 7.043426642990833e-01	 1.325488100734782e+01
 1.748453207971837e+00	 7.207470657799385e-01	 1.326953400677921e+01
 1.741614412050666e+00	 7.371188385870379e-01	 1.328762203272067e+01
 1.734609375329743e+00	 7.534555491554897e-01	 1.330586391786760e+01
 1.727438158309759e+00	 7.697547557008282e-01	 1.331531705947807e+01
 1.720100867799294e+00	 7.860140092677468e-01	 1.331551534895287e+01
 1.712597657276366e+00	 8.022308547950969e-01	 1.330620647189147e+01
 1.704928727221485e+00	 8.184028321963254e-01	 1.328703595243160e+01
 1.782423393395677e+00	 6.580134892308822e-01	 1.318614626950831e+01
 1.776220449164800e+00	 6.745781942604032e-01	 1.319951859123902e+01
 1.769850702441976e+00	 6.911173933248602e-01	 1.321261388071277e+01
 1.763314032094718e+00	 7.076286724261931e-01	 1.322675103186897e+01
 1.756610361789429e+00	 7.241096062534321e-01	 1.324313744130740e+01
 1.749739660461979e+00	 7.405577591826311e-01	 1.326287357934802e+01
 1.742701942762565e+00	 7.569706862954361e-01	 1.328040240695563e+01
 1.735497269474131e+00	 7.733459344155724e-01	 1.328922529129503e+01
 1.728125747903544e+00	 7.896810431624701e-01	 1.328920964343579e+01
 1.720587532244843e+00	 8.059735460212316e-01	 1.328010063818039e+01
 1.712882823913839e+00	 8.222209714281085e-01	 1.326153235605357e+01
 1.790700414927322e+00	 6.610690998318429e-01	 1.315301238231120e+01
 1.784468666146862e+00	 6.777107262150124e-01	 1.316849191850471e+01
 1.778069340295493e+00	 6.943267281914407e-01	 1.318350429903764e+01
 1.771502315678212e+00	 7.109146805531854e-01	 1.319940894328288e+01
 1.764767515606941e+00	 7.274721467268629e-01	 1.321744855090117e+01
 1.757864908873280e+00	 7.439966797782196e-01	 1.323850583117415e+01
 1.750794510195449e+00	 7.604858234354371e-01	 1.325514814975826e+01
 1.743556380638632e+00	 7.769371131304262e-01	 1.326346376621968e+01
 1.736150628007981e+00	 7.933480770573488e-01	 1.326331275101108e+01
 1.728577407213554e+00	 8.097162372475533e-01	 1.325442539144188e+01
 1.720836920606459e+00	 8.260391106600911e-01	 1.323641362426542e+01
 1.798977436458766e+00	 6.641247104326712e-01	 1.312130653927237e+01
 1.792716883128748e+00	 6.808432581694953e-01	 1.313852189071820e+01
 1.786287978148868e+00	 6.975360630579137e-01	 1.315517270202311e+01
 1.779690599261606e+00	 7.142006886800998e-01	 1.317263532137025e+01
 1.772924669424397e+00	 7.308346872002509e-01	 1.319216550002851e+01
 1.765990157284573e+00	 7.474356003738056e-01	 1.321392278660374e+01
 1.758887077628368e+00	 7.640009605754744e-01	 1.322979851700740e+01
 1.751615491803209e+00	 7.805282918453531e-01	 1.323772162392064e+01
 1.744175508112531e+00	 7.970151109523312e-01	 1.323753067742273e+01
 1.736567282182402e+00	 8.134589284739997e-01	 1.322892909422996e+01
 1.728791017299227e+00	 8.298572498922063e-01	 1.321149633827551e+01
 1.807254457990109e+00	 6.671803210334327e-01	 1.309121593954886e+01
 1.800965100110545e+00	 6.839757901239151e-01	 1.310964411969173e+01
 1.794506616002171e+00	 7.007453979243333e-01	 1.312752665142477e+01
 1.787878882844947e+00	 7.174866968069751e-01	 1.314623354372109e+01
 1.781081823241821e+00	 7.341972276736178e-01	 1.316701165414169e+01
 1.774115405695855e+00	 7.508745209693893e-01	 1.318887914521034e+01
 1.766979645061297e+00	 7.675160977155304e-01	 1.320407584933713e+01
 1.759674602967811e+00	 7.841194705603169e-01	 1.321171252965047e+01
 1.752200388217115e+00	 8.006821448473654e-01	 1.321159305216046e+01
 1.744557157151288e+00	 8.172016197005080e-01	 1.320338237329938e+01
 1.736745113992029e+00	 8.336753891243879e-01	 1.318661752628363e+01
 1.815531479521452e+00	 6.702359316341945e-01	 1.306294098564206e+01
 1.809213317092343e+00	 6.871083220783347e-01	 1.308191102045870e+01
 1.802725253855475e+00	 7.039547327907528e-01	 1.310049370933511e+01
 1.796067166428287e+00	 7.207727049338504e-01	 1.312002977623643e+01
 1.789238977059240e+00	 7.375597681469845e-01	 1.314173553957877e+01
 1.782240654107128e+00	 7.543134415649738e-01	 1.316315417492706e+01
 1.775072212494208e+00	 7.710312348555861e-01	 1.317772648483190e+01
 1.767733714132385e+00	 7.877106492752801e-01	 1.318517367058882e+01
 1.760225268321657e+00	 8.043491787423995e-01	 1.318525210465859e+01
 1.752547032120114e+00	 8.209443109270164e-01	 1.317757708686962e+01
 1.744699210684749e+00	 8.374935283565698e-01	 1.316163363316073e+01
 1.823808501052896e+00	 6.732915422350229e-01	 1.303669542673122e+01
 1.817461534074229e+00	 6.902408540328180e-01	 1.305539189466699e+01
 1.810943891708848e+00	 7.071640676572262e-01	 1.307402147164091e+01
 1.804255450011673e+00	 7.240587130607646e-01	 1.309387296678561e+01
 1.797396130876680e+00	 7.409223086203730e-01	 1.311611000292558e+01
 1.790365902518390e+00	 7.577523621605593e-01	 1.313655024514083e+01
 1.783164779927075e+00	 7.745463719956235e-01	 1.315051979208447e+01
 1.775792825296878e+00	 7.913018279902072e-01	 1.315786475790476e+01
 1.768250148426081e+00	 8.080162126373820e-01	 1.315828164613386e+01
 1.760536907088782e+00	 8.246870021534625e-01	 1.315132529715462e+01
 1.752653307377271e+00	 8.413116675886849e-01	 1.313641949472362e+01
 1.832085522584540e+00	 6.763471528359838e-01	 1.301270650037003e+01
 1.825709751056291e+00	 6.933733859874273e-01	 1.303017301416366e+01
 1.819162529562362e+00	 7.103734025238065e-01	 1.304807760323653e+01
 1.812443733595157e+00	 7.273447211877574e-01	 1.306763484192171e+01
 1.805553284694165e+00	 7.442848490938035e-01	 1.308972802772570e+01
 1.798491150929641e+00	 7.611912827561479e-01	 1.310889190621488e+01
 1.791257347359871e+00	 7.780615091356247e-01	 1.312224720858756e+01
 1.783851936461238e+00	 7.948930067050608e-01	 1.312956703435722e+01
 1.776275028530309e+00	 8.116832465322605e-01	 1.313047605688344e+01
 1.768526782057194e+00	 8.284296933797841e-01	 1.312445824798981e+01
 1.760607404069479e+00	 8.451298068206674e-01	 1.311086731645911e+01
 1.840362544116487e+00	 6.794027634371440e-01	 1.299121507259849e+01
 1.833957968038617e+00	 6.965059179422266e-01	 1.300635770476434e+01
 1.827381167416087e+00	 7.135827373905478e-01	 1.302264987493948e+01
 1.820632017178787e+00	 7.306307293148669e-01	 1.304120990655706e+01
 1.813710438511722e+00	 7.476473895672974e-01	 1.306230633579061e+01
 1.806616399340881e+00	 7.646302033517413e-01	 1.308002497371024e+01
 1.799349914792569e+00	 7.815766462755710e-01	 1.309272128429223e+01
 1.791911047625413e+00	 7.984841854198050e-01	 1.310008228725904e+01
 1.784299908634266e+00	 8.153502804269840e-01	 1.310164927887090e+01
 1.776516657025253e+00	 8.321723846059189e-01	 1.309682534739681e+01
 1.768561500761259e+00	 8.489479460524503e-01	 1.308488565655612e+01
 1.848639565648836e+00	 6.824583740385707e-01	 1.297247577651955e+01
 1.842206185021296e+00	 6.996384498972793e-01	 1.298406643020251e+01
 1.835599805270095e+00	 7.167920722575036e-01	 1.299774620205490e+01
 1.828820300762612e+00	 7.339167374421329e-01	 1.301451544650907e+01
 1.821867592329375e+00	 7.510099300408764e-01	 1.303376621943879e+01
 1.814741647752110e+00	 7.680691239473409e-01	 1.304981561715899e+01
 1.807442482225145e+00	 7.850917834154445e-01	 1.306177473016978e+01
 1.799970158789351e+00	 8.020753641344032e-01	 1.306923186663547e+01
 1.792324788737874e+00	 8.190173143215005e-01	 1.307163381343335e+01
 1.784506531992859e+00	 8.359150758318045e-01	 1.306829315492909e+01
 1.776515597452493e+00	 8.527660852839679e-01	 1.305839841311077e+01
 1.696974630529512e+00	 8.145846929648082e-01	 1.331312931424904e+01
 1.689178118260765e+00	 8.306313869384492e-01	 1.329305389129316e+01
 1.681217254867131e+00	 8.466285306676240e-01	 1.328183131500402e+01
 1.673092380572644e+00	 8.625736674957397e-01	 1.327728576316348e+01
 1.664803883388218e+00	 8.784643401719195e-01	 1.327715709628399e+01
 1.656352199292954e+00	 8.942980919892130e-01	 1.327912722986884e+01
 1.647737812383569e+00	 9.100724679326290e-01	 1.328084931141126e+01
 1.638961254991470e+00	 9.257850158359557e-01	 1.327997972788325e+01
 1.630023107767036e+00	 9.414332875463270e-01	 1.327421295265833e+01
 1.620923999730693e+00	 9.570148400954669e-01	 1.326131922305902e+01
 1.611664608290443e+00	 9.725272368765220e-01	 1.323918502111394e+01
 1.704928727221485e+00	 8.184028321963254e-01	 1.328703595243160e+01
 1.697095670969706e+00	 8.345247405858770e-01	 1.326785955556918e+01
 1.689097493242846e+00	 8.505968664779323e-01	 1.325741039265387e+01
 1.680934535859641e+00	 8.666167417010110e-01	 1.325351422384625e+01
 1.672607188649691e+00	 8.825818974865597e-01	 1.325390958603880e+01
 1.664115889635622e+00	 8.984898656125029e-01	 1.325627430498758e+01
 1.655461125183213e+00	 9.143381795566544e-01	 1.325825489140741e+01
 1.646643430119026e+00	 9.301243756589617e-01	 1.325749885030755e+01
 1.637663387815065e+00	 9.458459942915269e-01	 1.325168991561488e+01
 1.628521630240110e+00	 9.615005810353460e-01	 1.323858620392260e+01
 1.619218837977321e+00	 9.770856878626532e-01	 1.321606126210087e+01
 1.712882823913839e+00	 8.222209714281085e-01	 1.326153235605357e+01
 1.705013223679053e+00	 8.384180942335565e-01	 1.324308202640926e+01
 1.696977731618971e+00	 8.545652022884529e-01	 1.323322778674949e+01
 1.688776691147035e+00	 8.706598159064300e-01	 1.322980910826178e+01
 1.680410493911535e+00	 8.866994548012653e-01	 1.323057433339517e+01
 1.671879579978630e+00	 9.026816392357642e-01	 1.323320729066509e+01
 1.663184437983164e+00	 9.186038911805489e-01	 1.323535687544745e+01
 1.654325605246851e+00	 9.344637354817299e-01	 1.323466962975676e+01
 1.645303667863333e+00	 9.502587010363841e-01	 1.322882533634460e+01
 1.636119260749749e+00	 9.659863219747828e-01	 1.321557562377609e+01
 1.626773067664415e+00	 9.816441388482542e-01	 1.319278555953601e+01
 1.720836920606459e+00	 8.260391106600911e-01	 1.323641362426542e+01
 1.712930776388675e+00	 8.423114478814255e-01	 1.321859481564810e+01
 1.704857969995367e+00	 8.585335380991310e-01	 1.320922561187931e+01
 1.696618846434682e+00	 8.747028901119597e-01	 1.320617129456051e+01
 1.688213799173609e+00	 8.908170121160215e-01	 1.320720110989699e+01
 1.679643270321835e+00	 9.068734128590045e-01	 1.321001494847009e+01
 1.670907750783279e+00	 9.228696028043454e-01	 1.321227307585432e+01
 1.662007780374811e+00	 9.388030953043197e-01	 1.321162895099199e+01
 1.652943947911714e+00	 9.546714077809840e-01	 1.320576515113746e+01
 1.643716891259486e+00	 9.704720629138887e-01	 1.319243240302640e+01
 1.634327297351610e+00	 9.862025898334583e-01	 1.316949169980049e+01
 1.728791017299227e+00	 8.298572498922063e-01	 1.321149633827551e+01
 1.720848329098446e+00	 8.462048015294210e-01	 1.319429096463328e+01
 1.712738208371899e+00	 8.625018739099153e-01	 1.318536376820869e+01
 1.704461001722444e+00	 8.787459643175632e-01	 1.318261791769518e+01
 1.696017104435768e+00	 8.949345694308106e-01	 1.318385463656939e+01
 1.687406960665095e+00	 9.110651864822303e-01	 1.318679990959865e+01
 1.678631063583420e+00	 9.271353144280755e-01	 1.318913432791295e+01
 1.669689955502773e+00	 9.431424551267908e-01	 1.318852611367181e+01
 1.660584227960080e+00	 9.590841145254129e-01	 1.318266734680647e+01
 1.651314521769201e+00	 9.749578038527736e-01	 1.316931339667034e+01
 1.641881527038787e+00	 9.907610408183972e-01	 1.314632554077509e+01
 1.736745113992029e+00	 8.336753891243879e-01	 1.318661752628363e+01
 1.728765881808237e+00	 8.500981551774791e-01	 1.317008201634717e+01
 1.720618446748428e+00	 8.664702097207524e-01	 1.316161891719306e+01
 1.712303157010177e+00	 8.827890385232040e-01	 1.315918134510898e+01
 1.703820409697871e+00	 8.990521267456166e-01	 1.316061355594676e+01
 1.695170651008271e+00	 9.152569601054497e-01	 1.316367763959158e+01
 1.686354376383450e+00	 9.314010260517734e-01	 1.316608344361082e+01
 1.677372130630603e+00	 9.474818149492026e-01	 1.316552177143628e+01
 1.668224508008301e+00	 9.634968212697557e-01	 1.315970088142305e+01
 1.658912152278770e+00	 9.794435447915477e-01	 1.314638629297918e+01
 1.649435756725832e+00	 9.953194918032041e-01	 1.312344388476258e+01
 1.744699210684749e+00	 8.374935283565698e-01	 1.316163363316073e+01
 1.736683434517918e+00	 8.539915088255371e-01	 1.314589699148527e+01
 1.728498685124819e+00	 8.704385455315894e-01	 1.313798346057242e+01
 1.720145312297740e+00	 8.868321127288447e-01	 1.313590815514527e+01
 1.711623714959772e+00	 9.031696840604224e-01	 1.313756940638056e+01
 1.702934341351219e+00	 9.194487337286685e-01	 1.314077540500746e+01
 1.694077689183231e+00	 9.356667376754709e-01	 1.314327416713027e+01
 1.685054305758168e+00	 9.518211747716140e-01	 1.314278687266054e+01
 1.675864788056249e+00	 9.679095280140982e-01	 1.313704460676326e+01
 1.666509782788071e+00	 9.839292857303222e-01	 1.312382851405989e+01
 1.656989986412625e+00	 9.998779427880106e-01	 1.310101335357756e+01
 1.752653307377271e+00	 8.413116675886849e-01	 1.313641949472362e+01
 1.744600987227362e+00	 8.578848624735322e-01	 1.312168136836605e+01
 1.736378923500933e+00	 8.744068813423735e-01	 1.311446452254309e+01
 1.727987467584991e+00	 8.908751869344482e-01	 1.311285811809219e+01
 1.719427020221330e+00	 9.072872413752120e-01	 1.311482559855283e+01
 1.710698031693797e+00	 9.236405073518947e-01	 1.311823124198785e+01
 1.701801001982623e+00	 9.399324492992017e-01	 1.312087013203595e+01
 1.692736480885333e+00	 9.561605345940853e-01	 1.312050160282431e+01
 1.683505068103797e+00	 9.723222347585270e-01	 1.311488619240981e+01
 1.674107413296981e+00	 9.884150266692067e-01	 1.310182611823144e+01
 1.664544216099050e+00	 1.004436393772950e+00	 1.307920926573279e+01
 1.760607404069479e+00	 8.451298068206674e-01	 1.311086731645911e+01
 1.752518539936439e+00	 8.617782161214010e-01	 1.309739606654907e+01
 1.744259161876635e+00	 8.783752171530522e-01	 1.309108293500464e+01
 1.735829622871788e+00	 8.949182611399782e-01	 1.309010317977767e+01
 1.727230325482402e+00	 9.114047986899676e-01	 1.309249639412505e+01
 1.718461722035865e+00	 9.278322809751353e-01	 1.309619292665400e+01
 1.709524314781487e+00	 9.441981609229977e-01	 1.309904382010281e+01
 1.700418656011965e+00	 9.604998944166752e-01	 1.309885432844490e+01
 1.691145348150817e+00	 9.767349415031269e-01	 1.309342105145601e+01
 1.681705043805379e+00	 9.929007676083125e-01	 1.308057270415853e+01
 1.672098445784992e+00	 1.008994844758154e+00	 1.305821451565501e+01
 1.768561500761259e+00	 8.489479460524503e-01	 1.308488565655612e+01
 1.760436092645022e+00	 8.656715697690809e-01	 1.307301643404529e+01
 1.752139400251785e+00	 8.823435529635717e-01	 1.306787222578511e+01
 1.743671778157990e+00	 8.989613353453968e-01	 1.306772644763387e+01
 1.735033630742844e+00	 9.155223560046739e-01	 1.307070588645438e+01
 1.726225412377278e+00	 9.320240545983967e-01	 1.307481694727688e+01
 1.717247627579685e+00	 9.484638725468920e-01	 1.307797552173205e+01
 1.708100831137931e+00	 9.648392542394437e-01	 1.307804054252387e+01
 1.698785628197180e+00	 9.811476482479842e-01	 1.307285126776015e+01
 1.689302674313143e+00	 9.973865085477501e-01	 1.306026831668525e+01
 1.679652675470333e+00	 1.013553295743755e+00	 1.303821845486519e+01
 1.776515597452493e+00	 8.527660852839679e-01	 1.305839841311077e+01
 1.768353645352981e+00	 8.695649234165084e-01	 1.304853123800494e+01
 1.760019638626250e+00	 8.863118887738806e-01	 1.304487760974978e+01
 1.751513933443456e+00	 9.030044095506682e-01	 1.304582117915277e+01
 1.742836936002513e+00	 9.196399133193138e-01	 1.304958698331169e+01
 1.733989102717897e+00	 9.362158282216865e-01	 1.305426747816333e+01
 1.724970940377082e+00	 9.527295841709179e-01	 1.305785229790427e+01
 1.715783006263097e+00	 9.691786140624498e-01	 1.305826181145838e+01
 1.706425908242760e+00	 9.855603549931850e-01	 1.305338452470067e+01
 1.696900304820150e+00	 1.001872249487630e+00	 1.304111835431516e+01
 1.687206905154955e+00	 1.018111746729887e+00	 1.301941577506027e+01
 1.611664608290443e+00	 9.725272368765220e-01	 1.323918502111394e+01
 1.602245659614925e+00	 9.879680491332032e-01	 1.320948182888618e+01
 1.592667929744381e+00	 1.003334858087005e+00	 1.317532191066859e+01
 1.582932243324602e+00	 1.018625255233427e+00	 1.313713293525097e+01
 1.573039473094003e+00	 1.033836843225697e+00	 1.309573846527229e+01
 1.562990539726966e+00	 1.048967237061314e+00	 1.305240939187896e+01
 1.552786411642341e+00	 1.064014065267221e+00	 1.300891743749148e+01
 1.542428104777079e+00	 1.078974971082447e+00	 1.296759055609304e+01
 1.531916682324971e+00	 1.093847613636997e+00	 1.293137003940651e+01
 1.521253254440523e+00	 1.108629669125836e+00	 1.290386911655307e+01
 1.510438977908069e+00	 1.123318831976734e+00	 1.288842032853402e+01
 1.619218837977321e+00	 9.770856878626532e-01	 1.321606126210087e+01
 1.609755740599045e+00	 9.925988746330442e-01	 1.318628268498072e+01
 1.600133117783002e+00	 1.008037711230660e+00	 1.315278978941422e+01
 1.590351798040284e+00	 1.023399777861803e+00	 1.311588571253334e+01
 1.580412658200036e+00	 1.038682665942803e+00	 1.307625991005571e+01
 1.570316623252049e+00	 1.053883979292119e+00	 1.303504068253350e+01
 1.560064666154375e+00	 1.069001335321072e+00	 1.299384987822316e+01
 1.549657807605893e+00	 1.084032366222025e+00	 1.295485959994315e+01
 1.539097115783824e+00	 1.098974720152806e+00	 1.292085072153127e+01
 1.528383706046224e+00	 1.113826062416185e+00	 1.289526142646840e+01
 1.517518740599537e+00	 1.128584076633202e+00	 1.288091892304228e+01
 1.626773067664415e+00	 9.816441388482542e-01	 1.319278555953601e+01
 1.617265821583394e+00	 9.972297001322822e-01	 1.316305154799920e+01
 1.607598305821880e+00	 1.012740564373654e+00	 1.313026512377559e+01
 1.597771352756269e+00	 1.028174300489476e+00	 1.309459728403012e+01
 1.587785843306425e+00	 1.043528488659176e+00	 1.305659595385581e+01
 1.577642706777550e+00	 1.058800721522175e+00	 1.301723962522798e+01
 1.567342920666891e+00	 1.073988605374169e+00	 1.297799328348145e+01
 1.556887510435255e+00	 1.089089761360856e+00	 1.294086644662763e+01
 1.546277549243292e+00	 1.104101826667885e+00	 1.290847312035167e+01
 1.535514157652602e+00	 1.119022455705831e+00	 1.288411708864670e+01
 1.524598503291736e+00	 1.133849321289002e+00	 1.287048388786766e+01
 1.634327297351610e+00	 9.862025898334583e-01	 1.316949169980049e+01
 1.624775902567862e+00	 1.001860525631068e+00	 1.313991006335881e+01
 1.615063493860911e+00	 1.017443417516154e+00	 1.310786562122496e+01
 1.605190907472450e+00	 1.032948823116622e+00	 1.307338970281924e+01
 1.595159028413066e+00	 1.048374311375000e+00	 1.303688134115900e+01
 1.584968790303364e+00	 1.063717463751668e+00	 1.299916204539305e+01
 1.574621175179788e+00	 1.078975875426700e+00	 1.296153297422065e+01
 1.564117213265066e+00	 1.094147156499127e+00	 1.292583433346349e+01
 1.553457982703275e+00	 1.109228933182416e+00	 1.289450679784029e+01
 1.542644609259557e+00	 1.124218848994950e+00	 1.287103270169519e+01
 1.531678265984568e+00	 1.139114565944303e+00	 1.285777756315927e+01
 1.641881527038787e+00	 9.907610408183972e-01	 1.314632554077509e+01
 1.632285983552334e+00	 1.006491351129553e+00	 1.311699217306968e+01
 1.622528681899983e+00	 1.022146270658324e+00	 1.308572143216712e+01
 1.612610462188723e+00	 1.037723345743415e+00	 1.305239753310102e+01
 1.602532213519856e+00	 1.053220134090457e+00	 1.301726331806858e+01
 1.592294873829391e+00	 1.068634205980787e+00	 1.298097618317400e+01
 1.581899429692964e+00	 1.083963145478854e+00	 1.294466652195101e+01
 1.571346916095225e+00	 1.099204551637025e+00	 1.290999850688521e+01
 1.560638416163673e+00	 1.114356039696582e+00	 1.287929679134289e+01
 1.549775060866989e+00	 1.129415242283717e+00	 1.285660055069181e+01
 1.538758028677931e+00	 1.144379810599269e+00	 1.284343502963035e+01
 1.649435756725832e+00	 9.953194918032041e-01	 1.312344388476258e+01
 1.639796064536700e+00	 1.011122176627887e+00	 1.309444296303920e+01
 1.629993869938989e+00	 1.026849123800328e+00	 1.306397397566935e+01
 1.620030016904980e+00	 1.042497868370034e+00	 1.303176665845363e+01
 1.609905398626689e+00	 1.058065956805731e+00	 1.299790042723673e+01
 1.599620957355527e+00	 1.073550948209718e+00	 1.296286147923857e+01
 1.589177684206319e+00	 1.088950415530820e+00	 1.292760252966367e+01
 1.578576618925632e+00	 1.104261946774735e+00	 1.289360500276664e+01
 1.567818849624387e+00	 1.119483146210567e+00	 1.286346737420454e+01
 1.556905512474797e+00	 1.134611635572308e+00	 1.284138676313223e+01
 1.545837791371726e+00	 1.149645055254069e+00	 1.282806451535014e+01
 1.656989986412625e+00	 9.998779427880106e-01	 1.310101335357755e+01
 1.647306145520848e+00	 1.015753002126221e+00	 1.307241751285465e+01
 1.637459057977820e+00	 1.031551976942333e+00	 1.304277476789584e+01
 1.627449571621117e+00	 1.047272390996652e+00	 1.301165309293301e+01
 1.617278583733465e+00	 1.062911779521005e+00	 1.297896130569555e+01
 1.606947040881672e+00	 1.078467690438650e+00	 1.294500736345036e+01
 1.596455938719752e+00	 1.093937685582786e+00	 1.291055941550017e+01
 1.585806321756186e+00	 1.109319341912445e+00	 1.287690942927803e+01
 1.574999283085314e+00	 1.124610252724550e+00	 1.284754131443504e+01
 1.564035964082883e+00	 1.139808028860900e+00	 1.282593169941201e+01
 1.552917554065853e+00	 1.154910299908869e+00	 1.281224780392192e+01
 1.664544216099050e+00	 1.004436393772950e+00	 1.307920926573279e+01
 1.654816226504664e+00	 1.020383827624706e+00	 1.305107974796442e+01
 1.644924246016367e+00	 1.036254830084502e+00	 1.302228425315959e+01
 1.634869126337027e+00	 1.052046913623446e+00	 1.299222179492702e+01
 1.624651768840077e+00	 1.067757602236462e+00	 1.296062348549386e+01
 1.614273124407722e+00	 1.083384432667768e+00	 1.292761204631569e+01
 1.603734193233162e+00	 1.098924955634940e+00	 1.289376419907771e+01
 1.593036024586787e+00	 1.114376737050343e+00	 1.286029762470350e+01
 1.582179716546356e+00	 1.129737359238717e+00	 1.283200067587339e+01
 1.571166415691146e+00	 1.145004422149667e+00	 1.281075034511347e+01
 1.559997316760212e+00	 1.160175544563835e+00	 1.279654064400266e+01
 1.672098445784992e+00	 1.008994844758154e+00	 1.305821451565501e+01
 1.662326307488035e+00	 1.025014653123492e+00	 1.303060129418000e+01
 1.652389434054523e+00	 1.040957683227002e+00	 1.300267063750809e+01
 1.642288681052605e+00	 1.056821436250591e+00	 1.297364548367421e+01
 1.632024953946423e+00	 1.072603424952286e+00	 1.294307219704976e+01
 1.621599207933577e+00	 1.088301174897262e+00	 1.291088131311460e+01
 1.611012447746446e+00	 1.103912225687471e+00	 1.287745129038502e+01
 1.600265727417335e+00	 1.119434132188614e+00	 1.284453233698833e+01
 1.589360150007411e+00	 1.134864465753248e+00	 1.281730304119930e+01
 1.578296867299485e+00	 1.150200815438786e+00	 1.279633270503791e+01
 1.567077079454702e+00	 1.165440789219135e+00	 1.278147316012218e+01
 1.679652675470333e+00	 1.013553295743755e+00	 1.303821845486519e+01
 1.669836388470852e+00	 1.029645478622731e+00	 1.301116033442582e+01
 1.659854622092178e+00	 1.045660536369997e+00	 1.298410872476118e+01
 1.649708235767744e+00	 1.061595958878264e+00	 1.295610345836297e+01
 1.639398139052400e+00	 1.077449247668659e+00	 1.292649917513124e+01
 1.628925291459133e+00	 1.093217917127318e+00	 1.289502732062953e+01
 1.618290702259505e+00	 1.108899495740568e+00	 1.286186128116566e+01
 1.607495430247728e+00	 1.124491527327446e+00	 1.283005558981081e+01
 1.596540583468382e+00	 1.139991572268327e+00	 1.280388189377451e+01
 1.585427318907801e+00	 1.155397208728432e+00	 1.278314419893126e+01
 1.574156842149224e+00	 1.170706033874936e+00	 1.276755026476170e+01
 1.687206905154955e+00	 1.018111746729887e+00	 1.301941577506027e+01
 1.677346469453000e+00	 1.034276304122572e+00	 1.299294046766381e+01
 1.667319810129224e+00	 1.050363389513653e+00	 1.296677875492351e+01
 1.657127790482340e+00	 1.066370481506641e+00	 1.293978041972777e+01
 1.646771324157903e+00	 1.082295070385765e+00	 1.291110146738262e+01
 1.636251374984289e+00	 1.098134659358124e+00	 1.288026739639044e+01
 1.625568956772238e+00	 1.113886765794420e+00	 1.284735390216938e+01
 1.614725133077868e+00	 1.129548922467025e+00	 1.281725309257768e+01
 1.603721016929166e+00	 1.145118678784137e+00	 1.279214700146386e+01
 1.592557770515995e+00	 1.160593602018781e+00	 1.277162605884785e+01
 1.581236604843679e+00	 1.175971278531404e+00	 1.275525207165160e+01
 1.510438977908069e+00	 1.123318831976734e+00	 1.288842032853402e+01
 1.499473180174970e+00	 1.137915287531046e+00	 1.287156460907655e+01
 1.488358941701999e+00	 1.152414256790601e+00	 1.284018648541215e+01
 1.477097563724953e+00	 1.166813486306054e+00	 1.279573116398646e+01
 1.465690392502321e+00	 1.181110745424474e+00	 1.274155739455130e+01
 1.454138818810631e+00	 1.195303827413987e+00	 1.267964499608638e+01
 1.442444277406394e+00	 1.209390550575254e+00	 1.261101342734029e+01
 1.430608246455096e+00	 1.223368759338615e+00	 1.253620675681920e+01
 1.418632246927650e+00	 1.237236325345754e+00	 1.245534589853274e+01
 1.406517841964842e+00	 1.250991148514776e+00	 1.236818661835280e+01
 1.394266636210279e+00	 1.264631158087561e+00	 1.227418296550997e+01
 1.517518740599537e+00	 1.128584076633202e+00	 1.288091892304228e+01
 1.506501543738727e+00	 1.143248949013946e+00	 1.286494563737393e+01
 1.495335210363370e+00	 1.157815878160022e+00	 1.283454711383225e+01
 1.484021047808442e+00	 1.172282600059670e+00	 1.279091658130487e+01
 1.472560408642650e+00	 1.186646873604397e+00	 1.273618441727843e+01
 1.460954690161394e+00	 1.200906481718889e+00	 1.267372503909415e+01
 1.449205333846210e+00	 1.215059232477700e+00	 1.260473842265949e+01
 1.437313824791073e+00	 1.229102960207538e+00	 1.252985804757206e+01
 1.425281691096022e+00	 1.243035526574004e+00	 1.244927429324032e+01
 1.413110503228631e+00	 1.256854821651652e+00	 1.236279407795282e+01
 1.400801873353830e+00	 1.270558764976264e+00	 1.226990612666238e+01
 1.524598503291736e+00	 1.133849321289002e+00	 1.287048388786766e+01
 1.513529907303260e+00	 1.148582610496222e+00	 1.285498626789241e+01
 1.502311479025553e+00	 1.163217499528870e+00	 1.282519833564790e+01
 1.490944531892771e+00	 1.177751713812772e+00	 1.278226901944384e+01
 1.479430424783833e+00	 1.192183001783869e+00	 1.272743233965901e+01
 1.467770561513018e+00	 1.206509136023409e+00	 1.266403443315119e+01
 1.455966390286883e+00	 1.220727914379837e+00	 1.259436639351129e+01
 1.444019403127893e+00	 1.234837161076229e+00	 1.251916451692976e+01
 1.431931135265215e+00	 1.248834727802100e+00	 1.243870089918224e+01
 1.419703164493211e+00	 1.262718494788459e+00	 1.235284473122145e+01
 1.407337110498131e+00	 1.276486371864982e+00	 1.226112943358353e+01
 1.531678265984568e+00	 1.139114565944303e+00	 1.285777756315927e+01
 1.520558270868471e+00	 1.153916271978030e+00	 1.284239590962409e+01
 1.509287747688447e+00	 1.168619120897289e+00	 1.281289517356551e+01
 1.497868015977838e+00	 1.183220827565488e+00	 1.277039104011398e+01
 1.486300440925771e+00	 1.197719129963005e+00	 1.271603551716835e+01
 1.474586432865403e+00	 1.212111790327644e+00	 1.265161933821210e+01
 1.462727446728315e+00	 1.226396596281746e+00	 1.258095779744252e+01
 1.450724981465461e+00	 1.240571361944754e+00	 1.250520058445697e+01
 1.438580579435138e+00	 1.254633929030095e+00	 1.242471357573139e+01
 1.426295825758493e+00	 1.268582167925229e+00	 1.233943914237147e+01
 1.413872347643098e+00	 1.282413978753733e+00	 1.224896518248917e+01
 1.538758028677931e+00	 1.144379810599269e+00	 1.284343502963035e+01
 1.527586634434259e+00	 1.159249933459527e+00	 1.282785593408846e+01
 1.516264016351956e+00	 1.174020742265423e+00	 1.279836386219775e+01
 1.504791500063544e+00	 1.188689941317948e+00	 1.275605216049418e+01
 1.493170457068364e+00	 1.203255258141917e+00	 1.270205271742115e+01
 1.481402304218453e+00	 1.217714444631694e+00	 1.263752114409271e+01
 1.469488503170413e+00	 1.232065278183510e+00	 1.256556755880510e+01
 1.457430559803687e+00	 1.246305562813177e+00	 1.248903456330438e+01
 1.445230023605701e+00	 1.260433130258036e+00	 1.240839369354632e+01
 1.432888487024391e+00	 1.274445841061997e+00	 1.232367119604106e+01
 1.420407584788649e+00	 1.288341585642535e+00	 1.223451899056581e+01
 1.545837791371726e+00	 1.149645055254069e+00	 1.282806451535014e+01
 1.534614998000523e+00	 1.164583594940868e+00	 1.281202010105374e+01
 1.523240285015977e+00	 1.179422363633412e+00	 1.278230229136143e+01
 1.511714984149790e+00	 1.194159055070281e+00	 1.273999284889203e+01
 1.500040473211515e+00	 1.208791386320720e+00	 1.268621421526973e+01
 1.488218175572069e+00	 1.223317098935656e+00	 1.262211416201931e+01
 1.476249559613076e+00	 1.237733960085210e+00	 1.254924297791276e+01
 1.464136138142472e+00	 1.252039763681564e+00	 1.247172658717498e+01
 1.451879467776811e+00	 1.266232331485970e+00	 1.239081408010011e+01
 1.439481148290814e+00	 1.280309514198792e+00	 1.230662606205366e+01
 1.426942821934699e+00	 1.294269192531402e+00	 1.221888778054681e+01
 1.552917554065853e+00	 1.154910299908869e+00	 1.281224780392192e+01
 1.541643361567165e+00	 1.169917256422209e+00	 1.279551498513340e+01
 1.530216553680411e+00	 1.184823985001404e+00	 1.276538044976399e+01
 1.518638468236475e+00	 1.199628168822615e+00	 1.272292498413039e+01
 1.506910489355124e+00	 1.214327514499528e+00	 1.266927211362904e+01
 1.495034046926153e+00	 1.228919753239628e+00	 1.260557229714288e+01
 1.483010616056212e+00	 1.243402641986929e+00	 1.253298640599349e+01
 1.470841716481725e+00	 1.257773964549979e+00	 1.245432653567792e+01
 1.458528911948376e+00	 1.272031532713947e+00	 1.237303696329152e+01
 1.446073809557678e+00	 1.286173187335648e+00	 1.228937815799270e+01
 1.433478059081167e+00	 1.300196799420353e+00	 1.220315776287215e+01
 1.559997316760212e+00	 1.160175544563835e+00	 1.279654064400267e+01
 1.548671725134085e+00	 1.175250917903706e+00	 1.277894040323106e+01
 1.537192822345158e+00	 1.190225606369539e+00	 1.274824086906621e+01
 1.525561952323501e+00	 1.205097282575082e+00	 1.270553231486360e+01
 1.513780505499092e+00	 1.219863642678457e+00	 1.265194974120382e+01
 1.501849918280609e+00	 1.234522407543708e+00	 1.258865658846012e+01
 1.489771672499723e+00	 1.249071323888746e+00	 1.251682770157206e+01
 1.477547294821350e+00	 1.263508165418487e+00	 1.243787195812673e+01
 1.465178356120306e+00	 1.277830733942015e+00	 1.235611191320623e+01
 1.452666470824892e+00	 1.292036860472597e+00	 1.227298910966651e+01
 1.440013296227967e+00	 1.306124406309403e+00	 1.218840241551425e+01
 1.567077079454702e+00	 1.165440789219135e+00	 1.278147316012218e+01
 1.555700088701180e+00	 1.180584579385515e+00	 1.276286984280547e+01
 1.544169091010119e+00	 1.195627227737962e+00	 1.273149906831140e+01
 1.532485436410767e+00	 1.210566396327809e+00	 1.268847091882844e+01
 1.520650521643320e+00	 1.225399770857619e+00	 1.263494212516418e+01
 1.508665789635336e+00	 1.240125061847996e+00	 1.257209927206805e+01
 1.496532728943512e+00	 1.254740005790745e+00	 1.250114122247550e+01
 1.484252873161254e+00	 1.269242366287154e+00	 1.242326086757039e+01
 1.471827800292510e+00	 1.283629935170223e+00	 1.234107378209352e+01
 1.459259132092370e+00	 1.297900533609671e+00	 1.225850570953703e+01
 1.446548533375018e+00	 1.312052013198571e+00	 1.217568046155219e+01
 1.574156842149224e+00	 1.170706033874936e+00	 1.276755026476170e+01
 1.562728452268355e+00	 1.185918240867792e+00	 1.274785089093157e+01
 1.551145359675193e+00	 1.201028849106815e+00	 1.271574399870730e+01
 1.539408920498175e+00	 1.216035510080927e+00	 1.267236966203037e+01
 1.527520537787710e+00	 1.230935899037128e+00	 1.261891646336427e+01
 1.515481660990239e+00	 1.245727716152589e+00	 1.255660416630732e+01
 1.503293785387483e+00	 1.260408687693009e+00	 1.248666557287168e+01
 1.490958451501341e+00	 1.274976567156046e+00	 1.241032767525168e+01
 1.478477244464895e+00	 1.289429136398619e+00	 1.232894064262154e+01
 1.465851793360023e+00	 1.303764206746903e+00	 1.224695787318269e+01
 1.453083770522235e+00	 1.317979620087872e+00	 1.216603384456989e+01
 1.581236604843679e+00	 1.175971278531404e+00	 1.275525207165160e+01
 1.569756815835507e+00	 1.191251902350693e+00	 1.273440566413183e+01
 1.558121628340282e+00	 1.206430470476242e+00	 1.270153848875175e+01
 1.546332404585625e+00	 1.221504623834564e+00	 1.265783065786874e+01
 1.534390553932164e+00	 1.236472027217100e+00	 1.260451259611833e+01
 1.522297532345219e+00	 1.251330370457584e+00	 1.254284715479107e+01
 1.510054841831539e+00	 1.266077369595616e+00	 1.247411087561699e+01
 1.497664029841520e+00	 1.280710768025226e+00	 1.239957451679251e+01
 1.485126688637370e+00	 1.295228337627252e+00	 1.232048296247688e+01
 1.472444454627765e+00	 1.309627879884325e+00	 1.223935659386568e+01
 1.459619007669536e+00	 1.323907226977324e+00	 1.216048570195573e+01
 1.394266636210279e+00	 1.264631158087561e+00	 1.227418296550997e+01
 1.381882388279096e+00	 1.278152028692061e+00	 1.218252985830622e+01
 1.369364693565589e+00	 1.291554099037546e+00	 1.210121244291410e+01
 1.356715253971548e+00	 1.304835415480692e+00	 1.202762909745552e+01
 1.343935809905084e+00	 1.317994057669907e+00	 1.195910437307986e+01
 1.331028139477010e+00	 1.331028139477010e+00	 1.189297455262769e+01
 1.317994057669907e+00	 1.343935809905085e+00	 1.182667586121937e+01
 1.304835415480692e+00	 1.356715253971548e+00	 1.175783474589982e+01
 1.291554099037545e+00	 1.369364693565589e+00	 1.168435961971671e+01
 1.278152028692060e+00	 1.381882388279097e+00	 1.160453344763362e+01
 1.264631158087562e+00	 1.394266636210279e+00	 1.151710653762576e+01
 1.400801873353830e+00	 1.270558764976264e+00	 1.226990612666238e+01
 1.388359577704215e+00	 1.284143010901814e+00	 1.217944102616072e+01
 1.375783209777603e+00	 1.297607899725179e+00	 1.209907629819217e+01
 1.363074479452979e+00	 1.310951468645877e+00	 1.202631212285459e+01
 1.350235135296129e+00	 1.324171788311199e+00	 1.195856866275006e+01
 1.337266963752267e+00	 1.337266963752267e+00	 1.189327414717455e+01
 1.324171788311199e+00	 1.350235135296129e+00	 1.182795572740329e+01
 1.310951468645877e+00	 1.363074479452979e+00	 1.176033250307728e+01
 1.297607899725179e+00	 1.375783209777604e+00	 1.168841009713562e+01
 1.284143010901814e+00	 1.388359577704215e+00	 1.161057613805520e+01
 1.270558764976264e+00	 1.400801873353830e+00	 1.152569599351659e+01
 1.407337110498131e+00	 1.276486371864982e+00	 1.226112943358353e+01
 1.394836767130033e+00	 1.290133993111668e+00	 1.217202818871454e+01
 1.382201725990261e+00	 1.303661700412999e+00	 1.209288737530452e+01
 1.369433704934989e+00	 1.317067521811333e+00	 1.202127107971308e+01
 1.356534460687683e+00	 1.330349518952845e+00	 1.195465542844951e+01
 1.343505788027957e+00	 1.343505788027958e+00	 1.189051931973076e+01
 1.330349518952846e+00	 1.356534460687683e+00	 1.182643805122385e+01
 1.317067521811333e+00	 1.369433704934989e+00	 1.176017922634970e+01
 1.303661700412999e+00	 1.382201725990261e+00	 1.168980029812455e+01
 1.290133993111668e+00	 1.394836767130033e+00	 1.161374709011028e+01
 1.276486371864982e+00	 1.407337110498131e+00	 1.153095261878395e+01
 1.413872347643098e+00	 1.282413978753733e+00	 1.224896518248917e+01
 1.401313956556475e+00	 1.296124975321627e+00	 1.216140864522467e+01
 1.388620242203491e+00	 1.309715501100996e+00	 1.208375587725535e+01
 1.375792930417513e+00	 1.323183574977036e+00	 1.201359728310438e+01
 1.362833786079690e+00	 1.336527249594811e+00	 1.194842560162283e+01
 1.349744612304036e+00	 1.349744612304036e+00	 1.188572940788913e+01
 1.336527249594811e+00	 1.362833786079690e+00	 1.182308964239037e+01
 1.323183574977036e+00	 1.375792930417513e+00	 1.175827853172503e+01
 1.309715501100996e+00	 1.388620242203492e+00	 1.168936024079789e+01
 1.296124975321626e+00	 1.401313956556475e+00	 1.161479257632155e+01
 1.282413978753734e+00	 1.413872347643098e+00	 1.153352904554415e+01
 1.420407584788649e+00	 1.288341585642535e+00	 1.223451899056581e+01
 1.407791145983461e+00	 1.302115957531690e+00	 1.214869330833299e+01
 1.395038758417221e+00	 1.315769301789156e+00	 1.207278629723959e+01
 1.382152155900488e+00	 1.329299628142963e+00	 1.200437738658846e+01
 1.369133111472095e+00	 1.342704980237059e+00	 1.194093685844483e+01
 1.355983436580455e+00	 1.355983436580455e+00	 1.187992224400215e+01
 1.342704980237059e+00	 1.369133111472094e+00	 1.181887788443743e+01
 1.329299628142963e+00	 1.382152155900489e+00	 1.175553700183391e+01
 1.315769301789156e+00	 1.395038758417222e+00	 1.168792560059287e+01
 1.302115957531690e+00	 1.407791145983461e+00	 1.161446749881878e+01
 1.288341585642535e+00	 1.420407584788649e+00	 1.153408977261555e+01
 1.426942821934699e+00	 1.294269192531402e+00	 1.221888778054681e+01
 1.414268335410914e+00	 1.308106939741863e+00	 1.213498470663557e+01
 1.401457274631381e+00	 1.321823102477469e+00	 1.206107543514671e+01
 1.388511381383852e+00	 1.335415681309091e+00	 1.199469140875936e+01
 1.375432436864842e+00	 1.348882710879555e+00	 1.193324165268008e+01
 1.362222260857169e+00	 1.362222260857169e+00	 1.187411219078789e+01
 1.348882710879555e+00	 1.375432436864842e+00	 1.181476876967665e+01
 1.335415681309090e+00	 1.388511381383852e+00	 1.175286221699072e+01
 1.321823102477469e+00	 1.401457274631381e+00	 1.168633573436875e+01
 1.308106939741863e+00	 1.414268335410915e+00	 1.161353340357215e+01
 1.294269192531402e+00	 1.426942821934699e+00	 1.153330916714986e+01
 1.433478059081167e+00	 1.300196799420353e+00	 1.220315776287215e+01
 1.420745524838758e+00	 1.314097921952147e+00	 1.212137498470540e+01
 1.407875790845899e+00	 1.327876903165925e+00	 1.204971041155486e+01
 1.394870606867539e+00	 1.341531734475394e+00	 1.198561075747198e+01
 1.381731762257876e+00	 1.355060441522263e+00	 1.192638524656602e+01
 1.368461085134135e+00	 1.368461085134135e+00	 1.186930817544863e+01
 1.355060441522264e+00	 1.381731762257876e+00	 1.181172493329001e+01
 1.341531734475394e+00	 1.394870606867540e+00	 1.175116078615978e+01
 1.327876903165925e+00	 1.407875790845899e+00	 1.168543170530376e+01
 1.314097921952146e+00	 1.420745524838758e+00	 1.161275649643596e+01
 1.300196799420352e+00	 1.433478059081167e+00	 1.153186946919992e+01
 1.440013296227967e+00	 1.306124406309403e+00	 1.218840241551425e+01
 1.427222714266913e+00	 1.320088904162543e+00	 1.210894390065926e+01
 1.414294307060703e+00	 1.333930703854511e+00	 1.203976667930027e+01
 1.401229832351486e+00	 1.347647787641850e+00	 1.197819625183188e+01
 1.388031087651143e+00	 1.361238172165149e+00	 1.192140373978977e+01
 1.374699909411304e+00	 1.374699909411304e+00	 1.186651172235750e+01
 1.361238172165149e+00	 1.388031087651143e+00	 1.181070368659955e+01
 1.347647787641850e+00	 1.401229832351486e+00	 1.175133637783542e+01
 1.333930703854511e+00	 1.414294307060703e+00	 1.168605430856718e+01
 1.320088904162542e+00	 1.427222714266913e+00	 1.161290566094909e+01
 1.306124406309403e+00	 1.440013296227967e+00	 1.153045879913584e+01
 1.446548533375018e+00	 1.312052013198571e+00	 1.217568046155219e+01
 1.433699903695301e+00	 1.326079886373054e+00	 1.209875682135028e+01
 1.420712823275722e+00	 1.339984504543216e+00	 1.203230603270643e+01
 1.407589057835629e+00	 1.353763840808436e+00	 1.197349614202282e+01
 1.394330413044587e+00	 1.367415902808178e+00	 1.191932209662576e+01
 1.380938733688632e+00	 1.380938733688631e+00	 1.186671498436251e+01
 1.367415902808178e+00	 1.394330413044587e+00	 1.181265504954484e+01
 1.353763840808435e+00	 1.407589057835629e+00	 1.175428775084617e+01
 1.339984504543216e+00	 1.420712823275722e+00	 1.168904209775033e+01
 1.326079886373053e+00	 1.433699903695301e+00	 1.161475047784072e+01
 1.312052013198571e+00	 1.446548533375018e+00	 1.152976916782580e+01
 1.453083770522235e+00	 1.317979620087872e+00	 1.216603384456989e+01
 1.440177093123845e+00	 1.332070868583682e+00	 1.209186271527013e+01
 1.427131339490886e+00	 1.346038305232031e+00	 1.202837461455269e+01
 1.413948283319904e+00	 1.359879893975125e+00	 1.197254412704863e+01
 1.400629738438151e+00	 1.373593633451312e+00	 1.192115217129852e+01
 1.387177557966071e+00	 1.387177557966071e+00	 1.187089877276152e+01
 1.373593633451312e+00	 1.400629738438151e+00	 1.181851978240099e+01
 1.359879893975124e+00	 1.413948283319904e+00	 1.176090678509106e+01
 1.346038305232029e+00	 1.427131339490886e+00	 1.169522941203824e+01
 1.332070868583682e+00	 1.440177093123845e+00	 1.161905924619857e+01
 1.317979620087872e+00	 1.453083770522235e+00	 1.153049448950000e+01
 1.459619007669536e+00	 1.323907226977324e+00	 1.216048570195573e+01
 1.446654282552467e+00	 1.338061850794431e+00	 1.208929214323866e+01
 1.433549855706123e+00	 1.352092105920942e+00	 1.202900092086110e+01
 1.420307508804248e+00	 1.365995947141896e+00	 1.197635737046112e+01
 1.406929063831782e+00	 1.379771364094519e+00	 1.192789073163323e+01
 1.393416382243579e+00	 1.393416382243579e+00	 1.188003058599335e+01
 1.379771364094519e+00	 1.406929063831782e+00	 1.182922741676699e+01
 1.365995947141896e+00	 1.420307508804248e+00	 1.177207651221674e+01
 1.352092105920941e+00	 1.433549855706123e+00	 1.170544440410669e+01
 1.338061850794431e+00	 1.446654282552468e+00	 1.162659700625000e+01
 1.323907226977324e+00	 1.459619007669536e+00	 1.153332859722154e+01
 1.264631158087562e+00	 1.394266636210279e+00	 1.151710653762576e+01
 1.250991148514777e+00	 1.406517841964841e+00	 1.142345988630402e+01
 1.237236325345755e+00	 1.418632246927651e+00	 1.132380310470262e+01
 1.223368759338615e+00	 1.430608246455096e+00	 1.121598786355575e+01
 1.209390550575255e+00	 1.442444277406394e+00	 1.109860401445980e+01
 1.195303827413988e+00	 1.454138818810630e+00	 1.097106792529171e+01
 1.181110745424474e+00	 1.465690392502321e+00	 1.083370720492829e+01
 1.166813486306055e+00	 1.477097563724952e+00	 1.068784118600998e+01
 1.152414256790601e+00	 1.488358941701999e+00	 1.054237036100549e+01
 1.137915287531047e+00	 1.499473180174970e+00	 1.042423158018334e+01
 1.123318831976734e+00	 1.510438977908068e+00	 1.033486116688782e+01
 1.270558764976264e+00	 1.400801873353830e+00	 1.152569599351659e+01
 1.256854821651652e+00	 1.413110503228630e+00	 1.143455771972508e+01
 1.243035526574004e+00	 1.425281691096021e+00	 1.133651486028413e+01
 1.229102960207538e+00	 1.437313824791072e+00	 1.122915650480304e+01
 1.215059232477701e+00	 1.449205333846210e+00	 1.111082080320942e+01
 1.200906481718890e+00	 1.460954690161393e+00	 1.098068684623895e+01
 1.186646873604398e+00	 1.472560408642650e+00	 1.083886287323809e+01
 1.172282600059671e+00	 1.484021047808442e+00	 1.068739033112295e+01
 1.157815878160022e+00	 1.495335210363369e+00	 1.055248205843873e+01
 1.143248949013947e+00	 1.506501543738727e+00	 1.044430923385094e+01
 1.128584076633202e+00	 1.517518740599537e+00	 1.036116875227576e+01
 1.276486371864982e+00	 1.407337110498131e+00	 1.153095261878395e+01
 1.262718494788460e+00	 1.419703164493210e+00	 1.144151019829454e+01
 1.248834727802101e+00	 1.431931135265215e+00	 1.134388441926798e+01
 1.234837161076230e+00	 1.444019403127892e+00	 1.123545865356208e+01
 1.220727914379838e+00	 1.455966390286883e+00	 1.111437864718646e+01
 1.206509136023409e+00	 1.467770561513017e+00	 1.097964794526249e+01
 1.192183001783870e+00	 1.479430424783833e+00	 1.083121957905228e+01
 1.177751713812773e+00	 1.490944531892771e+00	 1.068300142194193e+01
 1.163217499528870e+00	 1.502311479025552e+00	 1.055949743390408e+01
 1.148582610496223e+00	 1.513529907303260e+00	 1.045953788132789e+01
 1.133849321289002e+00	 1.524598503291737e+00	 1.038108967991478e+01
 1.282413978753734e+00	 1.413872347643098e+00	 1.153352904554415e+01
 1.268582167925230e+00	 1.426295825758493e+00	 1.144488601458956e+01
 1.254633929030096e+00	 1.438580579435138e+00	 1.134642490260867e+01
 1.240571361944754e+00	 1.450724981465461e+00	 1.123537901580647e+01
 1.226396596281747e+00	 1.462727446728315e+00	 1.110975975947152e+01
 1.212111790327645e+00	 1.474586432865403e+00	 1.096845560973731e+01
 1.197719129963005e+00	 1.486300440925770e+00	 1.081474610340647e+01
 1.183220827565489e+00	 1.497868015977837e+00	 1.067831962007962e+01
 1.168619120897289e+00	 1.509287747688448e+00	 1.056445341110760e+01
 1.153916271978031e+00	 1.520558270868470e+00	 1.047110638180075e+01
 1.139114565944302e+00	 1.531678265984568e+00	 1.039598707343049e+01
 1.288341585642535e+00	 1.420407584788649e+00	 1.153408977261556e+01
 1.274445841061997e+00	 1.432888487024390e+00	 1.144526885686170e+01
 1.260433130258036e+00	 1.445230023605700e+00	 1.134466709102217e+01
 1.246305562813177e+00	 1.457430559803686e+00	 1.122942216547668e+01
 1.232065278183511e+00	 1.469488503170412e+00	 1.109746798262235e+01
 1.217714444631694e+00	 1.481402304218452e+00	 1.094763718071696e+01
 1.203255258141917e+00	 1.493170457068364e+00	 1.079997652093280e+01
 1.188689941317948e+00	 1.504791500063543e+00	 1.067420394142546e+01
 1.174020742265423e+00	 1.516264016351956e+00	 1.056833581121106e+01
 1.159249933459528e+00	 1.527586634434258e+00	 1.048015026096438e+01
 1.144379810599269e+00	 1.538758028677931e+00	 1.040716810378112e+01
 1.294269192531402e+00	 1.426942821934699e+00	 1.153330916714986e+01
 1.280309514198793e+00	 1.439481148290814e+00	 1.144325540365342e+01
 1.266232331485971e+00	 1.451879467776810e+00	 1.133915742609525e+01
 1.252039763681564e+00	 1.464136138142472e+00	 1.121811056514653e+01
 1.237733960085210e+00	 1.476249559613076e+00	 1.107802684150156e+01
 1.223317098935656e+00	 1.488218175572068e+00	 1.092450108695277e+01
 1.208791386320720e+00	 1.500040473211514e+00	 1.078824122097104e+01
 1.194159055070281e+00	 1.511714984149789e+00	 1.067146505010019e+01
 1.179422363633414e+00	 1.523240285015977e+00	 1.057208030085897e+01
 1.164583594940869e+00	 1.534614998000523e+00	 1.048775268575053e+01
 1.149645055254069e+00	 1.545837791371726e+00	 1.041588499908471e+01
 1.300196799420352e+00	 1.433478059081167e+00	 1.153186946919992e+01
 1.286173187335648e+00	 1.446073809557677e+00	 1.143945332236164e+01
 1.272031532713948e+00	 1.458528911948376e+00	 1.133045601602681e+01
 1.257773964549979e+00	 1.470841716481724e+00	 1.120198259167875e+01
 1.243402641986929e+00	 1.483010616056212e+00	 1.105232310570516e+01
 1.228919753239628e+00	 1.495034046926153e+00	 1.090671833695117e+01
 1.214327514499529e+00	 1.506910489355123e+00	 1.078020323668476e+01
 1.199628168822616e+00	 1.518638468236475e+00	 1.067086619195643e+01
 1.184823985001405e+00	 1.530216553680411e+00	 1.057657334251845e+01
 1.169917256422210e+00	 1.541643361567165e+00	 1.049494544002802e+01
 1.154910299908869e+00	 1.552917554065853e+00	 1.042333605382759e+01
 1.306124406309403e+00	 1.440013296227967e+00	 1.153045879913584e+01
 1.292036860472598e+00	 1.452666470824892e+00	 1.143447927163289e+01
 1.277830733942016e+00	 1.465178356120306e+00	 1.131913464585585e+01
 1.263508165418488e+00	 1.477547294821350e+00	 1.118159056671765e+01
 1.249071323888747e+00	 1.489771672499722e+00	 1.103006748542327e+01
 1.234522407543709e+00	 1.501849918280608e+00	 1.089483253062317e+01
 1.219863642678458e+00	 1.513780505499092e+00	 1.077648048452881e+01
 1.205097282575082e+00	 1.525561952323500e+00	 1.067312413136899e+01
 1.190225606369540e+00	 1.537192822345158e+00	 1.058265314705431e+01
 1.175250917903707e+00	 1.548671725134084e+00	 1.050270990123870e+01
 1.160175544563835e+00	 1.559997316760212e+00	 1.043066663747514e+01
 1.312052013198571e+00	 1.446548533375018e+00	 1.152976916782580e+01
 1.297900533609672e+00	 1.459259132092369e+00	 1.142895690747338e+01
 1.283629935170224e+00	 1.471827800292509e+00	 1.130577479204538e+01
 1.269242366287155e+00	 1.484252873161254e+00	 1.115861902559079e+01
 1.254740005790747e+00	 1.496532728943512e+00	 1.101579897808777e+01
 1.240125061847997e+00	 1.508665789635337e+00	 1.088934295582533e+01
 1.225399770857620e+00	 1.520650521643320e+00	 1.077764669783458e+01
 1.210566396327810e+00	 1.532485436410767e+00	 1.067891009121103e+01
 1.195627227737962e+00	 1.544169091010119e+00	 1.059111062847417e+01
 1.180584579385516e+00	 1.555700088701180e+00	 1.051197801794042e+01
 1.165440789219135e+00	 1.567077079454702e+00	 1.043897020250150e+01
 1.317979620087872e+00	 1.453083770522235e+00	 1.153049448950000e+01
 1.303764206746904e+00	 1.465851793360023e+00	 1.142351489296168e+01
 1.289429136398620e+00	 1.478477244464894e+00	 1.129096564128639e+01
 1.274976567156046e+00	 1.490958451501341e+00	 1.114334498277694e+01
 1.260408687693009e+00	 1.503293785387482e+00	 1.100992451196726e+01
 1.245727716152589e+00	 1.515481660990238e+00	 1.089070659891719e+01
 1.230935899037129e+00	 1.527520537787710e+00	 1.078423236422335e+01
 1.216035510080927e+00	 1.539408920498174e+00	 1.068885069591390e+01
 1.201028849106816e+00	 1.551145359675193e+00	 1.060269036076788e+01
 1.185918240867793e+00	 1.562728452268355e+00	 1.052363328823096e+01
 1.170706033874936e+00	 1.574156842149224e+00	 1.044928929185759e+01
 1.323907226977324e+00	 1.459619007669536e+00	 1.153332859722154e+01
 1.309627879884325e+00	 1.472444454627764e+00	 1.141878491145986e+01
 1.295228337627253e+00	 1.485126688637369e+00	 1.127718501268943e+01
 1.280710768025226e+00	 1.497664029841519e+00	 1.113839302497293e+01
 1.266077369595616e+00	 1.510054841831538e+00	 1.101281018641636e+01
 1.251330370457585e+00	 1.522297532345218e+00	 1.089933908917303e+01
 1.236472027217101e+00	 1.534390553932163e+00	 1.079672566672785e+01
 1.221504623834565e+00	 1.546332404585624e+00	 1.070352891751517e+01
 1.206430470476243e+00	 1.558121628340281e+00	 1.061809153678012e+01
 1.191251902350694e+00	 1.569756815835506e+00	 1.053851173901965e+01
 1.175971278531404e+00	 1.581236604843679e+00	 1.046261654589341e+01
 1.123318831976734e+00	 1.510438977908068e+00	 1.033486116688783e+01
 1.108629669125836e+00	 1.521253254440523e+00	 1.025335183950797e+01
 1.093847613636997e+00	 1.531916682324970e+00	 1.015888248538885e+01
 1.078974971082447e+00	 1.542428104777079e+00	 1.005317322148392e+01
 1.064014065267222e+00	 1.552786411642340e+00	 9.939067766118377e+00
 1.048967237061315e+00	 1.562990539726966e+00	 9.818650253048915e+00
 1.033836843225698e+00	 1.573039473094003e+00	 9.693306384390764e+00
 1.018625255233428e+00	 1.582932243324601e+00	 9.563785589435362e+00
 1.003334858087006e+00	 1.592667929744381e+00	 9.430263793071241e+00
 9.879680491332047e-01	 1.602245659614925e+00	 9.292406405623144e+00
 9.725272368765219e-01	 1.611664608290443e+00	 9.149431156151877e+00
 1.128584076633202e+00	 1.517518740599537e+00	 1.036116875227576e+01
 1.113826062416185e+00	 1.528383706046224e+00	 1.028277587821331e+01
 1.098974720152806e+00	 1.539097115783824e+00	 1.019094143177515e+01
 1.084032366222025e+00	 1.549657807605892e+00	 1.008610526663499e+01
 1.069001335321073e+00	 1.560064666154375e+00	 9.971423097034329e+00
 1.053883979292120e+00	 1.570316623252049e+00	 9.849375455939365e+00
 1.038682665942804e+00	 1.580412658200036e+00	 9.721740714451576e+00
 1.023399777861804e+00	 1.590351798040284e+00	 9.589658614791993e+00
 1.008037711230661e+00	 1.600133117783001e+00	 9.453694395144108e+00
 9.925988746330451e-01	 1.609755740599044e+00	 9.313903108007853e+00
 9.770856878626532e-01	 1.619218837977321e+00	 9.169893744328309e+00
 1.133849321289002e+00	 1.524598503291737e+00	 1.038108967991478e+01
 1.119022455705831e+00	 1.535514157652602e+00	 1.030458423826928e+01
 1.104101826667885e+00	 1.546277549243292e+00	 1.021411033987320e+01
 1.089089761360856e+00	 1.556887510435254e+00	 1.010986225799626e+01
 1.073988605374169e+00	 1.567342920666890e+00	 9.994673086676556e+00
 1.058800721522175e+00	 1.577642706777549e+00	 9.871344726520579e+00
 1.043528488659177e+00	 1.587785843306425e+00	 9.741971033033561e+00
 1.028174300489477e+00	 1.597771352756268e+00	 9.608002891809182e+00
 1.012740564373655e+00	 1.607598305821879e+00	 9.470313868771189e+00
 9.972297001322832e-01	 1.617265821583393e+00	 9.329266026496786e+00
 9.816441388482543e-01	 1.626773067664415e+00	 9.184775508636623e+00
 1.139114565944302e+00	 1.531678265984568e+00	 1.039598707343049e+01
 1.124218848994950e+00	 1.542644609259557e+00	 1.032038553986775e+01
 1.109228933182416e+00	 1.553457982703275e+00	 1.023008177340228e+01
 1.094147156499128e+00	 1.564117213265066e+00	 1.012621454479530e+01
 1.078975875426700e+00	 1.574621175179788e+00	 1.001063863781547e+01
 1.063717463751669e+00	 1.584968790303364e+00	 9.886403065112091e+00
 1.048374311375001e+00	 1.595159028413066e+00	 9.755840774258626e+00
 1.032948823116623e+00	 1.605190907472450e+00	 9.620635433497004e+00
 1.017443417516155e+00	 1.615063493860909e+00	 9.481888776640321e+00
 1.001860525631069e+00	 1.624775902567861e+00	 9.340188087049969e+00
 9.862025898334583e-01	 1.634327297351610e+00	 9.195673412016554e+00
 1.144379810599269e+00	 1.538758028677931e+00	 1.040716810378112e+01
 1.129415242283717e+00	 1.549775060866989e+00	 1.033165448415500e+01
 1.114356039696582e+00	 1.560638416163673e+00	 1.024062113916434e+01
 1.099204551637025e+00	 1.571346916095226e+00	 1.013689046716746e+01
 1.083963145478855e+00	 1.581899429692963e+00	 1.002109909120782e+01
 1.068634205980788e+00	 1.592294873829391e+00	 9.896354892661675e+00
 1.053220134090458e+00	 1.602532213519856e+00	 9.765154287808208e+00
 1.037723345743416e+00	 1.612610462188722e+00	 9.629336152106273e+00
 1.022146270658325e+00	 1.622528681899982e+00	 9.490151029320927e+00
 1.006491351129554e+00	 1.632285983552334e+00	 9.348330453124278e+00
 9.907610408183973e-01	 1.641881527038787e+00	 9.204155961329551e+00
 1.149645055254069e+00	 1.545837791371726e+00	 1.041588499908471e+01
 1.134611635572308e+00	 1.556905512474797e+00	 1.033980834680712e+01
 1.119483146210567e+00	 1.567818849624386e+00	 1.024772742222291e+01
 1.104261946774735e+00	 1.578576618925632e+00	 1.014357583982713e+01
 1.088950415530820e+00	 1.589177684206319e+00	 1.002779174754485e+01
 1.073550948209719e+00	 1.599620957355527e+00	 9.902963599451944e+00
 1.058065956805731e+00	 1.609905398626689e+00	 9.771676403260713e+00
 1.042497868370034e+00	 1.620030016904980e+00	 9.635847428355847e+00
 1.026849123800329e+00	 1.629993869938989e+00	 9.496797449058361e+00
 1.011122176627888e+00	 1.639796064536699e+00	 9.355322074114977e+00
 9.953194918032041e-01	 1.649435756725832e+00	 9.211762730945088e+00
 1.154910299908869e+00	 1.552917554065853e+00	 1.042333605382758e+01
 1.139808028860899e+00	 1.564035964082883e+00	 1.034620801805792e+01
 1.124610252724551e+00	 1.574999283085313e+00	 1.025293582585496e+01
 1.109319341912446e+00	 1.585806321756186e+00	 1.014791343159128e+01
 1.093937685582786e+00	 1.596455938719752e+00	 1.003241138475660e+01
 1.078467690438650e+00	 1.606947040881672e+00	 9.907951088983646e+00
 1.062911779521005e+00	 1.617278583733464e+00	 9.777131989728252e+00
 1.047272390996653e+00	 1.627449571621117e+00	 9.641873676391027e+00
 1.031551976942334e+00	 1.637459057977820e+00	 9.503489330003665e+00
 1.015753002126222e+00	 1.647306145520847e+00	 9.362759231209454e+00
 9.998779427880107e-01	 1.656989986412625e+00	 9.220003884976714e+00
 1.160175544563835e+00	 1.559997316760212e+00	 1.043066663747514e+01
 1.145004422149667e+00	 1.571166415691145e+00	 1.035215904065152e+01
 1.129737359238717e+00	 1.582179716546355e+00	 1.025768488197404e+01
 1.114376737050343e+00	 1.593036024586787e+00	 1.015160617769212e+01
 1.098924955634941e+00	 1.603734193233161e+00	 1.003660977081374e+01
 1.083384432667769e+00	 1.614273124407722e+00	 9.912997317183482e+00
 1.067757602236463e+00	 1.624651768840077e+00	 9.783205510946656e+00
 1.052046913623446e+00	 1.634869126337026e+00	 9.649080904602023e+00
 1.036254830084503e+00	 1.644924246016368e+00	 9.511851994988142e+00
 1.020383827624707e+00	 1.654816226504663e+00	 9.372205080734354e+00
 1.004436393772950e+00	 1.664544216099050e+00	 9.230359698208519e+00
 1.165440789219135e+00	 1.567077079454702e+00	 1.043897020250150e+01
 1.150200815438786e+00	 1.578296867299485e+00	 1.035891264578556e+01
 1.134864465753249e+00	 1.589360150007411e+00	 1.026335693655348e+01
 1.119434132188614e+00	 1.600265727417334e+00	 1.015653753507283e+01
 1.103912225687472e+00	 1.611012447746446e+00	 1.004199517216945e+01
 1.088301174897263e+00	 1.621599207933576e+00	 9.919739827084268e+00
 1.072603424952286e+00	 1.632024953946423e+00	 9.791540575957669e+00
 1.056821436250592e+00	 1.642288681052604e+00	 9.659096272429991e+00
 1.040957683227003e+00	 1.652389434054522e+00	 9.523474348952485e+00
 1.025014653123494e+00	 1.662326307488035e+00	 9.385189195071481e+00
 1.008994844758154e+00	 1.672098445784992e+00	 9.244280075750972e+00
 1.170706033874936e+00	 1.574156842149224e+00	 1.044928929185759e+01
 1.155397208728432e+00	 1.585427318907801e+00	 1.036766678710848e+01
 1.139991572268328e+00	 1.596540583468382e+00	 1.027127919816501e+01
 1.124491527327446e+00	 1.607495430247728e+00	 1.016417103511640e+01
 1.108899495740569e+00	 1.618290702259505e+00	 1.005013185797616e+01
 1.093217917127319e+00	 1.628925291459132e+00	 9.929773279119303e+00
 1.077449247668659e+00	 1.639398139052400e+00	 9.803739485519550e+00
 1.061595958878265e+00	 1.649708235767744e+00	 9.673507643292115e+00
 1.045660536369998e+00	 1.659854622092177e+00	 9.539908429129682e+00
 1.029645478622732e+00	 1.669836388470851e+00	 9.403207101221664e+00
 1.013553295743755e+00	 1.679652675470332e+00	 9.263184071465343e+00
 1.175971278531404e+00	 1.581236604843679e+00	 1.046261654589341e+01
 1.160593602018781e+00	 1.592557770515995e+00	 1.037956717282916e+01
 1.145118678784137e+00	 1.603721016929166e+00	 1.028272478359850e+01
 1.129548922467025e+00	 1.614725133077867e+00	 1.017588243977610e+01
 1.113886765794420e+00	 1.625568956772238e+00	 1.006260637687137e+01
 1.098134659358124e+00	 1.636251374984289e+00	 9.944648977162291e+00
 1.082295070385766e+00	 1.646771324157903e+00	 9.821362774379311e+00
 1.066370481506642e+00	 1.657127790482339e+00	 9.693863133735906e+00
 1.050363389513654e+00	 1.667319810129223e+00	 9.562668952087490e+00
 1.034276304122573e+00	 1.677346469452999e+00	 9.427719817082160e+00
 1.018111746729887e+00	 1.687206905154955e+00	 9.288459405193805e+00
 9.725272368765219e-01	 1.611664608290443e+00	 9.149431156151877e+00
 9.570148400954672e-01	 1.620923999730693e+00	 9.009169206106304e+00
 9.414332875463274e-01	 1.630023107767037e+00	 8.878789590850632e+00
 9.257850158359563e-01	 1.638961254991470e+00	 8.756030133946823e+00
 9.100724679326296e-01	 1.647737812383568e+00	 8.638424256025782e+00
 8.942980919892135e-01	 1.656352199292953e+00	 8.523357942643763e+00
 8.784643401719208e-01	 1.664803883388219e+00	 8.408124601652347e+00
 8.625736674957413e-01	 1.673092380572644e+00	 8.289977552383007e+00
 8.466285306676252e-01	 1.681217254867130e+00	 8.166179911272250e+00
 8.306313869384504e-01	 1.689178118260764e+00	 8.034051661691475e+00
 8.145846929648080e-01	 1.696974630529512e+00	 7.891013719482078e+00
 9.770856878626532e-01	 1.619218837977321e+00	 9.169893744328309e+00
 9.615005810353462e-01	 1.628521630240110e+00	 9.029763254155263e+00
 9.458459942915274e-01	 1.637663387815064e+00	 8.900515467611559e+00
 9.301243756589621e-01	 1.646643430119025e+00	 8.779629586234233e+00
 9.143381795566552e-01	 1.655461125183214e+00	 8.664374924783171e+00
 8.984898656125033e-01	 1.664115889635621e+00	 8.551869895039916e+00
 8.825818974865609e-01	 1.672607188649691e+00	 8.439138797897847e+00
 8.666167417010120e-01	 1.680934535859640e+00	 8.323166158437404e+00
 8.505968664779338e-01	 1.689097493242845e+00	 8.200948361712983e+00
 8.345247405858784e-01	 1.697095670969706e+00	 8.069542370827213e+00
 8.184028321963256e-01	 1.704928727221486e+00	 7.926111333355868e+00
 9.816441388482543e-01	 1.626773067664415e+00	 9.184775508636623e+00
 9.659863219747833e-01	 1.636119260749749e+00	 9.045053671093218e+00
 9.502587010363843e-01	 1.645303667863334e+00	 8.916892995572109e+00
 9.344637354817303e-01	 1.654325605246850e+00	 8.797588622181522e+00
 9.186038911805495e-01	 1.663184437983163e+00	 8.684222673706884e+00
 9.026816392357647e-01	 1.671879579978629e+00	 8.573725165760191e+00
 8.866994548012662e-01	 1.680410493911535e+00	 8.462932640041972e+00
 8.706598159064309e-01	 1.688776691147034e+00	 8.348644247878184e+00
 8.545652022884538e-01	 1.696977731618970e+00	 8.227675034950868e+00
 8.384180942335583e-01	 1.705013223679052e+00	 8.096906202723899e+00
 8.222209714281083e-01	 1.712882823913839e+00	 7.953332147312183e+00
 9.862025898334583e-01	 1.634327297351610e+00	 9.195673412016554e+00
 9.704720629138888e-01	 1.643716891259486e+00	 9.056547551096925e+00
 9.546714077809845e-01	 1.652943947911714e+00	 8.929372424585582e+00
 9.388030953043199e-01	 1.662007780374810e+00	 8.811332299970747e+00
 9.228696028043460e-01	 1.670907750783278e+00	 8.699397639202319e+00
 9.068734128590051e-01	 1.679643270321834e+00	 8.590387847556492e+00
 8.908170121160226e-01	 1.688213799173608e+00	 8.481031656424149e+00
 8.747028901119608e-01	 1.696618846434682e+00	 8.368024859738277e+00
 8.585335380991325e-01	 1.704857969995367e+00	 8.248085148236543e+00
 8.423114478814271e-01	 1.712930776388675e+00	 8.118003811088238e+00
 8.260391106600912e-01	 1.720836920606458e+00	 7.974694100444998e+00
 9.907610408183973e-01	 1.641881527038787e+00	 9.204155961329551e+00
 9.749578038527736e-01	 1.651314521769201e+00	 9.065726724294937e+00
 9.590841145254130e-01	 1.660584227960079e+00	 8.939381314526447e+00
 9.431424551267915e-01	 1.669689955502773e+00	 8.822264961456918e+00
 9.271353144280760e-01	 1.678631063583420e+00	 8.711310632603242e+00
 9.110651864822312e-01	 1.687406960665095e+00	 8.603303535448770e+00
 8.949345694308115e-01	 1.696017104435768e+00	 8.494943160019087e+00
 8.787459643175644e-01	 1.704461001722444e+00	 8.382902574476043e+00
 8.625018739099167e-01	 1.712738208371898e+00	 8.263884711288943e+00
 8.462048015294223e-01	 1.720848329098446e+00	 8.134675407650686e+00
 8.298572498922062e-01	 1.728791017299227e+00	 7.992192990618002e+00
 9.953194918032041e-01	 1.649435756725832e+00	 9.211762730945088e+00
 9.794435447915480e-01	 1.658912152278770e+00	 9.074047258028708e+00
 9.634968212697558e-01	 1.668224508008300e+00	 8.948324028159305e+00
 9.474818149492031e-01	 1.677372130630603e+00	 8.831769730050752e+00
 9.314010260517740e-01	 1.686354376383450e+00	 8.721352655932723e+00
 9.152569601054503e-01	 1.695170651008270e+00	 8.613898872695550e+00
 8.990521267456177e-01	 1.703820409697870e+00	 8.506155836402629e+00
 8.827890385232054e-01	 1.712303157010177e+00	 8.394853155166642e+00
 8.664702097207534e-01	 1.720618446748428e+00	 8.276760231390021e+00
 8.500981551774804e-01	 1.728765881808236e+00	 8.148740541279226e+00
 8.336753891243880e-01	 1.736745113992029e+00	 8.007802337146959e+00
 9.998779427880107e-01	 1.656989986412625e+00	 9.220003884976714e+00
 9.839292857303223e-01	 1.666509782788071e+00	 9.082938957929487e+00
 9.679095280140989e-01	 1.675864788056249e+00	 8.957581224602622e+00
 9.518211747716145e-01	 1.685054305758168e+00	 8.841208009602502e+00
 9.356667376754718e-01	 1.694077689183231e+00	 8.730894418722613e+00
 9.194487337286694e-01	 1.702934341351218e+00	 8.623581097534691e+00
 9.031696840604232e-01	 1.711623714959771e+00	 8.516139331867208e+00
 8.868321127288457e-01	 1.720145312297739e+00	 8.405433187908427e+00
 8.704385455315907e-01	 1.728498685124818e+00	 8.288378416456055e+00
 8.539915088255383e-01	 1.736683434517917e+00	 8.161997873548913e+00
 8.374935283565700e-01	 1.744699210684749e+00	 8.023473238148917e+00
 1.004436393772950e+00	 1.664544216099050e+00	 9.230359698208519e+00
 9.884150266692072e-01	 1.674107413296981e+00	 9.093804868813306e+00
 9.723222347585273e-01	 1.683505068103797e+00	 8.968509353369676e+00
 9.561605345940860e-01	 1.692736480885333e+00	 8.851918984259763e+00
 9.399324492992021e-01	 1.701801001982622e+00	 8.741285855857102e+00
 9.236405073518955e-01	 1.710698031693796e+00	 8.633737590665433e+00
 9.072872413752125e-01	 1.719427020221330e+00	 8.526343841676102e+00
 8.908751869344493e-01	 1.727987467584990e+00	 8.416179721465777e+00
 8.744068813423749e-01	 1.736378923500933e+00	 8.300385876154339e+00
 8.578848624735339e-01	 1.744600987227362e+00	 8.176224950881609e+00
 8.413116675886849e-01	 1.752653307377271e+00	 8.041134222725415e+00
 1.008994844758154e+00	 1.672098445784992e+00	 9.244280075750972e+00
 9.929007676083129e-01	 1.681705043805379e+00	 9.108020775397700e+00
 9.767349415031276e-01	 1.691145348150817e+00	 8.982440148959991e+00
 9.604998944166758e-01	 1.700418656011965e+00	 8.865219119264449e+00
 9.441981609229979e-01	 1.709524314781486e+00	 8.753855646402803e+00
 9.278322809751357e-01	 1.718461722035863e+00	 8.645735423445723e+00
 9.114047986899687e-01	 1.727230325482402e+00	 8.538199698457280e+00
 8.949182611399791e-01	 1.735829622871788e+00	 8.428609906171390e+00
 8.783752171530532e-01	 1.744259161876634e+00	 8.314408821118079e+00
 8.617782161214028e-01	 1.752518539936439e+00	 8.193177973360513e+00
 8.451298068206675e-01	 1.760607404069479e+00	 8.062691098140737e+00
 1.013553295743755e+00	 1.679652675470332e+00	 9.263184071465343e+00
 9.973865085477501e-01	 1.689302674313143e+00	 9.126934702846810e+00
 9.811476482479849e-01	 1.698785628197181e+00	 9.000680125990460e+00
 9.648392542394443e-01	 1.708100831137931e+00	 8.882401662657157e+00
 9.484638725468924e-01	 1.717247627579685e+00	 8.769910733397595e+00
 9.320240545983974e-01	 1.726225412377277e+00	 8.660920906784247e+00
 9.155223560046748e-01	 1.735033630742843e+00	 8.553116960724932e+00
 8.989613353453980e-01	 1.743671778157989e+00	 8.444220632112696e+00
 8.823435529635734e-01	 1.752139400251785e+00	 8.332052760324212e+00
 8.656715697690824e-01	 1.760436092645021e+00	 8.214591560326967e+00
 8.489479460524506e-01	 1.768561500761259e+00	 8.090026792153679e+00
 1.018111746729887e+00	 1.687206905154955e+00	 9.288459405193805e+00
 1.001872249487630e+00	 1.696900304820150e+00	 9.151866417145616e+00
 9.855603549931854e-01	 1.706425908242760e+00	 9.024510074842478e+00
 9.691786140624503e-01	 1.715783006263096e+00	 8.904736147861096e+00
 9.527295841709187e-01	 1.724970940377081e+00	 8.790735844564331e+00
 9.362158282216873e-01	 1.733989102717897e+00	 8.680619140701893e+00
 9.196399133193149e-01	 1.742836936002513e+00	 8.572485001527848e+00
 9.030044095506687e-01	 1.751513933443456e+00	 8.464488166617503e+00
 8.863118887738816e-01	 1.760019638626248e+00	 8.354902196688215e+00
 8.695649234165100e-01	 1.768353645352981e+00	 8.242178512854743e+00
 8.527660852839681e-01	 1.776515597452493e+00	 8.125001190653556e+00
 8.145846929648080e-01	 1.696974630529512e+00	 7.891013719482078e+00
 7.984881635692119e-01	 1.704607782308222e+00	 7.744831233317907e+00
 7.823469753732306e-01	 1.712075987695308e+00	 7.604710794379407e+00
 7.661635769862309e-01	 1.719379047145569e+00	 7.470439558324550e+00
 7.499404120156170e-01	 1.726516807897009e+00	 7.342065485885376e+00
 7.336799179914387e-01	 1.733489163639346e+00	 7.219704060320021e+00
 7.173845253063604e-01	 1.740296054154137e+00	 7.101496672860012e+00
 7.010566561718182e-01	 1.746937464927227e+00	 6.985974861119425e+00
 6.846987235911640e-01	 1.753413426734232e+00	 6.872401209794562e+00
 6.683131303505522e-01	 1.759724015199794e+00	 6.760562321101260e+00
 6.519022680282955e-01	 1.765869350331382e+00	 6.650804498092983e+00
 8.184028321963256e-01	 1.704928727221486e+00	 7.926111333355868e+00
 8.022308547950975e-01	 1.712597657276366e+00	 7.778574635217018e+00
 7.860140092677473e-01	 1.720100867799294e+00	 7.636611423309587e+00
 7.697547557008287e-01	 1.727438158309759e+00	 7.500246354328240e+00
 7.534555491554902e-01	 1.734609375329742e+00	 7.369783123996346e+00
 7.371188385870384e-01	 1.741614412050667e+00	 7.245777847613809e+00
 7.207470657799391e-01	 1.748453207971837e+00	 7.127205566762300e+00
 7.043426642990840e-01	 1.755125748511074e+00	 7.012763215978293e+00
 6.879080584581196e-01	 1.761632064588246e+00	 6.902070982759186e+00
 6.714456623056047e-01	 1.767972232182473e+00	 6.795312336270807e+00
 6.549578786297219e-01	 1.774146371863731e+00	 6.693269454153148e+00
 8.222209714281083e-01	 1.712882823913839e+00	 7.953332147312176e+00
 8.059735460212321e-01	 1.720587532244843e+00	 7.805136054183501e+00
 7.896810431624707e-01	 1.728125747903544e+00	 7.662406537130057e+00
 7.733459344155730e-01	 1.735497269474130e+00	 7.525235418273326e+00
 7.569706862954365e-01	 1.742701942762564e+00	 7.394009546400294e+00
 7.405577591826318e-01	 1.749739660461978e+00	 7.269434927308323e+00
 7.241096062534327e-01	 1.756610361789429e+00	 7.151236595848034e+00
 7.076286724261937e-01	 1.763314032094718e+00	 7.038118036969543e+00
 6.911173933248609e-01	 1.769850702441975e+00	 6.929879964835647e+00
 6.745781942604039e-01	 1.776220449164800e+00	 6.826925842622906e+00
 6.580134892308822e-01	 1.782423393395677e+00	 6.730297308939436e+00
 8.260391106600912e-01	 1.720836920606458e+00	 7.974694100444998e+00
 8.097162372475537e-01	 1.728577407213554e+00	 7.826672784819317e+00
 7.933480770573491e-01	 1.736150628007981e+00	 7.684337507313485e+00
 7.769371131304268e-01	 1.743556380638631e+00	 7.547679270257285e+00
 7.604858234354377e-01	 1.750794510195449e+00	 7.416997880009221e+00
 7.439966797782203e-01	 1.757864908873280e+00	 7.292926887259641e+00
 7.274721467268634e-01	 1.764767515606941e+00	 7.175698268468503e+00
 7.109146805531861e-01	 1.771502315678212e+00	 7.063990480953615e+00
 6.943267281914413e-01	 1.778069340295493e+00	 6.957577780674121e+00
 6.777107262150133e-01	 1.784468666146862e+00	 6.856909274327950e+00
 6.610690998318431e-01	 1.790700414927322e+00	 6.763112225718785e+00
 8.298572498922062e-01	 1.728791017299227e+00	 7.992192990618011e+00
 8.134589284740003e-01	 1.736567282182402e+00	 7.845318543869555e+00
 7.970151109523318e-01	 1.744175508112531e+00	 7.704621636245266e+00
 7.805282918453533e-01	 1.751615491803208e+00	 7.569826768278666e+00
 7.640009605754752e-01	 1.758887077628368e+00	 7.440978847465395e+00
 7.474356003738059e-01	 1.765990157284572e+00	 7.318469140332400e+00
 7.308346872002515e-01	 1.772924669424396e+00	 7.202681300300840e+00
 7.142006886801003e-01	 1.779690599261606e+00	 7.092319226920035e+00
 6.975360630579145e-01	 1.786287978148868e+00	 6.986907440783354e+00
 6.808432581694961e-01	 1.792716883128747e+00	 6.886768813906325e+00
 6.641247104326711e-01	 1.798977436458766e+00	 6.792944927765624e+00
 8.336753891243880e-01	 1.736745113992029e+00	 8.007802337146966e+00
 8.172016197005085e-01	 1.744557157151287e+00	 7.863183409293073e+00
 8.006821448473660e-01	 1.752200388217115e+00	 7.725452149781409e+00
 7.841194705603172e-01	 1.759674602967811e+00	 7.593903132382162e+00
 7.675160977155310e-01	 1.766979645061297e+00	 7.468160802009416e+00
 7.508745209693901e-01	 1.774115405695855e+00	 7.348206715728246e+00
 7.341972276736185e-01	 1.781081823241821e+00	 7.234257893148168e+00
 7.174866968069756e-01	 1.787878882844947e+00	 7.125029749754159e+00
 7.007453979243340e-01	 1.794506616002171e+00	 7.019604592436483e+00
 6.839757901239162e-01	 1.800965100110545e+00	 6.918009603473057e+00
 6.671803210334328e-01	 1.807254457990109e+00	 6.821031854185805e+00
 8.374935283565700e-01	 1.744699210684749e+00	 8.023473238148913e+00
 8.209443109270168e-01	 1.752547032120114e+00	 7.882353752394051e+00
 8.043491787424001e-01	 1.760225268321657e+00	 7.748998181871553e+00
 7.877106492752806e-01	 1.767733714132384e+00	 7.622109960476092e+00
 7.710312348555869e-01	 1.775072212494209e+00	 7.500729754166388e+00
 7.543134415649742e-01	 1.782240654107128e+00	 7.384264266388228e+00
 7.375597681469854e-01	 1.789238977059240e+00	 7.272481007441057e+00
 7.207727049338508e-01	 1.796067166428286e+00	 7.164033589356996e+00
 7.039547327907537e-01	 1.802725253855474e+00	 7.057396768032694e+00
 6.871083220783356e-01	 1.809213317092342e+00	 6.952134955961992e+00
 6.702359316341945e-01	 1.815531479521452e+00	 6.848614318620696e+00
 8.413116675886849e-01	 1.752653307377271e+00	 8.041134222725411e+00
 8.246870021534630e-01	 1.760536907088782e+00	 7.904892163231761e+00
 8.080162126373823e-01	 1.768250148426080e+00	 7.777404751507267e+00
 7.913018279902077e-01	 1.775792825296878e+00	 7.656625236072184e+00
 7.745463719956243e-01	 1.783164779927075e+00	 7.540849390511523e+00
 7.577523621605597e-01	 1.790365902518389e+00	 7.428746157115448e+00
 7.409223086203739e-01	 1.797396130876680e+00	 7.319383748517657e+00
 7.240587130607654e-01	 1.804255450011673e+00	 7.211227615272795e+00
 7.071640676572267e-01	 1.810943891708847e+00	 7.102002631003988e+00
 6.902408540328184e-01	 1.817461534074229e+00	 6.990645566325677e+00
 6.732915422350230e-01	 1.823808501052896e+00	 6.876937670734238e+00
 8.451298068206675e-01	 1.760607404069479e+00	 8.062691098140737e+00
 8.284296933797848e-01	 1.768526782057194e+00	 7.932837369520635e+00
 8.116832465322612e-01	 1.776275028530309e+00	 7.812792732227401e+00
 7.948930067050616e-01	 1.783851936461238e+00	 7.699603328214819e+00
 7.780615091356252e-01	 1.791257347359871e+00	 7.590661084767500e+00
 7.611912827561486e-01	 1.798491150929640e+00	 7.483736468537102e+00
 7.442848490938040e-01	 1.805553284694165e+00	 7.377006546728223e+00
 7.273447211877578e-01	 1.812443733595157e+00	 7.268493286960587e+00
 7.103734025238072e-01	 1.819162529562361e+00	 7.155131219337390e+00
 6.933733859874279e-01	 1.825709751056291e+00	 7.035038722711137e+00
 6.763471528359838e-01	 1.832085522584540e+00	 6.907250460400096e+00
 8.489479460524506e-01	 1.768561500761259e+00	 8.090026792153672e+00
 8.321723846059192e-01	 1.776516657025253e+00	 7.968204149226692e+00
 8.153502804269847e-01	 1.784299908634265e+00	 7.857258814423462e+00
 7.984841854198054e-01	 1.791911047625413e+00	 7.753174983836315e+00
 7.815766462755713e-01	 1.799349914792569e+00	 7.652283901471488e+00
 7.646302033517420e-01	 1.806616399340881e+00	 7.551298994261049e+00
 7.476473895672979e-01	 1.813710438511721e+00	 7.447346159233980e+00
 7.306307293148674e-01	 1.820632017178786e+00	 7.337695909844769e+00
 7.135827373905486e-01	 1.827381167416087e+00	 7.218481186787180e+00
 6.965059179422274e-01	 1.833957968038617e+00	 7.086807517614314e+00
 6.794027634371442e-01	 1.840362544116487e+00	 6.940803604495708e+00
 8.527660852839681e-01	 1.776515597452493e+00	 8.125001190653565e+00
 8.359150758318051e-01	 1.784506531992859e+00	 8.012983237054023e+00
 8.190173143215014e-01	 1.792324788737874e+00	 7.912875460660368e+00
 8.020753641344036e-01	 1.799970158789352e+00	 7.819447312778792e+00
 7.850917834154448e-01	 1.807442482225144e+00	 7.727814592444679e+00
 7.680691239473414e-01	 1.814741647752109e+00	 7.633477231437957e+00
 7.510099300408769e-01	 1.821867592329375e+00	 7.532352072253842e+00
 7.339167374421334e-01	 1.828820300762612e+00	 7.420683887279004e+00
 7.167920722575044e-01	 1.835599805270095e+00	 7.293740041848328e+00
 6.996384498972799e-01	 1.842206185021295e+00	 7.147440059007902e+00
 6.824583740385706e-01	 1.848639565648836e+00	 6.978849556229397e+00
 6.519022680282955e-01	 1.765869350331382e+00	 6.650804498092983e+00
 6.354713111388517e-01	 1.771848593317297e+00	 6.549298764401467e+00
 6.190198366657016e-01	 1.777663008962260e+00	 6.459138385663343e+00
 6.025501949029400e-01	 1.783312846053559e+00	 6.376981749108833e+00
 5.860647212144215e-01	 1.788798395632072e+00	 6.300073255022619e+00
 5.695657351459118e-01	 1.794119990412552e+00	 6.226240202028533e+00
 5.530555395592713e-01	 1.799278004183412e+00	 6.153881535039636e+00
 5.365364197891498e-01	 1.804272851186889e+00	 6.081948923894527e+00
 5.200106428226289e-01	 1.809104985480471e+00	 6.009920676218775e+00
 5.034804565022232e-01	 1.813774900280471e+00	 5.937769019121614e+00
 4.869480887526040e-01	 1.818283127288656e+00	 5.865921310953486e+00
 6.549578786297219e-01	 1.774146371863731e+00	 6.693269454153148e+00
 6.384499061990342e-01	 1.780153640888624e+00	 6.601804541557009e+00
 6.219213200142383e-01	 1.785995309990285e+00	 6.522912602917250e+00
 6.053744813857638e-01	 1.791671629122109e+00	 6.452548902082023e+00
 5.888117366238175e-01	 1.797182890689137e+00	 6.387282807208193e+00
 5.722354161463743e-01	 1.802529428965615e+00	 6.324294660386421e+00
 5.556478336093053e-01	 1.807711619491974e+00	 6.261364210977632e+00
 5.390512850591133e-01	 1.812729878452083e+00	 6.196851096244034e+00
 5.224480481087375e-01	 1.817584662031686e+00	 6.129667889522158e+00
 5.058403811368134e-01	 1.822276465758901e+00	 6.059246268273616e+00
 4.892305225107745e-01	 1.826805823827681e+00	 5.985496881809987e+00
 6.580134892308822e-01	 1.782423393395677e+00	 6.730297308939436e+00
 6.414285012589676e-01	 1.788458688459521e+00	 6.645308520230868e+00
 6.248228033625713e-01	 1.794327611017873e+00	 6.572837223961441e+00
 6.081987678684507e-01	 1.800030412190232e+00	 6.508294179702537e+00
 5.915587520331601e-01	 1.805567385745794e+00	 6.447735759390413e+00
 5.749050971468814e-01	 1.810938867518298e+00	 6.387860525568960e+00
 5.582401276594879e-01	 1.816145234800187e+00	 6.325997068081804e+00
 5.415661503293344e-01	 1.821186905716960e+00	 6.260083599138557e+00
 5.248854533952103e-01	 1.826064338582610e+00	 6.188639844510045e+00
 5.082003057718694e-01	 1.830778031237055e+00	 6.110731801702020e+00
 4.915129562695016e-01	 1.835328520366439e+00	 6.025929964306751e+00
 6.610690998318431e-01	 1.790700414927322e+00	 6.763112225718778e+00
 6.444070963187153e-01	 1.796763736030097e+00	 6.680753828210197e+00
 6.277242867107518e-01	 1.802659912045134e+00	 6.609612695424998e+00
 6.110230543510350e-01	 1.808389195258034e+00	 6.544711700368187e+00
 5.943057674424651e-01	 1.813951880802145e+00	 6.481754284040123e+00
 5.775747781474243e-01	 1.819348306070697e+00	 6.417120467253939e+00
 5.608324217097872e-01	 1.824578850108139e+00	 6.347853809151385e+00
 5.440810155997560e-01	 1.829643932981597e+00	 6.271639829470690e+00
 5.273228586819682e-01	 1.834544015133316e+00	 6.186776450617665e+00
 5.105602304072903e-01	 1.839279596715006e+00	 6.092137049731066e+00
 4.937953900286674e-01	 1.843851216904997e+00	 5.987126740159486e+00
 6.641247104326711e-01	 1.798977436458766e+00	 6.792944927765633e+00
 6.473856913783390e-01	 1.805068783600458e+00	 6.709096671365974e+00
 6.306257700588300e-01	 1.810992213072177e+00	 6.633958084669288e+00
 6.138473408335520e-01	 1.816747978325622e+00	 6.562318809791937e+00
 5.970527828517465e-01	 1.822336375858293e+00	 6.489687491766740e+00
 5.802444591479949e-01	 1.827757744622905e+00	 6.412286949532508e+00
 5.634247157601709e-01	 1.833012465415916e+00	 6.327039975193724e+00
 5.465958808703215e-01	 1.838100960246076e+00	 6.231546296523220e+00
 5.297602639689301e-01	 1.843023691683876e+00	 6.124051277872984e+00
 5.129201550429753e-01	 1.847781162192820e+00	 6.003406969833359e+00
 4.960778237881540e-01	 1.852373913443422e+00	 5.869235705973439e+00
 6.671803210334328e-01	 1.807254457990109e+00	 6.821031854185789e+00
 6.503642864379001e-01	 1.813373831170712e+00	 6.731305435209240e+00
 6.335272534068583e-01	 1.819324514099111e+00	 6.646610143806232e+00
 6.166716273160365e-01	 1.825106761393103e+00	 6.561655123274176e+00
 5.997997982610184e-01	 1.830720870914339e+00	 6.471910466707374e+00
 5.829141401485844e-01	 1.836167183175019e+00	 6.373601273345415e+00
 5.660170098106057e-01	 1.841446080723607e+00	 6.263692007900860e+00
 5.491107461409732e-01	 1.846557987510475e+00	 6.139861716560430e+00
 5.321976692560165e-01	 1.851503368234363e+00	 6.000470694742356e+00
 5.152800796788236e-01	 1.856282727670566e+00	 5.861151792071366e+00
 4.983602575478438e-01	 1.860896609981779e+00	 5.742680101478959e+00
 6.702359316341945e-01	 1.815531479521452e+00	 6.848614318620696e+00
 6.533428814974620e-01	 1.821678878740965e+00	 6.748359792146292e+00
 6.364287367548873e-01	 1.827656815126044e+00	 6.648322381727603e+00
 6.194959137985235e-01	 1.833465544460584e+00	 6.543281577821894e+00
 6.025468136702961e-01	 1.839105365970385e+00	 6.428823313139561e+00
 5.855838211491849e-01	 1.844576621727132e+00	 6.301332631084055e+00
 5.686093038610591e-01	 1.849879696031297e+00	 6.157976324834888e+00
 5.516256114116549e-01	 1.855015014774876e+00	 6.004728386786573e+00
 5.346350745431466e-01	 1.859983044784851e+00	 5.871195495861831e+00
 5.176400043147342e-01	 1.864784293148311e+00	 5.758198245581782e+00
 5.006426913076193e-01	 1.869419306520137e+00	 5.663328813056671e+00
 6.732915422350230e-01	 1.823808501052896e+00	 6.876937670734252e+00
 6.563214765570855e-01	 1.829983926311328e+00	 6.761249814251384e+00
 6.393302201029681e-01	 1.835989116153088e+00	 6.639864143893822e+00
 6.223202002810477e-01	 1.841824327528172e+00	 6.507779493801577e+00
 6.052938290795936e-01	 1.847489861026532e+00	 6.360850212960610e+00
 5.882535021497876e-01	 1.852986060279340e+00	 6.196719455135989e+00
 5.712015979114985e-01	 1.858313311339075e+00	 6.043098207001515e+00
 5.541404766823086e-01	 1.863472042039354e+00	 5.912071943816890e+00
 5.370724798302403e-01	 1.868462721335410e+00	 5.801201650639554e+00
 5.199999289506066e-01	 1.873285858626126e+00	 5.708079247611610e+00
 5.029251250673623e-01	 1.877942003058562e+00	 5.630297944798523e+00
 6.763471528359838e-01	 1.832085522584540e+00	 6.907250460400096e+00
 6.593000716168337e-01	 1.838288973881903e+00	 6.770975091382134e+00
 6.422317034511515e-01	 1.844321417180349e+00	 6.622019699637498e+00
 6.251444867636440e-01	 1.850183110595974e+00	 6.455749645823570e+00
 6.080408444889266e-01	 1.855874356082885e+00	 6.280394959441693e+00
 5.909231831503844e-01	 1.861395498831738e+00	 6.127260913959170e+00
 5.737938919618912e-01	 1.866746926647026e+00	 5.995978510631411e+00
 5.566553419528779e-01	 1.871929069303992e+00	 5.884173768501914e+00
 5.395098851172180e-01	 1.876942397886117e+00	 5.789540354535031e+00
 5.223598535863397e-01	 1.881787424104077e+00	 5.709806854087210e+00
 5.052075588269552e-01	 1.886464699597119e+00	 5.642707093213701e+00
 6.794027634371442e-01	 1.840362544116487e+00	 6.940803604495701e+00
 6.622786666767680e-01	 1.846594021452800e+00	 6.778543854466967e+00
 6.451331867994894e-01	 1.852653718207937e+00	 6.596000380028912e+00
 6.279687732463471e-01	 1.858541893664097e+00	 6.419883701147503e+00
 6.107878598983082e-01	 1.864258851139542e+00	 6.266512482963505e+00
 5.935928641509671e-01	 1.869804937384422e+00	 6.133520283022587e+00
 5.763861860122044e-01	 1.875180541955239e+00	 6.018689095716200e+00
 5.591702072233057e-01	 1.880386096568869e+00	 5.919909622787045e+00
 5.419472904039987e-01	 1.885422074437041e+00	 5.835144947511358e+00
 5.247197782218328e-01	 1.890288989582232e+00	 5.762397496780580e+00
 5.074899925862805e-01	 1.894987396135878e+00	 5.699679156558476e+00
 6.824583740385706e-01	 1.848639565648836e+00	 6.978849556229397e+00
 6.652572617369515e-01	 1.854899069024128e+00	 6.791056186595850e+00
 6.480346701480332e-01	 1.860986019235963e+00	 6.618945844633243e+00
 6.307930597291923e-01	 1.866900676732648e+00	 6.466877418234859e+00
 6.135348753077542e-01	 1.872643346196608e+00	 6.332671454102963e+00
 5.962625451515272e-01	 1.878214375937486e+00	 6.214347663919690e+00
 5.789784800624057e-01	 1.883614157263803e+00	 6.110080851064920e+00
 5.616850724935349e-01	 1.888843123834063e+00	 6.018160461321497e+00
 5.443846956905031e-01	 1.893901750988257e+00	 5.936953657097479e+00
 5.270797028569850e-01	 1.898790555060661e+00	 5.864871793350234e+00
 5.097724263452204e-01	 1.903510092674904e+00	 5.800340154107085e+00
 4.869480887526040e-01	 1.818283127288656e+00	 5.865921310953486e+00
 4.704157470569679e-01	 1.822630236397705e+00	 5.790798671728049e+00
 4.538856183878984e-01	 1.826816836167647e+00	 5.707911841332438e+00
 4.373598677937028e-01	 1.830843571914933e+00	 5.616870816430604e+00
 4.208406374924303e-01	 1.834711124582473e+00	 5.517552178390625e+00
 4.043300462218327e-01	 1.838420209993003e+00	 5.410041621723624e+00
 3.878301886145822e-01	 1.841971578090959e+00	 5.294574013431479e+00
 3.713431345988646e-01	 1.845366012173774e+00	 5.171471604986545e+00
 3.548709288244357e-01	 1.848604328113462e+00	 5.041842544616841e+00
 3.384155901141945e-01	 1.851687373569411e+00	 4.909653570739122e+00
 3.219791109412959e-01	 1.854616027193228e+00	 4.785803156454748e+00
 4.892305225107745e-01	 1.826805823827681e+00	 5.985496881809987e+00
 4.726206900607703e-01	 1.831173308801916e+00	 5.904447577249615e+00
 4.560130810102133e-01	 1.835379532094092e+00	 5.811865144710232e+00
 4.394098705554804e-01	 1.839425142045410e+00	 5.707846483632313e+00
 4.228132109556794e-01	 1.843310822790522e+00	 5.592769326533610e+00
 4.062252308795631e-01	 1.847037293507387e+00	 5.467231395014429e+00
 3.896480347778194e-01	 1.850605307655607e+00	 5.331987006282529e+00
 3.730837022808540e-01	 1.854015652204112e+00	 5.192084010124280e+00
 3.565342876221567e-01	 1.857269146849096e+00	 5.063029222388729e+00
 3.400018190873044e-01	 1.860366643223122e+00	 4.947128016895309e+00
 3.234882984886233e-01	 1.863309024096240e+00	 4.845451318600599e+00
 4.915129562695016e-01	 1.835328520366439e+00	 6.025929964306751e+00
 4.748256330652054e-01	 1.839716381205851e+00	 5.930086848532467e+00
 4.581405436332219e-01	 1.843942228020241e+00	 5.819363402809357e+00
 4.414598733179971e-01	 1.848006712175566e+00	 5.694401756666779e+00
 4.247857844196967e-01	 1.851910520998216e+00	 5.556140183098402e+00
 4.081204155380748e-01	 1.855654377021385e+00	 5.418878460394227e+00
 3.914658809418343e-01	 1.859239037219845e+00	 5.294652674679682e+00
 3.748242699636008e-01	 1.862665292234023e+00	 5.181593923401016e+00
 3.581976464205976e-01	 1.865933965584300e+00	 5.077968830534337e+00
 3.415880480610795e-01	 1.869045912876419e+00	 4.984208728301807e+00
 3.249974860365428e-01	 1.872002020998873e+00	 4.901253288109503e+00
 4.937953900286674e-01	 1.843851216904997e+00	 5.987126740159486e+00
 4.770305760701433e-01	 1.848259453609578e+00	 5.867628623202581e+00
 4.602680062567868e-01	 1.852504923946168e+00	 5.730671999634398e+00
 4.435098760811120e-01	 1.856588282305477e+00	 5.596641634995071e+00
 4.267583578843429e-01	 1.860510219205645e+00	 5.475979021679549e+00
 4.100156001972335e-01	 1.864271460535099e+00	 5.367271548578074e+00
 3.932837271065011e-01	 1.867872766783782e+00	 5.268963215550987e+00
 3.765648376469900e-01	 1.871314932263623e+00	 5.179337638908087e+00
 3.598610052196576e-01	 1.874598784319194e+00	 5.096690016639040e+00
 3.431742770354353e-01	 1.877725182529420e+00	 5.021142218247611e+00
 3.265066735849897e-01	 1.880695017901245e+00	 4.953523076416790e+00
 4.960778237881540e-01	 1.852373913443422e+00	 5.869235705973439e+00
 4.792355190754543e-01	 1.856802526013169e+00	 5.738550326398266e+00
 4.623954688807710e-01	 1.861067619871948e+00	 5.620743450069833e+00
 4.455598788446856e-01	 1.865169852435230e+00	 5.514796467896140e+00
 4.287309313494787e-01	 1.869109917412900e+00	 5.419590256822532e+00
 4.119107848569040e-01	 1.872888544048625e+00	 5.333884929709534e+00
 3.951015732716926e-01	 1.876506496347521e+00	 5.256301447811920e+00
 3.783054053309068e-01	 1.879964572293025e+00	 5.185304929925167e+00
 3.615243640192359e-01	 1.883263603053898e+00	 5.119291729904893e+00
 3.447605060102883e-01	 1.886404452182246e+00	 5.058134415531509e+00
 3.280158611338989e-01	 1.889388014803469e+00	 5.002569098097423e+00
 4.983602575478438e-01	 1.860896609981779e+00	 5.742680101478959e+00
 4.814404620810082e-01	 1.865345598416690e+00	 5.639265130324068e+00
 4.645229315050365e-01	 1.869630315797655e+00	 5.546009513755050e+00
 4.476098816085765e-01	 1.873751422564903e+00	 5.462089415444559e+00
 4.307035048149643e-01	 1.877709615620070e+00	 5.386583881430569e+00
 4.138059695169521e-01	 1.881505627562064e+00	 5.318454802307208e+00
 3.969194194372828e-01	 1.885140225911173e+00	 5.256528786142225e+00
 3.800459730152358e-01	 1.888614212322343e+00	 5.199480768609209e+00
 3.631877228192321e-01	 1.891928421788526e+00	 5.145868851274497e+00
 3.463467349855543e-01	 1.895083721835016e+00	 5.095386413544644e+00
 3.295250486832060e-01	 1.898081011705663e+00	 5.048694118836609e+00
 5.006426913076193e-01	 1.869419306520137e+00	 5.663328813056671e+00
 4.836454050866754e-01	 1.873888670820212e+00	 5.580737079632289e+00
 4.666503941294464e-01	 1.878193011723362e+00	 5.505828779143682e+00
 4.496598843726448e-01	 1.882332992694578e+00	 5.438003980164631e+00
 4.326760782806605e-01	 1.886309313827246e+00	 5.376568665933277e+00
 4.157011541772427e-01	 1.890122711075513e+00	 5.320714902915722e+00
 3.987372656031449e-01	 1.893773955474844e+00	 5.269502970599776e+00
 3.817865406998620e-01	 1.897263852351690e+00	 5.221845271227346e+00
 3.648510816195448e-01	 1.900593240523199e+00	 5.176512055818698e+00
 3.479329639611495e-01	 1.903762991487849e+00	 5.133094376272548e+00
 3.310342362328462e-01	 1.906774008607944e+00	 5.092195204079910e+00
 5.029251250673623e-01	 1.877942003058562e+00	 5.630297944798523e+00
 4.858503480923255e-01	 1.882431743223802e+00	 5.562203266400269e+00
 4.687778567538631e-01	 1.886755707649143e+00	 5.499560978947272e+00
 4.517098871367496e-01	 1.890914562824337e+00	 5.442023551955145e+00
 4.346486517464278e-01	 1.894909012034517e+00	 5.389152029890648e+00
 4.175963388376412e-01	 1.898739794589072e+00	 5.340396402419878e+00
 4.005551117691525e-01	 1.902407685038639e+00	 5.295077988807172e+00
 3.835271083846704e-01	 1.905913492381181e+00	 5.252373647168790e+00
 3.665144404200736e-01	 1.909258059258034e+00	 5.211307677849791e+00
 3.495191929369901e-01	 1.912442261140863e+00	 5.171449445972841e+00
 3.325434237827546e-01	 1.915467005510426e+00	 5.133363668324044e+00
 5.052075588269552e-01	 1.886464699597119e+00	 5.642707093213701e+00
 4.880552910978292e-01	 1.890974815627532e+00	 5.582903013557842e+00
 4.709053193781492e-01	 1.895318403575075e+00	 5.526566825320497e+00
 4.537598899007508e-01	 1.899496132954260e+00	 5.473631264065271e+00
 4.366212252121265e-01	 1.903508710241975e+00	 5.423939920312634e+00
 4.194915234980127e-01	 1.907356878102840e+00	 5.377227808063657e+00
 4.023729579351792e-01	 1.911041414602669e+00	 5.333104002824737e+00
 3.852676760695460e-01	 1.914563132410930e+00	 5.291036151616783e+00
 3.681777992207175e-01	 1.917922877993149e+00	 5.250337578673019e+00
 3.511054219129919e-01	 1.921121530794178e+00	 5.210637652486652e+00
 3.340526113328665e-01	 1.924160002413225e+00	 5.172485025037897e+00
 5.074899925862805e-01	 1.894987396135878e+00	 5.699679156558476e+00
 4.902602341030561e-01	 1.899517888031467e+00	 5.642077700394274e+00
 4.730327820021674e-01	 1.903881099501229e+00	 5.586207853473727e+00
 4.558098926645078e-01	 1.908077703084432e+00	 5.532309856539841e+00
 4.385937986776174e-01	 1.912108408449707e+00	 5.480536696480862e+00
 4.213867081582230e-01	 1.915973961616915e+00	 5.430934870992355e+00
 4.041908041010985e-01	 1.919675144167038e+00	 5.383427280555818e+00
 3.870082437543736e-01	 1.923212772441049e+00	 5.337798041769549e+00
 3.698411580213761e-01	 1.926587696728663e+00	 5.293679016895678e+00
 3.526916508890713e-01	 1.929800800447914e+00	 5.250839824122928e+00
 3.355617988831173e-01	 1.932852999316460e+00	 5.209838937192067e+00
 5.097724263452204e-01	 1.903510092674904e+00	 5.800340154107085e+00
 4.924651771078767e-01	 1.908060960435679e+00	 5.738970597125232e+00
 4.751602446257804e-01	 1.912443795427681e+00	 5.677846273438959e+00
 4.578598954278802e-01	 1.916659273214932e+00	 5.617541546904979e+00
 4.405663721427611e-01	 1.920708106657808e+00	 5.558545021072810e+00
 4.232818928181369e-01	 1.924591045131397e+00	 5.501240499143050e+00
 4.060086502667843e-01	 1.928308873731856e+00	 5.445890131545473e+00
 3.887488114390382e-01	 1.931862412471655e+00	 5.392619536488976e+00
 3.715045168219482e-01	 1.935252515464695e+00	 5.341404676064098e+00
 3.542778798651443e-01	 1.938480070102190e+00	 5.292231500070423e+00
 3.370709864334423e-01	 1.941545996220245e+00	 5.245699168375834e+00
 3.219791109412959e-01	 1.854616027193228e+00	 4.785803156454748e+00
 3.055606687055367e-01	 1.857391656406358e+00	 4.676568030711181e+00
 2.891650023070632e-01	 1.860014687762456e+00	 4.578620856804579e+00
 2.727940274725352e-01	 1.862486087193140e+00	 4.492439100375652e+00
 2.564496316329439e-01	 1.864806848419438e+00	 4.417970531774160e+00
 2.401336735270881e-01	 1.866977992128452e+00	 4.354682941023366e+00
 2.238479828302094e-01	 1.869000565147120e+00	 4.301610788415617e+00
 2.075943598076006e-01	 1.870875639613892e+00	 4.257398902741335e+00
 1.913745749929846e-01	 1.872604312149079e+00	 4.220343345306419e+00
 1.751903688914300e-01	 1.874187703024645e+00	 4.188429562830089e+00
 1.590434517065504e-01	 1.875626955334190e+00	 4.159367956107713e+00
 3.234882984886233e-01	 1.863309024096240e+00	 4.845451318600606e+00
 3.069928993702057e-01	 1.866097663299308e+00	 4.754438240973343e+00
 2.905203828444765e-01	 1.868732989385335e+00	 4.671036960001704e+00
 2.740726736175322e-01	 1.871215972813470e+00	 4.596090376145716e+00
 2.576516679671727e-01	 1.873547611962533e+00	 4.529920980461484e+00
 2.412592333445186e-01	 1.875728932303808e+00	 4.472380101181009e+00
 2.248972080009062e-01	 1.877760985570946e+00	 4.422894020284373e+00
 2.085674006398718e-01	 1.879644848927742e+00	 4.380507078685365e+00
 1.922715900940236e-01	 1.881381624134609e+00	 4.343921894738328e+00
 1.760115250265642e-01	 1.882972436714475e+00	 4.311536825672183e+00
 1.597889236572118e-01	 1.884418435118870e+00	 4.281480805251038e+00
 3.249974860365428e-01	 1.872002020998873e+00	 4.901253288109503e+00
 3.084251300353769e-01	 1.874803670191940e+00	 4.825573783121579e+00
 2.918757633822891e-01	 1.877451291007973e+00	 4.754422076150925e+00
 2.753513197628181e-01	 1.879945858433651e+00	 4.688945722949263e+00
 2.588537043015764e-01	 1.882288375505576e+00	 4.629781324321880e+00
 2.423847931620126e-01	 1.884479872479215e+00	 4.577103361001742e+00
 2.259464331715617e-01	 1.886521405994918e+00	 4.530669829983435e+00
 2.095404414720090e-01	 1.888414058241828e+00	 4.489864807619725e+00
 1.931686051948520e-01	 1.890158936120450e+00	 4.453738070895217e+00
 1.768326811614326e-01	 1.891757170404670e+00	 4.421041913083313e+00
 1.605343956075780e-01	 1.893209914903944e+00	 4.390265293616464e+00
 3.265066735849897e-01	 1.880695017901245e+00	 4.953523076416790e+00
 3.098573607010064e-01	 1.883509677084360e+00	 4.890380059185062e+00
 2.932311439204799e-01	 1.886169592630466e+00	 4.829254385249500e+00
 2.766299659083941e-01	 1.888675744053763e+00	 4.771538386596553e+00
 2.600557406361800e-01	 1.891029139048634e+00	 4.718123075083602e+00
 2.435103529796172e-01	 1.893230812654720e+00	 4.669446620986025e+00
 2.269956583422443e-01	 1.895281826419068e+00	 4.625539561533815e+00
 2.105134823040992e-01	 1.897183267556163e+00	 4.586066871571536e+00
 1.940656202955735e-01	 1.898936248106599e+00	 4.550367034548846e+00
 1.776538372961520e-01	 1.900541904095215e+00	 4.517488256779691e+00
 1.612798675577749e-01	 1.902001394689388e+00	 4.486221971441990e+00
 3.280158611338989e-01	 1.889388014803469e+00	 5.002569098097431e+00
 3.112895913670510e-01	 1.892215683976677e+00	 4.949256112453394e+00
 2.945865244590273e-01	 1.894887894252909e+00	 4.896005167196526e+00
 2.779086120542623e-01	 1.897405629673888e+00	 4.844394378566790e+00
 2.612577769710084e-01	 1.899769902591771e+00	 4.795510369788550e+00
 2.446359127973796e-01	 1.901981752830368e+00	 4.749996447338987e+00
 2.280448835130220e-01	 1.904042246843425e+00	 4.708097432812560e+00
 2.114865231362296e-01	 1.905952476870757e+00	 4.669701289466900e+00
 1.949626353962916e-01	 1.907713560093051e+00	 4.634377688565682e+00
 1.784749934308389e-01	 1.909326637786092e+00	 4.601413665310672e+00
 1.620253395079284e-01	 1.910792874475175e+00	 4.569846517592972e+00
 3.295250486832060e-01	 1.898081011705663e+00	 5.048694118836609e+00
 3.127218220334665e-01	 1.900921690869000e+00	 5.002594615030832e+00
 2.959419049979104e-01	 1.903606195875402e+00	 4.955138821980892e+00
 2.791872582004246e-01	 1.906135515294109e+00	 4.908032522273802e+00
 2.624598133060862e-01	 1.908510666135051e+00	 4.862500036954538e+00
 2.457614726153469e-01	 1.910732693006207e+00	 4.819332152236545e+00
 2.290941086839632e-01	 1.912802667268016e+00	 4.778930624501016e+00
 2.124595639684876e-01	 1.914721686185623e+00	 4.741349409727984e+00
 1.958596504971099e-01	 1.916490872079803e+00	 4.706332769499195e+00
 1.792961495656101e-01	 1.918111371477284e+00	 4.673350410371117e+00
 1.627708114581645e-01	 1.919584354261280e+00	 4.641629816695496e+00
 3.310342362328462e-01	 1.906774008607944e+00	 5.092195204079903e+00
 3.141540527002098e-01	 1.909627697761435e+00	 5.050781855088415e+00
 2.972972855371077e-01	 1.912324497498037e+00	 5.007112888781394e+00
 2.804659043468828e-01	 1.914865400914506e+00	 4.962964497624477e+00
 2.636618496414384e-01	 1.917251429678539e+00	 4.919641660566725e+00
 2.468870324335666e-01	 1.919483633182285e+00	 4.878025871601490e+00
 2.301433338551358e-01	 1.921563087692869e+00	 4.838619366373683e+00
 2.134326048009602e-01	 1.923490895500773e+00	 4.801586000159986e+00
 1.967566655981319e-01	 1.925268184066851e+00	 4.766788936542536e+00
 1.801173057005824e-01	 1.926896105168775e+00	 4.733825310651334e+00
 1.635162834086092e-01	 1.928375834047675e+00	 4.702058034088100e+00
 3.325434237827546e-01	 1.915467005510426e+00	 5.133363668324044e+00
 3.155862833672366e-01	 1.918333704654092e+00	 5.094197723830776e+00
 2.986526660765982e-01	 1.921042799120914e+00	 5.052378064017046e+00
 2.817445504936386e-01	 1.923595286535161e+00	 5.009694883921085e+00
 2.648638859770899e-01	 1.925992193222300e+00	 4.967477641971683e+00
 2.480125922520855e-01	 1.928234573358647e+00	 4.926642640481236e+00
 2.311925590266081e-01	 1.930323508118015e+00	 4.887737021004949e+00
 2.144056456337346e-01	 1.932260104816217e+00	 4.850979335218901e+00
 1.976536806994613e-01	 1.934045496054190e+00	 4.816296857926422e+00
 1.809384618358723e-01	 1.935680838860549e+00	 4.783359813308943e+00
 1.642617553593884e-01	 1.937167313834336e+00	 4.751612688663226e+00
 3.340526113328665e-01	 1.924160002413225e+00	 5.172485025037897e+00
 3.170185140345038e-01	 1.927039711547080e+00	 5.133215702183549e+00
 3.000080466163605e-01	 1.929761100744128e+00	 5.091378218380271e+00
 2.830231966406938e-01	 1.932325172156155e+00	 5.048721201167335e+00
 2.660659223130654e-01	 1.934732956766400e+00	 5.006543259732227e+00
 2.491381520709509e-01	 1.936985513535340e+00	 4.965740466084569e+00
 2.322417841984482e-01	 1.939083928543483e+00	 4.926850164984146e+00
 2.153786864668980e-01	 1.941029314131968e+00	 4.890091280729500e+00
 1.985506958012014e-01	 1.942822808041816e+00	 4.855401294841940e+00
 1.817596179715965e-01	 1.944465572552587e+00	 4.822470073132476e+00
 1.650072273106280e-01	 1.945958793621237e+00	 4.790770723669627e+00
 3.355617988831173e-01	 1.932852999316460e+00	 5.209838937192067e+00
 3.184507447019675e-01	 1.935745718440506e+00	 5.168202847212408e+00
 3.013634271563735e-01	 1.938479402367776e+00	 5.124550412879597e+00
 2.843018427880504e-01	 1.941055057777572e+00	 5.080533949820772e+00
 2.672679586493897e-01	 1.943473720310901e+00	 5.037366727513987e+00
 2.502637118902101e-01	 1.945736453712412e+00	 4.995870398569738e+00
 2.332910093707245e-01	 1.947844348969300e+00	 4.956518667711112e+00
 2.163517273005377e-01	 1.949798523448037e+00	 4.919477376150410e+00
 1.994477109034560e-01	 1.951600120029727e+00	 4.884641182965136e+00
 1.825807741078719e-01	 1.953250306244875e+00	 4.851667029474037e+00
 1.657526992624541e-01	 1.954750273408352e+00	 4.820004575530572e+00
 3.370709864334423e-01	 1.941545996220245e+00	 5.245699168375834e+00
 3.198829753695842e-01	 1.944451725334479e+00	 5.199519778278185e+00
 3.027188076966160e-01	 1.947197703991955e+00	 5.152324913933816e+00
 2.855804889357101e-01	 1.949784943399491e+00	 5.105616649046404e+00
 2.684699949860878e-01	 1.952214483855871e+00	 5.060469250061480e+00
 2.513892717099102e-01	 1.954487393889909e+00	 5.017576599642338e+00
 2.343402345435050e-01	 1.956604769395496e+00	 4.977295767849689e+00
 2.173247681347407e-01	 1.958567732764435e+00	 4.939686914449296e+00
 2.003447260063288e-01	 1.960377432017918e+00	 4.904549711663264e+00
 1.834019302448152e-01	 1.962035039937395e+00	 4.871456481016560e+00
 1.664981712149926e-01	 1.963541753195654e+00	 4.839782240748719e+00
 1.590434517065504e-01	 1.875626955334190e+00	 4.159367956107713e+00
 1.429382314216784e-01	 1.876923025847079e+00	 4.132018217174648e+00
 1.268735769469384e-01	 1.878077356778291e+00	 4.107534509129088e+00
 1.108510687324477e-01	 1.879091153726199e+00	 4.086730762891143e+00
 9.487225709370022e-02	 1.879965641777177e+00	 4.070216939399455e+00
 7.893866205069694e-02	 1.880702064699139e+00	 4.058420114736455e+00
 6.305177318862708e-02	 1.881301684138893e+00	 4.051603914707291e+00
 4.721304953974399e-02	 1.881765778823908e+00	 4.049886427203246e+00
 3.142391948606261e-02	 1.882095643769081e+00	 4.053256717169726e+00
 1.568578068249159e-02	 1.882292589489063e+00	 4.061590064947132e+00
 0.000000000000000e+00	 1.882357941216666e+00	 4.074662044679399e+00
 1.597889236572118e-01	 1.884418435118870e+00	 4.281480805251038e+00
 1.436082146305011e-01	 1.885720580601749e+00	 4.252991291691865e+00
 1.274682615549137e-01	 1.886880322138074e+00	 4.227228480186604e+00
 1.113706522885187e-01	 1.887898870977132e+00	 4.204877069644485e+00
 9.531694441351392e-02	 1.888777457947550e+00	 4.186424919707177e+00
 7.930866507460187e-02	 1.889517332647062e+00	 4.172183848087239e+00
 6.334731083901836e-02	 1.890119762636099e+00	 4.162308752805379e+00
 4.743434757785443e-02	 1.890586032635811e+00	 4.156815192463977e+00
 3.157121036829778e-02	 1.890917443731123e+00	 4.155595553974183e+00
 1.575930341640463e-02	 1.891115312579360e+00	 4.158433932845516e+00
 0.000000000000000e+00	 1.891180970624999e+00	 4.165019846966826e+00
 1.605343956075780e-01	 1.893209914903944e+00	 4.390265293616464e+00
 1.442781978390275e-01	 1.894518135356813e+00	 4.360953036500396e+00
 1.280629461626155e-01	 1.895683287498231e+00	 4.334252122655641e+00
 1.118902358443562e-01	 1.896706588228395e+00	 4.310736578407730e+00
 9.576163173314500e-02	 1.897589274118199e+00	 4.290790844243102e+00
 7.967866809837955e-02	 1.898332600595201e+00	 4.274630239507336e+00
 6.364284848933595e-02	 1.898937841133457e+00	 4.262319728245333e+00
 4.765564561593674e-02	 1.899406286447809e+00	 4.253791124273108e+00
 3.171850125053627e-02	 1.899739243693211e+00	 4.248858869600344e+00
 1.583282615033235e-02	 1.899938035669670e+00	 4.247234515786282e+00
 0.000000000000000e+00	 1.900004000033333e+00	 4.248540033472120e+00
 1.612798675577749e-01	 1.902001394689388e+00	 4.486221971441990e+00
 1.449481810473886e-01	 1.903315690112244e+00	 4.456355619433900e+00
 1.286576307701753e-01	 1.904486252858727e+00	 4.429008638639698e+00
 1.124098194000882e-01	 1.905514305479959e+00	 4.404662828037385e+00
 9.620631905271379e-02	 1.906401090289098e+00	 4.383617782515422e+00
 8.004867112213891e-02	 1.907147868543532e+00	 4.366010979494904e+00
 6.393838613967366e-02	 1.907755919630951e+00	 4.351836143753915e+00
 4.787694365406614e-02	 1.908226540259889e+00	 4.340960033623521e+00
 3.186579213283140e-02	 1.908561043655338e+00	 4.333137787507844e+00
 1.590634888430292e-02	 1.908760758759990e+00	 4.328026964888802e+00
 0.000000000000000e+00	 1.908827029441666e+00	 4.325200411485834e+00
 1.620253395079284e-01	 1.910792874475175e+00	 4.569846517592964e+00
 1.456181642557152e-01	 1.912113244868008e+00	 4.539647107085057e+00
 1.292523153777245e-01	 1.913289218219532e+00	 4.511897832377651e+00
 1.129294029558426e-01	 1.914322022731792e+00	 4.487006603775094e+00
 9.665100637234066e-02	 1.915212906460218e+00	 4.465206643160668e+00
 8.041867414598883e-02	 1.915963136492034e+00	 4.446576146516855e+00
 6.423392379012537e-02	 1.916573998128565e+00	 4.431056202532647e+00
 4.809824169231792e-02	 1.917046794072044e+00	 4.418467115681923e+00
 3.201308301523648e-02	 1.917382843617501e+00	 4.408523277686515e+00
 1.597987161834455e-02	 1.917583481850320e+00	 4.400846726216585e+00
 0.000000000000000e+00	 1.917650058849999e+00	 4.394979525033048e+00
 1.627708114581645e-01	 1.919584354261280e+00	 4.641629816695496e+00
 1.462881474641380e-01	 1.920910799624077e+00	 4.611271531216214e+00
 1.298469999853945e-01	 1.922092183580612e+00	 4.583316166432244e+00
 1.134489865117470e-01	 1.923129739983864e+00	 4.558115983636015e+00
 9.709569369214588e-02	 1.924024722631535e+00	 4.535856210878362e+00
 8.078867717003825e-02	 1.924778404440686e+00	 4.516574234756387e+00
 6.452946144078488e-02	 1.925392076626283e+00	 4.500177027008502e+00
 4.831953973076732e-02	 1.925867047884262e+00	 4.486456959652723e+00
 3.216037389780486e-02	 1.926204643579694e+00	 4.475106157670957e+00
 1.605339435248539e-02	 1.926406204940658e+00	 4.465729532904567e+00
 0.000000000000000e+00	 1.926473088258333e+00	 4.457856638003255e+00
 1.635162834086092e-01	 1.928375834047675e+00	 4.702058034088107e+00
 1.469581306727880e-01	 1.929708354380417e+00	 4.671668953305122e+00
 1.304416845933169e-01	 1.930895148941936e+00	 4.643656816312633e+00
 1.139685700679296e-01	 1.931937457236145e+00	 4.618336383514206e+00
 9.754038101224971e-02	 1.932836538803019e+00	 4.595863182349296e+00
 8.115868019439608e-02	 1.933593672389465e+00	 4.576252181100107e+00
 6.482499909174606e-02	 1.934210155124091e+00	 4.559394677071400e+00
 4.854083776948961e-02	 1.934687301696534e+00	 4.545073558374062e+00
 3.230766478058984e-02	 1.935026443541913e+00	 4.532977093529922e+00
 1.612691708675365e-02	 1.935228928031003e+00	 4.522711397504319e+00
 0.000000000000000e+00	 1.935296117666666e+00	 4.513811717740274e+00
 1.642617553593884e-01	 1.937167313834336e+00	 4.751612688663219e+00
 1.476281138817961e-01	 1.938505909136998e+00	 4.721275527287363e+00
 1.310363692016229e-01	 1.939698114303471e+00	 4.693309723579139e+00
 1.144881536245180e-01	 1.940745174488602e+00	 4.668010601040891e+00
 9.798506833277253e-02	 1.941648354974646e+00	 4.645522201166094e+00
 8.152868321917121e-02	 1.942408940338352e+00	 4.625855391385787e+00
 6.512053674310277e-02	 1.943028233621972e+00	 4.608904167813860e+00
 4.876213580856004e-02	 1.943507555508849e+00	 4.594460317652411e+00
 3.245495566364472e-02	 1.943848243504153e+00	 4.582226600830035e+00
 1.620043982117750e-02	 1.944051651121353e+00	 4.571828604538354e+00
 0.000000000000000e+00	 1.944119147074999e+00	 4.562825419079656e+00
 1.650072273106280e-01	 1.945958793621237e+00	 4.790770723669627e+00
 1.482980970912930e-01	 1.947303463893789e+00	 4.760523560551539e+00
 1.316310538104442e-01	 1.948501079665185e+00	 4.732661647481369e+00
 1.150077371816403e-01	 1.949552891741206e+00	 4.707478858239790e+00
 9.842975565383462e-02	 1.950460171146388e+00	 4.685125891809358e+00
 8.189868624447254e-02	 1.951224208287323e+00	 4.665627765937393e+00
 6.541607439494881e-02	 1.951846312119910e+00	 4.648899486790583e+00
 4.898343384805388e-02	 1.952327809321200e+00	 4.634760065345839e+00
 3.260224654702285e-02	 1.952670043466408e+00	 4.622945045572996e+00
 1.627396255578512e-02	 1.952874374211707e+00	 4.613117703255242e+00
 0.000000000000000e+00	 1.952942176483333e+00	 4.604879068820084e+00
 1.657526992624541e-01	 1.954750273408352e+00	 4.820004575530572e+00
 1.489680803014097e-01	 1.956101018650761e+00	 4.789841573243073e+00
 1.322257384199121e-01	 1.957304045027046e+00	 4.762096215170880e+00
 1.155273207394242e-01	 1.958360608993926e+00	 4.737078843011327e+00
 9.887444297555625e-02	 1.959271987318218e+00	 4.714964892699904e+00
 8.226868927040905e-02	 1.960039476236356e+00	 4.695811724407544e+00
 6.571161204737802e-02	 1.960664390617890e+00	 4.679573610812785e+00
 4.920473188804639e-02	 1.961148063133574e+00	 4.666115060204961e+00
 3.274953743077755e-02	 1.961491843428675e+00	 4.655222645109084e+00
 1.634748529060471e-02	 1.961697097302066e+00	 4.646615500580613e+00
 0.000000000000000e+00	 1.961765205891666e+00	 4.639954650611179e+00
 1.664981712149926e-01	 1.963541753195654e+00	 4.839782240748712e+00
 1.496380635122771e-01	 1.964898573407881e+00	 4.809654355928311e+00
 1.328204230301581e-01	 1.966107010389023e+00	 4.781993970541123e+00
 1.160469042979976e-01	 1.967168326246733e+00	 4.757145749491365e+00
 9.931913029805782e-02	 1.968083803490110e+00	 4.735327888351980e+00
 8.263869229708956e-02	 1.968854744185433e+00	 4.716648229949123e+00
 6.600714970048427e-02	 1.969482469115895e+00	 4.701118522289832e+00
 4.942602992861282e-02	 1.969968316945963e+00	 4.688667000473400e+00
 3.289682831496212e-02	 1.970313643390948e+00	 4.679149469027105e+00
 1.642100802566443e-02	 1.970519820392425e+00	 4.672359054260135e+00
 0.000000000000000e+00	 1.970588235300000e+00	 4.668034790249635e+00
 1.970588235300000e+00	 0.000000000000000e+00	 1.253683805173497e+01
 1.970519820392425e+00	 1.642100802566334e-02	 1.254072048457701e+01
 1.970313643390948e+00	 3.289682831496119e-02	 1.254412181880061e+01
 1.969968316945962e+00	 4.942602992861205e-02	 1.254721987837710e+01
 1.969482469115896e+00	 6.600714970048366e-02	 1.255019564269933e+01
 1.968854744185433e+00	 8.263869229708914e-02	 1.255323283902650e+01
 1.968083803490109e+00	 9.931913029805751e-02	 1.255651803720967e+01
 1.967168326246733e+00	 1.160469042979975e-01	 1.256024129530819e+01
 1.966107010389023e+00	 1.328204230301581e-01	 1.256459740710379e+01
 1.964898573407881e+00	 1.496380635122773e-01	 1.256978780581618e+01
 1.963541753195655e+00	 1.664981712149926e-01	 1.257602318167511e+01
 1.979411264708333e+00	 0.000000000000000e+00	 1.250900381607460e+01
 1.979342543482784e+00	 1.649453076097796e-02	 1.251375180199277e+01
 1.979135443353222e+00	 3.304411919960481e-02	 1.251776853508748e+01
 1.978788570758354e+00	 4.964732796979519e-02	 1.252128309845462e+01
 1.978300547613911e+00	 6.630268735432222e-02	 1.252452238786170e+01
 1.977670012134527e+00	 8.300869532457990e-02	 1.252771046639181e+01
 1.976895619662033e+00	 9.976381762141422e-02	 1.253106841524594e+01
 1.975976043499590e+00	 1.165664878574424e-01	 1.253481472974364e+01
 1.974909975751075e+00	 1.334151076412680e-01	 1.253916631207493e+01
 1.973696128165110e+00	 1.503080467239820e-01	 1.254434011578066e+01
 1.972333232983107e+00	 1.672436431683274e-01	 1.255055550043062e+01
 1.988234294116667e+00	 0.000000000000000e+00	 1.248138233950376e+01
 1.988165266573141e+00	 1.656805349650859e-02	 1.248693839347549e+01
 1.987957243315492e+00	 3.319141008463999e-02	 1.249152937740123e+01
 1.987608824570739e+00	 4.986862601150802e-02	 1.249543115650900e+01
 1.987118626111917e+00	 6.659822500879423e-02	 1.249891227358651e+01
 1.986485280083611e+00	 8.337869835277670e-02	 1.250223307418857e+01
 1.985707435833949e+00	 1.002085049455213e-01	 1.250564532126303e+01
 1.984783760752450e+00	 1.170860714176574e-01	 1.250939234862458e+01
 1.983712941113145e+00	 1.340097922531461e-01	 1.251370980534015e+01
 1.982493682922379e+00	 1.509780299364346e-01	 1.251882704664685e+01
 1.981124712770631e+00	 1.679891151223749e-01	 1.252496923065272e+01
 1.997057323525000e+00	 0.000000000000000e+00	 1.245397218123807e+01
 1.996987989663497e+00	 1.664157623220292e-02	 1.246025694281979e+01
 1.996779043277752e+00	 3.333870096997509e-02	 1.246536278785958e+01
 1.996429078383105e+00	 5.008992405363105e-02	 1.246960794973495e+01
 1.995936704609892e+00	 6.689376266376228e-02	 1.247329841482229e+01
 1.995300548032656e+00	 8.374870138153247e-02	 1.247672682662831e+01
 1.994519252005821e+00	 1.006531922702292e-01	 1.248017187196242e+01
 1.993591478005259e+00	 1.176056549784952e-01	 1.248389819892926e+01
 1.992515906475166e+00	 1.346044768656508e-01	 1.248815691928119e+01
 1.991291237679609e+00	 1.516480131495014e-01	 1.249318675135918e+01
 1.989916192558135e+00	 1.687345870770098e-01	 1.249921586362906e+01
 2.005880352933334e+00	 0.000000000000000e+00	 1.242677149549462e+01
 2.005810712753848e+00	 1.671509896800864e-02	 1.243368480619570e+01
 2.005600843239997e+00	 3.348599185551849e-02	 1.243922884343823e+01
 2.005249332195440e+00	 5.031122209604479e-02	 1.244375985636133e+01
 2.004754783107819e+00	 6.718930031908894e-02	 1.244761713614997e+01
 2.004115815981632e+00	 8.411870441070034e-02	 1.245112170745094e+01
 2.003331068177603e+00	 1.010978795953879e-01	 1.245457549379407e+01
 2.002399195257965e+00	 1.181252385398082e-01	 1.245826100711000e+01
 2.001318871837074e+00	 1.351991614786409e-01	 1.246244161432054e+01
 2.000088792436723e+00	 1.523179963630490e-01	 1.246736243780848e+01
 1.998707672345530e+00	 1.694800590321063e-01	 1.247325195049476e+01
 2.014703382341667e+00	 0.000000000000000e+00	 1.239977804036027e+01
 2.014633435844194e+00	 1.678862170387343e-02	 1.240720000705767e+01
 2.014422643202223e+00	 3.363328274117855e-02	 1.241308923786359e+01
 2.014069586007733e+00	 5.053252013862973e-02	 1.241783570549507e+01
 2.013572861605677e+00	 6.748483797463685e-02	 1.242180793057195e+01
 2.012931083930510e+00	 8.448870744013323e-02	 1.242535146867877e+01
 2.012142884349258e+00	 1.015425669208479e-01	 1.242878786272236e+01
 2.011206912510516e+00	 1.186448221014493e-01	 1.243241411094339e+01
 2.010121837198803e+00	 1.357938460919748e-01	 1.243650270395848e+01
 2.008886347193643e+00	 1.529879795769438e-01	 1.244130228818344e+01
 2.007499152132723e+00	 1.702255309875390e-01	 1.244703901705619e+01
 2.023526411750000e+00	 0.000000000000000e+00	 1.237298918642785e+01
 2.023456158934532e+00	 1.686214443974498e-02	 1.238078123117918e+01
 2.023244443164422e+00	 3.378057362686362e-02	 1.238690726394690e+01
 2.022889839819972e+00	 5.075381818126642e-02	 1.239178674768224e+01
 2.022390940103445e+00	 6.778037563026854e-02	 1.239581341925091e+01
 2.021746351879260e+00	 8.485871046968424e-02	 1.239935358051065e+01
 2.020954700520745e+00	 1.019872542464594e-01	 1.240274484527878e+01
 2.020014629762858e+00	 1.191644056632711e-01	 1.240629539277196e+01
 2.018924802560290e+00	 1.363885307055112e-01	 1.241028378125927e+01
 2.017683901950290e+00	 1.536579627910522e-01	 1.241495937978583e+01
 2.016290631919625e+00	 1.709710029431824e-01	 1.242054348004561e+01
 2.032349441158334e+00	 0.000000000000000e+00	 1.234640192520722e+01
 2.032278882024863e+00	 1.693566717557098e-02	 1.235440782180871e+01
 2.032066243126591e+00	 3.392786451248211e-02	 1.236064779634757e+01
 2.031710093632146e+00	 5.097511622383536e-02	 1.236556662616396e+01
 2.031209018601105e+00	 6.807591328584661e-02	 1.236957931216998e+01
 2.030561619827852e+00	 8.522871349920640e-02	 1.237306918232252e+01
 2.029766516692022e+00	 1.024319415720726e-01	 1.237638644086369e+01
 2.028822347014941e+00	 1.196839892251263e-01	 1.237984721409393e+01
 2.027727767921467e+00	 1.369832153191087e-01	 1.238373314674237e+01
 2.026481456706587e+00	 1.543279460052406e-01	 1.238829160726300e+01
 2.025082111706145e+00	 1.717164748989107e-01	 1.239373656476259e+01
 2.041172470566667e+00	 0.000000000000000e+00	 1.232001287731850e+01
 2.041101605115184e+00	 1.700918991129913e-02	 1.232805977494307e+01
 2.040888043088722e+00	 3.407515539794231e-02	 1.233427727475056e+01
 2.040530347444243e+00	 5.119641426621703e-02	 1.233913134880654e+01
 2.040027097098637e+00	 6.837145094123367e-02	 1.234305436968682e+01
 2.039376887776257e+00	 8.559871652855275e-02	 1.234644303473999e+01
 2.038578332863048e+00	 1.028766288975378e-01	 1.234965672525828e+01
 2.037630064266710e+00	 1.202035727868675e-01	 1.235301635146068e+01
 2.036530733282270e+00	 1.375778999326259e-01	 1.235680373763707e+01
 2.035279011462456e+00	 1.549979292193754e-01	 1.236126160621636e+01
 2.033873591492191e+00	 1.724619468545988e-01	 1.236659422405993e+01
 2.049995499975000e+00	 0.000000000000000e+00	 1.229381830047368e+01
 2.049924328205493e+00	 1.708271264687711e-02	 1.230171773471504e+01
 2.049709843050813e+00	 3.422244628315263e-02	 1.230776368744799e+01
 2.049350601256250e+00	 5.141771230829197e-02	 1.231243926068541e+01
 2.048845175596020e+00	 6.866698859629229e-02	 1.231619036495291e+01
 2.048192155724445e+00	 8.596871955757628e-02	 1.231942347275097e+01
 2.047390149033785e+00	 1.033213162227052e-01	 1.232250379531141e+01
 2.046437781518113e+00	 1.207231563483473e-01	 1.232575393364276e+01
 2.045333698642635e+00	 1.381725845459214e-01	 1.232945305845794e+01
 2.044076566217819e+00	 1.556679124333231e-01	 1.233383667814387e+01
 2.042665071277676e+00	 1.732074188101208e-01	 1.233909705863498e+01
 2.058818529383334e+00	 0.000000000000000e+00	 1.226781409725275e+01
 2.058747051295792e+00	 1.715623538225260e-02	 1.227536298889228e+01
 2.058531643012857e+00	 3.436973716802146e-02	 1.228107655531035e+01
 2.058170855068159e+00	 5.163901034994070e-02	 1.228545101730354e+01
 2.057663254093237e+00	 6.896252625088510e-02	 1.228894204717437e+01
 2.057007423672389e+00	 8.633872258613008e-02	 1.229196235982738e+01
 2.056201965204191e+00	 1.037660035474252e-01	 1.229487971476482e+01
 2.055245498769098e+00	 1.212427399094184e-01	 1.229801538002587e+01
 2.054136664002496e+00	 1.387672691588538e-01	 1.230164311286330e+01
 2.052874120972598e+00	 1.563378956469501e-01	 1.230598871667571e+01
 2.051456551062507e+00	 1.739528907653515e-01	 1.231123023858532e+01
 1.963541753195655e+00	 1.664981712149926e-01	 1.257602318167511e+01
 1.962035039937395e+00	 1.834019302448144e-01	 1.258336551242715e+01
 1.960377432017917e+00	 2.003447260063280e-01	 1.259171208940677e+01
 1.958567732764435e+00	 2.173247681347400e-01	 1.260105185489322e+01
 1.956604769395495e+00	 2.343402345435043e-01	 1.261139618513463e+01
 1.954487393889909e+00	 2.513892717099096e-01	 1.262278632685373e+01
 1.952214483855871e+00	 2.684699949860874e-01	 1.263530197584173e+01
 1.949784943399491e+00	 2.855804889357098e-01	 1.264907107765713e+01
 1.947197703991955e+00	 3.027188076966157e-01	 1.266428093315961e+01
 1.944451725334479e+00	 3.198829753695840e-01	 1.268119069409084e+01
 1.941545996220244e+00	 3.370709864334422e-01	 1.270014533612509e+01
 1.972333232983107e+00	 1.672436431683274e-01	 1.255055550043062e+01
 1.970819773630115e+00	 1.842230863825027e-01	 1.255786439318735e+01
 1.969154744006365e+00	 2.012417411098860e-01	 1.256614545412938e+01
 1.967336942081150e+00	 2.182978089695609e-01	 1.257537471654079e+01
 1.965365189822070e+00	 2.353894597168285e-01	 1.258554596376363e+01
 1.963238334067847e+00	 2.525148315300733e-01	 1.259667797720940e+01
 1.960955247401336e+00	 2.696720313231641e-01	 1.260882292865537e+01
 1.958514829021956e+00	 2.868591350836591e-01	 1.262207599861545e+01
 1.955916005616716e+00	 3.040741882370558e-01	 1.263658630546383e+01
 1.953157732229060e+00	 3.213152060373045e-01	 1.265256923264968e+01
 1.950238993124648e+00	 3.385801739837758e-01	 1.267032024371972e+01
 1.981124712770631e+00	 1.679891151223749e-01	 1.252496923065272e+01
 1.979604507322948e+00	 1.850442425208570e-01	 1.253219794919330e+01
 1.977932055994974e+00	 2.021387562140528e-01	 1.254039718494177e+01
 1.976106151398081e+00	 2.192708498049244e-01	 1.254953346981654e+01
 1.974125610248917e+00	 2.364386848906215e-01	 1.255958607093556e+01
 1.971989274246110e+00	 2.536403913506257e-01	 1.257055403082528e+01
 1.969696010947182e+00	 2.708740676605446e-01	 1.258246435354510e+01
 1.967244714644846e+00	 2.881377812318237e-01	 1.259538142033152e+01
 1.964634307241942e+00	 3.054295687776203e-01	 1.260941772143600e+01
 1.961863739124130e+00	 3.227474367050577e-01	 1.262474599366504e+01
 1.958931990029550e+00	 3.400893615340513e-01	 1.264161285569794e+01
 1.989916192558135e+00	 1.687345870770098e-01	 1.249921586362906e+01
 1.988389241015790e+00	 1.858653986597584e-01	 1.250633051364182e+01
 1.986709367983631e+00	 2.030357713187153e-01	 1.251443917072547e+01
 1.984875360715103e+00	 2.202438906407224e-01	 1.252350225728501e+01
 1.982886030675901e+00	 2.374879100647797e-01	 1.253348759203239e+01
 1.980740214424560e+00	 2.547659511714677e-01	 1.254437720301804e+01
 1.978436774493257e+00	 2.720761039981343e-01	 1.255617528761945e+01
 1.975974600268007e+00	 2.894164273801139e-01	 1.256891740494612e+01
 1.973352608867469e+00	 3.067849493182255e-01	 1.258268098936973e+01
 1.970569746019525e+00	 3.241796673727672e-01	 1.259759727691578e+01
 1.967624986934786e+00	 3.415985490842008e-01	 1.261386473900229e+01
 1.998707672345530e+00	 1.694800590321063e-01	 1.247325195049477e+01
 1.997173974708539e+00	 1.866865547990883e-01	 1.248023144676439e+01
 1.995486679972220e+00	 2.039327864237606e-01	 1.248824834262097e+01
 1.993644570032090e+00	 2.212169314768472e-01	 1.249726032903643e+01
 1.991646451102887e+00	 2.385371352391998e-01	 1.250722683735330e+01
 1.989491154603049e+00	 2.558915109925001e-01	 1.251811560569692e+01
 1.987177538039408e+00	 2.732781403358382e-01	 1.252991039277286e+01
 1.984704485891279e+00	 2.906950735284401e-01	 1.254261992639758e+01
 1.982070910493136e+00	 3.081403298587879e-01	 1.255628817755495e+01
 1.979275752915078e+00	 3.256118980403568e-01	 1.257100605399190e+01
 1.976317983840187e+00	 3.431077366341572e-01	 1.258692461030431e+01
 2.007499152132723e+00	 1.702255309875390e-01	 1.244703901705619e+01
 2.005958708401092e+00	 1.875077109387282e-01	 1.245387504545767e+01
 2.004263991960627e+00	 2.048298015290760e-01	 1.246180657595171e+01
 2.002413779348917e+00	 2.221899723131905e-01	 1.247079193437784e+01
 2.000406871529739e+00	 2.395863604137781e-01	 1.248078522103788e+01
 1.998242094781434e+00	 2.570170708136236e-01	 1.249174261097814e+01
 1.995918301585487e+00	 2.744801766735620e-01	 1.250362980144252e+01
 1.993434371514504e+00	 2.919737196767124e-01	 1.251643069577179e+01
 1.990789212118780e+00	 3.094957103992237e-01	 1.253015741667131e+01
 1.987981759810624e+00	 3.270441287077500e-01	 1.254486174518299e+01
 1.985010980745589e+00	 3.446169241838526e-01	 1.256064808484273e+01
 2.016290631919625e+00	 1.709710029431824e-01	 1.242054348004561e+01
 2.014743442093345e+00	 1.883288670785593e-01	 1.242724045431455e+01
 2.013041303948737e+00	 2.057268166345483e-01	 1.243510059356800e+01
 2.011182988665458e+00	 2.231630131496444e-01	 1.244408621501626e+01
 2.009167291956323e+00	 2.406355855884111e-01	 1.245414914160606e+01
 2.006993034959571e+00	 2.581426306347390e-01	 1.246523671659062e+01
 2.004659065131339e+00	 2.756822130112106e-01	 1.247729896438595e+01
 2.002164257137524e+00	 2.932523658248414e-01	 1.249029698895613e+01
 1.999507513744238e+00	 3.108510909394492e-01	 1.250421270482017e+01
 1.996687766705998e+00	 3.284763593748701e-01	 1.251905999939459e+01
 1.993703977650824e+00	 3.461261117332197e-01	 1.253489742873436e+01
 2.025082111706145e+00	 1.717164748989107e-01	 1.239373656476259e+01
 2.023528175785197e+00	 1.891500232184631e-01	 1.240031157801270e+01
 2.021818615936437e+00	 2.066238317400649e-01	 1.240812187056937e+01
 2.019952197981589e+00	 2.241360539861011e-01	 1.241713709968947e+01
 2.017927712382503e+00	 2.416848107629952e-01	 1.242730986406421e+01
 2.015743975137318e+00	 2.592681904557470e-01	 1.243858141301902e+01
 2.013399828676815e+00	 2.768842493486894e-01	 1.245088850041870e+01
 2.010894142760184e+00	 2.945310119727374e-01	 1.246417147652519e+01
 2.008225815369348e+00	 3.122064714793808e-01	 1.247838371511538e+01
 2.005393773601034e+00	 3.299085900416410e-01	 1.249350247700071e+01
 2.002396974555725e+00	 3.476352992821909e-01	 1.250954131465191e+01
 2.033873591492191e+00	 1.724619468545988e-01	 1.236659422405993e+01
 2.032312909476544e+00	 1.899711793583208e-01	 1.237307699501991e+01
 2.030595927923613e+00	 2.075208468455127e-01	 1.238086654036178e+01
 2.028721407297184e+00	 2.251090948224524e-01	 1.238994320019978e+01
 2.026688132808145e+00	 2.427340359374269e-01	 1.240026340353154e+01
 2.024494915314527e+00	 2.603937502765484e-01	 1.241176505233257e+01
 2.022140592221762e+00	 2.780862856859037e-01	 1.242437404805141e+01
 2.019624028382323e+00	 2.958096581203107e-01	 1.243801205579242e+01
 2.016944116993947e+00	 3.135618520189347e-01	 1.245260560575453e+01
 2.014099780495567e+00	 3.313408207079863e-01	 1.246809663554474e+01
 2.011089971460127e+00	 3.491444868306984e-01	 1.248445458076720e+01
 2.042665071277676e+00	 1.732074188101208e-01	 1.233909705863498e+01
 2.041097643167284e+00	 1.907923354980139e-01	 1.234552987257595e+01
 2.039373239910149e+00	 2.084178619507789e-01	 1.235333530201094e+01
 2.037490616612118e+00	 2.260821356585905e-01	 1.236250770880901e+01
 2.035448553233113e+00	 2.437832611116027e-01	 1.237301041033954e+01
 2.033245855491058e+00	 2.615193100970440e-01	 1.238478071864753e+01
 2.030881355766028e+00	 2.792883220227587e-01	 1.239773611897004e+01
 2.028353914003786e+00	 2.970883042674717e-01	 1.241178168496148e+01
 2.025662418617874e+00	 3.149172325580274e-01	 1.242681883249671e+01
 2.022805787389431e+00	 3.327730513738292e-01	 1.244275551820070e+01
 2.019782968363860e+00	 3.506536743786751e-01	 1.245951799286063e+01
 2.051456551062507e+00	 1.739528907653515e-01	 1.231123023858532e+01
 2.049882376857315e+00	 1.916134916374238e-01	 1.231766788291321e+01
 2.048150551895931e+00	 2.093148770557507e-01	 1.232553332885254e+01
 2.046259825926267e+00	 2.270551764944074e-01	 1.233483829695380e+01
 2.044208973657273e+00	 2.448324862854191e-01	 1.234555605656202e+01
 2.041996795666765e+00	 2.626448699171346e-01	 1.235762610017514e+01
 2.039622119309464e+00	 2.804903583591599e-01	 1.237095995330380e+01
 2.037083799624415e+00	 2.983669504141306e-01	 1.238544821931489e+01
 2.034380720240965e+00	 3.162726130965752e-01	 1.240096896347386e+01
 2.031511794282461e+00	 3.342052820390937e-01	 1.241739754491439e+01
 2.028475965266763e+00	 3.521628619260533e-01	 1.243461800950305e+01
 1.941545996220244e+00	 3.370709864334422e-01	 1.270014533612509e+01
 1.938480070102190e+00	 3.542778798651433e-01	 1.271672612901346e+01
 1.935252515464695e+00	 3.715045168219472e-01	 1.272641098887777e+01
 1.931862412471655e+00	 3.887488114390375e-01	 1.273442966022464e+01
 1.928308873731856e+00	 4.060086502667835e-01	 1.274478267122476e+01
 1.924591045131398e+00	 4.232818928181366e-01	 1.275757648907817e+01
 1.920708106657807e+00	 4.405663721427606e-01	 1.277295574527117e+01
 1.916659273214932e+00	 4.578598954278800e-01	 1.279110303143693e+01
 1.912443795427681e+00	 4.751602446257804e-01	 1.281223854999391e+01
 1.908060960435679e+00	 4.924651771078769e-01	 1.283661958774254e+01
 1.903510092674904e+00	 5.097724263452202e-01	 1.286453978116718e+01
 1.950238993124648e+00	 3.385801739837758e-01	 1.267032024371972e+01
 1.947159339757076e+00	 3.558641088411304e-01	 1.268545214642620e+01
 1.943917334201315e+00	 3.731678756223417e-01	 1.269358385375999e+01
 1.940512052502813e+00	 3.904893791234378e-01	 1.270067430414735e+01
 1.936942603297183e+00	 4.078264964321268e-01	 1.271004119690150e+01
 1.933208128646343e+00	 4.251770774776411e-01	 1.272181810927255e+01
 1.929307804866323e+00	 4.425389456074416e-01	 1.273617231570752e+01
 1.925240843345804e+00	 4.599098981907534e-01	 1.275330460696494e+01
 1.921006491354468e+00	 4.772877072488776e-01	 1.277344896100510e+01
 1.916604032840201e+00	 4.946701201121875e-01	 1.279687203260315e+01
 1.912032789214229e+00	 5.120548601036816e-01	 1.282387242921057e+01
 1.958931990029550e+00	 3.400893615340513e-01	 1.264161285569794e+01
 1.955838609412455e+00	 3.574503378169704e-01	 1.265563672354529e+01
 1.952582152938404e+00	 3.748312344225044e-01	 1.266263183784973e+01
 1.949161692534410e+00	 3.922299468075285e-01	 1.266911744619612e+01
 1.945576332862909e+00	 4.096443425970912e-01	 1.267778036350588e+01
 1.941825212161644e+00	 4.270722621367091e-01	 1.268877453394210e+01
 1.937907503075148e+00	 4.445115190716422e-01	 1.270228367787441e+01
 1.933822413476946e+00	 4.619599009531187e-01	 1.271852115768893e+01
 1.929569187281490e+00	 4.794151698714577e-01	 1.273772969175019e+01
 1.925147105244934e+00	 4.968750631159928e-01	 1.276018088214661e+01
 1.920555485753756e+00	 5.143372938616730e-01	 1.278617452244458e+01
 1.967624986934786e+00	 3.415985490842008e-01	 1.261386473900229e+01
 1.964517879068161e+00	 3.590365667926065e-01	 1.262708831655666e+01
 1.961246971675803e+00	 3.764945932223906e-01	 1.263333875964080e+01
 1.957811332566286e+00	 3.939705144912779e-01	 1.263951963731253e+01
 1.954210062428879e+00	 4.114621887616586e-01	 1.264774628732021e+01
 1.950442295677148e+00	 4.289674467953352e-01	 1.265818633151693e+01
 1.946507201284140e+00	 4.464840925353690e-01	 1.267103378996592e+01
 1.942403983608214e+00	 4.640099037149928e-01	 1.268650901692813e+01
 1.938131883208609e+00	 4.815426324935459e-01	 1.270485848075046e+01
 1.933690177649742e+00	 4.990800061193236e-01	 1.272635435188818e+01
 1.929078182293349e+00	 5.166197276192274e-01	 1.275129386390887e+01
 1.976317983840187e+00	 3.431077366341572e-01	 1.258692461030431e+01
 1.973197148724028e+00	 3.606227957679817e-01	 1.259962295814146e+01
 1.969911790413346e+00	 3.781579520219558e-01	 1.260549479556092e+01
 1.966460972598281e+00	 3.957110821746541e-01	 1.261164815854082e+01
 1.962843791994938e+00	 4.132800349258104e-01	 1.261969202979008e+01
 1.959059379192707e+00	 4.308626314535145e-01	 1.262980107150029e+01
 1.955106899493149e+00	 4.484566659986286e-01	 1.264217350609699e+01
 1.950985553739471e+00	 4.660599064763932e-01	 1.265703114593280e+01
 1.946694579135689e+00	 4.836700951151673e-01	 1.267461926199520e+01
 1.942233250054491e+00	 5.012849491222111e-01	 1.269520625438615e+01
 1.937600878832876e+00	 5.189021613763783e-01	 1.271908308795934e+01
 1.985010980745589e+00	 3.446169241838526e-01	 1.256064808484273e+01
 1.981876418379890e+00	 3.622090247430395e-01	 1.257306397835260e+01
 1.978576609150870e+00	 3.798213108211553e-01	 1.257889628945638e+01
 1.975110612630236e+00	 3.974516498576258e-01	 1.258527681724229e+01
 1.971477521560928e+00	 4.150978810895282e-01	 1.259337738350296e+01
 1.967676462708170e+00	 4.327578161112408e-01	 1.260337310327716e+01
 1.963706597702032e+00	 4.504292394614277e-01	 1.261546035103760e+01
 1.959567123870574e+00	 4.681099092373365e-01	 1.262985690766673e+01
 1.955257275062591e+00	 4.857975577363481e-01	 1.264680194092338e+01
 1.950776322459048e+00	 5.034898921246862e-01	 1.266655578059806e+01
 1.946123575372203e+00	 5.211845951331590e-01	 1.268939945019810e+01
 1.993703977650824e+00	 3.461261117332197e-01	 1.253489742873436e+01
 1.990555688035582e+00	 3.637952537177229e-01	 1.254724172939420e+01
 1.987241427888211e+00	 3.814846696199445e-01	 1.255334556632711e+01
 1.983760252661990e+00	 3.991922175401612e-01	 1.256018574782387e+01
 1.980111251126696e+00	 4.169157272527940e-01	 1.256856866286042e+01
 1.976293546223384e+00	 4.346530007685088e-01	 1.257866333970999e+01
 1.972306295910644e+00	 4.524018129237728e-01	 1.259065829973986e+01
 1.968148694001381e+00	 4.701599119978401e-01	 1.260476184530226e+01
 1.963819970989180e+00	 4.879250203571130e-01	 1.262120217494897e+01
 1.959319394863277e+00	 5.056948351267798e-01	 1.264022728552280e+01
 1.954646271911197e+00	 5.234670288896022e-01	 1.266210462134327e+01
 2.002396974555725e+00	 3.476352992821909e-01	 1.250954131465191e+01
 1.999234957690937e+00	 3.653814826919749e-01	 1.252199331418571e+01
 1.995906246625206e+00	 3.831480284182786e-01	 1.252865075018274e+01
 1.992409892693384e+00	 4.009327852222285e-01	 1.253616121684374e+01
 1.988744980692086e+00	 4.187335734155892e-01	 1.254503849930047e+01
 1.984910629738201e+00	 4.365481854253137e-01	 1.255543904537439e+01
 1.980905994118838e+00	 4.543743863856706e-01	 1.256753756151218e+01
 1.976730264131752e+00	 4.722099147579211e-01	 1.258152746528449e+01
 1.972382666915315e+00	 4.900524829774880e-01	 1.259762115839108e+01
 1.967862467267044e+00	 5.078997781285233e-01	 1.261605007799832e+01
 1.963168968449725e+00	 5.257494626457417e-01	 1.263706448491720e+01
 2.011089971460127e+00	 3.491444868306984e-01	 1.248445458076720e+01
 2.007914227345791e+00	 3.669677116657392e-01	 1.249716231859517e+01
 2.004571065361692e+00	 3.848113872161132e-01	 1.250462558589634e+01
 2.001059532724257e+00	 4.026733529037965e-01	 1.251299543236226e+01
 1.997378710256942e+00	 4.205514195778954e-01	 1.252256564093337e+01
 1.993527713252470e+00	 4.384433700816494e-01	 1.253347362929598e+01
 1.989505692326468e+00	 4.563469598471275e-01	 1.254587436870054e+01
 1.985311834261547e+00	 4.742599175175962e-01	 1.255994102482590e+01
 1.980945362840864e+00	 4.921799455974982e-01	 1.257586541167679e+01
 1.976405539670214e+00	 5.101047211299473e-01	 1.259385821452939e+01
 1.971691664987653e+00	 5.280318964016106e-01	 1.261414893863861e+01
 2.019782968363860e+00	 3.506536743786751e-01	 1.245951799286063e+01
 2.016593496999975e+00	 3.685539406389585e-01	 1.247259854723203e+01
 2.013235884097506e+00	 3.864747460134034e-01	 1.248108926493366e+01
 2.009709172754451e+00	 4.044139205848329e-01	 1.249048635740906e+01
 2.006012439821110e+00	 4.223692657396942e-01	 1.250093475645699e+01
 2.002144796766039e+00	 4.403385547375105e-01	 1.251254644205193e+01
 1.998105390533390e+00	 4.583195333081502e-01	 1.252545076974055e+01
 1.993893404390623e+00	 4.763099202768828e-01	 1.253979532369859e+01
 1.989508058765687e+00	 4.943074082171689e-01	 1.255574657468695e+01
 1.984948612072654e+00	 5.123096641310829e-01	 1.257349029702351e+01
 1.980214361524848e+00	 5.303143301572421e-01	 1.259323169940695e+01
 2.028475965266763e+00	 3.521628619260533e-01	 1.243461800950305e+01
 2.025272766653326e+00	 3.701401696115764e-01	 1.244815776269240e+01
 2.021900702832483e+00	 3.881381048101049e-01	 1.245786625484327e+01
 2.018358812783806e+00	 4.061544882653070e-01	 1.246843752744384e+01
 2.014646169384433e+00	 4.241871119009676e-01	 1.247993624322384e+01
 2.010761880278761e+00	 4.422337393928923e-01	 1.249244257710649e+01
 2.006705088739459e+00	 4.602921067687453e-01	 1.250605442644910e+01
 2.002474974518841e+00	 4.783599230357982e-01	 1.252088850019476e+01
 1.998070754689647e+00	 4.964348708365260e-01	 1.253708120412091e+01
 1.993491684474229e+00	 5.145146071319616e-01	 1.255478927431826e+01
 1.988737058061177e+00	 5.325967639126696e-01	 1.257419011177073e+01
 1.903510092674904e+00	 5.097724263452202e-01	 1.286453978116718e+01
 1.898790555060662e+00	 5.270797028569836e-01	 1.289137490117614e+01
 1.893901750988258e+00	 5.443846956905017e-01	 1.291264078272270e+01
 1.888843123834064e+00	 5.616850724935336e-01	 1.292893295920993e+01
 1.883614157263803e+00	 5.789784800624048e-01	 1.294093277045742e+01
 1.878214375937486e+00	 5.962625451515265e-01	 1.294940578656430e+01
 1.872643346196608e+00	 6.135348753077534e-01	 1.295519980434704e+01
 1.866900676732649e+00	 6.307930597291920e-01	 1.295924239591089e+01
 1.860986019235964e+00	 6.480346701480327e-01	 1.296253799211312e+01
 1.854899069024128e+00	 6.652572617369513e-01	 1.296616448717491e+01
 1.848639565648836e+00	 6.824583740385707e-01	 1.297247577651955e+01
 1.912032789214229e+00	 5.120548601036816e-01	 1.282387242921057e+01
 1.907292120539398e+00	 5.294396274917157e-01	 1.285015690249039e+01
 1.902381427539802e+00	 5.468221009766666e-01	 1.287158511090555e+01
 1.897300151099619e+00	 5.641999377635201e-01	 1.288876900459922e+01
 1.892047772572763e+00	 5.815707741124688e-01	 1.290240024001509e+01
 1.886623814490985e+00	 5.989322261520573e-01	 1.291324850965480e+01
 1.881027841254142e+00	 6.162818907172745e-01	 1.292215943359032e+01
 1.875259459801693e+00	 6.336173462122059e-01	 1.293005199159179e+01
 1.869318320264493e+00	 6.509361534968209e-01	 1.293791547803024e+01
 1.863204116595952e+00	 6.682358567974318e-01	 1.294680596532377e+01
 1.856916587181651e+00	 6.855139846403154e-01	 1.295784226560304e+01
 1.920555485753756e+00	 5.143372938616730e-01	 1.278617452244458e+01
 1.915793686018341e+00	 5.317995521260379e-01	 1.281173233768829e+01
 1.910861104091576e+00	 5.492595062625016e-01	 1.283304001310513e+01
 1.905757178365433e+00	 5.667148030332706e-01	 1.285072041192123e+01
 1.900481387882018e+00	 5.841630681623998e-01	 1.286547065488742e+01
 1.895033253044816e+00	 6.016019071525602e-01	 1.287806037588789e+01
 1.889412336312042e+00	 6.190289061268681e-01	 1.288932952740333e+01
 1.883618242871130e+00	 6.364416326953832e-01	 1.290018571391956e+01
 1.877650621293430e+00	 6.538376368458485e-01	 1.291160103477755e+01
 1.871509164168183e+00	 6.712144518582038e-01	 1.292460842168152e+01
 1.865193608714851e+00	 6.885695952423758e-01	 1.294029746011470e+01
 1.929078182293349e+00	 5.166197276192274e-01	 1.275129386390887e+01
 1.924295251497358e+00	 5.341594767599817e-01	 1.277599758802326e+01
 1.919340780643440e+00	 5.516969115480334e-01	 1.279695934815346e+01
 1.914214205631366e+00	 5.692296683028057e-01	 1.281480749444910e+01
 1.908915003191424e+00	 5.867553622122095e-01	 1.283023983472726e+01
 1.903442691598834e+00	 6.042715881530377e-01	 1.284402183584114e+01
 1.897796831370164e+00	 6.217759215365296e-01	 1.285698436190936e+01
 1.891977025940817e+00	 6.392659191787129e-01	 1.287002092665922e+01
 1.885982922322637e+00	 6.567391201950973e-01	 1.288408444064669e+01
 1.879814211740690e+00	 6.741930469192483e-01	 1.290018343795773e+01
 1.873470630248318e+00	 6.916252058447343e-01	 1.291937777115192e+01
 1.937600878832876e+00	 5.189021613763783e-01	 1.271908308795934e+01
 1.932796816976314e+00	 5.365194013935788e-01	 1.274285293458867e+01
 1.927820457195261e+00	 5.541343168332896e-01	 1.276329977865382e+01
 1.922671232897280e+00	 5.717445335721453e-01	 1.278105210686314e+01
 1.917348618500843e+00	 5.893476562619099e-01	 1.279680371038789e+01
 1.911852130152897e+00	 6.069412691534936e-01	 1.281131185185505e+01
 1.906181326428364e+00	 6.245229369462532e-01	 1.282539495510248e+01
 1.900335809010612e+00	 6.420902056621810e-01	 1.283992979404105e+01
 1.894315223351975e+00	 6.596406035445503e-01	 1.285584816058705e+01
 1.888119259313345e+00	 6.771716419805456e-01	 1.287413299559225e+01
 1.881747651781935e+00	 6.946808164473743e-01	 1.289581397098619e+01
 1.946123575372203e+00	 5.211845951331590e-01	 1.268939945019810e+01
 1.941298382455075e+00	 5.388793260268609e-01	 1.271220235998409e+01
 1.936300133746901e+00	 5.565717221182966e-01	 1.273202058751858e+01
 1.931128260163035e+00	 5.742593988413098e-01	 1.274947747983282e+01
 1.925782233810132e+00	 5.919399503115128e-01	 1.276525817975777e+01
 1.920261568706862e+00	 6.096109501539300e-01	 1.278010777836448e+01
 1.914565821486496e+00	 6.272699523560333e-01	 1.279482897495210e+01
 1.908694592080373e+00	 6.449144921457759e-01	 1.281027921994719e+01
 1.902647524381308e+00	 6.625420868941899e-01	 1.282736731981257e+01
 1.896424306886016e+00	 6.801502370420770e-01	 1.284704948714985e+01
 1.890024673315585e+00	 6.977364270502797e-01	 1.287032482360528e+01
 1.954646271911197e+00	 5.234670288896022e-01	 1.266210462134327e+01
 1.949799947933507e+00	 5.412392506598598e-01	 1.268395335348576e+01
 1.944779810298225e+00	 5.590091274030821e-01	 1.270308349748772e+01
 1.939585287428495e+00	 5.767742641103191e-01	 1.272010805696711e+01
 1.934215849119149e+00	 5.945322443610296e-01	 1.273569896526213e+01
 1.928671007260585e+00	 6.122806311543501e-01	 1.275058524310526e+01
 1.922950316544420e+00	 6.300169677658647e-01	 1.276555064750032e+01
 1.917053375149956e+00	 6.477387786294845e-01	 1.278143078611642e+01
 1.910979825410497e+00	 6.654435702439987e-01	 1.279910967536028e+01
 1.904729354458575e+00	 6.831288321038235e-01	 1.281951572450645e+01
 1.898301694849150e+00	 7.007920376534326e-01	 1.284361713282687e+01
 1.963168968449725e+00	 5.257494626457417e-01	 1.263706448491720e+01
 1.958301513411475e+00	 5.435991752926068e-01	 1.265801671961363e+01
 1.953259486849095e+00	 5.614465326876726e-01	 1.267645249353675e+01
 1.948042314693518e+00	 5.792891293791932e-01	 1.269296933406180e+01
 1.942649464427752e+00	 5.971245384104724e-01	 1.270822147298246e+01
 1.937080445813921e+00	 6.149503121547569e-01	 1.272291802917039e+01
 1.931334811601989e+00	 6.327639831757417e-01	 1.273782066495271e+01
 1.925412158219222e+00	 6.505630651132944e-01	 1.275374068939685e+01
 1.919312126439404e+00	 6.683450535939598e-01	 1.277153558566167e+01
 1.913034402030891e+00	 6.861074271657653e-01	 1.279210494392272e+01
 1.906578716382512e+00	 7.038476482568162e-01	 1.281638578608463e+01
 1.971691664987653e+00	 5.280318964016106e-01	 1.261414893863861e+01
 1.966803078888847e+00	 5.459590999251343e-01	 1.263430638999294e+01
 1.961739163399377e+00	 5.638839379720954e-01	 1.265209364808753e+01
 1.956499341957966e+00	 5.818039946479524e-01	 1.266808770057415e+01
 1.951083079735801e+00	 5.997168324598532e-01	 1.268292065334288e+01
 1.945489884366729e+00	 6.176199931551537e-01	 1.269727795788987e+01
 1.939719306659061e+00	 6.355109985856590e-01	 1.271189609376245e+01
 1.933770941288024e+00	 6.533873515971929e-01	 1.272755967807593e+01
 1.927644427467892e+00	 6.712465369440548e-01	 1.274509797818796e+01
 1.921339449602834e+00	 6.890860222278832e-01	 1.276538080810086e+01
 1.914855737915554e+00	 7.069032588604145e-01	 1.278931379401712e+01
 1.980214361524848e+00	 5.303143301572421e-01	 1.259323169940695e+01
 1.975304644365486e+00	 5.483190245574735e-01	 1.261273923841030e+01
 1.970218839948934e+00	 5.663213432563775e-01	 1.262997494893666e+01
 1.964956369221702e+00	 5.843188599166166e-01	 1.264549028325726e+01
 1.959516695043154e+00	 6.023091265091832e-01	 1.265989086331765e+01
 1.953899322918863e+00	 6.202896741555429e-01	 1.267383477250884e+01
 1.948103801715490e+00	 6.382580139956113e-01	 1.268803028270828e+01
 1.942129724356225e+00	 6.562116380811678e-01	 1.270323298731560e+01
 1.935976728495822e+00	 6.741480202942665e-01	 1.272024231522677e+01
 1.929644497174275e+00	 6.920646172901584e-01	 1.273989740531415e+01
 1.923132759448157e+00	 7.099588694642095e-01	 1.276307232598638e+01
 1.988737058061177e+00	 5.325967639126696e-01	 1.257419011177073e+01
 1.983806209841261e+00	 5.506789491896563e-01	 1.259323489896950e+01
 1.978698516497631e+00	 5.687587485405461e-01	 1.261006612982045e+01
 1.973413396484585e+00	 5.868337251852063e-01	 1.262520479189020e+01
 1.967950310349670e+00	 6.049014205584747e-01	 1.263922573011360e+01
 1.962308761470183e+00	 6.229593551559282e-01	 1.265275602264099e+01
 1.956488296771135e+00	 6.410050294055930e-01	 1.266647277096632e+01
 1.950488507423679e+00	 6.590359245652063e-01	 1.268110027371840e+01
 1.944309029523059e+00	 6.770495036445779e-01	 1.269740655784648e+01
 1.937949544745086e+00	 6.950432123525722e-01	 1.271619924569784e+01
 1.931409780980206e+00	 7.130144800681855e-01	 1.273832074164858e+01
 1.848639565648836e+00	 6.824583740385707e-01	 1.297247577651955e+01
 1.842206185021296e+00	 6.996384498972793e-01	 1.298406643020251e+01
 1.835599805270095e+00	 7.167920722575036e-01	 1.299774620205490e+01
 1.828820300762612e+00	 7.339167374421329e-01	 1.301451544650907e+01
 1.821867592329375e+00	 7.510099300408764e-01	 1.303376621943879e+01
 1.814741647752110e+00	 7.680691239473409e-01	 1.304981561715899e+01
 1.807442482225145e+00	 7.850917834154445e-01	 1.306177473016978e+01
 1.799970158789351e+00	 8.020753641344032e-01	 1.306923186663547e+01
 1.792324788737874e+00	 8.190173143215005e-01	 1.307163381343335e+01
 1.784506531992859e+00	 8.359150758318045e-01	 1.306829315492909e+01
 1.776515597452493e+00	 8.527660852839679e-01	 1.305839841311077e+01
 1.856916587181651e+00	 6.855139846403154e-01	 1.295784226560304e+01
 1.850454402004383e+00	 7.027709818526354e-01	 1.296705936503603e+01
 1.843818443124431e+00	 7.200014071247187e-01	 1.297659143035847e+01
 1.837008584346666e+00	 7.372027455695898e-01	 1.299021373894069e+01
 1.830024746147141e+00	 7.543724705145618e-01	 1.300626983080935e+01
 1.822866896163328e+00	 7.715080445429551e-01	 1.301986522712379e+01
 1.815535049657578e+00	 7.886069205552394e-01	 1.303048333869050e+01
 1.808029269953017e+00	 8.056665428488362e-01	 1.303761873406178e+01
 1.800349668841084e+00	 8.226843482157801e-01	 1.304062819592058e+01
 1.792496406959950e+00	 8.396577670574028e-01	 1.303873780692077e+01
 1.784469694143107e+00	 8.565842245151777e-01	 1.303105291168418e+01
 1.865193608714851e+00	 6.885695952423758e-01	 1.294029746011470e+01
 1.858702618987810e+00	 7.059035138082984e-01	 1.295444327728377e+01
 1.852037080979040e+00	 7.232107419922021e-01	 1.296295573945144e+01
 1.845196867930909e+00	 7.404887536972563e-01	 1.297162545740066e+01
 1.838181899965001e+00	 7.577350109883825e-01	 1.298270826078494e+01
 1.830992144574534e+00	 7.749469651386214e-01	 1.299254555607145e+01
 1.823627617089888e+00	 7.921220576950020e-01	 1.300070031954209e+01
 1.816088381116449e+00	 8.092577215631579e-01	 1.300659559557971e+01
 1.808374548943953e+00	 8.263513821098806e-01	 1.300951796763368e+01
 1.800486281926599e+00	 8.434004582827749e-01	 1.300862432667707e+01
 1.792423790833194e+00	 8.604023637461387e-01	 1.300295157412248e+01
 1.873470630248318e+00	 6.916252058447343e-01	 1.291937777115192e+01
 1.866950835971476e+00	 7.090360457642576e-01	 1.293750014070817e+01
 1.860255718833843e+00	 7.264200768599559e-01	 1.295044464452566e+01
 1.853385151515288e+00	 7.437747618251467e-01	 1.295935638446086e+01
 1.846339053782927e+00	 7.610975514623681e-01	 1.296410973227001e+01
 1.839117392985728e+00	 7.783858857343849e-01	 1.296889119050164e+01
 1.831720184522106e+00	 7.956371948347916e-01	 1.297343683026171e+01
 1.824147492279707e+00	 8.128489002774392e-01	 1.297712028805002e+01
 1.816399429046567e+00	 8.300184160038826e-01	 1.297917766877230e+01
 1.808476156892919e+00	 8.471431495080044e-01	 1.297871391181048e+01
 1.800377887522883e+00	 8.642205029769344e-01	 1.297471215335568e+01
 1.881747651781935e+00	 6.946808164473743e-01	 1.289581397098619e+01
 1.875199052955281e+00	 7.121685777205033e-01	 1.291685743104611e+01
 1.868474356688762e+00	 7.296294117279802e-01	 1.293323581534512e+01
 1.861573435099748e+00	 7.470607699532755e-01	 1.294569122136727e+01
 1.854496207600891e+00	 7.644600919365476e-01	 1.295086587244154e+01
 1.847242641396912e+00	 7.818248063302898e-01	 1.294993389010913e+01
 1.839812751954262e+00	 7.991523319746668e-01	 1.294970066121757e+01
 1.832206603442847e+00	 8.164400789917516e-01	 1.295014726653094e+01
 1.824424309149011e+00	 8.336854498978674e-01	 1.295047897851984e+01
 1.816466031859018e+00	 8.508858407331766e-01	 1.294976596439466e+01
 1.808331984212309e+00	 8.680386422076479e-01	 1.294695222577339e+01
 1.890024673315585e+00	 6.977364270502797e-01	 1.287032482360528e+01
 1.883447269939126e+00	 7.153011096770259e-01	 1.289335171975371e+01
 1.876692994543716e+00	 7.328387465962762e-01	 1.291225707818611e+01
 1.869761718684233e+00	 7.503467780816572e-01	 1.292726537212533e+01
 1.862653361418864e+00	 7.678226324109497e-01	 1.293511700635121e+01
 1.855367889808084e+00	 7.852637269263816e-01	 1.293563545160037e+01
 1.847905319386383e+00	 8.026674691146874e-01	 1.293049573983074e+01
 1.840265714605928e+00	 8.200312577061675e-01	 1.292662706356101e+01
 1.832449189251368e+00	 8.373524837919140e-01	 1.292429011836136e+01
 1.824455906825007e+00	 8.546285319583766e-01	 1.292253742723763e+01
 1.816286080901601e+00	 8.718567814383628e-01	 1.292028844932737e+01
 1.898301694849150e+00	 7.007920376534326e-01	 1.284361713282687e+01
 1.891695486922907e+00	 7.184336416338153e-01	 1.286780538042962e+01
 1.884911632398626e+00	 7.360480814648447e-01	 1.288842028011514e+01
 1.877950002268689e+00	 7.536327862103063e-01	 1.290509999809267e+01
 1.870810515236819e+00	 7.711851728856052e-01	 1.291503942277979e+01
 1.863493138219246e+00	 7.887026475227036e-01	 1.291837217261712e+01
 1.855997886818497e+00	 8.061826062549119e-01	 1.291542029019912e+01
 1.848324825769005e+00	 8.236224364207564e-01	 1.290750574182097e+01
 1.840474069353725e+00	 8.410195176861033e-01	 1.290147524963973e+01
 1.832445781790996e+00	 8.583712231836887e-01	 1.289778211555362e+01
 1.824240177590894e+00	 8.756749206691622e-01	 1.289533581849616e+01
 1.906578716382512e+00	 7.038476482568162e-01	 1.281638578608463e+01
 1.899943703906525e+00	 7.215661735908613e-01	 1.284102666783508e+01
 1.893130270253413e+00	 7.392574163336867e-01	 1.286262139295907e+01
 1.886138285853059e+00	 7.569187943392364e-01	 1.288019297755642e+01
 1.878967669054727e+00	 7.745477133605426e-01	 1.289165307607579e+01
 1.871618386630398e+00	 7.921415681193017e-01	 1.289726333381619e+01
 1.864090454250636e+00	 8.096977433953995e-01	 1.289732368928432e+01
 1.856383936932138e+00	 8.272136151355908e-01	 1.289214900800948e+01
 1.848498949456167e+00	 8.446865515805155e-01	 1.288289386552412e+01
 1.840435656757095e+00	 8.621139144091977e-01	 1.287625004417253e+01
 1.832194274280319e+00	 8.794930599001302e-01	 1.287270691620705e+01
 1.914855737915554e+00	 7.069032588604145e-01	 1.278931379401712e+01
 1.908191920889882e+00	 7.246987055481543e-01	 1.281380979162341e+01
 1.901348908107999e+00	 7.424667512028029e-01	 1.283572136349707e+01
 1.894326569437291e+00	 7.602048024684630e-01	 1.285351932008043e+01
 1.887124822872560e+00	 7.779102538357913e-01	 1.286595453909910e+01
 1.879743635041538e+00	 7.955804887162194e-01	 1.287330097973138e+01
 1.872183021682827e+00	 8.132128805362090e-01	 1.287585520465904e+01
 1.864443048095384e+00	 8.308047938507415e-01	 1.287392738804720e+01
 1.856523829558777e+00	 8.483535854752309e-01	 1.286783141862418e+01
 1.848425531723414e+00	 8.658566056349889e-01	 1.285868675042106e+01
 1.840148370970008e+00	 8.833111991313497e-01	 1.285301116280589e+01
 1.923132759448157e+00	 7.099588694642095e-01	 1.276307232598638e+01
 1.916440137872873e+00	 7.278312375056845e-01	 1.278693498493774e+01
 1.909567545962300e+00	 7.456760860721946e-01	 1.280850448939082e+01
 1.902514853021330e+00	 7.634908105979997e-01	 1.282603157436278e+01
 1.895281976690290e+00	 7.812727943113806e-01	 1.283891742734540e+01
 1.887868883452669e+00	 7.990194093135027e-01	 1.284745415460208e+01
 1.880275589115100e+00	 8.167280176773999e-01	 1.285195336795029e+01
 1.872502159258801e+00	 8.343959725662805e-01	 1.285273702292643e+01
 1.864548709661641e+00	 8.520206193703300e-01	 1.285012733514507e+01
 1.856415406690063e+00	 8.695992968611462e-01	 1.284443576275453e+01
 1.848102467660094e+00	 8.871293383629042e-01	 1.283685406216308e+01
 1.931409780980206e+00	 7.130144800681855e-01	 1.273832074164858e+01
 1.924688354855402e+00	 7.309637694634421e-01	 1.276116856803199e+01
 1.917786183816244e+00	 7.488854209418625e-01	 1.278184130133621e+01
 1.910703136605119e+00	 7.667768187278619e-01	 1.279866022979954e+01
 1.903439130507891e+00	 7.846353347873409e-01	 1.281149281649689e+01
 1.895994131863790e+00	 8.024583299111958e-01	 1.282066932612998e+01
 1.888368156547483e+00	 8.202431548190312e-01	 1.282653454533799e+01
 1.880561270422445e+00	 8.379871512822787e-01	 1.282943840230310e+01
 1.872573589764845e+00	 8.556876532658934e-01	 1.282972564923389e+01
 1.864405281657153e+00	 8.733419880877550e-01	 1.282772459479796e+01
 1.856056564350709e+00	 8.909474775948771e-01	 1.282373487837917e+01
 1.776515597452493e+00	 8.527660852839679e-01	 1.305839841311077e+01
 1.768353645352981e+00	 8.695649234165084e-01	 1.304853123800494e+01
 1.760019638626250e+00	 8.863118887738806e-01	 1.304487760974978e+01
 1.751513933443456e+00	 9.030044095506682e-01	 1.304582117915277e+01
 1.742836936002513e+00	 9.196399133193138e-01	 1.304958698331169e+01
 1.733989102717897e+00	 9.362158282216865e-01	 1.305426747816333e+01
 1.724970940377082e+00	 9.527295841709179e-01	 1.305785229790427e+01
 1.715783006263097e+00	 9.691786140624498e-01	 1.305826181145838e+01
 1.706425908242760e+00	 9.855603549931850e-01	 1.305338452470067e+01
 1.696900304820150e+00	 1.001872249487630e+00	 1.304111835431516e+01
 1.687206905154955e+00	 1.018111746729887e+00	 1.301941577506027e+01
 1.784469694143107e+00	 8.565842245151777e-01	 1.303105291168418e+01
 1.776271198060235e+00	 8.734582770636438e-01	 1.302344865850762e+01
 1.767899876999939e+00	 8.902802245839441e-01	 1.302153531565368e+01
 1.759356088728096e+00	 9.070474837557672e-01	 1.302380182889423e+01
 1.750640241261322e+00	 9.237574706338767e-01	 1.302856651882354e+01
 1.741752793057634e+00	 9.404076018450087e-01	 1.303400288819504e+01
 1.732694253173587e+00	 9.569952957950965e-01	 1.303816926375730e+01
 1.723465181387379e+00	 9.735179738857331e-01	 1.303904234833042e+01
 1.714066188287475e+00	 9.899730617387847e-01	 1.303455473688155e+01
 1.704497935326324e+00	 1.006357990428024e+00	 1.302263642695243e+01
 1.694761134838787e+00	 1.022670197716636e+00	 1.300126032907031e+01
 1.792423790833194e+00	 8.604023637461387e-01	 1.300295157412248e+01
 1.784188750766886e+00	 8.773516307105389e-01	 1.299758921225629e+01
 1.775780115372968e+00	 8.942485603938041e-01	 1.299746921283865e+01
 1.767198244012032e+00	 9.110905579607247e-01	 1.300116414955824e+01
 1.758443546519395e+00	 9.278750279483767e-01	 1.300706491431351e+01
 1.749516483396619e+00	 9.445993754683620e-01	 1.301340631954483e+01
 1.740417565969336e+00	 9.612610074194075e-01	 1.301829664368188e+01
 1.731147356510909e+00	 9.778573337092544e-01	 1.301975120112216e+01
 1.721706468331452e+00	 9.943857684847280e-01	 1.301572999564307e+01
 1.712095565831782e+00	 1.010843731368860e+00	 1.300417949216595e+01
 1.702315364521933e+00	 1.027228648703915e+00	 1.298307851643644e+01
 1.800377887522883e+00	 8.642205029769344e-01	 1.297471215335568e+01
 1.792106303473086e+00	 8.812449843572696e-01	 1.297142130753927e+01
 1.783660353745503e+00	 8.982168962035235e-01	 1.297301695789553e+01
 1.775040399295439e+00	 9.151336321655826e-01	 1.297813409420325e+01
 1.766246851776918e+00	 9.319925852628342e-01	 1.298521590096926e+01
 1.757280173735038e+00	 9.487911490917404e-01	 1.299253917382063e+01
 1.748140878764512e+00	 9.655267190438193e-01	 1.299824378867092e+01
 1.738829531633867e+00	 9.821966935329549e-01	 1.300036631085824e+01
 1.729346748374864e+00	 9.987984752309285e-01	 1.299687780840638e+01
 1.719693196336689e+00	 1.015329472310028e+00	 1.298572590898213e+01
 1.709869594204548e+00	 1.031787099691592e+00	 1.296488111413064e+01
 1.808331984212309e+00	 8.680386422076479e-01	 1.294695222577339e+01
 1.800023856178985e+00	 8.851383380039110e-01	 1.294541493056062e+01
 1.791540592117708e+00	 9.021852320131636e-01	 1.294851925149695e+01
 1.782882554578495e+00	 9.191767063703843e-01	 1.295494183688897e+01
 1.774050157034071e+00	 9.361101425772700e-01	 1.296315831775428e+01
 1.765043864073077e+00	 9.529829227151395e-01	 1.297146855618965e+01
 1.755864191559301e+00	 9.697924306682997e-01	 1.297802605726362e+01
 1.746511706756435e+00	 9.865360533567757e-01	 1.298087163753046e+01
 1.736987028417887e+00	 1.003211181977301e+00	 1.297797141966995e+01
 1.727290826841209e+00	 1.019815213251417e+00	 1.296725919757951e+01
 1.717423823886777e+00	 1.036345550679533e+00	 1.294668318960385e+01
 1.816286080901601e+00	 8.718567814383628e-01	 1.292028844932737e+01
 1.807941408884735e+00	 8.890316916505393e-01	 1.292004082354992e+01
 1.799420830489747e+00	 9.061535678227851e-01	 1.292431894410430e+01
 1.790724709861372e+00	 9.232197805751722e-01	 1.293182081372664e+01
 1.781853462291037e+00	 9.402276998917033e-01	 1.294103509569969e+01
 1.772807554410919e+00	 9.571746963385540e-01	 1.295026621095404e+01
 1.763587504353886e+00	 9.740581422928172e-01	 1.295766371058726e+01
 1.754193881878793e+00	 9.908754131806579e-01	 1.296125602291928e+01
 1.744627308460692e+00	 1.007623888723759e+00	 1.295898865005088e+01
 1.734888457345503e+00	 1.024300954192916e+00	 1.294876686310884e+01
 1.724978053568774e+00	 1.040904001667607e+00	 1.292850291805578e+01
 1.824240177590894e+00	 8.756749206691622e-01	 1.289533581849616e+01
 1.815858961590483e+00	 8.929250452972296e-01	 1.289576966125973e+01
 1.807301068861785e+00	 9.101219036324504e-01	 1.290076014140390e+01
 1.798566865144247e+00	 9.272628547799895e-01	 1.290900676481372e+01
 1.789656767547998e+00	 9.443452572061556e-01	 1.291899224404547e+01
 1.780571244748752e+00	 9.613664699619794e-01	 1.292900745974902e+01
 1.771310817148454e+00	 9.783238539173404e-01	 1.293718081059902e+01
 1.761876057001123e+00	 9.952147730045421e-01	 1.294151205699620e+01
 1.752267588503455e+00	 1.012036595470219e+00	 1.293991073908816e+01
 1.742486087849738e+00	 1.028786695134416e+00	 1.293023922325402e+01
 1.732532283250688e+00	 1.045462452655680e+00	 1.291036040322028e+01
 1.832194274280319e+00	 8.794930599001302e-01	 1.287270691620705e+01
 1.823776514296382e+00	 8.968183989440567e-01	 1.287307122589924e+01
 1.815181307233987e+00	 9.140902394422210e-01	 1.287818730947994e+01
 1.806409020427296e+00	 9.313059289848786e-01	 1.288673677702510e+01
 1.797460072805135e+00	 9.484628145206460e-01	 1.289717783817365e+01
 1.788334935086760e+00	 9.655582435854104e-01	 1.290777014228273e+01
 1.779034129943188e+00	 9.825895655418369e-01	 1.291660412142971e+01
 1.769558232123606e+00	 9.995541328283698e-01	 1.292163494779708e+01
 1.759907868546351e+00	 1.016449302216593e+00	 1.292072119169211e+01
 1.750083718354078e+00	 1.033272436075806e+00	 1.291166823941879e+01
 1.740086512932670e+00	 1.050020903643622e+00	 1.289227650155816e+01
 1.840148370970008e+00	 8.833111991313497e-01	 1.285301116280589e+01
 1.831694067002582e+00	 9.007117525910970e-01	 1.285241358055002e+01
 1.823061545606518e+00	 9.180585752521578e-01	 1.285694437973099e+01
 1.814251175710693e+00	 9.353490031898828e-01	 1.286524832763317e+01
 1.805263378062631e+00	 9.525803718351958e-01	 1.287574100927849e+01
 1.796098625425127e+00	 9.697500172088421e-01	 1.288663355953907e+01
 1.786757442738275e+00	 9.868552771662759e-01	 1.289596201373434e+01
 1.777240407246422e+00	 1.003893492652082e+00	 1.290162139465984e+01
 1.767548148589553e+00	 1.020862008962797e+00	 1.290140462812795e+01
 1.757681348858684e+00	 1.037758177016974e+00	 1.289304635142770e+01
 1.747640742614871e+00	 1.054579354631298e+00	 1.287427164975257e+01
 1.848102467660094e+00	 8.871293383629042e-01	 1.283685406216308e+01
 1.839611619709233e+00	 9.046051062384257e-01	 1.283426224110854e+01
 1.830941783979543e+00	 9.220269110623232e-01	 1.283737385353652e+01
 1.822093330994613e+00	 9.393920773950442e-01	 1.284477832873125e+01
 1.813066683320668e+00	 9.566979291498247e-01	 1.285483093571970e+01
 1.803862315764040e+00	 9.739417908322702e-01	 1.286567741936864e+01
 1.794480755533899e+00	 9.911209887906253e-01	 1.287528337195728e+01
 1.784922582369755e+00	 1.008232852475620e+00	 1.288146846472370e+01
 1.775188428633234e+00	 1.025274715708745e+00	 1.288194563742581e+01
 1.765278979363722e+00	 1.042243917957811e+00	 1.287436531563381e+01
 1.755194972297440e+00	 1.059137805618577e+00	 1.285636469540591e+01
 1.856056564350709e+00	 8.909474775948771e-01	 1.282373487837917e+01
 1.847529172416486e+00	 9.084984598861181e-01	 1.281907934679896e+01
 1.838822022353228e+00	 9.259952468727786e-01	 1.281981590668007e+01
 1.829935486279233e+00	 9.434351516004069e-01	 1.282556217243492e+01
 1.820869988579429e+00	 9.608154864645534e-01	 1.283459583600704e+01
 1.811626006103686e+00	 9.781335644556893e-01	 1.284498078439428e+01
 1.802204068330247e+00	 9.953867004148540e-01	 1.285459650442316e+01
 1.792604757493784e+00	 1.012572212298924e+00	 1.286117247259084e+01
 1.782828708677572e+00	 1.029687422454352e+00	 1.286232763411292e+01
 1.772876609869356e+00	 1.046729658898207e+00	 1.285561504633002e+01
 1.762749201980530e+00	 1.063696256605328e+00	 1.283857173084057e+01
 1.687206905154955e+00	 1.018111746729887e+00	 1.301941577506027e+01
 1.677346469453000e+00	 1.034276304122572e+00	 1.299294046766381e+01
 1.667319810129224e+00	 1.050363389513653e+00	 1.296677875492351e+01
 1.657127790482340e+00	 1.066370481506641e+00	 1.293978041972777e+01
 1.646771324157903e+00	 1.082295070385765e+00	 1.291110146738262e+01
 1.636251374984289e+00	 1.098134659358124e+00	 1.288026739639044e+01
 1.625568956772238e+00	 1.113886765794420e+00	 1.284735390216938e+01
 1.614725133077868e+00	 1.129548922467025e+00	 1.281725309257768e+01
 1.603721016929166e+00	 1.145118678784137e+00	 1.279214700146386e+01
 1.592557770515995e+00	 1.160593602018781e+00	 1.277162605884785e+01
 1.581236604843679e+00	 1.175971278531404e+00	 1.275525207165160e+01
 1.694761134838787e+00	 1.022670197716636e+00	 1.300126032907031e+01
 1.684856550434408e+00	 1.038907129623116e+00	 1.297529578420638e+01
 1.674784998165587e+00	 1.055066242658078e+00	 1.294990664302994e+01
 1.664547345196320e+00	 1.071145004135839e+00	 1.292375517021736e+01
 1.654144509262857e+00	 1.087140893103726e+00	 1.289580104424829e+01
 1.643577458508968e+00	 1.103051401589804e+00	 1.286536590521750e+01
 1.632847211284564e+00	 1.118874035849150e+00	 1.283312628798742e+01
 1.621954835907669e+00	 1.134606317607475e+00	 1.280468342290124e+01
 1.610901450389679e+00	 1.150245785300797e+00	 1.278052763242673e+01
 1.599688222123976e+00	 1.165789995309950e+00	 1.276010965201157e+01
 1.588316367537974e+00	 1.181236523188651e+00	 1.274285089975644e+01
 1.702315364521933e+00	 1.027228648703915e+00	 1.298307851643644e+01
 1.692366631415170e+00	 1.043537955124262e+00	 1.295749005940619e+01
 1.682250186201349e+00	 1.059769095803164e+00	 1.293266074605108e+01
 1.671966899909744e+00	 1.075919526765739e+00	 1.290707717220748e+01
 1.661517694367309e+00	 1.091986715822421e+00	 1.287951406034528e+01
 1.650903542033195e+00	 1.107968143822233e+00	 1.284910007452419e+01
 1.640125465796491e+00	 1.123861305904635e+00	 1.281796014620438e+01
 1.629184538737123e+00	 1.139663712748673e+00	 1.279091529861642e+01
 1.618081883849891e+00	 1.155372891818188e+00	 1.276746643779316e+01
 1.606818673731701e+00	 1.170986388601824e+00	 1.274693745922878e+01
 1.595396130232051e+00	 1.186501767846565e+00	 1.272862226349690e+01
 1.709869594204548e+00	 1.031787099691592e+00	 1.296488111413064e+01
 1.699876712395419e+00	 1.048168780625861e+00	 1.293957798995917e+01
 1.689715374236622e+00	 1.064471948948745e+00	 1.291514085514576e+01
 1.679386454622709e+00	 1.080694049396168e+00	 1.288989234045954e+01
 1.668890879471329e+00	 1.096832538541664e+00	 1.286243342177527e+01
 1.658229625557020e+00	 1.112884886055224e+00	 1.283176248518005e+01
 1.647403720308047e+00	 1.128848575960685e+00	 1.280219266012609e+01
 1.636414241566234e+00	 1.144721107890431e+00	 1.277631504537393e+01
 1.625262317309789e+00	 1.160499998336127e+00	 1.275335812626498e+01
 1.613949125339137e+00	 1.176182781894224e+00	 1.273253161611557e+01
 1.602475892925860e+00	 1.191767012504980e+00	 1.271301457787732e+01
 1.717423823886777e+00	 1.036345550679533e+00	 1.294668318960385e+01
 1.707386793375291e+00	 1.052799606127761e+00	 1.292161757843774e+01
 1.697180562271525e+00	 1.069174802094656e+00	 1.289744915374010e+01
 1.686806009335308e+00	 1.085468572026947e+00	 1.287234814464648e+01
 1.676264064574992e+00	 1.101678361261275e+00	 1.284475283344335e+01
 1.665555709080496e+00	 1.117801628288591e+00	 1.281418435163005e+01
 1.654681974819259e+00	 1.133835846017113e+00	 1.278613868203147e+01
 1.643643944395010e+00	 1.149778503032563e+00	 1.276122626561652e+01
 1.632442750769359e+00	 1.165627104854430e+00	 1.273857429896310e+01
 1.621079576946250e+00	 1.181379175186976e+00	 1.271729077696734e+01
 1.609555655619353e+00	 1.197032257163728e+00	 1.269645241640297e+01
 1.724978053568774e+00	 1.040904001667607e+00	 1.292850291805579e+01
 1.714896874354919e+00	 1.057430431629812e+00	 1.290366894881032e+01
 1.704645750306170e+00	 1.073877655240733e+00	 1.287968903213047e+01
 1.694225564047638e+00	 1.090243094657903e+00	 1.285459242383024e+01
 1.683637249678369e+00	 1.106524183981068e+00	 1.282666561415973e+01
 1.672881792603672e+00	 1.122718370522144e+00	 1.279678838323890e+01
 1.661960229330158e+00	 1.138823116073728e+00	 1.277009112175907e+01
 1.650873647223457e+00	 1.154835898174882e+00	 1.274597024013434e+01
 1.639623184228585e+00	 1.170754211372916e+00	 1.272346386297887e+01
 1.628210028553009e+00	 1.186575568479903e+00	 1.270159053926236e+01
 1.616635418312479e+00	 1.202297501822644e+00	 1.267933694542275e+01
 1.732532283250688e+00	 1.045462452655680e+00	 1.291036040322028e+01
 1.722406955334436e+00	 1.062061257131862e+00	 1.288579316515005e+01
 1.712110938340675e+00	 1.078580508386809e+00	 1.286196390495088e+01
 1.701645118759792e+00	 1.095017617288860e+00	 1.283677220348441e+01
 1.691010434781536e+00	 1.111370006700862e+00	 1.280836467934388e+01
 1.680207876126600e+00	 1.127635112755698e+00	 1.277981738867902e+01
 1.669238483840770e+00	 1.143810386130344e+00	 1.275432133694733e+01
 1.658103350051580e+00	 1.159893293317201e+00	 1.273084633098988e+01
 1.646803617687455e+00	 1.175881317891402e+00	 1.270835344602454e+01
 1.635340480159378e+00	 1.191771961772831e+00	 1.268578386900963e+01
 1.623715181005190e+00	 1.207562746481559e+00	 1.266204635907769e+01
 1.740086512932670e+00	 1.050020903643622e+00	 1.289227650155816e+01
 1.729917036313979e+00	 1.066692082633762e+00	 1.286805105343350e+01
 1.719576126375154e+00	 1.083283361532720e+00	 1.284437603141583e+01
 1.709064673471866e+00	 1.099792139919640e+00	 1.281903251498151e+01
 1.698383619884564e+00	 1.116215829420472e+00	 1.279046931227498e+01
 1.687533959649329e+00	 1.132551854989064e+00	 1.276349337280374e+01
 1.676516738351125e+00	 1.148797656186771e+00	 1.273907952487699e+01
 1.665333052879389e+00	 1.164950688459332e+00	 1.271613238577050e+01
 1.653984051145953e+00	 1.181008424409705e+00	 1.269354781214964e+01
 1.642470931765327e+00	 1.196968355065582e+00	 1.267020152691508e+01
 1.630794943697434e+00	 1.212827991140307e+00	 1.264493631483752e+01
 1.747640742614871e+00	 1.054579354631298e+00	 1.287427164975257e+01
 1.737427117293680e+00	 1.071322908135361e+00	 1.285050202633446e+01
 1.727041314409724e+00	 1.087986214678301e+00	 1.282702533825300e+01
 1.716484228183955e+00	 1.104566662550068e+00	 1.280151521746974e+01
 1.705756804987528e+00	 1.121061652139717e+00	 1.277350257077972e+01
 1.694860043171911e+00	 1.137468597222056e+00	 1.274801791703422e+01
 1.683794992861250e+00	 1.153784926242821e+00	 1.272459511586820e+01
 1.672562755706888e+00	 1.170008083601091e+00	 1.270208514312917e+01
 1.661164484604067e+00	 1.186135530927643e+00	 1.267933027849145e+01
 1.649601383370821e+00	 1.202164748357982e+00	 1.265515249534192e+01
 1.637874706389165e+00	 1.218093235798722e+00	 1.262834036960676e+01
 1.755194972297440e+00	 1.059137805618577e+00	 1.285636469540591e+01
 1.744937198273674e+00	 1.075953733636508e+00	 1.283320291092068e+01
 1.734506502444499e+00	 1.092689067823387e+00	 1.281000824524348e+01
 1.723903782896154e+00	 1.109341185179969e+00	 1.278435782206459e+01
 1.713129990090498e+00	 1.125907474858411e+00	 1.275761812977875e+01
 1.702186126694397e+00	 1.142385339454485e+00	 1.273357256152316e+01
 1.691073247371174e+00	 1.158772196298307e+00	 1.271107716818559e+01
 1.679792458534083e+00	 1.175065478742289e+00	 1.268894063957424e+01
 1.668344918061780e+00	 1.191262637445034e+00	 1.266596313302767e+01
 1.656731834975827e+00	 1.207361141649855e+00	 1.264092440604106e+01
 1.644954469080330e+00	 1.223358480456637e+00	 1.261257041638362e+01
 1.762749201980530e+00	 1.063696256605328e+00	 1.283857173084057e+01
 1.752447279254096e+00	 1.080584559137052e+00	 1.281620677916542e+01
 1.741971690479596e+00	 1.097391920967813e+00	 1.279341649328890e+01
 1.731323337608558e+00	 1.114115707809167e+00	 1.276783284466614e+01
 1.720503175193552e+00	 1.130753297576373e+00	 1.274295032277231e+01
 1.709512210216838e+00	 1.147302081686165e+00	 1.272031918904229e+01
 1.698351501880926e+00	 1.163759466353038e+00	 1.269871476440583e+01
 1.687022161360983e+00	 1.180122873882741e+00	 1.267691461747104e+01
 1.675525351519082e+00	 1.196389743961696e+00	 1.265368805330229e+01
 1.663862286580313e+00	 1.212557534941026e+00	 1.262778396862821e+01
 1.652034231770882e+00	 1.228623725113884e+00	 1.259791712145535e+01
 1.581236604843679e+00	 1.175971278531404e+00	 1.275525207165160e+01
 1.569756815835507e+00	 1.191251902350693e+00	 1.273440566413183e+01
 1.558121628340282e+00	 1.206430470476242e+00	 1.270153848875175e+01
 1.546332404585625e+00	 1.221504623834564e+00	 1.265783065786874e+01
 1.534390553932164e+00	 1.236472027217100e+00	 1.260451259611833e+01
 1.522297532345219e+00	 1.251330370457584e+00	 1.254284715479107e+01
 1.510054841831539e+00	 1.266077369595616e+00	 1.247411087561699e+01
 1.497664029841520e+00	 1.280710768025226e+00	 1.239957451679251e+01
 1.485126688637370e+00	 1.295228337627252e+00	 1.232048296247688e+01
 1.472444454627765e+00	 1.309627879884325e+00	 1.223935659386568e+01
 1.459619007669536e+00	 1.323907226977324e+00	 1.216048570195573e+01
 1.588316367537974e+00	 1.181236523188651e+00	 1.274285089975644e+01
 1.576785179402541e+00	 1.196585563834321e+00	 1.272078623414176e+01
 1.565097897005287e+00	 1.211832091846338e+00	 1.268713984100961e+01
 1.553255888673019e+00	 1.226973737588806e+00	 1.264312901947913e+01
 1.541260570076582e+00	 1.242008155397609e+00	 1.259002291627015e+01
 1.529113403700177e+00	 1.256933024763047e+00	 1.252912407339673e+01
 1.516815898275585e+00	 1.271746051498620e+00	 1.246174908933736e+01
 1.504369608181692e+00	 1.286444968894735e+00	 1.238920850958646e+01
 1.491776132809844e+00	 1.301027538856150e+00	 1.231278607117726e+01
 1.479037115895506e+00	 1.315491553021954e+00	 1.223381968083503e+01
 1.466154244816837e+00	 1.329834833866933e+00	 1.215686967009266e+01
 1.595396130232051e+00	 1.186501767846565e+00	 1.272862226349690e+01
 1.583813542969390e+00	 1.201919225318573e+00	 1.270523546131470e+01
 1.572074165670134e+00	 1.217233713217009e+00	 1.267078065004399e+01
 1.560179372760274e+00	 1.232442851343566e+00	 1.262649678688751e+01
 1.548130586220875e+00	 1.247544283578577e+00	 1.257367573393127e+01
 1.535929275055025e+00	 1.262535679068910e+00	 1.251364324761674e+01
 1.523576954719528e+00	 1.277414733401964e+00	 1.244773904541348e+01
 1.511075186521768e+00	 1.292179169764523e+00	 1.237729606869881e+01
 1.498425576982225e+00	 1.306826740085268e+00	 1.230361906983511e+01
 1.485629777163158e+00	 1.321355226159749e+00	 1.222796265972765e+01
 1.472689481964054e+00	 1.335762440756658e+00	 1.215279295629287e+01
 1.602475892925860e+00	 1.191767012504980e+00	 1.271301457787732e+01
 1.590841906535989e+00	 1.207252886803293e+00	 1.268822442667899e+01
 1.579050434334744e+00	 1.222635334588108e+00	 1.265294882504632e+01
 1.567102856847306e+00	 1.237911965098715e+00	 1.260843305469106e+01
 1.555000602364956e+00	 1.253080411759889e+00	 1.255597589089566e+01
 1.542745146409667e+00	 1.268138333375069e+00	 1.249691004190626e+01
 1.530338011163272e+00	 1.283083415305555e+00	 1.243258162887258e+01
 1.517780764861653e+00	 1.297913370634511e+00	 1.236432882847216e+01
 1.505075021154423e+00	 1.312625941314540e+00	 1.229345980964888e+01
 1.492222438430636e+00	 1.327218899297652e+00	 1.222123010447716e+01
 1.479224719111105e+00	 1.341690047646450e+00	 1.214890880110069e+01
 1.609555655619353e+00	 1.197032257163728e+00	 1.269645241640297e+01
 1.597870270102277e+00	 1.212586548288325e+00	 1.267020006630629e+01
 1.586026702999048e+00	 1.228036955959495e+00	 1.263410792258999e+01
 1.574026340934035e+00	 1.243381078854122e+00	 1.258941244972046e+01
 1.561870618508737e+00	 1.258616539941428e+00	 1.253740373529310e+01
 1.549561017764014e+00	 1.273740987681423e+00	 1.247940538717214e+01
 1.537099067606728e+00	 1.288752097209307e+00	 1.241675343410915e+01
 1.524486343201255e+00	 1.303647571504623e+00	 1.235077435514076e+01
 1.511724465326346e+00	 1.318425142543899e+00	 1.228276237267501e+01
 1.498815099697849e+00	 1.333082572435607e+00	 1.221395615305131e+01
 1.485759956257906e+00	 1.347617654536259e+00	 1.214551506643639e+01
 1.616635418312479e+00	 1.202297501822644e+00	 1.267933694542275e+01
 1.604898633668189e+00	 1.217920209773513e+00	 1.265158561343327e+01
 1.593002971662969e+00	 1.233438577331024e+00	 1.261469759361727e+01
 1.580949825020376e+00	 1.248850192609657e+00	 1.256988558005393e+01
 1.568740634652129e+00	 1.264152668123079e+00	 1.251841556987310e+01
 1.556376889117973e+00	 1.279343641987868e+00	 1.246158622565238e+01
 1.543860124049799e+00	 1.294420779113129e+00	 1.240070720377140e+01
 1.531191921540481e+00	 1.309381772374784e+00	 1.233707657722517e+01
 1.518373909497903e+00	 1.324224343773282e+00	 1.227195749132266e+01
 1.505407760964712e+00	 1.338946245573559e+00	 1.220655419987870e+01
 1.492295193404373e+00	 1.353545261426035e+00	 1.214198763786452e+01
 1.623715181005190e+00	 1.207562746481559e+00	 1.266204635907769e+01
 1.611926997233663e+00	 1.223253871258701e+00	 1.263278104099293e+01
 1.599979240326434e+00	 1.238840198702553e+00	 1.259513403070242e+01
 1.587873309106248e+00	 1.254319306365189e+00	 1.255027948423672e+01
 1.575610650795045e+00	 1.269688796304723e+00	 1.249944410048437e+01
 1.563192760471453e+00	 1.284946296294302e+00	 1.244388595603884e+01
 1.550621180492393e+00	 1.300089461016934e+00	 1.238487226799487e+01
 1.537897499879237e+00	 1.315115973244915e+00	 1.232365621642997e+01
 1.525023353669004e+00	 1.330023545002623e+00	 1.226145296855884e+01
 1.512000422231134e+00	 1.344809918711451e+00	 1.219941505603759e+01
 1.498830430550423e+00	 1.359472868315728e+00	 1.213860726554378e+01
 1.630794943697434e+00	 1.212827991140307e+00	 1.264493631483752e+01
 1.618955360798635e+00	 1.228587532743732e+00	 1.261416350454272e+01
 1.606955508989369e+00	 1.244241820073938e+00	 1.257581041558329e+01
 1.594796793191571e+00	 1.259788420120589e+00	 1.253099808070143e+01
 1.582480666937397e+00	 1.275224924486247e+00	 1.248089888474383e+01
 1.570008631824363e+00	 1.290548950600624e+00	 1.242671487883542e+01
 1.557382236934418e+00	 1.305758142920632e+00	 1.236965498397084e+01
 1.544603078217432e+00	 1.320850174114942e+00	 1.231091121902931e+01
 1.531672797839558e+00	 1.335822746231854e+00	 1.225163409880394e+01
 1.518593083497030e+00	 1.350673591849224e+00	 1.219290735744420e+01
 1.505365667695974e+00	 1.365400475205287e+00	 1.213572216165212e+01
 1.637874706389165e+00	 1.218093235798722e+00	 1.262834036960676e+01
 1.625983724363042e+00	 1.233921194228452e+00	 1.259608778557783e+01
 1.613931777651700e+00	 1.249643441445034e+00	 1.255709736695357e+01
 1.601720277276259e+00	 1.265257533875727e+00	 1.251242261738202e+01
 1.589350683079096e+00	 1.280761052667533e+00	 1.246316678088994e+01
 1.576824503176610e+00	 1.296151604906731e+00	 1.241046064194466e+01
 1.564143293375780e+00	 1.311426824824133e+00	 1.235543917584117e+01
 1.551308656554971e+00	 1.326584374984788e+00	 1.229921718772555e+01
 1.538322242009472e+00	 1.341621947460913e+00	 1.224286408949599e+01
 1.525185744762312e+00	 1.356537264986825e+00	 1.218737797395100e+01
 1.511900904840941e+00	 1.371328082094663e+00	 1.213365915480073e+01
 1.644954469080330e+00	 1.223358480456637e+00	 1.261257041638362e+01
 1.633012087926821e+00	 1.239254855712704e+00	 1.257888673521781e+01
 1.620908046313353e+00	 1.255045062815700e+00	 1.253934338850699e+01
 1.608643761360232e+00	 1.270726647630473e+00	 1.249491212151550e+01
 1.596220699220055e+00	 1.286297180848464e+00	 1.244661239681394e+01
 1.583640374528104e+00	 1.301754259212521e+00	 1.239548868647606e+01
 1.570904349816387e+00	 1.317095506727351e+00	 1.234258657490789e+01
 1.558014234891763e+00	 1.332318575854376e+00	 1.228892781396615e+01
 1.544971686178657e+00	 1.347421148689733e+00	 1.223548448330273e+01
 1.531778406026890e+00	 1.362400938124194e+00	 1.218315241932870e+01
 1.518436141985242e+00	 1.377255688983805e+00	 1.213272408574758e+01
 1.652034231770882e+00	 1.228623725113884e+00	 1.259791712145535e+01
 1.640040451489909e+00	 1.244588517196332e+00	 1.256287171825549e+01
 1.627884314974253e+00	 1.260446684185791e+00	 1.252287531722700e+01
 1.615567245443407e+00	 1.276195761384695e+00	 1.247880384962648e+01
 1.603090715360185e+00	 1.291833309028926e+00	 1.243157853926478e+01
 1.590456245878753e+00	 1.307356913517891e+00	 1.238214269276947e+01
 1.577665406256145e+00	 1.322764188630196e+00	 1.233143726014945e+01
 1.564719813227715e+00	 1.338052776723630e+00	 1.228037531070558e+01
 1.551621130347021e+00	 1.353220349918248e+00	 1.222981558096379e+01
 1.538371067290680e+00	 1.368264611261278e+00	 1.218053526210474e+01
 1.524971379128793e+00	 1.383183295872664e+00	 1.213320220423550e+01
 1.459619007669536e+00	 1.323907226977324e+00	 1.216048570195573e+01
 1.446654282552467e+00	 1.338061850794431e+00	 1.208929214323866e+01
 1.433549855706123e+00	 1.352092105920942e+00	 1.202900092086110e+01
 1.420307508804248e+00	 1.365995947141896e+00	 1.197635737046112e+01
 1.406929063831782e+00	 1.379771364094519e+00	 1.192789073163323e+01
 1.393416382243579e+00	 1.393416382243579e+00	 1.188003058599335e+01
 1.379771364094519e+00	 1.406929063831782e+00	 1.182922741676699e+01
 1.365995947141896e+00	 1.420307508804248e+00	 1.177207651221674e+01
 1.352092105920941e+00	 1.433549855706123e+00	 1.170544440410669e+01
 1.338061850794431e+00	 1.446654282552468e+00	 1.162659700625000e+01
 1.323907226977324e+00	 1.459619007669536e+00	 1.153332859722154e+01
 1.466154244816837e+00	 1.329834833866933e+00	 1.215686967009266e+01
 1.453131471981090e+00	 1.344052833005293e+00	 1.208850389558829e+01
 1.439968371921361e+00	 1.358145906609932e+00	 1.203119282951078e+01
 1.426666734288595e+00	 1.372112000308721e+00	 1.198144143114836e+01
 1.413228389225423e+00	 1.385949094737759e+00	 1.193551514500066e+01
 1.399655206521105e+00	 1.399655206521105e+00	 1.188956010163962e+01
 1.385949094737759e+00	 1.413228389225422e+00	 1.183972762160890e+01
 1.372112000308721e+00	 1.426666734288596e+00	 1.178230222223556e+01
 1.358145906609932e+00	 1.439968371921361e+00	 1.171383229501452e+01
 1.344052833005293e+00	 1.453131471981090e+00	 1.163126259411447e+01
 1.329834833866932e+00	 1.466154244816837e+00	 1.153206765476675e+01
 1.472689481964054e+00	 1.335762440756658e+00	 1.215279295629287e+01
 1.459608661409634e+00	 1.350043815216231e+00	 1.208670568852914e+01
 1.446386888136528e+00	 1.364199707298964e+00	 1.203169685520939e+01
 1.433025959772882e+00	 1.378228053475556e+00	 1.198404412457799e+01
 1.419527714619014e+00	 1.392126825380985e+00	 1.193976210554467e+01
 1.405894030798598e+00	 1.405894030798598e+00	 1.189472637555971e+01
 1.392126825380985e+00	 1.419527714619015e+00	 1.184480199746773e+01
 1.378228053475556e+00	 1.433025959772882e+00	 1.178597570232042e+01
 1.364199707298963e+00	 1.446386888136529e+00	 1.171449088178204e+01
 1.350043815216230e+00	 1.459608661409634e+00	 1.162698450566901e+01
 1.335762440756657e+00	 1.472689481964054e+00	 1.152062505753247e+01
 1.479224719111105e+00	 1.341690047646450e+00	 1.214890880110069e+01
 1.466085850838023e+00	 1.356034797427197e+00	 1.208452236640291e+01
 1.452805404351552e+00	 1.370253507987989e+00	 1.203112174799609e+01
 1.439385185257041e+00	 1.384344106642355e+00	 1.198476994918003e+01
 1.425827040012498e+00	 1.398304556024148e+00	 1.194124320994953e+01
 1.412132855076003e+00	 1.412132855076003e+00	 1.189615892801727e+01
 1.398304556024148e+00	 1.425827040012498e+00	 1.184510825931838e+01
 1.384344106642355e+00	 1.439385185257041e+00	 1.178379255160850e+01
 1.370253507987989e+00	 1.452805404351553e+00	 1.170816273027128e+01
 1.356034797427197e+00	 1.466085850838023e+00	 1.161456072634435e+01
 1.341690047646450e+00	 1.479224719111105e+00	 1.149986201328301e+01
 1.485759956257906e+00	 1.347617654536259e+00	 1.214551506643639e+01
 1.472563040266178e+00	 1.362025779638146e+00	 1.208255826221711e+01
 1.459223920566363e+00	 1.376307308676963e+00	 1.203005685265774e+01
 1.445744410741009e+00	 1.390460159809072e+00	 1.198420509004319e+01
 1.432126365405813e+00	 1.404482286667198e+00	 1.194055281876798e+01
 1.418371679353267e+00	 1.418371679353267e+00	 1.189447110477413e+01
 1.404482286667198e+00	 1.432126365405813e+00	 1.184128899247093e+01
 1.390460159809072e+00	 1.445744410741010e+00	 1.177643426609432e+01
 1.376307308676963e+00	 1.459223920566363e+00	 1.169557730959738e+01
 1.362025779638146e+00	 1.472563040266179e+00	 1.159477712902036e+01
 1.347617654536259e+00	 1.485759956257906e+00	 1.147298320133770e+01
 1.492295193404373e+00	 1.353545261426035e+00	 1.214198763786452e+01
 1.479040229694022e+00	 1.368016761849031e+00	 1.208139504799213e+01
 1.465642436780887e+00	 1.382361109365842e+00	 1.202906996699415e+01
 1.452103636224718e+00	 1.396576212975658e+00	 1.198291529030431e+01
 1.438425690798901e+00	 1.410660017310085e+00	 1.193826594600431e+01
 1.424610503630336e+00	 1.424610503630336e+00	 1.189025798978923e+01
 1.410660017310085e+00	 1.438425690798901e+00	 1.183396959315627e+01
 1.396576212975658e+00	 1.452103636224718e+00	 1.176456621171316e+01
 1.382361109365842e+00	 1.465642436780888e+00	 1.167744900215869e+01
 1.368016761849031e+00	 1.479040229694022e+00	 1.156840552528247e+01
 1.353545261426034e+00	 1.492295193404373e+00	 1.144861671879685e+01
 1.498830430550423e+00	 1.359472868315728e+00	 1.213860726554378e+01
 1.485517419121476e+00	 1.374007744059806e+00	 1.208129083534688e+01
 1.472060952995053e+00	 1.388414910054578e+00	 1.202870520189468e+01
 1.458462861708104e+00	 1.402692266142069e+00	 1.198144372445224e+01
 1.444725016191701e+00	 1.416837747952759e+00	 1.193493615062894e+01
 1.430849327907154e+00	 1.430849327907154e+00	 1.188409431978329e+01
 1.416837747952760e+00	 1.444725016191701e+00	 1.182375621082996e+01
 1.402692266142068e+00	 1.458462861708104e+00	 1.174883559891954e+01
 1.388414910054578e+00	 1.472060952995054e+00	 1.165447511486446e+01
 1.374007744059805e+00	 1.485517419121477e+00	 1.153816215620357e+01
 1.359472868315728e+00	 1.498830430550423e+00	 1.142777875530363e+01
 1.505365667695974e+00	 1.365400475205287e+00	 1.213572216165212e+01
 1.491994608548464e+00	 1.379998726270423e+00	 1.208155507296512e+01
 1.478479469208790e+00	 1.394468710743127e+00	 1.202948084317836e+01
 1.464822087191101e+00	 1.408808319308257e+00	 1.198030887349482e+01
 1.451024341584154e+00	 1.423015478595172e+00	 1.193109342997163e+01
 1.437088152183668e+00	 1.437088152183668e+00	 1.187653240061781e+01
 1.423015478595172e+00	 1.451024341584154e+00	 1.181123369214993e+01
 1.408808319308256e+00	 1.464822087191101e+00	 1.172986945872318e+01
 1.394468710743127e+00	 1.478479469208790e+00	 1.162733389152999e+01
 1.379998726270422e+00	 1.491994608548465e+00	 1.151200773699776e+01
 1.365400475205287e+00	 1.505365667695974e+00	 1.141077798510444e+01
 1.511900904840941e+00	 1.371328082094663e+00	 1.213365915480073e+01
 1.498471797974906e+00	 1.385989708480836e+00	 1.208239189717212e+01
 1.484897985422025e+00	 1.400522511431443e+00	 1.203167473981740e+01
 1.471181312673642e+00	 1.414924372474174e+00	 1.198000240194175e+01
 1.457323666976201e+00	 1.429193209237272e+00	 1.192724211494702e+01
 1.443326976459824e+00	 1.443326976459824e+00	 1.186810002544406e+01
 1.429193209237272e+00	 1.457323666976200e+00	 1.179696352658634e+01
 1.414924372474174e+00	 1.471181312673642e+00	 1.170827262014670e+01
 1.400522511431443e+00	 1.484897985422025e+00	 1.159798202109666e+01
 1.385989708480836e+00	 1.498471797974906e+00	 1.149088253927209e+01
 1.371328082094663e+00	 1.511900904840942e+00	 1.139788575443393e+01
 1.518436141985242e+00	 1.377255688983805e+00	 1.213272408574758e+01
 1.504948987400725e+00	 1.391980690691000e+00	 1.208409012490203e+01
 1.491316501634686e+00	 1.406576312119480e+00	 1.203455187337465e+01
 1.477540538155662e+00	 1.421040425639775e+00	 1.198098703655680e+01
 1.463622992367781e+00	 1.435370939879010e+00	 1.192385876706412e+01
 1.449565800735567e+00	 1.449565800735567e+00	 1.185929839457670e+01
 1.435370939879009e+00	 1.463622992367781e+00	 1.178148179362217e+01
 1.421040425639776e+00	 1.477540538155663e+00	 1.168462568907006e+01
 1.406576312119480e+00	 1.491316501634687e+00	 1.157374099121609e+01
 1.391980690690999e+00	 1.504948987400726e+00	 1.147495725366937e+01
 1.377255688983805e+00	 1.518436141985242e+00	 1.138933725819663e+01
 1.524971379128793e+00	 1.383183295872664e+00	 1.213320220423550e+01
 1.511426176825844e+00	 1.397971672900867e+00	 1.208691828757991e+01
 1.497735017846702e+00	 1.412630112807195e+00	 1.203821396596529e+01
 1.483899763637098e+00	 1.427156478805014e+00	 1.198359013790994e+01
 1.469922317758837e+00	 1.441548670520337e+00	 1.192139007717624e+01
 1.455804625010844e+00	 1.455804625010844e+00	 1.185060003704773e+01
 1.441548670520337e+00	 1.469922317758837e+00	 1.176529711150563e+01
 1.427156478805014e+00	 1.483899763637098e+00	 1.166007855828099e+01
 1.412630112807194e+00	 1.497735017846702e+00	 1.155571934912932e+01
 1.397971672900867e+00	 1.511426176825845e+00	 1.146436847005430e+01
 1.383183295872664e+00	 1.524971379128793e+00	 1.138533271690428e+01
 1.323907226977324e+00	 1.459619007669536e+00	 1.153332859722154e+01
 1.309627879884325e+00	 1.472444454627764e+00	 1.141878491145986e+01
 1.295228337627253e+00	 1.485126688637369e+00	 1.127718501268943e+01
 1.280710768025226e+00	 1.497664029841519e+00	 1.113839302497293e+01
 1.266077369595616e+00	 1.510054841831538e+00	 1.101281018641636e+01
 1.251330370457585e+00	 1.522297532345218e+00	 1.089933908917303e+01
 1.236472027217101e+00	 1.534390553932163e+00	 1.079672566672785e+01
 1.221504623834565e+00	 1.546332404585624e+00	 1.070352891751517e+01
 1.206430470476243e+00	 1.558121628340281e+00	 1.061809153678012e+01
 1.191251902350694e+00	 1.569756815835506e+00	 1.053851173901965e+01
 1.175971278531404e+00	 1.581236604843679e+00	 1.046261654589341e+01
 1.329834833866932e+00	 1.466154244816837e+00	 1.153206765476675e+01
 1.315491553021954e+00	 1.479037115895505e+00	 1.140863640547991e+01
 1.301027538856151e+00	 1.491776132809843e+00	 1.126781059898999e+01
 1.286444968894736e+00	 1.504369608181692e+00	 1.113794553147408e+01
 1.271746051498621e+00	 1.516815898275585e+00	 1.101910318180386e+01
 1.256933024763049e+00	 1.529113403700177e+00	 1.091040217511359e+01
 1.242008155397609e+00	 1.541260570076581e+00	 1.081081173351029e+01
 1.226973737588806e+00	 1.553255888673018e+00	 1.071911984192654e+01
 1.211832091846339e+00	 1.565097897005287e+00	 1.063390232962411e+01
 1.196585563834322e+00	 1.576785179402540e+00	 1.055349316011497e+01
 1.181236523188651e+00	 1.588316367537974e+00	 1.047595621466626e+01
 1.335762440756657e+00	 1.472689481964054e+00	 1.152062505753247e+01
 1.321355226159749e+00	 1.485629777163158e+00	 1.138947421593352e+01
 1.306826740085268e+00	 1.498425576982224e+00	 1.125816021951912e+01
 1.292179169764524e+00	 1.511075186521768e+00	 1.113642874839533e+01
 1.277414733401964e+00	 1.523576954719527e+00	 1.102370254990660e+01
 1.262535679068911e+00	 1.535929275055025e+00	 1.091929538896361e+01
 1.247544283578578e+00	 1.548130586220875e+00	 1.082237803077266e+01
 1.232442851343567e+00	 1.560179372760274e+00	 1.073194483881541e+01
 1.217233713217009e+00	 1.572074165670134e+00	 1.064678129696999e+01
 1.201919225318574e+00	 1.583813542969390e+00	 1.056543275917930e+01
 1.186501767846565e+00	 1.595396130232050e+00	 1.048617472232936e+01
 1.341690047646450e+00	 1.479224719111105e+00	 1.149986201328301e+01
 1.327218899297653e+00	 1.492222438430635e+00	 1.137072971500285e+01
 1.312625941314540e+00	 1.505075021154422e+00	 1.124882901506362e+01
 1.297913370634512e+00	 1.517780764861653e+00	 1.113448506936917e+01
 1.283083415305556e+00	 1.530338011163272e+00	 1.102728806458530e+01
 1.268138333375069e+00	 1.542745146409667e+00	 1.092672634318217e+01
 1.253080411759890e+00	 1.555000602364956e+00	 1.083215080833132e+01
 1.237911965098716e+00	 1.567102856847306e+00	 1.074273994265925e+01
 1.222635334588109e+00	 1.579050434334744e+00	 1.065746576069831e+01
 1.207252886803294e+00	 1.590841906535989e+00	 1.057506100930334e+01
 1.191767012504980e+00	 1.602475892925860e+00	 1.049398792240390e+01
 1.347617654536259e+00	 1.485759956257906e+00	 1.147298320133770e+01
 1.333082572435608e+00	 1.498815099697849e+00	 1.135372409971375e+01
 1.318425142543900e+00	 1.511724465326345e+00	 1.124036852024193e+01
 1.303647571504624e+00	 1.524486343201255e+00	 1.113271273733410e+01
 1.288752097209308e+00	 1.537099067606727e+00	 1.103049496477149e+01
 1.273740987681423e+00	 1.549561017764014e+00	 1.093335789026818e+01
 1.258616539941429e+00	 1.561870618508737e+00	 1.084081148909873e+01
 1.243381078854123e+00	 1.574026340934034e+00	 1.075219645101373e+01
 1.228036955959496e+00	 1.586026702999048e+00	 1.066664855145834e+01
 1.212586548288326e+00	 1.597870270102276e+00	 1.058306429245311e+01
 1.197032257163729e+00	 1.609555655619353e+00	 1.050006813044165e+01
 1.353545261426034e+00	 1.492295193404373e+00	 1.144861671879685e+01
 1.338946245573560e+00	 1.505407760964711e+00	 1.133891043922869e+01
 1.324224343773282e+00	 1.518373909497903e+00	 1.123328783233545e+01
 1.309381772374785e+00	 1.531191921540480e+00	 1.113166700242394e+01
 1.294420779113130e+00	 1.543860124049798e+00	 1.103391509654631e+01
 1.279343641987868e+00	 1.556376889117973e+00	 1.093980924430030e+01
 1.264152668123079e+00	 1.568740634652129e+00	 1.084899776550224e+01
 1.248850192609658e+00	 1.580949825020375e+00	 1.076096199137712e+01
 1.233438577331025e+00	 1.593002971662969e+00	 1.067497904169604e+01
 1.217920209773513e+00	 1.604898633668188e+00	 1.059008589454258e+01
 1.202297501822644e+00	 1.616635418312479e+00	 1.050504507717406e+01
 1.359472868315728e+00	 1.498830430550423e+00	 1.142777875530363e+01
 1.344809918711451e+00	 1.512000422231134e+00	 1.132670125183880e+01
 1.330023545002623e+00	 1.525023353669003e+00	 1.122805477970137e+01
 1.315115973244917e+00	 1.537897499879237e+00	 1.113186127924958e+01
 1.300089461016935e+00	 1.550621180492393e+00	 1.103809805452553e+01
 1.284946296294302e+00	 1.563192760471453e+00	 1.094665710180296e+01
 1.269688796304724e+00	 1.575610650795045e+00	 1.085730469534925e+01
 1.254319306365190e+00	 1.587873309106248e+00	 1.076964158772028e+01
 1.238840198702554e+00	 1.599979240326434e+00	 1.068306417866562e+01
 1.223253871258701e+00	 1.611926997233662e+00	 1.059672700089250e+01
 1.207562746481559e+00	 1.623715181005190e+00	 1.050950686254763e+01
 1.365400475205287e+00	 1.505365667695974e+00	 1.141077798510444e+01
 1.350673591849225e+00	 1.518593083497030e+00	 1.131746967949852e+01
 1.335822746231855e+00	 1.531672797839557e+00	 1.122509708978167e+01
 1.320850174114943e+00	 1.544603078217431e+00	 1.113376830358867e+01
 1.305758142920632e+00	 1.557382236934418e+00	 1.104355232257371e+01
 1.290548950600625e+00	 1.570008631824362e+00	 1.095443676195906e+01
 1.275224924486247e+00	 1.582480666937396e+00	 1.086628579715661e+01
 1.259788420120590e+00	 1.594796793191570e+00	 1.077879872669336e+01
 1.244241820073938e+00	 1.606955508989369e+00	 1.069146951742191e+01
 1.228587532743733e+00	 1.618955360798634e+00	 1.060354769206885e+01
 1.212827991140307e+00	 1.630794943697435e+00	 1.051400091062035e+01
 1.371328082094663e+00	 1.511900904840942e+00	 1.139788575443393e+01
 1.356537264986826e+00	 1.525185744762312e+00	 1.131155066224757e+01
 1.341621947460914e+00	 1.538322242009472e+00	 1.122480355671623e+01
 1.326584374984789e+00	 1.551308656554971e+00	 1.113782128850298e+01
 1.311426824824134e+00	 1.564143293375780e+00	 1.105074641386384e+01
 1.296151604906731e+00	 1.576824503176609e+00	 1.096364324618904e+01
 1.280761052667533e+00	 1.589350683079095e+00	 1.087645414495926e+01
 1.265257533875728e+00	 1.601720277276258e+00	 1.078895642351828e+01
 1.249643441445035e+00	 1.613931777651700e+00	 1.070072025379456e+01
 1.233921194228453e+00	 1.625983724363042e+00	 1.061106794008584e+01
 1.218093235798723e+00	 1.637874706389165e+00	 1.051903492529044e+01
 1.377255688983805e+00	 1.518436141985242e+00	 1.138933725819663e+01
 1.362400938124195e+00	 1.531778406026890e+00	 1.130924211252309e+01
 1.347421148689733e+00	 1.544971686178656e+00	 1.122752520857484e+01
 1.332318575854376e+00	 1.558014234891763e+00	 1.114441507989860e+01
 1.317095506727351e+00	 1.570904349816386e+00	 1.106011001030486e+01
 1.301754259212522e+00	 1.583640374528103e+00	 1.097473241711291e+01
 1.286297180848465e+00	 1.596220699220054e+00	 1.088828346261395e+01
 1.270726647630473e+00	 1.608643761360231e+00	 1.080059828757662e+01
 1.255045062815701e+00	 1.620908046313352e+00	 1.071130225734571e+01
 1.239254855712705e+00	 1.633012087926821e+00	 1.061976860496334e+01
 1.223358480456637e+00	 1.644954469080331e+00	 1.052507784683407e+01
 1.383183295872664e+00	 1.524971379128793e+00	 1.138533271690428e+01
 1.368264611261278e+00	 1.538371067290679e+00	 1.131080608936482e+01
 1.353220349918248e+00	 1.551621130347021e+00	 1.123357647421524e+01
 1.338052776723630e+00	 1.564719813227714e+00	 1.115390731154521e+01
 1.322764188630196e+00	 1.577665406256143e+00	 1.107203510135287e+01
 1.307356913517892e+00	 1.590456245878752e+00	 1.098812209691638e+01
 1.291833309028926e+00	 1.603090715360185e+00	 1.090220921761162e+01
 1.276195761384695e+00	 1.615567245443407e+00	 1.081416958769918e+01
 1.260446684185792e+00	 1.627884314974253e+00	 1.072366310430814e+01
 1.244588517196333e+00	 1.640040451489909e+00	 1.063009243162740e+01
 1.228623725113884e+00	 1.652034231770882e+00	 1.053256080922577e+01
 1.175971278531404e+00	 1.581236604843679e+00	 1.046261654589341e+01
 1.160593602018781e+00	 1.592557770515995e+00	 1.037956717282916e+01
 1.145118678784137e+00	 1.603721016929166e+00	 1.028272478359850e+01
 1.129548922467025e+00	 1.614725133077867e+00	 1.017588243977610e+01
 1.113886765794420e+00	 1.625568956772238e+00	 1.006260637687137e+01
 1.098134659358124e+00	 1.636251374984289e+00	 9.944648977162291e+00
 1.082295070385766e+00	 1.646771324157903e+00	 9.821362774379311e+00
 1.066370481506642e+00	 1.657127790482339e+00	 9.693863133735906e+00
 1.050363389513654e+00	 1.667319810129223e+00	 9.562668952087490e+00
 1.034276304122573e+00	 1.677346469452999e+00	 9.427719817082160e+00
 1.018111746729887e+00	 1.687206905154955e+00	 9.288459405193805e+00
 1.181236523188651e+00	 1.588316367537974e+00	 1.047595621466626e+01
 1.165789995309951e+00	 1.599688222123976e+00	 1.039152825967543e+01
 1.150245785300797e+00	 1.610901450389679e+00	 1.029431975646999e+01
 1.134606317607475e+00	 1.621954835907669e+00	 1.018785986595889e+01
 1.118874035849151e+00	 1.632847211284564e+00	 1.007543402841136e+01
 1.103051401589804e+00	 1.643577458508968e+00	 9.959488371590613e+00
 1.087140893103727e+00	 1.654144509262857e+00	 9.838934079280669e+00
 1.071145004135839e+00	 1.664547345196320e+00	 9.714151703584806e+00
 1.055066242658079e+00	 1.674784998165586e+00	 9.585330212891579e+00
 1.038907129623117e+00	 1.684856550434408e+00	 9.452065229957036e+00
 1.022670197716636e+00	 1.694761134838787e+00	 9.313445338377452e+00
 1.186501767846565e+00	 1.595396130232050e+00	 1.048617472232936e+01
 1.170986388601823e+00	 1.606818673731701e+00	 1.040022074174743e+01
 1.155372891818188e+00	 1.618081883849891e+00	 1.030237219718245e+01
 1.139663712748673e+00	 1.629184538737122e+00	 1.019593002675926e+01
 1.123861305904635e+00	 1.640125465796491e+00	 1.008393577989492e+01
 1.107968143822234e+00	 1.650903542033194e+00	 9.969063729473259e+00
 1.091986715822421e+00	 1.661517694367308e+00	 9.850672800140755e+00
 1.075919526765740e+00	 1.671966899909743e+00	 9.728129957574142e+00
 1.059769095803165e+00	 1.682250186201348e+00	 9.601331950700724e+00
 1.043537955124264e+00	 1.692366631415169e+00	 9.469569354100589e+00
 1.027228648703915e+00	 1.702315364521934e+00	 9.331615777127432e+00
 1.191767012504980e+00	 1.602475892925860e+00	 1.049398792240390e+01
 1.176182781894224e+00	 1.613949125339137e+00	 1.040635325012333e+01
 1.160499998336127e+00	 1.625262317309789e+00	 1.030760551950717e+01
 1.144721107890431e+00	 1.636414241566234e+00	 1.020085264675767e+01
 1.128848575960686e+00	 1.647403720308046e+00	 1.008892869814234e+01
 1.112884886055225e+00	 1.658229625557020e+00	 9.974366530396850e+00
 1.096832538541665e+00	 1.668890879471328e+00	 9.857624272386106e+00
 1.080694049396169e+00	 1.679386454622708e+00	 9.736940298205258e+00
 1.064471948948746e+00	 1.689715374236622e+00	 9.611931606853755e+00
 1.048168780625862e+00	 1.699876712395418e+00	 9.481621762472619e+00
 1.031787099691592e+00	 1.709869594204547e+00	 9.344508633587274e+00
 1.197032257163729e+00	 1.609555655619353e+00	 1.050006813044165e+01
 1.181379175186976e+00	 1.621079576946250e+00	 1.041059132220328e+01
 1.165627104854430e+00	 1.632442750769358e+00	 1.031070012693433e+01
 1.149778503032564e+00	 1.643643944395009e+00	 1.020334417597206e+01
 1.133835846017113e+00	 1.654681974819259e+00	 1.009118597687149e+01
 1.117801628288591e+00	 1.665555709080496e+00	 9.976572775730920e+00
 1.101678361261276e+00	 1.676264064574992e+00	 9.860797006637110e+00
 1.085468572026949e+00	 1.686806009335308e+00	 9.741688534404055e+00
 1.069174802094657e+00	 1.697180562271523e+00	 9.618349968961935e+00
 1.052799606127762e+00	 1.707386793375290e+00	 9.489575028755313e+00
 1.036345550679533e+00	 1.717423823886777e+00	 9.353624195933977e+00
 1.202297501822644e+00	 1.616635418312479e+00	 1.050504507717406e+01
 1.186575568479903e+00	 1.628210028553008e+00	 1.041355831484403e+01
 1.170754211372916e+00	 1.639623184228585e+00	 1.031229429334128e+01
 1.154835898174882e+00	 1.650873647223456e+00	 1.020407864545373e+01
 1.138823116073729e+00	 1.661960229330158e+00	 1.009143777445052e+01
 1.122718370522145e+00	 1.672881792603671e+00	 9.976569841194582e+00
 1.106524183981069e+00	 1.683637249678369e+00	 9.861162062966589e+00
 1.090243094657904e+00	 1.694225564047637e+00	 9.743443304190723e+00
 1.073877655240733e+00	 1.704645750306169e+00	 9.621770648683489e+00
 1.057430431629813e+00	 1.714896874354918e+00	 9.494744266652674e+00
 1.040904001667607e+00	 1.724978053568774e+00	 9.360424735338077e+00
 1.207562746481559e+00	 1.623715181005190e+00	 1.050950686254763e+01
 1.191771961772830e+00	 1.635340480159378e+00	 1.041583631881291e+01
 1.175881317891401e+00	 1.646803617687454e+00	 1.031298504521025e+01
 1.159893293317201e+00	 1.658103350051580e+00	 1.020368852445533e+01
 1.143810386130344e+00	 1.669238483840769e+00	 1.009037205304455e+01
 1.127635112755698e+00	 1.680207876126599e+00	 9.975120755512112e+00
 1.111370006700863e+00	 1.691010434781535e+00	 9.859652907852618e+00
 1.095017617288860e+00	 1.701645118759792e+00	 9.743235497079352e+00
 1.078580508386809e+00	 1.712110938340675e+00	 9.623339558321288e+00
 1.062061257131863e+00	 1.722406955334436e+00	 9.498406666932038e+00
 1.045462452655680e+00	 1.732532283250688e+00	 9.366334109434741e+00
 1.212827991140307e+00	 1.630794943697435e+00	 1.051400091062036e+01
 1.196968355065582e+00	 1.642470931765327e+00	 1.041796707452690e+01
 1.181008424409705e+00	 1.653984051145953e+00	 1.031332904534679e+01
 1.164950688459333e+00	 1.665333052879389e+00	 1.020276557912184e+01
 1.148797656186772e+00	 1.676516738351124e+00	 1.008863541911879e+01
 1.132551854989065e+00	 1.687533959649328e+00	 9.972946239058114e+00
 1.116215829420473e+00	 1.698383619884563e+00	 9.857326993209160e+00
 1.099792139919641e+00	 1.709064673471866e+00	 9.742057676211694e+00
 1.083283361532721e+00	 1.719576126375154e+00	 9.624164386273678e+00
 1.066692082633763e+00	 1.729917036313978e+00	 9.501801032283316e+00
 1.050020903643622e+00	 1.740086512932670e+00	 9.372737362408113e+00
 1.218093235798723e+00	 1.637874706389165e+00	 1.051903492529044e+01
 1.202164748357982e+00	 1.649601383370821e+00	 1.042045288903170e+01
 1.186135530927644e+00	 1.661164484604067e+00	 1.031384347805463e+01
 1.170008083601092e+00	 1.672562755706888e+00	 1.020186173265945e+01
 1.153784926242822e+00	 1.683794992861249e+00	 1.008683396525271e+01
 1.137468597222056e+00	 1.694860043171911e+00	 9.970725533817369e+00
 1.121061652139717e+00	 1.705756804987527e+00	 9.855112120657756e+00
 1.104566662550069e+00	 1.716484228183955e+00	 9.740863500231008e+00
 1.087986214678302e+00	 1.727041314409724e+00	 9.625314071374712e+00
 1.071322908135362e+00	 1.737427117293679e+00	 9.506127310051166e+00
 1.054579354631298e+00	 1.747640742614871e+00	 9.380980321789913e+00
 1.223358480456637e+00	 1.644954469080331e+00	 1.052507784683407e+01
 1.207361141649855e+00	 1.656731834975827e+00	 1.042375755418846e+01
 1.191262637445034e+00	 1.668344918061780e+00	 1.031500693572182e+01
 1.175065478742290e+00	 1.679792458534084e+00	 1.020148992693663e+01
 1.158772196298307e+00	 1.691073247371174e+00	 1.008553411322784e+01
 1.142385339454486e+00	 1.702186126694397e+00	 9.969097234283382e+00
 1.125907474858412e+00	 1.713129990090498e+00	 9.853737292919533e+00
 1.109341185179970e+00	 1.723903782896154e+00	 9.740567144902064e+00
 1.092689067823388e+00	 1.734506502444499e+00	 9.627818276153265e+00
 1.075953733636509e+00	 1.744937198273673e+00	 9.512546122909196e+00
 1.059137805618578e+00	 1.755194972297440e+00	 9.392369192069175e+00
 1.228623725113884e+00	 1.652034231770882e+00	 1.053256080922577e+01
 1.212557534941026e+00	 1.663862286580313e+00	 1.042830726602639e+01
 1.196389743961696e+00	 1.675525351519081e+00	 1.031726030677526e+01
 1.180122873882741e+00	 1.687022161360984e+00	 1.020212498547378e+01
 1.163759466353039e+00	 1.698351501880926e+00	 1.008526345834963e+01
 1.147302081686166e+00	 1.709512210216838e+00	 9.968660119266241e+00
 1.130753297576374e+00	 1.720503175193551e+00	 9.853890439531462e+00
 1.114115707809168e+00	 1.731323337608557e+00	 9.742093775588739e+00
 1.097391920967814e+00	 1.741971690479595e+00	 9.632666859041112e+00
 1.080584559137054e+00	 1.752447279254095e+00	 9.522178297532315e+00
 1.063696256605328e+00	 1.762749201980530e+00	 9.408170145207357e+00
 1.018111746729887e+00	 1.687206905154955e+00	 9.288459405193805e+00
 1.001872249487630e+00	 1.696900304820150e+00	 9.151866417145616e+00
 9.855603549931854e-01	 1.706425908242760e+00	 9.024510074842478e+00
 9.691786140624503e-01	 1.715783006263096e+00	 8.904736147861096e+00
 9.527295841709187e-01	 1.724970940377081e+00	 8.790735844564331e+00
 9.362158282216873e-01	 1.733989102717897e+00	 8.680619140701893e+00
 9.196399133193149e-01	 1.742836936002513e+00	 8.572485001527848e+00
 9.030044095506687e-01	 1.751513933443456e+00	 8.464488166617503e+00
 8.863118887738816e-01	 1.760019638626248e+00	 8.354902196688215e+00
 8.695649234165100e-01	 1.768353645352981e+00	 8.242178512854743e+00
 8.527660852839681e-01	 1.776515597452493e+00	 8.125001190653556e+00
 1.022670197716636e+00	 1.694761134838787e+00	 9.313445338377452e+00
 1.006357990428024e+00	 1.704497935326324e+00	 9.176442039892052e+00
 9.899730617387850e-01	 1.714066188287475e+00	 9.048066730088257e+00
 9.735179738857336e-01	 1.723465181387379e+00	 8.926987824923703e+00
 9.569952957950972e-01	 1.732694253173586e+00	 8.811734104980705e+00
 9.404076018450096e-01	 1.741752793057634e+00	 8.700769426960896e+00
 9.237574706338777e-01	 1.750640241261321e+00	 8.592564207394497e+00
 9.070474837557683e-01	 1.759356088728095e+00	 8.485663340401475e+00
 8.902802245839454e-01	 1.767899876999938e+00	 8.378750242354460e+00
 8.734582770636449e-01	 1.776271198060234e+00	 8.270706748322484e+00
 8.565842245151780e-01	 1.784469694143108e+00	 8.160668617989876e+00
 1.027228648703915e+00	 1.702315364521934e+00	 9.331615777127432e+00
 1.010843731368860e+00	 1.712095565831782e+00	 9.194552734803880e+00
 9.943857684847284e-01	 1.721706468331452e+00	 9.065828187461785e+00
 9.778573337092549e-01	 1.731147356510909e+00	 8.944287505176240e+00
 9.612610074194082e-01	 1.740417565969336e+00	 8.828648271695805e+00
 9.445993754683630e-01	 1.749516483396619e+00	 8.717576658282088e+00
 9.278750279483776e-01	 1.758443546519395e+00	 8.609760447310592e+00
 9.110905579607256e-01	 1.767198244012031e+00	 8.503978359558097e+00
 8.942485603938056e-01	 1.775780115372968e+00	 8.399165371014806e+00
 8.773516307105402e-01	 1.784188750766886e+00	 8.294473738012098e+00
 8.604023637461388e-01	 1.792423790833194e+00	 8.189329483222286e+00
 1.031787099691592e+00	 1.709869594204547e+00	 9.344508633587274e+00
 1.015329472310029e+00	 1.719693196336689e+00	 9.207866091474298e+00
 9.987984752309287e-01	 1.729346748374865e+00	 9.079539864283360e+00
 9.821966935329554e-01	 1.738829531633867e+00	 8.958408245409267e+00
 9.655267190438198e-01	 1.748140878764512e+00	 8.843230551452233e+00
 9.487911490917418e-01	 1.757280173735038e+00	 8.732725437156679e+00
 9.319925852628353e-01	 1.766246851776917e+00	 8.625645736445149e+00
 9.151336321655836e-01	 1.775040399295439e+00	 8.520849474975630e+00
 8.982168962035247e-01	 1.783660353745502e+00	 8.417366732490995e+00
 8.812449843572712e-01	 1.792106303473086e+00	 8.314462067141456e+00
 8.642205029769344e-01	 1.800377887522883e+00	 8.211692248682496e+00
 1.036345550679533e+00	 1.717423823886777e+00	 9.353624195933977e+00
 1.019815213251417e+00	 1.727290826841209e+00	 9.218011776080770e+00
 1.003211181977301e+00	 1.736987028417887e+00	 9.090909855287620e+00
 9.865360533567764e-01	 1.746511706756435e+00	 8.971087243092859e+00
 9.697924306683005e-01	 1.755864191559300e+00	 8.857199579168316e+00
 9.529829227151404e-01	 1.765043864073076e+00	 8.747869867470012e+00
 9.361101425772709e-01	 1.774050157034071e+00	 8.641765411523112e+00
 9.191767063703854e-01	 1.782882554578494e+00	 8.537670787193530e+00
 9.021852320131646e-01	 1.791540592117707e+00	 8.434556523094091e+00
 8.851383380039127e-01	 1.800023856178985e+00	 8.331643193656028e+00
 8.680386422076478e-01	 1.808331984212308e+00	 8.228460665621718e+00
 1.040904001667607e+00	 1.724978053568774e+00	 9.360424735338077e+00
 1.024300954192917e+00	 1.734888457345504e+00	 9.226581198780730e+00
 1.007623888723760e+00	 1.744627308460692e+00	 9.101608640501018e+00
 9.908754131806581e-01	 1.754193881878792e+00	 8.984025565477822e+00
 9.740581422928178e-01	 1.763587504353885e+00	 8.872240149722138e+00
 9.571746963385549e-01	 1.772807554410919e+00	 8.764633271147957e+00
 9.402276998917043e-01	 1.781853462291037e+00	 8.659637815245592e+00
 9.232197805751732e-01	 1.790724709861371e+00	 8.555813882256579e+00
 9.061535678227867e-01	 1.799420830489746e+00	 8.451919557318968e+00
 8.890316916505411e-01	 1.807941408884734e+00	 8.346976940937960e+00
 8.718567814383629e-01	 1.816286080901601e+00	 8.240333173877289e+00
 1.045462452655680e+00	 1.732532283250688e+00	 9.366334109434741e+00
 1.028786695134416e+00	 1.742486087849739e+00	 9.235127176566724e+00
 1.012036595470219e+00	 1.752267588503456e+00	 9.113268788045215e+00
 9.952147730045425e-01	 1.761876057001122e+00	 8.998887873593601e+00
 9.783238539173406e-01	 1.771310817148453e+00	 8.890002945081106e+00
 9.613664699619803e-01	 1.780571244748752e+00	 8.784607901057845e+00
 9.443452572061566e-01	 1.789656767547997e+00	 8.680753978315924e+00
 9.272628547799905e-01	 1.798566865144247e+00	 8.576627466940090e+00
 9.101219036324519e-01	 1.807301068861784e+00	 8.470622841083333e+00
 8.929250452972309e-01	 1.815858961590483e+00	 8.361410994609564e+00
 8.756749206691625e-01	 1.824240177590894e+00	 8.248002308542238e+00
 1.050020903643622e+00	 1.740086512932670e+00	 9.372737362408113e+00
 1.033272436075806e+00	 1.750083718354078e+00	 9.245163591716361e+00
 1.016449302216594e+00	 1.759907868546351e+00	 9.127484652021781e+00
 9.995541328283705e-01	 1.769558232123605e+00	 9.017302141297675e+00
 9.825895655418375e-01	 1.779034129943188e+00	 8.912104256917560e+00
 9.655582435854111e-01	 1.788334935086759e+00	 8.809354650276367e+00
 9.484628145206473e-01	 1.797460072805134e+00	 8.706577299140857e+00
 9.313059289848798e-01	 1.806409020427295e+00	 8.601437003371711e+00
 9.140902394422225e-01	 1.815181307233987e+00	 8.491815146463571e+00
 8.968183989440586e-01	 1.823776514296382e+00	 8.375880403302999e+00
 8.794930599001300e-01	 1.832194274280319e+00	 8.252154113418575e+00
 1.054579354631298e+00	 1.747640742614871e+00	 9.380980321789913e+00
 1.037758177016974e+00	 1.757681348858684e+00	 9.258165045971307e+00
 1.020862008962798e+00	 1.767548148589553e+00	 9.145812065625652e+00
 1.003893492652083e+00	 1.777240407246422e+00	 9.040859369523369e+00
 9.868552771662767e-01	 1.786757442738276e+00	 8.940125704844842e+00
 9.697500172088429e-01	 1.796098625425127e+00	 8.840402757834385e+00
 9.525803718351967e-01	 1.805263378062631e+00	 8.738543221278377e+00
 9.353490031898837e-01	 1.814251175710692e+00	 8.631544343059931e+00
 9.180585752521593e-01	 1.823061545606518e+00	 8.516626587880218e+00
 9.007117525910985e-01	 1.831694067002581e+00	 8.391307083279431e+00
 8.833111991313498e-01	 1.840148370970008e+00	 8.253467561054503e+00
 1.059137805618578e+00	 1.755194972297440e+00	 9.392369192069175e+00
 1.042243917957811e+00	 1.765278979363722e+00	 9.275566510567215e+00
 1.025274715708746e+00	 1.775188428633234e+00	 9.169768029627710e+00
 1.008232852475620e+00	 1.784922582369755e+00	 9.071113295867802e+00
 9.911209887906262e-01	 1.794480755533900e+00	 8.975613950404831e+00
 9.739417908322711e-01	 1.803862315764040e+00	 8.879249511041149e+00
 9.566979291498261e-01	 1.813066683320668e+00	 8.778058908695900e+00
 9.393920773950454e-01	 1.822093330994612e+00	 8.668227360349807e+00
 9.220269110623245e-01	 1.830941783979543e+00	 8.546168199688619e+00
 9.046051062384273e-01	 1.839611619709232e+00	 8.408599326773645e+00
 8.871293383629040e-01	 1.848102467660094e+00	 8.252613979161058e+00
 1.063696256605328e+00	 1.762749201980530e+00	 9.408170145207357e+00
 1.046729658898207e+00	 1.772876609869357e+00	 9.298762972243592e+00
 1.029687422454353e+00	 1.782828708677572e+00	 9.200830396364355e+00
 1.012572212298925e+00	 1.792604757493784e+00	 9.109580099661519e+00
 9.953867004148546e-01	 1.802204068330247e+00	 9.020080406931218e+00
 9.781335644556902e-01	 1.811626006103685e+00	 8.927359944490803e+00
 9.608154864645549e-01	 1.820869988579429e+00	 8.826502918904563e+00
 9.434351516004084e-01	 1.829935486279232e+00	 8.712739585319854e+00
 9.259952468727801e-01	 1.838822022353227e+00	 8.581531515130257e+00
 9.084984598861195e-01	 1.847529172416485e+00	 8.428651313960680e+00
 8.909474775948772e-01	 1.856056564350709e+00	 8.256151607541641e+00
 8.527660852839681e-01	 1.776515597452493e+00	 8.125001190653565e+00
 8.359150758318051e-01	 1.784506531992859e+00	 8.012983237054023e+00
 8.190173143215014e-01	 1.792324788737874e+00	 7.912875460660368e+00
 8.020753641344036e-01	 1.799970158789352e+00	 7.819447312778792e+00
 7.850917834154448e-01	 1.807442482225144e+00	 7.727814592444679e+00
 7.680691239473414e-01	 1.814741647752109e+00	 7.633477231437957e+00
 7.510099300408769e-01	 1.821867592329375e+00	 7.532352072253842e+00
 7.339167374421334e-01	 1.828820300762612e+00	 7.420683887279004e+00
 7.167920722575044e-01	 1.835599805270095e+00	 7.293740041848328e+00
 6.996384498972799e-01	 1.842206185021295e+00	 7.147440059007902e+00
 6.824583740385706e-01	 1.848639565648836e+00	 6.978849556229397e+00
 8.565842245151780e-01	 1.784469694143108e+00	 8.160668617989876e+00
 8.396577670574036e-01	 1.792496406959950e+00	 8.057732274556784e+00
 8.226843482157804e-01	 1.800349668841083e+00	 7.967018152764267e+00
 8.056665428488365e-01	 1.808029269953017e+00	 7.882096074977519e+00
 7.886069205552402e-01	 1.815535049657577e+00	 7.796882725694397e+00
 7.715080445429554e-01	 1.822866896163327e+00	 7.705682081095011e+00
 7.543724705145624e-01	 1.830024746147141e+00	 7.603220667973748e+00
 7.372027455695904e-01	 1.837008584346666e+00	 7.484650496811452e+00
 7.200014071247192e-01	 1.843818443124430e+00	 7.344443895144125e+00
 7.027709818526362e-01	 1.850454402004382e+00	 7.177357872252510e+00
 6.855139846403153e-01	 1.856916587181651e+00	 6.995610791028449e+00
 8.604023637461388e-01	 1.792423790833194e+00	 8.189329483222290e+00
 8.434004582827754e-01	 1.800486281926599e+00	 8.091991356870976e+00
 8.263513821098809e-01	 1.808374548943953e+00	 8.005855124404945e+00
 8.092577215631587e-01	 1.816088381116450e+00	 7.923470863874048e+00
 7.921220576950027e-01	 1.823627617089888e+00	 7.837740390118183e+00
 7.749469651386222e-01	 1.830992144574534e+00	 7.741960051620856e+00
 7.577350109883830e-01	 1.838181899965001e+00	 7.629858188652394e+00
 7.404887536972570e-01	 1.845196867930910e+00	 7.495627135471892e+00
 7.232107419922029e-01	 1.852037080979040e+00	 7.333169201512964e+00
 7.059035138082992e-01	 1.858702618987810e+00	 7.164535401629459e+00
 6.885695952423757e-01	 1.865193608714851e+00	 7.012548550148812e+00
 8.642205029769344e-01	 1.800377887522883e+00	 8.211692248682500e+00
 8.471431495080048e-01	 1.808476156892918e+00	 8.116208269555283e+00
 8.300184160038834e-01	 1.816399429046566e+00	 8.029634971208413e+00
 8.128489002774396e-01	 1.824147492279707e+00	 7.943679895343710e+00
 7.956371948347921e-01	 1.831720184522107e+00	 7.850411543206510e+00
 7.783858857343856e-01	 1.839117392985728e+00	 7.742304265071305e+00
 7.610975514623687e-01	 1.846339053782927e+00	 7.612277638315017e+00
 7.437747618251471e-01	 1.853385151515288e+00	 7.454970060317965e+00
 7.264200768599567e-01	 1.860255718833843e+00	 7.300557413801354e+00
 7.090360457642585e-01	 1.866950835971476e+00	 7.161554844468071e+00
 6.916252058447343e-01	 1.873470630248318e+00	 7.035127643771896e+00
 8.680386422076478e-01	 1.808331984212308e+00	 8.228460665621718e+00
 8.508858407331772e-01	 1.816466031859018e+00	 8.130832190642357e+00
 8.336854498978677e-01	 1.824424309149010e+00	 8.038612621707284e+00
 8.164400789917521e-01	 1.832206603442847e+00	 7.942841538110797e+00
 7.991523319746678e-01	 1.839812751954262e+00	 7.834933038116350e+00
 7.818248063302906e-01	 1.847242641396911e+00	 7.706722448913688e+00
 7.644600919365478e-01	 1.854496207600891e+00	 7.554051294586626e+00
 7.470607699532762e-01	 1.861573435099747e+00	 7.410335215317906e+00
 7.296294117279808e-01	 1.868474356688762e+00	 7.283068450153314e+00
 7.121685777205041e-01	 1.875199052955282e+00	 7.168118291291215e+00
 6.946808164473743e-01	 1.881747651781935e+00	 7.062033805602701e+00
 8.718567814383629e-01	 1.816286080901601e+00	 8.240333173877289e+00
 8.546285319583773e-01	 1.824455906825007e+00	 8.136313002893049e+00
 8.373524837919145e-01	 1.832449189251368e+00	 8.033048586343902e+00
 8.200312577061676e-01	 1.840265714605927e+00	 7.921083522657403e+00
 8.026674691146880e-01	 1.847905319386382e+00	 7.791353814621360e+00
 7.852637269263818e-01	 1.855367889808084e+00	 7.641164908070140e+00
 7.678226324109505e-01	 1.862653361418864e+00	 7.504282059511252e+00
 7.503467780816581e-01	 1.869761718684233e+00	 7.384702191204326e+00
 7.328387465962768e-01	 1.876692994543716e+00	 7.278966336570624e+00
 7.153011096770268e-01	 1.883447269939126e+00	 7.182682661803538e+00
 6.977364270502795e-01	 1.890024673315585e+00	 7.091959035625087e+00
 8.756749206691625e-01	 1.824240177590894e+00	 8.248002308542238e+00
 8.583712231836894e-01	 1.832445781790996e+00	 8.133100615801769e+00
 8.410195176861038e-01	 1.840474069353725e+00	 8.013208218331885e+00
 8.236224364207566e-01	 1.848324825769005e+00	 7.878542163478810e+00
 8.061826062549124e-01	 1.855997886818497e+00	 7.727480867172416e+00
 7.887026475227042e-01	 1.863493138219246e+00	 7.593057525772776e+00
 7.711851728856056e-01	 1.870810515236819e+00	 7.477161965812631e+00
 7.536327862103069e-01	 1.877950002268689e+00	 7.376199423620498e+00
 7.360480814648452e-01	 1.884911632398625e+00	 7.286529214394280e+00
 7.184336416338161e-01	 1.891695486922907e+00	 7.203715424715327e+00
 7.007920376534325e-01	 1.898301694849150e+00	 7.123601671033043e+00
 8.794930599001300e-01	 1.832194274280319e+00	 8.252154113418579e+00
 8.621139144091986e-01	 1.840435656757095e+00	 8.121644297053457e+00
 8.446865515805162e-01	 1.848498949456167e+00	 7.979360986013099e+00
 8.272136151355911e-01	 1.856383936932139e+00	 7.824013976657458e+00
 8.096977433954000e-01	 1.864090454250636e+00	 7.687610108501132e+00
 7.921415681193020e-01	 1.871618386630397e+00	 7.571082080023723e+00
 7.745477133605432e-01	 1.878967669054727e+00	 7.470760441993161e+00
 7.569187943392373e-01	 1.886138285853060e+00	 7.382976844226379e+00
 7.392574163336874e-01	 1.893130270253413e+00	 7.304049338885649e+00
 7.215661735908618e-01	 1.899943703906525e+00	 7.229694628490707e+00
 7.038476482568163e-01	 1.906578716382512e+00	 7.155666465628071e+00
 8.833111991313498e-01	 1.840148370970008e+00	 8.253467561054503e+00
 8.658566056349893e-01	 1.848425531723414e+00	 8.102392013149036e+00
 8.483535854752317e-01	 1.856523829558777e+00	 7.940331234038510e+00
 8.308047938507421e-01	 1.864443048095384e+00	 7.798303180127031e+00
 8.132128805362095e-01	 1.872183021682827e+00	 7.677153832174401e+00
 7.955804887162202e-01	 1.879743635041538e+00	 7.573298157951987e+00
 7.779102538357916e-01	 1.887124822872560e+00	 7.483169376237798e+00
 7.602048024684636e-01	 1.894326569437291e+00	 7.403205496366961e+00
 7.424667512028035e-01	 1.901348908107998e+00	 7.329837142865447e+00
 7.246987055481553e-01	 1.908191920889881e+00	 7.259108942266234e+00
 7.069032588604145e-01	 1.914855737915554e+00	 7.186864677427979e+00
 8.871293383629040e-01	 1.848102467660094e+00	 8.252613979161062e+00
 8.695992968611470e-01	 1.856415406690063e+00	 8.083338620547224e+00
 8.520206193703309e-01	 1.864548709661641e+00	 7.933651562691457e+00
 8.343959725662811e-01	 1.872502159258800e+00	 7.805060706997784e+00
 8.167280176774003e-01	 1.880275589115099e+00	 7.694210939502280e+00
 7.990194093135032e-01	 1.887868883452669e+00	 7.597787962292783e+00
 7.812727943113812e-01	 1.895281976690290e+00	 7.512502726434956e+00
 7.634908105980003e-01	 1.902514853021329e+00	 7.435077163213871e+00
 7.456760860721953e-01	 1.909567545962300e+00	 7.362231245090801e+00
 7.278312375056852e-01	 1.916440137872873e+00	 7.290457706639359e+00
 7.099588694642096e-01	 1.923132759448157e+00	 7.215914164243739e+00
 8.909474775948772e-01	 1.856056564350709e+00	 8.256151607541641e+00
 8.733419880877556e-01	 1.864405281657153e+00	 8.099138348503475e+00
 8.556876532658938e-01	 1.872573589764845e+00	 7.962244087223152e+00
 8.379871512822794e-01	 1.880561270422445e+00	 7.842473833909966e+00
 8.202431548190318e-01	 1.888368156547483e+00	 7.736902307535503e+00
 8.024583299111965e-01	 1.895994131863790e+00	 7.642655933982526e+00
 7.846353347873413e-01	 1.903439130507890e+00	 7.556896142926908e+00
 7.667768187278625e-01	 1.910703136605119e+00	 7.476804008002524e+00
 7.488854209418633e-01	 1.917786183816243e+00	 7.399566263161933e+00
 7.309637694634429e-01	 1.924688354855402e+00	 7.322250994024758e+00
 7.130144800681852e-01	 1.931409780980207e+00	 7.241539486976245e+00
 6.824583740385706e-01	 1.848639565648836e+00	 6.978849556229397e+00
 6.652572617369515e-01	 1.854899069024128e+00	 6.791056186595850e+00
 6.480346701480332e-01	 1.860986019235963e+00	 6.618945844633243e+00
 6.307930597291923e-01	 1.866900676732648e+00	 6.466877418234859e+00
 6.135348753077542e-01	 1.872643346196608e+00	 6.332671454102963e+00
 5.962625451515272e-01	 1.878214375937486e+00	 6.214347663919690e+00
 5.789784800624057e-01	 1.883614157263803e+00	 6.110080851064920e+00
 5.616850724935349e-01	 1.888843123834063e+00	 6.018160461321497e+00
 5.443846956905031e-01	 1.893901750988257e+00	 5.936953657097479e+00
 5.270797028569850e-01	 1.898790555060661e+00	 5.864871793350234e+00
 5.097724263452204e-01	 1.903510092674904e+00	 5.800340154107085e+00
 6.855139846403153e-01	 1.856916587181651e+00	 6.995610791028438e+00
 6.682358567974321e-01	 1.863204116595952e+00	 6.832036421591283e+00
 6.509361534968212e-01	 1.869318320264493e+00	 6.685239475122787e+00
 6.336173462122061e-01	 1.875259459801692e+00	 6.553207950623992e+00
 6.162818907172751e-01	 1.881027841254142e+00	 6.434184984284698e+00
 5.989322261520581e-01	 1.886623814490985e+00	 6.326620042900218e+00
 5.815707741124698e-01	 1.892047772572763e+00	 6.229123953403143e+00
 5.641999377635212e-01	 1.897300151099619e+00	 6.140427686487222e+00
 5.468221009766679e-01	 1.902381427539802e+00	 6.059344788280081e+00
 5.294396274917170e-01	 1.907292120539397e+00	 5.984737332055156e+00
 5.120548601036816e-01	 1.912032789214229e+00	 5.915485242138029e+00
 6.885695952423757e-01	 1.865193608714851e+00	 7.012548550148812e+00
 6.712144518582039e-01	 1.871509164168183e+00	 6.874887956119367e+00
 6.538376368458487e-01	 1.877650621293430e+00	 6.749094821603759e+00
 6.364416326953839e-01	 1.883618242871130e+00	 6.633531843691474e+00
 6.190289061268688e-01	 1.889412336312042e+00	 6.526823145182853e+00
 6.016019071525610e-01	 1.895033253044815e+00	 6.427804520327572e+00
 5.841630681624008e-01	 1.900481387882017e+00	 6.335477656127013e+00
 5.667148030332719e-01	 1.905757178365433e+00	 6.248968241959822e+00
 5.492595062625030e-01	 1.910861104091575e+00	 6.167487855572780e+00
 5.317995521260396e-01	 1.915793686018341e+00	 6.090299490885131e+00
 5.143372938616730e-01	 1.920555485753755e+00	 6.016686572665964e+00
 6.916252058447343e-01	 1.873470630248318e+00	 7.035127643771896e+00
 6.741930469192484e-01	 1.879814211740690e+00	 6.918543556237964e+00
 6.567391201950976e-01	 1.885982922322636e+00	 6.809675786678706e+00
 6.392659191787133e-01	 1.891977025940817e+00	 6.707222576044404e+00
 6.217759215365304e-01	 1.897796831370164e+00	 6.610147961723167e+00
 6.042715881530389e-01	 1.903442691598834e+00	 6.517631159948113e+00
 5.867553622122104e-01	 1.908915003191423e+00	 6.429020067748374e+00
 5.692296683028069e-01	 1.914214205631365e+00	 6.343788791658691e+00
 5.516969115480349e-01	 1.919340780643440e+00	 6.261499084978166e+00
 5.341594767599832e-01	 1.924295251497357e+00	 6.181765552126331e+00
 5.166197276192274e-01	 1.929078182293349e+00	 6.104224457699718e+00
 6.946808164473743e-01	 1.881747651781935e+00	 7.062033805602701e+00
 6.771716419805458e-01	 1.888119259313344e+00	 6.961937795287575e+00
 6.596406035445508e-01	 1.894315223351976e+00	 6.866144159304830e+00
 6.420902056621818e-01	 1.900335809010613e+00	 6.773648057497187e+00
 6.245229369462538e-01	 1.906181326428363e+00	 6.683712890037759e+00
 6.069412691534942e-01	 1.911852130152897e+00	 6.595818900698059e+00
 5.893476562619110e-01	 1.917348618500842e+00	 6.509616048265418e+00
 5.717445335721467e-01	 1.922671232897279e+00	 6.424881047441963e+00
 5.541343168332908e-01	 1.927820457195260e+00	 6.341478454413810e+00
 5.365194013935801e-01	 1.932796816976313e+00	 6.259325648397719e+00
 5.189021613763785e-01	 1.937600878832876e+00	 6.178361538932162e+00
 6.977364270502795e-01	 1.890024673315585e+00	 7.091959035625083e+00
 6.801502370420770e-01	 1.896424306886015e+00	 7.004007173126711e+00
 6.625420868941903e-01	 1.902647524381308e+00	 6.917659783166346e+00
 6.449144921457762e-01	 1.908694592080372e+00	 6.832170838918837e+00
 6.272699523560339e-01	 1.914565821486497e+00	 6.747063061362483e+00
 6.096109501539307e-01	 1.920261568706861e+00	 6.662075827473300e+00
 5.919399503115138e-01	 1.925782233810131e+00	 6.577117499873454e+00
 5.742593988413109e-01	 1.931128260163035e+00	 6.492222073061438e+00
 5.565717221182981e-01	 1.936300133746901e+00	 6.407510004462198e+00
 5.388793260268625e-01	 1.941298382455074e+00	 6.323153073992070e+00
 5.211845951331590e-01	 1.946123575372203e+00	 6.239343093706858e+00
 7.007920376534325e-01	 1.898301694849150e+00	 7.123601671033052e+00
 6.831288321038235e-01	 1.904729354458575e+00	 7.043690241927701e+00
 6.654435702439991e-01	 1.910979825410497e+00	 6.963380729664480e+00
 6.477387786294851e-01	 1.917053375149957e+00	 6.882148324978461e+00
 6.300169677658654e-01	 1.922950316544420e+00	 6.799735527342104e+00
 6.122806311543508e-01	 1.928671007260584e+00	 6.716099442025249e+00
 5.945322443610307e-01	 1.934215849119148e+00	 6.631363656716161e+00
 5.767742641103203e-01	 1.939585287428494e+00	 6.545774586282456e+00
 5.590091274030835e-01	 1.944779810298224e+00	 6.459662146604459e+00
 5.412392506598613e-01	 1.949799947933506e+00	 6.373404593205456e+00
 5.234670288896022e-01	 1.954646271911197e+00	 6.287397337666851e+00
 7.038476482568163e-01	 1.906578716382512e+00	 7.155666465628071e+00
 6.861074271657656e-01	 1.913034402030891e+00	 7.079927738333154e+00
 6.683450535939601e-01	 1.919312126439404e+00	 7.002463475385968e+00
 6.505630651132948e-01	 1.925412158219221e+00	 6.922932989708973e+00
 6.327639831757422e-01	 1.931334811601990e+00	 6.841259506694119e+00
 6.149503121547579e-01	 1.937080445813921e+00	 6.757576933967846e+00
 5.971245384104735e-01	 1.942649464427751e+00	 6.672181373712943e+00
 5.792891293791944e-01	 1.948042314693518e+00	 6.585487259229811e+00
 5.614465326876741e-01	 1.953259486849095e+00	 6.497987969018613e+00
 5.435991752926084e-01	 1.958301513411475e+00	 6.410220745752524e+00
 5.257494626457417e-01	 1.963168968449725e+00	 6.322735724183288e+00
 7.069032588604145e-01	 1.914855737915554e+00	 7.186864677427976e+00
 6.890860222278834e-01	 1.921339449602834e+00	 7.111662721781174e+00
 6.712465369440550e-01	 1.927644427467893e+00	 7.034063083913691e+00
 6.533873515971935e-01	 1.933770941288025e+00	 6.953872594794737e+00
 6.355109985856596e-01	 1.939719306659061e+00	 6.871156633193744e+00
 6.176199931551547e-01	 1.945489884366728e+00	 6.786185451901997e+00
 5.997168324598541e-01	 1.951083079735801e+00	 6.699385414484944e+00
 5.818039946479535e-01	 1.956499341957966e+00	 6.611295017010216e+00
 5.638839379720969e-01	 1.961739163399377e+00	 6.522525540013609e+00
 5.459590999251359e-01	 1.966803078888846e+00	 6.433726149355548e+00
 5.280318964016106e-01	 1.971691664987653e+00	 6.345553240663217e+00
 7.099588694642096e-01	 1.923132759448157e+00	 7.215914164243739e+00
 6.920646172901587e-01	 1.929644497174276e+00	 7.137840718812797e+00
 6.741480202942667e-01	 1.935976728495822e+00	 7.057333391848342e+00
 6.562116380811681e-01	 1.942129724356224e+00	 6.974310410508100e+00
 6.382580139956119e-01	 1.948103801715490e+00	 6.888941204942029e+00
 6.202896741555440e-01	 1.953899322918863e+00	 6.801592374649297e+00
 6.023091265091846e-01	 1.959516695043154e+00	 6.712778738411893e+00
 5.843188599166177e-01	 1.964956369221701e+00	 6.623119334663651e+00
 5.663213432563791e-01	 1.970218839948934e+00	 6.533298209172310e+00
 5.483190245574751e-01	 1.975304644365486e+00	 6.444029799588773e+00
 5.303143301572421e-01	 1.980214361524848e+00	 6.356028701830176e+00
 7.130144800681852e-01	 1.931409780980207e+00	 7.241539486976249e+00
 6.950432123525723e-01	 1.937949544745086e+00	 7.157409873182569e+00
 6.770495036445784e-01	 1.944309029523059e+00	 7.071427198916359e+00
 6.590359245652068e-01	 1.950488507423679e+00	 6.983585439211387e+00
 6.410050294055939e-01	 1.956488296771135e+00	 6.894120434872827e+00
 6.229593551559293e-01	 1.962308761470184e+00	 6.803455582590798e+00
 6.049014205584760e-01	 1.967950310349670e+00	 6.712152786840820e+00
 5.868337251852073e-01	 1.973413396484584e+00	 6.620868532496088e+00
 5.687587485405474e-01	 1.978698516497631e+00	 6.530314906269314e+00
 5.506789491896580e-01	 1.983806209841261e+00	 6.441225367064491e+00
 5.325967639126695e-01	 1.988737058061177e+00	 6.354325040069006e+00
 5.097724263452204e-01	 1.903510092674904e+00	 5.800340154107085e+00
 4.924651771078767e-01	 1.908060960435679e+00	 5.738970597125232e+00
 4.751602446257804e-01	 1.912443795427681e+00	 5.677846273438959e+00
 4.578598954278802e-01	 1.916659273214932e+00	 5.617541546904979e+00
 4.405663721427611e-01	 1.920708106657808e+00	 5.558545021072810e+00
 4.232818928181369e-01	 1.924591045131397e+00	 5.501240499143050e+00
 4.060086502667843e-01	 1.928308873731856e+00	 5.445890131545473e+00
 3.887488114390382e-01	 1.931862412471655e+00	 5.392619536488976e+00
 3.715045168219482e-01	 1.935252515464695e+00	 5.341404676064098e+00
 3.542778798651443e-01	 1.938480070102190e+00	 5.292231500070423e+00
 3.370709864334423e-01	 1.941545996220245e+00	 5.245699168375834e+00
 5.120548601036816e-01	 1.912032789214229e+00	 5.915485242138029e+00
 4.946701201121874e-01	 1.916604032840201e+00	 5.847730067204902e+00
 4.772877072488776e-01	 1.921006491354468e+00	 5.778992431324823e+00
 4.599098981907536e-01	 1.925240843345804e+00	 5.710166499353754e+00
 4.425389456074418e-01	 1.929307804866323e+00	 5.642061814762096e+00
 4.251770774776416e-01	 1.933208128646343e+00	 5.575384506210953e+00
 4.078264964321275e-01	 1.936942603297183e+00	 5.510720743424044e+00
 3.904893791234387e-01	 1.940512052502813e+00	 5.448522218737619e+00
 3.731678756223426e-01	 1.943917334201314e+00	 5.389093427928298e+00
 3.558641088411316e-01	 1.947159339757076e+00	 5.332663833582670e+00
 3.385801739837758e-01	 1.950238993124647e+00	 5.279874327062054e+00
 5.143372938616730e-01	 1.920555485753755e+00	 6.016686572665964e+00
 4.968750631159927e-01	 1.925147105244934e+00	 5.943243736117294e+00
 4.794151698714576e-01	 1.929569187281490e+00	 5.867851028283058e+00
 4.619599009531188e-01	 1.933822413476946e+00	 5.791667866790498e+00
 4.445115190716425e-01	 1.937907503075149e+00	 5.715769873303882e+00
 4.270722621367097e-01	 1.941825212161644e+00	 5.641130429719764e+00
 4.096443425970919e-01	 1.945576332862909e+00	 5.568604545613134e+00
 3.922299468075293e-01	 1.949161692534409e+00	 5.498914803987750e+00
 3.748312344225054e-01	 1.952582152938404e+00	 5.432639149619265e+00
 3.574503378169717e-01	 1.955838609412455e+00	 5.370228401101410e+00
 3.400893615340512e-01	 1.958931990029550e+00	 5.312337006155351e+00
 5.166197276192274e-01	 1.929078182293349e+00	 6.104224457699718e+00
 4.990800061193236e-01	 1.933690177649742e+00	 6.025851488747669e+00
 4.815426324935459e-01	 1.938131883208610e+00	 5.944812620538723e+00
 4.640099037149931e-01	 1.942403983608215e+00	 5.862478417468092e+00
 4.464840925353693e-01	 1.946507201284139e+00	 5.780136147838665e+00
 4.289674467953358e-01	 1.950442295677148e+00	 5.698971793283032e+00
 4.114621887616591e-01	 1.954210062428879e+00	 5.620054431695108e+00
 3.939705144912787e-01	 1.957811332566286e+00	 5.544322751066442e+00
 3.764945932223915e-01	 1.961246971675802e+00	 5.472573448847889e+00
 3.590365667926076e-01	 1.964517879068161e+00	 5.405448299695792e+00
 3.415985490842010e-01	 1.967624986934785e+00	 5.343594573857100e+00
 5.189021613763785e-01	 1.937600878832876e+00	 6.178361538932162e+00
 5.012849491222109e-01	 1.942233250054491e+00	 6.095875313919043e+00
 4.836700951151674e-01	 1.946694579135689e+00	 6.010249851121930e+00
 4.660599064763934e-01	 1.950985553739471e+00	 5.923013183509125e+00
 4.484566659986289e-01	 1.955106899493149e+00	 5.835610209988261e+00
 4.308626314535149e-01	 1.959059379192707e+00	 5.749385262274486e+00
 4.132800349258109e-01	 1.962843791994937e+00	 5.665567107891530e+00
 3.957110821746551e-01	 1.966460972598282e+00	 5.585256136675234e+00
 3.781579520219569e-01	 1.969911790413346e+00	 5.509413475396382e+00
 3.606227957679829e-01	 1.973197148724028e+00	 5.438834598073487e+00
 3.431077366341572e-01	 1.976317983840187e+00	 5.374143882409131e+00
 5.211845951331590e-01	 1.946123575372203e+00	 6.239343093706858e+00
 5.034898921246862e-01	 1.950776322459048e+00	 6.153619600850196e+00
 4.857975577363481e-01	 1.955257275062592e+00	 6.064517734497358e+00
 4.681099092373366e-01	 1.959567123870573e+00	 5.973669731629694e+00
 4.504292394614280e-01	 1.963706597702032e+00	 5.882624506824843e+00
 4.327578161112414e-01	 1.967676462708169e+00	 5.792830881434284e+00
 4.150978810895289e-01	 1.971477521560928e+00	 5.705623311920217e+00
 3.974516498576267e-01	 1.975110612630235e+00	 5.622209854342195e+00
 3.798213108211564e-01	 1.978576609150870e+00	 5.543662099239539e+00
 3.622090247430407e-01	 1.981876418379890e+00	 5.470886396150552e+00
 3.446169241838526e-01	 1.985010980745589e+00	 5.404471318817769e+00
 5.234670288896022e-01	 1.954646271911197e+00	 6.287397337666851e+00
 5.056948351267798e-01	 1.959319394863277e+00	 6.199371432115678e+00
 4.879250203571132e-01	 1.963819970989180e+00	 6.107953937603147e+00
 4.701599119978404e-01	 1.968148694001381e+00	 6.014828430254987e+00
 4.524018129237732e-01	 1.972306295910643e+00	 5.921594612292544e+00
 4.346530007685095e-01	 1.976293546223384e+00	 5.829752309046642e+00
 4.169157272527949e-01	 1.980111251126696e+00	 5.740688028609747e+00
 3.991922175401620e-01	 1.983760252661990e+00	 5.655663810369504e+00
 3.814846696199455e-01	 1.987241427888211e+00	 5.575808085937894e+00
 3.637952537177240e-01	 1.990555688035582e+00	 5.502090882220727e+00
 3.461261117332197e-01	 1.993703977650823e+00	 5.435052853528271e+00
 5.257494626457417e-01	 1.963168968449725e+00	 6.322735724183288e+00
 5.078997781285232e-01	 1.967862467267044e+00	 6.233400873213388e+00
 4.900524829774880e-01	 1.972382666915316e+00	 6.140879057406423e+00
 4.722099147579212e-01	 1.976730264131752e+00	 6.046852713138613e+00
 4.543743863856709e-01	 1.980905994118837e+00	 5.952919475187422e+00
 4.365481854253142e-01	 1.984910629738201e+00	 5.860577047798962e+00
 4.187335734155900e-01	 1.988744980692086e+00	 5.771210702369777e+00
 4.009327852222294e-01	 1.992409892693384e+00	 5.686083116865662e+00
 3.831480284182797e-01	 1.995906246625206e+00	 5.606326269393831e+00
 3.653814826919763e-01	 1.999234957690937e+00	 5.532923387790060e+00
 3.476352992821909e-01	 2.002396974555725e+00	 5.466354087116168e+00
 5.280318964016106e-01	 1.971691664987653e+00	 6.345553240663217e+00
 5.101047211299472e-01	 1.976405539670215e+00	 6.255961258841531e+00
 4.921799455974982e-01	 1.980945362840864e+00	 6.163596895082735e+00
 4.742599175175964e-01	 1.985311834261547e+00	 6.070089339591956e+00
 4.563469598471280e-01	 1.989505692326468e+00	 5.976981663801376e+00
 4.384433700816499e-01	 1.993527713252470e+00	 5.885716672419968e+00
 4.205514195778962e-01	 1.997378710256942e+00	 5.797625446614340e+00
 4.026733529037974e-01	 2.001059532724258e+00	 5.713918281950706e+00
 3.848113872161142e-01	 2.004571065361692e+00	 5.635677722042407e+00
 3.669677116657404e-01	 2.007914227345791e+00	 5.563847440155756e+00
 3.491444868306985e-01	 2.011089971460127e+00	 5.498830295051125e+00
 5.303143301572421e-01	 1.980214361524848e+00	 6.356028701830176e+00
 5.123096641310828e-01	 1.984948612072654e+00	 6.267289475987070e+00
 4.943074082171690e-01	 1.989508058765687e+00	 6.176394726917639e+00
 4.763099202768831e-01	 1.993893404390623e+00	 6.084868651421821e+00
 4.583195333081506e-01	 1.998105390533390e+00	 5.994147607329468e+00
 4.403385547375112e-01	 2.002144796766040e+00	 5.905567054194317e+00
 4.223692657396950e-01	 2.006012439821109e+00	 5.820351250227158e+00
 4.044139205848339e-01	 2.009709172754451e+00	 5.739605397220636e+00
 3.864747460134044e-01	 2.013235884097506e+00	 5.664309922560200e+00
 3.685539406389596e-01	 2.016593496999975e+00	 5.595314812791724e+00
 3.506536743786751e-01	 2.019782968363861e+00	 5.532926470592120e+00
 5.325967639126695e-01	 1.988737058061177e+00	 6.354325040069006e+00
 5.145146071319613e-01	 1.993491684474228e+00	 6.267606243917817e+00
 4.964348708365260e-01	 1.998070754689647e+00	 6.179543572033062e+00
 4.783599230357983e-01	 2.002474974518841e+00	 6.091504826681595e+00
 4.602921067687459e-01	 2.006705088739458e+00	 6.004767834139329e+00
 4.422337393928928e-01	 2.010761880278762e+00	 5.920508582448227e+00
 4.241871119009684e-01	 2.014646169384433e+00	 5.839792181161494e+00
 4.061544882653080e-01	 2.018358812783806e+00	 5.763566322552169e+00
 3.881381048101060e-01	 2.021900702832483e+00	 5.692656921162252e+00
 3.701401696115776e-01	 2.025272766653326e+00	 5.627765573607494e+00
 3.521628619260533e-01	 2.028475965266763e+00	 5.569077365872950e+00
 3.370709864334423e-01	 1.941545996220245e+00	 5.245699168375834e+00
 3.198829753695842e-01	 1.944451725334479e+00	 5.199519778278185e+00
 3.027188076966160e-01	 1.947197703991955e+00	 5.152324913933816e+00
 2.855804889357101e-01	 1.949784943399491e+00	 5.105616649046404e+00
 2.684699949860878e-01	 1.952214483855871e+00	 5.060469250061480e+00
 2.513892717099102e-01	 1.954487393889909e+00	 5.017576599642338e+00
 2.343402345435050e-01	 1.956604769395496e+00	 4.977295767849689e+00
 2.173247681347407e-01	 1.958567732764435e+00	 4.939686914449296e+00
 2.003447260063288e-01	 1.960377432017918e+00	 4.904549711663264e+00
 1.834019302448152e-01	 1.962035039937395e+00	 4.871456481016560e+00
 1.664981712149926e-01	 1.963541753195654e+00	 4.839782240748719e+00
 3.385801739837758e-01	 1.950238993124647e+00	 5.279874327062058e+00
 3.213152060373046e-01	 1.953157732229060e+00	 5.228585874397190e+00
 3.040741882370560e-01	 1.955916005616716e+00	 5.177405033062784e+00
 2.868591350836596e-01	 1.958514829021956e+00	 5.127667423958653e+00
 2.696720313231646e-01	 1.960955247401336e+00	 5.080292599082159e+00
 2.525148315300738e-01	 1.963238334067846e+00	 5.035831452441250e+00
 2.353894597168291e-01	 1.965365189822070e+00	 4.994509684737817e+00
 2.182978089695616e-01	 1.967336942081151e+00	 4.956267513154978e+00
 2.012417411098868e-01	 1.969154744006365e+00	 4.920795823484793e+00
 1.842230863825036e-01	 1.970819773630115e+00	 4.887568966071489e+00
 1.672436431683273e-01	 1.972333232983107e+00	 4.855874399790355e+00
 3.400893615340512e-01	 1.958931990029550e+00	 5.312337006155355e+00
 3.227474367050578e-01	 1.961863739124130e+00	 5.256913959763833e+00
 3.054295687776205e-01	 1.964634307241942e+00	 5.202529524208234e+00
 2.881377812318240e-01	 1.967244714644846e+00	 5.150373677102393e+00
 2.708740676605449e-01	 1.969696010947181e+00	 5.101232797592552e+00
 2.536403913506262e-01	 1.971989274246110e+00	 5.055537005594799e+00
 2.364386848906221e-01	 1.974125610248917e+00	 5.013403459904714e+00
 2.192708498049250e-01	 1.976106151398081e+00	 4.974675814698619e+00
 2.021387562140536e-01	 1.977932055994974e+00	 4.938960039796128e+00
 1.850442425208578e-01	 1.979604507322948e+00	 4.905656814244751e+00
 1.679891151223749e-01	 1.981124712770631e+00	 4.873990705396672e+00
 3.415985490842010e-01	 1.967624986934785e+00	 5.343594573857108e+00
 3.241796673727674e-01	 1.970569746019525e+00	 5.284993135706883e+00
 3.067849493182258e-01	 1.973352608867469e+00	 5.228170826638658e+00
 2.894164273801143e-01	 1.975974600268006e+00	 5.174192554570331e+00
 2.720761039981348e-01	 1.978436774493256e+00	 5.123732844177421e+00
 2.547659511714682e-01	 1.980740214424560e+00	 5.077123044711462e+00
 2.374879100647804e-01	 1.982886030675900e+00	 5.034394400828437e+00
 2.202438906407231e-01	 1.984875360715103e+00	 4.995317194375448e+00
 2.030357713187161e-01	 1.986709367983631e+00	 4.959436170890257e+00
 1.858653986597592e-01	 1.988389241015790e+00	 4.926102468684636e+00
 1.687345870770097e-01	 1.989916192558135e+00	 4.894502270877181e+00
 3.431077366341572e-01	 1.976317983840187e+00	 5.374143882409127e+00
 3.256118980403570e-01	 1.979275752915078e+00	 5.313303406155106e+00
 3.081403298587881e-01	 1.982070910493136e+00	 5.254793537202891e+00
 2.906950735284403e-01	 1.984704485891279e+00	 5.199574459369193e+00
 2.732781403358386e-01	 1.987177538039408e+00	 5.148229946092512e+00
 2.558915109925006e-01	 1.989491154603049e+00	 5.101014376455292e+00
 2.385371352392004e-01	 1.991646451102887e+00	 5.057895517373317e+00
 2.212169314768480e-01	 1.993644570032091e+00	 5.018593288565889e+00
 2.039327864237614e-01	 1.995486679972220e+00	 4.982614732706605e+00
 1.866865547990892e-01	 1.997173974708539e+00	 4.949285417177808e+00
 1.694800590321062e-01	 1.998707672345530e+00	 4.917777496217507e+00
 3.446169241838526e-01	 1.985010980745589e+00	 5.404471318817772e+00
 3.270441287077501e-01	 1.987981759810624e+00	 5.342315719575850e+00
 3.094957103992240e-01	 1.990789212118780e+00	 5.282854445143902e+00
 2.919737196767128e-01	 1.993434371514504e+00	 5.226963080662356e+00
 2.744801766735623e-01	 1.995918301585487e+00	 5.175155544395795e+00
 2.570170708136242e-01	 1.998242094781434e+00	 5.127630850935111e+00
 2.395863604137787e-01	 2.000406871529739e+00	 5.084315542708764e+00
 2.221899723131911e-01	 2.002413779348917e+00	 5.044902015353001e+00
 2.048298015290768e-01	 2.004263991960626e+00	 5.008882968231478e+00
 1.875077109387290e-01	 2.005958708401091e+00	 4.975582215319474e+00
 1.702255309875389e-01	 2.007499152132723e+00	 4.944182093912616e+00
 3.461261117332197e-01	 1.993703977650823e+00	 5.435052853528267e+00
 3.284763593748703e-01	 1.996687766705998e+00	 5.372492009207313e+00
 3.108510909394495e-01	 1.999507513744238e+00	 5.312802565485776e+00
 2.932523658248417e-01	 2.002164257137524e+00	 5.256795421820682e+00
 2.756822130112110e-01	 2.004659065131339e+00	 5.204935338078912e+00
 2.581426306347395e-01	 2.006993034959572e+00	 5.157387383231100e+00
 2.406355855884116e-01	 2.009167291956322e+00	 5.114058953457938e+00
 2.231630131496452e-01	 2.011182988665458e+00	 5.074637594433848e+00
 2.057268166345491e-01	 2.013041303948738e+00	 5.038624868212854e+00
 1.883288670785601e-01	 2.014743442093345e+00	 5.005366508984800e+00
 1.709710029431823e-01	 2.016290631919625e+00	 4.974079114058522e+00
 3.476352992821909e-01	 2.002396974555725e+00	 5.466354087116168e+00
 3.299085900416411e-01	 2.005393773601034e+00	 5.404285231634346e+00
 3.122064714793811e-01	 2.008225815369348e+00	 5.345079171045868e+00
 2.945310119727377e-01	 2.010894142760184e+00	 5.289501827323984e+00
 2.768842493486897e-01	 2.013399828676814e+00	 5.237989307223999e+00
 2.592681904557474e-01	 2.015743975137317e+00	 5.190693974084354e+00
 2.416848107629957e-01	 2.017927712382503e+00	 5.147525989106599e+00
 2.241360539861018e-01	 2.019952197981589e+00	 5.108190566341006e+00
 2.066238317400656e-01	 2.021818615936437e+00	 5.072221191207328e+00
 1.891500232184639e-01	 2.023528175785197e+00	 5.039009056120042e+00
 1.717164748989107e-01	 2.025082111706145e+00	 5.007828968723718e+00
 3.491444868306985e-01	 2.011089971460127e+00	 5.498830295051117e+00
 3.313408207079864e-01	 2.014099780495567e+00	 5.438139403760250e+00
 3.135618520189350e-01	 2.016944116993947e+00	 5.380117823108311e+00
 2.958096581203110e-01	 2.019624028382323e+00	 5.325506008548565e+00
 2.780862856859040e-01	 2.022140592221762e+00	 5.274731735219674e+00
 2.603937502765490e-01	 2.024494915314528e+00	 5.227955729774994e+00
 2.427340359374274e-01	 2.026688132808145e+00	 5.185112670689788e+00
 2.251090948224531e-01	 2.028721407297184e+00	 5.145947810998827e+00
 2.075208468455135e-01	 2.030595927923613e+00	 5.110049482977544e+00
 1.899711793583216e-01	 2.032312909476545e+00	 5.076877747877425e+00
 1.724619468545988e-01	 2.033873591492191e+00	 5.045789455623744e+00
 3.506536743786751e-01	 2.019782968363861e+00	 5.532926470592116e+00
 3.327730513738294e-01	 2.022805787389431e+00	 5.474489638223039e+00
 3.149172325580277e-01	 2.025662418617873e+00	 5.418344400804461e+00
 2.970883042674720e-01	 2.028353914003787e+00	 5.365225068467815e+00
 2.792883220227592e-01	 2.030881355766028e+00	 5.315571230062204e+00
 2.615193100970445e-01	 2.033245855491057e+00	 5.269572881215207e+00
 2.437832611116033e-01	 2.035448553233113e+00	 5.227210818779546e+00
 2.260821356585912e-01	 2.037490616612119e+00	 5.188292565632966e+00
 2.084178619507796e-01	 2.039373239910148e+00	 5.152484095267560e+00
 1.907923354980147e-01	 2.041097643167284e+00	 5.119337629109399e+00
 1.732074188101208e-01	 2.042665071277676e+00	 5.088315781117438e+00
 3.521628619260533e-01	 2.028475965266763e+00	 5.569077365872953e+00
 3.342052820390940e-01	 2.031511794282461e+00	 5.513762177298593e+00
 3.162726130965756e-01	 2.034380720240966e+00	 5.460177129232925e+00
 2.983669504141310e-01	 2.037083799624414e+00	 5.409069525305862e+00
 2.804903583591603e-01	 2.039622119309464e+00	 5.360910744770942e+00
 2.626448699171351e-01	 2.041996795666766e+00	 5.315940802272843e+00
 2.448324862854198e-01	 2.044208973657273e+00	 5.274208070795524e+00
 2.270551764944082e-01	 2.046259825926268e+00	 5.235604442051903e+00
 2.093148770557514e-01	 2.048150551895931e+00	 5.199896203963404e+00
 1.916134916374246e-01	 2.049882376857315e+00	 5.166750918245360e+00
 1.739528907653514e-01	 2.051456551062507e+00	 5.135760582548961e+00
 1.664981712149926e-01	 1.963541753195654e+00	 4.839782240748712e+00
 1.496380635122771e-01	 1.964898573407881e+00	 4.809654355928311e+00
 1.328204230301581e-01	 1.966107010389023e+00	 4.781993970541123e+00
 1.160469042979976e-01	 1.967168326246733e+00	 4.757145749491365e+00
 9.931913029805782e-02	 1.968083803490110e+00	 4.735327888351980e+00
 8.263869229708956e-02	 1.968854744185433e+00	 4.716648229949123e+00
 6.600714970048427e-02	 1.969482469115895e+00	 4.701118522289832e+00
 4.942602992861282e-02	 1.969968316945963e+00	 4.688667000473400e+00
 3.289682831496212e-02	 1.970313643390948e+00	 4.679149469027105e+00
 1.642100802566443e-02	 1.970519820392425e+00	 4.672359054260135e+00
 0.000000000000000e+00	 1.970588235300000e+00	 4.668034790249635e+00
 1.672436431683273e-01	 1.972333232983107e+00	 4.855874399790362e+00
 1.503080467239818e-01	 1.973696128165110e+00	 4.825783020480522e+00
 1.334151076412680e-01	 1.974909975751075e+00	 4.798230926776242e+00
 1.165664878574426e-01	 1.975976043499590e+00	 4.773596851277472e+00
 9.976381762141452e-02	 1.976895619662033e+00	 4.752141753688734e+00
 8.300869532458036e-02	 1.977670012134527e+00	 4.734024193806770e+00
 6.630268735432285e-02	 1.978300547613911e+00	 4.719313829193103e+00
 4.964732796979596e-02	 1.978788570758354e+00	 4.708003226373908e+00
 3.304411919960574e-02	 1.979135443353222e+00	 4.700018167915474e+00
 1.649453076097905e-02	 1.979342543482784e+00	 4.695226630513023e+00
 0.000000000000000e+00	 1.979411264708333e+00	 4.693446603004067e+00
 1.679891151223749e-01	 1.981124712770631e+00	 4.873990705396668e+00
 1.509780299364344e-01	 1.982493682922379e+00	 4.844006308190435e+00
 1.340097922531461e-01	 1.983712941113145e+00	 4.816656062063448e+00
 1.170860714176576e-01	 1.984783760752450e+00	 4.792334743462513e+00
 1.002085049455216e-01	 1.985707435833949e+00	 4.771328403222821e+00
 8.337869835277716e-02	 1.986485280083611e+00	 4.753828985241541e+00
 6.659822500879485e-02	 1.987118626111916e+00	 4.739947052807060e+00
 4.986862601150879e-02	 1.987608824570739e+00	 4.729722817780622e+00
 3.319141008464092e-02	 1.987957243315492e+00	 4.723135660987139e+00
 1.656805349650968e-02	 1.988165266573141e+00	 4.720112324633424e+00
 0.000000000000000e+00	 1.988234294116667e+00	 4.720533951053286e+00
 1.687345870770097e-01	 1.989916192558135e+00	 4.894502270877189e+00
 1.516480131495013e-01	 1.991291237679609e+00	 4.864680794239016e+00
 1.346044768656508e-01	 1.992515906475166e+00	 4.837605360275416e+00
 1.176056549784953e-01	 1.993591478005259e+00	 4.813669220721268e+00
 1.006531922702295e-01	 1.994519252005821e+00	 4.793166302788966e+00
 8.374870138153295e-02	 1.995300548032656e+00	 4.776305061801881e+00
 6.689376266376290e-02	 1.995936704609892e+00	 4.763220424117858e+00
 5.008992405363184e-02	 1.996429078383105e+00	 4.753984022023797e+00
 3.333870096997602e-02	 1.996779043277751e+00	 4.748612915096936e+00
 1.664157623220401e-02	 1.996987989663497e+00	 4.747076984650231e+00
 0.000000000000000e+00	 1.997057323525000e+00	 4.749305181044260e+00
 1.694800590321062e-01	 1.998707672345530e+00	 4.917777496217511e+00
 1.523179963630489e-01	 2.000088792436724e+00	 4.888160548654776e+00
 1.351991614786409e-01	 2.001318871837074e+00	 4.861412530620417e+00
 1.181252385398084e-01	 2.002399195257965e+00	 4.837908054095610e+00
 1.010978795953882e-01	 2.003331068177603e+00	 4.817932164432071e+00
 8.411870441070078e-02	 2.004115815981633e+00	 4.801693414207943e+00
 6.718930031908958e-02	 2.004754783107819e+00	 4.789335009694824e+00
 5.031122209604558e-02	 2.005249332195440e+00	 4.780944238234839e+00
 3.348599185551944e-02	 2.005600843239997e+00	 4.776560377296240e+00
 1.671509896800975e-02	 2.005810712753848e+00	 4.776181277732219e+00
 0.000000000000000e+00	 2.005880352933334e+00	 4.779768806633318e+00
 1.702255309875389e-01	 2.007499152132723e+00	 4.944182093912616e+00
 1.529879795769437e-01	 2.008886347193643e+00	 4.914797164418301e+00
 1.357938460919748e-01	 2.010121837198804e+00	 4.888409036493713e+00
 1.186448221014495e-01	 2.011206912510516e+00	 4.865357019207066e+00
 1.015425669208482e-01	 2.012142884349258e+00	 4.845900972733358e+00
 8.448870744013372e-02	 2.012931083930511e+00	 4.830233589677057e+00
 6.748483797463746e-02	 2.013572861605677e+00	 4.818490731039852e+00
 5.053252013863051e-02	 2.014069586007733e+00	 4.810760031878276e+00
 3.363328274117951e-02	 2.014422643202223e+00	 4.807087983833060e+00
 1.678862170387454e-02	 2.014633435844194e+00	 4.807485693084296e+00
 0.000000000000000e+00	 2.014703382341667e+00	 4.811933504830085e+00
 1.709710029431823e-01	 2.016290631919625e+00	 4.974079114058526e+00
 1.536579627910520e-01	 2.017683901950290e+00	 4.944939784784895e+00
 1.363885307055112e-01	 2.018924802560289e+00	 4.918924123546848e+00
 1.191644056632713e-01	 2.020014629762859e+00	 4.896319923716209e+00
 1.019872542464597e-01	 2.020954700520745e+00	 4.877346010437504e+00
 8.485871046968470e-02	 2.021746351879260e+00	 4.862163714636091e+00
 6.778037563026917e-02	 2.022390940103445e+00	 4.850886383430668e+00
 5.075381818126721e-02	 2.022889839819972e+00	 4.843587148901277e+00
 3.378057362686460e-02	 2.023244443164422e+00	 4.840305168920406e+00
 1.686214443974610e-02	 2.023456158934532e+00	 4.841050544766501e+00
 0.000000000000000e+00	 2.023526411750000e+00	 4.845808112434865e+00
 1.717164748989107e-01	 2.025082111706145e+00	 5.007828968723718e+00
 1.543279460052404e-01	 2.026481456706588e+00	 4.978935129854170e+00
 1.369832153191087e-01	 2.027727767921467e+00	 4.953284846995442e+00
 1.196839892251265e-01	 2.028822347014941e+00	 4.931098634049397e+00
 1.024319415720729e-01	 2.029766516692021e+00	 4.912538883410370e+00
 8.522871349920687e-02	 2.030561619827852e+00	 4.897720516841817e+00
 6.807591328584725e-02	 2.031209018601106e+00	 4.886719654274175e+00
 5.097511622383614e-02	 2.031710093632146e+00	 4.879580529518311e+00
 3.392786451248306e-02	 2.032066243126590e+00	 4.876320873273935e+00
 1.693566717557211e-02	 2.032278882024863e+00	 4.876935974441030e+00
 0.000000000000000e+00	 2.032349441158334e+00	 4.881401622571438e+00
 1.724619468545988e-01	 2.033873591492191e+00	 5.045789455623744e+00
 1.549979292193752e-01	 2.035279011462456e+00	 5.017127522403914e+00
 1.375778999326259e-01	 2.036530733282270e+00	 4.991816098194866e+00
 1.202035727868676e-01	 2.037630064266709e+00	 4.969993101418041e+00
 1.028766288975381e-01	 2.038578332863048e+00	 4.951749544934476e+00
 8.559871652855321e-02	 2.039376887776258e+00	 4.937139346922920e+00
 6.837145094123431e-02	 2.040027097098637e+00	 4.926187140982469e+00
 5.119641426621782e-02	 2.040530347444243e+00	 4.918894321636830e+00
 3.407515539794327e-02	 2.040888043088722e+00	 4.915243552432627e+00
 1.700918991130026e-02	 2.041101605115184e+00	 4.915201954048664e+00
 0.000000000000000e+00	 2.041172470566667e+00	 4.918723181307715e+00
 1.732074188101208e-01	 2.042665071277676e+00	 5.088315781117438e+00
 1.556679124333229e-01	 2.044076566217819e+00	 5.059858913013917e+00
 1.381725845459214e-01	 2.045333698642635e+00	 5.034840630496204e+00
 1.207231563483474e-01	 2.046437781518113e+00	 5.013301387148744e+00
 1.033213162227055e-01	 2.047390149033785e+00	 4.995246319375016e+00
 8.596871955757676e-02	 2.048192155724446e+00	 4.980654199364413e+00
 6.866698859629294e-02	 2.048845175596020e+00	 4.969484368388070e+00
 5.141771230829277e-02	 2.049350601256251e+00	 4.961681893939503e+00
 3.422244628315362e-02	 2.049709843050813e+00	 4.957181184860905e+00
 1.708271264687824e-02	 2.049924328205494e+00	 4.955908288415692e+00
 0.000000000000000e+00	 2.049995499975000e+00	 4.957782084364432e+00
 1.739528907653514e-01	 2.051456551062507e+00	 5.135760582548961e+00
 1.563378956469499e-01	 2.052874120972599e+00	 5.107468904499616e+00
 1.387672691588538e-01	 2.054136664002496e+00	 5.082679084416046e+00
 1.212427399094186e-01	 2.055245498769098e+00	 5.061319687348057e+00
 1.037660035474255e-01	 2.056201965204191e+00	 5.043295925227477e+00
 8.633872258613057e-02	 2.057007423672388e+00	 5.028497732948999e+00
 6.896252625088575e-02	 2.057663254093237e+00	 5.016805805710950e+00
 5.163901034994151e-02	 2.058170855068159e+00	 5.008095848629467e+00
 3.436973716802243e-02	 2.058531643012857e+00	 5.002241279847709e+00
 1.715623538225374e-02	 2.058747051295792e+00	 4.999114617793695e+00
 0.000000000000000e+00	 2.058818529383334e+00	 4.998587773909128e+00
 2.058818529383334e+00	 0.000000000000000e+00	 1.226781409725275e+01
 2.058747051295792e+00	 1.715623538225260e-02	 1.227536298889228e+01
 2.058531643012857e+00	 3.436973716802146e-02	 1.228107655531035e+01
 2.058170855068159e+00	 5.163901034994070e-02	 1.228545101730354e+01
 2.057663254093237e+00	 6.896252625088510e-02	 1.228894204717437e+01
 2.057007423672389e+00	 8.633872258613008e-02	 1.229196235982738e+01
 2.056201965204191e+00	 1.037660035474252e-01	 1.229487971476482e+01
 2.055245498769098e+00	 1.212427399094184e-01	 1.229801538002587e+01
 2.054136664002496e+00	 1.387672691588538e-01	 1.230164311286330e+01
 2.052874120972598e+00	 1.563378956469501e-01	 1.230598871667571e+01
 2.051456551062507e+00	 1.739528907653515e-01	 1.231123023858532e+01
 2.067643058796667e+00	 0.000000000000000e+00	 1.224216933804256e+01
 2.067571274338999e+00	 1.722977061700544e-02	 1.224930550550358e+01
 2.067354942770832e+00	 3.451705309343959e-02	 1.225464238757067e+01
 2.066992608413081e+00	 5.186034601400614e-02	 1.225868799178105e+01
 2.066482831753568e+00	 6.925811414933346e-02	 1.226190657476185e+01
 2.065824190305540e+00	 8.670878851840116e-02	 1.226471607394169e+01
 2.065015279472878e+00	 1.042107664729740e-01	 1.226748593693556e+01
 2.064054713421412e+00	 1.217624118044820e-01	 1.227053539965408e+01
 2.062941125955724e+00	 1.393620548737723e-01	 1.227413226809813e+01
 2.061673171400800e+00	 1.570079927641407e-01	 1.227849226368477e+01
 2.060249525487874e+00	 1.746984894580363e-01	 1.228377899699161e+01
 2.076467588210001e+00	 0.000000000000000e+00	 1.221704323599407e+01
 2.076395497382196e+00	 1.730330585155438e-02	 1.222385220779929e+01
 2.076178242528763e+00	 3.466436901851108e-02	 1.222888894080385e+01
 2.075814361757913e+00	 5.208168167763481e-02	 1.223267451669962e+01
 2.075302409413750e+00	 6.955370204729899e-02	 1.223568314015928e+01
 2.074640956938473e+00	 8.707885445017870e-02	 1.223833940880760e+01
 2.073828593741268e+00	 1.046555293980448e-01	 1.224101596675508e+01
 2.072863928073350e+00	 1.222820836991005e-01	 1.224403159272100e+01
 2.071745587908495e+00	 1.399568405882870e-01	 1.224764977784304e+01
 2.070472221828470e+00	 1.576780898809677e-01	 1.225207785332462e+01
 2.069042499912646e+00	 1.754440881503876e-01	 1.225746673328432e+01
 2.085292117623334e+00	 0.000000000000000e+00	 1.219240353106525e+01
 2.085219720425382e+00	 1.737684108595038e-02	 1.219896756185286e+01
 2.085001542286666e+00	 3.481168494332260e-02	 1.220377637807442e+01
 2.084636115102676e+00	 5.230301734093597e-02	 1.220736539197901e+01
 2.084121987073818e+00	 6.984928994490247e-02	 1.221022009465342e+01
 2.083457723571238e+00	 8.744892038158603e-02	 1.221277316200849e+01
 2.082641908009435e+00	 1.051002923227571e-01	 1.221540192931486e+01
 2.081673142725004e+00	 1.228017555933854e-01	 1.221842628525112e+01
 2.080550049860926e+00	 1.405516263024989e-01	 1.222210704067353e+01
 2.079271272255744e+00	 1.583481869975220e-01	 1.222664483253310e+01
 2.077835474336971e+00	 1.761896868424884e-01	 1.223217962876471e+01
 2.094116647036667e+00	 0.000000000000000e+00	 1.216821809449287e+01
 2.094043943468564e+00	 1.745037632024442e-02	 1.217461697634790e+01
 2.093824842044546e+00	 3.495900086796078e-02	 1.217926656904684e+01
 2.093457868447397e+00	 5.252435300401877e-02	 1.218271784096257e+01
 2.092941564733811e+00	 7.014487784226459e-02	 1.218546888291175e+01
 2.092274490203895e+00	 8.781898631274664e-02	 1.218796184803039e+01
 2.091455222277453e+00	 1.055450552472305e-01	 1.219058024425590e+01
 2.090482357376469e+00	 1.233214274874477e-01	 1.219364663028546e+01
 2.089354511813128e+00	 1.411464120165089e-01	 1.219742077029643e+01
 2.088070322682753e+00	 1.590182841138945e-01	 1.220209830810592e+01
 2.086628448760997e+00	 1.769352855344224e-01	 1.220781002703021e+01
 2.102941176450000e+00	 0.000000000000000e+00	 1.214445492603794e+01
 2.102868166511744e+00	 1.752391155448750e-02	 1.215076679195895e+01
 2.102648141802415e+00	 3.510631679251230e-02	 1.215532307083349e+01
 2.102279621792095e+00	 5.274568866699238e-02	 1.215869148205229e+01
 2.101761142393767e+00	 7.044046573950599e-02	 1.216138400471884e+01
 2.101091256836495e+00	 8.818905224378382e-02	 1.216385364940406e+01
 2.100268536545397e+00	 1.059898181715844e-01	 1.216649156561719e+01
 2.099291572027842e+00	 1.238410993813988e-01	 1.216962453573056e+01
 2.098158973765217e+00	 1.417411977304180e-01	 1.217351291069075e+01
 2.096869373109628e+00	 1.596883812301762e-01	 1.217834904841701e+01
 2.095421423184876e+00	 1.776808842262730e-01	 1.218425632155954e+01
 2.111765705863333e+00	 0.000000000000000e+00	 1.212108215130043e+01
 2.111692389554924e+00	 1.759744678873057e-02	 1.212738427099175e+01
 2.111471441560285e+00	 3.525363271706382e-02	 1.213191110929171e+01
 2.111101375136792e+00	 5.296702432996599e-02	 1.213524830098632e+01
 2.110580720053723e+00	 7.073605363674738e-02	 1.213792297754826e+01
 2.109908023469095e+00	 8.855911817482100e-02	 1.214040036888043e+01
 2.109081850813340e+00	 1.064345810959382e-01	 1.214308072291598e+01
 2.108100786679215e+00	 1.243607712753499e-01	 1.214629659364051e+01
 2.106963435717304e+00	 1.423359834443270e-01	 1.215031055288458e+01
 2.105668423536505e+00	 1.603584783464578e-01	 1.215531338698146e+01
 2.104214397608754e+00	 1.784264829181235e-01	 1.216142284535093e+01
 2.120590235276666e+00	 0.000000000000000e+00	 1.209806801910067e+01
 2.120516612598105e+00	 1.767098202302463e-02	 1.210443758727387e+01
 2.120294741318165e+00	 3.540094864170201e-02	 1.210899756075707e+01
 2.119923128481511e+00	 5.318835999304879e-02	 1.211235262373962e+01
 2.119400297713716e+00	 7.103164153410949e-02	 1.211504629994735e+01
 2.118724790101751e+00	 8.892918410598157e-02	 1.211755738260878e+01
 2.117895165081359e+00	 1.068793440204116e-01	 1.212029666342354e+01
 2.116910001330680e+00	 1.248804431694123e-01	 1.212360401089029e+01
 2.115767897669507e+00	 1.429307691583371e-01	 1.212774585332182e+01
 2.114467473963513e+00	 1.610285754628304e-01	 1.213291312780846e+01
 2.113007372032781e+00	 1.791720816100575e-01	 1.213921976255413e+01
 2.129414764689999e+00	 0.000000000000000e+00	 1.207538089892613e+01
 2.129340835641293e+00	 1.774451725742063e-02	 1.208189581628934e+01
 2.129118041076065e+00	 3.554826456651351e-02	 1.208655093420103e+01
 2.128744881826276e+00	 5.340969565634995e-02	 1.208997109002989e+01
 2.128219875373785e+00	 7.132722943171296e-02	 1.209271741571029e+01
 2.127541556734517e+00	 8.929925003738894e-02	 1.209528359428873e+01
 2.126708479349526e+00	 1.073241069451239e-01	 1.209809239560266e+01
 2.125719215982335e+00	 1.254001150636971e-01	 1.210149254119990e+01
 2.124572359621937e+00	 1.435255548725490e-01	 1.210575595377114e+01
 2.123266524390786e+00	 1.616986725793848e-01	 1.211107545249224e+01
 2.121800346457106e+00	 1.799176803021584e-01	 1.211756296203745e+01
 2.138239294103332e+00	 0.000000000000000e+00	 1.205298927844141e+01
 2.138165058684489e+00	 1.781805249196956e-02	 1.205972892555016e+01
 2.137941340833998e+00	 3.569558049158501e-02	 1.206454135379946e+01
 2.137566635171108e+00	 5.363103131997866e-02	 1.206807262741150e+01
 2.137039453033966e+00	 7.162281732967855e-02	 1.207090267881711e+01
 2.136358323367448e+00	 8.966931596916647e-02	 1.207354139026806e+01
 2.135521793617915e+00	 1.077688698701947e-01	 1.207642493367217e+01
 2.134528430634272e+00	 1.259197869583157e-01	 1.207991241847002e+01
 2.133376821574709e+00	 1.441203405870637e-01	 1.208428290273409e+01
 2.132065574818457e+00	 1.623687696962117e-01	 1.208973282899034e+01
 2.130593320881878e+00	 1.806632789945096e-01	 1.209637395283489e+01
 2.147063823516666e+00	 0.000000000000000e+00	 1.203086176105941e+01
 2.146989281727697e+00	 1.789158772672240e-02	 1.203790776519739e+01
 2.146764640591973e+00	 3.584289641700315e-02	 1.204294054190124e+01
 2.146388388516029e+00	 5.385236698404408e-02	 1.204662842594017e+01
 2.145859030694298e+00	 7.191840522812687e-02	 1.204957131911643e+01
 2.145175090000602e+00	 9.003938190143755e-02	 1.205229659555892e+01
 2.144335107886603e+00	 1.082136327957435e-01	 1.205525524326706e+01
 2.143337645286588e+00	 1.264394588533793e-01	 1.205881829139208e+01
 2.142181283527938e+00	 1.447151263019822e-01	 1.206327357830780e+01
 2.140864625246658e+00	 1.630388668134023e-01	 1.206882292204116e+01
 2.139386295307245e+00	 1.814088776871945e-01	 1.207557976141850e+01
 2.051456551062507e+00	 1.739528907653515e-01	 1.231123023858532e+01
 2.049882376857315e+00	 1.916134916374238e-01	 1.231766788291321e+01
 2.048150551895931e+00	 2.093148770557507e-01	 1.232553332885254e+01
 2.046259825926267e+00	 2.270551764944074e-01	 1.233483829695380e+01
 2.044208973657273e+00	 2.448324862854191e-01	 1.234555605656202e+01
 2.041996795666765e+00	 2.626448699171346e-01	 1.235762610017514e+01
 2.039622119309464e+00	 2.804903583591599e-01	 1.237095995330380e+01
 2.037083799624415e+00	 2.983669504141306e-01	 1.238544821931489e+01
 2.034380720240965e+00	 3.162726130965752e-01	 1.240096896347386e+01
 2.031511794282461e+00	 3.342052820390937e-01	 1.241739754491439e+01
 2.028475965266763e+00	 3.521628619260533e-01	 1.243461800950305e+01
 2.060249525487874e+00	 1.746984894580363e-01	 1.228377899699161e+01
 2.058668604040913e+00	 1.924347873813847e-01	 1.229027957209318e+01
 2.056929356113464e+00	 2.102120446620651e-01	 1.229824014892615e+01
 2.055030526094590e+00	 2.280283827566950e-01	 1.230769070546855e+01
 2.052970883441376e+00	 2.458818898377876e-01	 1.231861540701653e+01
 2.050749223590655e+00	 2.637706210934052e-01	 1.233095690554783e+01
 2.048364368870937e+00	 2.816925990534855e-01	 1.234462176976698e+01
 2.045815169413713e+00	 2.996458139431212e-01	 1.235948714744753e+01
 2.043100504063327e+00	 3.176282240630477e-01	 1.237540876665717e+01
 2.040219281284530e+00	 3.356377561975623e-01	 1.239223038720430e+01
 2.037170440066873e+00	 3.536723060500791e-01	 1.240979481812585e+01
 2.069042499912646e+00	 1.754440881503876e-01	 1.225746673328432e+01
 2.067454831223859e+00	 1.932560831250240e-01	 1.226407551235517e+01
 2.065708160330302e+00	 2.111092122680537e-01	 1.227214754821773e+01
 2.063801226262183e+00	 2.290015890186395e-01	 1.228172958933675e+01
 2.061732793224723e+00	 2.469312933897866e-01	 1.229281557314094e+01
 2.059501651513772e+00	 2.648963722692743e-01	 1.230535054995939e+01
 2.057106618431624e+00	 2.828948397473754e-01	 1.231923573164478e+01
 2.054546539202219e+00	 3.009246774716440e-01	 1.233433476863098e+01
 2.051820287884890e+00	 3.189838350290254e-01	 1.235048136438445e+01
 2.048926768285800e+00	 3.370702303555184e-01	 1.236748834121174e+01
 2.045864914866182e+00	 3.551817501735879e-01	 1.238515827611226e+01
 2.077835474336971e+00	 1.761896868424884e-01	 1.223217962876471e+01
 2.076241058406319e+00	 1.940773788684221e-01	 1.223893038840091e+01
 2.074486964546619e+00	 2.120063798737980e-01	 1.224712321911274e+01
 2.072571926429228e+00	 2.299747952803273e-01	 1.225682024119159e+01
 2.070494703007504e+00	 2.479806969415096e-01	 1.226802413153951e+01
 2.068254079436308e+00	 2.660221234448447e-01	 1.228068167151243e+01
 2.065848867991720e+00	 2.840970804409430e-01	 1.229468841225294e+01
 2.063277908990127e+00	 3.022035409998225e-01	 1.230989456338790e+01
 2.060540071705855e+00	 3.203394459946423e-01	 1.232611221643143e+01
 2.057634255286470e+00	 3.385027045131051e-01	 1.234312401948984e+01
 2.054559389664892e+00	 3.566911942967295e-01	 1.236069342484626e+01
 2.086628448760997e+00	 1.769352855344224e-01	 1.220781002703021e+01
 2.085027285588453e+00	 1.948986746116594e-01	 1.221472536198955e+01
 2.083265768762588e+00	 2.129035474793797e-01	 1.222304151205712e+01
 2.081342626595910e+00	 2.309480015418445e-01	 1.223283465946027e+01
 2.079256612789907e+00	 2.490301004930505e-01	 1.224411527974614e+01
 2.077006507358456e+00	 2.671478746202191e-01	 1.225683131263214e+01
 2.074591117551423e+00	 2.852993211343013e-01	 1.227087244191579e+01
 2.072009278777640e+00	 3.034824045277809e-01	 1.228607559244618e+01
 2.069259855526420e+00	 3.216950569600323e-01	 1.230223175788372e+01
 2.066341742286739e+00	 3.399351786704650e-01	 1.231909427848889e+01
 2.063253864463201e+00	 3.582006384196532e-01	 1.233638869342916e+01
 2.095421423184876e+00	 1.776808842262730e-01	 1.218425632155954e+01
 2.093813512770422e+00	 1.957199703548164e-01	 1.219134794565117e+01
 2.092044572978384e+00	 2.138007150848803e-01	 1.219978329665778e+01
 2.090113326762409e+00	 2.319212078032777e-01	 1.220965139813447e+01
 2.088018522572121e+00	 2.500795040445029e-01	 1.222096967597190e+01
 2.085758935280412e+00	 2.682736257955009e-01	 1.223368675112023e+01
 2.083333367110929e+00	 2.865015618275639e-01	 1.224768633168034e+01
 2.080740648564953e+00	 3.047612680556430e-01	 1.226279231449104e+01
 2.077979639346784e+00	 3.230506679253297e-01	 1.227877521232742e+01
 2.075049229286808e+00	 3.413676528277410e-01	 1.229536002861087e+01
 2.071948339261310e+00	 3.597100825425086e-01	 1.231223570704686e+01
 2.104214397608754e+00	 1.784264829181235e-01	 1.216142284535093e+01
 2.102599739952394e+00	 1.965412660979735e-01	 1.216869187864132e+01
 2.100823377194180e+00	 2.146978826903816e-01	 1.217723582516727e+01
 2.098884026928908e+00	 2.328944140647129e-01	 1.218715541902178e+01
 2.096780432354335e+00	 2.511289075959603e-01	 1.219847428138266e+01
 2.094511363202366e+00	 2.693993769707924e-01	 1.221114133374157e+01
 2.092075616670435e+00	 2.877038025208437e-01	 1.222503429951858e+01
 2.089472018352266e+00	 3.060401315835327e-01	 1.223996440631207e+01
 2.086699423167150e+00	 3.244062788906682e-01	 1.225568240729558e+01
 2.083756716286878e+00	 3.428001269850761e-01	 1.227188604633206e+01
 2.080642814059420e+00	 3.612195266654452e-01	 1.228822909716994e+01
 2.113007372032781e+00	 1.791720816100575e-01	 1.213921976255413e+01
 2.111385967134528e+00	 1.973625618412110e-01	 1.214665700507213e+01
 2.109602181410150e+00	 2.155950502959652e-01	 1.215529259828345e+01
 2.107654727095589e+00	 2.338676203262365e-01	 1.216523794640533e+01
 2.105542342136737e+00	 2.521783111475165e-01	 1.217652220483246e+01
 2.103263791124515e+00	 2.705251281461971e-01	 1.218909431226941e+01
 2.100817866230138e+00	 2.889060432142541e-01	 1.220282609894454e+01
 2.098203388139777e+00	 3.073189951115737e-01	 1.221751658527666e+01
 2.095419206987715e+00	 3.257618898561822e-01	 1.223289759190459e+01
 2.092464203287147e+00	 3.442326011426128e-01	 1.224864078833372e+01
 2.089337288857729e+00	 3.627289707886123e-01	 1.226436631353293e+01
 2.121800346457106e+00	 1.799176803021584e-01	 1.211756296203745e+01
 2.120172194316986e+00	 1.981838575846094e-01	 1.212514915415671e+01
 2.118380985626466e+00	 2.164922179017126e-01	 1.213385323319631e+01
 2.116425427262635e+00	 2.348408265879351e-01	 1.214379632404106e+01
 2.114304251919518e+00	 2.532277146992651e-01	 1.215501254998227e+01
 2.112016219047050e+00	 2.716508793218174e-01	 1.216745068191765e+01
 2.109560115790234e+00	 2.901082839079083e-01	 1.218097684997671e+01
 2.106934757927686e+00	 3.085978586398903e-01	 1.219537843406160e+01
 2.104138990808679e+00	 3.271175008220056e-01	 1.221036925661742e+01
 2.101171690287817e+00	 3.456650753004945e-01	 1.222559620758258e+01
 2.098031763656439e+00	 3.642384149121597e-01	 1.224064743784138e+01
 2.130593320881878e+00	 1.806632789945096e-01	 1.209637395283489e+01
 2.128958421499933e+00	 1.990051533282493e-01	 1.210408002250578e+01
 2.127159789843305e+00	 2.173893855077057e-01	 1.211282333381795e+01
 2.125196127430228e+00	 2.358140328498946e-01	 1.212273387442612e+01
 2.123066161702865e+00	 2.542771182512998e-01	 1.213385026473414e+01
 2.120768646970167e+00	 2.727766304977565e-01	 1.214612102209166e+01
 2.118302365350920e+00	 2.913105246019196e-01	 1.215940687237795e+01
 2.115666127716191e+00	 3.098767221686060e-01	 1.217348422757757e+01
 2.112858774630242e+00	 3.284731117882725e-01	 1.218804995507185e+01
 2.109879177289086e+00	 3.470975494588635e-01	 1.220272757130478e+01
 2.106726238455749e+00	 3.657478590362366e-01	 1.221707499915643e+01
 2.139386295307245e+00	 1.814088776871945e-01	 1.207557976141850e+01
 2.137744648683532e+00	 1.998264490722111e-01	 1.208336705841747e+01
 2.135938594060838e+00	 2.182865531140259e-01	 1.209211436313201e+01
 2.133966827598551e+00	 2.367872391122015e-01	 1.210195976027254e+01
 2.131828071486969e+00	 2.553265218037142e-01	 1.211294599291519e+01
 2.129521074894057e+00	 2.739023816741171e-01	 1.212502133939069e+01
 2.127044614912394e+00	 2.925127652964011e-01	 1.213804152110720e+01
 2.124397497505491e+00	 3.111555856978451e-01	 1.215177276202393e+01
 2.121578558452605e+00	 3.298287227551169e-01	 1.216589612791433e+01
 2.118586664291155e+00	 3.485300236178631e-01	 1.218001328079846e+01
 2.115420713255859e+00	 3.672573031609928e-01	 1.219365379090912e+01
 2.028475965266763e+00	 3.521628619260533e-01	 1.243461800950305e+01
 2.025272766653326e+00	 3.701401696115764e-01	 1.244815776269240e+01
 2.021900702832483e+00	 3.881381048101049e-01	 1.245786625484327e+01
 2.018358812783806e+00	 4.061544882653070e-01	 1.246843752744384e+01
 2.014646169384433e+00	 4.241871119009676e-01	 1.247993624322384e+01
 2.010761880278761e+00	 4.422337393928923e-01	 1.249244257710649e+01
 2.006705088739459e+00	 4.602921067687453e-01	 1.250605442644909e+01
 2.002474974518841e+00	 4.783599230357982e-01	 1.252088850019476e+01
 1.998070754689647e+00	 4.964348708365260e-01	 1.253708120412091e+01
 1.993491684474229e+00	 5.145146071319616e-01	 1.255478927431826e+01
 1.988737058061177e+00	 5.325967639126696e-01	 1.257419011177073e+01
 2.037170440066873e+00	 3.536723060500791e-01	 1.240979481812585e+01
 2.033953511870113e+00	 3.717266682586763e-01	 1.242372029063194e+01
 2.030566994674092e+00	 3.898017463941682e-01	 1.243461227976887e+01
 2.027009923339256e+00	 4.078953518594775e-01	 1.244630703903954e+01
 2.023281366768910e+00	 4.260052671141150e-01	 1.245883507780406e+01
 2.019380428782637e+00	 4.441292462485367e-01	 1.247224363796311e+01
 2.015306248981001e+00	 4.622650155865509e-01	 1.248659819279815e+01
 2.011058003600574e+00	 4.804102743157578e-01	 1.250198378288080e+01
 2.006634906358315e+00	 4.985626951459567e-01	 1.251850613881568e+01
 2.002036209284311e+00	 5.167199249954290e-01	 1.253629254090327e+01
 1.997261203541910e+00	 5.348795857049577e-01	 1.255549236656758e+01
 2.045864914866182e+00	 3.551817501735879e-01	 1.238515827611226e+01
 2.042634257086100e+00	 3.733131669052712e-01	 1.239929647621329e+01
 2.039233286514900e+00	 3.914653879777524e-01	 1.241113048835423e+01
 2.035661033893906e+00	 4.096362154532062e-01	 1.242372896637727e+01
 2.031916564152587e+00	 4.278234223268679e-01	 1.243709344807059e+01
 2.027998977285713e+00	 4.460247531038403e-01	 1.245124226415958e+01
 2.023907409221743e+00	 4.642379244040728e-01	 1.246621228880612e+01
 2.019641032681508e+00	 4.824606255954923e-01	 1.248206051975078e+01
 2.015199058026183e+00	 5.006905194552196e-01	 1.249886543577043e+01
 2.010580734093593e+00	 5.189252428587805e-01	 1.251672807945313e+01
 2.005785349021840e+00	 5.371624074971756e-01	 1.253577281407098e+01
 2.054559389664892e+00	 3.566911942967295e-01	 1.236069342484626e+01
 2.051315002301486e+00	 3.748996655515140e-01	 1.237490037262375e+01
 2.047899578355109e+00	 3.931290295610114e-01	 1.238745955128188e+01
 2.044312144447956e+00	 4.113770790466464e-01	 1.240076437360941e+01
 2.040551761535664e+00	 4.296415775393758e-01	 1.241479150589045e+01
 2.036617525788189e+00	 4.479202599589470e-01	 1.242953427676542e+01
 2.032508569461885e+00	 4.662108332214486e-01	 1.244500467736973e+01
 2.028224061761841e+00	 4.845109768751312e-01	 1.246123518346587e+01
 2.023763209693450e+00	 5.028183437644346e-01	 1.247828034510902e+01
 2.019125258902276e+00	 5.211305607221275e-01	 1.249621808972447e+01
 2.014309494501172e+00	 5.394452292894243e-01	 1.251515068527479e+01
 2.063253864463201e+00	 3.582006384196532e-01	 1.233638869342916e+01
 2.059995747516472e+00	 3.764861641975579e-01	 1.235054685376553e+01
 2.056565870194917e+00	 3.947926711441001e-01	 1.236363941000252e+01
 2.052963255001605e+00	 4.131179426399513e-01	 1.237747512959680e+01
 2.049186958918340e+00	 4.314597327517884e-01	 1.239200979173079e+01
 2.045236074290263e+00	 4.498157668140014e-01	 1.240721552000962e+01
 2.041109729701627e+00	 4.681837420388157e-01	 1.242308303051146e+01
 2.036807090841774e+00	 4.865613281548041e-01	 1.243962369394948e+01
 2.032327361360318e+00	 5.049461680737224e-01	 1.245687135531294e+01
 2.027669783710558e+00	 5.233358785855805e-01	 1.247488385470140e+01
 2.022833639980103e+00	 5.417280510818046e-01	 1.249374419388781e+01
 2.071948339261310e+00	 3.597100825425086e-01	 1.231223570704686e+01
 2.068676492731258e+00	 3.780726628435567e-01	 1.232625249118618e+01
 2.065232162034526e+00	 3.964563127271726e-01	 1.233971119382046e+01
 2.061614365555055e+00	 4.148588062332741e-01	 1.235392382905889e+01
 2.057822156300817e+00	 4.332778879642556e-01	 1.236882915838409e+01
 2.053854622792139e+00	 4.517112736691478e-01	 1.238438178606295e+01
 2.049710889941170e+00	 4.701566508563120e-01	 1.240055465367292e+01
 2.045390119921507e+00	 4.886116794346401e-01	 1.241734134061881e+01
 2.040891513026985e+00	 5.070739923832034e-01	 1.243475811179282e+01
 2.036214308518640e+00	 5.255411964492500e-01	 1.245284565388458e+01
 2.031357785458835e+00	 5.440108728744170e-01	 1.247167044269468e+01
 2.080642814059420e+00	 3.612195266654452e-01	 1.228822909716994e+01
 2.077357237946044e+00	 3.796591614896633e-01	 1.230203546722846e+01
 2.073898453874134e+00	 3.981199543103834e-01	 1.231571713835462e+01
 2.070265476108505e+00	 4.165996698267676e-01	 1.233017371491709e+01
 2.066457353683294e+00	 4.350960431769266e-01	 1.234533069573700e+01
 2.062473171294014e+00	 4.536067805245310e-01	 1.236112874074662e+01
 2.058312050180712e+00	 4.721295596740745e-01	 1.237752641085060e+01
 2.053973149001240e+00	 4.906620307147687e-01	 1.239450270540937e+01
 2.049455664693653e+00	 5.092018166929979e-01	 1.241205933623813e+01
 2.044758833326722e+00	 5.277465143132476e-01	 1.243022267737839e+01
 2.039881930937567e+00	 5.462936946673629e-01	 1.244904533077138e+01
 2.089337288857729e+00	 3.627289707886123e-01	 1.226436631353293e+01
 2.086037983161030e+00	 3.812456601360313e-01	 1.227791548972372e+01
 2.082564745713942e+00	 3.997835958938872e-01	 1.229170050533460e+01
 2.078916586662154e+00	 4.183405334205854e-01	 1.230628860179690e+01
 2.075092551065970e+00	 4.369141983899517e-01	 1.232159565655244e+01
 2.071091719796090e+00	 4.555022873802948e-01	 1.233755185014064e+01
 2.066913210420454e+00	 4.741024684922414e-01	 1.235410465055040e+01
 2.062556178081173e+00	 4.927123819953196e-01	 1.237122158656968e+01
 2.058019816360520e+00	 5.113296410032265e-01	 1.238889274672203e+01
 2.053303358135004e+00	 5.299518321776834e-01	 1.240713294075344e+01
 2.048406076416498e+00	 5.485765164607425e-01	 1.242598346153014e+01
 2.098031763656439e+00	 3.642384149121597e-01	 1.224064743784138e+01
 2.094718728376417e+00	 3.828321587828140e-01	 1.225391370818247e+01
 2.091231037554151e+00	 4.014472374778383e-01	 1.226770550369343e+01
 2.087567697216205e+00	 4.200813970148803e-01	 1.228233280065483e+01
 2.083727748449047e+00	 4.387323536034800e-01	 1.229770538323492e+01
 2.079710268298565e+00	 4.573977942365838e-01	 1.231374630806514e+01
 2.075514370660597e+00	 4.760753773109498e-01	 1.233039513253633e+01
 2.071139207161506e+00	 4.947627332764222e-01	 1.234761092320381e+01
 2.066583968027788e+00	 5.134574653140096e-01	 1.236537497854052e+01
 2.061847882943687e+00	 5.321571500426682e-01	 1.238369320066193e+01
 2.056930221895829e+00	 5.508593382546569e-01	 1.240259805156998e+01
 2.106726238455749e+00	 3.657478590362366e-01	 1.221707499915643e+01
 2.103399473592404e+00	 3.844186574301646e-01	 1.223005263143954e+01
 2.099897329394959e+00	 4.031108790623909e-01	 1.224377721191921e+01
 2.096218807770854e+00	 4.218222606098053e-01	 1.225837104449792e+01
 2.092362945832724e+00	 4.405505088176614e-01	 1.227374123555172e+01
 2.088328816801641e+00	 4.592933010935424e-01	 1.228980696441022e+01
 2.084115530901338e+00	 4.780482861303370e-01	 1.230650295535073e+01
 2.079722236242440e+00	 4.968130845582060e-01	 1.232378272053968e+01
 2.075148119695656e+00	 5.155852896254678e-01	 1.234162150576330e+01
 2.070392407752969e+00	 5.343624679083132e-01	 1.236001887118374e+01
 2.065454367375761e+00	 5.531421600492069e-01	 1.237900084030949e+01
 2.115420713255859e+00	 3.672573031609928e-01	 1.219365379090912e+01
 2.112080218809191e+00	 3.860051560782366e-01	 1.220635604671183e+01
 2.108563621236568e+00	 4.047745206476998e-01	 1.221996150162980e+01
 2.104869918326306e+00	 4.235631242055140e-01	 1.223446841516427e+01
 2.100998143217202e+00	 4.423686640326460e-01	 1.224978451928154e+01
 2.096947365305518e+00	 4.611888079513150e-01	 1.226582825428931e+01
 2.092716691142881e+00	 4.800211949505413e-01	 1.228253248458397e+01
 2.088305265324173e+00	 4.988634358408002e-01	 1.229984797590300e+01
 2.083712271364325e+00	 5.177131139377213e-01	 1.231774656347693e+01
 2.078936932563052e+00	 5.365677857747292e-01	 1.233622394088255e+01
 2.073978512856493e+00	 5.554249818444937e-01	 1.235530200037944e+01
 1.988737058061177e+00	 5.325967639126696e-01	 1.257419011177073e+01
 1.983806209841261e+00	 5.506789491896563e-01	 1.259323489896950e+01
 1.978698516497631e+00	 5.687587485405461e-01	 1.261006612982045e+01
 1.973413396484585e+00	 5.868337251852063e-01	 1.262520479189020e+01
 1.967950310349670e+00	 6.049014205584747e-01	 1.263922573011360e+01
 1.962308761470183e+00	 6.229593551559282e-01	 1.265275602264099e+01
 1.956488296771135e+00	 6.410050294055930e-01	 1.266647277096632e+01
 1.950488507423679e+00	 6.590359245652063e-01	 1.268110027371840e+01
 1.944309029523059e+00	 6.770495036445779e-01	 1.269740655784648e+01
 1.937949544745086e+00	 6.950432123525722e-01	 1.271619924569784e+01
 1.931409780980206e+00	 7.130144800681855e-01	 1.273832074164858e+01
 1.997261203541910e+00	 5.348795857049577e-01	 1.255549236656758e+01
 1.992309220668944e+00	 5.530392750329843e-01	 1.257422548681396e+01
 1.987179634676896e+00	 5.711965682083980e-01	 1.259079829729205e+01
 1.981871861527434e+00	 5.893490180064977e-01	 1.260569769595026e+01
 1.976385359455892e+00	 6.074941553241785e-01	 1.261946442150993e+01
 1.970719629710934e+00	 6.256294900293221e-01	 1.263269152517717e+01
 1.964874217275590e+00	 6.437525118362468e-01	 1.264602223475841e+01
 1.958848711568684e+00	 6.618606912068137e-01	 1.266014717916195e+01
 1.952642747125680e+00	 6.799514802767427e-01	 1.267580094575148e+01
 1.946256004257984e+00	 6.980223138066511e-01	 1.269375794793052e+01
 1.939688209689715e+00	 7.160706101572964e-01	 1.271482758566123e+01
 2.005785349021840e+00	 5.371624074971756e-01	 1.253577281407098e+01
 2.000812231495826e+00	 5.553996008762783e-01	 1.255427797369189e+01
 1.995660752855364e+00	 5.736343878762442e-01	 1.257070018054736e+01
 1.990330326569490e+00	 5.918643108278056e-01	 1.258548988558179e+01
 1.984820408561330e+00	 6.100868900899152e-01	 1.259915132278092e+01
 1.979130497950917e+00	 6.282996249027633e-01	 1.261224108070580e+01
 1.973260137779301e+00	 6.464999942669614e-01	 1.262536604396095e+01
 1.967208915712976e+00	 6.646854578484974e-01	 1.263918067114125e+01
 1.960976464727635e+00	 6.828534569090018e-01	 1.265438358042249e+01
 1.954562463770272e+00	 7.010014152608478e-01	 1.267171341902419e+01
 1.947966638398685e+00	 7.191267402465555e-01	 1.269194399826168e+01
 2.014309494501172e+00	 5.394452292894243e-01	 1.251515068527479e+01
 2.009315242322110e+00	 5.577599267196292e-01	 1.253350605281149e+01
 2.004141871033233e+00	 5.760722075441648e-01	 1.254987876634785e+01
 1.998788791610951e+00	 5.943796036491991e-01	 1.256468046540992e+01
 1.993255457666181e+00	 6.126796248557445e-01	 1.257837647804402e+01
 1.987541366190324e+00	 6.309697597763001e-01	 1.259148449623710e+01
 1.981646058282454e+00	 6.492474766977745e-01	 1.260457259819180e+01
 1.975569119856737e+00	 6.675102244902823e-01	 1.261825658252447e+01
 1.969310182329090e+00	 6.857554335413676e-01	 1.263319658421220e+01
 1.962868923282101e+00	 7.039805167151612e-01	 1.265009294733634e+01
 1.956245067107252e+00	 7.221828703359467e-01	 1.266968133532354e+01
 2.022833639980103e+00	 5.417280510818046e-01	 1.249374419388781e+01
 2.017818253147993e+00	 5.601202525631275e-01	 1.251202233088924e+01
 2.012622989210703e+00	 5.785100272122409e-01	 1.252843989301246e+01
 2.007247256652015e+00	 5.968948964707489e-01	 1.254336733671962e+01
 2.001690506770640e+00	 6.152723596217257e-01	 1.255722868008475e+01
 1.995952234429347e+00	 6.336398946499822e-01	 1.257050028627290e+01
 1.990031978785235e+00	 6.519949591287233e-01	 1.258370897016729e+01
 1.983929324000143e+00	 6.703349911321941e-01	 1.259742939169384e+01
 1.977643899930212e+00	 6.886574101738524e-01	 1.261228070429718e+01
 1.971175382793627e+00	 7.069596181695894e-01	 1.262892243239757e+01
 1.964523495815548e+00	 7.252390004254544e-01	 1.264804955748628e+01
 2.031357785458835e+00	 5.440108728744170e-01	 1.247167044269468e+01
 2.026321263973674e+00	 5.624805784068644e-01	 1.248993822642318e+01
 2.021104107387973e+00	 5.809478468805528e-01	 1.250648813994666e+01
 2.015705721692882e+00	 5.994101892925254e-01	 1.252164707758862e+01
 2.010125555874903e+00	 6.178650943879190e-01	 1.253579534044781e+01
 2.004363102668178e+00	 6.363100295238575e-01	 1.254936553221766e+01
 1.998417899287829e+00	 6.547424415598448e-01	 1.256284075380069e+01
 1.992289528143369e+00	 6.731597577742570e-01	 1.257675205870930e+01
 1.985977617531167e+00	 6.915593868064690e-01	 1.259167513629348e+01
 1.979481842305000e+00	 7.099387196241318e-01	 1.260822619537590e+01
 1.972801924523711e+00	 7.282951305150630e-01	 1.262705702687762e+01
 2.039881930937567e+00	 5.462936946673629e-01	 1.244904533077138e+01
 2.034824274799357e+00	 5.648409042509300e-01	 1.246736386890039e+01
 2.029585225565243e+00	 5.833856665491816e-01	 1.248412671819596e+01
 2.024164186733747e+00	 6.019254821145991e-01	 1.249961482414700e+01
 2.018560604979166e+00	 6.204578291543844e-01	 1.251416236076792e+01
 2.012773970907009e+00	 6.389801643979751e-01	 1.252815574315106e+01
 2.006803819790424e+00	 6.574899239911769e-01	 1.254203191379711e+01
 2.000649732286595e+00	 6.759845244164968e-01	 1.255627586311274e+01
 1.994311335132122e+00	 6.944613634392292e-01	 1.257141734966711e+01
 1.987788301816373e+00	 7.129178210787869e-01	 1.258802679150143e+01
 1.981080353231873e+00	 7.313512606047566e-01	 1.260671030597059e+01
 2.048406076416498e+00	 5.485765164607425e-01	 1.242598346153014e+01
 2.043327285625239e+00	 5.672012300954161e-01	 1.244440799891095e+01
 2.038066343742712e+00	 5.858234862182075e-01	 1.246145736199499e+01
 2.032622651774812e+00	 6.044407749370398e-01	 1.247736415293054e+01
 2.026995654083625e+00	 6.230505639211810e-01	 1.249241400530269e+01
 2.021184839146032e+00	 6.416502992723842e-01	 1.250694471792369e+01
 2.015189740293205e+00	 6.602374064227561e-01	 1.252134463670027e+01
 2.009009936430000e+00	 6.788092910589392e-01	 1.253605024332433e+01
 2.002645052733243e+00	 6.973633400721456e-01	 1.255154291488738e+01
 1.996094761327899e+00	 7.158969225335539e-01	 1.256834482439368e+01
 1.989358781940170e+00	 7.344073906945200e-01	 1.258701395851354e+01
 2.056930221895829e+00	 5.508593382546569e-01	 1.240259805156998e+01
 2.051830296451523e+00	 5.695615559404130e-01	 1.242117786914317e+01
 2.046547461920581e+00	 5.882613058877115e-01	 1.243858022128227e+01
 2.041081116816273e+00	 6.069560677599187e-01	 1.245498696429581e+01
 2.035430703188476e+00	 6.256432986883688e-01	 1.247063277463425e+01
 2.029595707385439e+00	 6.443204341471325e-01	 1.248580440853639e+01
 2.023575660796358e+00	 6.629848888546198e-01	 1.250083918335006e+01
 2.017370140573761e+00	 6.816340577016080e-01	 1.251612263758549e+01
 2.010978770334698e+00	 7.002653167052311e-01	 1.253208533227218e+01
 2.004401220839730e+00	 7.188760239884309e-01	 1.254919876223630e+01
 1.997637210648736e+00	 7.374635207843371e-01	 1.256797035247255e+01
 2.065454367375761e+00	 5.531421600492069e-01	 1.237900084030949e+01
 2.060333307278406e+00	 5.719218817860114e-01	 1.239777914623351e+01
 2.055028580099048e+00	 5.906991255577745e-01	 1.241559375515338e+01
 2.049539581858329e+00	 6.094713605833055e-01	 1.243257336686667e+01
 2.043865752293914e+00	 6.282360334560075e-01	 1.244889928050442e+01
 2.038006575625422e+00	 6.469905690222695e-01	 1.246480478476686e+01
 2.031961581300069e+00	 6.657323712868055e-01	 1.248057374270910e+01
 2.025730344718055e+00	 6.844588243445296e-01	 1.249653832640341e+01
 2.019312487936653e+00	 7.031672933384970e-01	 1.251307586247667e+01
 2.012707680352018e+00	 7.218551254434172e-01	 1.253060475574648e+01
 2.005915639357706e+00	 7.405196508741925e-01	 1.254957946492831e+01
 2.073978512856493e+00	 5.554249818444937e-01	 1.235530200037944e+01
 2.068836318106088e+00	 5.742822076323024e-01	 1.237431581344737e+01
 2.063509698278315e+00	 5.931369452284766e-01	 1.239259462622550e+01
 2.057998046901178e+00	 6.119866534072709e-01	 1.241021156298250e+01
 2.052300801400137e+00	 6.308287682241573e-01	 1.242729212175212e+01
 2.046417443866173e+00	 6.496607038978439e-01	 1.244401370000733e+01
 2.040347501804525e+00	 6.684798537193505e-01	 1.246060428701997e+01
 2.034090548863060e+00	 6.872835909877286e-01	 1.247734027645408e+01
 2.027646205539275e+00	 7.060692699719570e-01	 1.249454335857800e+01
 2.021014139864915e+00	 7.248342268985118e-01	 1.251257645788656e+01
 2.014194068067215e+00	 7.435757809640704e-01	 1.253183265567167e+01
 1.931409780980206e+00	 7.130144800681855e-01	 1.273832074164858e+01
 1.924688354855402e+00	 7.309637694634421e-01	 1.276116856803199e+01
 1.917786183816244e+00	 7.488854209418625e-01	 1.278184130133621e+01
 1.910703136605119e+00	 7.667768187278619e-01	 1.279866022979954e+01
 1.903439130507891e+00	 7.846353347873409e-01	 1.281149281649689e+01
 1.895994131863790e+00	 8.024583299111958e-01	 1.282066932612998e+01
 1.888368156547483e+00	 8.202431548190312e-01	 1.282653454533799e+01
 1.880561270422445e+00	 8.379871512822787e-01	 1.282943840230310e+01
 1.872573589764845e+00	 8.556876532658934e-01	 1.282972564923389e+01
 1.864405281657153e+00	 8.733419880877550e-01	 1.282772459479796e+01
 1.856056564350709e+00	 8.909474775948771e-01	 1.282373487837917e+01
 1.939688209689715e+00	 7.160706101572964e-01	 1.271482758566123e+01
 1.932937974118424e+00	 7.340968339837993e-01	 1.273659535949638e+01
 1.926006218922043e+00	 7.520953014314645e-01	 1.275615746964321e+01
 1.918892812280358e+00	 7.700633855129514e-01	 1.277210814830434e+01
 1.911597671124698e+00	 7.879984469298634e-01	 1.278462706402171e+01
 1.904120761650013e+00	 8.058978351609011e-01	 1.279409085566460e+01
 1.896462099799011e+00	 8.237588895703063e-01	 1.280088522558230e+01
 1.888621751717463e+00	 8.415789405357922e-01	 1.280539532611632e+01
 1.880599834179923e+00	 8.593553105951374e-01	 1.280799519377403e+01
 1.872396514985003e+00	 8.770853156105536e-01	 1.280903621729726e+01
 1.864012013319517e+00	 8.947662659499382e-01	 1.280883463074651e+01
 1.947966638398685e+00	 7.191267402465555e-01	 1.269194399826168e+01
 1.941187593380994e+00	 7.372298985043433e-01	 1.271280553993632e+01
 1.934226254027490e+00	 7.553051819212971e-01	 1.273132516636317e+01
 1.927082487955355e+00	 7.733499522983185e-01	 1.274649468309323e+01
 1.919756211741378e+00	 7.913615590727094e-01	 1.275867667560508e+01
 1.912247391436232e+00	 8.093373404109726e-01	 1.276829080050311e+01
 1.904556043050652e+00	 8.272746243219816e-01	 1.277576124185630e+01
 1.896682233012715e+00	 8.451707297897306e-01	 1.278150688403824e+01
 1.888626078595345e+00	 8.630229679248169e-01	 1.278593051564020e+01
 1.880387748313307e+00	 8.808286431337822e-01	 1.278940704977076e+01
 1.871967462288870e+00	 8.985850543054005e-01	 1.279227075102351e+01
 1.956245067107252e+00	 7.221828703359467e-01	 1.266968133532354e+01
 1.949437212643225e+00	 7.403629630250422e-01	 1.268979935359903e+01
 1.942446289132673e+00	 7.585150624113133e-01	 1.270736556408724e+01
 1.935272163630169e+00	 7.766365190839003e-01	 1.272184024485558e+01
 1.927914752357967e+00	 7.947246712158029e-01	 1.273367242117256e+01
 1.920374021222447e+00	 8.127768456613205e-01	 1.274332145571493e+01
 1.912649986302385e+00	 8.307903590739587e-01	 1.275124761887976e+01
 1.904742714308149e+00	 8.487625190439885e-01	 1.275790206742746e+01
 1.896652323011041e+00	 8.666906252548237e-01	 1.276371583624098e+01
 1.888378981641965e+00	 8.845719706573315e-01	 1.276908782750685e+01
 1.879922911258653e+00	 9.024038426611642e-01	 1.277437178668039e+01
 1.964523495815548e+00	 7.252390004254544e-01	 1.264804955748628e+01
 1.957686831905231e+00	 7.434960275458661e-01	 1.266755419199218e+01
 1.950666324237679e+00	 7.617249429014670e-01	 1.268429366835591e+01
 1.943461839304864e+00	 7.799230858696361e-01	 1.269815898976113e+01
 1.936073292974493e+00	 7.980877833590673e-01	 1.270963854647824e+01
 1.928500651008666e+00	 8.162163509118574e-01	 1.271922813830243e+01
 1.920743929554185e+00	 8.343060938261391e-01	 1.272742176324308e+01
 1.912803195603715e+00	 8.523543082984602e-01	 1.273470142150728e+01
 1.904678567426931e+00	 8.703582825850483e-01	 1.274152591327244e+01
 1.896370214970877e+00	 8.883152981810956e-01	 1.274831861346190e+01
 1.887878360228749e+00	 9.062226310171286e-01	 1.275545421188285e+01
 1.972801924523711e+00	 7.282951305150630e-01	 1.262705702687762e+01
 1.965936451167123e+00	 7.466290920667822e-01	 1.264604806091818e+01
 1.958886359342599e+00	 7.649348233917110e-01	 1.266211838352616e+01
 1.951651514979499e+00	 7.832096526554629e-01	 1.267545889312283e+01
 1.944231833590993e+00	 8.014508955024265e-01	 1.268659285834636e+01
 1.936627280794890e+00	 8.196558561624929e-01	 1.269604928781539e+01
 1.928837872806026e+00	 8.378218285784241e-01	 1.270435358319992e+01
 1.920863676899359e+00	 8.559460975530399e-01	 1.271201718814822e+01
 1.912704811842940e+00	 8.740259399153826e-01	 1.271952621030803e+01
 1.904361448299948e+00	 8.920586257049669e-01	 1.272732899847710e+01
 1.895833809199044e+00	 9.100414193731937e-01	 1.273582266215545e+01
 1.981080353231873e+00	 7.313512606047566e-01	 1.260671030597059e+01
 1.974186070429016e+00	 7.497621565877612e-01	 1.262529499920922e+01
 1.967106394447519e+00	 7.681447038819986e-01	 1.264084258094207e+01
 1.959841190654136e+00	 7.864962194413193e-01	 1.265374182530511e+01
 1.952390374207497e+00	 8.048140076458040e-01	 1.266454681200261e+01
 1.944753910581124e+00	 8.230953614131398e-01	 1.267381656880369e+01
 1.936931816057885e+00	 8.413375633307143e-01	 1.268210560994804e+01
 1.928924158195032e+00	 8.595378868076216e-01	 1.268995344969141e+01
 1.920731056258989e+00	 8.776935972457170e-01	 1.269787306688311e+01
 1.912352681629079e+00	 8.958019532288382e-01	 1.270633830134495e+01
 1.903789258169420e+00	 9.138602077292585e-01	 1.271577016815058e+01
 1.989358781940170e+00	 7.344073906945200e-01	 1.258701395851354e+01
 1.982435689691021e+00	 7.528952211087712e-01	 1.260530335325540e+01
 1.975326429552528e+00	 7.713545843722834e-01	 1.262046316934148e+01
 1.968030866328837e+00	 7.897827862271430e-01	 1.263300362981150e+01
 1.960548914824040e+00	 8.081771197891241e-01	 1.264350560043499e+01
 1.952880540367373e+00	 8.265348666637086e-01	 1.265255497505455e+01
 1.945025759309738e+00	 8.448532980829113e-01	 1.266073312035542e+01
 1.936984639490681e+00	 8.631296760621002e-01	 1.266860627378231e+01
 1.928757300675005e+00	 8.813612545759445e-01	 1.267671386905963e+01
 1.920343914958172e+00	 8.995452807526023e-01	 1.268555576872944e+01
 1.911744707139762e+00	 9.176789960852230e-01	 1.269557838854867e+01
 1.997637210648736e+00	 7.374635207843371e-01	 1.256797035247255e+01
 1.990685308953253e+00	 7.560282856297815e-01	 1.258607547056594e+01
 1.983546464657714e+00	 7.745644648625190e-01	 1.260097116743412e+01
 1.976220542003663e+00	 7.930693530128724e-01	 1.261323420348849e+01
 1.968707455440654e+00	 8.115402319323102e-01	 1.262346824572482e+01
 1.961007170153640e+00	 8.299743719141104e-01	 1.263228293556259e+01
 1.953119702561558e+00	 8.483690328349164e-01	 1.264028426108956e+01
 1.945045120786256e+00	 8.667214653163697e-01	 1.264806385918597e+01
 1.936783545090910e+00	 8.850289119059541e-01	 1.265618722045707e+01
 1.928335148287128e+00	 9.032886082761525e-01	 1.266518077494488e+01
 1.919700156109956e+00	 9.214977844409867e-01	 1.267551784211521e+01
 2.005915639357706e+00	 7.405196508741925e-01	 1.254957946492831e+01
 1.998934928215824e+00	 7.591613501507609e-01	 1.256760777028367e+01
 1.991766499763166e+00	 7.777743453526579e-01	 1.258235177858815e+01
 1.984410217678675e+00	 7.963559197984450e-01	 1.259441757878476e+01
 1.976865996057371e+00	 8.149033440752861e-01	 1.260442769229123e+01
 1.969133799939929e+00	 8.334138771642571e-01	 1.261301242218264e+01
 1.961213645813324e+00	 8.518847675866305e-01	 1.262080017410963e+01
 1.953105602081704e+00	 8.703132545703245e-01	 1.262840668255478e+01
 1.944809789506627e+00	 8.886965692356383e-01	 1.263642311373631e+01
 1.936326381615850e+00	 9.070319357993809e-01	 1.264540302159666e+01
 1.927655605079885e+00	 9.253165727964493e-01	 1.265584813893894e+01
 2.014194068067215e+00	 7.435757809640704e-01	 1.253183265567167e+01
 2.007184547478847e+00	 7.622944146716788e-01	 1.254989081571420e+01
 1.999986534868971e+00	 7.809842258426540e-01	 1.256458446756467e+01
 1.992599893353933e+00	 7.996424865837992e-01	 1.257653200800636e+01
 1.985024536674227e+00	 8.182664562179760e-01	 1.258637090199405e+01
 1.977260429726245e+00	 8.368533824140595e-01	 1.259474905891692e+01
 1.969307589065010e+00	 8.554005023379549e-01	 1.260231512348206e+01
 1.961166083376974e+00	 8.739050438238590e-01	 1.260970764612200e+01
 1.952836033922081e+00	 8.923642265648891e-01	 1.261754310252324e+01
 1.944317614944240e+00	 9.107752633221808e-01	 1.262640273708857e+01
 1.935611054049432e+00	 9.291353611515104e-01	 1.263681821087473e+01
 1.856056564350709e+00	 8.909474775948771e-01	 1.282373487837917e+01
 1.847529172416486e+00	 9.084984598861181e-01	 1.281907934679896e+01
 1.838822022353228e+00	 9.259952468727786e-01	 1.281981590668007e+01
 1.829935486279233e+00	 9.434351516004069e-01	 1.282556217243492e+01
 1.820869988579429e+00	 9.608154864645534e-01	 1.283459583600704e+01
 1.811626006103686e+00	 9.781335644556893e-01	 1.284498078439428e+01
 1.802204068330247e+00	 9.953867004148540e-01	 1.285459650442316e+01
 1.792604757493784e+00	 1.012572212298924e+00	 1.286117247259084e+01
 1.782828708677572e+00	 1.029687422454352e+00	 1.286232763411292e+01
 1.772876609869356e+00	 1.046729658898207e+00	 1.285561504633002e+01
 1.762749201980530e+00	 1.063696256605328e+00	 1.283857173084057e+01
 1.864012013319517e+00	 8.947662659499382e-01	 1.280883463074651e+01
 1.855448071189168e+00	 9.123924754440570e-01	 1.280711344931659e+01
 1.846703600448590e+00	 9.299642573411303e-01	 1.280500215960295e+01
 1.837778974811067e+00	 9.474789131698542e-01	 1.280804954659441e+01
 1.828674620480534e+00	 9.649337438061401e-01	 1.281519821138380e+01
 1.819391016350745e+00	 9.823260507233702e-01	 1.282442763129331e+01
 1.809928694169406e+00	 9.996531372534282e-01	 1.283352804387928e+01
 1.800288238666776e+00	 1.016912309857390e+00	 1.284013497719040e+01
 1.790470287648234e+00	 1.034100879404719e+00	 1.284176900382743e+01
 1.780475532050395e+00	 1.051216162459804e+00	 1.283588079959256e+01
 1.770304715960357e+00	 1.068255482574626e+00	 1.281990155599597e+01
 1.871967462288870e+00	 8.985850543054005e-01	 1.279227075102351e+01
 1.863366969962474e+00	 9.162864910023476e-01	 1.279386033572987e+01
 1.854585178544640e+00	 9.339332678097632e-01	 1.279342216788271e+01
 1.845622463343635e+00	 9.515226747394960e-01	 1.279294046865117e+01
 1.836479252382404e+00	 9.690520011478224e-01	 1.279712615320749e+01
 1.827156026598584e+00	 9.865185369910400e-01	 1.280427975277650e+01
 1.817653320009345e+00	 1.003919574091880e+00	 1.281211144590940e+01
 1.807971719840529e+00	 1.021252407415621e+00	 1.281816998036185e+01
 1.798111866619622e+00	 1.038514336354744e+00	 1.281988265792149e+01
 1.788074454232105e+00	 1.055702666020960e+00	 1.281460076938803e+01
 1.777860229940787e+00	 1.072814708543394e+00	 1.279965053412633e+01
 1.879922911258653e+00	 9.024038426611642e-01	 1.277437178668039e+01
 1.871285868736274e+00	 9.201805065609013e-01	 1.277861502387733e+01
 1.862466756641240e+00	 9.379022782786074e-01	 1.278072592973895e+01
 1.853465951876797e+00	 9.555664363092834e-01	 1.278070248486607e+01
 1.844283884284900e+00	 9.731702584895766e-01	 1.278099555982261e+01
 1.834921036847070e+00	 9.907110232587019e-01	 1.278516123127551e+01
 1.825377945849936e+00	 1.008186010930241e+00	 1.279096291790574e+01
 1.815655201014926e+00	 1.025592504973677e+00	 1.279586981733707e+01
 1.805753445591633e+00	 1.042927793304513e+00	 1.279722112197605e+01
 1.795673376414403e+00	 1.060189169581784e+00	 1.279227179081769e+01
 1.785415743921752e+00	 1.077373934511765e+00	 1.277824398217652e+01
 1.887878360228749e+00	 9.062226310171286e-01	 1.275545421188285e+01
 1.879204767510441e+00	 9.240745221196309e-01	 1.276176766945613e+01
 1.870348334738253e+00	 9.418712887475919e-01	 1.276591491091920e+01
 1.861309440410412e+00	 9.596101978791686e-01	 1.276785606207807e+01
 1.852088516187881e+00	 9.772885158313785e-01	 1.276740744760987e+01
 1.842686047096064e+00	 9.949035095263580e-01	 1.276768198890419e+01
 1.833102571691050e+00	 1.012452447768540e+00	 1.277068370608760e+01
 1.823338682189851e+00	 1.029932602531615e+00	 1.277381141787322e+01
 1.813395024564165e+00	 1.047341250254110e+00	 1.277432143338821e+01
 1.803272298597203e+00	 1.064675673142387e+00	 1.276937549427234e+01
 1.792971257903185e+00	 1.081933160479871e+00	 1.275609266616416e+01
 1.895833809199044e+00	 9.100414193731937e-01	 1.273582266215545e+01
 1.887123666284845e+00	 9.279685376784483e-01	 1.274369526568854e+01
 1.878229912835541e+00	 9.458402992166461e-01	 1.274942208986690e+01
 1.869152928944340e+00	 9.636539594491023e-01	 1.275293653333915e+01
 1.859893148091208e+00	 9.814067731732050e-01	 1.275403382469777e+01
 1.850451057345432e+00	 9.990959957940110e-01	 1.275243694069025e+01
 1.840827197532559e+00	 1.016718884606808e+00	 1.275185922840302e+01
 1.831022163365186e+00	 1.034272700089496e+00	 1.275255541336649e+01
 1.821036603537113e+00	 1.051754707203622e+00	 1.275170421724735e+01
 1.810871220780415e+00	 1.069162176702880e+00	 1.274637734463345e+01
 1.800526771885018e+00	 1.086492386447844e+00	 1.273359179828133e+01
 1.903789258169420e+00	 9.138602077292585e-01	 1.271577016815058e+01
 1.895042565059360e+00	 9.318625532372659e-01	 1.272476190965499e+01
 1.886111490932971e+00	 9.498093096857011e-01	 1.273166652693684e+01
 1.876996417478440e+00	 9.676977210190363e-01	 1.273640167582153e+01
 1.867697779994740e+00	 9.855250305150310e-01	 1.273875124752077e+01
 1.858216067595038e+00	 1.003288482061664e+00	 1.273834647735903e+01
 1.848551823374337e+00	 1.020985321445077e+00	 1.273505820449847e+01
 1.838705644540815e+00	 1.038612797647376e+00	 1.273264524123618e+01
 1.828678182510376e+00	 1.056168164153135e+00	 1.272987275984165e+01
 1.818470142963956e+00	 1.073648680263372e+00	 1.272372567862122e+01
 1.808082285867186e+00	 1.091051612415817e+00	 1.271112003281796e+01
 1.911744707139762e+00	 9.176789960852230e-01	 1.269557838854867e+01
 1.902961463833854e+00	 9.357565687959954e-01	 1.270531906706072e+01
 1.893993069030402e+00	 9.537783201546851e-01	 1.271305365515068e+01
 1.884839906012572e+00	 9.717414825889213e-01	 1.271869490832443e+01
 1.875502411898339e+00	 9.896432878568331e-01	 1.272202501084331e+01
 1.865981077844747e+00	 1.007480968329320e+00	 1.272267644183362e+01
 1.856276449216255e+00	 1.025251758283376e+00	 1.272011180004295e+01
 1.846389125716622e+00	 1.042952895205315e+00	 1.271460624665789e+01
 1.836319761483851e+00	 1.060581621102732e+00	 1.270931207986192e+01
 1.826069065147739e+00	 1.078135183823976e+00	 1.270185074034144e+01
 1.815637799849618e+00	 1.095610838383923e+00	 1.268903846093961e+01
 1.919700156109956e+00	 9.214977844409867e-01	 1.267551784211521e+01
 1.910880362608200e+00	 9.396505843545492e-01	 1.268570583548195e+01
 1.901874647127701e+00	 9.577473306235291e-01	 1.269397556889693e+01
 1.892683394546596e+00	 9.757852441587090e-01	 1.270024559963729e+01
 1.883307043801862e+00	 9.937615451985873e-01	 1.270430590844965e+01
 1.873746088094421e+00	 1.011673454596982e+00	 1.270579849741641e+01
 1.864001075058185e+00	 1.029518195121736e+00	 1.270419691069441e+01
 1.854072606892488e+00	 1.047292992763371e+00	 1.269878471183131e+01
 1.843961340457435e+00	 1.064995078052501e+00	 1.269048799736791e+01
 1.833667987331677e+00	 1.082621687384800e+00	 1.268116371508216e+01
 1.823193313832248e+00	 1.100170064352294e+00	 1.266768960435001e+01
 1.927655605079885e+00	 9.253165727964493e-01	 1.265584813893894e+01
 1.918799261382271e+00	 9.435445999128399e-01	 1.266624920613538e+01
 1.909756225224729e+00	 9.617163410921622e-01	 1.267481131063469e+01
 1.900526883080371e+00	 9.798290057283510e-01	 1.268146937452642e+01
 1.891111675705172e+00	 9.978798025402695e-01	 1.268603055271214e+01
 1.881511098343927e+00	 1.015865940864652e+00	 1.268815453721528e+01
 1.871725700899998e+00	 1.033784631960188e+00	 1.268733274929194e+01
 1.861756088068298e+00	 1.051633090321602e+00	 1.268286645267869e+01
 1.851602919431023e+00	 1.069408535002526e+00	 1.267384620057970e+01
 1.841266909515684e+00	 1.087108190945955e+00	 1.266205576140822e+01
 1.830748827815011e+00	 1.104729290321062e+00	 1.264739640786972e+01
 1.935611054049432e+00	 9.291353611515104e-01	 1.263681821087473e+01
 1.926718160155936e+00	 9.474386154707789e-01	 1.264726432421327e+01
 1.917637803321350e+00	 9.656853515605142e-01	 1.265592715565847e+01
 1.908370371613757e+00	 9.838727672977978e-01	 1.266276841741361e+01
 1.898916307608127e+00	 1.001998059881856e+00	 1.266762169161854e+01
 1.889276108593128e+00	 1.020058427132333e+00	 1.267017241610222e+01
 1.879450326741568e+00	 1.038051068798763e+00	 1.266993672354577e+01
 1.869439569243934e+00	 1.055973187880068e+00	 1.266623916704448e+01
 1.859244498404515e+00	 1.073821991952893e+00	 1.265818937401566e+01
 1.848865831699675e+00	 1.091594694507553e+00	 1.264489704160093e+01
 1.838304341797836e+00	 1.109288516290360e+00	 1.262846123095946e+01
 1.762749201980530e+00	 1.063696256605328e+00	 1.283857173084057e+01
 1.752447279254096e+00	 1.080584559137052e+00	 1.281620677916542e+01
 1.741971690479596e+00	 1.097391920967813e+00	 1.279341649328890e+01
 1.731323337608558e+00	 1.114115707809167e+00	 1.276783284466614e+01
 1.720503175193552e+00	 1.130753297576373e+00	 1.274295032277230e+01
 1.709512210216838e+00	 1.147302081686165e+00	 1.272031918904229e+01
 1.698351501880926e+00	 1.163759466353038e+00	 1.269871476440583e+01
 1.687022161360983e+00	 1.180122873882741e+00	 1.267691461747104e+01
 1.675525351519082e+00	 1.196389743961696e+00	 1.265368805330229e+01
 1.663862286580313e+00	 1.212557534941026e+00	 1.262778396862821e+01
 1.652034231770882e+00	 1.228623725113884e+00	 1.259791712145535e+01
 1.770304715960357e+00	 1.068255482574626e+00	 1.281990155599596e+01
 1.759958637025422e+00	 1.085216171924466e+00	 1.279850029941951e+01
 1.749438147673221e+00	 1.102095573644475e+00	 1.277625619256938e+01
 1.738744153721231e+00	 1.118891042155094e+00	 1.275149737491815e+01
 1.727877613813429e+00	 1.135599944132772e+00	 1.272857979581385e+01
 1.716839539248212e+00	 1.152219659813304e+00	 1.270741085795663e+01
 1.705630993768050e+00	 1.168747584293672e+00	 1.268673682094461e+01
 1.694253093310836e+00	 1.185181128831082e+00	 1.266530731081067e+01
 1.682707005722908e+00	 1.201517722137913e+00	 1.264186458048481e+01
 1.670993950433781e+00	 1.217754811671241e+00	 1.261513108057898e+01
 1.659115198092679e+00	 1.233889864915653e+00	 1.258379538915887e+01
 1.777860229940787e+00	 1.072814708543394e+00	 1.279965053412633e+01
 1.767469994797264e+00	 1.089847784711276e+00	 1.277928418239503e+01
 1.756904604867259e+00	 1.106799226320477e+00	 1.275768165718208e+01
 1.746164969834201e+00	 1.123666376500318e+00	 1.273450030819619e+01
 1.735252052433484e+00	 1.140446590688437e+00	 1.271361647641898e+01
 1.724166868279639e+00	 1.157137237939693e+00	 1.269398762906832e+01
 1.712910485655099e+00	 1.173735702233551e+00	 1.267432517016216e+01
 1.701484025260491e+00	 1.190239383778676e+00	 1.265334611192208e+01
 1.689888659926420e+00	 1.206645700313400e+00	 1.262976211602152e+01
 1.678125614286827e+00	 1.222952088400753e+00	 1.260226678606919e+01
 1.666196164413961e+00	 1.239156004716755e+00	 1.256952126065374e+01
 1.785415743921752e+00	 1.077373934511765e+00	 1.277824398217653e+01
 1.774981352569573e+00	 1.094479397497635e+00	 1.275891076765684e+01
 1.764371062061685e+00	 1.111502878995983e+00	 1.273798737465110e+01
 1.753585785947471e+00	 1.128441710845013e+00	 1.271703033207535e+01
 1.742626491053740e+00	 1.145293237243554e+00	 1.269820275054474e+01
 1.731494197311164e+00	 1.162054816065520e+00	 1.268015709375653e+01
 1.720189977542146e+00	 1.178723820172865e+00	 1.266156411966290e+01
 1.708714957210041e+00	 1.195297638725709e+00	 1.264110355708072e+01
 1.697070314129733e+00	 1.211773678488339e+00	 1.261745293680980e+01
 1.685257278139585e+00	 1.228149365129737e+00	 1.258927461189211e+01
 1.673277130734878e+00	 1.244422144517355e+00	 1.255520101697169e+01
 1.792971257903185e+00	 1.081933160479871e+00	 1.275609266616416e+01
 1.782492710342305e+00	 1.099111010283692e+00	 1.273771863021980e+01
 1.771837519256474e+00	 1.116206531671159e+00	 1.271778974006982e+01
 1.761006602061037e+00	 1.133217045189357e+00	 1.269925623175923e+01
 1.750000929674220e+00	 1.150139883798303e+00	 1.268246207662036e+01
 1.738821526342836e+00	 1.166972394190972e+00	 1.266600868664858e+01
 1.727469469429260e+00	 1.183711938111802e+00	 1.264852038556729e+01
 1.715945889159581e+00	 1.200355893672370e+00	 1.262863494965624e+01
 1.704251968332960e+00	 1.216901656662912e+00	 1.260499223780915e+01
 1.692388941992190e+00	 1.233346641858371e+00	 1.257622094560367e+01
 1.680358097055581e+00	 1.249688284317622e+00	 1.254092353394710e+01
 1.800526771885018e+00	 1.086492386447844e+00	 1.273359179828133e+01
 1.790004068115412e+00	 1.103742623069598e+00	 1.271603153520828e+01
 1.779303976451604e+00	 1.120910184346170e+00	 1.269755436391989e+01
 1.768427418174900e+00	 1.137992379533524e+00	 1.268132730586098e+01
 1.757375368294947e+00	 1.154986530352869e+00	 1.266649938817526e+01
 1.746148855374703e+00	 1.171889972316237e+00	 1.265161407854095e+01
 1.734748961316511e+00	 1.188700056050550e+00	 1.263524347918233e+01
 1.723176821109203e+00	 1.205414148618842e+00	 1.261597874399672e+01
 1.711433622536215e+00	 1.222029634837304e+00	 1.259241851660970e+01
 1.699520605844772e+00	 1.238543918586828e+00	 1.256315542424948e+01
 1.687439063376218e+00	 1.254954424117722e+00	 1.252676067858031e+01
 1.808082285867186e+00	 1.091051612415817e+00	 1.271112003281796e+01
 1.797515425888848e+00	 1.108374235855505e+00	 1.269415739204327e+01
 1.786770433647050e+00	 1.125613837021181e+00	 1.267746579505476e+01
 1.775848234289060e+00	 1.142767713877692e+00	 1.266337378286852e+01
 1.764749806915944e+00	 1.159833176907435e+00	 1.265040149756812e+01
 1.753476184406809e+00	 1.176807550441501e+00	 1.263702757074133e+01
 1.742028453203972e+00	 1.193688173989298e+00	 1.262176609531445e+01
 1.730407753059001e+00	 1.210472403565315e+00	 1.260315693107836e+01
 1.718615276739613e+00	 1.227157613011695e+00	 1.257975395979035e+01
 1.706652269697467e+00	 1.243741195315285e+00	 1.255011132480802e+01
 1.694520029696938e+00	 1.260220563917822e+00	 1.251276770694374e+01
 1.815637799849618e+00	 1.095610838383923e+00	 1.268903846093961e+01
 1.805026783662566e+00	 1.113005848641562e+00	 1.267242632627673e+01
 1.794236890842787e+00	 1.130317489696357e+00	 1.265768880035175e+01
 1.783269050403514e+00	 1.147543048222036e+00	 1.264550723827449e+01
 1.772124245537235e+00	 1.164679823462184e+00	 1.263423750078604e+01
 1.760803513439203e+00	 1.181725128566953e+00	 1.262228649079072e+01
 1.749307945091712e+00	 1.198676291928235e+00	 1.260810450217773e+01
 1.737638685009065e+00	 1.215530658511974e+00	 1.259017542587019e+01
 1.725796930943267e+00	 1.232285591186268e+00	 1.256700483101593e+01
 1.713783933550406e+00	 1.248938472043919e+00	 1.253710595630008e+01
 1.701600996017893e+00	 1.265486703718089e+00	 1.249898366358639e+01
 1.823193313832248e+00	 1.100170064352294e+00	 1.266768960435001e+01
 1.812538141436519e+00	 1.117637461427920e+00	 1.265143434389194e+01
 1.801703348038793e+00	 1.135021142371863e+00	 1.263836879757597e+01
 1.790689866518263e+00	 1.152318382566732e+00	 1.262782101235105e+01
 1.779498684158843e+00	 1.169526470017301e+00	 1.261805918328214e+01
 1.768130842471933e+00	 1.186642706692780e+00	 1.260741158952555e+01
 1.756587436979800e+00	 1.203664409867549e+00	 1.259425893285080e+01
 1.744869616959493e+00	 1.220588913459008e+00	 1.257702445636309e+01
 1.732978585147292e+00	 1.237413569361207e+00	 1.255416186082179e+01
 1.720915597403722e+00	 1.254135748772903e+00	 1.252414105351565e+01
 1.708681962339231e+00	 1.270752843518689e+00	 1.248543178239202e+01
 1.830748827815011e+00	 1.104729290321062e+00	 1.264739640786972e+01
 1.820049499210662e+00	 1.122269074214731e+00	 1.263145386224667e+01
 1.809169805235041e+00	 1.139724795047865e+00	 1.261963228840020e+01
 1.798110682633305e+00	 1.157093716911955e+00	 1.261039062855184e+01
 1.786873122780791e+00	 1.174373116572966e+00	 1.260190142682184e+01
 1.775458171505045e+00	 1.191560284819168e+00	 1.259240743944071e+01
 1.763866928868310e+00	 1.208652527807428e+00	 1.258021397823757e+01
 1.752100548910374e+00	 1.225647168406602e+00	 1.256367895421605e+01
 1.740160239351801e+00	 1.242541547536694e+00	 1.254120063803767e+01
 1.728047261257549e+00	 1.259333025502415e+00	 1.251120317231209e+01
 1.715762928661102e+00	 1.276018983319791e+00	 1.247211988885028e+01
 1.838304341797836e+00	 1.109288516290360e+00	 1.262846123095946e+01
 1.827560856984948e+00	 1.126900687002145e+00	 1.261265295186444e+01
 1.816636262431510e+00	 1.144428447724527e+00	 1.260158729157600e+01
 1.805531498748641e+00	 1.161869051257882e+00	 1.259327421252244e+01
 1.794247561403101e+00	 1.179219763129365e+00	 1.258578261730897e+01
 1.782785500538586e+00	 1.196477862946308e+00	 1.257726283431702e+01
 1.771146420757310e+00	 1.213640645748062e+00	 1.256593898148934e+01
 1.759331480861803e+00	 1.230705423354943e+00	 1.255009894697232e+01
 1.747341893556909e+00	 1.247669525712911e+00	 1.252808200280360e+01
 1.735178925112020e+00	 1.264530302232631e+00	 1.249826408643806e+01
 1.722843894983654e+00	 1.281285123121560e+00	 1.245904080369921e+01
 1.652034231770882e+00	 1.228623725113884e+00	 1.259791712145535e+01
 1.640040451489909e+00	 1.244588517196332e+00	 1.256287171825549e+01
 1.627884314974253e+00	 1.260446684185791e+00	 1.252287531722700e+01
 1.615567245443407e+00	 1.276195761384695e+00	 1.247880384962649e+01
 1.603090715360185e+00	 1.291833309028926e+00	 1.243157853926478e+01
 1.590456245878753e+00	 1.307356913517891e+00	 1.238214269276947e+01
 1.577665406256145e+00	 1.322764188630196e+00	 1.233143726014945e+01
 1.564719813227715e+00	 1.338052776723630e+00	 1.228037531070558e+01
 1.551621130347021e+00	 1.353220349918248e+00	 1.222981558096379e+01
 1.538371067290680e+00	 1.368264611261278e+00	 1.218053526210474e+01
 1.524971379128793e+00	 1.383183295872664e+00	 1.213320220423550e+01
 1.659115198092679e+00	 1.233889864915653e+00	 1.258379538915887e+01
 1.647070009945780e+00	 1.249923085456091e+00	 1.254744035922682e+01
 1.634861769671204e+00	 1.265849223885944e+00	 1.250704163296144e+01
 1.622491906588665e+00	 1.281665804943434e+00	 1.246337040110334e+01
 1.609961899472268e+00	 1.297370378407102e+00	 1.241724041562466e+01
 1.597273275996167e+00	 1.312960520331156e+00	 1.236948427690240e+01
 1.584427612143568e+00	 1.328433834266354e+00	 1.232092845004398e+01
 1.571426531579497e+00	 1.343787952465138e+00	 1.227236715884467e+01
 1.558271704987856e+00	 1.359020537069780e+00	 1.222453531785512e+01
 1.544964849373297e+00	 1.374129281282284e+00	 1.217808067418157e+01
 1.531507727328530e+00	 1.389111910514845e+00	 1.213353534083201e+01
 1.666196164413961e+00	 1.239156004716755e+00	 1.256952126065374e+01
 1.654099568401059e+00	 1.255257653715226e+00	 1.253189627082361e+01
 1.641839224367501e+00	 1.271251763585521e+00	 1.249110256276915e+01
 1.629416567733224e+00	 1.287135848501651e+00	 1.244780273986459e+01
 1.616833083583618e+00	 1.302907447784808e+00	 1.240269902394454e+01
 1.604090306112832e+00	 1.318564127144003e+00	 1.235650903138065e+01
 1.591189818030238e+00	 1.334103479902143e+00	 1.230994023616968e+01
 1.578133249930532e+00	 1.349523128206319e+00	 1.226366327201099e+01
 1.564922279627960e+00	 1.364820724221016e+00	 1.221828423772593e+01
 1.551558631455213e+00	 1.379993951303016e+00	 1.217431618186706e+01
 1.538044075527599e+00	 1.395040525156758e+00	 1.213214995289072e+01
 1.673277130734878e+00	 1.244422144517355e+00	 1.255520101697169e+01
 1.661129126855909e+00	 1.260592221973893e+00	 1.251637257794967e+01
 1.648816679063320e+00	 1.276654303284669e+00	 1.247521477050384e+01
 1.636341228877267e+00	 1.292605892059475e+00	 1.243227780832197e+01
 1.623704267694428e+00	 1.308444517162163e+00	 1.238814837776818e+01
 1.610907336228940e+00	 1.324167733956537e+00	 1.234342489463184e+01
 1.597952023916344e+00	 1.339773125537655e+00	 1.229869140471836e+01
 1.584839968281008e+00	 1.355258303947252e+00	 1.225449028382275e+01
 1.571572854267518e+00	 1.370620911372030e+00	 1.221129390538428e+01
 1.558152413536601e+00	 1.385858621323542e+00	 1.216947545597801e+01
 1.544580423726169e+00	 1.400969139798472e+00	 1.212927908966452e+01
 1.680358097055581e+00	 1.249688284317622e+00	 1.254092353394710e+01
 1.668158685310495e+00	 1.265926790232248e+00	 1.250098465043800e+01
 1.655794133758834e+00	 1.282056842983528e+00	 1.245951685575546e+01
 1.643265890020974e+00	 1.298075935617038e+00	 1.241695421555401e+01
 1.630575451804882e+00	 1.313981586539283e+00	 1.237376392787786e+01
 1.617724366344679e+00	 1.329771340768862e+00	 1.233042105212550e+01
 1.604714229802077e+00	 1.345442771172981e+00	 1.228738183761960e+01
 1.591546686631111e+00	 1.360993479688022e+00	 1.224505581095292e+01
 1.578223428906711e+00	 1.376421098522895e+00	 1.220377679442568e+01
 1.564746195617638e+00	 1.391723291343930e+00	 1.216377304012258e+01
 1.551116771924405e+00	 1.406897754440051e+00	 1.212513667538754e+01
 1.687439063376218e+00	 1.254954424117722e+00	 1.252676067858031e+01
 1.675188243764978e+00	 1.271261358490446e+00	 1.248583050790870e+01
 1.662771588454217e+00	 1.287459382682243e+00	 1.244412976544750e+01
 1.650190551164529e+00	 1.303545979174471e+00	 1.240197265390542e+01
 1.637446635915166e+00	 1.319518655916285e+00	 1.235970298217774e+01
 1.624541396460240e+00	 1.335374947581082e+00	 1.231766835784276e+01
 1.611476435687626e+00	 1.351112416808215e+00	 1.227619293392272e+01
 1.598253404981029e+00	 1.366728655428708e+00	 1.223554887277485e+01
 1.584874003545722e+00	 1.382221285673687e+00	 1.219592670352074e+01
 1.571339977698499e+00	 1.397587961364249e+00	 1.215740476203782e+01
 1.557653120122475e+00	 1.412826369081563e+00	 1.211991791410084e+01
 1.694520029696938e+00	 1.260220563917822e+00	 1.251276770694374e+01
 1.682217802219523e+00	 1.276595926748645e+00	 1.247099122596297e+01
 1.669749043149644e+00	 1.292861922380958e+00	 1.242915720659675e+01
 1.657115212308113e+00	 1.309016022731904e+00	 1.238745631660666e+01
 1.644317820025469e+00	 1.325055725293288e+00	 1.234610512648582e+01
 1.631358426575810e+00	 1.340978554393303e+00	 1.230531975657476e+01
 1.618238641573180e+00	 1.356782062443449e+00	 1.226528803195817e+01
 1.604960123330950e+00	 1.372463831169396e+00	 1.222614031176796e+01
 1.591524578184734e+00	 1.388021472824479e+00	 1.218791917347308e+01
 1.577933759779361e+00	 1.403452631384569e+00	 1.215054814573659e+01
 1.564189468320544e+00	 1.418754983723077e+00	 1.211379969535588e+01
 1.701600996017893e+00	 1.265486703718089e+00	 1.249898366358639e+01
 1.689247360674293e+00	 1.281930495006999e+00	 1.245653134367480e+01
 1.676726497845287e+00	 1.298264462079817e+00	 1.241468606020112e+01
 1.664039873451907e+00	 1.314486066289466e+00	 1.237351131638298e+01
 1.651189004135976e+00	 1.330592794670409e+00	 1.233309264620800e+01
 1.638175456691582e+00	 1.346582161205628e+00	 1.229351070702569e+01
 1.625000847458929e+00	 1.362451708078776e+00	 1.225481283225544e+01
 1.611666841681061e+00	 1.378199006910165e+00	 1.221698321466152e+01
 1.598175152823929e+00	 1.393821659975345e+00	 1.217991190502520e+01
 1.584527541860397e+00	 1.409317301404957e+00	 1.214336282444075e+01
 1.570725816518780e+00	 1.424683598364656e+00	 1.210694100076969e+01
 1.708681962339231e+00	 1.270752843518689e+00	 1.248543178239202e+01
 1.696276919129450e+00	 1.287265063265666e+00	 1.244249927234229e+01
 1.683703952541321e+00	 1.303667001778964e+00	 1.240078679622279e+01
 1.670964534596094e+00	 1.319956109847291e+00	 1.236022710502487e+01
 1.658060188246877e+00	 1.336129864047763e+00	 1.232077094886846e+01
 1.644992486807742e+00	 1.352185768018162e+00	 1.228235960569636e+01
 1.631763053345063e+00	 1.368121353714287e+00	 1.224489582119534e+01
 1.618373560031548e+00	 1.383934182651099e+00	 1.220821333429364e+01
 1.604825727463490e+00	 1.399621847126358e+00	 1.217204517739009e+01
 1.591121323941786e+00	 1.415181971425482e+00	 1.213599095427682e+01
 1.577262164717349e+00	 1.430612213006369e+00	 1.209948331140662e+01
 1.715762928661102e+00	 1.276018983319791e+00	 1.247211988885028e+01
 1.703306477585158e+00	 1.292599631524800e+00	 1.242892770546191e+01
 1.690681407237921e+00	 1.309069541478542e+00	 1.238751388963486e+01
 1.677889195740855e+00	 1.325426153405507e+00	 1.234767689389116e+01
 1.664931372358356e+00	 1.341666933425470e+00	 1.230922898747205e+01
 1.651809516924482e+00	 1.357789374831009e+00	 1.227196821152651e+01
 1.638525259231771e+00	 1.373790999350076e+00	 1.223564869537510e+01
 1.625080278382599e+00	 1.389669358392279e+00	 1.219994951216642e+01
 1.611476302103599e+00	 1.405422034277594e+00	 1.216444226748717e+01
 1.597715106023702e+00	 1.421046641446214e+00	 1.212855762871246e+01
 1.583798512916420e+00	 1.436540827648282e+00	 1.209155101596292e+01
 1.722843894983654e+00	 1.281285123121560e+00	 1.245904080369921e+01
 1.710336036041581e+00	 1.297934199784559e+00	 1.241583402989076e+01
 1.697658861935259e+00	 1.314472081178694e+00	 1.237490623750092e+01
 1.684813856886373e+00	 1.330896196964246e+00	 1.233591807531858e+01
 1.671802556470602e+00	 1.347204002803646e+00	 1.229853968467311e+01
 1.658626547041991e+00	 1.363392981644274e+00	 1.226242207127295e+01
 1.645287465119243e+00	 1.379460644986235e+00	 1.222716678666606e+01
 1.631786996734402e+00	 1.395404534133789e+00	 1.219229410167582e+01
 1.618126876744440e+00	 1.411222221429127e+00	 1.215720986986258e+01
 1.604308888106322e+00	 1.426911311467221e+00	 1.212117129371153e+01
 1.590334861116157e+00	 1.442469442290463e+00	 1.208325181973026e+01
 1.524971379128793e+00	 1.383183295872664e+00	 1.213320220423550e+01
 1.511426176825844e+00	 1.397971672900867e+00	 1.208691828757991e+01
 1.497735017846702e+00	 1.412630112807195e+00	 1.203821396596529e+01
 1.483899763637098e+00	 1.427156478805014e+00	 1.198359013790994e+01
 1.469922317758837e+00	 1.441548670520337e+00	 1.192139007717624e+01
 1.455804625010844e+00	 1.455804625010844e+00	 1.185060003704773e+01
 1.441548670520337e+00	 1.469922317758837e+00	 1.176529711150563e+01
 1.427156478805014e+00	 1.483899763637098e+00	 1.166007855828099e+01
 1.412630112807194e+00	 1.497735017846702e+00	 1.155571934912932e+01
 1.397971672900867e+00	 1.511426176825845e+00	 1.146436847005430e+01
 1.383183295872664e+00	 1.524971379128793e+00	 1.138533271690428e+01
 1.531507727328530e+00	 1.389111910514845e+00	 1.213353534083201e+01
 1.517904467438496e+00	 1.403963673638498e+00	 1.208922676394222e+01
 1.504154625271265e+00	 1.418684942702428e+00	 1.204094422193802e+01
 1.490260070251113e+00	 1.433273571761289e+00	 1.198509298233357e+01
 1.476222714098909e+00	 1.447727451438451e+00	 1.191820883096727e+01
 1.462044509949393e+00	 1.462044509949392e+00	 1.184037150522803e+01
 1.447727451438451e+00	 1.476222714098909e+00	 1.174678091162326e+01
 1.433273571761289e+00	 1.490260070251114e+00	 1.163893258761963e+01
 1.418684942702428e+00	 1.504154625271265e+00	 1.154178106731309e+01
 1.403963673638497e+00	 1.517904467438496e+00	 1.145698281800157e+01
 1.389111910514845e+00	 1.531507727328529e+00	 1.138372942510422e+01
 1.538044075527599e+00	 1.395040525156758e+00	 1.213214995289072e+01
 1.524382758050524e+00	 1.409955674375853e+00	 1.208936032716094e+01
 1.510574232695254e+00	 1.424739772597365e+00	 1.204102656793871e+01
 1.496620376864607e+00	 1.439390664717236e+00	 1.198346700626625e+01
 1.482523110438513e+00	 1.453906232356196e+00	 1.191265888718933e+01
 1.468284394887525e+00	 1.468284394887524e+00	 1.182696792991316e+01
 1.453906232356197e+00	 1.482523110438513e+00	 1.172438858650120e+01
 1.439390664717236e+00	 1.496620376864607e+00	 1.162064538667830e+01
 1.424739772597364e+00	 1.510574232695254e+00	 1.152974742307774e+01
 1.409955674375853e+00	 1.524382758050525e+00	 1.145060264103447e+01
 1.395040525156758e+00	 1.538044075527600e+00	 1.138229566495459e+01
 1.544580423726169e+00	 1.400969139798472e+00	 1.212927908966452e+01
 1.530861048662085e+00	 1.415947675113002e+00	 1.208755130692322e+01
 1.516993840118813e+00	 1.430794602492080e+00	 1.203869502775578e+01
 1.502980683477710e+00	 1.445507757672938e+00	 1.197895026859469e+01
 1.488823506777766e+00	 1.460085013273664e+00	 1.190421123526821e+01
 1.474524279825343e+00	 1.474524279825343e+00	 1.181079077243824e+01
 1.460085013273664e+00	 1.488823506777766e+00	 1.170313107332984e+01
 1.445507757672938e+00	 1.502980683477709e+00	 1.160515130623597e+01
 1.430794602492080e+00	 1.516993840118813e+00	 1.151957970332016e+01
 1.415947675113002e+00	 1.530861048662086e+00	 1.144521712117306e+01
 1.400969139798471e+00	 1.544580423726169e+00	 1.138104942473799e+01
 1.551116771924405e+00	 1.406897754440051e+00	 1.212513667538753e+01
 1.537339339273335e+00	 1.421939675850015e+00	 1.208401290566885e+01
 1.523413447542084e+00	 1.436849432386648e+00	 1.203416445080774e+01
 1.509340990090551e+00	 1.451624850628474e+00	 1.197176156503702e+01
 1.495123903116784e+00	 1.466263794190947e+00	 1.189262409238333e+01
 1.480764164762955e+00	 1.480764164762955e+00	 1.179220404043182e+01
 1.466263794190948e+00	 1.495123903116784e+00	 1.168552249222363e+01
 1.451624850628474e+00	 1.509340990090551e+00	 1.159235665872623e+01
 1.436849432386648e+00	 1.523413447542084e+00	 1.151121094836721e+01
 1.421939675850014e+00	 1.537339339273335e+00	 1.144078691776117e+01
 1.406897754440051e+00	 1.551116771924405e+00	 1.137997983124095e+01
 1.557653120122475e+00	 1.412826369081563e+00	 1.211991791410084e+01
 1.543817629884428e+00	 1.427931676586959e+00	 1.207893959627103e+01
 1.529833054965211e+00	 1.442904262281142e+00	 1.202763090292757e+01
 1.515701296703261e+00	 1.457741943583929e+00	 1.196210081225053e+01
 1.501424299455686e+00	 1.472442575108139e+00	 1.187810341875370e+01
 1.487004049700462e+00	 1.487004049700461e+00	 1.177349449326583e+01
 1.472442575108139e+00	 1.501424299455685e+00	 1.167141666999798e+01
 1.457741943583929e+00	 1.515701296703262e+00	 1.158214090817010e+01
 1.442904262281142e+00	 1.529833054965211e+00	 1.150454712897487e+01
 1.427931676586958e+00	 1.543817629884429e+00	 1.143724533090699e+01
 1.412826369081564e+00	 1.557653120122475e+00	 1.137904829899987e+01
 1.564189468320544e+00	 1.418754983723077e+00	 1.211379969535588e+01
 1.550295920495522e+00	 1.433923677323902e+00	 1.207250752066706e+01
 1.536252662388339e+00	 1.448959092175636e+00	 1.201927205815518e+01
 1.522061603315973e+00	 1.463859036539385e+00	 1.195014943299009e+01
 1.507724695794586e+00	 1.478621356025330e+00	 1.186083654059739e+01
 1.493243934637968e+00	 1.493243934637968e+00	 1.175764100407851e+01
 1.478621356025330e+00	 1.507724695794586e+00	 1.166064193607339e+01
 1.463859036539384e+00	 1.522061603315973e+00	 1.157435786114817e+01
 1.448959092175635e+00	 1.536252662388339e+00	 1.149946832434908e+01
 1.433923677323901e+00	 1.550295920495522e+00	 1.143449946591709e+01
 1.418754983723076e+00	 1.564189468320544e+00	 1.137818968050517e+01
 1.570725816518780e+00	 1.424683598364656e+00	 1.210694100076969e+01
 1.556774211106772e+00	 1.439915678060915e+00	 1.206487488941341e+01
 1.542672269811611e+00	 1.455013922070203e+00	 1.200924759150824e+01
 1.528421909928814e+00	 1.469976129494921e+00	 1.193607074228438e+01
 1.514025092133605e+00	 1.484800136942613e+00	 1.184179508236958e+01
 1.499483819575579e+00	 1.499483819575579e+00	 1.174439186089559e+01
 1.484800136942613e+00	 1.514025092133605e+00	 1.165282378195940e+01
 1.469976129494921e+00	 1.528421909928815e+00	 1.156883685878131e+01
 1.455013922070203e+00	 1.542672269811610e+00	 1.149582990115597e+01
 1.439915678060914e+00	 1.556774211106772e+00	 1.143243139869412e+01
 1.424683598364656e+00	 1.570725816518780e+00	 1.137731341733474e+01
 1.577262164717349e+00	 1.430612213006369e+00	 1.209948331140662e+01
 1.563252501718332e+00	 1.445907678798064e+00	 1.205618238213539e+01
 1.549091877235168e+00	 1.461068751964919e+00	 1.199769957270217e+01
 1.534782216541917e+00	 1.476093222450622e+00	 1.192001033460112e+01
 1.520325488472857e+00	 1.490978917860081e+00	 1.182513860573137e+01
 1.505723704513398e+00	 1.505723704513398e+00	 1.173345841819734e+01
 1.490978917860081e+00	 1.520325488472857e+00	 1.164679162937915e+01
 1.476093222450622e+00	 1.534782216541917e+00	 1.156538396968748e+01
 1.461068751964918e+00	 1.549091877235169e+00	 1.149346369349286e+01
 1.445907678798064e+00	 1.563252501718333e+00	 1.143089934206921e+01
 1.430612213006369e+00	 1.577262164717350e+00	 1.137630469218951e+01
 1.583798512916420e+00	 1.436540827648282e+00	 1.209155101596292e+01
 1.569730792330361e+00	 1.451899679535419e+00	 1.204655354884720e+01
 1.555511484659158e+00	 1.467123581859856e+00	 1.198475286079205e+01
 1.541142523155410e+00	 1.482210315406569e+00	 1.190213060173878e+01
 1.526625884812461e+00	 1.497157698777827e+00	 1.181118971752576e+01
 1.511963589451530e+00	 1.511963589451530e+00	 1.172455021431379e+01
 1.497157698777826e+00	 1.526625884812461e+00	 1.164212833105981e+01
 1.482210315406569e+00	 1.541142523155411e+00	 1.156377515567193e+01
 1.467123581859856e+00	 1.555511484659158e+00	 1.149217918379023e+01
 1.451899679535419e+00	 1.569730792330361e+00	 1.142973881304091e+01
 1.436540827648282e+00	 1.583798512916420e+00	 1.137502558180294e+01
 1.590334861116157e+00	 1.442469442290463e+00	 1.208325181973027e+01
 1.576209082943013e+00	 1.457891680273050e+00	 1.203609521211587e+01
 1.561931092083721e+00	 1.473178411755090e+00	 1.197051549970952e+01
 1.547502829769426e+00	 1.488327408362844e+00	 1.188541021291972e+01
 1.532926281152534e+00	 1.503336479695941e+00	 1.179965309216195e+01
 1.518203474390078e+00	 1.518203474390078e+00	 1.171737511471903e+01
 1.503336479695941e+00	 1.532926281152534e+00	 1.163854621384575e+01
 1.488327408362844e+00	 1.547502829769426e+00	 1.156307276109241e+01
 1.473178411755089e+00	 1.561931092083721e+00	 1.149176468461793e+01
 1.457891680273049e+00	 1.576209082943013e+00	 1.142876380089381e+01
 1.442469442290463e+00	 1.590334861116157e+00	 1.137331621069986e+01
 1.383183295872664e+00	 1.524971379128793e+00	 1.138533271690428e+01
 1.368264611261278e+00	 1.538371067290679e+00	 1.131080608936482e+01
 1.353220349918248e+00	 1.551621130347021e+00	 1.123357647421524e+01
 1.338052776723630e+00	 1.564719813227714e+00	 1.115390731154521e+01
 1.322764188630196e+00	 1.577665406256143e+00	 1.107203510135287e+01
 1.307356913517892e+00	 1.590456245878752e+00	 1.098812209691638e+01
 1.291833309028926e+00	 1.603090715360185e+00	 1.090220921761162e+01
 1.276195761384695e+00	 1.615567245443407e+00	 1.081416958769918e+01
 1.260446684185792e+00	 1.627884314974253e+00	 1.072366310430814e+01
 1.244588517196333e+00	 1.640040451489909e+00	 1.063009243162740e+01
 1.228623725113884e+00	 1.652034231770882e+00	 1.053256080922577e+01
 1.389111910514845e+00	 1.531507727328529e+00	 1.138372942510422e+01
 1.374129281282285e+00	 1.544964849373297e+00	 1.131406924389118e+01
 1.359020537069781e+00	 1.558271704987856e+00	 1.124073218944445e+01
 1.343787952465139e+00	 1.571426531579496e+00	 1.116400903739228e+01
 1.328433834266355e+00	 1.584427612143567e+00	 1.108416680638969e+01
 1.312960520331156e+00	 1.597273275996165e+00	 1.100139972332561e+01
 1.297370378407103e+00	 1.609961899472267e+00	 1.091578039883163e+01
 1.281665804943435e+00	 1.622491906588665e+00	 1.082721163261223e+01
 1.265849223885945e+00	 1.634861769671203e+00	 1.073537926480948e+01
 1.249923085456091e+00	 1.647070009945780e+00	 1.063970648329615e+01
 1.233889864915654e+00	 1.659115198092679e+00	 1.053930998752067e+01
 1.395040525156758e+00	 1.538044075527600e+00	 1.138229566495459e+01
 1.379993951303018e+00	 1.551558631455213e+00	 1.131674786075056e+01
 1.364820724221017e+00	 1.564922279627959e+00	 1.124664516619362e+01
 1.349523128206319e+00	 1.578133249930531e+00	 1.117230715976471e+01
 1.334103479902144e+00	 1.591189818030237e+00	 1.109403332043098e+01
 1.318564127144004e+00	 1.604090306112832e+00	 1.101205221039679e+01
 1.302907447784809e+00	 1.616833083583618e+00	 1.092647085783873e+01
 1.287135848501651e+00	 1.629416567733224e+00	 1.083722477247978e+01
 1.271251763585522e+00	 1.641839224367500e+00	 1.074402902353731e+01
 1.255257653715227e+00	 1.654099568401058e+00	 1.064633080316473e+01
 1.239156004716755e+00	 1.666196164413961e+00	 1.054326388904701e+01
 1.400969139798471e+00	 1.544580423726169e+00	 1.138104942473799e+01
 1.385858621323543e+00	 1.558152413536601e+00	 1.131889144201774e+01
 1.370620911372031e+00	 1.571572854267517e+00	 1.125140098712714e+01
 1.355258303947253e+00	 1.584839968281007e+00	 1.117892797847804e+01
 1.339773125537656e+00	 1.597952023916344e+00	 1.110180636887215e+01
 1.324167733956538e+00	 1.610907336228940e+00	 1.102030149038222e+01
 1.308444517162163e+00	 1.623704267694428e+00	 1.093455758770767e+01
 1.292605892059476e+00	 1.636341228877266e+00	 1.084454598653808e+01
 1.276654303284669e+00	 1.648816679063319e+00	 1.075001434012670e+01
 1.260592221973893e+00	 1.661129126855908e+00	 1.065043739076440e+01
 1.244422144517355e+00	 1.673277130734878e+00	 1.054496967319644e+01
 1.406897754440051e+00	 1.551116771924405e+00	 1.137997983124095e+01
 1.391723291343931e+00	 1.564746195617638e+00	 1.132052020117393e+01
 1.376421098522896e+00	 1.578223428906710e+00	 1.125505540458397e+01
 1.360993479688022e+00	 1.591546686631110e+00	 1.118396731076330e+01
 1.345442771172981e+00	 1.604714229802077e+00	 1.110762643604809e+01
 1.329771340768863e+00	 1.617724366344680e+00	 1.102633739427424e+01
 1.313981586539284e+00	 1.630575451804881e+00	 1.094028452298917e+01
 1.298075935617039e+00	 1.643265890020974e+00	 1.084947814597608e+01
 1.282056842983527e+00	 1.655794133758833e+00	 1.075370192931565e+01
 1.265926790232248e+00	 1.668158685310494e+00	 1.065246178159388e+01
 1.249688284317622e+00	 1.680358097055581e+00	 1.054493673903625e+01
 1.412826369081564e+00	 1.557653120122475e+00	 1.137904829899987e+01
 1.397587961364249e+00	 1.571339977698499e+00	 1.132162619815881e+01
 1.382221285673688e+00	 1.584874003545722e+00	 1.125763546210159e+01
 1.366728655428709e+00	 1.598253404981029e+00	 1.118749159995914e+01
 1.351112416808216e+00	 1.611476435687625e+00	 1.111160386181719e+01
 1.335374947581083e+00	 1.624541396460239e+00	 1.103031873703473e+01
 1.319518655916286e+00	 1.637446635915165e+00	 1.094386361436675e+01
 1.303545979174471e+00	 1.650190551164529e+00	 1.085229107883131e+01
 1.287459382682243e+00	 1.662771588454217e+00	 1.075542431691997e+01
 1.271261358490447e+00	 1.675188243764978e+00	 1.065280409504351e+01
 1.254954424117723e+00	 1.687439063376218e+00	 1.054363776608004e+01
 1.418754983723076e+00	 1.564189468320544e+00	 1.137818968050517e+01
 1.403452631384569e+00	 1.577933759779360e+00	 1.132217447532209e+01
 1.388021472824480e+00	 1.591524578184733e+00	 1.125914061674403e+01
 1.372463831169396e+00	 1.604960123330949e+00	 1.118953902487218e+01
 1.356782062443449e+00	 1.618238641573180e+00	 1.111381993864059e+01
 1.340978554393303e+00	 1.631358426575810e+00	 1.103237440310727e+01
 1.325055725293289e+00	 1.644317820025468e+00	 1.094547590334775e+01
 1.309016022731904e+00	 1.657115212308112e+00	 1.085322263463342e+01
 1.292861922380959e+00	 1.669749043149643e+00	 1.075548089523449e+01
 1.276595926748645e+00	 1.682217802219523e+00	 1.065183008138468e+01
 1.260220563917822e+00	 1.694520029696938e+00	 1.054150975372904e+01
 1.424683598364656e+00	 1.570725816518780e+00	 1.137731341733474e+01
 1.409317301404957e+00	 1.584527541860397e+00	 1.132210419424889e+01
 1.393821659975345e+00	 1.598175152823928e+00	 1.125954386220818e+01
 1.378199006910166e+00	 1.611666841681060e+00	 1.119012060978443e+01
 1.362451708078776e+00	 1.625000847458929e+00	 1.111432800913933e+01
 1.346582161205629e+00	 1.638175456691581e+00	 1.103260443220379e+01
 1.330592794670409e+00	 1.651189004135976e+00	 1.094527259698671e+01
 1.314486066289467e+00	 1.664039873451907e+00	 1.085247974880293e+01
 1.298264462079818e+00	 1.676726497845286e+00	 1.075413897787375e+01
 1.281930495007000e+00	 1.689247360674292e+00	 1.064987216785314e+01
 1.265486703718089e+00	 1.701600996017893e+00	 1.053895505942255e+01
 1.430612213006369e+00	 1.577262164717350e+00	 1.137630469218951e+01
 1.415181971425483e+00	 1.591121323941786e+00	 1.132132977343066e+01
 1.399621847126359e+00	 1.604825727463489e+00	 1.125879285268609e+01
 1.383934182651099e+00	 1.618373560031547e+00	 1.118922133508962e+01
 1.368121353714287e+00	 1.631763053345062e+00	 1.111315456411700e+01
 1.352185768018162e+00	 1.644992486807741e+00	 1.103108110535614e+01
 1.336129864047763e+00	 1.658060188246876e+00	 1.094337614263920e+01
 1.319956109847291e+00	 1.670964534596094e+00	 1.085023950681067e+01
 1.303667001778964e+00	 1.683703952541321e+00	 1.075163485407175e+01
 1.287265063265667e+00	 1.696276919129449e+00	 1.064723050384995e+01
 1.270752843518689e+00	 1.708681962339230e+00	 1.053634243553525e+01
 1.436540827648282e+00	 1.583798512916420e+00	 1.137502558180294e+01
 1.421046641446214e+00	 1.597715106023701e+00	 1.131974202675935e+01
 1.405422034277595e+00	 1.611476302103599e+00	 1.125681102745994e+01
 1.389669358392280e+00	 1.625080278382598e+00	 1.118680124853764e+01
 1.373790999350076e+00	 1.638525259231769e+00	 1.111030034103269e+01
 1.357789374831010e+00	 1.651809516924482e+00	 1.102785003122497e+01
 1.341666933425470e+00	 1.664931372358356e+00	 1.093988130274578e+01
 1.325426153405508e+00	 1.677889195740855e+00	 1.084665020810572e+01
 1.309069541478542e+00	 1.690681407237920e+00	 1.074817484245280e+01
 1.292599631524802e+00	 1.703306477585158e+00	 1.064417400528698e+01
 1.276018983319791e+00	 1.715762928661101e+00	 1.053400806505753e+01
 1.442469442290463e+00	 1.590334861116157e+00	 1.137331621069986e+01
 1.426911311467222e+00	 1.604308888106321e+00	 1.131720930281706e+01
 1.411222221429127e+00	 1.618126876744440e+00	 1.125349873620888e+01
 1.395404534133789e+00	 1.631786996734401e+00	 1.118279657707162e+01
 1.379460644986235e+00	 1.645287465119242e+00	 1.110574142291111e+01
 1.363392981644275e+00	 1.658626547041991e+00	 1.102293123265851e+01
 1.347204002803646e+00	 1.671802556470602e+00	 1.093485622964406e+01
 1.330896196964247e+00	 1.684813856886373e+00	 1.084183242981724e+01
 1.314472081178695e+00	 1.697658861935258e+00	 1.074393634429032e+01
 1.297934199784560e+00	 1.710336036041580e+00	 1.064094139810107e+01
 1.281285123121559e+00	 1.722843894983654e+00	 1.053225659609219e+01
 1.228623725113884e+00	 1.652034231770882e+00	 1.053256080922577e+01
 1.212557534941026e+00	 1.663862286580313e+00	 1.042830726602639e+01
 1.196389743961696e+00	 1.675525351519081e+00	 1.031726030677526e+01
 1.180122873882741e+00	 1.687022161360984e+00	 1.020212498547379e+01
 1.163759466353039e+00	 1.698351501880926e+00	 1.008526345834964e+01
 1.147302081686166e+00	 1.709512210216838e+00	 9.968660119266239e+00
 1.130753297576374e+00	 1.720503175193551e+00	 9.853890439531462e+00
 1.114115707809168e+00	 1.731323337608557e+00	 9.742093775588742e+00
 1.097391920967814e+00	 1.741971690479595e+00	 9.632666859041114e+00
 1.080584559137054e+00	 1.752447279254095e+00	 9.522178297532319e+00
 1.063696256605328e+00	 1.762749201980530e+00	 9.408170145207354e+00
 1.233889864915654e+00	 1.659115198092679e+00	 1.053930998752067e+01
 1.217754811671241e+00	 1.670993950433781e+00	 1.043216865201109e+01
 1.201517722137913e+00	 1.682707005722907e+00	 1.031896752708348e+01
 1.185181128831082e+00	 1.694253093310836e+00	 1.020244111091804e+01
 1.168747584293673e+00	 1.705630993768050e+00	 1.008497387534181e+01
 1.152219659813305e+00	 1.716839539248212e+00	 9.968564005153649e+00
 1.135599944132772e+00	 1.727877613813429e+00	 9.854790944391851e+00
 1.118891042155095e+00	 1.738744153721230e+00	 9.744787022543793e+00
 1.102095573644476e+00	 1.749438147673221e+00	 9.638706442670399e+00
 1.085216171924467e+00	 1.759958637025421e+00	 9.533242207646126e+00
 1.068255482574626e+00	 1.770304715960357e+00	 9.425635303501213e+00
 1.239156004716755e+00	 1.666196164413961e+00	 1.054326388904701e+01
 1.222952088400753e+00	 1.678125614286827e+00	 1.043356971787840e+01
 1.206645700313399e+00	 1.689888659926420e+00	 1.031867481453103e+01
 1.190239383778677e+00	 1.701484025260491e+00	 1.020128831077589e+01
 1.173735702233552e+00	 1.712910485655100e+00	 1.008375996735727e+01
 1.157137237939694e+00	 1.724166868279638e+00	 9.968042562717706e+00
 1.140446590688438e+00	 1.735252052433483e+00	 9.855658195521713e+00
 1.123666376500318e+00	 1.746164969834201e+00	 9.747668783591349e+00
 1.106799226320477e+00	 1.756904604867258e+00	 9.644545918899176e+00
 1.089847784711278e+00	 1.767469994797263e+00	 9.543566302325466e+00
 1.072814708543394e+00	 1.777860229940787e+00	 9.441452911496182e+00
 1.244422144517355e+00	 1.673277130734878e+00	 1.054496967319644e+01
 1.228149365129738e+00	 1.685257278139586e+00	 1.043312399954526e+01
 1.211773678488339e+00	 1.697070314129733e+00	 1.031703990342993e+01
 1.195297638725710e+00	 1.708714957210041e+00	 1.019934712663334e+01
 1.178723820172866e+00	 1.720189977542146e+00	 1.008230448803439e+01
 1.162054816065520e+00	 1.731494197311164e+00	 9.967760965493628e+00
 1.145293237243554e+00	 1.742626491053740e+00	 9.857120802733155e+00
 1.128441710845014e+00	 1.753585785947470e+00	 9.751312933540234e+00
 1.111502878995984e+00	 1.764371062061683e+00	 9.650764985571827e+00
 1.094479397497636e+00	 1.774981352569573e+00	 9.553637880178758e+00
 1.077373934511765e+00	 1.785415743921752e+00	 9.456001252270971e+00
 1.249688284317622e+00	 1.680358097055581e+00	 1.054493673903625e+01
 1.233346641858371e+00	 1.692388941992189e+00	 1.043140613962647e+01
 1.216901656662912e+00	 1.704251968332960e+00	 1.031468089694525e+01
 1.200355893672370e+00	 1.715945889159581e+00	 1.019725811888863e+01
 1.183711938111802e+00	 1.727469469429259e+00	 1.008125023996273e+01
 1.166972394190973e+00	 1.738821526342836e+00	 9.968344838360274e+00
 1.150139883798304e+00	 1.750000929674219e+00	 9.859768593591397e+00
 1.133217045189358e+00	 1.761006602061036e+00	 9.756255686825130e+00
 1.116206531671160e+00	 1.771837519256473e+00	 9.658020915238865e+00
 1.099111010283693e+00	 1.782492710342304e+00	 9.563911137783798e+00
 1.081933160479871e+00	 1.792971257903185e+00	 9.469629790269458e+00
 1.254954424117723e+00	 1.687439063376218e+00	 1.054363776608004e+01
 1.238543918586828e+00	 1.699520605844772e+00	 1.042895291704666e+01
 1.222029634837303e+00	 1.711433622536215e+00	 1.031217727681211e+01
 1.205414148618842e+00	 1.723176821109202e+00	 1.019562284812815e+01
 1.188700056050550e+00	 1.734748961316512e+00	 1.008120101956871e+01
 1.171889972316237e+00	 1.746148855374703e+00	 9.970381158087324e+00
 1.154986530352870e+00	 1.757375368294946e+00	 9.864153462082401e+00
 1.137992379533525e+00	 1.768427418174900e+00	 9.762996387067119e+00
 1.120910184346171e+00	 1.779303976451603e+00	 9.666848924359645e+00
 1.103742623069600e+00	 1.790004068115411e+00	 9.574806507774026e+00
 1.086492386447844e+00	 1.800526771885019e+00	 9.482658476416695e+00
 1.260220563917822e+00	 1.694520029696938e+00	 1.054150975372904e+01
 1.243741195315285e+00	 1.706652269697467e+00	 1.042626427501734e+01
 1.227157613011695e+00	 1.718615276739613e+00	 1.031007091131807e+01
 1.210472403565315e+00	 1.730407753059001e+00	 1.019500485487068e+01
 1.193688173989298e+00	 1.742028453203972e+00	 1.008272256066855e+01
 1.176807550441501e+00	 1.753476184406809e+00	 9.974419153039770e+00
 1.159833176907436e+00	 1.764749806915944e+00	 9.870790217111082e+00
 1.142767713877693e+00	 1.775848234289059e+00	 9.771998297310878e+00
 1.125613837021182e+00	 1.786770433647050e+00	 9.677644392551372e+00
 1.108374235855506e+00	 1.797515425888847e+00	 9.586709999775529e+00
 1.091051612415817e+00	 1.808082285867185e+00	 9.495377057426067e+00
 1.265486703718089e+00	 1.701600996017893e+00	 1.053895505942255e+01
 1.248938472043919e+00	 1.713783933550405e+00	 1.042380434742426e+01
 1.232285591186269e+00	 1.725796930943267e+00	 1.030886706160197e+01
 1.215530658511975e+00	 1.737638685009066e+00	 1.019593063772970e+01
 1.198676291928235e+00	 1.749307945091711e+00	 1.008634347672985e+01
 1.181725128566953e+00	 1.760803513439203e+00	 9.980971202064572e+00
 1.164679823462185e+00	 1.772124245537235e+00	 9.880157430833080e+00
 1.147543048222037e+00	 1.783269050403514e+00	 9.783689390921396e+00
 1.130317489696358e+00	 1.794236890842786e+00	 9.690768683171967e+00
 1.113005848641563e+00	 1.805026783662565e+00	 9.599987452176014e+00
 1.095610838383923e+00	 1.815637799849618e+00	 9.508044389175922e+00
 1.270752843518689e+00	 1.708681962339230e+00	 1.053634243553525e+01
 1.254135748772903e+00	 1.720915597403722e+00	 1.042200248367398e+01
 1.237413569361207e+00	 1.732978585147291e+00	 1.030903538631797e+01
 1.220588913459008e+00	 1.744869616959493e+00	 1.019889063003761e+01
 1.203664409867549e+00	 1.756587436979800e+00	 1.009255620187805e+01
 1.186642706692780e+00	 1.768130842471933e+00	 9.990513732583505e+00
 1.169526470017301e+00	 1.779498684158842e+00	 9.892698286827098e+00
 1.152318382566733e+00	 1.790689866518262e+00	 9.798463143118576e+00
 1.135021142371864e+00	 1.801703348038791e+00	 9.706549871799201e+00
 1.117637461427922e+00	 1.812538141436519e+00	 9.615063983235954e+00
 1.100170064352294e+00	 1.823193313832249e+00	 9.520887754032595e+00
 1.276018983319791e+00	 1.715762928661101e+00	 1.053400806505753e+01
 1.259333025502415e+00	 1.728047261257548e+00	 1.042125427204119e+01
 1.242541547536694e+00	 1.740160239351801e+00	 1.031101094471112e+01
 1.225647168406602e+00	 1.752100548910374e+00	 1.020434017497720e+01
 1.208652527807429e+00	 1.763866928868309e+00	 1.010181793068378e+01
 1.191560284819169e+00	 1.775458171505045e+00	 1.000348811791460e+01
 1.174373116572967e+00	 1.786873122780790e+00	 9.908821428110237e+00
 1.157093716911956e+00	 1.798110682633304e+00	 9.816679323133188e+00
 1.139724795047866e+00	 1.809169805235040e+00	 9.725283476261840e+00
 1.122269074214732e+00	 1.820049499210662e+00	 9.632190949825731e+00
 1.104729290321062e+00	 1.830748827815010e+00	 9.534102182006329e+00
 1.281285123121559e+00	 1.722843894983654e+00	 1.053225659609219e+01
 1.264530302232631e+00	 1.735178925112020e+00	 1.042192256156216e+01
 1.247669525712911e+00	 1.747341893556909e+00	 1.031519519815119e+01
 1.230705423354944e+00	 1.759331480861804e+00	 1.021270049926288e+01
 1.213640645748062e+00	 1.771146420757310e+00	 1.011455155676628e+01
 1.196477862946308e+00	 1.782785500538586e+00	 1.002030157384486e+01
 1.179219763129366e+00	 1.794247561403101e+00	 9.928901805001132e+00
 1.161869051257883e+00	 1.805531498748640e+00	 9.838664786964479e+00
 1.144428447724528e+00	 1.816636262431509e+00	 9.747233188178622e+00
 1.126900687002146e+00	 1.827560856984948e+00	 9.651554566293560e+00
 1.109288516290361e+00	 1.838304341797836e+00	 9.547849775625362e+00
 1.063696256605328e+00	 1.762749201980530e+00	 9.408170145207354e+00
 1.046729658898207e+00	 1.772876609869357e+00	 9.298762972243592e+00
 1.029687422454353e+00	 1.782828708677572e+00	 9.200830396364351e+00
 1.012572212298925e+00	 1.792604757493784e+00	 9.109580099661519e+00
 9.953867004148546e-01	 1.802204068330247e+00	 9.020080406931221e+00
 9.781335644556902e-01	 1.811626006103685e+00	 8.927359944490796e+00
 9.608154864645549e-01	 1.820869988579429e+00	 8.826502918904563e+00
 9.434351516004084e-01	 1.829935486279232e+00	 8.712739585319854e+00
 9.259952468727801e-01	 1.838822022353227e+00	 8.581531515130257e+00
 9.084984598861195e-01	 1.847529172416485e+00	 8.428651313960676e+00
 8.909474775948772e-01	 1.856056564350709e+00	 8.256151607541641e+00
 1.068255482574626e+00	 1.770304715960357e+00	 9.425635303501213e+00
 1.051216162459804e+00	 1.780475532050394e+00	 9.323652914520830e+00
 1.034100879404719e+00	 1.790470287648233e+00	 9.233212902234932e+00
 1.016912309857390e+00	 1.800288238666776e+00	 9.148563376113881e+00
 9.996531372534292e-01	 1.809928694169406e+00	 9.063801744263573e+00
 9.823260507233711e-01	 1.819391016350745e+00	 8.972978346545863e+00
 9.649337438061413e-01	 1.828674620480534e+00	 8.870195569539405e+00
 9.474789131698553e-01	 1.837778974811066e+00	 8.749702000203092e+00
 9.299642573411318e-01	 1.846703600448590e+00	 8.605981216241872e+00
 9.123924754440587e-01	 1.855448071189167e+00	 8.437775401478580e+00
 8.947662659499381e-01	 1.864012013319517e+00	 8.277537284800383e+00
 1.072814708543394e+00	 1.777860229940787e+00	 9.441452911496182e+00
 1.055702666020960e+00	 1.788074454232105e+00	 9.345414166990968e+00
 1.038514336354744e+00	 1.798111866619622e+00	 9.260306339073134e+00
 1.021252407415621e+00	 1.807971719840528e+00	 9.179494406335419e+00
 1.003919574091881e+00	 1.817653320009344e+00	 9.096184279366696e+00
 9.865185369910409e-01	 1.827156026598584e+00	 9.003530328788333e+00
 9.690520011478235e-01	 1.836479252382404e+00	 8.894738251420588e+00
 9.515226747394969e-01	 1.845622463343634e+00	 8.763162818636124e+00
 9.339332678097648e-01	 1.854585178544640e+00	 8.604461710309833e+00
 9.162864910023489e-01	 1.863366969962473e+00	 8.446636912368110e+00
 8.985850543054007e-01	 1.871967462288870e+00	 8.301973754107685e+00
 1.077373934511765e+00	 1.785415743921752e+00	 9.456001252270971e+00
 1.060189169581784e+00	 1.795673376414403e+00	 9.364325980215106e+00
 1.042927793304513e+00	 1.805753445591633e+00	 9.282327024098322e+00
 1.025592504973677e+00	 1.815655201014926e+00	 9.202561214703332e+00
 1.008186010930241e+00	 1.825377945849935e+00	 9.117420915399119e+00
 9.907110232587029e-01	 1.834921036847070e+00	 9.019245367929145e+00
 9.731702584895774e-01	 1.844283884284899e+00	 8.900427226918191e+00
 9.555664363092848e-01	 1.853465951876796e+00	 8.754153574333831e+00
 9.379022782786087e-01	 1.862466756641239e+00	 8.602416058509997e+00
 9.201805065609027e-01	 1.871285868736273e+00	 8.460011674365317e+00
 9.024038426611642e-01	 1.879922911258652e+00	 8.328405343713243e+00
 1.081933160479871e+00	 1.792971257903185e+00	 9.469629790269458e+00
 1.064675673142387e+00	 1.803272298597202e+00	 9.380642897140115e+00
 1.047341250254111e+00	 1.813395024564164e+00	 9.299470055513096e+00
 1.029932602531616e+00	 1.823338682189851e+00	 9.217933487799268e+00
 1.012452447768540e+00	 1.833102571691049e+00	 9.127688507117668e+00
 9.949035095263590e-01	 1.842686047096064e+00	 9.020338605892480e+00
 9.772885158313799e-01	 1.852088516187880e+00	 8.887555094552365e+00
 9.596101978791698e-01	 1.861309440410411e+00	 8.743444623923537e+00
 9.418712887475928e-01	 1.870348334738252e+00	 8.606246506130176e+00
 9.240745221196324e-01	 1.879204767510440e+00	 8.476700819508453e+00
 9.062226310171289e-01	 1.887878360228749e+00	 8.355784744188334e+00
 1.086492386447844e+00	 1.800526771885019e+00	 9.482658476416695e+00
 1.069162176702880e+00	 1.810871220780415e+00	 9.394594028737830e+00
 1.051754707203623e+00	 1.821036603537113e+00	 9.311908571464375e+00
 1.034272700089496e+00	 1.831022163365186e+00	 9.225761829041625e+00
 1.016718884606809e+00	 1.840827197532559e+00	 9.127147123076551e+00
 9.990959957940119e-01	 1.850451057345432e+00	 9.007010131016326e+00
 9.814067731732061e-01	 1.859893148091208e+00	 8.870821908861473e+00
 9.636539594491035e-01	 1.869152928944339e+00	 8.739862566281603e+00
 9.458402992166475e-01	 1.878229912835541e+00	 8.614642542142038e+00
 9.279685376784500e-01	 1.887123666284845e+00	 8.495516587518367e+00
 9.100414193731938e-01	 1.895833809199044e+00	 8.383073020373198e+00
 1.091051612415817e+00	 1.808082285867185e+00	 9.495377057426067e+00
 1.073648680263373e+00	 1.818470142963956e+00	 9.406382335084865e+00
 1.056168164153135e+00	 1.828678182510376e+00	 9.319793015370616e+00
 1.038612797647377e+00	 1.838705644540815e+00	 9.226177020295948e+00
 1.020985321445077e+00	 1.848551823374337e+00	 9.115939315112996e+00
 1.003288482061665e+00	 1.858216067595038e+00	 8.987493006838424e+00
 9.855250305150323e-01	 1.867697779994740e+00	 8.862345456134619e+00
 9.676977210190376e-01	 1.876996417478440e+00	 8.742016596539523e+00
 9.498093096857024e-01	 1.886111490932969e+00	 8.626307008500081e+00
 9.318625532372673e-01	 1.895042565059359e+00	 8.515282299161663e+00
 9.138602077292586e-01	 1.903789258169420e+00	 8.409239626740177e+00
 1.095610838383923e+00	 1.815637799849618e+00	 9.508044389175922e+00
 1.078135183823976e+00	 1.826069065147739e+00	 9.416183911724751e+00
 1.060581621102733e+00	 1.836319761483851e+00	 9.323250407428233e+00
 1.042952895205316e+00	 1.846389125716622e+00	 9.219289290259187e+00
 1.025251758283376e+00	 1.856276449216254e+00	 9.097608445640006e+00
 1.007480968329322e+00	 1.865981077844747e+00	 8.976813706734150e+00
 9.896432878568346e-01	 1.875502411898338e+00	 8.860685738213565e+00
 9.717414825889225e-01	 1.884839906012572e+00	 8.748531017336788e+00
 9.537783201546869e-01	 1.893993069030402e+00	 8.639956046405549e+00
 9.357565687959974e-01	 1.902961463833853e+00	 8.534832334170119e+00
 9.176789960852232e-01	 1.911744707139762e+00	 8.433262426072867e+00
 1.100170064352294e+00	 1.823193313832249e+00	 9.520887754032595e+00
 1.082621687384800e+00	 1.833667987331677e+00	 9.424147281153903e+00
 1.064995078052501e+00	 1.843961340457434e+00	 9.322383622116904e+00
 1.047292992763372e+00	 1.854072606892489e+00	 9.205929474566537e+00
 1.029518195121736e+00	 1.864001075058184e+00	 9.087394141053364e+00
 1.011673454596983e+00	 1.873746088094420e+00	 8.973936246601284e+00
 9.937615451985884e-01	 1.883307043801862e+00	 8.864419137795322e+00
 9.757852441587102e-01	 1.892683394546595e+00	 8.758045169113398e+00
 9.577473306235308e-01	 1.901874647127700e+00	 8.654319047981236e+00
 9.396505843545510e-01	 1.910880362608200e+00	 8.553012113589961e+00
 9.214977844409867e-01	 1.919700156109956e+00	 8.454127711366805e+00
 1.104729290321062e+00	 1.830748827815010e+00	 9.534102182006329e+00
 1.087108190945956e+00	 1.841266909515684e+00	 9.430392689284604e+00
 1.069408535002526e+00	 1.851602919431023e+00	 9.317270671526348e+00
 1.051633090321603e+00	 1.861756088068297e+00	 9.198643352479932e+00
 1.033784631960189e+00	 1.871725700899998e+00	 9.085868967970251e+00
 1.015865940864653e+00	 1.881511098343927e+00	 8.977419426685874e+00
 9.978798025402706e-01	 1.891111675705171e+00	 8.872138343514129e+00
 9.798290057283521e-01	 1.900526883080370e+00	 8.769213366383765e+00
 9.617163410921636e-01	 1.909756225224728e+00	 8.668138613199352e+00
 9.435445999128415e-01	 1.918799261382270e+00	 8.568678086427667e+00
 9.253165727964494e-01	 1.927655605079884e+00	 8.470830230857270e+00
 1.109288516290361e+00	 1.838304341797836e+00	 9.547849775625362e+00
 1.091594694507553e+00	 1.848865831699674e+00	 9.435011406737605e+00
 1.073821991952893e+00	 1.859244498404515e+00	 9.315017659967030e+00
 1.055973187880068e+00	 1.869439569243934e+00	 9.200836947691796e+00
 1.038051068798763e+00	 1.879450326741568e+00	 9.091604158625415e+00
 1.020058427132334e+00	 1.889276108593128e+00	 8.985839160397749e+00
 1.001998059881857e+00	 1.898916307608127e+00	 8.882452281314325e+00
 9.838727672977994e-01	 1.908370371613757e+00	 8.780704839824315e+00
 9.656853515605157e-01	 1.917637803321349e+00	 8.680170511914337e+00
 9.474386154707806e-01	 1.926718160155935e+00	 8.580697720473854e+00
 9.291353611515103e-01	 1.935611054049432e+00	 8.482373216083852e+00
 8.909474775948772e-01	 1.856056564350709e+00	 8.256151607541641e+00
 8.733419880877556e-01	 1.864405281657153e+00	 8.099138348503475e+00
 8.556876532658938e-01	 1.872573589764845e+00	 7.962244087223152e+00
 8.379871512822794e-01	 1.880561270422445e+00	 7.842473833909966e+00
 8.202431548190318e-01	 1.888368156547483e+00	 7.736902307535511e+00
 8.024583299111965e-01	 1.895994131863790e+00	 7.642655933982518e+00
 7.846353347873413e-01	 1.903439130507890e+00	 7.556896142926908e+00
 7.667768187278625e-01	 1.910703136605119e+00	 7.476804008002527e+00
 7.488854209418633e-01	 1.917786183816243e+00	 7.399566263161933e+00
 7.309637694634429e-01	 1.924688354855402e+00	 7.322250994024758e+00
 7.130144800681852e-01	 1.931409780980207e+00	 7.241539486976249e+00
 8.947662659499381e-01	 1.864012013319517e+00	 8.277537284800383e+00
 8.770853156105543e-01	 1.872396514985003e+00	 8.134790748368644e+00
 8.593553105951380e-01	 1.880599834179922e+00	 8.007714162683104e+00
 8.415789405357927e-01	 1.888621751717463e+00	 7.893790433034077e+00
 8.237588895703066e-01	 1.896462099799010e+00	 7.790585051995070e+00
 8.058978351609019e-01	 1.904120761650014e+00	 7.695726810748704e+00
 7.879984469298640e-01	 1.911597671124698e+00	 7.606889853897153e+00
 7.700633855129519e-01	 1.918892812280358e+00	 7.521777124319965e+00
 7.520953014314652e-01	 1.926006218922042e+00	 7.438105232638870e+00
 7.340968339838003e-01	 1.932937974118424e+00	 7.353542837675134e+00
 7.160706101572966e-01	 1.939688209689715e+00	 7.265375219132925e+00
 8.985850543054007e-01	 1.871967462288870e+00	 8.301973754107685e+00
 8.808286431337827e-01	 1.880387748313307e+00	 8.171223039216764e+00
 8.630229679248178e-01	 1.888626078595345e+00	 8.052259557318830e+00
 8.451707297897312e-01	 1.896682233012714e+00	 7.943002479286530e+00
 8.272746243219822e-01	 1.904556043050652e+00	 7.841464752319335e+00
 8.093373404109732e-01	 1.912247391436232e+00	 7.745732592994420e+00
 7.913615590727103e-01	 1.919756211741379e+00	 7.653946370849999e+00
 7.733499522983188e-01	 1.927082487955355e+00	 7.564282930938516e+00
 7.553051819212977e-01	 1.934226254027489e+00	 7.474939391421305e+00
 7.372298985043443e-01	 1.941187593380994e+00	 7.384105770708878e+00
 7.191267402465555e-01	 1.947966638398685e+00	 7.289631697070643e+00
 9.024038426611642e-01	 1.879922911258652e+00	 8.328405343713243e+00
 8.845719706573320e-01	 1.888378981641964e+00	 8.207535611516564e+00
 8.666906252548241e-01	 1.896652323011041e+00	 8.095114437840751e+00
 8.487625190439888e-01	 1.904742714308148e+00	 7.989456265157809e+00
 8.307903590739594e-01	 1.912649986302385e+00	 7.888978818641015e+00
 8.127768456613212e-01	 1.920374021222447e+00	 7.792181448764778e+00
 7.947246712158034e-01	 1.927914752357966e+00	 7.697624913802760e+00
 7.766365190839010e-01	 1.935272163630169e+00	 7.603912652407027e+00
 7.585150624113142e-01	 1.942446289132672e+00	 7.509673583705165e+00
 7.403629630250433e-01	 1.949437212643225e+00	 7.413546338017021e+00
 7.221828703359465e-01	 1.956245067107251e+00	 7.313908522567463e+00
 9.062226310171289e-01	 1.887878360228749e+00	 8.355784744188336e+00
 8.883152981810960e-01	 1.896370214970877e+00	 8.242834429793300e+00
 8.703582825850489e-01	 1.904678567426931e+00	 8.135516151624099e+00
 8.523543082984606e-01	 1.912803195603714e+00	 8.032499256055974e+00
 8.343060938261400e-01	 1.920743929554184e+00	 7.932564202391557e+00
 8.162163509118578e-01	 1.928500651008666e+00	 7.834579822115376e+00
 7.980877833590678e-01	 1.936073292974493e+00	 7.737482069757876e+00
 7.799230858696367e-01	 1.943461839304863e+00	 7.640254317163635e+00
 7.617249429014677e-01	 1.950666324237680e+00	 7.541909229825444e+00
 7.434960275458669e-01	 1.957686831905231e+00	 7.441472251115773e+00
 7.252390004254544e-01	 1.964523495815548e+00	 7.337798081730529e+00
 9.100414193731938e-01	 1.895833809199044e+00	 8.383073020373198e+00
 8.920586257049673e-01	 1.904361448299948e+00	 8.276231088499038e+00
 8.740259399153831e-01	 1.912704811842939e+00	 8.172705318651326e+00
 8.559460975530405e-01	 1.920863676899360e+00	 8.071480210692078e+00
 8.378218285784246e-01	 1.928837872806025e+00	 7.971657537725322e+00
 8.196558561624937e-01	 1.936627280794890e+00	 7.872432588399152e+00
 8.014508955024269e-01	 1.944231833590993e+00	 7.773071954907394e+00
 7.832096526554635e-01	 1.951651514979499e+00	 7.672892919949461e+00
 7.649348233917118e-01	 1.958886359342598e+00	 7.571244482407707e+00
 7.466290920667832e-01	 1.965936451167123e+00	 7.467490048276938e+00
 7.282951305150627e-01	 1.972801924523710e+00	 7.360885986070351e+00
 9.138602077292586e-01	 1.903789258169420e+00	 8.409239626740177e+00
 8.958019532288388e-01	 1.912352681629080e+00	 8.306842870008646e+00
 8.776935972457179e-01	 1.920731056258989e+00	 8.205925924488350e+00
 8.595378868076224e-01	 1.928924158195032e+00	 8.105749301603144e+00
 8.413375633307147e-01	 1.936931816057884e+00	 8.005695282373043e+00
 8.230953614131402e-01	 1.944753910581124e+00	 7.905243208462283e+00
 8.048140076458048e-01	 1.952390374207497e+00	 7.803946375406651e+00
 7.864962194413198e-01	 1.959841190654135e+00	 7.701410582624918e+00
 7.681447038819993e-01	 1.967106394447518e+00	 7.597274380919481e+00
 7.497621565877620e-01	 1.974186070429015e+00	 7.491191044569925e+00
 7.313512606047566e-01	 1.981080353231873e+00	 7.382751512455144e+00
 9.176789960852232e-01	 1.911744707139762e+00	 8.433262426072867e+00
 8.995452807526031e-01	 1.920343914958172e+00	 8.333792804676134e+00
 8.813612545759445e-01	 1.928757300675005e+00	 8.234425414262972e+00
 8.631296760621006e-01	 1.936984639490681e+00	 8.134658235807505e+00
 8.448532980829121e-01	 1.945025759309737e+00	 8.034113857947942e+00
 8.265348666637092e-01	 1.952880540367373e+00	 7.932513881785685e+00
 8.081771197891249e-01	 1.960548914824041e+00	 7.829654986760964e+00
 7.897827862271437e-01	 1.968030866328837e+00	 7.725386713432503e+00
 7.713545843722842e-01	 1.975326429552527e+00	 7.619591004672397e+00
 7.528952211087722e-01	 1.982435689691021e+00	 7.512163532799515e+00
 7.344073906945200e-01	 1.989358781940170e+00	 7.402968041977600e+00
 9.214977844409867e-01	 1.919700156109956e+00	 8.454127711366809e+00
 9.032886082761531e-01	 1.928335148287128e+00	 8.356209732893982e+00
 8.850289119059546e-01	 1.936783545090909e+00	 8.257454787618498e+00
 8.667214653163703e-01	 1.945045120786256e+00	 8.157560375591336e+00
 8.483690328349168e-01	 1.953119702561557e+00	 8.056349789714446e+00
 8.299743719141109e-01	 1.961007170153640e+00	 7.953745698600039e+00
 8.115402319323108e-01	 1.968707455440654e+00	 7.849745451863918e+00
 7.930693530128730e-01	 1.976220542003663e+00	 7.744398164755717e+00
 7.745644648625198e-01	 1.983546464657714e+00	 7.637783624314604e+00
 7.560282856297825e-01	 1.990685308953253e+00	 7.529993044843006e+00
 7.374635207843369e-01	 1.997637210648736e+00	 7.421103497762847e+00
 9.253165727964494e-01	 1.927655605079884e+00	 8.470830230857274e+00
 9.070319357993816e-01	 1.936326381615849e+00	 8.373228369097752e+00
 8.886965692356391e-01	 1.944809789506627e+00	 8.274268694610377e+00
 8.703132545703250e-01	 1.953105602081704e+00	 8.173810859420874e+00
 8.518847675866309e-01	 1.961213645813324e+00	 8.071839845836688e+00
 8.334138771642573e-01	 1.969133799939929e+00	 7.968438791003316e+00
 8.149033440752865e-01	 1.976865996057371e+00	 7.863763597726446e+00
 7.963559197984457e-01	 1.984410217678674e+00	 7.758019389413547e+00
 7.777743453526587e-01	 1.991766499763165e+00	 7.651438851860870e+00
 7.591613501507617e-01	 1.998934928215824e+00	 7.544262489803103e+00
 7.405196508741924e-01	 2.005915639357707e+00	 7.436720781751788e+00
 9.291353611515103e-01	 1.935611054049432e+00	 8.482373216083852e+00
 9.107752633221814e-01	 1.944317614944239e+00	 8.383989367658060e+00
 8.923642265648896e-01	 1.952836033922081e+00	 8.284125532523984e+00
 8.739050438238596e-01	 1.961166083376974e+00	 8.182766722976403e+00
 8.554005023379557e-01	 1.969307589065009e+00	 8.080021176125019e+00
 8.368533824140600e-01	 1.977260429726245e+00	 7.976092483113251e+00
 8.182664562179768e-01	 1.985024536674226e+00	 7.871253570935175e+00
 7.996424865837999e-01	 1.992599893353934e+00	 7.765822595534103e+00
 7.809842258426549e-01	 1.999986534868971e+00	 7.660140789301236e+00
 7.622944146716795e-01	 2.007184547478847e+00	 7.554552290879327e+00
 7.435757809640703e-01	 2.014194068067215e+00	 7.449385970389168e+00
 7.130144800681852e-01	 1.931409780980207e+00	 7.241539486976245e+00
 6.950432123525723e-01	 1.937949544745086e+00	 7.157409873182574e+00
 6.770495036445784e-01	 1.944309029523059e+00	 7.071427198916359e+00
 6.590359245652068e-01	 1.950488507423679e+00	 6.983585439211391e+00
 6.410050294055939e-01	 1.956488296771135e+00	 6.894120434872830e+00
 6.229593551559293e-01	 1.962308761470184e+00	 6.803455582590802e+00
 6.049014205584760e-01	 1.967950310349670e+00	 6.712152786840823e+00
 5.868337251852073e-01	 1.973413396484584e+00	 6.620868532496091e+00
 5.687587485405474e-01	 1.978698516497631e+00	 6.530314906269308e+00
 5.506789491896580e-01	 1.983806209841261e+00	 6.441225367064491e+00
 5.325967639126695e-01	 1.988737058061177e+00	 6.354325040069006e+00
 7.160706101572966e-01	 1.939688209689715e+00	 7.265375219132925e+00
 6.980223138066514e-01	 1.946256004257983e+00	 7.174255568488399e+00
 6.799514802767430e-01	 1.952642747125680e+00	 7.082119388530899e+00
 6.618606912068142e-01	 1.958848711568683e+00	 6.989012305504623e+00
 6.437525118362473e-01	 1.964874217275590e+00	 6.895211365377596e+00
 6.256294900293229e-01	 1.970719629710934e+00	 6.801170499769587e+00
 6.074941553241796e-01	 1.976385359455892e+00	 6.707471436622922e+00
 5.893490180064991e-01	 1.981871861527434e+00	 6.614779906292999e+00
 5.711965682083997e-01	 1.987179634676896e+00	 6.523806962117408e+00
 5.530392750329859e-01	 1.992309220668944e+00	 6.435275205721473e+00
 5.348795857049577e-01	 1.997261203541909e+00	 6.349889681431555e+00
 7.191267402465555e-01	 1.947966638398685e+00	 7.289631697070643e+00
 7.010014152608480e-01	 1.954562463770271e+00	 7.192686775301561e+00
 6.828534569090022e-01	 1.960976464727635e+00	 7.095472382689287e+00
 6.646854578484978e-01	 1.967208915712976e+00	 6.998072965475456e+00
 6.464999942669621e-01	 1.973260137779301e+00	 6.900793712825749e+00
 6.282996249027640e-01	 1.979130497950916e+00	 6.804105819473366e+00
 6.100868900899165e-01	 1.984820408561330e+00	 6.708597380309177e+00
 5.918643108278066e-01	 1.990330326569490e+00	 6.614929759119098e+00
 5.736343878762455e-01	 1.995660752855363e+00	 6.523799241192729e+00
 5.553996008762799e-01	 2.000812231495826e+00	 6.435903749978594e+00
 5.371624074971756e-01	 2.005785349021840e+00	 6.351914381397873e+00
 7.221828703359465e-01	 1.956245067107251e+00	 7.313908522567463e+00
 7.039805167151613e-01	 1.962868923282101e+00	 7.212291422700888e+00
 6.857554335413678e-01	 1.969310182329089e+00	 7.111068476089194e+00
 6.675102244902829e-01	 1.975569119856737e+00	 7.010350184053642e+00
 6.492474766977752e-01	 1.981646058282454e+00	 6.910456856834480e+00
 6.309697597763010e-01	 1.987541366190324e+00	 6.811863694284095e+00
 6.126796248557453e-01	 1.993255457666180e+00	 6.715151690069980e+00
 5.943796036492004e-01	 1.998788791610951e+00	 6.620964192857409e+00
 5.760722075441662e-01	 2.004141871033232e+00	 6.529968924609415e+00
 5.577599267196307e-01	 2.009315242322109e+00	 6.442825225802029e+00
 5.394452292894243e-01	 2.014309494501172e+00	 6.360156270126708e+00
 7.252390004254544e-01	 1.964523495815548e+00	 7.337798081730531e+00
 7.069596181695899e-01	 1.971175382793628e+00	 7.232650069748495e+00
 6.886574101738531e-01	 1.977643899930212e+00	 7.128482446021935e+00
 6.703349911321946e-01	 1.983929324000142e+00	 7.025419066832523e+00
 6.519949591287238e-01	 1.990031978785234e+00	 6.923782379395060e+00
 6.336398946499827e-01	 1.995952234429347e+00	 6.824038342373567e+00
 6.152723596217269e-01	 2.001690506770640e+00	 6.726747365936123e+00
 5.968948964707501e-01	 2.007247256652015e+00	 6.632521095834629e+00
 5.785100272122423e-01	 2.012622989210702e+00	 6.541984831781416e+00
 5.601202525631289e-01	 2.017818253147991e+00	 6.455745339274192e+00
 5.417280510818046e-01	 2.022833639980103e+00	 6.374363786081661e+00
 7.282951305150627e-01	 1.972801924523710e+00	 7.360885986070355e+00
 7.099387196241320e-01	 1.979481842305000e+00	 7.253336305622147e+00
 6.915593868064692e-01	 1.985977617531167e+00	 7.147281914065261e+00
 6.731597577742576e-01	 1.992289528143369e+00	 7.042847385882492e+00
 6.547424415598457e-01	 1.998417899287829e+00	 6.940344357413422e+00
 6.363100295238585e-01	 2.004363102668178e+00	 6.840216309421288e+00
 6.178650943879204e-01	 2.010125555874903e+00	 6.742989569791447e+00
 5.994101892925267e-01	 2.015705721692881e+00	 6.649230351612778e+00
 5.809478468805542e-01	 2.021104107387972e+00	 6.559507606775949e+00
 5.624805784068659e-01	 2.026321263973674e+00	 6.474361443293176e+00
 5.440108728744172e-01	 2.031357785458835e+00	 6.394276825895174e+00
 7.313512606047566e-01	 1.981080353231873e+00	 7.382751512455144e+00
 7.129178210787871e-01	 1.987788301816374e+00	 7.273917148997924e+00
 6.944613634392295e-01	 1.994311335132122e+00	 7.167027707363520e+00
 6.759845244164977e-01	 2.000649732286595e+00	 7.062195905443819e+00
 6.574899239911773e-01	 2.006803819790424e+00	 6.959709655384238e+00
 6.389801643979762e-01	 2.012773970907008e+00	 6.859976730879859e+00
 6.204578291543853e-01	 2.018560604979166e+00	 6.763475859874684e+00
 6.019254821146002e-01	 2.024164186733747e+00	 6.670714048416436e+00
 5.833856665491830e-01	 2.029585225565243e+00	 6.582189905380289e+00
 5.648409042509318e-01	 2.034824274799356e+00	 6.498362705024959e+00
 5.462936946673629e-01	 2.039881930937566e+00	 6.419626894968156e+00
 7.344073906945200e-01	 1.989358781940170e+00	 7.402968041977600e+00
 7.158969225335540e-01	 1.996094761327899e+00	 7.293953446709036e+00
 6.973633400721461e-01	 2.002645052733242e+00	 7.187274219504944e+00
 6.788092910589397e-01	 2.009009936430000e+00	 7.083018707504102e+00
 6.602374064227566e-01	 2.015189740293205e+00	 6.981438218192363e+00
 6.416502992723850e-01	 2.021184839146032e+00	 6.882891594570026e+00
 6.230505639211821e-01	 2.026995654083625e+00	 6.787796425778697e+00
 6.044407749370410e-01	 2.032622651774811e+00	 6.696586689176168e+00
 5.858234862182089e-01	 2.038066343742712e+00	 6.609676582862367e+00
 5.672012300954179e-01	 2.043327285625240e+00	 6.527430274079509e+00
 5.485765164607425e-01	 2.048406076416498e+00	 6.450137258784613e+00
 7.374635207843369e-01	 1.997637210648736e+00	 7.421103497762847e+00
 7.188760239884310e-01	 2.004401220839729e+00	 7.313000271698159e+00
 7.002653167052314e-01	 2.010978770334698e+00	 7.207569771009206e+00
 6.816340577016087e-01	 2.017370140573761e+00	 7.104863517261490e+00
 6.629848888546206e-01	 2.023575660796358e+00	 7.005083364041090e+00
 6.443204341471334e-01	 2.029595707385439e+00	 6.908526003602727e+00
 6.256432986883700e-01	 2.035430703188476e+00	 6.815534323932663e+00
 6.069560677599199e-01	 2.041081116816272e+00	 6.726455402171336e+00
 5.882613058877131e-01	 2.046547461920581e+00	 6.641604882405369e+00
 5.695615559404148e-01	 2.051830296451522e+00	 6.561237451393756e+00
 5.508593382546569e-01	 2.056930221895830e+00	 6.485523094920556e+00
 7.405196508741924e-01	 2.005915639357707e+00	 7.436720781751788e+00
 7.218551254434173e-01	 2.012707680352017e+00	 7.330607320286156e+00
 7.031672933384974e-01	 2.019312487936653e+00	 7.227456969436244e+00
 6.844588243445301e-01	 2.025730344718054e+00	 7.127272028479309e+00
 6.657323712868063e-01	 2.031961581300068e+00	 7.030192077500964e+00
 6.469905690222701e-01	 2.038006575625421e+00	 6.936438439613834e+00
 6.282360334560089e-01	 2.043865752293914e+00	 6.846265713549872e+00
 6.094713605833069e-01	 2.049539581858328e+00	 6.759920152254089e+00
 5.906991255577758e-01	 2.055028580099048e+00	 6.677604624197246e+00
 5.719218817860132e-01	 2.060333307278405e+00	 6.599449858800179e+00
 5.531421600492071e-01	 2.065454367375761e+00	 6.525491645727914e+00
 7.435757809640703e-01	 2.014194068067215e+00	 7.449385970389168e+00
 7.248342268985118e-01	 2.021014139864915e+00	 7.346319308774320e+00
 7.060692699719573e-01	 2.027646205539275e+00	 7.246473069127587e+00
 6.872835909877293e-01	 2.034090548863059e+00	 7.149780228732945e+00
 6.684798537193514e-01	 2.040347501804524e+00	 7.056305302676781e+00
 6.496607038978447e-01	 2.046417443866173e+00	 6.966181026304809e+00
 6.308287682241586e-01	 2.052300801400137e+00	 6.879560093033110e+00
 6.119866534072722e-01	 2.057998046901178e+00	 6.796573952639244e+00
 5.931369452284784e-01	 2.063509698278315e+00	 6.717298395154479e+00
 5.742822076323040e-01	 2.068836318106088e+00	 6.641725609260379e+00
 5.554249818444938e-01	 2.073978512856493e+00	 6.569742371671431e+00
 5.325967639126695e-01	 1.988737058061177e+00	 6.354325040069006e+00
 5.145146071319613e-01	 1.993491684474228e+00	 6.267606243917817e+00
 4.964348708365260e-01	 1.998070754689647e+00	 6.179543572033062e+00
 4.783599230357983e-01	 2.002474974518841e+00	 6.091504826681591e+00
 4.602921067687459e-01	 2.006705088739458e+00	 6.004767834139329e+00
 4.422337393928928e-01	 2.010761880278762e+00	 5.920508582448224e+00
 4.241871119009684e-01	 2.014646169384433e+00	 5.839792181161494e+00
 4.061544882653080e-01	 2.018358812783806e+00	 5.763566322552172e+00
 3.881381048101060e-01	 2.021900702832483e+00	 5.692656921162255e+00
 3.701401696115776e-01	 2.025272766653326e+00	 5.627765573607490e+00
 3.521628619260533e-01	 2.028475965266763e+00	 5.569077365872946e+00
 5.348795857049577e-01	 1.997261203541909e+00	 6.349889681431555e+00
 5.167199249954286e-01	 2.002036209284311e+00	 6.265622308630914e+00
 4.985626951459570e-01	 2.006634906358315e+00	 6.180834737795180e+00
 4.804102743157581e-01	 2.011058003600574e+00	 6.096726747989592e+00
 4.622650155865514e-01	 2.015306248981001e+00	 6.014405578070241e+00
 4.441292462485375e-01	 2.019380428782637e+00	 5.934875319915621e+00
 4.260052671141157e-01	 2.023281366768909e+00	 5.859029201189784e+00
 4.078953518594782e-01	 2.027009923339256e+00	 5.787644424507222e+00
 3.898017463941693e-01	 2.030566994674091e+00	 5.721379227287998e+00
 3.717266682586777e-01	 2.033953511870113e+00	 5.660771826666346e+00
 3.536723060500792e-01	 2.037170440066873e+00	 5.605890886457299e+00
 5.371624074971756e-01	 2.005785349021840e+00	 6.351914381397873e+00
 5.189252428587804e-01	 2.010580734093594e+00	 6.269785573193505e+00
 5.006905194552195e-01	 2.015199058026183e+00	 6.187796767683975e+00
 4.824606255954924e-01	 2.019641032681508e+00	 6.107007239019889e+00
 4.642379244040731e-01	 2.023907409221744e+00	 6.028380721347419e+00
 4.460247531038409e-01	 2.027998977285713e+00	 5.952776065979907e+00
 4.278234223268686e-01	 2.031916564152587e+00	 5.880940858582139e+00
 4.096362154532071e-01	 2.035661033893906e+00	 5.813507650312266e+00
 3.914653879777533e-01	 2.039233286514900e+00	 5.750992454340715e+00
 3.733131669052723e-01	 2.042634257086099e+00	 5.693795159350308e+00
 3.551817501735882e-01	 2.045864914866183e+00	 5.641900339589796e+00
 5.394452292894243e-01	 2.014309494501172e+00	 6.360156270126708e+00
 5.211305607221273e-01	 2.019125258902276e+00	 6.279901188162842e+00
 5.028183437644348e-01	 2.023763209693450e+00	 6.200286833428112e+00
 4.845109768751313e-01	 2.028224061761840e+00	 6.122258802289366e+00
 4.662108332214490e-01	 2.032508569461885e+00	 6.046663703308447e+00
 4.479202599589476e-01	 2.036617525788188e+00	 5.974241088340123e+00
 4.296415775393765e-01	 2.040551761535664e+00	 5.905618417084131e+00
 4.113770790466473e-01	 2.044312144447956e+00	 5.841308695808912e+00
 3.931290295610125e-01	 2.047899578355109e+00	 5.781710428488443e+00
 3.748996655515152e-01	 2.051315002301485e+00	 5.727109518888054e+00
 3.566911942967296e-01	 2.054559389664892e+00	 5.677433349539092e+00
 5.417280510818046e-01	 2.022833639980103e+00	 6.374363786081661e+00
 5.233358785855803e-01	 2.027669783710558e+00	 6.295765433504479e+00
 5.049461680737224e-01	 2.032327361360318e+00	 6.218153062411154e+00
 4.865613281548043e-01	 2.036807090841774e+00	 6.142384731888569e+00
 4.681837420388162e-01	 2.041109729701628e+00	 6.069215604681670e+00
 4.498157668140020e-01	 2.045236074290263e+00	 5.999291163730247e+00
 4.314597327517893e-01	 2.049186958918340e+00	 5.933143538597630e+00
 4.131179426399521e-01	 2.052963255001604e+00	 5.871190568973484e+00
 3.947926711441010e-01	 2.056565870194917e+00	 5.813737229990657e+00
 3.764861641975592e-01	 2.059995747516472e+00	 5.760979044519603e+00
 3.582006384196533e-01	 2.063253864463201e+00	 5.712808735042772e+00
 5.440108728744172e-01	 2.031357785458835e+00	 6.394276825895174e+00
 5.255411964492500e-01	 2.036214308518641e+00	 6.317165854232581e+00
 5.070739923832034e-01	 2.040891513026985e+00	 6.241234661376359e+00
 4.886116794346402e-01	 2.045390119921506e+00	 6.167279227367974e+00
 4.701566508563123e-01	 2.049710889941169e+00	 6.095988253593614e+00
 4.517112736691485e-01	 2.053854622792138e+00	 6.027937677812967e+00
 4.332778879642563e-01	 2.057822156300817e+00	 5.963588378549362e+00
 4.148588062332750e-01	 2.061614365555055e+00	 5.903286682167388e+00
 3.964563127271736e-01	 2.065232162034525e+00	 5.847267283561050e+00
 3.780726628435581e-01	 2.068676492731258e+00	 5.795658191916592e+00
 3.597100825425086e-01	 2.071948339261310e+00	 5.748336514961383e+00
 5.462936946673629e-01	 2.039881930937566e+00	 6.419626894968156e+00
 5.277465143132475e-01	 2.044758833326723e+00	 6.343881396731487e+00
 5.092018166929980e-01	 2.049455664693653e+00	 6.269362040727807e+00
 4.906620307147689e-01	 2.053973149001240e+00	 6.196827508102406e+00
 4.721295596740751e-01	 2.058312050180712e+00	 6.126924331912212e+00
 4.536067805245315e-01	 2.062473171294014e+00	 6.060182725246862e+00
 4.350960431769275e-01	 2.066457353683294e+00	 5.997015681249350e+00
 4.165996698267688e-01	 2.070265476108505e+00	 5.937720944183453e+00
 3.981199543103845e-01	 2.073898453874133e+00	 5.882485448320728e+00
 3.796591614896646e-01	 2.077357237946044e+00	 5.831391822084043e+00
 3.612195266654453e-01	 2.080642814059420e+00	 5.784317913100013e+00
 5.485765164607425e-01	 2.048406076416498e+00	 6.450137258784613e+00
 5.299518321776832e-01	 2.053303358135004e+00	 6.375682545742527e+00
 5.113296410032266e-01	 2.058019816360521e+00	 6.302356939408177e+00
 4.927123819953200e-01	 2.062556178081173e+00	 6.230905928120904e+00
 4.741024684922417e-01	 2.066913210420454e+00	 6.161957481919697e+00
 4.555022873802952e-01	 2.071091719796089e+00	 6.096019209921120e+00
 4.369141983899525e-01	 2.075092551065971e+00	 6.033478875241673e+00
 4.183405334205864e-01	 2.078916586662154e+00	 5.974607852094363e+00
 3.997835958938883e-01	 2.082564745713942e+00	 5.919567107353300e+00
 3.812456601360327e-01	 2.086037983161031e+00	 5.868415289662233e+00
 3.627289707886124e-01	 2.089337288857729e+00	 5.821045362220155e+00
 5.508593382546569e-01	 2.056930221895830e+00	 6.485523094920556e+00
 5.321571500426681e-01	 2.061847882943687e+00	 6.412331461992288e+00
 5.134574653140097e-01	 2.066583968027788e+00	 6.340032550340479e+00
 4.947627332764225e-01	 2.071139207161506e+00	 6.269382091387279e+00
 4.760753773109500e-01	 2.075514370660596e+00	 6.201012413298169e+00
 4.573977942365843e-01	 2.079710268298565e+00	 6.135430945352254e+00
 4.387323536034809e-01	 2.083727748449047e+00	 6.073022168646999e+00
 4.200813970148811e-01	 2.087567697216204e+00	 6.014052582908247e+00
 4.014472374778394e-01	 2.091231037554150e+00	 5.958678256876328e+00
 3.828321587828153e-01	 2.094718728376416e+00	 5.906954530642159e+00
 3.642384149121597e-01	 2.098031763656439e+00	 5.858802507265057e+00
 5.531421600492071e-01	 2.065454367375761e+00	 6.525491645727914e+00
 5.343624679083131e-01	 2.070392407752969e+00	 6.453582120447199e+00
 5.155852896254677e-01	 2.075148119695656e+00	 6.382193646411809e+00
 4.968130845582062e-01	 2.079722236242439e+00	 6.312114967520098e+00
 4.780482861303374e-01	 2.084115530901338e+00	 6.244005010428606e+00
 4.592933010935429e-01	 2.088328816801641e+00	 6.178392755240512e+00
 4.405505088176623e-01	 2.092362945832725e+00	 6.115680644496767e+00
 4.218222606098063e-01	 2.096218807770854e+00	 6.056151085038282e+00
 4.031108790623920e-01	 2.099897329394959e+00	 5.999975595035806e+00
 3.844186574301659e-01	 2.103399473592404e+00	 5.947226149514801e+00
 3.657478590362367e-01	 2.106726238455749e+00	 5.897864207823440e+00
 5.554249818444938e-01	 2.073978512856493e+00	 6.569742371671431e+00
 5.365677857747290e-01	 2.078936932563052e+00	 6.499180449174792e+00
 5.177131139377212e-01	 2.083712271364324e+00	 6.428636706990408e+00
 4.988634358408005e-01	 2.088305265324173e+00	 6.358955007937503e+00
 4.800211949505416e-01	 2.092716691142881e+00	 6.290842439984933e+00
 4.611888079513155e-01	 2.096947365305516e+00	 6.224870574178270e+00
 4.423686640326468e-01	 2.100998143217203e+00	 6.161480356059863e+00
 4.235631242055150e-01	 2.104869918326305e+00	 6.100990169590543e+00
 4.047745206477009e-01	 2.108563621236568e+00	 6.043606610339801e+00
 3.860051560782379e-01	 2.112080218809191e+00	 5.989437505868738e+00
 3.672573031609927e-01	 2.115420713255858e+00	 5.938496539850118e+00
 3.521628619260533e-01	 2.028475965266763e+00	 5.569077365872950e+00
 3.342052820390940e-01	 2.031511794282461e+00	 5.513762177298593e+00
 3.162726130965756e-01	 2.034380720240966e+00	 5.460177129232925e+00
 2.983669504141310e-01	 2.037083799624414e+00	 5.409069525305859e+00
 2.804903583591603e-01	 2.039622119309464e+00	 5.360910744770939e+00
 2.626448699171351e-01	 2.041996795666766e+00	 5.315940802272843e+00
 2.448324862854198e-01	 2.044208973657273e+00	 5.274208070795520e+00
 2.270551764944082e-01	 2.046259825926268e+00	 5.235604442051903e+00
 2.093148770557514e-01	 2.048150551895931e+00	 5.199896203963408e+00
 1.916134916374246e-01	 2.049882376857315e+00	 5.166750918245356e+00
 1.739528907653514e-01	 2.051456551062507e+00	 5.135760582548961e+00
 3.536723060500792e-01	 2.037170440066873e+00	 5.605890886457299e+00
 3.356377561975625e-01	 2.040219281284530e+00	 5.553763813106354e+00
 3.176282240630479e-01	 2.043100504063327e+00	 5.502780230961241e+00
 2.996458139431216e-01	 2.045815169413713e+00	 5.453703842294713e+00
 2.816925990534858e-01	 2.048364368870937e+00	 5.407041907384935e+00
 2.637706210934058e-01	 2.050749223590655e+00	 5.363089193967249e+00
 2.458818898377882e-01	 2.052970883441376e+00	 5.321966985153995e+00
 2.280283827566957e-01	 2.055030526094590e+00	 5.283657430627349e+00
 2.102120446620659e-01	 2.056929356113464e+00	 5.248033531219810e+00
 1.924347873813856e-01	 2.058668604040913e+00	 5.214885050223598e+00
 1.746984894580363e-01	 2.060249525487874e+00	 5.183940646028300e+00
 3.551817501735882e-01	 2.045864914866183e+00	 5.641900339589792e+00
 3.370702303555186e-01	 2.048926768285800e+00	 5.592260648335086e+00
 3.189838350290257e-01	 2.051820287884890e+00	 5.543304868732069e+00
 3.009246774716443e-01	 2.054546539202218e+00	 5.495801053862719e+00
 2.828948397473759e-01	 2.057106618431624e+00	 5.450280824773459e+00
 2.648963722692748e-01	 2.059501651513772e+00	 5.407082690089241e+00
 2.469312933897871e-01	 2.061732793224723e+00	 5.366390317490365e+00
 2.290015890186401e-01	 2.063801226262182e+00	 5.328266052651232e+00
 2.111092122680545e-01	 2.065708160330302e+00	 5.292679986449001e+00
 1.932560831250248e-01	 2.067454831223859e+00	 5.259534874347488e+00
 1.754440881503875e-01	 2.069042499912646e+00	 5.228687212911465e+00
 3.566911942967296e-01	 2.054559389664892e+00	 5.677433349539093e+00
 3.385027045131052e-01	 2.057634255286469e+00	 5.629625866787697e+00
 3.203394459946425e-01	 2.060540071705855e+00	 5.582160419618070e+00
 3.022035409998227e-01	 2.063277908990127e+00	 5.535797619713382e+00
 2.840970804409434e-01	 2.065848867991720e+00	 5.491082199797177e+00
 2.660221234448452e-01	 2.068254079436308e+00	 5.448385682782974e+00
 2.479806969415102e-01	 2.070494703007503e+00	 5.407943894284813e+00
 2.299747952803279e-01	 2.072571926429228e+00	 5.369889625116469e+00
 2.120063798737988e-01	 2.074486964546619e+00	 5.334280755535576e+00
 1.940773788684229e-01	 2.076241058406318e+00	 5.301124155912433e+00
 1.761896868424884e-01	 2.077835474336970e+00	 5.270395679391818e+00
 3.582006384196533e-01	 2.063253864463201e+00	 5.712808735042772e+00
 3.399351786704651e-01	 2.066341742286739e+00	 5.666224349756530e+00
 3.216950569600325e-01	 2.069259855526419e+00	 5.619748470295304e+00
 3.034824045277811e-01	 2.072009278777640e+00	 5.574122730432111e+00
 2.852993211343018e-01	 2.074591117551423e+00	 5.529893996841016e+00
 2.671478746202196e-01	 2.077006507358456e+00	 5.487456366043951e+00
 2.490301004930512e-01	 2.079256612789907e+00	 5.447087894306238e+00
 2.309480015418452e-01	 2.081342626595910e+00	 5.408982378385105e+00
 2.129035474793806e-01	 2.083265768762590e+00	 5.373276510064204e+00
 1.948986746116602e-01	 2.085027285588452e+00	 5.340072730192716e+00
 1.769352855344224e-01	 2.086628448760998e+00	 5.309458108612022e+00
 3.597100825425086e-01	 2.071948339261310e+00	 5.748336514961381e+00
 3.413676528277411e-01	 2.075049229286808e+00	 5.702412693555891e+00
 3.230506679253299e-01	 2.077979639346785e+00	 5.656462844302715e+00
 3.047612680556432e-01	 2.080740648564952e+00	 5.611198342398828e+00
 2.865015618275644e-01	 2.083333367110929e+00	 5.567157482381921e+00
 2.682736257955012e-01	 2.085758935280411e+00	 5.524746780024285e+00
 2.500795040445034e-01	 2.088018522572120e+00	 5.484276894825781e+00
 2.319212078032784e-01	 2.090113326762409e+00	 5.445993502548971e+00
 2.138007150848811e-01	 2.092044572978385e+00	 5.410103452159811e+00
 1.957199703548173e-01	 2.093813512770423e+00	 5.376796544160662e+00
 1.776808842262729e-01	 2.095421423184876e+00	 5.346263267760891e+00
 3.612195266654453e-01	 2.080642814059420e+00	 5.784317913100015e+00
 3.428001269850763e-01	 2.083756716286878e+00	 5.738539226029013e+00
 3.244062788906685e-01	 2.086699423167150e+00	 5.692689628128575e+00
 3.060401315835329e-01	 2.089472018352266e+00	 5.647439211416280e+00
 2.877038025208442e-01	 2.092075616670436e+00	 5.603307264207859e+00
 2.693993769707930e-01	 2.094511363202366e+00	 5.560702853965246e+00
 2.511289075959609e-01	 2.096780432354334e+00	 5.519959916457422e+00
 2.328944140647136e-01	 2.098884026928908e+00	 5.481367192464666e+00
 2.146978826903825e-01	 2.100823377194181e+00	 5.445193358074937e+00
 1.965412660979743e-01	 2.102599739952393e+00	 5.411707697073408e+00
 1.784264829181235e-01	 2.104214397608754e+00	 5.381196664176743e+00
 3.627289707886124e-01	 2.089337288857729e+00	 5.821045362220152e+00
 3.442326011426131e-01	 2.092464203287147e+00	 5.774944022062853e+00
 3.257618898561826e-01	 2.095419206987716e+00	 5.728807196156328e+00
 3.073189951115741e-01	 2.098203388139777e+00	 5.683252925099544e+00
 2.889060432142544e-01	 2.100817866230138e+00	 5.638771329329007e+00
 2.705251281461976e-01	 2.103263791124514e+00	 5.595764447789735e+00
 2.521783111475171e-01	 2.105542342136737e+00	 5.554580466672738e+00
 2.338676203262373e-01	 2.107654727095588e+00	 5.515542691503429e+00
 2.155950502959660e-01	 2.109602181410150e+00	 5.478973620568329e+00
 1.973625618412119e-01	 2.111385967134527e+00	 5.445214479953010e+00
 1.791720816100575e-01	 2.113007372032781e+00	 5.414640580484794e+00
 3.642384149121597e-01	 2.098031763656439e+00	 5.858802507265056e+00
 3.456650753004947e-01	 2.101171690287817e+00	 5.811958918133923e+00
 3.271175008220060e-01	 2.104138990808680e+00	 5.765186234506350e+00
 3.085978586398906e-01	 2.106934757927686e+00	 5.719039934055329e+00
 2.901082839079087e-01	 2.109560115790234e+00	 5.673971080617568e+00
 2.716508793218180e-01	 2.112016219047050e+00	 5.630365392398128e+00
 2.532277146992657e-01	 2.114304251919518e+00	 5.588576582023982e+00
 2.348408265879358e-01	 2.116425427262635e+00	 5.548954334050230e+00
 2.164922179017134e-01	 2.118380985626467e+00	 5.511867290108912e+00
 1.981838575846104e-01	 2.120172194316987e+00	 5.477721413998291e+00
 1.799176803021584e-01	 2.121800346457106e+00	 5.446974108799072e+00
 3.657478590362367e-01	 2.106726238455749e+00	 5.897864207823440e+00
 3.470975494588637e-01	 2.109879177289086e+00	 5.849907525918424e+00
 3.284731117882728e-01	 2.112858774630243e+00	 5.802189763802104e+00
 3.098767221686065e-01	 2.115666127716192e+00	 5.755193581890200e+00
 2.913105246019199e-01	 2.118302365350920e+00	 5.709321372214117e+00
 2.727766304977570e-01	 2.120768646970166e+00	 5.664933528703510e+00
 2.542771182513003e-01	 2.123066161702865e+00	 5.622380869113704e+00
 2.358140328498953e-01	 2.125196127430227e+00	 5.582031586790505e+00
 2.173893855077065e-01	 2.127159789843305e+00	 5.544293114935943e+00
 1.990051533282502e-01	 2.128958421499934e+00	 5.509629287954502e+00
 1.806632789945095e-01	 2.130593320881877e+00	 5.478573184014140e+00
 3.672573031609927e-01	 2.115420713255858e+00	 5.938496539850118e+00
 3.485300236178633e-01	 2.118586664291156e+00	 5.889105244989466e+00
 3.298287227551172e-01	 2.121578558452605e+00	 5.840173160894302e+00
 3.111555856978455e-01	 2.124397497505492e+00	 5.792100134080243e+00
 2.925127652964016e-01	 2.127044614912394e+00	 5.745230543734591e+00
 2.739023816741177e-01	 2.129521074894057e+00	 5.699890745442471e+00
 2.553265218037148e-01	 2.131828071486968e+00	 5.656420544347865e+00
 2.367872391122023e-01	 2.133966827598550e+00	 5.615199088818581e+00
 2.182865531140267e-01	 2.135938594060838e+00	 5.576665580012024e+00
 1.998264490722119e-01	 2.137744648683531e+00	 5.541335194474158e+00
 1.814088776871944e-01	 2.139386295307245e+00	 5.509810616212144e+00
 1.739528907653514e-01	 2.051456551062507e+00	 5.135760582548961e+00
 1.563378956469499e-01	 2.052874120972599e+00	 5.107468904499616e+00
 1.387672691588538e-01	 2.054136664002496e+00	 5.082679084416050e+00
 1.212427399094186e-01	 2.055245498769098e+00	 5.061319687348057e+00
 1.037660035474255e-01	 2.056201965204191e+00	 5.043295925227481e+00
 8.633872258613057e-02	 2.057007423672388e+00	 5.028497732949008e+00
 6.896252625088575e-02	 2.057663254093237e+00	 5.016805805710950e+00
 5.163901034994151e-02	 2.058170855068159e+00	 5.008095848629471e+00
 3.436973716802243e-02	 2.058531643012857e+00	 5.002241279847713e+00
 1.715623538225374e-02	 2.058747051295792e+00	 4.999114617793702e+00
 0.000000000000000e+00	 2.058818529383334e+00	 4.998587773909133e+00
 1.746984894580363e-01	 2.060249525487874e+00	 5.183940646028300e+00
 1.570079927641405e-01	 2.061673171400800e+00	 5.155839696896491e+00
 1.393620548737723e-01	 2.062941125955724e+00	 5.131300302208279e+00
 1.217624118044821e-01	 2.064054713421412e+00	 5.110136459119655e+00
 1.042107664729743e-01	 2.065015279472879e+00	 5.092151153510296e+00
 8.670878851840166e-02	 2.065824190305541e+00	 5.077143524736164e+00
 6.925811414933408e-02	 2.066482831753568e+00	 5.064913972804483e+00
 5.186034601400691e-02	 2.066992608413080e+00	 5.055267466638297e+00
 3.451705309344057e-02	 2.067354942770832e+00	 5.048015301906286e+00
 1.722977061700658e-02	 2.067571274338999e+00	 5.042975545884799e+00
 0.000000000000000e+00	 2.067643058796667e+00	 5.039972397092177e+00
 1.754440881503875e-01	 2.069042499912646e+00	 5.228687212911465e+00
 1.576780898809675e-01	 2.070472221828471e+00	 5.200854537930280e+00
 1.399568405882869e-01	 2.071745587908495e+00	 5.176663780610724e+00
 1.222820836991007e-01	 2.072863928073350e+00	 5.155823266594494e+00
 1.046555293980451e-01	 2.073828593741268e+00	 5.138043028304399e+00
 8.707885445017917e-02	 2.074640956938473e+00	 5.123041008891270e+00
 6.955370204729965e-02	 2.075302409413749e+00	 5.110547190397295e+00
 5.208168167763563e-02	 2.075814361757912e+00	 5.100305912631014e+00
 3.466436901851208e-02	 2.076178242528764e+00	 5.092076638648065e+00
 1.730330585155552e-02	 2.076395497382195e+00	 5.085633411280257e+00
 0.000000000000000e+00	 2.076467588210001e+00	 5.080763234995980e+00
 1.761896868424884e-01	 2.077835474336970e+00	 5.270395679391815e+00
 1.583481869975218e-01	 2.079271272255743e+00	 5.242876346544535e+00
 1.405516263024989e-01	 2.080550049860926e+00	 5.219098539064672e+00
 1.228017555933855e-01	 2.081673142725004e+00	 5.198673942388258e+00
 1.051002923227574e-01	 2.082641908009435e+00	 5.181229047022127e+00
 8.744892038158651e-02	 2.083457723571238e+00	 5.166410341323486e+00
 6.984928994490312e-02	 2.084121987073818e+00	 5.153887410932882e+00
 5.230301734093679e-02	 2.084636115102677e+00	 5.143354219378956e+00
 3.481168494332357e-02	 2.085001542286665e+00	 5.134528833323190e+00
 1.737684108595153e-02	 2.085219720425383e+00	 5.127151844023843e+00
 0.000000000000000e+00	 2.085292117623334e+00	 5.120983725983984e+00
 1.769352855344224e-01	 2.086628448760998e+00	 5.309458108612022e+00
 1.590182841138943e-01	 2.088070322682753e+00	 5.282265277110229e+00
 1.411464120165089e-01	 2.089354511813128e+00	 5.258931334013146e+00
 1.233214274874479e-01	 2.090482357376469e+00	 5.238980495470110e+00
 1.055450552472308e-01	 2.091455222277454e+00	 5.221965265272442e+00
 8.781898631274709e-02	 2.092274490203895e+00	 5.207470565195670e+00
 7.014487784226525e-02	 2.092941564733812e+00	 5.195115755110853e+00
 5.252435300401959e-02	 2.093457868447397e+00	 5.184554825579259e+00
 3.495900086796176e-02	 2.093824842044545e+00	 5.175475034143966e+00
 1.745037632024558e-02	 2.094043943468565e+00	 5.167594244194384e+00
 0.000000000000000e+00	 2.094116647036667e+00	 5.160657214189046e+00
 1.776808842262729e-01	 2.095421423184876e+00	 5.346263267760888e+00
 1.596883812301760e-01	 2.096869373109628e+00	 5.319378751352692e+00
 1.417411977304180e-01	 2.098158973765217e+00	 5.296486686017168e+00
 1.238410993813990e-01	 2.099291572027842e+00	 5.277033133837056e+00
 1.059898181715847e-01	 2.100268536545396e+00	 5.260506315457437e+00
 8.818905224378430e-02	 2.101091256836494e+00	 5.246439625815348e+00
 7.044046573950664e-02	 2.101761142393767e+00	 5.234412523445688e+00
 5.274568866699318e-02	 2.102279621792094e+00	 5.224049584454526e+00
 3.510631679251330e-02	 2.102648141802415e+00	 5.215018000299604e+00
 1.752391155448866e-02	 2.102868166511744e+00	 5.207023785710705e+00
 0.000000000000000e+00	 2.102941176450000e+00	 5.199806951490292e+00
 1.784264829181235e-01	 2.104214397608754e+00	 5.381196664176739e+00
 1.603584783464577e-01	 2.105668423536505e+00	 5.354571489433571e+00
 1.423359834443270e-01	 2.106963435717304e+00	 5.332086906168804e+00
 1.243607712753501e-01	 2.108100786679214e+00	 5.313120286603701e+00
 1.064345810959385e-01	 2.109081850813341e+00	 5.297105424896031e+00
 8.855911817482148e-02	 2.109908023469094e+00	 5.283534385152171e+00
 7.073605363674806e-02	 2.110580720053723e+00	 5.271957207535805e+00
 5.296702432996681e-02	 2.111101375136791e+00	 5.261979772135272e+00
 3.525363271706484e-02	 2.111471441560285e+00	 5.253260107821438e+00
 1.759744678873173e-02	 2.111692389554924e+00	 5.245503420046781e+00
 0.000000000000000e+00	 2.111765705863333e+00	 5.238456099440481e+00
 1.791720816100575e-01	 2.113007372032781e+00	 5.414640580484797e+00
 1.610285754628302e-01	 2.114467473963513e+00	 5.388195540215466e+00
 1.429307691583371e-01	 2.115767897669508e+00	 5.366052121812850e+00
 1.248804431694124e-01	 2.116910001330680e+00	 5.347528625525467e+00
 1.068793440204119e-01	 2.117895165081359e+00	 5.332014433489606e+00
 8.892918410598209e-02	 2.118724790101751e+00	 5.318970635986927e+00
 7.103164153411014e-02	 2.119400297713716e+00	 5.307928501049711e+00
 5.318835999304961e-02	 2.119923128481511e+00	 5.298486095837520e+00
 3.540094864170301e-02	 2.120294741318164e+00	 5.290303355301270e+00
 1.767098202302579e-02	 2.120516612598105e+00	 5.283095879849510e+00
 0.000000000000000e+00	 2.120590235276666e+00	 5.276627731145965e+00
 1.799176803021584e-01	 2.121800346457106e+00	 5.446974108799072e+00
 1.616986725793845e-01	 2.123266524390786e+00	 5.420600310731960e+00
 1.435255548725490e-01	 2.124572359621937e+00	 5.398700301608345e+00
 1.254001150636973e-01	 2.125719215982335e+00	 5.380543085970726e+00
 1.073241069451242e-01	 2.126708479349526e+00	 5.365483810937780e+00
 8.929925003738945e-02	 2.127541556734517e+00	 5.352963115709747e+00
 7.132722943171366e-02	 2.128219875373785e+00	 5.342504310439797e+00
 5.340969565635077e-02	 2.128744881826276e+00	 5.333708701835294e+00
 3.554826456651451e-02	 2.129118041076065e+00	 5.326249369470306e+00
 1.774451725742180e-02	 2.129340835641293e+00	 5.319863682470395e+00
 0.000000000000000e+00	 2.129414764689999e+00	 5.314344833098662e+00
 1.806632789945095e-01	 2.130593320881877e+00	 5.478573184014142e+00
 1.623687696962115e-01	 2.132065574818457e+00	 5.452132594884060e+00
 1.441203405870637e-01	 2.133376821574709e+00	 5.430347279937022e+00
 1.259197869583158e-01	 2.134528430634272e+00	 5.412446887360824e+00
 1.077688698701950e-01	 2.135521793617915e+00	 5.397762673523134e+00
 8.966931596916697e-02	 2.136358323367449e+00	 5.385725519772133e+00
 7.162281732967921e-02	 2.137039453033965e+00	 5.375861765393108e+00
 5.363103131997948e-02	 2.137566635171108e+00	 5.367787183236691e+00
 3.569558049158602e-02	 2.137941340833998e+00	 5.361199410638648e+00
 1.781805249197074e-02	 2.138165058684489e+00	 5.355869133407034e+00
 0.000000000000000e+00	 2.138239294103332e+00	 5.351630306963839e+00
 1.814088776871944e-01	 2.139386295307245e+00	 5.509810616212146e+00
 1.630388668134021e-01	 2.140864625246658e+00	 5.483136601388416e+00
 1.447151263019822e-01	 2.142181283527937e+00	 5.461306780687701e+00
 1.264394588533794e-01	 2.143337645286587e+00	 5.443521553087244e+00
 1.082136327957438e-01	 2.144335107886604e+00	 5.429098800473722e+00
 9.003938190143806e-02	 2.145175090000602e+00	 5.417470514804283e+00
 7.191840522812755e-02	 2.145859030694298e+00	 5.408177229020139e+00
 5.385236698404491e-02	 2.146388388516030e+00	 5.400860587571785e+00
 3.584289641700417e-02	 2.146764640591973e+00	 5.395254378004244e+00
 1.789158772672358e-02	 2.146989281727696e+00	 5.391174329663683e+00
 0.000000000000000e+00	 2.147063823516666e+00	 5.388506971323149e+00
 2.147063823516666e+00	 0.000000000000000e+00	 1.203086176105941e+01
 2.146989281727697e+00	 1.789158772672240e-02	 1.203790776519739e+01
 2.146764640591973e+00	 3.584289641700315e-02	 1.204294054190124e+01
 2.146388388516029e+00	 5.385236698404408e-02	 1.204662842594017e+01
 2.145859030694298e+00	 7.191840522812687e-02	 1.204957131911643e+01
 2.145175090000602e+00	 9.003938190143755e-02	 1.205229659555892e+01
 2.144335107886603e+00	 1.082136327957435e-01	 1.205525524326706e+01
 2.143337645286588e+00	 1.264394588533793e-01	 1.205881829139209e+01
 2.142181283527938e+00	 1.447151263019822e-01	 1.206327357830780e+01
 2.140864625246658e+00	 1.630388668134023e-01	 1.206882292204116e+01
 2.139386295307245e+00	 1.814088776871945e-01	 1.207557976141850e+01
 2.155886852925016e+00	 0.000000000000000e+00	 1.200921706767052e+01
 2.155812004818010e+00	 1.796511046209789e-02	 1.201657965470240e+01
 2.155586440554033e+00	 3.599018730187193e-02	 1.202184139967837e+01
 2.155208642327952e+00	 5.407366502569269e-02	 1.202569198021630e+01
 2.154677109191528e+00	 7.221394288271948e-02	 1.202875054947078e+01
 2.153990357948555e+00	 9.040938492999101e-02	 1.203156146813014e+01
 2.153146924057020e+00	 1.086583201204628e-01	 1.203459024961699e+01
 2.152145362537581e+00	 1.269590424144494e-01	 1.203821976759605e+01
 2.150984248887804e+00	 1.453098109149132e-01	 1.204274678066986e+01
 2.149662180001442e+00	 1.637088500270273e-01	 1.204837883586137e+01
 2.148177775092080e+00	 1.821543496424223e-01	 1.205523161948696e+01
 2.164709882333466e+00	 0.000000000000000e+00	 1.198829477080919e+01
 2.164634727908435e+00	 1.803863319767585e-02	 1.199589820831726e+01
 2.164408240516233e+00	 3.613747818708211e-02	 1.200133049460240e+01
 2.164028896140064e+00	 5.429496306776715e-02	 1.200529979494259e+01
 2.163495187689004e+00	 7.250948053777691e-02	 1.200844195138916e+01
 2.162805625896828e+00	 9.077938795901222e-02	 1.201131604879922e+01
 2.161958740227829e+00	 1.091030074456263e-01	 1.201440016992767e+01
 2.160953079789044e+00	 1.274786259759229e-01	 1.201808738824553e+01
 2.159787214248219e+00	 1.459044955281991e-01	 1.202268205313866e+01
 2.158459734756845e+00	 1.643788332409613e-01	 1.202839642906775e+01
 2.156969254877593e+00	 1.828998215979255e-01	 1.203534775749726e+01
 2.173532911742116e+00	 0.000000000000000e+00	 1.196810562440302e+01
 2.173457450999069e+00	 1.811215593340394e-02	 1.197585582560955e+01
 2.173230040478665e+00	 3.628476907254193e-02	 1.198138332304165e+01
 2.172849149952441e+00	 5.451626111014748e-02	 1.198541193820180e+01
 2.172313266186794e+00	 7.280501819316076e-02	 1.198859166909618e+01
 2.171620893845463e+00	 9.114939098835227e-02	 1.199149409771045e+01
 2.170770556399055e+00	 1.095476947710806e-01	 1.199460796128208e+01
 2.169760797040980e+00	 1.279982095376466e-01	 1.199833493553860e+01
 2.168590179609160e+00	 1.464991801416903e-01	 1.200298568427756e+01
 2.167257289512821e+00	 1.650488164550589e-01	 1.200877623680065e+01
 2.165760734663721e+00	 1.836452935535623e-01	 1.201582476217044e+01
 2.182355941151066e+00	 0.000000000000000e+00	 1.194865981292445e+01
 2.182280174090007e+00	 1.818567866922985e-02	 1.195644544644920e+01
 2.182051840441417e+00	 3.643205995815960e-02	 1.196197692924785e+01
 2.181669403765162e+00	 5.473755915271377e-02	 1.196599093059120e+01
 2.181131344684955e+00	 7.310055584873260e-02	 1.196914910039410e+01
 2.180436161794501e+00	 9.151939401786215e-02	 1.197203332562444e+01
 2.179582372570720e+00	 1.099923820966725e-01	 1.197514112409936e+01
 2.178568514293389e+00	 1.285177930994679e-01	 1.197888122328299e+01
 2.177393144970602e+00	 1.470938647552370e-01	 1.198356937812713e+01
 2.176054844269327e+00	 1.657187996691748e-01	 1.198942448935109e+01
 2.174552214450399e+00	 1.843907655091912e-01	 1.199656509124148e+01
 2.191178970560415e+00	 0.000000000000000e+00	 1.192996696285559e+01
 2.191102897181349e+00	 1.825920140510125e-02	 1.193766054883913e+01
 2.190873640404581e+00	 3.657935084384342e-02	 1.194308988986772e+01
 2.190489657578304e+00	 5.495885719534612e-02	 1.194700171673917e+01
 2.189949423183549e+00	 7.339609350435398e-02	 1.195006685552051e+01
 2.189251429743987e+00	 9.188939704739298e-02	 1.195287534046309e+01
 2.188394188742844e+00	 1.104370694222489e-01	 1.195593163672565e+01
 2.187376231546269e+00	 1.290373766612339e-01	 1.195965001990290e+01
 2.186196110332526e+00	 1.476885493686899e-01	 1.196435016601239e+01
 2.184852399026318e+00	 1.663887828831639e-01	 1.197025301316573e+01
 2.183343694237561e+00	 1.851362374646702e-01	 1.197747696407385e+01
 2.200001999970266e+00	 0.000000000000000e+00	 1.191203615387760e+01
 2.199925620273190e+00	 1.833272414096580e-02	 1.191949514679110e+01
 2.199695440368243e+00	 3.672664172950156e-02	 1.192470229879743e+01
 2.199309911391945e+00	 5.518015523792461e-02	 1.192841163744147e+01
 2.198767501682639e+00	 7.369163115988650e-02	 1.193130071687848e+01
 2.198066697693963e+00	 9.225940007679573e-02	 1.193396559495696e+01
 2.197206004915452e+00	 1.108817567476566e-01	 1.193691589133333e+01
 2.196183948799623e+00	 1.295569602227918e-01	 1.194056997293833e+01
 2.194999075694908e+00	 1.482832339818991e-01	 1.194525032000147e+01
 2.193649953783748e+00	 1.670587660968804e-01	 1.195117913363874e+01
 2.192135174025141e+00	 1.858817094198578e-01	 1.195847425417247e+01
 2.208825029380716e+00	 0.000000000000000e+00	 1.189487592979128e+01
 2.208748343365628e+00	 1.840624687677118e-02	 1.190194378824462e+01
 2.208517240332494e+00	 3.687393261504230e-02	 1.190679575237123e+01
 2.208130165206160e+00	 5.540145328032932e-02	 1.191019040239890e+01
 2.207585580182284e+00	 7.398716881519168e-02	 1.191280959961390e+01
 2.206881965644471e+00	 9.262940310592145e-02	 1.191525333536359e+01
 2.206017821088564e+00	 1.113264440727425e-01	 1.191803463109306e+01
 2.204991666053448e+00	 1.300765437839886e-01	 1.192157453499415e+01
 2.203802041057728e+00	 1.488779185947151e-01	 1.192619726796953e+01
 2.202447508541579e+00	 1.677287493101794e-01	 1.193212557964068e+01
 2.200926653813076e+00	 1.866271813746121e-01	 1.193947638354152e+01
 2.217648058791865e+00	 0.000000000000000e+00	 1.187849430917757e+01
 2.217571066458761e+00	 1.847976961246507e-02	 1.188500155302881e+01
 2.217339040297423e+00	 3.702122350037385e-02	 1.188935333487401e+01
 2.216950419021027e+00	 5.562275132244034e-02	 1.189231006354049e+01
 2.216403658682547e+00	 7.428270647013119e-02	 1.189455551301776e+01
 2.215697233595557e+00	 9.299940613462128e-02	 1.189669155122788e+01
 2.214829637262203e+00	 1.117711313973532e-01	 1.189923288858224e+01
 2.213799383307747e+00	 1.305961273446716e-01	 1.190260189109977e+01
 2.212605006420962e+00	 1.494726032069882e-01	 1.190712351022344e+01
 2.211245063299760e+00	 1.683987325229155e-01	 1.191302038973588e+01
 2.209718133601300e+00	 1.873726533287918e-01	 1.192040821883643e+01
 2.226471088203815e+00	 0.000000000000000e+00	 1.186240579792500e+01
 2.226393789552685e+00	 1.855329234799514e-02	 1.186828437713882e+01
 2.226160840263118e+00	 3.716851438540449e-02	 1.187210414439461e+01
 2.225770672836623e+00	 5.584404936413773e-02	 1.187460325352960e+01
 2.225221737183490e+00	 7.457824412456648e-02	 1.187644791908069e+01
 2.224512501547259e+00	 9.336940916274614e-02	 1.187823049906738e+01
 2.223641453436392e+00	 1.122158187213357e-01	 1.188046732983105e+01
 2.222607100562519e+00	 1.311157109046881e-01	 1.188359629477949e+01
 2.221407971784588e+00	 1.500672878185689e-01	 1.188796653764335e+01
 2.220042618058251e+00	 1.690687157349433e-01	 1.189379682004164e+01
 2.218509613389748e+00	 1.881181252822547e-01	 1.190119996925945e+01
 2.235294117616666e+00	 0.000000000000000e+00	 1.184351630632720e+01
 2.235216512647500e+00	 1.862681508330905e-02	 1.184930967657909e+01
 2.234982640229673e+00	 3.731580527004243e-02	 1.185316667646609e+01
 2.234590926653027e+00	 5.606534740530161e-02	 1.185577994589181e+01
 2.234039815685173e+00	 7.487378177835924e-02	 1.185777258546774e+01
 2.233327769499625e+00	 9.373941219014720e-02	 1.185969635929306e+01
 2.232453269611153e+00	 1.126605060445367e-01	 1.186202965011537e+01
 2.231414817817765e+00	 1.316352944638850e-01	 1.186517514843189e+01
 2.230210937148586e+00	 1.506619724293075e-01	 1.186945725570147e+01
 2.228840172817007e+00	 1.697386989461175e-01	 1.187511918085452e+01
 2.227301093178355e+00	 1.888635972348596e-01	 1.188231970829520e+01
 2.139386295307245e+00	 1.814088776871945e-01	 1.207557976141850e+01
 2.137744648683532e+00	 1.998264490722111e-01	 1.208336705841747e+01
 2.135938594060838e+00	 2.182865531140259e-01	 1.209211436313201e+01
 2.133966827598551e+00	 2.367872391122015e-01	 1.210195976027254e+01
 2.131828071486969e+00	 2.553265218037142e-01	 1.211294599291518e+01
 2.129521074894057e+00	 2.739023816741171e-01	 1.212502133939069e+01
 2.127044614912394e+00	 2.925127652964011e-01	 1.213804152110720e+01
 2.124397497505491e+00	 3.111555856978451e-01	 1.215177276202393e+01
 2.121578558452605e+00	 3.298287227551169e-01	 1.216589612791433e+01
 2.118586664291155e+00	 3.485300236178631e-01	 1.218001328079845e+01
 2.115420713255859e+00	 3.672573031609928e-01	 1.219365379090912e+01
 2.148177775092080e+00	 1.821543496424223e-01	 1.205523161948696e+01
 2.146529382373564e+00	 2.006476052116181e-01	 1.206308436104929e+01
 2.144715906046622e+00	 2.191835682189999e-01	 1.207182940867829e+01
 2.142736036912700e+00	 2.377602799480361e-01	 1.208161163307344e+01
 2.140588491911129e+00	 2.563757469775795e-01	 1.209247691354887e+01
 2.138272015069765e+00	 2.750279414943086e-01	 1.210437262442919e+01
 2.135785378455829e+00	 2.937148016329822e-01	 1.211714913455767e+01
 2.133127383126119e+00	 3.124342318447950e-01	 1.213056244274519e+01
 2.130296860075697e+00	 3.311841032941044e-01	 1.214427807972122e+01
 2.127292671184186e+00	 3.499622542837595e-01	 1.215787641470266e+01
 2.124113710158760e+00	 3.687664907092441e-01	 1.217085951200032e+01
 2.156969254877593e+00	 1.828998215979255e-01	 1.203534775749726e+01
 2.155314116064326e+00	 2.014687613512871e-01	 1.204327774274500e+01
 2.153493218033174e+00	 2.200805833242418e-01	 1.205204667867974e+01
 2.151505246227645e+00	 2.387333207841608e-01	 1.206180437692748e+01
 2.149348912336104e+00	 2.574249721517705e-01	 1.207259826564741e+01
 2.147022955246299e+00	 2.761535013148723e-01	 1.208437348124403e+01
 2.144526142000099e+00	 2.949168379699883e-01	 1.209697395404124e+01
 2.141857268747582e+00	 3.137128779922271e-01	 1.211014461286149e+01
 2.139015161699622e+00	 3.325394838336319e-01	 1.212353484150287e+01
 2.135998678078050e+00	 3.513944849502514e-01	 1.213670332798596e+01
 2.132806707062495e+00	 3.702756782581408e-01	 1.214912445507254e+01
 2.165760734663721e+00	 1.836452935535623e-01	 1.201582476217044e+01
 2.164098849755733e+00	 2.022899174910777e-01	 1.202384148505142e+01
 2.162270530020391e+00	 2.209775984296105e-01	 1.203265965368097e+01
 2.160274455543268e+00	 2.397063616204323e-01	 1.204243228166906e+01
 2.158109332761763e+00	 2.584741973261401e-01	 1.205320687061369e+01
 2.155773895423520e+00	 2.772790611356551e-01	 1.206492510271677e+01
 2.153266905545051e+00	 2.961188743072610e-01	 1.207742350684716e+01
 2.150587154369724e+00	 3.149915241399767e-01	 1.209043522511290e+01
 2.147733463324223e+00	 3.338948643735286e-01	 1.210359301537749e+01
 2.144704684972583e+00	 3.528267156171619e-01	 1.211643363336654e+01
 2.141499703966895e+00	 3.717848658075003e-01	 1.212841980439557e+01
 2.174552214450399e+00	 1.843907655091912e-01	 1.199656509124148e+01
 2.172883583447700e+00	 2.031110736308498e-01	 1.200467581689735e+01
 2.171047842008173e+00	 2.218746135349653e-01	 1.201356774267056e+01
 2.169043664859453e+00	 2.406794024567073e-01	 1.202339545184500e+01
 2.166869753187978e+00	 2.595234225005410e-01	 1.203420515671896e+01
 2.164524835601286e+00	 2.784046209565050e-01	 1.204593398748646e+01
 2.162007669090537e+00	 2.973209106446422e-01	 1.205841023265548e+01
 2.159317039992388e+00	 3.162701702878790e-01	 1.207135466018288e+01
 2.156451764949334e+00	 3.352502449136231e-01	 1.208438305721556e+01
 2.153410691867619e+00	 3.542589462843135e-01	 1.209701013487665e+01
 2.150192700871797e+00	 3.732940533571398e-01	 1.210872100661715e+01
 2.183343694237561e+00	 1.851362374646702e-01	 1.197747696407385e+01
 2.181668317140144e+00	 2.039322297704632e-01	 1.198568679516743e+01
 2.179825153996416e+00	 2.227716286401655e-01	 1.199467615391018e+01
 2.177812874176083e+00	 2.416524432928424e-01	 1.200459966812089e+01
 2.175630173614619e+00	 2.605726476748258e-01	 1.201550101143122e+01
 2.173275775779456e+00	 2.795301807772695e-01	 1.202731178357160e+01
 2.170748432636405e+00	 2.985229469819732e-01	 1.203985131885040e+01
 2.168046925615416e+00	 3.175488164357696e-01	 1.205282755412806e+01
 2.165170066574794e+00	 3.366056254537444e-01	 1.206583909663894e+01
 2.162116698762993e+00	 3.556911769515287e-01	 1.207837864091209e+01
 2.158885697777032e+00	 3.748032409068762e-01	 1.208998131441142e+01
 2.192135174025141e+00	 1.858817094198578e-01	 1.195847425417247e+01
 2.190453050832980e+00	 2.047533859097776e-01	 1.196678618726283e+01
 2.188602465985023e+00	 2.236686437450699e-01	 1.197589576781934e+01
 2.186582083493046e+00	 2.426254841286944e-01	 1.198595625078849e+01
 2.184390594041556e+00	 2.616218728488473e-01	 1.199700763587001e+01
 2.182026715957890e+00	 2.806557405977962e-01	 1.200897513412120e+01
 2.179489196182510e+00	 2.997249833190961e-01	 1.202166853794345e+01
 2.176776811238651e+00	 3.188274625834834e-01	 1.203478262787585e+01
 2.173888368200441e+00	 3.379610059937213e-01	 1.204789875902254e+01
 2.170822705658540e+00	 3.571234076186305e-01	 1.206048777919625e+01
 2.167578694682434e+00	 3.763124284565266e-01	 1.207215601555243e+01
 2.200926653813076e+00	 1.866271813746121e-01	 1.193947638354152e+01
 2.199237784526123e+00	 2.055745420486529e-01	 1.194789135559372e+01
 2.197379777973891e+00	 2.245656588495380e-01	 1.195714301185724e+01
 2.195351292810220e+00	 2.435985249641197e-01	 1.196738192531605e+01
 2.193151014468660e+00	 2.626710980224581e-01	 1.197864340132791e+01
 2.190777656136448e+00	 2.817813004179327e-01	 1.199084552523591e+01
 2.188229959728697e+00	 3.009270196558522e-01	 1.200378808704771e+01
 2.185506696861939e+00	 3.201061087308563e-01	 1.201715251873213e+01
 2.182606669826112e+00	 3.393163865333828e-01	 1.203050298944336e+01
 2.179528712554093e+00	 3.585556382854416e-01	 1.204328881360576e+01
 2.176271691587835e+00	 3.778216160059086e-01	 1.205520247849456e+01
 2.209718133601300e+00	 1.873726533287918e-01	 1.192040821883643e+01
 2.208022518219492e+00	 2.063956981869490e-01	 1.192892514394948e+01
 2.206157089962917e+00	 2.254626739534285e-01	 1.193833973734680e+01
 2.204120502127490e+00	 2.445715657989752e-01	 1.194879868988473e+01
 2.201911434895801e+00	 2.637203231955108e-01	 1.196033170780182e+01
 2.199528596314987e+00	 2.829068602375265e-01	 1.197284913580115e+01
 2.196970723274818e+00	 3.021290559920834e-01	 1.198614042934581e+01
 2.194236582485118e+00	 3.213847548777231e-01	 1.199987361384309e+01
 2.191324971451645e+00	 3.406717670725576e-01	 1.201359587852191e+01
 2.188234719449488e+00	 3.599878689517844e-01	 1.202673546280540e+01
 2.184964688493071e+00	 3.793308035548390e-01	 1.203908006040825e+01
 2.218509613389748e+00	 1.881181252822547e-01	 1.190119996925945e+01
 2.216807251912999e+00	 2.072168543245254e-01	 1.190981576569428e+01
 2.214934401952002e+00	 2.263596890566009e-01	 1.191941309818651e+01
 2.212889711444741e+00	 2.455446066331173e-01	 1.193013368485540e+01
 2.210671855322850e+00	 2.647695483678583e-01	 1.194200084447744e+01
 2.208279536493369e+00	 2.840324200564252e-01	 1.195491668927652e+01
 2.205711486820725e+00	 3.033310923276313e-01	 1.196866013749634e+01
 2.202966468108035e+00	 3.226634010239193e-01	 1.198288588555691e+01
 2.200043273076878e+00	 3.420271476110746e-01	 1.199712449010411e+01
 2.196940726344561e+00	 3.614200996174821e-01	 1.201078372064229e+01
 2.193657685397974e+00	 3.808399911031352e-01	 1.202375001687301e+01
 2.227301093178355e+00	 1.888635972348596e-01	 1.188231970829520e+01
 2.225591985606564e+00	 2.080380104612422e-01	 1.189077644702654e+01
 2.223711713941045e+00	 2.272567041589144e-01	 1.190035972789158e+01
 2.221658920761857e+00	 2.465176474664031e-01	 1.191131906411324e+01
 2.219432275749678e+00	 2.658187735393531e-01	 1.192358385211378e+01
 2.217030476671453e+00	 2.851579798744763e-01	 1.193698330738760e+01
 2.214452250366266e+00	 3.045331286623377e-01	 1.195128573892526e+01
 2.211696353730532e+00	 3.239420471692804e-01	 1.196613272863274e+01
 2.208761574701650e+00	 3.433825281487632e-01	 1.198103869073242e+01
 2.205646733239143e+00	 3.628523302823570e-01	 1.199539167825074e+01
 2.202350682302377e+00	 3.823491786506144e-01	 1.200917541318180e+01
 2.115420713255859e+00	 3.672573031609928e-01	 1.219365379090912e+01
 2.112080218809191e+00	 3.860051560782366e-01	 1.220635604671183e+01
 2.108563621236568e+00	 4.047745206476998e-01	 1.221996150162980e+01
 2.104869918326306e+00	 4.235631242055140e-01	 1.223446841516427e+01
 2.100998143217202e+00	 4.423686640326460e-01	 1.224978451928154e+01
 2.096947365305518e+00	 4.611888079513150e-01	 1.226582825428931e+01
 2.092716691142881e+00	 4.800211949505413e-01	 1.228253248458397e+01
 2.088305265324173e+00	 4.988634358408002e-01	 1.229984797590300e+01
 2.083712271364325e+00	 5.177131139377213e-01	 1.231774656347693e+01
 2.078936932563052e+00	 5.365677857747292e-01	 1.233622394088255e+01
 2.073978512856493e+00	 5.554249818444937e-01	 1.235530200037944e+01
 2.124113710158760e+00	 3.687664907092441e-01	 1.217085951200032e+01
 2.120759488462541e+00	 3.875913850520200e-01	 1.218333940817448e+01
 2.117228439971545e+00	 4.064378794458986e-01	 1.219681064131726e+01
 2.113519558355659e+00	 4.253036918878404e-01	 1.221120335607230e+01
 2.109631872780525e+00	 4.441865101961342e-01	 1.222642782602481e+01
 2.105564448818238e+00	 4.630839926092652e-01	 1.224240361325616e+01
 2.101316389348949e+00	 4.819937684140336e-01	 1.225906353182254e+01
 2.096886835452392e+00	 5.009134386028998e-01	 1.227635736294377e+01
 2.092274967288285e+00	 5.198405765604910e-01	 1.229425524879217e+01
 2.087480004964628e+00	 5.387727287791740e-01	 1.231275069219291e+01
 2.082501209392824e+00	 5.577074156035491e-01	 1.233186309055521e+01
 2.132806707062495e+00	 3.702756782581408e-01	 1.214912445507254e+01
 2.129438758116726e+00	 3.891776140264905e-01	 1.216146876572560e+01
 2.125893258707358e+00	 4.081012382448166e-01	 1.217482379918713e+01
 2.122169198385853e+00	 4.270442595709091e-01	 1.218909954532404e+01
 2.118265602344693e+00	 4.460043563603793e-01	 1.220420937436331e+01
 2.114181532331809e+00	 4.649791772679778e-01	 1.222007457829311e+01
 2.109916087555876e+00	 4.839663418782847e-01	 1.223662859002419e+01
 2.105468405581475e+00	 5.029634413657451e-01	 1.225382094403848e+01
 2.100837663213118e+00	 5.219680391839848e-01	 1.227162090284711e+01
 2.096023077367081e+00	 5.409776717843123e-01	 1.229002067401091e+01
 2.091023905930038e+00	 5.599898493632576e-01	 1.230903814351819e+01
 2.141499703966895e+00	 3.717848658075003e-01	 1.212841980439557e+01
 2.138118027771579e+00	 3.907638430014604e-01	 1.214070829577412e+01
 2.134558077443845e+00	 4.097645970442629e-01	 1.215398110506186e+01
 2.130818838416728e+00	 4.287848272545272e-01	 1.216815324433201e+01
 2.126899331909553e+00	 4.478222025251862e-01	 1.218314166201003e+01
 2.122798615846085e+00	 4.668743619272565e-01	 1.219886991694083e+01
 2.118515785763518e+00	 4.859389153430989e-01	 1.221527266144060e+01
 2.114049975711286e+00	 5.050134441291420e-01	 1.223229985517866e+01
 2.109400359138693e+00	 5.240955018080113e-01	 1.224992063157454e+01
 2.104566149770289e+00	 5.431826147899551e-01	 1.226812673884118e+01
 2.099546602468018e+00	 5.622722831234357e-01	 1.228693547887680e+01
 2.150192700871797e+00	 3.732940533571398e-01	 1.210872100661715e+01
 2.146797297426935e+00	 3.923500719767423e-01	 1.212102416020708e+01
 2.143222896180841e+00	 4.114279558440463e-01	 1.213426428142912e+01
 2.139468478448125e+00	 4.305253949385006e-01	 1.214836190283636e+01
 2.135533061474949e+00	 4.496400486903596e-01	 1.216323795896588e+01
 2.131415699360915e+00	 4.687695465869062e-01	 1.217881874116467e+01
 2.127115483971732e+00	 4.879114888082806e-01	 1.219504065299997e+01
 2.122631545841692e+00	 5.070634468928968e-01	 1.221185468539846e+01
 2.117963055064880e+00	 5.262229644323784e-01	 1.222923053049523e+01
 2.113109222174130e+00	 5.453875577959153e-01	 1.224716025363213e+01
 2.108069299006646e+00	 5.645547168838998e-01	 1.226566144405013e+01
 2.158885697777032e+00	 3.748032409068762e-01	 1.208998131441142e+01
 2.155476567082626e+00	 3.939363009521487e-01	 1.210238441149314e+01
 2.151887714918184e+00	 4.130913146439760e-01	 1.211565655066135e+01
 2.148118118479883e+00	 4.322659626226354e-01	 1.212972406801466e+01
 2.144166791040727e+00	 4.514578948557044e-01	 1.214451221828205e+01
 2.140032782876149e+00	 4.706647312467305e-01	 1.215995041952062e+01
 2.135715182180379e+00	 4.898840622736348e-01	 1.217597728961541e+01
 2.131213115972556e+00	 5.091134496568155e-01	 1.219254539095487e+01
 2.126525750991552e+00	 5.283504270568947e-01	 1.220962559948826e+01
 2.121652294578479e+00	 5.475925008020039e-01	 1.222721101484544e+01
 2.116591995545806e+00	 5.668371506444664e-01	 1.224532032933658e+01
 2.167578694682434e+00	 3.763124284565266e-01	 1.207215601555243e+01
 2.164155836738488e+00	 3.955225299274924e-01	 1.208475889946678e+01
 2.160552533655710e+00	 4.147546734438609e-01	 1.209814254379318e+01
 2.156767758511844e+00	 4.340065303067386e-01	 1.211223929502748e+01
 2.152800520606734e+00	 4.532757410210251e-01	 1.212697898813655e+01
 2.148649866391642e+00	 4.725599159065340e-01	 1.214229449051424e+01
 2.144314880389316e+00	 4.918566357389660e-01	 1.215812702856746e+01
 2.139794686103742e+00	 5.111634524207040e-01	 1.217443121046367e+01
 2.135088446918580e+00	 5.304778896813689e-01	 1.219117965840093e+01
 2.130195366983215e+00	 5.497974438080335e-01	 1.220836716425045e+01
 2.125114692085380e+00	 5.691195844049511e-01	 1.222601428359422e+01
 2.176271691587835e+00	 3.778216160059086e-01	 1.205520247849456e+01
 2.172835106394356e+00	 3.971087589025857e-01	 1.206811917974630e+01
 2.169217352393255e+00	 4.164180322435097e-01	 1.208170821081321e+01
 2.165417398543849e+00	 4.357470979906162e-01	 1.209590805895928e+01
 2.161434250172814e+00	 4.550935871861269e-01	 1.211065332518807e+01
 2.157266949907243e+00	 4.744551005661207e-01	 1.212588057712008e+01
 2.152914578598399e+00	 4.938292092040787e-01	 1.214153397493058e+01
 2.148376256235115e+00	 5.132134551843685e-01	 1.215757058096478e+01
 2.143651142845835e+00	 5.326053523056093e-01	 1.217396526347428e+01
 2.138738439388215e+00	 5.520023868138155e-01	 1.219071510542262e+01
 2.133637388625251e+00	 5.714020181651709e-01	 1.220784323051593e+01
 2.184964688493071e+00	 3.793308035548390e-01	 1.203908006040825e+01
 2.181514376050063e+00	 3.986949878772416e-01	 1.205243842373976e+01
 2.177882171130657e+00	 4.180813910427317e-01	 1.206634073242817e+01
 2.174067038575738e+00	 4.374876656740749e-01	 1.208073166811610e+01
 2.170067979738813e+00	 4.569114333508142e-01	 1.209555070917160e+01
 2.165884033422805e+00	 4.763502852252949e-01	 1.211073830242876e+01
 2.161514276807488e+00	 4.958017826687776e-01	 1.212624179801461e+01
 2.156957826366540e+00	 5.152634579476147e-01	 1.214202105489072e+01
 2.152213838773188e+00	 5.347328149294246e-01	 1.215805362456216e+01
 2.147281511793357e+00	 5.542073298191619e-01	 1.217433942092688e+01
 2.142160085165303e+00	 5.736844519249417e-01	 1.219090478548264e+01
 2.193657685397974e+00	 3.808399911031352e-01	 1.202375001687301e+01
 2.190193645705442e+00	 4.002812168512723e-01	 1.203769133019545e+01
 2.186546989867752e+00	 4.197447498413360e-01	 1.205202843325806e+01
 2.182716678607350e+00	 4.392282333569208e-01	 1.206671217864220e+01
 2.178701709304576e+00	 4.587292795148922e-01	 1.208168695870153e+01
 2.174501116938178e+00	 4.782454698838605e-01	 1.209689720639063e+01
 2.170113975016439e+00	 4.977743561328674e-01	 1.211229364879298e+01
 2.165539396497882e+00	 5.173134607102490e-01	 1.212783921791346e+01
 2.160776534700510e+00	 5.368602775526229e-01	 1.214351452312116e+01
 2.155824584198518e+00	 5.564122728238846e-01	 1.215932279016665e+01
 2.150682781705418e+00	 5.759668856840802e-01	 1.217529417297868e+01
 2.202350682302377e+00	 3.823491786506144e-01	 1.200917541318181e+01
 2.198872915360330e+00	 4.018674458244905e-01	 1.202385403825344e+01
 2.195211808604378e+00	 4.214081086391313e-01	 1.203876069642338e+01
 2.191366318638528e+00	 4.409688010389605e-01	 1.205385231041933e+01
 2.187335438869950e+00	 4.605471256781652e-01	 1.206907814824868e+01
 2.183118200453215e+00	 4.801406545416224e-01	 1.208438666362568e+01
 2.178713673225113e+00	 4.997469295961529e-01	 1.209973207829049e+01
 2.174120966629006e+00	 5.193634634720777e-01	 1.211508060764531e+01
 2.169339230627674e+00	 5.389877401750129e-01	 1.213041623095061e+01
 2.164367656603575e+00	 5.586172158277958e-01	 1.214574590788025e+01
 2.159205478245480e+00	 5.782493194424025e-01	 1.216110414455375e+01
 2.073978512856493e+00	 5.554249818444937e-01	 1.235530200037944e+01
 2.068836318106088e+00	 5.742822076323024e-01	 1.237431581344737e+01
 2.063509698278315e+00	 5.931369452284766e-01	 1.239259462622550e+01
 2.057998046901178e+00	 6.119866534072709e-01	 1.241021156298250e+01
 2.052300801400137e+00	 6.308287682241573e-01	 1.242729212175212e+01
 2.046417443866173e+00	 6.496607038978439e-01	 1.244401370000733e+01
 2.040347501804525e+00	 6.684798537193505e-01	 1.246060428701997e+01
 2.034090548863060e+00	 6.872835909877286e-01	 1.247734027645408e+01
 2.027646205539275e+00	 7.060692699719570e-01	 1.249454335857801e+01
 2.021014139864915e+00	 7.248342268985118e-01	 1.251257645788656e+01
 2.014194068067215e+00	 7.435757809640704e-01	 1.253183265567167e+01
 2.082501209392824e+00	 5.577074156035491e-01	 1.233186309055521e+01
 2.077337883581865e+00	 5.766421322680707e-01	 1.235105188266198e+01
 2.071989374827014e+00	 5.955743505160948e-01	 1.236973632598529e+01
 2.066455074164067e+00	 6.145015186790967e-01	 1.238793515526632e+01
 2.060734416706659e+00	 6.334210622764097e-01	 1.240571928726095e+01
 2.054826882417499e+00	 6.523303849008688e-01	 1.242321148274569e+01
 2.048731996860177e+00	 6.712268691316222e-01	 1.244058514647648e+01
 2.042449331930523e+00	 6.901078774736942e-01	 1.245806221682829e+01
 2.035978506566521e+00	 7.089707533238360e-01	 1.247591010284916e+01
 2.029319187435735e+00	 7.278128219621544e-01	 1.249443763305376e+01
 2.022471089599275e+00	 7.466313915689744e-01	 1.251397047953970e+01
 2.091023905930038e+00	 5.599898493632576e-01	 1.230903814351819e+01
 2.085839449058531e+00	 5.790020569044437e-01	 1.232825821923395e+01
 2.080469051376604e+00	 5.980117558042611e-01	 1.234719367840058e+01
 2.074912101427842e+00	 6.170163839514069e-01	 1.236581358407218e+01
 2.069168032014060e+00	 6.360133563290774e-01	 1.238413906155275e+01
 2.063236320969690e+00	 6.550000659042351e-01	 1.240224309375343e+01
 2.057116491916669e+00	 6.739738845441572e-01	 1.242024942476687e+01
 2.050808114998790e+00	 6.929321639598428e-01	 1.243833052152581e+01
 2.044310807594524e+00	 7.118722366758172e-01	 1.245670454959379e+01
 2.037624235007253e+00	 7.307914170258170e-01	 1.247563132591730e+01
 2.030748111131956e+00	 7.496870021738173e-01	 1.249537457505003e+01
 2.099546602468018e+00	 5.622722831234357e-01	 1.228693547887680e+01
 2.094341014535971e+00	 5.813619815412434e-01	 1.230605793326188e+01
 2.088948727926975e+00	 6.004491610928040e-01	 1.232510348483036e+01
 2.083369128692399e+00	 6.195312492240379e-01	 1.234399615436445e+01
 2.077601647322239e+00	 6.386056503820055e-01	 1.236271198146990e+01
 2.071645759522648e+00	 6.576697469077983e-01	 1.238127895047678e+01
 2.065500986973908e+00	 6.767208999568233e-01	 1.239977599379844e+01
 2.059166898067780e+00	 6.957564504460559e-01	 1.241833102071579e+01
 2.052643108623211e+00	 7.147737200277960e-01	 1.243711792591244e+01
 2.045929282579404e+00	 7.337700120894125e-01	 1.245635253906389e+01
 2.039025132665209e+00	 7.527426127785313e-01	 1.247624710789238e+01
 2.108069299006646e+00	 5.645547168838998e-01	 1.226566144405013e+01
 2.102842580014074e+00	 5.837219061782911e-01	 1.228457167038008e+01
 2.097428404478017e+00	 6.028865663815512e-01	 1.230359959064630e+01
 2.091826155957633e+00	 6.220461144968252e-01	 1.232262872547912e+01
 2.086035262631094e+00	 6.411979444350389e-01	 1.234159465167095e+01
 2.080055198076276e+00	 6.603394279114135e-01	 1.236048505598554e+01
 2.073885482031808e+00	 6.794679153694878e-01	 1.237933883462460e+01
 2.067525681137406e+00	 6.985807369322143e-01	 1.239824418437784e+01
 2.060975409652505e+00	 7.176752033796687e-01	 1.241733563802322e+01
 2.054234330152124e+00	 7.367486071528544e-01	 1.243679000372228e+01
 2.047302154198982e+00	 7.557982233830479e-01	 1.245678104917683e+01
 2.116591995545806e+00	 5.668371506444664e-01	 1.224532032933658e+01
 2.111344145492725e+00	 5.860818308154090e-01	 1.226391752640474e+01
 2.105908081029622e+00	 6.053239716703315e-01	 1.228281279890584e+01
 2.100283183223440e+00	 6.245609797696056e-01	 1.230185362325088e+01
 2.094468877940526e+00	 6.437902384880226e-01	 1.232093965461749e+01
 2.088464636630480e+00	 6.630091089149367e-01	 1.234002290620555e+01
 2.082269977090273e+00	 6.822149307820182e-01	 1.235910694128861e+01
 2.075884464207586e+00	 7.014050234181988e-01	 1.237824502210378e+01
 2.069307710682332e+00	 7.205766867313318e-01	 1.239753716634992e+01
 2.062539377725350e+00	 7.397272022160553e-01	 1.241712606944865e+01
 2.055579175733224e+00	 7.588538339872994e-01	 1.243716032360749e+01
 2.125114692085380e+00	 5.691195844049511e-01	 1.222601428359422e+01
 2.119845710971815e+00	 5.884417554524179e-01	 1.224421096248446e+01
 2.114387757581683e+00	 6.077613769589731e-01	 1.226287078442942e+01
 2.108740210489716e+00	 6.270758450422144e-01	 1.228180955245308e+01
 2.102902493250435e+00	 6.463825325408021e-01	 1.230089546079202e+01
 2.096874075185164e+00	 6.656787899182228e-01	 1.232004939730954e+01
 2.090654472149216e+00	 6.849619461942816e-01	 1.233924422476371e+01
 2.084243247278234e+00	 7.042293099038901e-01	 1.235850298294440e+01
 2.077640011712617e+00	 7.234781700826811e-01	 1.237789596061518e+01
 2.070844425299015e+00	 7.427057972789289e-01	 1.239753725860228e+01
 2.063856197267884e+00	 7.619094445912181e-01	 1.241755995761615e+01
 2.133637388625251e+00	 5.714020181651709e-01	 1.220784323051593e+01
 2.128347276451229e+00	 5.908016800891406e-01	 1.222556472074019e+01
 2.122867434134091e+00	 6.101987822473041e-01	 1.224389800827054e+01
 2.117197237756355e+00	 6.295907103144880e-01	 1.226263150954174e+01
 2.111336108560720e+00	 6.489748265932219e-01	 1.228160633913998e+01
 2.105283513740229e+00	 6.683484709211277e-01	 1.230071673326217e+01
 2.099038967208545e+00	 6.877089616061454e-01	 1.231990941698675e+01
 2.092602030349270e+00	 7.070535963891693e-01	 1.233918185530003e+01
 2.085972312743283e+00	 7.263796534336128e-01	 1.235857933493880e+01
 2.079149472873056e+00	 7.456843923413875e-01	 1.237819578151980e+01
 2.072133218802911e+00	 7.649650551947358e-01	 1.239814622745710e+01
 2.142160085165303e+00	 5.736844519249417e-01	 1.219090478548264e+01
 2.136848841930855e+00	 5.931616047253985e-01	 1.220808874038174e+01
 2.131347110686737e+00	 6.126361875351529e-01	 1.222601563256758e+01
 2.125654265023253e+00	 6.321055755862620e-01	 1.224445069569522e+01
 2.119769723871279e+00	 6.515671206451272e-01	 1.226321226773013e+01
 2.113692952295582e+00	 6.710181519235066e-01	 1.228217233351461e+01
 2.107423462268170e+00	 6.904559770174771e-01	 1.230125597498311e+01
 2.100960813420607e+00	 7.098778828739175e-01	 1.232043966685374e+01
 2.094304613774258e+00	 7.292811367840228e-01	 1.233974836294101e+01
 2.087454520447409e+00	 7.486629874033446e-01	 1.235926497312715e+01
 2.080410240338255e+00	 7.680206657977842e-01	 1.237907680726415e+01
 2.150682781705418e+00	 5.759668856840802e-01	 1.217529417297868e+01
 2.145350407410583e+00	 5.955215293610134e-01	 1.219189007428700e+01
 2.139826787239514e+00	 6.150735928223476e-01	 1.220934143576698e+01
 2.134111292290306e+00	 6.346204408573730e-01	 1.222739443014140e+01
 2.128203339182012e+00	 6.541594146963634e-01	 1.224584884462673e+01
 2.122102390851126e+00	 6.736878329252148e-01	 1.226455874084479e+01
 2.115807957328000e+00	 6.932029924281443e-01	 1.228343198507998e+01
 2.109319596492164e+00	 7.127021693580154e-01	 1.230242858454601e+01
 2.102636914805465e+00	 7.321826201338077e-01	 1.232155777285013e+01
 2.095759568022010e+00	 7.516415824647141e-01	 1.234089953593298e+01
 2.088687261873863e+00	 7.710762764002955e-01	 1.236050091707092e+01
 2.159205478245480e+00	 5.782493194424025e-01	 1.216110414455375e+01
 2.153851972890299e+00	 5.978814539958068e-01	 1.217707280603158e+01
 2.148306463792314e+00	 6.175109981087173e-01	 1.219398972820749e+01
 2.142568319557409e+00	 6.371353061276571e-01	 1.221158606376438e+01
 2.136636954492820e+00	 6.567517087467752e-01	 1.222964719896811e+01
 2.130511829406764e+00	 6.763575139261084e-01	 1.224801352933925e+01
 2.124192452387945e+00	 6.959500078380145e-01	 1.226658006720577e+01
 2.117678379563856e+00	 7.155264558413442e-01	 1.228529481458961e+01
 2.110969215836830e+00	 7.350841034828632e-01	 1.230415584261543e+01
 2.104064615596794e+00	 7.546201775254083e-01	 1.232324579152050e+01
 2.096964283409688e+00	 7.741318870022024e-01	 1.234255947079549e+01
 2.014194068067215e+00	 7.435757809640704e-01	 1.253183265567167e+01
 2.007184547478847e+00	 7.622944146716788e-01	 1.254989081571420e+01
 1.999986534868971e+00	 7.809842258426540e-01	 1.256458446756467e+01
 1.992599893353933e+00	 7.996424865837992e-01	 1.257653200800636e+01
 1.985024536674227e+00	 8.182664562179760e-01	 1.258637090199405e+01
 1.977260429726245e+00	 8.368533824140595e-01	 1.259474905891692e+01
 1.969307589065010e+00	 8.554005023379549e-01	 1.260231512348206e+01
 1.961166083376974e+00	 8.739050438238590e-01	 1.260970764612200e+01
 1.952836033922081e+00	 8.923642265648891e-01	 1.261754310252324e+01
 1.944317614944240e+00	 9.107752633221808e-01	 1.262640273708857e+01
 1.935611054049432e+00	 9.291353611515104e-01	 1.263681821087473e+01
 2.022471089599275e+00	 7.466313915689744e-01	 1.251397047953970e+01
 2.015432764461386e+00	 7.654269466301140e-01	 1.253211138774980e+01
 2.008205172722931e+00	 7.841935607127992e-01	 1.254681968966141e+01
 2.000788176937756e+00	 8.029284947139812e-01	 1.255872113228363e+01
 1.993181690491892e+00	 8.216289966941377e-01	 1.256846354856530e+01
 1.985385678137485e+00	 8.402923030118693e-01	 1.257670824414137e+01
 1.977400156497592e+00	 8.589156394796459e-01	 1.258412027406714e+01
 1.969225194540931e+00	 8.774962225398828e-01	 1.259135757258301e+01
 1.960860914025747e+00	 8.960312604604593e-01	 1.259905890371845e+01
 1.952307489911985e+00	 9.145179545487901e-01	 1.260783060584850e+01
 1.943565150740947e+00	 9.329535003834831e-01	 1.261823210914914e+01
 2.030748111131956e+00	 7.496870021738173e-01	 1.249537457505003e+01
 2.023680981444456e+00	 7.685594785884093e-01	 1.251359417127469e+01
 2.016423810577315e+00	 7.874028955827291e-01	 1.252834731802800e+01
 2.008976460521891e+00	 8.062145028438797e-01	 1.254026199947249e+01
 2.001338844309751e+00	 8.249915371699555e-01	 1.254999117461856e+01
 1.993510926548799e+00	 8.437312236092845e-01	 1.255820418512943e+01
 1.985492723930135e+00	 8.624307766209049e-01	 1.256557702844053e+01
 1.977284305704739e+00	 8.810874012554500e-01	 1.257278145731591e+01
 1.968885794129171e+00	 8.996982943555670e-01	 1.258047287180258e+01
 1.960297364879411e+00	 9.182606457749486e-01	 1.258927697493668e+01
 1.951519247432082e+00	 9.367716396150376e-01	 1.259977516949366e+01
 2.039025132665209e+00	 7.527426127785313e-01	 1.247624710789238e+01
 2.031929198428021e+00	 7.716920105465177e-01	 1.249453414754810e+01
 2.024642448432109e+00	 7.906122304524191e-01	 1.250935367114100e+01
 2.017164744106341e+00	 8.095005109734911e-01	 1.252133080811273e+01
 2.009495998127826e+00	 8.283540776454471e-01	 1.253111842523089e+01
 2.001636174960232e+00	 8.471701442063436e-01	 1.253938856622537e+01
 1.993585291362701e+00	 8.659459137617870e-01	 1.254682273202071e+01
 1.985343416868482e+00	 8.846785799706316e-01	 1.255410096070607e+01
 1.976910674232447e+00	 9.033653282502914e-01	 1.256188967129491e+01
 1.968287239846621e+00	 9.220033370007406e-01	 1.257082824080794e+01
 1.959473344122953e+00	 9.405897788462569e-01	 1.258151429025814e+01
 2.047302154198982e+00	 7.557982233830479e-01	 1.245678104917683e+01
 2.040177415412047e+00	 7.748245425043910e-01	 1.247511717260676e+01
 2.032861086287296e+00	 7.938215653218436e-01	 1.249001604332660e+01
 2.025353027691110e+00	 8.127865191028123e-01	 1.250209486342192e+01
 2.017653151946145e+00	 8.317166181206312e-01	 1.251200121076591e+01
 2.009761423371831e+00	 8.506090648030845e-01	 1.252040452146250e+01
 2.001677858795353e+00	 8.694610509023473e-01	 1.252798638811709e+01
 1.993402528032240e+00	 8.882697586854972e-01	 1.253542963103348e+01
 1.984935554335675e+00	 9.070323621447128e-01	 1.254340610441819e+01
 1.976277114813727e+00	 9.257460282262511e-01	 1.255256320524389e+01
 1.967427440813676e+00	 9.444079180772248e-01	 1.256350905857485e+01
 2.055579175733224e+00	 7.588538339872994e-01	 1.243716032360749e+01
 2.048425632396499e+00	 7.779570744619830e-01	 1.245552013108957e+01
 2.041079724142859e+00	 7.970309001909767e-01	 1.247050286360874e+01
 2.033541311276201e+00	 8.160725272318403e-01	 1.248271274054572e+01
 2.025810305764729e+00	 8.350791585955256e-01	 1.249278687391249e+01
 2.017886671783635e+00	 8.540479853995451e-01	 1.250138680478418e+01
 2.009770426228157e+00	 8.729761880426430e-01	 1.250918883073547e+01
 2.001461639196094e+00	 8.918609374001163e-01	 1.251687307927366e+01
 1.992960434438949e+00	 9.106993960389111e-01	 1.252511128731591e+01
 1.984266989780838e+00	 9.294887194515642e-01	 1.253455325241689e+01
 1.975381537504368e+00	 9.482260573080245e-01	 1.254581192771132e+01
 2.063856197267884e+00	 7.619094445912181e-01	 1.241755995761615e+01
 2.056673849381341e+00	 7.810896064192457e-01	 1.243591109002018e+01
 2.049298361998782e+00	 8.002402350597938e-01	 1.245097385452705e+01
 2.041729594861618e+00	 8.193585353605715e-01	 1.246333444780382e+01
 2.033967459583602e+00	 8.384416990701486e-01	 1.247361435675792e+01
 2.026011920195694e+00	 8.574869059957645e-01	 1.248246196035077e+01
 2.017862993661176e+00	 8.764913251827290e-01	 1.249054289753295e+01
 2.009520750360128e+00	 8.954521161145592e-01	 1.249852915412349e+01
 2.000985314542367e+00	 9.143664299329661e-01	 1.250708682658080e+01
 1.992256864748060e+00	 9.332314106767650e-01	 1.251686252636317e+01
 1.983335634195144e+00	 9.520441965387395e-01	 1.252846839494018e+01
 2.072133218802911e+00	 7.649650551947358e-01	 1.239814622745710e+01
 2.064922066366541e+00	 7.842221383761329e-01	 1.241644945254879e+01
 2.057516999855050e+00	 8.034495699282691e-01	 1.243158019092561e+01
 2.049917878447365e+00	 8.226445434890033e-01	 1.244410158993149e+01
 2.042124613402789e+00	 8.418042395445188e-01	 1.245461436789436e+01
 2.034137168608048e+00	 8.609258265917804e-01	 1.246374849292960e+01
 2.025955561094475e+00	 8.800064623226614e-01	 1.247215360291816e+01
 2.017579861524422e+00	 8.990432948288959e-01	 1.248048811724576e+01
 2.009010194646027e+00	 9.180334638269577e-01	 1.248940699608662e+01
 2.000246739715504e+00	 9.369741019019382e-01	 1.249954810885392e+01
 1.991289730886122e+00	 9.558623357694527e-01	 1.251151717991130e+01
 2.080410240338255e+00	 7.680206657977842e-01	 1.237907680726415e+01
 2.073170283352062e+00	 7.873546703325958e-01	 1.239728611165411e+01
 2.065735637711644e+00	 8.066589047963771e-01	 1.241246465871336e+01
 2.058106162033445e+00	 8.259305516171316e-01	 1.242514753131699e+01
 2.050281767222315e+00	 8.451667800186544e-01	 1.243590954955770e+01
 2.042262417020745e+00	 8.643647471876307e-01	 1.244535703836652e+01
 2.034048128528116e+00	 8.835215994624956e-01	 1.245411831129273e+01
 2.025638972689056e+00	 9.026344735431960e-01	 1.246283281872621e+01
 2.017035074750024e+00	 9.217004977209656e-01	 1.247213891411426e+01
 2.008236614683276e+00	 9.407167931271685e-01	 1.248266019765276e+01
 1.999243827577417e+00	 9.596804750002486e-01	 1.249499040351245e+01
 2.088687261873863e+00	 7.710762764002955e-01	 1.236050091707092e+01
 2.081418500337869e+00	 7.904872022885883e-01	 1.237856360380685e+01
 2.073954275568549e+00	 8.098682396640930e-01	 1.239376181359689e+01
 2.066294445619862e+00	 8.292165597449541e-01	 1.240659755923499e+01
 2.058438921042203e+00	 8.485293204925737e-01	 1.241761464479812e+01
 2.050387665433826e+00	 8.678036677833542e-01	 1.242739053413589e+01
 2.042140695962164e+00	 8.870367366022874e-01	 1.243652691043023e+01
 2.033698083854115e+00	 9.062256522575299e-01	 1.244563887273743e+01
 2.025059954854456e+00	 9.253675316150700e-01	 1.245534272076448e+01
 2.016226489651488e+00	 9.444594843525407e-01	 1.246624228514944e+01
 2.007197924269145e+00	 9.634986142312094e-01	 1.247891376720509e+01
 2.096964283409688e+00	 7.741318870022024e-01	 1.234255947079549e+01
 2.089666717323930e+00	 7.936197342440635e-01	 1.236041626259567e+01
 2.082172913425751e+00	 8.130775745313916e-01	 1.237559813978648e+01
 2.074482729206619e+00	 8.325025678724669e-01	 1.238856904707588e+01
 2.066596074862476e+00	 8.518918609662948e-01	 1.239983666468118e+01
 2.058512913847339e+00	 8.712425883789894e-01	 1.240994438996751e+01
 2.050233263396684e+00	 8.905518737420933e-01	 1.241946198498881e+01
 2.041757195019681e+00	 9.098168309719679e-01	 1.242897483340383e+01
 2.033084834959419e+00	 9.290345655093508e-01	 1.243907175564913e+01
 2.024216364620247e+00	 9.482021755781400e-01	 1.245033133735913e+01
 2.015152020961425e+00	 9.673167534624195e-01	 1.246330673282200e+01
 1.935611054049432e+00	 9.291353611515104e-01	 1.263681821087473e+01
 1.926718160155936e+00	 9.474386154707789e-01	 1.264726432421327e+01
 1.917637803321350e+00	 9.656853515605142e-01	 1.265592715565847e+01
 1.908370371613757e+00	 9.838727672977978e-01	 1.266276841741361e+01
 1.898916307608127e+00	 1.001998059881856e+00	 1.266762169161854e+01
 1.889276108593128e+00	 1.020058427132333e+00	 1.267017241610222e+01
 1.879450326741568e+00	 1.038051068798763e+00	 1.266993672354577e+01
 1.869439569243934e+00	 1.055973187880068e+00	 1.266623916704448e+01
 1.859244498404515e+00	 1.073821991952893e+00	 1.265818937401566e+01
 1.848865831699675e+00	 1.091594694507553e+00	 1.264489704160093e+01
 1.838304341797836e+00	 1.109288516290360e+00	 1.262846123095946e+01
 1.943565150740947e+00	 9.329535003834831e-01	 1.261823210914914e+01
 1.934635712864383e+00	 9.513319691184711e-01	 1.262870883020810e+01
 1.925518041696562e+00	 9.696536873709692e-01	 1.263741964616219e+01
 1.916212526900262e+00	 9.879158415031603e-01	 1.264435885599899e+01
 1.906719612869136e+00	 1.006115617196585e+00	 1.264939192029896e+01
 1.897039798935374e+00	 1.024250200755752e+00	 1.265223511748735e+01
 1.887173639540842e+00	 1.042316780422991e+00	 1.265243401877263e+01
 1.877121744371174e+00	 1.060312547703372e+00	 1.264934081440314e+01
 1.866884778452287e+00	 1.078234698698499e+00	 1.264209053304676e+01
 1.856463462208891e+00	 1.096080435447949e+00	 1.262957620552072e+01
 1.845858571484564e+00	 1.113846967277110e+00	 1.261131738627036e+01
 1.951519247432082e+00	 9.367716396150376e-01	 1.259977516949366e+01
 1.942553265572416e+00	 9.552253227657993e-01	 1.261036595861274e+01
 1.933398280071349e+00	 9.736220231811342e-01	 1.261916802008419e+01
 1.924054682186348e+00	 9.919589157083222e-01	 1.262620949482973e+01
 1.914522918129753e+00	 1.010233174511214e+00	 1.263138944909863e+01
 1.904803489277268e+00	 1.028441974379180e+00	 1.263445720409069e+01
 1.894896952339819e+00	 1.046582492047340e+00	 1.263499044819324e+01
 1.884803919498182e+00	 1.064651907526910e+00	 1.263237216406067e+01
 1.874525058499899e+00	 1.082647405444447e+00	 1.262576641215927e+01
 1.864061092718026e+00	 1.100566176388786e+00	 1.261409302205433e+01
 1.853412801171289e+00	 1.118405418264389e+00	 1.259639745843368e+01
 1.959473344122953e+00	 9.405897788462569e-01	 1.258151429025814e+01
 1.950470818280154e+00	 9.591186764128397e-01	 1.259228462582180e+01
 1.941278518445825e+00	 9.775903589910715e-01	 1.260120742230710e+01
 1.931896837472129e+00	 9.960019899133258e-01	 1.260834589478976e+01
 1.922326223390080e+00	 1.014350731825763e+00	 1.261363441929129e+01
 1.912567179618903e+00	 1.032633748002612e+00	 1.261685753876750e+01
 1.902620265138577e+00	 1.050848203671779e+00	 1.261762771427835e+01
 1.892486094625017e+00	 1.068991267350622e+00	 1.261536185311747e+01
 1.882165338547392e+00	 1.087060112190651e+00	 1.260925665530103e+01
 1.871658723227099e+00	 1.105051917329954e+00	 1.259826282970660e+01
 1.860967030858012e+00	 1.122963869252066e+00	 1.258203907985253e+01
 1.967427440813676e+00	 9.444079180772248e-01	 1.256350905857485e+01
 1.958388370987716e+00	 9.630120300596674e-01	 1.257450669067065e+01
 1.949158756820112e+00	 9.815586948008418e-01	 1.258356611929276e+01
 1.939738992757716e+00	 1.000045064118215e+00	 1.259078684227082e+01
 1.930129528650220e+00	 1.018468289140254e+00	 1.259614022578185e+01
 1.920330869960368e+00	 1.036825521626043e+00	 1.259944818982485e+01
 1.910343577937188e+00	 1.055113915296276e+00	 1.260036060007186e+01
 1.900168269751738e+00	 1.073330627174449e+00	 1.259833139737709e+01
 1.889805618594804e+00	 1.091472818937026e+00	 1.259259350607659e+01
 1.879256353736129e+00	 1.109537658271343e+00	 1.258213257234771e+01
 1.868521260544733e+00	 1.127522320240007e+00	 1.256741992901508e+01
 1.975381537504368e+00	 9.482260573080245e-01	 1.254581192771132e+01
 1.966305923695221e+00	 9.669053837063573e-01	 1.255706713240863e+01
 1.957038995194323e+00	 9.855270306105074e-01	 1.256626567888179e+01
 1.947581148043220e+00	 1.004088138323032e+00	 1.257354453199255e+01
 1.937932833910279e+00	 1.022585846454706e+00	 1.257891370412855e+01
 1.928094560301754e+00	 1.041017295249468e+00	 1.258223462341404e+01
 1.918066890735730e+00	 1.059379626920799e+00	 1.258319716810851e+01
 1.907850444878401e+00	 1.077669986998334e+00	 1.258129539792919e+01
 1.897445898642177e+00	 1.095885525683485e+00	 1.257580202312057e+01
 1.886853984245140e+00	 1.114023399212843e+00	 1.256578775927283e+01
 1.876075490231453e+00	 1.132080771228081e+00	 1.255254862292412e+01
 1.983335634195144e+00	 9.520441965387395e-01	 1.252846839494018e+01
 1.974223476402787e+00	 9.707987373529852e-01	 1.253999422928542e+01
 1.964919233568579e+00	 9.894953664201290e-01	 1.254932115076998e+01
 1.955423303328753e+00	 1.008131212527820e+00	 1.255662475053033e+01
 1.945736139170353e+00	 1.026703403769140e+00	 1.256195531827120e+01
 1.935858250643150e+00	 1.045209068872882e+00	 1.256521589659538e+01
 1.925790203534276e+00	 1.063645338545317e+00	 1.256613895993706e+01
 1.915532620005068e+00	 1.082009346822216e+00	 1.256426174823960e+01
 1.905086178689550e+00	 1.100298232429944e+00	 1.255890029584765e+01
 1.894451614754149e+00	 1.118509140154342e+00	 1.254939797571079e+01
 1.883629719918174e+00	 1.136639222216155e+00	 1.253742994296053e+01
 1.991289730886122e+00	 9.558623357694527e-01	 1.251151717991130e+01
 1.982141029110534e+00	 9.746920909996273e-01	 1.252330973773351e+01
 1.972799471942996e+00	 9.934637022297690e-01	 1.253274124764250e+01
 1.963265458614427e+00	 1.012174286732622e+00	 1.254002706053100e+01
 1.953539444430550e+00	 1.030820961083575e+00	 1.254525934894590e+01
 1.943621940984647e+00	 1.049400842496282e+00	 1.254838485105621e+01
 1.933513516332905e+00	 1.067911050169797e+00	 1.254918119623254e+01
 1.923214795131795e+00	 1.086348706646036e+00	 1.254723184173332e+01
 1.912726458736965e+00	 1.104710939176316e+00	 1.254189966056864e+01
 1.902049245263181e+00	 1.122994881095731e+00	 1.253295838765762e+01
 1.891183949604895e+00	 1.141197673204096e+00	 1.252206495138070e+01
 1.999243827577417e+00	 9.596804750002486e-01	 1.249499040351245e+01
 1.990058581818582e+00	 9.785854446463579e-01	 1.250702907213010e+01
 1.980679710317691e+00	 9.974320380394882e-01	 1.251652852694774e+01
 1.971107613900354e+00	 1.016217360937480e+00	 1.252374498559764e+01
 1.961342749690970e+00	 1.034938518398033e+00	 1.252881408276717e+01
 1.951385631326335e+00	 1.053592616119660e+00	 1.253172830746413e+01
 1.941236829131689e+00	 1.072176761794209e+00	 1.253231297748103e+01
 1.930896970258641e+00	 1.090688066469737e+00	 1.253020077985705e+01
 1.920366738784460e+00	 1.109123645922516e+00	 1.252480491696268e+01
 1.909646875772254e+00	 1.127480622036900e+00	 1.251644662766576e+01
 1.898738179291617e+00	 1.145756124191772e+00	 1.250645110783551e+01
 2.007197924269145e+00	 9.634986142312094e-01	 1.247891376720509e+01
 1.997976134527049e+00	 9.824787982932531e-01	 1.249116148512266e+01
 1.988559948692782e+00	 1.001400373849349e+00	 1.250067957329319e+01
 1.978949769186645e+00	 1.020260435142437e+00	 1.250776619582464e+01
 1.969146054951716e+00	 1.039056075712533e+00	 1.251260200195912e+01
 1.959149321668304e+00	 1.057784389743013e+00	 1.251522726043808e+01
 1.948960141930705e+00	 1.076442473418519e+00	 1.251551748522121e+01
 1.938579145385666e+00	 1.095027426293259e+00	 1.251315758060813e+01
 1.928007018832077e+00	 1.113536352668460e+00	 1.250763493487317e+01
 1.917244506281389e+00	 1.131966362977736e+00	 1.249983719240435e+01
 1.906292408978343e+00	 1.150314575179052e+00	 1.249058238590989e+01
 2.015152020961425e+00	 9.673167534624195e-01	 1.246330673282200e+01
 2.005893687236054e+00	 9.863721519403884e-01	 1.247571024850232e+01
 1.996440187068388e+00	 1.005368709659412e+00	 1.248518518144614e+01
 1.986791924473414e+00	 1.024303509347537e+00	 1.249207269396553e+01
 1.976949360212890e+00	 1.043173633027096e+00	 1.249659997471781e+01
 1.966913012010647e+00	 1.061976163366336e+00	 1.249885707412027e+01
 1.956683454730029e+00	 1.080708185042699e+00	 1.249877218382739e+01
 1.946261320512928e+00	 1.099366786116542e+00	 1.249608538751678e+01
 1.935647298879856e+00	 1.117949059414060e+00	 1.249046854209886e+01
 1.924842136790607e+00	 1.136452103918131e+00	 1.248310154980047e+01
 1.913846638665072e+00	 1.154873026165801e+00	 1.247444938968293e+01
 1.838304341797836e+00	 1.109288516290360e+00	 1.262846123095946e+01
 1.827560856984948e+00	 1.126900687002145e+00	 1.261265295186444e+01
 1.816636262431510e+00	 1.144428447724527e+00	 1.260158729157600e+01
 1.805531498748641e+00	 1.161869051257882e+00	 1.259327421252244e+01
 1.794247561403101e+00	 1.179219763129365e+00	 1.258578261730897e+01
 1.782785500538586e+00	 1.196477862946308e+00	 1.257726283431702e+01
 1.771146420757310e+00	 1.213640645748062e+00	 1.256593898148935e+01
 1.759331480861803e+00	 1.230705423354943e+00	 1.255009894697232e+01
 1.747341893556909e+00	 1.247669525712911e+00	 1.252808200280360e+01
 1.735178925112020e+00	 1.264530302232631e+00	 1.249826408643806e+01
 1.722843894983654e+00	 1.281285123121560e+00	 1.245904080369921e+01
 1.845858571484564e+00	 1.113846967277110e+00	 1.261131738627036e+01
 1.835070937968959e+00	 1.131531512502689e+00	 1.259525933405033e+01
 1.824101450470054e+00	 1.149131300868953e+00	 1.258437714559494e+01
 1.812951053464272e+00	 1.166643573887080e+00	 1.257653301275356e+01
 1.801620746509102e+00	 1.184065585847327e+00	 1.256968730610193e+01
 1.790111584063650e+00	 1.201394605177988e+00	 1.256189343184356e+01
 1.778424675269332e+00	 1.218627915802793e+00	 1.255129022342276e+01
 1.766561183690609e+00	 1.235762818495394e+00	 1.253609186455550e+01
 1.754522327015755e+00	 1.252796632229572e+00	 1.251457535919555e+01
 1.742309376717713e+00	 1.269726695523801e+00	 1.248506558309625e+01
 1.729923657675115e+00	 1.286550367778807e+00	 1.244591797097054e+01
 1.853412801171289e+00	 1.118405418264389e+00	 1.259639745843368e+01
 1.842581018953048e+00	 1.136162338003836e+00	 1.257946102089385e+01
 1.831566638508754e+00	 1.153834154014039e+00	 1.256815840401389e+01
 1.820370608180139e+00	 1.171418096516981e+00	 1.256028413412715e+01
 1.808993931615413e+00	 1.188911408566021e+00	 1.255368817707384e+01
 1.797437667589097e+00	 1.206311347410417e+00	 1.254632486259684e+01
 1.785702929781807e+00	 1.223615185858278e+00	 1.253624530360095e+01
 1.773790886519932e+00	 1.240820213636592e+00	 1.252158726005230e+01
 1.761702760475180e+00	 1.257923738746963e+00	 1.250056246234413e+01
 1.749439828324040e+00	 1.274923088815674e+00	 1.247144142864668e+01
 1.737003420367256e+00	 1.291815612436721e+00	 1.243253583066063e+01
 1.860967030858012e+00	 1.122963869252066e+00	 1.258203907985253e+01
 1.850091099937194e+00	 1.140793163505434e+00	 1.256534778127585e+01
 1.839031826547572e+00	 1.158537007159620e+00	 1.255304082902924e+01
 1.827790162896181e+00	 1.176192619147409e+00	 1.254465187105440e+01
 1.816367116721958e+00	 1.193757231285266e+00	 1.253791851998672e+01
 1.804763751114833e+00	 1.211228089643409e+00	 1.253069381039510e+01
 1.792981184294625e+00	 1.228602455914329e+00	 1.252093864568815e+01
 1.781020589349650e+00	 1.245877608778351e+00	 1.250671160150136e+01
 1.768883193935048e+00	 1.263050845264901e+00	 1.248615609967758e+01
 1.756570279930857e+00	 1.280119482108074e+00	 1.245748498720648e+01
 1.744083183059930e+00	 1.297080857095136e+00	 1.241896257495848e+01
 1.868521260544733e+00	 1.127522320240007e+00	 1.256741992901508e+01
 1.857601180921378e+00	 1.145423989007335e+00	 1.255233363886430e+01
 1.846497014586467e+00	 1.163239860305531e+00	 1.253911656205352e+01
 1.835209717612342e+00	 1.180967141778190e+00	 1.252974293911633e+01
 1.823740301828660e+00	 1.198603054004876e+00	 1.252249416081008e+01
 1.812089834640766e+00	 1.216144831876776e+00	 1.251511968265857e+01
 1.800259438807678e+00	 1.233589725970756e+00	 1.250548765603488e+01
 1.788250292179642e+00	 1.250935003920483e+00	 1.249157466979528e+01
 1.776063627395229e+00	 1.268177951783206e+00	 1.247145277218562e+01
 1.763700731538021e+00	 1.285315875400826e+00	 1.244327380722060e+01
 1.751162945752986e+00	 1.302346101753885e+00	 1.240525112078922e+01
 1.876075490231453e+00	 1.132080771228081e+00	 1.255254862292412e+01
 1.865111261905582e+00	 1.150054814509385e+00	 1.253891311520201e+01
 1.853962202625403e+00	 1.167942713451607e+00	 1.252638594651031e+01
 1.842629272328563e+00	 1.185741664409146e+00	 1.251564693422670e+01
 1.831113486935444e+00	 1.203448876724669e+00	 1.250751392640990e+01
 1.819415918166803e+00	 1.221061574110329e+00	 1.249970507825861e+01
 1.807537693320858e+00	 1.238576996027372e+00	 1.248999319231319e+01
 1.795479995009785e+00	 1.255992399062802e+00	 1.247627002572337e+01
 1.783244060855584e+00	 1.273305058301691e+00	 1.245653315748800e+01
 1.770831183145389e+00	 1.290512268693754e+00	 1.242887007817520e+01
 1.758242708446275e+00	 1.307611346412800e+00	 1.239143955779293e+01
 1.883629719918174e+00	 1.136639222216155e+00	 1.253742994296053e+01
 1.872621342889786e+00	 1.154685640011436e+00	 1.252504609902105e+01
 1.861427390664340e+00	 1.172645566597684e+00	 1.251355260937125e+01
 1.850048827044785e+00	 1.190516187040101e+00	 1.250243679139910e+01
 1.838486672042233e+00	 1.208294699444463e+00	 1.249306010879293e+01
 1.826742001692850e+00	 1.225978316343882e+00	 1.248453625491888e+01
 1.814815947834057e+00	 1.243564266083988e+00	 1.247454003174717e+01
 1.802709697839955e+00	 1.261049794205120e+00	 1.246087547669873e+01
 1.790424494315982e+00	 1.278432164820177e+00	 1.244146257272313e+01
 1.777961634752816e+00	 1.295708661986680e+00	 1.241432108731196e+01
 1.765322471139646e+00	 1.312876591071715e+00	 1.237755159653227e+01
 1.891183949604895e+00	 1.141197673204096e+00	 1.252206495138070e+01
 1.880131423873971e+00	 1.159316465513336e+00	 1.251075297259013e+01
 1.868892578703238e+00	 1.177348419743595e+00	 1.250015011443052e+01
 1.857468381760953e+00	 1.195290709670882e+00	 1.248971071931750e+01
 1.845859857148952e+00	 1.213140522164074e+00	 1.247919892891898e+01
 1.834068085218814e+00	 1.230895058577249e+00	 1.246968359618133e+01
 1.822094202347163e+00	 1.248551536140415e+00	 1.245919733895009e+01
 1.809939400670032e+00	 1.266107189347253e+00	 1.244545354317841e+01
 1.797604927776289e+00	 1.283559271338480e+00	 1.242629143726080e+01
 1.785092086360161e+00	 1.300905055279432e+00	 1.239965967634336e+01
 1.772402233832950e+00	 1.318141835730464e+00	 1.236359701692191e+01
 1.898738179291617e+00	 1.145756124191772e+00	 1.250645110783551e+01
 1.887641504858117e+00	 1.163947291014934e+00	 1.249605016554437e+01
 1.876357766742059e+00	 1.182051272889176e+00	 1.248620845057211e+01
 1.864887936477006e+00	 1.200065232301310e+00	 1.247639900301976e+01
 1.853233042255522e+00	 1.217986344883317e+00	 1.246595861107136e+01
 1.841394168744601e+00	 1.235811800810240e+00	 1.245520207794920e+01
 1.829372456860071e+00	 1.253538806196465e+00	 1.244401913337875e+01
 1.817169103499892e+00	 1.271164584489011e+00	 1.243005192478549e+01
 1.804785361236369e+00	 1.288686377856418e+00	 1.241105573524502e+01
 1.792222537967280e+00	 1.306101448571833e+00	 1.238490469816889e+01
 1.779481996526039e+00	 1.323407080388878e+00	 1.234957211687347e+01
 1.906292408978343e+00	 1.150314575179052e+00	 1.249058238590989e+01
 1.895151585842206e+00	 1.168578116516081e+00	 1.248095028067087e+01
 1.883822954780765e+00	 1.186754126034262e+00	 1.247175352033728e+01
 1.872307491192888e+00	 1.204839754931210e+00	 1.246248594043474e+01
 1.860606227361870e+00	 1.222832167602012e+00	 1.245250633203608e+01
 1.848720252270120e+00	 1.240728543042670e+00	 1.244113173461821e+01
 1.836650711372670e+00	 1.258526076251949e+00	 1.242904475641611e+01
 1.824398806329413e+00	 1.276221979630209e+00	 1.241470396614065e+01
 1.811965794696090e+00	 1.293813484373809e+00	 1.239577747797040e+01
 1.799352989574029e+00	 1.311297841863705e+00	 1.237006147359188e+01
 1.786561759218760e+00	 1.328672325046793e+00	 1.233546016115021e+01
 1.913846638665072e+00	 1.154873026165801e+00	 1.247444938968293e+01
 1.902661666826218e+00	 1.173208942016625e+00	 1.246546221954744e+01
 1.891288142819316e+00	 1.191456979178688e+00	 1.245680727287353e+01
 1.879727045908540e+00	 1.209614277560408e+00	 1.244800126341982e+01
 1.867979412467919e+00	 1.227677990319973e+00	 1.243842661668944e+01
 1.856046335795278e+00	 1.245645285274350e+00	 1.242732268437741e+01
 1.843928965884853e+00	 1.263513346306681e+00	 1.241429933809193e+01
 1.831628509158474e+00	 1.281279374770660e+00	 1.239942912241193e+01
 1.819146228155318e+00	 1.298940590890470e+00	 1.238046516609751e+01
 1.806483441180266e+00	 1.316494235154875e+00	 1.235512224803662e+01
 1.793641521910966e+00	 1.333937569704040e+00	 1.232123183042478e+01
 1.722843894983654e+00	 1.281285123121560e+00	 1.245904080369921e+01
 1.710336036041581e+00	 1.297934199784559e+00	 1.241583402989076e+01
 1.697658861935259e+00	 1.314472081178694e+00	 1.237490623750092e+01
 1.684813856886373e+00	 1.330896196964246e+00	 1.233591807531858e+01
 1.671802556470602e+00	 1.347204002803646e+00	 1.229853968467311e+01
 1.658626547041991e+00	 1.363392981644274e+00	 1.226242207127295e+01
 1.645287465119243e+00	 1.379460644986235e+00	 1.222716678666606e+01
 1.631786996734402e+00	 1.395404534133789e+00	 1.219229410167582e+01
 1.618126876744440e+00	 1.411222221429127e+00	 1.215720986986258e+01
 1.604308888106322e+00	 1.426911311467221e+00	 1.212117129371153e+01
 1.590334861116157e+00	 1.442469442290463e+00	 1.208325181973027e+01
 1.729923657675115e+00	 1.286550367778807e+00	 1.244591797097053e+01
 1.717364399605329e+00	 1.303267861268188e+00	 1.240292658158659e+01
 1.704635130596620e+00	 1.319873702548785e+00	 1.236265562516731e+01
 1.691737340969855e+00	 1.336365310718468e+00	 1.232462507215577e+01
 1.678672572610923e+00	 1.352740130984107e+00	 1.228836028370777e+01
 1.665442418392746e+00	 1.368995635949644e+00	 1.225336278988842e+01
 1.652048521559052e+00	 1.385129326889079e+00	 1.221907932419660e+01
 1.638492575070372e+00	 1.401138735003042e+00	 1.218486930087973e+01
 1.624776320912806e+00	 1.417021422657641e+00	 1.214997093765880e+01
 1.610901549370107e+00	 1.432774984604303e+00	 1.211346624157131e+01
 1.596870098259705e+00	 1.448397049179322e+00	 1.207424508953659e+01
 1.737003420367256e+00	 1.291815612436721e+00	 1.243253583066063e+01
 1.724392763169800e+00	 1.308601522752440e+00	 1.238994106252826e+01
 1.711611399258739e+00	 1.325275323919451e+00	 1.235045286469595e+01
 1.698660825054121e+00	 1.341834424473213e+00	 1.231344821947211e+01
 1.685542588752047e+00	 1.358276259165039e+00	 1.227830597926274e+01
 1.672258289744316e+00	 1.374598290255434e+00	 1.224437704018526e+01
 1.658809577999677e+00	 1.390798008792296e+00	 1.221095271632775e+01
 1.645198153407151e+00	 1.406872935872629e+00	 1.217723150529546e+01
 1.631425765081967e+00	 1.422820623886461e+00	 1.214228445231699e+01
 1.617494210634661e+00	 1.438638657741673e+00	 1.210501933572375e+01
 1.603405335403986e+00	 1.454324656068464e+00	 1.206414391093205e+01
 1.744083183059930e+00	 1.297080857095136e+00	 1.241896257495848e+01
 1.731421126734840e+00	 1.313935184237158e+00	 1.237691990546362e+01
 1.718587667921462e+00	 1.330676945290548e+00	 1.233831921744106e+01
 1.705584309139019e+00	 1.347303538228351e+00	 1.230239220835793e+01
 1.692412604893825e+00	 1.363812387346324e+00	 1.226836950992806e+01
 1.679074161096556e+00	 1.380200944561541e+00	 1.223545024596902e+01
 1.665570634440982e+00	 1.396466690695798e+00	 1.220276973279597e+01
 1.651903731744612e+00	 1.412607136742474e+00	 1.216936551704647e+01
 1.638075209251801e+00	 1.428619825115519e+00	 1.213414196294741e+01
 1.624086871899873e+00	 1.444502330879274e+00	 1.209583361703926e+01
 1.609940572548900e+00	 1.460252262957840e+00	 1.205296759312436e+01
 1.751162945752986e+00	 1.302346101753885e+00	 1.240525112078922e+01
 1.738449490300299e+00	 1.319268845722191e+00	 1.236389079422014e+01
 1.725563936584634e+00	 1.336078566661932e+00	 1.232626162438623e+01
 1.712507793224396e+00	 1.352772651983751e+00	 1.229144774031620e+01
 1.699282621036108e+00	 1.369348515527848e+00	 1.225852985793856e+01
 1.685890032449323e+00	 1.385803598867863e+00	 1.222655421077020e+01
 1.672331690882829e+00	 1.402135372599496e+00	 1.219449956257159e+01
 1.658609310082624e+00	 1.418341337612502e+00	 1.216124250118799e+01
 1.644724653422189e+00	 1.434419026344752e+00	 1.212552123041372e+01
 1.630679533165634e+00	 1.450366004017048e+00	 1.208589809319430e+01
 1.616475809694347e+00	 1.466179869847399e+00	 1.204072107468290e+01
 1.758242708446275e+00	 1.307611346412800e+00	 1.239143955779293e+01
 1.745477853866021e+00	 1.324602507207378e+00	 1.235086710225436e+01
 1.732540205248102e+00	 1.341480188033461e+00	 1.231427313625526e+01
 1.719431277310100e+00	 1.358241765739284e+00	 1.228059194993236e+01
 1.706152637178747e+00	 1.374884643709492e+00	 1.224875266540419e+01
 1.692705903802472e+00	 1.391406253174298e+00	 1.221764752864144e+01
 1.679092747325082e+00	 1.407804054503300e+00	 1.218609822023471e+01
 1.665314888421059e+00	 1.424075538482633e+00	 1.215282038867836e+01
 1.651374097593011e+00	 1.440218227574093e+00	 1.211638662792171e+01
 1.637272194431832e+00	 1.456229677154939e+00	 1.207518813790296e+01
 1.623011046840228e+00	 1.472107476737092e+00	 1.202739532244477e+01
 1.765322471139646e+00	 1.312876591071715e+00	 1.237755159653227e+01
 1.752506217431852e+00	 1.329936168692566e+00	 1.233784833166261e+01
 1.739516473911709e+00	 1.346881809404990e+00	 1.230233334428287e+01
 1.726354761395976e+00	 1.363710879494819e+00	 1.226978882836587e+01
 1.713022653321593e+00	 1.380420771891143e+00	 1.223899065148889e+01
 1.699521775155861e+00	 1.397008907480743e+00	 1.220867599599565e+01
 1.685853803767603e+00	 1.413472736407122e+00	 1.217750895344901e+01
 1.672020466759789e+00	 1.429809739352794e+00	 1.214404428046951e+01
 1.658023541764149e+00	 1.446017428803475e+00	 1.210668954271266e+01
 1.643864855698359e+00	 1.462093350292891e+00	 1.206366589120502e+01
 1.629546283986442e+00	 1.478035083626868e+00	 1.201296773139309e+01
 1.772402233832950e+00	 1.318141835730464e+00	 1.236359701692191e+01
 1.759534580997640e+00	 1.335269830177598e+00	 1.232482055263968e+01
 1.746492742575304e+00	 1.352283430776377e+00	 1.229040881162502e+01
 1.733278245481874e+00	 1.369179993250225e+00	 1.225898964763980e+01
 1.719892669464497e+00	 1.385956900072682e+00	 1.222918403051177e+01
 1.706337646509344e+00	 1.402611561787096e+00	 1.219957302445537e+01
 1.692614860210256e+00	 1.419141418310874e+00	 1.216866265150152e+01
 1.678726045098686e+00	 1.435543940222906e+00	 1.213484685268451e+01
 1.664672985935481e+00	 1.451816630032835e+00	 1.209636877883108e+01
 1.650457516965104e+00	 1.467957023430847e+00	 1.205128066078023e+01
 1.636081521132888e+00	 1.483962690516677e+00	 1.199766186239507e+01
 1.779481996526039e+00	 1.323407080388878e+00	 1.234957211687347e+01
 1.766562944563231e+00	 1.340603491662318e+00	 1.231175684337342e+01
 1.753469011238729e+00	 1.357685052147477e+00	 1.227845350539202e+01
 1.740201729567638e+00	 1.374649107005374e+00	 1.224813338570638e+01
 1.726762685607308e+00	 1.391493028253994e+00	 1.221926093094378e+01
 1.713153517862779e+00	 1.408214216093255e+00	 1.219026005468485e+01
 1.699375916652905e+00	 1.424810100214466e+00	 1.215947825487894e+01
 1.685431623437618e+00	 1.441278141092894e+00	 1.212514876285193e+01
 1.671322430106890e+00	 1.457615831262106e+00	 1.208535096093565e+01
 1.657050178231957e+00	 1.473820696568750e+00	 1.203796932426032e+01
 1.642616758279468e+00	 1.489890297406469e+00	 1.198354427999119e+01
 1.786561759218760e+00	 1.328672325046793e+00	 1.233546016115021e+01
 1.773591308128472e+00	 1.345937153146570e+00	 1.229861773036228e+01
 1.760445279901834e+00	 1.363086673518147e+00	 1.226640922928638e+01
 1.747125213653118e+00	 1.380118220760135e+00	 1.223714715226656e+01
 1.733632701749878e+00	 1.397029156434963e+00	 1.220913781527577e+01
 1.719969389216021e+00	 1.413816870399117e+00	 1.218064697117768e+01
 1.706136973095411e+00	 1.430478782117809e+00	 1.214986316585118e+01
 1.692137201776460e+00	 1.447012341962681e+00	 1.211485905716699e+01
 1.677971874278255e+00	 1.463415032491225e+00	 1.207355093912448e+01
 1.663642839498809e+00	 1.479684369706544e+00	 1.202365673250977e+01
 1.649151995426080e+00	 1.495817904296194e+00	 1.197079721848080e+01
 1.793641521910966e+00	 1.333937569704040e+00	 1.232123183042478e+01
 1.780619671693210e+00	 1.351270814630199e+00	 1.228535162914443e+01
 1.767421548564461e+00	 1.368488294888244e+00	 1.225420605682828e+01
 1.754048697738162e+00	 1.385587334514377e+00	 1.222594661532244e+01
 1.740502717892060e+00	 1.402565284615472e+00	 1.219871990073252e+01
 1.726785260568927e+00	 1.419419524704581e+00	 1.217063251797279e+01
 1.712898029537639e+00	 1.436147464020815e+00	 1.213971366003416e+01
 1.698842780115081e+00	 1.452746542832192e+00	 1.210387557875081e+01
 1.684621318449455e+00	 1.469214233720123e+00	 1.206087219474641e+01
 1.670235500765549e+00	 1.485548042844174e+00	 1.200884460093140e+01
 1.655687232572625e+00	 1.501745511185803e+00	 1.195908290570338e+01
 1.590334861116157e+00	 1.442469442290463e+00	 1.208325181973027e+01
 1.576209082943013e+00	 1.457891680273050e+00	 1.203609521211587e+01
 1.561931092083721e+00	 1.473178411755090e+00	 1.197051549970952e+01
 1.547502829769426e+00	 1.488327408362844e+00	 1.188541021291972e+01
 1.532926281152534e+00	 1.503336479695941e+00	 1.179965309216195e+01
 1.518203474390078e+00	 1.518203474390078e+00	 1.171737511471903e+01
 1.503336479695941e+00	 1.532926281152534e+00	 1.163854621384575e+01
 1.488327408362844e+00	 1.547502829769426e+00	 1.156307276109241e+01
 1.473178411755089e+00	 1.561931092083721e+00	 1.149176468461793e+01
 1.457891680273049e+00	 1.576209082943013e+00	 1.142876380089381e+01
 1.442469442290463e+00	 1.590334861116157e+00	 1.137331621069986e+01
 1.596870098259705e+00	 1.448397049179322e+00	 1.207424508953659e+01
 1.582686272368129e+00	 1.463882662482917e+00	 1.202450973473722e+01
 1.568349608295735e+00	 1.479232212442803e+00	 1.195475162508224e+01
 1.553862055250860e+00	 1.494443461528082e+00	 1.187124788096621e+01
 1.539225606543589e+00	 1.509514210337267e+00	 1.179006586889294e+01
 1.524442298665355e+00	 1.524442298665355e+00	 1.171157230630834e+01
 1.509514210337267e+00	 1.539225606543589e+00	 1.163579768819217e+01
 1.494443461528083e+00	 1.553862055250861e+00	 1.156271064385849e+01
 1.479232212442803e+00	 1.568349608295735e+00	 1.149227067262850e+01
 1.463882662482917e+00	 1.582686272368130e+00	 1.142817834876430e+01
 1.448397049179321e+00	 1.596870098259705e+00	 1.137153712811344e+01
 1.603405335403986e+00	 1.454324656068464e+00	 1.206414391093205e+01
 1.589163461793934e+00	 1.469873644693080e+00	 1.201146595754946e+01
 1.574768124508386e+00	 1.485286013130841e+00	 1.193801605699953e+01
 1.560221280732874e+00	 1.500559514693683e+00	 1.185909665927439e+01
 1.545524931935164e+00	 1.515691940979004e+00	 1.178198342228779e+01
 1.530681122941096e+00	 1.530681122941096e+00	 1.170681157225362e+01
 1.515691940979004e+00	 1.545524931935164e+00	 1.163367727599491e+01
 1.500559514693683e+00	 1.560221280732874e+00	 1.156261659850837e+01
 1.485286013130840e+00	 1.574768124508386e+00	 1.149358433815249e+01
 1.469873644693080e+00	 1.589163461793934e+00	 1.142824011628014e+01
 1.454324656068464e+00	 1.603405335403986e+00	 1.137011028407708e+01
 1.609940572548900e+00	 1.460252262957840e+00	 1.205296759312436e+01
 1.595640651220338e+00	 1.475864626903494e+00	 1.199700233011440e+01
 1.581186640721594e+00	 1.491339813819156e+00	 1.192323923149590e+01
 1.566580506215397e+00	 1.506675567859600e+00	 1.184867251212402e+01
 1.551824257327200e+00	 1.521869671621101e+00	 1.177514071161308e+01
 1.536919947217245e+00	 1.536919947217245e+00	 1.170284724336658e+01
 1.521869671621100e+00	 1.551824257327200e+00	 1.163195903355509e+01
 1.506675567859599e+00	 1.566580506215397e+00	 1.156258473955570e+01
 1.491339813819156e+00	 1.581186640721594e+00	 1.149475283229419e+01
 1.475864626903493e+00	 1.595640651220339e+00	 1.142881389351861e+01
 1.460252262957839e+00	 1.609940572548900e+00	 1.136893797068056e+01
 1.616475809694347e+00	 1.466179869847399e+00	 1.204072107468290e+01
 1.602117840647250e+00	 1.481855609114111e+00	 1.198114928939916e+01
 1.587605156935277e+00	 1.497393614507704e+00	 1.191041227696145e+01
 1.572939731698358e+00	 1.512791621025784e+00	 1.183969016941851e+01
 1.558123582719631e+00	 1.528047402263506e+00	 1.176927113401308e+01
 1.543158771493746e+00	 1.543158771493746e+00	 1.169943174437114e+01
 1.528047402263506e+00	 1.558123582719632e+00	 1.163041475260307e+01
 1.512791621025784e+00	 1.572939731698359e+00	 1.156240654568616e+01
 1.497393614507703e+00	 1.587605156935277e+00	 1.149551445155700e+01
 1.481855609114111e+00	 1.602117840647250e+00	 1.142974406313073e+01
 1.466179869847399e+00	 1.616475809694348e+00	 1.136790320582258e+01
 1.623011046840228e+00	 1.472107476737092e+00	 1.202739532244477e+01
 1.608595030074581e+00	 1.487846591324885e+00	 1.196584669228876e+01
 1.594023673149356e+00	 1.503447415196439e+00	 1.189923087321255e+01
 1.579298957181686e+00	 1.518907674192191e+00	 1.183186328717501e+01
 1.564422908112395e+00	 1.534225132906170e+00	 1.176410668675438e+01
 1.549397595770543e+00	 1.549397595770543e+00	 1.169631575786627e+01
 1.534225132906170e+00	 1.564422908112395e+00	 1.162881412593356e+01
 1.518907674192191e+00	 1.579298957181686e+00	 1.156187102700923e+01
 1.503447415196439e+00	 1.594023673149357e+00	 1.149567781393616e+01
 1.487846591324885e+00	 1.608595030074581e+00	 1.143032447052352e+01
 1.472107476737092e+00	 1.623011046840228e+00	 1.136687092925457e+01
 1.629546283986442e+00	 1.478035083626868e+00	 1.201296773139309e+01
 1.615072219502239e+00	 1.493837573535769e+00	 1.195239243454390e+01
 1.600442189363751e+00	 1.509501215885315e+00	 1.188939009372888e+01
 1.585658182665308e+00	 1.525023727358770e+00	 1.182490460865285e+01
 1.570722233505427e+00	 1.540402863549040e+00	 1.175937812999306e+01
 1.555636420047579e+00	 1.555636420047579e+00	 1.169324838869341e+01
 1.540402863549040e+00	 1.570722233505427e+00	 1.162692491332447e+01
 1.525023727358770e+00	 1.585658182665308e+00	 1.156076489247068e+01
 1.509501215885314e+00	 1.600442189363750e+00	 1.149504885699072e+01
 1.493837573535769e+00	 1.615072219502240e+00	 1.142995636000448e+01
 1.478035083626868e+00	 1.629546283986441e+00	 1.136568919838511e+01
 1.636081521132888e+00	 1.483962690516677e+00	 1.199766186239507e+01
 1.621549408930136e+00	 1.499828555746719e+00	 1.194046412753864e+01
 1.606860705578380e+00	 1.515555016574287e+00	 1.188058456584113e+01
 1.592017408149153e+00	 1.531139780525477e+00	 1.181852612610090e+01
 1.577021558898665e+00	 1.546580594192068e+00	 1.175481515004979e+01
 1.561875244324799e+00	 1.561875244324799e+00	 1.168997732869654e+01
 1.546580594192068e+00	 1.577021558898666e+00	 1.162451310773112e+01
 1.531139780525477e+00	 1.592017408149154e+00	 1.155887271742126e+01
 1.515555016574287e+00	 1.606860705578380e+00	 1.149343100671771e+01
 1.499828555746718e+00	 1.621549408930137e+00	 1.142846226440903e+01
 1.483962690516677e+00	 1.636081521132888e+00	 1.136411521210310e+01
 1.642616758279468e+00	 1.489890297406469e+00	 1.198354427999119e+01
 1.628026598358182e+00	 1.505819537957685e+00	 1.192973938123287e+01
 1.613279221793163e+00	 1.521608817263309e+00	 1.187250863162627e+01
 1.598376633633152e+00	 1.537255833692263e+00	 1.181243924310817e+01
 1.583320884292047e+00	 1.552758324835201e+00	 1.175014652317912e+01
 1.568114068602146e+00	 1.568114068602146e+00	 1.168624902186513e+01
 1.552758324835201e+00	 1.583320884292047e+00	 1.162134310174899e+01
 1.537255833692263e+00	 1.598376633633152e+00	 1.155597711133723e+01
 1.521608817263308e+00	 1.613279221793163e+00	 1.149062534646113e+01
 1.505819537957684e+00	 1.628026598358182e+00	 1.142566198765376e+01
 1.489890297406469e+00	 1.642616758279468e+00	 1.136133520346868e+01
 1.649151995426080e+00	 1.495817904296194e+00	 1.197079721848080e+01
 1.634503787786285e+00	 1.511810520168621e+00	 1.191989596437376e+01
 1.619697738008020e+00	 1.527662617952335e+00	 1.186485650949204e+01
 1.604735859117230e+00	 1.543371886859082e+00	 1.180635493754042e+01
 1.589620209685509e+00	 1.558936055478388e+00	 1.174510027981848e+01
 1.574352892879563e+00	 1.574352892879563e+00	 1.168180882984805e+01
 1.558936055478388e+00	 1.589620209685508e+00	 1.161717785433691e+01
 1.543371886859082e+00	 1.604735859117230e+00	 1.155185888568883e+01
 1.527662617952335e+00	 1.619697738008020e+00	 1.148643078585309e+01
 1.511810520168621e+00	 1.634503787786285e+00	 1.142137277467233e+01
 1.495817904296194e+00	 1.649151995426080e+00	 1.135703761799922e+01
 1.655687232572625e+00	 1.501745511185803e+00	 1.195908290570338e+01
 1.640980977214357e+00	 1.517801502379484e+00	 1.191061196546282e+01
 1.626116254222871e+00	 1.533716418641320e+00	 1.185732245643084e+01
 1.611095084601319e+00	 1.549487940025887e+00	 1.179998392504638e+01
 1.595919535078986e+00	 1.565113786121580e+00	 1.173940386930467e+01
 1.580591717156995e+00	 1.580591717156995e+00	 1.167640119782950e+01
 1.565113786121580e+00	 1.595919535078986e+00	 1.161177905779370e+01
 1.549487940025886e+00	 1.611095084601319e+00	 1.154629722195190e+01
 1.533716418641319e+00	 1.626116254222872e+00	 1.148064422978837e+01
 1.517801502379483e+00	 1.640980977214357e+00	 1.141540948127127e+01
 1.501745511185803e+00	 1.655687232572625e+00	 1.135105548391130e+01
 1.442469442290463e+00	 1.590334861116157e+00	 1.137331621069986e+01
 1.426911311467222e+00	 1.604308888106321e+00	 1.131720930281706e+01
 1.411222221429127e+00	 1.618126876744440e+00	 1.125349873620888e+01
 1.395404534133789e+00	 1.631786996734401e+00	 1.118279657707162e+01
 1.379460644986235e+00	 1.645287465119242e+00	 1.110574142291111e+01
 1.363392981644275e+00	 1.658626547041991e+00	 1.102293123265851e+01
 1.347204002803646e+00	 1.671802556470602e+00	 1.093485622964406e+01
 1.330896196964247e+00	 1.684813856886373e+00	 1.084183242981724e+01
 1.314472081178695e+00	 1.697658861935258e+00	 1.074393634429032e+01
 1.297934199784560e+00	 1.710336036041580e+00	 1.064094139810107e+01
 1.281285123121559e+00	 1.722843894983654e+00	 1.053225659609219e+01
 1.448397049179321e+00	 1.596870098259705e+00	 1.137153712811344e+01
 1.432774984604304e+00	 1.610901549370106e+00	 1.131424906467991e+01
 1.417021422657642e+00	 1.624776320912806e+00	 1.124952287617284e+01
 1.401138735003042e+00	 1.638492575070372e+00	 1.117800593868994e+01
 1.385129326889079e+00	 1.652048521559052e+00	 1.110037968841942e+01
 1.368995635949644e+00	 1.665442418392745e+00	 1.101729014493938e+01
 1.352740130984108e+00	 1.678672572610922e+00	 1.092927848625907e+01
 1.336365310718469e+00	 1.691737340969854e+00	 1.083671224459974e+01
 1.319873702548785e+00	 1.704635130596619e+00	 1.073971768861909e+01
 1.303267861268188e+00	 1.717364399605328e+00	 1.063811395050723e+01
 1.286550367778807e+00	 1.729923657675114e+00	 1.053134944518390e+01
 1.454324656068464e+00	 1.603405335403986e+00	 1.137011028407707e+01
 1.438638657741674e+00	 1.617494210634660e+00	 1.131144371691669e+01
 1.422820623886462e+00	 1.631425765081967e+00	 1.124561098051739e+01
 1.406872935872630e+00	 1.645198153407151e+00	 1.117327662423913e+01
 1.390798008792297e+00	 1.658809577999677e+00	 1.109514626567604e+01
 1.374598290255435e+00	 1.672258289744316e+00	 1.101189477377499e+01
 1.358276259165040e+00	 1.685542588752046e+00	 1.092409448250943e+01
 1.341834424473214e+00	 1.698660825054120e+00	 1.083214402106080e+01
 1.325275323919451e+00	 1.711611399258738e+00	 1.073619834317589e+01
 1.308601522752441e+00	 1.724392763169799e+00	 1.063610053100075e+01
 1.291815612436721e+00	 1.737003420367256e+00	 1.053131593728994e+01
 1.460252262957839e+00	 1.609940572548900e+00	 1.136893797068056e+01
 1.444502330879274e+00	 1.624086871899872e+00	 1.130872873864597e+01
 1.428619825115520e+00	 1.638075209251800e+00	 1.124172364364216e+01
 1.412607136742475e+00	 1.651903731744611e+00	 1.116858663462745e+01
 1.396466690695799e+00	 1.665570634440981e+00	 1.109002922871891e+01
 1.380200944561542e+00	 1.679074161096556e+00	 1.100673631923716e+01
 1.363812387346325e+00	 1.692412604893824e+00	 1.091929199302185e+01
 1.347303538228352e+00	 1.705584309139018e+00	 1.082810596026842e+01
 1.330676945290548e+00	 1.718587667921462e+00	 1.073334119687013e+01
 1.313935184237159e+00	 1.731421126734840e+00	 1.063484339178440e+01
 1.297080857095136e+00	 1.744083183059930e+00	 1.053207278033423e+01
 1.466179869847399e+00	 1.616475809694348e+00	 1.136790320582258e+01
 1.450366004017048e+00	 1.630679533165633e+00	 1.130601965695054e+01
 1.434419026344753e+00	 1.644724653422189e+00	 1.123780090679151e+01
 1.418341337612502e+00	 1.658609310082623e+00	 1.116389289355721e+01
 1.402135372599496e+00	 1.672331690882828e+00	 1.108499512781366e+01
 1.385803598867864e+00	 1.685890032449323e+00	 1.100178408901711e+01
 1.369348515527848e+00	 1.699282621036107e+00	 1.091483660990463e+01
 1.352772651983752e+00	 1.712507793224395e+00	 1.082455386964289e+01
 1.336078566661932e+00	 1.725563936584634e+00	 1.073108661338969e+01
 1.319268845722192e+00	 1.738449490300298e+00	 1.063426220835925e+01
 1.302346101753885e+00	 1.751162945752986e+00	 1.053351413466684e+01
 1.472107476737092e+00	 1.623011046840228e+00	 1.136687092925457e+01
 1.456229677154939e+00	 1.637272194431832e+00	 1.130321323038032e+01
 1.440218227574093e+00	 1.651374097593011e+00	 1.123376342559297e+01
 1.424075538482634e+00	 1.665314888421059e+00	 1.115913239578794e+01
 1.407804054503300e+00	 1.679092747325081e+00	 1.107999011524640e+01
 1.391406253174298e+00	 1.692705903802472e+00	 1.099698659866958e+01
 1.374884643709493e+00	 1.706152637178747e+00	 1.091067281448829e+01
 1.358241765739285e+00	 1.719431277310099e+00	 1.082142220336418e+01
 1.341480188033461e+00	 1.732540205248101e+00	 1.072935343757116e+01
 1.324602507207379e+00	 1.745477853866019e+00	 1.063425504928365e+01
 1.307611346412800e+00	 1.758242708446275e+00	 1.053551254376853e+01
 1.478035083626868e+00	 1.629546283986441e+00	 1.136568919838511e+01
 1.462093350292891e+00	 1.643864855698358e+00	 1.130018863212186e+01
 1.446017428803476e+00	 1.658023541764148e+00	 1.122951363722922e+01
 1.429809739352794e+00	 1.672020466759789e+00	 1.115422335505861e+01
 1.413472736407123e+00	 1.685853803767603e+00	 1.107494107085803e+01
 1.397008907480743e+00	 1.699521775155860e+00	 1.099227267173965e+01
 1.380420771891143e+00	 1.713022653321593e+00	 1.090672504914381e+01
 1.363710879494819e+00	 1.726354761395975e+00	 1.081862510310184e+01
 1.346881809404991e+00	 1.739516473911709e+00	 1.072804000238791e+01
 1.329936168692567e+00	 1.752506217431851e+00	 1.063469934689323e+01
 1.312876591071716e+00	 1.765322471139646e+00	 1.053791986630552e+01
 1.483962690516677e+00	 1.636081521132888e+00	 1.136411521210310e+01
 1.467957023430847e+00	 1.650457516965103e+00	 1.129680863284203e+01
 1.451816630032835e+00	 1.664672985935481e+00	 1.122493692725189e+01
 1.435543940222906e+00	 1.678726045098685e+00	 1.114906635167760e+01
 1.419141418310875e+00	 1.692614860210256e+00	 1.106975672732934e+01
 1.402611561787097e+00	 1.706337646509344e+00	 1.098755253977504e+01
 1.385956900072683e+00	 1.719892669464496e+00	 1.090289878917330e+01
 1.369179993250226e+00	 1.733278245481873e+00	 1.081605743905657e+01
 1.352283430776377e+00	 1.746492742575303e+00	 1.072702513653784e+01
 1.335269830177598e+00	 1.759534580997639e+00	 1.063545286895472e+01
 1.318141835730464e+00	 1.772402233832951e+00	 1.054056820949727e+01
 1.489890297406469e+00	 1.642616758279468e+00	 1.136133520346868e+01
 1.473820696568751e+00	 1.657050178231957e+00	 1.129292078321501e+01
 1.457615831262107e+00	 1.671322430106890e+00	 1.121990279604719e+01
 1.441278141092895e+00	 1.685431623437618e+00	 1.114354547978980e+01
 1.424810100214467e+00	 1.699375916652904e+00	 1.106432879522125e+01
 1.408214216093256e+00	 1.713153517862778e+00	 1.098271894222650e+01
 1.391493028253995e+00	 1.726762685607307e+00	 1.089908161477259e+01
 1.374649107005375e+00	 1.740201729567638e+00	 1.081359585130618e+01
 1.357685052147477e+00	 1.753469011238729e+00	 1.072616917261404e+01
 1.340603491662319e+00	 1.766562944563231e+00	 1.063635469122745e+01
 1.323407080388879e+00	 1.779481996526039e+00	 1.054327086375981e+01
 1.495817904296194e+00	 1.649151995426080e+00	 1.135703761799922e+01
 1.479684369706545e+00	 1.663642839498807e+00	 1.128835859614012e+01
 1.463415032491225e+00	 1.677971874278254e+00	 1.121426602496247e+01
 1.447012341962682e+00	 1.692137201776459e+00	 1.113752949432824e+01
 1.430478782117809e+00	 1.706136973095410e+00	 1.105853308777786e+01
 1.413816870399118e+00	 1.719969389216020e+00	 1.097764822623909e+01
 1.397029156434963e+00	 1.733632701749877e+00	 1.089514428306268e+01
 1.380118220760136e+00	 1.747125213653118e+00	 1.081109979144538e+01
 1.363086673518147e+00	 1.760445279901833e+00	 1.072531495584206e+01
 1.345937153146571e+00	 1.773591308128471e+00	 1.063722617090735e+01
 1.328672325046793e+00	 1.786561759218760e+00	 1.054582323858983e+01
 1.501745511185803e+00	 1.655687232572625e+00	 1.135105548391130e+01
 1.485548042844174e+00	 1.670235500765547e+00	 1.128276089572819e+01
 1.469214233720123e+00	 1.684621318449455e+00	 1.120786784210172e+01
 1.452746542832192e+00	 1.698842780115080e+00	 1.113087295765902e+01
 1.436147464020815e+00	 1.712898029537638e+00	 1.105223064549764e+01
 1.419419524704582e+00	 1.726785260568927e+00	 1.097220144633677e+01
 1.402565284615473e+00	 1.740502717892059e+00	 1.089094180018760e+01
 1.385587334514378e+00	 1.754048697738161e+00	 1.080841256451254e+01
 1.368488294888244e+00	 1.767421548564461e+00	 1.072428885336747e+01
 1.351270814630200e+00	 1.780619671693210e+00	 1.063787192092819e+01
 1.333937569704040e+00	 1.793641521910966e+00	 1.054800379965380e+01
 1.281285123121559e+00	 1.722843894983654e+00	 1.053225659609219e+01
 1.264530302232631e+00	 1.735178925112020e+00	 1.042192256156216e+01
 1.247669525712911e+00	 1.747341893556909e+00	 1.031519519815119e+01
 1.230705423354944e+00	 1.759331480861804e+00	 1.021270049926288e+01
 1.213640645748062e+00	 1.771146420757310e+00	 1.011455155676628e+01
 1.196477862946308e+00	 1.782785500538586e+00	 1.002030157384486e+01
 1.179219763129366e+00	 1.794247561403101e+00	 9.928901805001136e+00
 1.161869051257883e+00	 1.805531498748640e+00	 9.838664786964479e+00
 1.144428447724528e+00	 1.816636262431509e+00	 9.747233188178622e+00
 1.126900687002146e+00	 1.827560856984948e+00	 9.651554566293560e+00
 1.109288516290361e+00	 1.838304341797836e+00	 9.547849775625359e+00
 1.286550367778807e+00	 1.729923657675114e+00	 1.053134944518390e+01
 1.269726695523801e+00	 1.742309376717713e+00	 1.042383150372194e+01
 1.252796632229572e+00	 1.754522327015755e+00	 1.032087540431320e+01
 1.235762818495395e+00	 1.766561183690609e+00	 1.022265837079565e+01
 1.218627915802794e+00	 1.778424675269332e+00	 1.012881708039031e+01
 1.201394605177988e+00	 1.790111584063650e+00	 1.003839959745390e+01
 1.184065585847327e+00	 1.801620746509102e+00	 9.949822379961434e+00
 1.166643573887081e+00	 1.812951053464272e+00	 9.860832733344575e+00
 1.149131300868954e+00	 1.824101450470053e+00	 9.768477049298451e+00
 1.131531512502690e+00	 1.835070937968958e+00	 9.669075127918978e+00
 1.113846967277110e+00	 1.845858571484564e+00	 9.558200840324432e+00
 1.291815612436721e+00	 1.737003420367256e+00	 1.053131593728993e+01
 1.274923088815674e+00	 1.749439828324040e+00	 1.042652138701429e+01
 1.257923738746963e+00	 1.761702760475180e+00	 1.032702451025212e+01
 1.240820213636592e+00	 1.773790886519932e+00	 1.023257636089349e+01
 1.223615185858279e+00	 1.785702929781807e+00	 1.014236019579269e+01
 1.206311347410418e+00	 1.797437667589096e+00	 1.005494223886178e+01
 1.188911408566022e+00	 1.808993931615413e+00	 9.968227665457441e+00
 1.171418096516982e+00	 1.820370608180138e+00	 9.879422192946357e+00
 1.153834154014040e+00	 1.831566638508753e+00	 9.784999625357779e+00
 1.136162338003837e+00	 1.842581018953047e+00	 9.680675659768450e+00
 1.118405418264389e+00	 1.853412801171289e+00	 9.561606243559233e+00
 1.297080857095136e+00	 1.744083183059930e+00	 1.053207278033423e+01
 1.280119482108074e+00	 1.756570279930858e+00	 1.042988710245326e+01
 1.263050845264901e+00	 1.768883193935049e+00	 1.033352756136759e+01
 1.245877608778351e+00	 1.781020589349650e+00	 1.024234147698315e+01
 1.228602455914329e+00	 1.792981184294625e+00	 1.015508150285928e+01
 1.211228089643410e+00	 1.804763751114833e+00	 1.006985512907198e+01
 1.193757231285266e+00	 1.816367116721957e+00	 9.984079554972080e+00
 1.176192619147410e+00	 1.827790162896181e+00	 9.894442329363331e+00
 1.158537007159621e+00	 1.839031826547572e+00	 9.796868116679397e+00
 1.140793163505436e+00	 1.850091099937193e+00	 9.686491906427673e+00
 1.122963869252066e+00	 1.860967030858012e+00	 9.565072950841696e+00
 1.302346101753885e+00	 1.751162945752986e+00	 1.053351413466684e+01
 1.285315875400826e+00	 1.763700731538021e+00	 1.043380097087404e+01
 1.268177951783205e+00	 1.776063627395229e+00	 1.034024683233068e+01
 1.250935003920484e+00	 1.788250292179642e+00	 1.025181758698294e+01
 1.233589725970756e+00	 1.800259438807678e+00	 1.016685793474523e+01
 1.216144831876776e+00	 1.812089834640766e+00	 1.008303955653197e+01
 1.198603054004877e+00	 1.823740301828660e+00	 9.997314784868564e+00
 1.180967141778191e+00	 1.835209717612342e+00	 9.905876205637725e+00
 1.163239860305532e+00	 1.846497014586467e+00	 9.804122560583838e+00
 1.145423989007336e+00	 1.857601180921378e+00	 9.689062891092924e+00
 1.127522320240007e+00	 1.868521260544733e+00	 9.571189507728054e+00
 1.307611346412800e+00	 1.758242708446275e+00	 1.053551254376853e+01
 1.290512268693754e+00	 1.770831183145389e+00	 1.043811363495357e+01
 1.273305058301691e+00	 1.783244060855584e+00	 1.034702268347040e+01
 1.255992399062802e+00	 1.795479995009785e+00	 1.026084624305104e+01
 1.238576996027372e+00	 1.807537693320858e+00	 1.017754355192765e+01
 1.221061574110330e+00	 1.819415918166802e+00	 1.009437323437584e+01
 1.203448876724670e+00	 1.831113486935444e+00	 1.000784567765105e+01
 1.185741664409146e+00	 1.842629272328562e+00	 9.913681506305117e+00
 1.167942713451609e+00	 1.853962202625403e+00	 9.807036540181066e+00
 1.150054814509386e+00	 1.865111261905581e+00	 9.693677634825489e+00
 1.132080771228081e+00	 1.876075490231453e+00	 9.579047321269314e+00
 1.312876591071716e+00	 1.765322471139646e+00	 1.053791986630552e+01
 1.295708661986680e+00	 1.777961634752817e+00	 1.044265495295175e+01
 1.278432164820176e+00	 1.790424494315982e+00	 1.035367441916459e+01
 1.261049794205121e+00	 1.802709697839955e+00	 1.026924750754188e+01
 1.243564266083988e+00	 1.814815947834057e+00	 1.018697033859103e+01
 1.225978316343883e+00	 1.826742001692850e+00	 1.010371107004775e+01
 1.208294699444464e+00	 1.838486672042232e+00	 1.001556088758008e+01
 1.190516187040102e+00	 1.850048827044785e+00	 9.917791261696197e+00
 1.172645566597685e+00	 1.861427390664339e+00	 9.810062945202771e+00
 1.154685640011437e+00	 1.872621342889786e+00	 9.699671083660181e+00
 1.136639222216155e+00	 1.883629719918174e+00	 9.587756019400869e+00
 1.318141835730464e+00	 1.772402233832951e+00	 1.054056820949727e+01
 1.300905055279432e+00	 1.785092086360161e+00	 1.044723489412241e+01
 1.283559271338480e+00	 1.797604927776289e+00	 1.036000114817928e+01
 1.266107189347253e+00	 1.809939400670031e+00	 1.027682078110947e+01
 1.248551536140415e+00	 1.822094202347163e+00	 1.019494900128025e+01
 1.230895058577249e+00	 1.834068085218813e+00	 1.011088593724024e+01
 1.213140522164075e+00	 1.845859857148951e+00	 1.002032614857673e+01
 1.195290709670882e+00	 1.857468381760951e+00	 9.919523590083232e+00
 1.177348419743596e+00	 1.868892578703237e+00	 9.814119248143008e+00
 1.159316465513337e+00	 1.880131423873970e+00	 9.706147561958014e+00
 1.141197673204096e+00	 1.891183949604895e+00	 9.596443213609058e+00
 1.323407080388879e+00	 1.779481996526039e+00	 1.054327086375981e+01
 1.306101448571832e+00	 1.792222537967280e+00	 1.045164443575060e+01
 1.288686377856418e+00	 1.804785361236369e+00	 1.036578264590294e+01
 1.271164584489011e+00	 1.817169103499892e+00	 1.028334563289683e+01
 1.253538806196465e+00	 1.829372456860070e+00	 1.020126976975784e+01
 1.235811800810241e+00	 1.841394168744602e+00	 1.011570945008205e+01
 1.217986344883318e+00	 1.853233042255522e+00	 1.002204714948282e+01
 1.200065232301311e+00	 1.864887936477005e+00	 9.921784959205167e+00
 1.182051272889177e+00	 1.876357766742058e+00	 9.818312678603109e+00
 1.163947291014936e+00	 1.887641504858116e+00	 9.712229761104361e+00
 1.145756124191772e+00	 1.898738179291618e+00	 9.604254263086478e+00
 1.328672325046793e+00	 1.786561759218760e+00	 1.054582323858983e+01
 1.311297841863705e+00	 1.799352989574029e+00	 1.045565646176819e+01
 1.293813484373809e+00	 1.811965794696090e+00	 1.037078021842089e+01
 1.276221979630209e+00	 1.824398806329413e+00	 1.028858263275465e+01
 1.258526076251950e+00	 1.836650711372670e+00	 1.020570320000522e+01
 1.240728543042670e+00	 1.848720252270120e+00	 1.011797273951412e+01
 1.222832167602012e+00	 1.860606227361869e+00	 1.002280253750068e+01
 1.204839754931211e+00	 1.872307491192887e+00	 9.923854116662470e+00
 1.186754126034263e+00	 1.883822954780764e+00	 9.821769060994338e+00
 1.168578116516082e+00	 1.895151585842205e+00	 9.717058488395486e+00
 1.150314575179052e+00	 1.906292408978342e+00	 9.610352040333655e+00
 1.333937569704040e+00	 1.793641521910966e+00	 1.054800379965380e+01
 1.316494235154875e+00	 1.806483441180266e+00	 1.045902666290568e+01
 1.298940590890470e+00	 1.819146228155318e+00	 1.037473756838182e+01
 1.281279374770660e+00	 1.831628509158474e+00	 1.029227418543217e+01
 1.263513346306681e+00	 1.843928965884853e+00	 1.020800097930719e+01
 1.245645285274350e+00	 1.856046335795278e+00	 1.011783996815327e+01
 1.227677990319974e+00	 1.867979412467918e+00	 1.002304864143672e+01
 1.209614277560409e+00	 1.879727045908540e+00	 9.924867968378011e+00
 1.191456979178689e+00	 1.891288142819314e+00	 9.823632550994432e+00
 1.173208942016627e+00	 1.902661666826218e+00	 9.719792417595821e+00
 1.154873026165801e+00	 1.913846638665072e+00	 9.613916698168335e+00
 1.109288516290361e+00	 1.838304341797836e+00	 9.547849775625359e+00
 1.091594694507553e+00	 1.848865831699674e+00	 9.435011406737605e+00
 1.073821991952893e+00	 1.859244498404515e+00	 9.315017659967031e+00
 1.055973187880068e+00	 1.869439569243934e+00	 9.200836947691796e+00
 1.038051068798763e+00	 1.879450326741568e+00	 9.091604158625417e+00
 1.020058427132334e+00	 1.889276108593128e+00	 8.985839160397747e+00
 1.001998059881857e+00	 1.898916307608127e+00	 8.882452281314325e+00
 9.838727672977994e-01	 1.908370371613757e+00	 8.780704839824319e+00
 9.656853515605157e-01	 1.917637803321349e+00	 8.680170511914339e+00
 9.474386154707806e-01	 1.926718160155935e+00	 8.580697720473854e+00
 9.291353611515103e-01	 1.935611054049432e+00	 8.482373216083854e+00
 1.113846967277110e+00	 1.845858571484564e+00	 9.558200840324432e+00
 1.096080435447949e+00	 1.856463462208892e+00	 9.436720915547706e+00
 1.078234698698499e+00	 1.866884778452287e+00	 9.319894205296182e+00
 1.060312547703372e+00	 1.877121744371174e+00	 9.208904557470266e+00
 1.042316780422992e+00	 1.887173639540842e+00	 9.101927827704024e+00
 1.024250200755753e+00	 1.897039798935372e+00	 8.997580543245521e+00
 1.006115617196586e+00	 1.906719612869135e+00	 8.894878564082255e+00
 9.879158415031618e-01	 1.916212526900261e+00	 8.793196419921605e+00
 9.696536873709707e-01	 1.925518041696562e+00	 8.692227525969955e+00
 9.513319691184728e-01	 1.934635712864383e+00	 8.591945466094026e+00
 9.329535003834832e-01	 1.943565150740947e+00	 8.492566516917375e+00
 1.118405418264389e+00	 1.853412801171289e+00	 9.561606243559233e+00
 1.100566176388786e+00	 1.864061092718026e+00	 9.441073530684710e+00
 1.082647405444448e+00	 1.874525058499898e+00	 9.327883851423792e+00
 1.064651907526910e+00	 1.884803919498182e+00	 9.219642951529792e+00
 1.046582492047341e+00	 1.894896952339820e+00	 9.114606209463577e+00
 1.028441974379181e+00	 1.904803489277268e+00	 9.011479316426852e+00
 1.010233174511215e+00	 1.914522918129752e+00	 8.909375701833204e+00
 9.919589157083232e-01	 1.924054682186347e+00	 8.807774672220173e+00
 9.736220231811357e-01	 1.933398280071347e+00	 8.706480471557477e+00
 9.552253227658015e-01	 1.942553265572416e+00	 8.605582456111534e+00
 9.367716396150375e-01	 1.951519247432082e+00	 8.505416561565323e+00
 1.122963869252066e+00	 1.860967030858012e+00	 9.565072950841696e+00
 1.105051917329954e+00	 1.871658723227098e+00	 9.448259957678321e+00
 1.087060112190651e+00	 1.882165338547391e+00	 9.338169643216542e+00
 1.068991267350623e+00	 1.892486094625017e+00	 9.232267528850119e+00
 1.050848203671780e+00	 1.902620265138577e+00	 9.128881687675587e+00
 1.032633748002613e+00	 1.912567179618902e+00	 9.026799687456181e+00
 1.014350731825765e+00	 1.922326223390080e+00	 8.925224772637657e+00
 9.960019899133274e-01	 1.931896837472129e+00	 8.823732799082519e+00
 9.775903589910730e-01	 1.941278518445825e+00	 8.722230134540670e+00
 9.591186764128414e-01	 1.950470818280153e+00	 8.620912722648782e+00
 9.405897788462569e-01	 1.959473344122953e+00	 8.520226492337017e+00
 1.127522320240007e+00	 1.868521260544733e+00	 9.571189507728054e+00
 1.109537658271344e+00	 1.879256353736129e+00	 9.457435412520905e+00
 1.091472818937026e+00	 1.889805618594803e+00	 9.349943714910516e+00
 1.073330627174450e+00	 1.900168269751737e+00	 9.246001854657980e+00
 1.055113915296277e+00	 1.910343577937188e+00	 9.144003979142804e+00
 1.036825521626044e+00	 1.920330869960368e+00	 9.042812453170164e+00
 1.018468289140255e+00	 1.930129528650220e+00	 8.941712789172048e+00
 1.000045064118216e+00	 1.939738992757714e+00	 8.840369371115447e+00
 9.815586948008433e-01	 1.949158756820110e+00	 8.738782190262615e+00
 9.630120300596692e-01	 1.958388370987716e+00	 8.637244795255000e+00
 9.444079180772249e-01	 1.967427440813676e+00	 8.536303642619737e+00
 1.132080771228081e+00	 1.876075490231453e+00	 9.579047321269314e+00
 1.114023399212843e+00	 1.886853984245140e+00	 9.467788600663409e+00
 1.095885525683485e+00	 1.897445898642176e+00	 9.362407461179403e+00
 1.077669986998335e+00	 1.907850444878401e+00	 9.260077831966106e+00
 1.059379626920800e+00	 1.918066890735729e+00	 9.159230304035333e+00
 1.041017295249469e+00	 1.928094560301753e+00	 9.058795167244158e+00
 1.022585846454707e+00	 1.937932833910278e+00	 8.958132861851084e+00
 1.004088138323034e+00	 1.947581148043218e+00	 8.856988484412710e+00
 9.855270306105088e-01	 1.957038995194323e+00	 8.755447353448618e+00
 9.669053837063589e-01	 1.966305923695220e+00	 8.653891842076931e+00
 9.482260573080243e-01	 1.975381537504368e+00	 8.552959667980172e+00
 1.136639222216155e+00	 1.883629719918174e+00	 9.587756019400869e+00
 1.118509140154343e+00	 1.894451614754150e+00	 9.478557740352830e+00
 1.100298232429944e+00	 1.905086178689550e+00	 9.374771709226067e+00
 1.082009346822217e+00	 1.915532620005067e+00	 9.273735873918367e+00
 1.063645338545318e+00	 1.925790203534276e+00	 9.173825556858885e+00
 1.045209068872883e+00	 1.935858250643149e+00	 9.074032308206005e+00
 1.026703403769141e+00	 1.945736139170353e+00	 8.973784362365494e+00
 1.008131212527822e+00	 1.955423303328752e+00	 8.872899918148681e+00
 9.894953664201306e-01	 1.964919233568579e+00	 8.771541528443295e+00
 9.707987373529871e-01	 1.974223476402786e+00	 8.670171811382154e+00
 9.520441965387395e-01	 1.983335634195144e+00	 8.569510677673859e+00
 1.141197673204096e+00	 1.891183949604895e+00	 9.596443213609058e+00
 1.122994881095732e+00	 1.902049245263181e+00	 9.488902087872582e+00
 1.104710939176317e+00	 1.912726458736964e+00	 9.386256891867598e+00
 1.086348706646037e+00	 1.923214795131794e+00	 9.286225076918969e+00
 1.067911050169798e+00	 1.933513516332904e+00	 9.187062478037211e+00
 1.049400842496282e+00	 1.943621940984646e+00	 9.087815447934357e+00
 1.030820961083577e+00	 1.953539444430550e+00	 8.987973087612165e+00
 1.012174286732623e+00	 1.963265458614426e+00	 8.887419292511368e+00
 9.934637022297703e-01	 1.972799471942995e+00	 8.786385959770893e+00
 9.746920909996287e-01	 1.982141029110534e+00	 8.685407573426216e+00
 9.558623357694527e-01	 1.991289730886122e+00	 8.585277366552658e+00
 1.145756124191772e+00	 1.898738179291618e+00	 9.604254263086478e+00
 1.127480622036900e+00	 1.909646875772254e+00	 9.497990445399699e+00
 1.109123645922517e+00	 1.920366738784460e+00	 9.396093221587467e+00
 1.090688066469738e+00	 1.930896970258641e+00	 9.296803394523204e+00
 1.072176761794210e+00	 1.941236829131688e+00	 9.198221826091533e+00
 1.053592616119660e+00	 1.951385631326334e+00	 9.099443420628308e+00
 1.034938518398034e+00	 1.961342749690969e+00	 9.000011424008823e+00
 1.016217360937481e+00	 1.971107613900353e+00	 8.899868226967092e+00
 9.974320380394895e-01	 1.980679710317690e+00	 8.799307383011058e+00
 9.785854446463594e-01	 1.990058581818581e+00	 8.698927062653489e+00
 9.596804750002484e-01	 1.999243827577417e+00	 8.599585147357878e+00
 1.150314575179052e+00	 1.906292408978342e+00	 9.610352040333655e+00
 1.131966362977736e+00	 1.917244506281389e+00	 9.505008503551938e+00
 1.113536352668460e+00	 1.928007018832077e+00	 9.403534025271355e+00
 1.095027426293259e+00	 1.938579145385666e+00	 9.304737812069927e+00
 1.076442473418520e+00	 1.948960141930704e+00	 9.206592550400865e+00
 1.057784389743014e+00	 1.959149321668304e+00	 9.108222492234802e+00
 1.039056075712534e+00	 1.969146054951715e+00	 9.009218512178000e+00
 1.020260435142439e+00	 1.978949769186645e+00	 8.909574498846739e+00
 1.001400373849350e+00	 1.988559948692782e+00	 8.809638175981309e+00
 9.824787982932547e-01	 1.997976134527048e+00	 8.710063420222733e+00
 9.634986142312095e-01	 2.007197924269145e+00	 8.611764283390119e+00
 1.154873026165801e+00	 1.913846638665072e+00	 9.613916698168335e+00
 1.136452103918131e+00	 1.924842136790607e+00	 9.509158625176921e+00
 1.117949059414061e+00	 1.935647298879856e+00	 9.407883126498641e+00
 1.099366786116543e+00	 1.946261320512928e+00	 9.309304522034317e+00
 1.080708185042699e+00	 1.956683454730028e+00	 9.211471964526936e+00
 1.061976163366337e+00	 1.966913012010647e+00	 9.113466530321904e+00
 1.043173633027097e+00	 1.976949360212890e+00	 9.014920411995709e+00
 1.024303509347539e+00	 1.986791924473413e+00	 8.915872202245142e+00
 1.005368709659413e+00	 1.996440187068386e+00	 8.816716510216725e+00
 9.863721519403903e-01	 2.005893687236055e+00	 8.718155136848198e+00
 9.673167534624196e-01	 2.015152020961425e+00	 8.621150021543432e+00
 9.291353611515103e-01	 1.935611054049432e+00	 8.482373216083852e+00
 9.107752633221814e-01	 1.944317614944239e+00	 8.383989367658060e+00
 8.923642265648896e-01	 1.952836033922081e+00	 8.284125532523982e+00
 8.739050438238596e-01	 1.961166083376974e+00	 8.182766722976403e+00
 8.554005023379557e-01	 1.969307589065009e+00	 8.080021176125019e+00
 8.368533824140600e-01	 1.977260429726245e+00	 7.976092483113251e+00
 8.182664562179768e-01	 1.985024536674226e+00	 7.871253570935173e+00
 7.996424865837999e-01	 1.992599893353934e+00	 7.765822595534104e+00
 7.809842258426549e-01	 1.999986534868971e+00	 7.660140789301236e+00
 7.622944146716795e-01	 2.007184547478847e+00	 7.554552290879329e+00
 7.435757809640703e-01	 2.014194068067215e+00	 7.449385970389166e+00
 9.329535003834832e-01	 1.943565150740947e+00	 8.492566516917375e+00
 9.145179545487909e-01	 1.952307489911985e+00	 8.393051914241415e+00
 8.960312604604603e-01	 1.960860914025748e+00	 8.292129033519553e+00
 8.774962225398832e-01	 1.969225194540931e+00	 8.189881426581005e+00
 8.589156394796467e-01	 1.977400156497592e+00	 8.086512896913227e+00
 8.402923030118700e-01	 1.985385678137485e+00	 7.982318971228857e+00
 8.216289966941384e-01	 1.993181690491892e+00	 7.877660291844943e+00
 8.029284947139819e-01	 2.000788176937756e+00	 7.772937989307202e+00
 7.841935607128003e-01	 2.008205172722930e+00	 7.668571078685958e+00
 7.654269466301148e-01	 2.015432764461386e+00	 7.564975907341087e+00
 7.466313915689743e-01	 2.022471089599275e+00	 7.462547666749954e+00
 9.367716396150375e-01	 1.951519247432082e+00	 8.505416561565324e+00
 9.182606457749493e-01	 1.960297364879410e+00	 8.405079119668716e+00
 8.996982943555677e-01	 1.968885794129170e+00	 8.303407176114046e+00
 8.810874012554506e-01	 1.977284305704739e+00	 8.200565802718335e+00
 8.624307766209054e-01	 1.985492723930135e+00	 8.096837248614703e+00
 8.437312236092854e-01	 1.993510926548799e+00	 7.992591766585750e+00
 8.249915371699561e-01	 2.001338844309750e+00	 7.888260429713811e+00
 8.062145028438803e-01	 2.008976460521890e+00	 7.784309998490885e+00
 7.874028955827300e-01	 2.016423810577315e+00	 7.681219882098107e+00
 7.685594785884102e-01	 2.023680981444456e+00	 7.579461221489934e+00
 7.496870021738175e-01	 2.030748111131957e+00	 7.479478106312508e+00
 9.405897788462569e-01	 1.959473344122953e+00	 8.520226492337015e+00
 9.220033370007412e-01	 1.968287239846621e+00	 8.419371157203773e+00
 9.033653282502921e-01	 1.976910674232447e+00	 8.317257185911444e+00
 8.846785799706322e-01	 1.985343416868481e+00	 8.214114409031106e+00
 8.659459137617872e-01	 1.993585291362700e+00	 8.110286651957546e+00
 8.471701442063441e-01	 2.001636174960232e+00	 8.006201928122568e+00
 8.283540776454476e-01	 2.009495998127826e+00	 7.902344693345473e+00
 8.095005109734916e-01	 2.017164744106341e+00	 7.799230222155181e+00
 7.906122304524200e-01	 2.024642448432109e+00	 7.697381150032170e+00
 7.716920105465183e-01	 2.031929198428021e+00	 7.597306209006616e+00
 7.527426127785311e-01	 2.039025132665209e+00	 7.499481168022207e+00
 9.444079180772249e-01	 1.967427440813676e+00	 8.536303642619735e+00
 9.257460282262515e-01	 1.976277114813727e+00	 8.435232139301906e+00
 9.070323621447138e-01	 1.984935554335675e+00	 8.332979998261411e+00
 8.882697586854974e-01	 1.993402528032239e+00	 8.229825303428226e+00
 8.694610509023480e-01	 2.001677858795353e+00	 8.126156835874312e+00
 8.506090648030851e-01	 2.009761423371830e+00	 8.022443645707158e+00
 8.317166181206317e-01	 2.017653151946145e+00	 7.919206757278294e+00
 8.127865191028130e-01	 2.025353027691109e+00	 7.816993069206180e+00
 7.938215653218446e-01	 2.032861086287296e+00	 7.716351493358587e+00
 7.748245425043920e-01	 2.040177415412047e+00	 7.617811359995969e+00
 7.557982233830478e-01	 2.047302154198982e+00	 7.521863099804657e+00
 9.482260573080243e-01	 1.975381537504368e+00	 8.552959667980172e+00
 9.294887194515647e-01	 1.984266989780837e+00	 8.451970237966638e+00
 9.106993960389117e-01	 1.992960434438949e+00	 8.349880367873144e+00
 8.918609374001168e-01	 2.001461639196095e+00	 8.247000143040593e+00
 8.729761880426438e-01	 2.009770426228158e+00	 8.143746925959180e+00
 8.540479853995462e-01	 2.017886671783635e+00	 8.040614318333027e+00
 8.350791585955262e-01	 2.025810305764729e+00	 7.938143330034266e+00
 8.160725272318409e-01	 2.033541311276201e+00	 7.836895817075292e+00
 7.970309001909780e-01	 2.041079724142859e+00	 7.737430232916763e+00
 7.779570744619838e-01	 2.048425632396498e+00	 7.640279720017650e+00
 7.588538339872994e-01	 2.055579175733224e+00	 7.545932551639731e+00
 9.520441965387395e-01	 1.983335634195144e+00	 8.569510677673859e+00
 9.332314106767655e-01	 1.992256864748059e+00	 8.468897805588892e+00
 9.143664299329669e-01	 2.000985314542367e+00	 8.367266978993193e+00
 8.954521161145595e-01	 2.009520750360127e+00	 8.264944283821597e+00
 8.764913251827298e-01	 2.017862993661176e+00	 8.162359533651770e+00
 8.574869059957652e-01	 2.026011920195693e+00	 8.060014633123895e+00
 8.384416990701492e-01	 2.033967459583602e+00	 7.958454223253322e+00
 8.193585353605723e-01	 2.041729594861619e+00	 7.858238671370605e+00
 8.002402350597947e-01	 2.049298361998782e+00	 7.759919450136128e+00
 7.810896064192467e-01	 2.056673849381341e+00	 7.664016932204436e+00
 7.619094445912177e-01	 2.063856197267883e+00	 7.571000609772522e+00
 9.558623357694527e-01	 1.991289730886122e+00	 8.585277366552656e+00
 9.369741019019390e-01	 2.000246739715503e+00	 8.485331496258272e+00
 9.180334638269583e-01	 2.009010194646027e+00	 8.384452556131331e+00
 8.990432948288964e-01	 2.017579861524421e+00	 8.282966880774264e+00
 8.800064623226619e-01	 2.025955561094475e+00	 8.181300846128343e+00
 8.609258265917812e-01	 2.034137168608049e+00	 8.079948645123512e+00
 8.418042395445197e-01	 2.042124613402790e+00	 7.979442421692070e+00
 8.226445434890037e-01	 2.049917878447365e+00	 7.880324826460307e+00
 8.034495699282699e-01	 2.057516999855049e+00	 7.783124038657293e+00
 7.842221383761333e-01	 2.064922066366540e+00	 7.688331280439151e+00
 7.649650551947357e-01	 2.072133218802911e+00	 7.596380832032006e+00
 9.596804750002484e-01	 1.999243827577417e+00	 8.599585147357878e+00
 9.407167931271693e-01	 2.008236614683276e+00	 8.500592387532210e+00
 9.217004977209663e-01	 2.017035074750023e+00	 8.400753975319427e+00
 9.026344735431970e-01	 2.025638972689057e+00	 8.300380988789314e+00
 8.835215994624964e-01	 2.034048128528116e+00	 8.199880716881133e+00
 8.643647471876317e-01	 2.042262417020744e+00	 8.099723857850748e+00
 8.451667800186552e-01	 2.050281767222315e+00	 8.000414154058655e+00
 8.259305516171324e-01	 2.058106162033445e+00	 7.902460526964673e+00
 8.066589047963781e-01	 2.065735637711644e+00	 7.806351756923806e+00
 7.873546703325968e-01	 2.073170283352061e+00	 7.712533733558232e+00
 7.680206657977842e-01	 2.080410240338255e+00	 7.621389284226042e+00
 9.634986142312095e-01	 2.007197924269145e+00	 8.611764283390119e+00
 9.444594843525417e-01	 2.016226489651488e+00	 8.514006102649018e+00
 9.253675316150708e-01	 2.025059954854455e+00	 8.415492375888359e+00
 9.062256522575305e-01	 2.033698083854115e+00	 8.316503664076297e+00
 8.870367366022883e-01	 2.042140695962163e+00	 8.217412756965546e+00
 8.678036677833550e-01	 2.050387665433826e+00	 8.118651304596284e+00
 8.485293204925743e-01	 2.058438921042202e+00	 8.020678964662508e+00
 8.292165597449546e-01	 2.066294445619862e+00	 7.923955130130365e+00
 8.098682396640938e-01	 2.073954275568549e+00	 7.828913281719192e+00
 7.904872022885893e-01	 2.081418500337870e+00	 7.735937990555940e+00
 7.710762764002956e-01	 2.088687261873864e+00	 7.645344577580895e+00
 9.673167534624196e-01	 2.015152020961425e+00	 8.621150021543432e+00
 9.482021755781406e-01	 2.024216364620247e+00	 8.524902933175220e+00
 9.290345655093517e-01	 2.033084834959419e+00	 8.427993272747937e+00
 9.098168309719685e-01	 2.041757195019680e+00	 8.330656066170375e+00
 8.905518737420935e-01	 2.050233263396683e+00	 8.233214426897616e+00
 8.712425883789897e-01	 2.058512913847339e+00	 8.136045630442855e+00
 8.518918609662952e-01	 2.066596074862476e+00	 8.039549785857666e+00
 8.325025678724677e-01	 2.074482729206619e+00	 7.944121169062330e+00
 8.130775745313923e-01	 2.082172913425751e+00	 7.850122262621930e+00
 7.936197342440642e-01	 2.089666717323930e+00	 7.757860526760235e+00
 7.741318870022023e-01	 2.096964283409688e+00	 7.667567907199440e+00
 7.435757809640703e-01	 2.014194068067215e+00	 7.449385970389166e+00
 7.248342268985118e-01	 2.021014139864915e+00	 7.346319308774320e+00
 7.060692699719573e-01	 2.027646205539275e+00	 7.246473069127587e+00
 6.872835909877293e-01	 2.034090548863059e+00	 7.149780228732947e+00
 6.684798537193514e-01	 2.040347501804524e+00	 7.056305302676781e+00
 6.496607038978447e-01	 2.046417443866173e+00	 6.966181026304809e+00
 6.308287682241586e-01	 2.052300801400137e+00	 6.879560093033113e+00
 6.119866534072722e-01	 2.057998046901178e+00	 6.796573952639241e+00
 5.931369452284784e-01	 2.063509698278315e+00	 6.717298395154479e+00
 5.742822076323040e-01	 2.068836318106088e+00	 6.641725609260377e+00
 5.554249818444938e-01	 2.073978512856493e+00	 6.569742371671429e+00
 7.466313915689743e-01	 2.022471089599275e+00	 7.462547666749954e+00
 7.278128219621546e-01	 2.029319187435735e+00	 7.362827155717103e+00
 7.089707533238362e-01	 2.035978506566521e+00	 7.266514266835562e+00
 6.901078774736948e-01	 2.042449331930523e+00	 7.173459761231059e+00
 6.712268691316229e-01	 2.048731996860176e+00	 7.083660899527690e+00
 6.523303849008698e-01	 2.054826882417499e+00	 6.997168955490201e+00
 6.334210622764110e-01	 2.060734416706659e+00	 6.914041166313466e+00
 6.145015186790980e-01	 2.066455074164066e+00	 6.834299963514691e+00
 5.955743505160963e-01	 2.071989374827015e+00	 6.757899197663244e+00
 5.766421322680724e-01	 2.077337883581866e+00	 6.684697033059241e+00
 5.577074156035490e-01	 2.082501209392824e+00	 6.614435155243275e+00
 7.496870021738175e-01	 2.030748111131957e+00	 7.479478106312508e+00
 7.307914170258173e-01	 2.037624235007253e+00	 7.382673802782483e+00
 7.118722366758174e-01	 2.044310807594524e+00	 7.289350765817449e+00
 6.929321639598434e-01	 2.050808114998791e+00	 7.199277796473968e+00
 6.739738845441580e-01	 2.057116491916668e+00	 7.112412961968086e+00
 6.550000659042363e-01	 2.063236320969690e+00	 7.028753191897586e+00
 6.360133563290785e-01	 2.069168032014058e+00	 6.948286426123683e+00
 6.170163839514079e-01	 2.074912101427841e+00	 6.870951269894070e+00
 5.980117558042625e-01	 2.080469051376603e+00	 6.796603857286872e+00
 5.790020569044455e-01	 2.085839449058531e+00	 6.724991585993177e+00
 5.599898493632576e-01	 2.091023905930038e+00	 6.655733352410479e+00
 7.527426127785311e-01	 2.039025132665209e+00	 7.499481168022209e+00
 7.337700120894128e-01	 2.045929282579404e+00	 7.405170988193487e+00
 7.147737200277963e-01	 2.052643108623211e+00	 7.314316818192613e+00
 6.957564504460566e-01	 2.059166898067780e+00	 7.226596565536704e+00
 6.767208999568241e-01	 2.065500986973908e+00	 7.141956711154574e+00
 6.576697469077992e-01	 2.071645759522647e+00	 7.060366478962079e+00
 6.386056503820067e-01	 2.077601647322238e+00	 6.981770167365196e+00
 6.195312492240390e-01	 2.083369128692399e+00	 6.906047221262939e+00
 6.004491610928053e-01	 2.088948727926974e+00	 6.832979733192136e+00
 5.813619815412450e-01	 2.094341014535971e+00	 6.762227023241381e+00
 5.622722831234357e-01	 2.099546602468017e+00	 6.693306912469073e+00
 7.557982233830478e-01	 2.047302154198982e+00	 7.521863099804657e+00
 7.367486071528546e-01	 2.054234330152124e+00	 7.429630620726443e+00
 7.176752033796692e-01	 2.060975409652505e+00	 7.340745822832820e+00
 6.985807369322148e-01	 2.067525681137406e+00	 7.254776464755489e+00
 6.794679153694884e-01	 2.073885482031807e+00	 7.171684600679599e+00
 6.603394279114148e-01	 2.080055198076276e+00	 7.091437914321492e+00
 6.411979444350400e-01	 2.086035262631093e+00	 7.013962221001738e+00
 6.220461144968267e-01	 2.091826155957634e+00	 6.939101950198533e+00
 6.028865663815528e-01	 2.097428404478016e+00	 6.866588284502725e+00
 5.837219061782924e-01	 2.102842580014072e+00	 6.796014590897501e+00
 5.645547168838998e-01	 2.108069299006645e+00	 6.726818744540000e+00
 7.588538339872994e-01	 2.055579175733224e+00	 7.545932551639733e+00
 7.397272022160557e-01	 2.062539377725350e+00	 7.455365101089495e+00
 7.205766867313325e-01	 2.069307710682332e+00	 7.367970621463508e+00
 7.014050234181992e-01	 2.075884464207585e+00	 7.283176328496152e+00
 6.822149307820189e-01	 2.082269977090273e+00	 7.200986567834291e+00
 6.630091089149375e-01	 2.088464636630480e+00	 7.121393181282220e+00
 6.437902384880239e-01	 2.094468877940526e+00	 7.044328167316174e+00
 6.245609797696066e-01	 2.100283183223440e+00	 6.969624568887217e+00
 6.053239716703330e-01	 2.105908081029622e+00	 6.896985251418767e+00
 5.860818308154102e-01	 2.111344145492724e+00	 6.825959192909326e+00
 5.668371506444664e-01	 2.116591995545806e+00	 6.755924871414143e+00
 7.619094445912177e-01	 2.063856197267883e+00	 7.571000609772522e+00
 7.427057972789288e-01	 2.070844425299015e+00	 7.481691339611668e+00
 7.234781700826816e-01	 2.077640011712617e+00	 7.395323795939920e+00
 7.042293099038908e-01	 2.084243247278234e+00	 7.311153703076819e+00
 6.849619461942821e-01	 2.090654472149216e+00	 7.229250285984468e+00
 6.656787899182237e-01	 2.096874075185163e+00	 7.149654781341376e+00
 6.463825325408030e-01	 2.102902493250435e+00	 7.072329550154568e+00
 6.270758450422157e-01	 2.108740210489715e+00	 6.997119366543516e+00
 6.077613769589745e-01	 2.114387757581683e+00	 6.923720837146880e+00
 5.884417554524196e-01	 2.119845710971814e+00	 6.851659558727324e+00
 5.691195844049511e-01	 2.125114692085379e+00	 6.780274584007323e+00
 7.649650551947357e-01	 2.072133218802911e+00	 7.596380832032008e+00
 7.456843923413877e-01	 2.079149472873056e+00	 7.507939242551760e+00
 7.263796534336132e-01	 2.085972312743284e+00	 7.422137966663520e+00
 7.070535963891698e-01	 2.092602030349270e+00	 7.338065121813511e+00
 6.877089616061461e-01	 2.099038967208545e+00	 7.255861418031342e+00
 6.683484709211283e-01	 2.105283513740229e+00	 7.175642267736613e+00
 6.489748265932230e-01	 2.111336108560719e+00	 7.097424092125321e+00
 6.295907103144891e-01	 2.117197237756355e+00	 7.021086007704092e+00
 6.101987822473055e-01	 2.122867434134090e+00	 6.946339890612350e+00
 5.908016800891424e-01	 2.128347276451228e+00	 6.872708411642256e+00
 5.714020181651709e-01	 2.133637388625251e+00	 6.799510596402701e+00
 7.680206657977842e-01	 2.080410240338255e+00	 7.621389284226042e+00
 7.486629874033452e-01	 2.087454520447410e+00	 7.533433811153948e+00
 7.292811367840235e-01	 2.094304613774259e+00	 7.447746092108281e+00
 7.098778828739182e-01	 2.100960813420608e+00	 7.363266381156139e+00
 6.904559770174782e-01	 2.107423462268170e+00	 7.280203870924460e+00
 6.710181519235073e-01	 2.113692952295582e+00	 7.198772479994178e+00
 6.515671206451283e-01	 2.119769723871279e+00	 7.119065910728915e+00
 6.321055755862635e-01	 2.125654265023253e+00	 7.041019731372065e+00
 6.126361875351543e-01	 2.131347110686737e+00	 6.964382089935689e+00
 5.931616047254004e-01	 2.136848841930856e+00	 6.888692637792182e+00
 5.736844519249419e-01	 2.142160085165303e+00	 6.813269201469928e+00
 7.710762764002956e-01	 2.088687261873864e+00	 7.645344577580895e+00
 7.516415824647140e-01	 2.095759568022009e+00	 7.557501638776470e+00
 7.321826201338077e-01	 2.102636914805464e+00	 7.471481769426178e+00
 7.127021693580159e-01	 2.109319596492163e+00	 7.386112817886460e+00
 6.932029924281451e-01	 2.115807957328000e+00	 7.301660051199509e+00
 6.736878329252156e-01	 2.122102390851125e+00	 7.218459779448757e+00
 6.541594146963646e-01	 2.128203339182012e+00	 7.136705735392783e+00
 6.346204408573745e-01	 2.134111292290305e+00	 7.056411550988456e+00
 6.150735928223491e-01	 2.139826787239513e+00	 6.977382126650658e+00
 5.955215293610149e-01	 2.145350407410582e+00	 6.899193455821085e+00
 5.759668856840803e-01	 2.150682781705418e+00	 6.821180427040076e+00
 7.741318870022023e-01	 2.096964283409688e+00	 7.667567907199438e+00
 7.546201775254084e-01	 2.104064615596794e+00	 7.579471695728527e+00
 7.350841034828635e-01	 2.110969215836829e+00	 7.492679536099562e+00
 7.155264558413447e-01	 2.117678379563855e+00	 7.405959587345775e+00
 6.959500078380153e-01	 2.124192452387945e+00	 7.319611121511326e+00
 6.763575139261093e-01	 2.130511829406764e+00	 7.234116285706427e+00
 6.567517087467765e-01	 2.136636954492820e+00	 7.149791125384732e+00
 6.371353061276586e-01	 2.142568319557409e+00	 7.066748455208380e+00
 6.175109981087186e-01	 2.148306463792312e+00	 6.984869890643675e+00
 5.978814539958085e-01	 2.153851972890297e+00	 6.903786587170226e+00
 5.782493194424027e-01	 2.159205478245480e+00	 6.822868192624110e+00
 5.554249818444938e-01	 2.073978512856493e+00	 6.569742371671429e+00
 5.365677857747290e-01	 2.078936932563052e+00	 6.499180449174790e+00
 5.177131139377212e-01	 2.083712271364324e+00	 6.428636706990410e+00
 4.988634358408005e-01	 2.088305265324173e+00	 6.358955007937503e+00
 4.800211949505416e-01	 2.092716691142881e+00	 6.290842439984934e+00
 4.611888079513155e-01	 2.096947365305516e+00	 6.224870574178270e+00
 4.423686640326468e-01	 2.100998143217203e+00	 6.161480356059863e+00
 4.235631242055150e-01	 2.104869918326305e+00	 6.100990169590541e+00
 4.047745206477009e-01	 2.108563621236568e+00	 6.043606610339802e+00
 3.860051560782379e-01	 2.112080218809191e+00	 5.989437505868734e+00
 3.672573031609927e-01	 2.115420713255858e+00	 5.938496539850118e+00
 5.577074156035490e-01	 2.082501209392824e+00	 6.614435155243275e+00
 5.387727287791739e-01	 2.087480004964628e+00	 6.544935457563944e+00
 5.198405765604912e-01	 2.092274967288285e+00	 6.474935790829873e+00
 5.009134386029001e-01	 2.096886835452392e+00	 6.405347171961096e+00
 4.819937684140340e-01	 2.101316389348949e+00	 6.336936320613722e+00
 4.630839926092659e-01	 2.105564448818237e+00	 6.270328338705210e+00
 4.441865101961348e-01	 2.109631872780525e+00	 6.206013121603022e+00
 4.253036918878415e-01	 2.113519558355659e+00	 6.144355024055711e+00
 4.064378794458997e-01	 2.117228439971545e+00	 6.085605301733012e+00
 3.875913850520212e-01	 2.120759488462540e+00	 6.029916850521962e+00
 3.687664907092441e-01	 2.124113710158760e+00	 5.977358255354017e+00
 5.599898493632576e-01	 2.091023905930038e+00	 6.655733352410479e+00
 5.409776717843121e-01	 2.096023077367081e+00	 6.586665400982269e+00
 5.219680391839850e-01	 2.100837663213118e+00	 6.516678137599208e+00
 5.029634413657452e-01	 2.105468405581474e+00	 6.446751875038808e+00
 4.839663418782852e-01	 2.109916087555875e+00	 6.377714517194159e+00
 4.649791772679783e-01	 2.114181532331809e+00	 6.310245708379694e+00
 4.460043563603800e-01	 2.118265602344693e+00	 6.244884815247617e+00
 4.270442595709101e-01	 2.122169198385853e+00	 6.182042248072266e+00
 4.081012382448178e-01	 2.125893258707358e+00	 6.122013625974459e+00
 3.891776140264916e-01	 2.129438758116725e+00	 6.064996292070695e+00
 3.702756782581408e-01	 2.132806707062494e+00	 6.011107676086656e+00
 5.622722831234357e-01	 2.099546602468017e+00	 6.693306912469073e+00
 5.431826147899550e-01	 2.104566149770289e+00	 6.624094099847267e+00
 5.240955018080113e-01	 2.109400359138693e+00	 6.553643119617192e+00
 5.050134441291421e-01	 2.114049975711286e+00	 6.483005294454131e+00
 4.859389153430992e-01	 2.118515785763518e+00	 6.413070821115553e+00
 4.668743619272572e-01	 2.122798615846085e+00	 6.344574439190128e+00
 4.478222025251871e-01	 2.126899331909553e+00	 6.278105036229325e+00
 4.287848272545282e-01	 2.130818838416728e+00	 6.214118679291452e+00
 4.097645970442639e-01	 2.134558077443845e+00	 6.152954560780150e+00
 3.907638430014616e-01	 2.138118027771578e+00	 6.094853348000536e+00
 3.717848658075005e-01	 2.141499703966896e+00	 6.039977430908275e+00
 5.645547168838998e-01	 2.108069299006645e+00	 6.726818744540000e+00
 5.453875577959152e-01	 2.113109222174130e+00	 6.656937876885991e+00
 5.262229644323784e-01	 2.117963055064880e+00	 6.585602220529070e+00
 5.070634468928970e-01	 2.122631545841692e+00	 6.513935393689131e+00
 4.879114888082811e-01	 2.127115483971733e+00	 6.442890549703924e+00
 4.687695465869067e-01	 2.131415699360915e+00	 6.373257616382917e+00
 4.496400486903603e-01	 2.135533061474950e+00	 6.305674578381051e+00
 4.305253949385014e-01	 2.139468478448124e+00	 6.240642275491552e+00
 4.114279558440475e-01	 2.143222896180841e+00	 6.178542187639807e+00
 3.923500719767436e-01	 2.146797297426934e+00	 6.119656679033814e+00
 3.732940533571398e-01	 2.150192700871797e+00	 6.064191179214543e+00
 5.668371506444664e-01	 2.116591995545806e+00	 6.755924871414143e+00
 5.475925008020039e-01	 2.121652294578479e+00	 6.684905699003635e+00
 5.283504270568947e-01	 2.126525750991552e+00	 6.612319166385340e+00
 5.091134496568157e-01	 2.131213115972555e+00	 6.539362043837206e+00
 4.898840622736351e-01	 2.135715182180379e+00	 6.467050659027689e+00
 4.706647312467312e-01	 2.140032782876150e+00	 6.396229759648099e+00
 4.514578948557051e-01	 2.144166791040728e+00	 6.327585528617825e+00
 4.322659626226364e-01	 2.148118118479883e+00	 6.261662207210202e+00
 4.130913146439771e-01	 2.151887714918184e+00	 6.198881779370465e+00
 3.939363009521499e-01	 2.155476567082625e+00	 6.139566172302203e+00
 3.748032409068762e-01	 2.158885697777032e+00	 6.083961433924127e+00
 5.691195844049511e-01	 2.125114692085379e+00	 6.780274584007323e+00
 5.497974438080334e-01	 2.130195366983215e+00	 6.707699319653684e+00
 5.304778896813690e-01	 2.135088446918580e+00	 6.633550057112243e+00
 5.111634524207040e-01	 2.139794686103742e+00	 6.559097145292917e+00
 4.918566357389663e-01	 2.144314880389316e+00	 6.485419856859041e+00
 4.725599159065345e-01	 2.148649866391642e+00	 6.413416928341765e+00
 4.532757410210260e-01	 2.152800520606734e+00	 6.343821365337818e+00
 4.340065303067395e-01	 2.156767758511844e+00	 6.277218950170036e+00
 4.147546734438620e-01	 2.160552533655709e+00	 6.214069887342694e+00
 3.955225299274938e-01	 2.164155836738488e+00	 6.154733024075970e+00
 3.763124284565266e-01	 2.167578694682433e+00	 6.099492088960913e+00
 5.714020181651709e-01	 2.133637388625251e+00	 6.799510596402701e+00
 5.520023868138153e-01	 2.138738439388215e+00	 6.725013421697406e+00
 5.326053523056095e-01	 2.143651142845835e+00	 6.649043498362419e+00
 5.132134551843687e-01	 2.148376256235116e+00	 6.572944749709008e+00
 4.938292092040790e-01	 2.152914578598399e+00	 6.497858715789959e+00
 4.744551005661213e-01	 2.157266949907243e+00	 6.424736826743846e+00
 4.550935871861274e-01	 2.161434250172813e+00	 6.354357056739878e+00
 4.357470979906173e-01	 2.165417398543849e+00	 6.287344377503699e+00
 4.164180322435109e-01	 2.169217352393255e+00	 6.224194428390090e+00
 3.971087589025871e-01	 2.172835106394356e+00	 6.165299822061966e+00
 3.778216160059087e-01	 2.176271691587835e+00	 6.110978510843509e+00
 5.736844519249419e-01	 2.142160085165303e+00	 6.813269201469928e+00
 5.542073298191618e-01	 2.147281511793357e+00	 6.736535760736574e+00
 5.347328149294247e-01	 2.152213838773188e+00	 6.658540733735020e+00
 5.152634579476149e-01	 2.156957826366540e+00	 6.580701182214426e+00
 4.958017826687779e-01	 2.161514276807488e+00	 6.504219786495218e+00
 4.763502852252953e-01	 2.165884033422805e+00	 6.430098909350010e+00
 4.569114333508149e-01	 2.170067979738812e+00	 6.359159159059837e+00
 4.374876656740759e-01	 2.174067038575736e+00	 6.292061851784181e+00
 4.180813910427328e-01	 2.177882171130657e+00	 6.229334771410185e+00
 3.986949878772429e-01	 2.181514376050062e+00	 6.171400627283126e+00
 3.793308035548391e-01	 2.184964688493071e+00	 6.118607616477364e+00
 5.759668856840803e-01	 2.150682781705418e+00	 6.821180427040076e+00
 5.564122728238846e-01	 2.155824584198517e+00	 6.741947308908321e+00
 5.368602775526230e-01	 2.160776534700510e+00	 6.661775777355191e+00
 5.173134607102493e-01	 2.165539396497882e+00	 6.582155163885628e+00
 4.977743561328677e-01	 2.170113975016440e+00	 6.504347711139915e+00
 4.782454698838611e-01	 2.174501116938178e+00	 6.429404486197268e+00
 4.587292795148928e-01	 2.178701709304576e+00	 6.358185914729704e+00
 4.392282333569216e-01	 2.182716678607349e+00	 6.291386316863969e+00
 4.197447498413371e-01	 2.186546989867752e+00	 6.229561823665588e+00
 4.002812168512736e-01	 2.190193645705442e+00	 6.173161055549719e+00
 3.808399911031353e-01	 2.193657685397974e+00	 6.122557950434860e+00
 5.782493194424027e-01	 2.159205478245480e+00	 6.822868192624110e+00
 5.586172158277957e-01	 2.164367656603575e+00	 6.740922399128033e+00
 5.389877401750129e-01	 2.169339230627673e+00	 6.658475546803833e+00
 5.193634634720780e-01	 2.174120966629006e+00	 6.577087934464573e+00
 4.997469295961534e-01	 2.178713673225113e+00	 6.498079336928569e+00
 4.801406545416229e-01	 2.183118200453216e+00	 6.422546828221446e+00
 4.605471256781661e-01	 2.187335438869950e+00	 6.351387350459545e+00
 4.409688010389614e-01	 2.191366318638528e+00	 6.285324389531349e+00
 4.214081086391326e-01	 2.195211808604377e+00	 6.224938116793671e+00
 4.018674458244917e-01	 2.198872915360329e+00	 6.170698358535312e+00
 3.823491786506145e-01	 2.202350682302378e+00	 6.122999761738413e+00
 3.672573031609927e-01	 2.115420713255858e+00	 5.938496539850118e+00
 3.485300236178633e-01	 2.118586664291156e+00	 5.889105244989466e+00
 3.298287227551172e-01	 2.121578558452605e+00	 5.840173160894305e+00
 3.111555856978455e-01	 2.124397497505492e+00	 5.792100134080243e+00
 2.925127652964016e-01	 2.127044614912394e+00	 5.745230543734591e+00
 2.739023816741177e-01	 2.129521074894057e+00	 5.699890745442471e+00
 2.553265218037148e-01	 2.131828071486968e+00	 5.656420544347865e+00
 2.367872391122023e-01	 2.133966827598550e+00	 5.615199088818579e+00
 2.182865531140267e-01	 2.135938594060838e+00	 5.576665580012025e+00
 1.998264490722119e-01	 2.137744648683531e+00	 5.541335194474160e+00
 1.814088776871944e-01	 2.139386295307245e+00	 5.509810616212144e+00
 3.687664907092441e-01	 2.124113710158760e+00	 5.977358255354015e+00
 3.499622542837598e-01	 2.127292671184187e+00	 5.926560375150364e+00
 3.311841032941045e-01	 2.130296860075696e+00	 5.876505377386902e+00
 3.124342318447953e-01	 2.133127383126118e+00	 5.827493077574596e+00
 2.937148016329827e-01	 2.135785378455830e+00	 5.779793437729078e+00
 2.750279414943093e-01	 2.138272015069765e+00	 5.733683160007659e+00
 2.563757469775800e-01	 2.140588491911129e+00	 5.689476185245041e+00
 2.377602799480368e-01	 2.142736036912699e+00	 5.647548500609214e+00
 2.191835682190007e-01	 2.144715906046622e+00	 5.608357664783115e+00
 2.006476052116190e-01	 2.146529382373564e+00	 5.572457460629480e+00
 1.821543496424223e-01	 2.148177775092080e+00	 5.540508084338061e+00
 3.702756782581408e-01	 2.132806707062494e+00	 6.011107676086658e+00
 3.513944849502517e-01	 2.135998678078050e+00	 5.959277104356330e+00
 3.325394838336322e-01	 2.139015161699623e+00	 5.908548592134655e+00
 3.137128779922275e-01	 2.141857268747582e+00	 5.859097573543437e+00
 2.949168379699886e-01	 2.144526142000098e+00	 5.811096219871159e+00
 2.761535013148728e-01	 2.147022955246298e+00	 5.764749164343083e+00
 2.574249721517711e-01	 2.149348912336103e+00	 5.720323004564674e+00
 2.387333207841614e-01	 2.151505246227644e+00	 5.678170000287862e+00
 2.200805833242426e-01	 2.153493218033174e+00	 5.638746388207743e+00
 2.014687613512880e-01	 2.155314116064326e+00	 5.602625736837908e+00
 1.828998215979255e-01	 2.156969254877594e+00	 5.570507763300224e+00
 3.717848658075005e-01	 2.141499703966896e+00	 6.039977430908275e+00
 3.528267156171620e-01	 2.144704684972582e+00	 5.987532195653626e+00
 3.338948643735288e-01	 2.147733463324223e+00	 5.936617164461325e+00
 3.149915241399771e-01	 2.150587154369724e+00	 5.887258042597977e+00
 2.961188743072615e-01	 2.153266905545051e+00	 5.839506283337337e+00
 2.772790611356556e-01	 2.155773895423519e+00	 5.793472494672365e+00
 2.584741973261407e-01	 2.158109332761764e+00	 5.749354922892389e+00
 2.397063616204330e-01	 2.160274455543267e+00	 5.707462015278217e+00
 2.209775984296113e-01	 2.162270530020390e+00	 5.668229497200969e+00
 2.022899174910786e-01	 2.164098849755733e+00	 5.632232400052194e+00
 1.836452935535623e-01	 2.165760734663722e+00	 5.600192474948031e+00
 3.732940533571398e-01	 2.150192700871797e+00	 6.064191179214543e+00
 3.542589462843137e-01	 2.153410691867619e+00	 6.011594472840430e+00
 3.352502449136233e-01	 2.156451764949333e+00	 5.961018183802232e+00
 3.162701702878793e-01	 2.159317039992388e+00	 5.912312269608670e+00
 2.973209106446425e-01	 2.162007669090537e+00	 5.865384982682301e+00
 2.784046209565056e-01	 2.164524835601285e+00	 5.820231407038830e+00
 2.595234225005417e-01	 2.166869753187978e+00	 5.776960898916734e+00
 2.406794024567081e-01	 2.169043664859453e+00	 5.735818487897129e+00
 2.218746135349662e-01	 2.171047842008172e+00	 5.697200687677297e+00
 2.031110736308507e-01	 2.172883583447700e+00	 5.661666166583104e+00
 1.843907655091911e-01	 2.174552214450399e+00	 5.629941726150568e+00
 3.748032409068762e-01	 2.158885697777032e+00	 6.083961433924127e+00
 3.556911769515290e-01	 2.162116698762993e+00	 6.031724824444582e+00
 3.366056254537447e-01	 2.165170066574794e+00	 5.982051480753423e+00
 3.175488164357699e-01	 2.168046925615417e+00	 5.934591420627918e+00
 2.985229469819736e-01	 2.170748432636406e+00	 5.889087655554730e+00
 2.795301807772702e-01	 2.173275775779456e+00	 5.845398702860071e+00
 2.605726476748265e-01	 2.175630173614619e+00	 5.803524957985504e+00
 2.416524432928432e-01	 2.177812874176085e+00	 5.763628906201484e+00
 2.227716286401662e-01	 2.179825153996416e+00	 5.726049637095278e+00
 2.039322297704642e-01	 2.181668317140143e+00	 5.691312125867258e+00
 1.851362374646701e-01	 2.183343694237561e+00	 5.660131743437779e+00
 3.763124284565266e-01	 2.167578694682433e+00	 6.099492088960913e+00
 3.571234076186307e-01	 2.170822705658540e+00	 6.048176207044021e+00
 3.379610059937216e-01	 2.173888368200441e+00	 6.000009637386716e+00
 3.188274625834839e-01	 2.176776811238652e+00	 5.954420059016932e+00
 2.997249833190964e-01	 2.179489196182509e+00	 5.910963643574274e+00
 2.806557405977968e-01	 2.182026715957890e+00	 5.869341753611607e+00
 2.616218728488479e-01	 2.184390594041556e+00	 5.829426219774370e+00
 2.426254841286951e-01	 2.186582083493045e+00	 5.791278333936594e+00
 2.236686437450708e-01	 2.188602465985022e+00	 5.755162036099733e+00
 2.047533859097785e-01	 2.190453050832980e+00	 5.721551773337800e+00
 1.858817094198578e-01	 2.192135174025141e+00	 5.691135506746641e+00
 3.778216160059087e-01	 2.176271691587835e+00	 6.110978510843508e+00
 3.585556382854418e-01	 2.179528712554094e+00	 6.061193647949546e+00
 3.393163865333830e-01	 2.182606669826111e+00	 6.015177996848822e+00
 3.201061087308567e-01	 2.185506696861939e+00	 5.972116160797756e+00
 3.009270196558527e-01	 2.188229959728696e+00	 5.931356312391390e+00
 2.817813004179333e-01	 2.190777656136448e+00	 5.892422524665363e+00
 2.626710980224587e-01	 2.193151014468659e+00	 5.855038925091929e+00
 2.435985249641205e-01	 2.195351292810219e+00	 5.819147439611461e+00
 2.245656588495387e-01	 2.197379777973890e+00	 5.784919619288829e+00
 2.055745420486539e-01	 2.199237784526123e+00	 5.752763042420137e+00
 1.866271813746121e-01	 2.200926653813077e+00	 5.723322782298357e+00
 3.793308035548391e-01	 2.184964688493071e+00	 6.118607616477364e+00
 3.599878689517845e-01	 2.188234719449488e+00	 6.071014247266499e+00
 3.406717670725579e-01	 2.191324971451645e+00	 6.027834672265607e+00
 3.213847548777234e-01	 2.194236582485119e+00	 5.987991129255165e+00
 3.021290559920838e-01	 2.196970723274818e+00	 5.950603070954196e+00
 2.829068602375269e-01	 2.199528596314987e+00	 5.914997598306077e+00
 2.637203231955114e-01	 2.201911434895801e+00	 5.880732461842990e+00
 2.445715657989760e-01	 2.204120502127490e+00	 5.847612524724910e+00
 2.254626739534294e-01	 2.206157089962917e+00	 5.815700195130318e+00
 2.063956981869499e-01	 2.208022518219492e+00	 5.785320335677392e+00
 1.873726533287917e-01	 2.209718133601299e+00	 5.757060154629761e+00
 3.808399911031353e-01	 2.193657685397974e+00	 6.122557950434860e+00
 3.614200996174822e-01	 2.196940726344560e+00	 6.077867179352614e+00
 3.420271476110751e-01	 2.200043273076879e+00	 6.038250554970940e+00
 3.226634010239198e-01	 2.202966468108035e+00	 6.002349808806187e+00
 3.033310923276318e-01	 2.205711486820724e+00	 5.969035390003754e+00
 2.840324200564257e-01	 2.208279536493369e+00	 5.937418195947925e+00
 2.647695483678589e-01	 2.210671855322849e+00	 5.906871390177749e+00
 2.455446066331181e-01	 2.212889711444741e+00	 5.877045551166495e+00
 2.263596890566018e-01	 2.214934401952002e+00	 5.847877675048379e+00
 2.072168543245263e-01	 2.216807251913000e+00	 5.819594555131832e+00
 1.881181252822547e-01	 2.218509613389748e+00	 5.792711057803714e+00
 3.823491786506145e-01	 2.202350682302378e+00	 6.122999761738413e+00
 3.628523302823573e-01	 2.205646733239143e+00	 6.081973693690006e+00
 3.433825281487635e-01	 2.208761574701650e+00	 6.046689322077976e+00
 3.239420471692807e-01	 2.211696353730531e+00	 6.015490498159272e+00
 3.045331286623382e-01	 2.214452250366265e+00	 5.986978819818551e+00
 2.851579798744769e-01	 2.217030476671454e+00	 5.960030199573945e+00
 2.658187735393538e-01	 2.219432275749678e+00	 5.933815466844685e+00
 2.465176474664039e-01	 2.221658920761856e+00	 5.907814167814728e+00
 2.272567041589152e-01	 2.223711713941045e+00	 5.881458612481515e+00
 2.080380104612432e-01	 2.225591985606564e+00	 5.854355150070976e+00
 1.888635972348596e-01	 2.227301093178355e+00	 5.827548445390651e+00
 1.814088776871944e-01	 2.139386295307245e+00	 5.509810616212144e+00
 1.630388668134021e-01	 2.140864625246658e+00	 5.483136601388415e+00
 1.447151263019822e-01	 2.142181283527937e+00	 5.461306780687702e+00
 1.264394588533794e-01	 2.143337645286587e+00	 5.443521553087244e+00
 1.082136327957438e-01	 2.144335107886604e+00	 5.429098800473725e+00
 9.003938190143806e-02	 2.145175090000602e+00	 5.417470514804283e+00
 7.191840522812755e-02	 2.145859030694298e+00	 5.408177229020135e+00
 5.385236698404491e-02	 2.146388388516030e+00	 5.400860587571780e+00
 3.584289641700417e-02	 2.146764640591973e+00	 5.395254378004244e+00
 1.789158772672358e-02	 2.146989281727696e+00	 5.391174329663680e+00
 0.000000000000000e+00	 2.147063823516666e+00	 5.388506971323142e+00
 1.821543496424223e-01	 2.148177775092080e+00	 5.540508084338063e+00
 1.637088500270271e-01	 2.149662180001442e+00	 5.513591876987962e+00
 1.453098109149132e-01	 2.150984248887804e+00	 5.491670613593207e+00
 1.269590424144496e-01	 2.152145362537580e+00	 5.473924513437938e+00
 1.086583201204632e-01	 2.153146924057020e+00	 5.459667417253780e+00
 9.040938492999151e-02	 2.153990357948556e+00	 5.448341972511946e+00
 7.221394288272016e-02	 2.154677109191527e+00	 5.439512610934408e+00
 5.407366502569354e-02	 2.155208642327952e+00	 5.432856663621409e+00
 3.599018730187295e-02	 2.155586440554033e+00	 5.428153944243195e+00
 1.796511046209908e-02	 2.155812004818010e+00	 5.425275114813809e+00
 0.000000000000000e+00	 2.155886852925016e+00	 5.424169133694906e+00
 1.828998215979255e-01	 2.156969254877594e+00	 5.570507763300226e+00
 1.643788332409611e-01	 2.158459734756845e+00	 5.543507039882275e+00
 1.459044955281991e-01	 2.159787214248219e+00	 5.521565086442727e+00
 1.274786259759230e-01	 2.160953079789044e+00	 5.503850005856367e+00
 1.091030074456266e-01	 2.161958740227829e+00	 5.489679786560466e+00
 9.077938795901273e-02	 2.162805625896829e+00	 5.478515997902878e+00
 7.250948053777760e-02	 2.163495187689005e+00	 5.469955267110513e+00
 5.429496306776798e-02	 2.164028896140064e+00	 5.463718892999823e+00
 3.613747818708313e-02	 2.164408240516233e+00	 5.459640936053789e+00
 1.803863319767704e-02	 2.164634727908436e+00	 5.457655107988733e+00
 0.000000000000000e+00	 2.164709882333466e+00	 5.457780768460111e+00
 1.836452935535623e-01	 2.165760734663722e+00	 5.600192474948033e+00
 1.650488164550587e-01	 2.167257289512821e+00	 5.573249987801936e+00
 1.464991801416902e-01	 2.168590179609160e+00	 5.551336429139904e+00
 1.279982095376468e-01	 2.169760797040981e+00	 5.533616082345135e+00
 1.095476947710809e-01	 2.170770556399055e+00	 5.519419512704070e+00
 9.114939098835277e-02	 2.171620893845462e+00	 5.508235723636841e+00
 7.280501819316147e-02	 2.172313266186795e+00	 5.499702084910293e+00
 5.451626111014831e-02	 2.172849149952441e+00	 5.493592397868349e+00
 3.628476907254295e-02	 2.173230040478665e+00	 5.489803446649564e+00
 1.811215593340515e-02	 2.173457450999069e+00	 5.488340367294533e+00
 0.000000000000000e+00	 2.173532911742116e+00	 5.489301150521969e+00
 1.843907655091911e-01	 2.174552214450399e+00	 5.629941726150566e+00
 1.657187996691746e-01	 2.176054844269327e+00	 5.603185630999419e+00
 1.470938647552370e-01	 2.177393144970603e+00	 5.581328223274244e+00
 1.285177930994681e-01	 2.178568514293390e+00	 5.563538501317152e+00
 1.099923820966728e-01	 2.179582372570720e+00	 5.549168280574348e+00
 9.151939401786265e-02	 2.180436161794501e+00	 5.537742760428627e+00
 7.310055584873329e-02	 2.181131344684955e+00	 5.528948854359403e+00
 5.473755915271462e-02	 2.181669403765163e+00	 5.522621658568753e+00
 3.643205995816066e-02	 2.182051840441418e+00	 5.518729417575313e+00
 1.818567866923106e-02	 2.182280174090007e+00	 5.517357327605874e+00
 0.000000000000000e+00	 2.182355941151066e+00	 5.518690501854690e+00
 1.851362374646701e-01	 2.183343694237561e+00	 5.660131743437780e+00
 1.663887828831636e-01	 2.184852399026318e+00	 5.633675926975591e+00
 1.476885493686899e-01	 2.186196110332526e+00	 5.611881435652808e+00
 1.290373766612340e-01	 2.187376231546269e+00	 5.593930758675209e+00
 1.104370694222492e-01	 2.188394188742845e+00	 5.579205883037852e+00
 9.188939704739348e-02	 2.189251429743987e+00	 5.567277219557846e+00
 7.339609350435468e-02	 2.189949423183549e+00	 5.557890284587372e+00
 5.495885719534697e-02	 2.190489657578305e+00	 5.550950522847666e+00
 3.657935084384444e-02	 2.190873640404580e+00	 5.546506639587967e+00
 1.825920140510245e-02	 2.191102897181349e+00	 5.544732792007655e+00
 0.000000000000000e+00	 2.191178970560415e+00	 5.545909972436128e+00
 1.858817094198578e-01	 2.192135174025141e+00	 5.691135506746639e+00
 1.670587660968802e-01	 2.193649953783749e+00	 5.665079914331531e+00
 1.482832339818991e-01	 2.194999075694908e+00	 5.643334451000205e+00
 1.295569602227919e-01	 2.196183948799623e+00	 5.625104118129801e+00
 1.108817567476570e-01	 2.197206004915452e+00	 5.609810247668127e+00
 9.225940007679623e-02	 2.198066697693962e+00	 5.597077734831942e+00
 7.369163115988717e-02	 2.198767501682638e+00	 5.586720019875226e+00
 5.518015523792547e-02	 2.199309911391945e+00	 5.578722214858110e+00
 3.672664172950261e-02	 2.199695440368243e+00	 5.573222753516865e+00
 1.833272414096701e-02	 2.199925620273190e+00	 5.570493923442474e+00
 0.000000000000000e+00	 2.200001999970266e+00	 5.570921621638774e+00
 1.866271813746121e-01	 2.200926653813077e+00	 5.723322782298359e+00
 1.677287493101792e-01	 2.202447508541578e+00	 5.697753745766541e+00
 1.488779185947151e-01	 2.203802041057728e+00	 5.676023103849024e+00
 1.300765437839888e-01	 2.204991666053447e+00	 5.657367640776176e+00
 1.113264440727428e-01	 2.206017821088564e+00	 5.641257462828367e+00
 9.262940310592198e-02	 2.206881965644472e+00	 5.627381484022741e+00
 7.398716881519238e-02	 2.207585580182284e+00	 5.615630655315869e+00
 5.540145328033015e-02	 2.208130165206159e+00	 5.606079343947357e+00
 3.687393261504335e-02	 2.208517240332494e+00	 5.598965251104312e+00
 1.840624687677240e-02	 2.208748343365628e+00	 5.594668236558064e+00
 0.000000000000000e+00	 2.208825029380716e+00	 5.593688400067967e+00
 1.873726533287917e-01	 2.209718133601299e+00	 5.757060154629761e+00
 1.683987325229153e-01	 2.211245063299761e+00	 5.732050720249890e+00
 1.494726032069882e-01	 2.212605006420961e+00	 5.710280709643159e+00
 1.305961273446718e-01	 2.213799383307746e+00	 5.691028213948966e+00
 1.117711313973535e-01	 2.214829637262203e+00	 5.673821803124577e+00
 9.299940613462176e-02	 2.215697233595556e+00	 5.658424209787750e+00
 7.428270647013184e-02	 2.216403658682547e+00	 5.644813752102760e+00
 5.562275132244118e-02	 2.216950419021026e+00	 5.633163913235499e+00
 3.702122350037491e-02	 2.217339040297422e+00	 5.623821475827643e+00
 1.847976961246629e-02	 2.217571066458761e+00	 5.617283589751466e+00
 0.000000000000000e+00	 2.217648058791865e+00	 5.614174131832114e+00
 1.881181252822547e-01	 2.218509613389748e+00	 5.792711057803714e+00
 1.690687157349431e-01	 2.220042618058251e+00	 5.768321314384773e+00
 1.500672878185688e-01	 2.221407971784588e+00	 5.746438095075946e+00
 1.311157109046882e-01	 2.222607100562518e+00	 5.726381473415060e+00
 1.122158187213360e-01	 2.223641453436392e+00	 5.707715484498432e+00
 9.336940916274668e-02	 2.224512501547260e+00	 5.690417030673463e+00
 7.457824412456718e-02	 2.225221737183489e+00	 5.674650017624995e+00
 5.584404936413859e-02	 2.225770672836623e+00	 5.660711252597833e+00
 3.716851438540554e-02	 2.226160840263118e+00	 5.649022483101209e+00
 1.855329234799637e-02	 2.226393789552686e+00	 5.640122953074755e+00
 0.000000000000000e+00	 2.226471088203815e+00	 5.634662431956319e+00
 1.888635972348596e-01	 2.227301093178355e+00	 5.827548445390649e+00
 1.697386989461173e-01	 2.228840172817007e+00	 5.802610321171015e+00
 1.506619724293075e-01	 2.230210937148586e+00	 5.779969236978085e+00
 1.316352944638852e-01	 2.231414817817765e+00	 5.759271165298998e+00
 1.126605060445370e-01	 2.232453269611154e+00	 5.740319688008356e+00
 9.373941219014767e-02	 2.233327769499624e+00	 5.723066423711549e+00
 7.487378177835993e-02	 2.234039815685173e+00	 5.707602126077501e+00
 5.606534740530249e-02	 2.234590926653027e+00	 5.694148401192174e+00
 3.731580527004347e-02	 2.234982640229672e+00	 5.683049993226035e+00
 1.862681508331029e-02	 2.235216512647499e+00	 5.674767589196611e+00
 0.000000000000000e+00	 2.235294117616666e+00	 5.669871096684935e+00
 2.235294117616666e+00	 0.000000000000000e+00	 1.184351630632720e+01
 2.235216512647500e+00	 1.862681508330905e-02	 1.184930967657909e+01
 2.234982640229673e+00	 3.731580527004243e-02	 1.185316667646609e+01
 2.234590926653027e+00	 5.606534740530161e-02	 1.185577994589181e+01
 2.234039815685173e+00	 7.487378177835924e-02	 1.185777258546774e+01
 2.233327769499625e+00	 9.373941219014720e-02	 1.185969635929306e+01
 2.232453269611153e+00	 1.126605060445367e-01	 1.186202965011537e+01
 2.231414817817765e+00	 1.316352944638850e-01	 1.186517514843189e+01
 2.230210937148586e+00	 1.506619724293075e-01	 1.186945725570147e+01
 2.228840172817007e+00	 1.697386989461175e-01	 1.187511918085452e+01
 2.227301093178355e+00	 1.888635972348596e-01	 1.188231970829520e+01
 2.244117147030466e+00	 0.000000000000000e+00	 1.182341147099103e+01
 2.244039235743250e+00	 1.870033781837215e-02	 1.182935822161995e+01
 2.243804440197124e+00	 3.746309615422733e-02	 1.183349826518188e+01
 2.243411180470269e+00	 5.628664544585382e-02	 1.183647861821527e+01
 2.242857894187618e+00	 7.516931943142009e-02	 1.183887921066757e+01
 2.242143037452658e+00	 9.410941521672932e-02	 1.184121121025867e+01
 2.241265085786478e+00	 1.131051933668598e-01	 1.184391509966187e+01
 2.240222535073461e+00	 1.321548780221675e-01	 1.184735848777768e+01
 2.239013902512914e+00	 1.512566570391123e-01	 1.185183363497329e+01
 2.237637727575971e+00	 1.704086821563503e-01	 1.185755467113476e+01
 2.236092572967051e+00	 1.896090691865214e-01	 1.186465448434611e+01
 2.252940176445066e+00	 0.000000000000000e+00	 1.180413204815017e+01
 2.252861958839785e+00	 1.877386055322048e-02	 1.181010433409566e+01
 2.252626240165328e+00	 3.761038703802465e-02	 1.181440518669450e+01
 2.252231434288208e+00	 5.650794348588324e-02	 1.181763871941684e+01
 2.251675972690686e+00	 7.546485708385607e-02	 1.182034436387654e+01
 2.250958305406227e+00	 9.447941824261315e-02	 1.182299531184192e+01
 2.250076901962240e+00	 1.135498806884351e-01	 1.182599671061036e+01
 2.249030252329490e+00	 1.326744615796722e-01	 1.182968359274957e+01
 2.247816867877463e+00	 1.518513416481237e-01	 1.183431851979082e+01
 2.246435282335047e+00	 1.710786653657839e-01	 1.184008891839386e+01
 2.244884052755747e+00	 1.903545411373832e-01	 1.184710408642452e+01
 2.261763205860265e+00	 0.000000000000000e+00	 1.178563212691128e+01
 2.261684681936913e+00	 1.884738328790770e-02	 1.179151740839562e+01
 2.261448040134089e+00	 3.775767792153130e-02	 1.179587072149628e+01
 2.261051688106653e+00	 5.672924152552061e-02	 1.179925596628755e+01
 2.260494051194197e+00	 7.576039473582347e-02	 1.180217471721287e+01
 2.259773573360162e+00	 9.484942126797326e-02	 1.180506477881691e+01
 2.258888718138284e+00	 1.139945680094496e-01	 1.180829849550117e+01
 2.257837969585706e+00	 1.331940451365935e-01	 1.181218079604639e+01
 2.256619833242108e+00	 1.524460262565401e-01	 1.181694695221144e+01
 2.255232837094122e+00	 1.717486485746182e-01	 1.182276002960993e+01
 2.253675532544351e+00	 1.911000130876450e-01	 1.182970800794475e+01
 2.270586235275865e+00	 0.000000000000000e+00	 1.176786770856915e+01
 2.270507405034428e+00	 1.892090602248753e-02	 1.177356833604813e+01
 2.270269840103212e+00	 3.790496880484414e-02	 1.177787926316839e+01
 2.269871941925419e+00	 5.695053956489655e-02	 1.178132683626797e+01
 2.269312129697973e+00	 7.605593238747844e-02	 1.178437738319486e+01
 2.268588841314298e+00	 9.521942429298426e-02	 1.178743587884296e+01
 2.267700534314453e+00	 1.144392553300903e-01	 1.179084436548869e+01
 2.266645686841974e+00	 1.337136286931258e-01	 1.179488010842702e+01
 2.265422798606722e+00	 1.530407108645598e-01	 1.179975346595057e+01
 2.264030391853086e+00	 1.724186317830529e-01	 1.180560545156719e+01
 2.262467012332769e+00	 1.918454850375069e-01	 1.181250496518346e+01
 2.279409264691664e+00	 0.000000000000000e+00	 1.175079666959852e+01
 2.279330128132136e+00	 1.899442875701364e-02	 1.175622947414869e+01
 2.279091640072504e+00	 3.805225968806008e-02	 1.176041629196589e+01
 2.278692195744318e+00	 5.717183760414182e-02	 1.176384854590119e+01
 2.278130208201834e+00	 7.635147003897721e-02	 1.176695989776356e+01
 2.277404109268463e+00	 9.558942731782064e-02	 1.177012501974818e+01
 2.276512350490592e+00	 1.148839426505439e-01	 1.177365812156752e+01
 2.275453404098145e+00	 1.342332122494636e-01	 1.177781121354977e+01
 2.274225763971176e+00	 1.536353954723810e-01	 1.178277208449617e+01
 2.272827946611831e+00	 1.730886149912878e-01	 1.178866197189610e+01
 2.271258492120908e+00	 1.925909569871686e-01	 1.179553290088630e+01
 2.288232294107464e+00	 0.000000000000000e+00	 1.173437872550215e+01
 2.288152851229837e+00	 1.906795149153976e-02	 1.173947461451993e+01
 2.287913440041769e+00	 3.819955057127600e-02	 1.174346834902015e+01
 2.287512449563160e+00	 5.739313564338704e-02	 1.174681902979908e+01
 2.286948286705601e+00	 7.664700769047590e-02	 1.174993020372349e+01
 2.286219377222491e+00	 9.595943034265697e-02	 1.175314873714674e+01
 2.285324166666547e+00	 1.153286299709976e-01	 1.175676344605808e+01
 2.284261121354082e+00	 1.347527958058014e-01	 1.176100346300887e+01
 2.283028729335348e+00	 1.542300800802023e-01	 1.176603631936774e+01
 2.281625501370243e+00	 1.737585981995226e-01	 1.177196572021732e+01
 2.280049971908674e+00	 1.933364289368304e-01	 1.177882898794878e+01
 2.297055323523064e+00	 0.000000000000000e+00	 1.171857539549189e+01
 2.296975574327333e+00	 1.914147422611955e-02	 1.172327895358396e+01
 2.296735240010814e+00	 3.834684145458878e-02	 1.172702301114234e+01
 2.296332703381759e+00	 5.761443368276292e-02	 1.173023692010698e+01
 2.295766365209095e+00	 7.694254534213078e-02	 1.173329663459020e+01
 2.295034645176212e+00	 9.632943336766780e-02	 1.173652368238082e+01
 2.294135982842159e+00	 1.157733172916381e-01	 1.174018389434503e+01
 2.293068838609642e+00	 1.352723793623336e-01	 1.174448587156190e+01
 2.291831694699106e+00	 1.548247646882218e-01	 1.174957916851581e+01
 2.290423056128215e+00	 1.744285814079572e-01	 1.175555216938615e+01
 2.288841451695976e+00	 1.940819008866921e-01	 1.176242963316891e+01
 2.305878352938263e+00	 0.000000000000000e+00	 1.170334996798105e+01
 2.305798297424424e+00	 1.921499696080672e-02	 1.170761906292818e+01
 2.305557039979444e+00	 3.849413233809533e-02	 1.171106886621140e+01
 2.305152957199925e+00	 5.783573172240011e-02	 1.171410152645397e+01
 2.304584443712138e+00	 7.723808299409803e-02	 1.171706789883357e+01
 2.303849913129459e+00	 9.669943639302774e-02	 1.172026661077825e+01
 2.302947799017274e+00	 1.162180046126525e-01	 1.172394288686192e+01
 2.301876555864682e+00	 1.357919629192546e-01	 1.172828711254374e+01
 2.300634660062327e+00	 1.554194492966379e-01	 1.173343311485854e+01
 2.299220610885634e+00	 1.750985646167913e-01	 1.173945613683534e+01
 2.297632931482718e+00	 1.948273728369538e-01	 1.174637048107017e+01
 2.314701382352864e+00	 0.000000000000000e+00	 1.168866746686544e+01
 2.314621020520913e+00	 1.928851969565496e-02	 1.169247286054541e+01
 2.314378839947464e+00	 3.864142322189251e-02	 1.169559548913111e+01
 2.313973211017472e+00	 5.805702976242937e-02	 1.169841281637578e+01
 2.313402522214548e+00	 7.753362064653381e-02	 1.170125306450633e+01
 2.312665181082062e+00	 9.706943941891133e-02	 1.170439437021806e+01
 2.311759615191734e+00	 1.166626919342275e-01	 1.170806370131488e+01
 2.310684273119061e+00	 1.363115464767589e-01	 1.171243551346174e+01
 2.309437625424885e+00	 1.560141339056490e-01	 1.171763012495134e+01
 2.308018165642393e+00	 1.757685478262246e-01	 1.172371178601334e+01
 2.306424411268809e+00	 1.955728447878152e-01	 1.173068641779260e+01
 2.323524411766664e+00	 0.000000000000000e+00	 1.167449461857301e+01
 2.323443743616602e+00	 1.936204243071796e-02	 1.167781958273115e+01
 2.323200639914680e+00	 3.878871410607723e-02	 1.168059341834128e+01
 2.322793464834211e+00	 5.827832780298133e-02	 1.168317139619757e+01
 2.322220600716149e+00	 7.782915829959436e-02	 1.168586154424779e+01
 2.321480449033855e+00	 9.743944244549314e-02	 1.168892388999490e+01
 2.320571431365386e+00	 1.171073792565502e-01	 1.169256946513980e+01
 2.319491990372638e+00	 1.368311300350412e-01	 1.169695905176727e+01
 2.318240590786651e+00	 1.566088185154535e-01	 1.170220164778634e+01
 2.316815720398378e+00	 1.764385310364570e-01	 1.170835262791528e+01
 2.315215891054155e+00	 1.963183167394767e-01	 1.171541157505042e+01
 2.227301093178355e+00	 1.888635972348596e-01	 1.188231970829520e+01
 2.225591985606564e+00	 2.080380104612422e-01	 1.189077644702654e+01
 2.223711713941045e+00	 2.272567041589144e-01	 1.190035972789158e+01
 2.221658920761857e+00	 2.465176474664031e-01	 1.191131906411324e+01
 2.219432275749678e+00	 2.658187735393531e-01	 1.192358385211378e+01
 2.217030476671453e+00	 2.851579798744763e-01	 1.193698330738760e+01
 2.214452250366266e+00	 3.045331286623377e-01	 1.195128573892526e+01
 2.211696353730532e+00	 3.239420471692804e-01	 1.196613272863274e+01
 2.208761574701650e+00	 3.433825281487632e-01	 1.198103869073242e+01
 2.205646733239143e+00	 3.628523302823570e-01	 1.199539167825074e+01
 2.202350682302377e+00	 3.823491786506144e-01	 1.200917541318180e+01
 2.236092572967051e+00	 1.896090691865214e-01	 1.186465448434611e+01
 2.234376719300101e+00	 2.088591665970157e-01	 1.187284161726059e+01
 2.232489025929950e+00	 2.281537192602845e-01	 1.188197917823461e+01
 2.230428130078733e+00	 2.474906882987458e-01	 1.189230778017493e+01
 2.228192696176172e+00	 2.668679987099058e-01	 1.190397717892160e+01
 2.225781416849120e+00	 2.862835396915860e-01	 1.191704086718855e+01
 2.223193013911316e+00	 3.057351649961033e-01	 1.193145017172974e+01
 2.220426239352480e+00	 3.252206933137013e-01	 1.194691816407101e+01
 2.217479876325830e+00	 3.447379086855121e-01	 1.196258976731434e+01
 2.214352740133107e+00	 3.642845609462930e-01	 1.197779569381297e+01
 2.211043679206151e+00	 3.838583661971546e-01	 1.199261199115038e+01
 2.244884052755747e+00	 1.903545411373832e-01	 1.184710408642452e+01
 2.243161452993536e+00	 2.096803227319892e-01	 1.185506948410204e+01
 2.241266337918653e+00	 2.290507343608546e-01	 1.186384713242341e+01
 2.239197339395315e+00	 2.484637291302883e-01	 1.187366231082990e+01
 2.236953116602291e+00	 2.679172238796573e-01	 1.188465345849137e+01
 2.234532357026340e+00	 2.874090995078937e-01	 1.189686688545389e+01
 2.231933777455860e+00	 3.069372013290654e-01	 1.191025098271702e+01
 2.229156124973871e+00	 3.264993394573168e-01	 1.192464990201223e+01
 2.226198177949418e+00	 3.460932892214528e-01	 1.193979667533810e+01
 2.223058747026457e+00	 3.657167916094170e-01	 1.195530574369097e+01
 2.219736676109307e+00	 3.853675537428786e-01	 1.197132123966409e+01
 2.253675532544351e+00	 1.911000130876450e-01	 1.182970800794475e+01
 2.251946186686788e+00	 2.105014788663626e-01	 1.183749797120858e+01
 2.250043649907096e+00	 2.299477494608246e-01	 1.184599570178792e+01
 2.247966548711565e+00	 2.494367699612299e-01	 1.185541339509771e+01
 2.245713537028012e+00	 2.689664490488068e-01	 1.186588015419217e+01
 2.243283297203106e+00	 2.885346593235973e-01	 1.187743681128533e+01
 2.240674540999906e+00	 3.081392376614207e-01	 1.189003024422899e+01
 2.237886010594730e+00	 3.277779856003211e-01	 1.190350715798244e+01
 2.234916479572447e+00	 3.474486697567768e-01	 1.191760730033709e+01
 2.231764753919240e+00	 3.671490222719178e-01	 1.193195608048751e+01
 2.228429673011896e+00	 3.868767412879703e-01	 1.194708300398624e+01
 2.262467012332769e+00	 1.918454850375069e-01	 1.181250496518346e+01
 2.260730920379786e+00	 2.113226350003361e-01	 1.182016416269450e+01
 2.258820961895221e+00	 2.308447645603939e-01	 1.182845616999672e+01
 2.256735758027442e+00	 2.504098107917702e-01	 1.183758230210694e+01
 2.254473957453314e+00	 2.700156742175535e-01	 1.184766426183640e+01
 2.252034237379414e+00	 2.896602191388949e-01	 1.185873906494733e+01
 2.249415304543460e+00	 3.093412739933654e-01	 1.187075345662329e+01
 2.246615896215076e+00	 3.290566317429090e-01	 1.188355778856253e+01
 2.243634781194953e+00	 3.488040502916763e-01	 1.189689932517605e+01
 2.240470760811494e+00	 3.685812529339828e-01	 1.191041494664271e+01
 2.237122669913967e+00	 3.883859288326131e-01	 1.192472262614454e+01
 2.271258492120908e+00	 1.925909569871686e-01	 1.179553290088630e+01
 2.269515654072454e+00	 2.121437911341094e-01	 1.180310430856037e+01
 2.267598273882971e+00	 2.317417796597629e-01	 1.181125899917959e+01
 2.265504967342906e+00	 2.513828516221088e-01	 1.182018956557787e+01
 2.263234377878171e+00	 2.710648993860958e-01	 1.183001220185020e+01
 2.260785177555253e+00	 2.907857789539846e-01	 1.184076172550383e+01
 2.258156068086532e+00	 3.105433103250964e-01	 1.185238608761432e+01
 2.255345781834930e+00	 3.303352778852747e-01	 1.186474033958282e+01
 2.252353082816967e+00	 3.501594308263425e-01	 1.187758002420406e+01
 2.249176767703267e+00	 3.700134835958008e-01	 1.189055395796835e+01
 2.245815666815571e+00	 3.898951163769912e-01	 1.190435013231204e+01
 2.280049971908674e+00	 1.933364289368304e-01	 1.177882898794878e+01
 2.278300387764714e+00	 2.129649472678827e-01	 1.178635383018786e+01
 2.276375585870287e+00	 2.326387947591311e-01	 1.179443383613459e+01
 2.274274176657915e+00	 2.523558924524452e-01	 1.180325498962723e+01
 2.271994798302561e+00	 2.721141245546330e-01	 1.181292982354771e+01
 2.269536117730619e+00	 2.919113387690642e-01	 1.182349253242097e+01
 2.266896831629128e+00	 3.117453466568098e-01	 1.183489357005154e+01
 2.264075667454317e+00	 3.316139240276127e-01	 1.184699370009113e+01
 2.261071384438525e+00	 3.515148113609675e-01	 1.185955746648656e+01
 2.257882774594597e+00	 3.714457142575597e-01	 1.187224863140097e+01
 2.254508663716754e+00	 3.914043039212879e-01	 1.188579711837648e+01
 2.288841451695976e+00	 1.940819008866921e-01	 1.176242963316891e+01
 2.287085121456494e+00	 2.137861034018557e-01	 1.176994732589730e+01
 2.285152897857111e+00	 2.335358098586986e-01	 1.177800951861764e+01
 2.283043385972432e+00	 2.533289332829788e-01	 1.178679765470334e+01
 2.280755218726461e+00	 2.731633497233641e-01	 1.179642240961239e+01
 2.278287057905504e+00	 2.930368985843319e-01	 1.180691888748320e+01
 2.275637595171260e+00	 3.129473829887026e-01	 1.181824130014605e+01
 2.272805553073255e+00	 3.328925701701175e-01	 1.183025709575460e+01
 2.269789686059659e+00	 3.528701918957428e-01	 1.184274050323536e+01
 2.266588781485531e+00	 3.728779449194479e-01	 1.185537806987473e+01
 2.263201660617569e+00	 3.929134914656874e-01	 1.186889747799002e+01
 2.297632931482718e+00	 1.948273728369538e-01	 1.174637048107017e+01
 2.295869855147715e+00	 2.146072595362286e-01	 1.175391857656653e+01
 2.293930209843388e+00	 2.344328249586651e-01	 1.176201408171194e+01
 2.291812595286414e+00	 2.543019741139095e-01	 1.177083592364768e+01
 2.289515639149849e+00	 2.742125748924880e-01	 1.178049468078003e+01
 2.287037998079901e+00	 2.941624583999852e-01	 1.179102785701387e+01
 2.284378358712933e+00	 3.141494193209708e-01	 1.180239463613377e+01
 2.281535438691769e+00	 3.341712163129840e-01	 1.181447008285834e+01
 2.278507987680400e+00	 3.542255724308603e-01	 1.182703875602497e+01
 2.275294788376108e+00	 3.743101755816535e-01	 1.183981465539946e+01
 2.271894657518064e+00	 3.944226790103731e-01	 1.185348735398909e+01
 2.306424411268809e+00	 1.955728447878152e-01	 1.173068641779260e+01
 2.304654588838302e+00	 2.154284156712012e-01	 1.173830055130964e+01
 2.302707521829056e+00	 2.353298400592305e-01	 1.174647476427558e+01
 2.300581804599821e+00	 2.552750149454366e-01	 1.175538744788029e+01
 2.298276059572699e+00	 2.752618000622036e-01	 1.176515080071782e+01
 2.295788938253805e+00	 2.952880182162226e-01	 1.177580617439259e+01
 2.293119122254157e+00	 3.153514556538114e-01	 1.178731889736342e+01
 2.290265324309880e+00	 3.354498624564059e-01	 1.179957254288522e+01
 2.287226289300784e+00	 3.555809529665117e-01	 1.181236260577436e+01
 2.284000795266373e+00	 3.757424062443644e-01	 1.182543205298415e+01
 2.280587654418288e+00	 3.959318665555291e-01	 1.183940509103369e+01
 2.315215891054155e+00	 1.963183167394767e-01	 1.171541157505042e+01
 2.313439322528182e+00	 2.162495718069737e-01	 1.172312541321349e+01
 2.311484833814060e+00	 2.362268551605946e-01	 1.173141801546497e+01
 2.309351013912615e+00	 2.562480557777598e-01	 1.174046917370494e+01
 2.307036479994991e+00	 2.763110252327098e-01	 1.175039438109456e+01
 2.304539878427208e+00	 2.964135780332421e-01	 1.176124024286124e+01
 2.301859885794940e+00	 3.165534919874207e-01	 1.177297936379794e+01
 2.298995209927609e+00	 3.367285086005783e-01	 1.178550467766123e+01
 2.295944590920845e+00	 3.569363335028883e-01	 1.179862318247379e+01
 2.292706802156369e+00	 3.771746369077693e-01	 1.181210557817556e+01
 2.289280651318292e+00	 3.974410541013390e-01	 1.182649118943364e+01
 2.202350682302377e+00	 3.823491786506144e-01	 1.200917541318181e+01
 2.198872915360330e+00	 4.018674458244905e-01	 1.202385403825344e+01
 2.195211808604378e+00	 4.214081086391313e-01	 1.203876069642338e+01
 2.191366318638528e+00	 4.409688010389605e-01	 1.205385231041933e+01
 2.187335438869950e+00	 4.605471256781652e-01	 1.206907814824868e+01
 2.183118200453215e+00	 4.801406545416224e-01	 1.208438666362568e+01
 2.178713673225113e+00	 4.997469295961529e-01	 1.209973207829049e+01
 2.174120966629006e+00	 5.193634634720777e-01	 1.211508060764531e+01
 2.169339230627674e+00	 5.389877401750129e-01	 1.213041623095061e+01
 2.164367656603575e+00	 5.586172158277958e-01	 1.214574590788025e+01
 2.159205478245480e+00	 5.782493194424025e-01	 1.216110414455375e+01
 2.211043679206151e+00	 3.838583661971546e-01	 1.199261199115038e+01
 2.207552185014594e+00	 4.034536747967697e-01	 1.200824730987438e+01
 2.203876627340406e+00	 4.230714674359873e-01	 1.202395732800789e+01
 2.200015958669147e+00	 4.427093687200601e-01	 1.203969894387040e+01
 2.195969168434814e+00	 4.623649718404974e-01	 1.205542047374519e+01
 2.191735283967799e+00	 4.820358391984421e-01	 1.207106885406003e+01
 2.187313371433395e+00	 5.017195030584951e-01	 1.208659657418278e+01
 2.182702536759802e+00	 5.214134662329620e-01	 1.210196823802079e+01
 2.177901926554573e+00	 5.411152027964576e-01	 1.211716665242733e+01
 2.172910729008428e+00	 5.608221588307604e-01	 1.213219834099237e+01
 2.167728174785390e+00	 5.805317531997775e-01	 1.214709838315345e+01
 2.219736676109307e+00	 3.853675537428786e-01	 1.197132123966409e+01
 2.216231454668255e+00	 4.050399037682275e-01	 1.198816353781958e+01
 2.212541446075853e+00	 4.247348262320155e-01	 1.200497999188640e+01
 2.208665598699224e+00	 4.444499364003254e-01	 1.202171548330452e+01
 2.204602897999183e+00	 4.641828180019889e-01	 1.203830585408768e+01
 2.200352367481941e+00	 4.839310238544147e-01	 1.205468550445982e+01
 2.195913069641293e+00	 5.036920765199840e-01	 1.207079470931122e+01
 2.191284106890273e+00	 5.234634689929881e-01	 1.208658654831011e+01
 2.186464622481203e+00	 5.432426654170399e-01	 1.210203334431684e+01
 2.181453801413066e+00	 5.630271018328600e-01	 1.211713250533960e+01
 2.176250871325130e+00	 5.828141869562861e-01	 1.213191166666813e+01
 2.228429673011896e+00	 3.868767412879703e-01	 1.194708300398624e+01
 2.224910724321362e+00	 4.066261327390417e-01	 1.196389075455952e+01
 2.221206264810777e+00	 4.263981850273884e-01	 1.198173323299009e+01
 2.217315238728812e+00	 4.461905040799224e-01	 1.199978165860379e+01
 2.213236627563108e+00	 4.660006641627988e-01	 1.201759592122332e+01
 2.208969450995687e+00	 4.858262085096929e-01	 1.203508692947755e+01
 2.204512767848845e+00	 5.056646499807667e-01	 1.205217232505376e+01
 2.199865677020447e+00	 5.255134717522968e-01	 1.206878381399971e+01
 2.195027318407586e+00	 5.453701280368966e-01	 1.208487398706195e+01
 2.189996873817498e+00	 5.652320448342281e-01	 1.210042252084235e+01
 2.184773567864700e+00	 5.850966207120616e-01	 1.211544165299366e+01
 2.237122669913967e+00	 3.883859288326131e-01	 1.192472262614454e+01
 2.233589993973972e+00	 4.082123617093915e-01	 1.194044473304231e+01
 2.229871083545230e+00	 4.280615438222784e-01	 1.195695944760976e+01
 2.225964878757964e+00	 4.479310717590170e-01	 1.197447289595047e+01
 2.221870357126637e+00	 4.678185103230863e-01	 1.199315464686049e+01
 2.217586534509080e+00	 4.877213931644289e-01	 1.201212572770740e+01
 2.213112466056088e+00	 5.076372234409893e-01	 1.203057736751732e+01
 2.208447247150357e+00	 5.275634745110300e-01	 1.204841011058542e+01
 2.203590014333742e+00	 5.474975906561652e-01	 1.206554762889947e+01
 2.198539946221737e+00	 5.674369878349999e-01	 1.208194331364580e+01
 2.193296264404102e+00	 5.873790544672368e-01	 1.209758611360383e+01
 2.245815666815571e+00	 3.898951163769912e-01	 1.190435013231204e+01
 2.242269263626135e+00	 4.097985906794548e-01	 1.191931612357965e+01
 2.238535902279266e+00	 4.297249026168576e-01	 1.193481365542807e+01
 2.234614518786735e+00	 4.496716394377748e-01	 1.195105191726937e+01
 2.230504086689820e+00	 4.696363564830106e-01	 1.196821062206272e+01
 2.226203618022165e+00	 4.896165778187760e-01	 1.198644164475264e+01
 2.221712164263061e+00	 5.096097969007987e-01	 1.200585975185523e+01
 2.217028817280029e+00	 5.296134772693292e-01	 1.202531717494666e+01
 2.212152710259690e+00	 5.496250532749829e-01	 1.204391454620973e+01
 2.207083018625792e+00	 5.696419308353097e-01	 1.206157047739135e+01
 2.201818960943336e+00	 5.896614882219459e-01	 1.207824279771926e+01
 2.254508663716754e+00	 3.914043039212879e-01	 1.188579711837648e+01
 2.250948533277908e+00	 4.113848196494101e-01	 1.190030043311699e+01
 2.247200721012941e+00	 4.313882614112983e-01	 1.191510802165411e+01
 2.243264158815177e+00	 4.514122071163618e-01	 1.193042319050540e+01
 2.239137816252706e+00	 4.714542026427306e-01	 1.194642229869471e+01
 2.234820701534987e+00	 4.915117624728866e-01	 1.196325641934285e+01
 2.230311862469800e+00	 5.115823703603417e-01	 1.198105312484792e+01
 2.225610387409495e+00	 5.316634800273357e-01	 1.199991840648961e+01
 2.220715406185453e+00	 5.517525158934872e-01	 1.201983610593195e+01
 2.215626091029675e+00	 5.718468738352920e-01	 1.203918013642949e+01
 2.210341657482404e+00	 5.919439219763216e-01	 1.205730929824203e+01
 2.263201660617569e+00	 3.929134914656874e-01	 1.186889747799002e+01
 2.259627802929341e+00	 4.129710486194358e-01	 1.188319598888697e+01
 2.255865539746309e+00	 4.330516202057732e-01	 1.189761125249879e+01
 2.251913798843343e+00	 4.531527747949438e-01	 1.191233186860179e+01
 2.247771545815349e+00	 4.732720488024059e-01	 1.192752243016537e+01
 2.243437785047590e+00	 4.934069471269135e-01	 1.194332522567400e+01
 2.238911560676343e+00	 5.135549438197650e-01	 1.195986206521670e+01
 2.234191957538781e+00	 5.337134827851908e-01	 1.197723624151902e+01
 2.229278102111049e+00	 5.538799785118151e-01	 1.199553463673162e+01
 2.224169163433396e+00	 5.740518168350810e-01	 1.201482998530036e+01
 2.218864354021304e+00	 5.942263557304976e-01	 1.203468291940873e+01
 2.271894657518064e+00	 3.944226790103731e-01	 1.185348735398909e+01
 2.268307072580489e+00	 4.145572775897104e-01	 1.186780388012951e+01
 2.264530358479425e+00	 4.347149790004542e-01	 1.188209523885254e+01
 2.260563438871286e+00	 4.548933424736864e-01	 1.189652662011353e+01
 2.256405275377793e+00	 4.750898949621955e-01	 1.191124255618047e+01
 2.252054868560017e+00	 4.953021317810093e-01	 1.192636868209389e+01
 2.247511258882727e+00	 5.155275172792153e-01	 1.194201361998365e+01
 2.242773527667920e+00	 5.357634855430364e-01	 1.195827099873867e+01
 2.237840798036501e+00	 5.560074411301041e-01	 1.197522162016165e+01
 2.232712235836968e+00	 5.762567598348117e-01	 1.199293578224338e+01
 2.227387050560041e+00	 5.965087894846076e-01	 1.201147576956006e+01
 2.280587654418288e+00	 3.959318665555291e-01	 1.183940509103369e+01
 2.276986342231405e+00	 4.161435065604120e-01	 1.185392790126644e+01
 2.273195177212341e+00	 4.363783377955139e-01	 1.186833499179645e+01
 2.269213078899060e+00	 4.566339101527555e-01	 1.188275955888946e+01
 2.265039004940091e+00	 4.769077411222584e-01	 1.189731789541565e+01
 2.260671952072315e+00	 4.971973164353271e-01	 1.191211122668293e+01
 2.256110957088990e+00	 5.175000907388390e-01	 1.192722767012997e+01
 2.251355097796940e+00	 5.378134883010134e-01	 1.194274433067771e+01
 2.246403493961826e+00	 5.581349037484913e-01	 1.195872954316918e+01
 2.241255308240398e+00	 5.784617028346182e-01	 1.197524527282243e+01
 2.235909747098612e+00	 5.987912232387845e-01	 1.199234968397857e+01
 2.289280651318292e+00	 3.974410541013390e-01	 1.182649118943364e+01
 2.285665611882141e+00	 4.177297355317194e-01	 1.184137449649192e+01
 2.281859995945115e+00	 4.380416965911244e-01	 1.185610857971777e+01
 2.277862718926717e+00	 4.583744778323171e-01	 1.187078617550658e+01
 2.273672734502291e+00	 4.787255872827543e-01	 1.188548727309520e+01
 2.269289035584527e+00	 4.990925010900192e-01	 1.190028104283383e+01
 2.264710655295170e+00	 5.194726641987831e-01	 1.191522788823652e+01
 2.259936667925870e+00	 5.398634910592639e-01	 1.193038163389326e+01
 2.254966189887047e+00	 5.602623663671141e-01	 1.194579186095215e+01
 2.249798380643699e+00	 5.806666458346353e-01	 1.196150640136672e+01
 2.244432443637021e+00	 6.010736569931620e-01	 1.197757400144885e+01
 2.159205478245480e+00	 5.782493194424025e-01	 1.216110414455375e+01
 2.153851972890299e+00	 5.978814539958068e-01	 1.217707280603158e+01
 2.148306463792314e+00	 6.175109981087173e-01	 1.219398972820749e+01
 2.142568319557409e+00	 6.371353061276571e-01	 1.221158606376438e+01
 2.136636954492820e+00	 6.567517087467752e-01	 1.222964719896811e+01
 2.130511829406764e+00	 6.763575139261084e-01	 1.224801352933925e+01
 2.124192452387945e+00	 6.959500078380145e-01	 1.226658006720577e+01
 2.117678379563856e+00	 7.155264558413442e-01	 1.228529481458961e+01
 2.110969215836830e+00	 7.350841034828632e-01	 1.230415584261543e+01
 2.104064615596794e+00	 7.546201775254083e-01	 1.232324579152050e+01
 2.096964283409688e+00	 7.741318870022024e-01	 1.234255947079549e+01
 2.167728174785390e+00	 5.805317531997775e-01	 1.214709838315345e+01
 2.162353538369905e+00	 6.002413786296527e-01	 1.216256278607377e+01
 2.156786140345039e+00	 6.199484033941401e-01	 1.217903464200928e+01
 2.151025346824470e+00	 6.396501713970000e-01	 1.219623372184392e+01
 2.145070569803611e+00	 6.593440027962573e-01	 1.221393476846206e+01
 2.138921267962409e+00	 6.790271949260904e-01	 1.223196838745511e+01
 2.132576947447920e+00	 6.986970232470009e-01	 1.225022073007082e+01
 2.126037162635602e+00	 7.183507423238277e-01	 1.226863189959700e+01
 2.119301516868275e+00	 7.379855868311253e-01	 1.228719302032449e+01
 2.112369663171695e+00	 7.575987725853763e-01	 1.230599097829734e+01
 2.105241304945670e+00	 7.771874976034668e-01	 1.232495964338124e+01
 2.176250871325130e+00	 5.828141869562861e-01	 1.213191166666813e+01
 2.170855103849378e+00	 6.026013032626328e-01	 1.214716779517375e+01
 2.165265816897661e+00	 6.223858086787024e-01	 1.216344315827164e+01
 2.159482374091446e+00	 6.421650366654905e-01	 1.218044939005273e+01
 2.153504185114336e+00	 6.619362968449013e-01	 1.219795396486898e+01
 2.147330706518005e+00	 6.816968759252564e-01	 1.221578120320431e+01
 2.140961442507862e+00	 7.014440386552008e-01	 1.223381202896306e+01
 2.134395945707334e+00	 7.211750288055653e-01	 1.225198240705561e+01
 2.127633817899733e+00	 7.408870701786925e-01	 1.227028040784240e+01
 2.120674710746636e+00	 7.605773676447120e-01	 1.228879380643425e+01
 2.113518326481731e+00	 7.802431082041758e-01	 1.230739258784029e+01
 2.184773567864700e+00	 5.850966207120616e-01	 1.211544165299366e+01
 2.179356669328708e+00	 6.049612278948818e-01	 1.213081212947585e+01
 2.173745493450157e+00	 6.248232139625390e-01	 1.214716522442392e+01
 2.167939401358311e+00	 6.446799019332675e-01	 1.216420761461913e+01
 2.161937800424958e+00	 6.645285908928492e-01	 1.218170282034594e+01
 2.155740145073506e+00	 6.843665569237496e-01	 1.219947232672676e+01
 2.149345937567717e+00	 7.041910540627589e-01	 1.221739541444116e+01
 2.142754728778989e+00	 7.239993152866984e-01	 1.223540762634323e+01
 2.135966118931131e+00	 7.437885535257021e-01	 1.225350007037181e+01
 2.128979758321541e+00	 7.635559627035452e-01	 1.227174601774337e+01
 2.121795348017791e+00	 7.832987188044471e-01	 1.228996331042649e+01
 2.193296264404102e+00	 5.873790544672368e-01	 1.209758611360383e+01
 2.187858234807885e+00	 6.073211525265333e-01	 1.211341943653934e+01
 2.182225170002508e+00	 6.272606192457870e-01	 1.213014937072662e+01
 2.176396428625035e+00	 6.471947672004699e-01	 1.214748075033848e+01
 2.170371415735438e+00	 6.671208849402420e-01	 1.216517639649281e+01
 2.164149583628863e+00	 6.870362379217134e-01	 1.218305835452204e+01
 2.157730432627428e+00	 7.069380694698192e-01	 1.220100779736332e+01
 2.151113511850506e+00	 7.268236017673706e-01	 1.221896351916427e+01
 2.144298419962396e+00	 7.466900368722920e-01	 1.223692517999784e+01
 2.137284805896334e+00	 7.665345577620064e-01	 1.225493201092161e+01
 2.130072369553765e+00	 7.863543294043980e-01	 1.227276928748388e+01
 2.201818960943336e+00	 5.896614882219459e-01	 1.207824279771926e+01
 2.196359800286902e+00	 6.096810771577217e-01	 1.209491258318548e+01
 2.190704846554698e+00	 6.296980245285821e-01	 1.211234258135547e+01
 2.184853455891589e+00	 6.497096324672363e-01	 1.213023883444002e+01
 2.178805031045740e+00	 6.697131789872224e-01	 1.214836666053532e+01
 2.172559022184031e+00	 6.897059189192922e-01	 1.216655200746968e+01
 2.166114927686940e+00	 7.096850848765250e-01	 1.218468142825538e+01
 2.159472294921818e+00	 7.296478882477234e-01	 1.220270059976559e+01
 2.152630720993461e+00	 7.495915202186001e-01	 1.222061937389270e+01
 2.145589853470935e+00	 7.695131528202246e-01	 1.223842897415176e+01
 2.138349391089572e+00	 7.894099400041462e-01	 1.225590060969410e+01
 2.210341657482404e+00	 5.919439219763216e-01	 1.205730929824203e+01
 2.204861365765748e+00	 6.120410017885809e-01	 1.207521352491192e+01
 2.199184523106704e+00	 6.321354298110605e-01	 1.209369016685944e+01
 2.193310483157944e+00	 6.522244977337061e-01	 1.211244946163984e+01
 2.187238646355822e+00	 6.723054730339305e-01	 1.213126236251187e+01
 2.180968460738960e+00	 6.923755999166283e-01	 1.214996200967781e+01
 2.174499422746198e+00	 7.124321002830208e-01	 1.216844377733793e+01
 2.167831077992863e+00	 7.324721747278994e-01	 1.218666381564887e+01
 2.160963022024254e+00	 7.524930035647647e-01	 1.220463939656734e+01
 2.153894901045267e+00	 7.724917478783297e-01	 1.222230701789589e+01
 2.146626412625126e+00	 7.924655506038091e-01	 1.223944012637635e+01
 2.218864354021304e+00	 5.942263557304976e-01	 1.203468291940873e+01
 2.213362931244413e+00	 6.144009264192449e-01	 1.205424317683206e+01
 2.207664199658510e+00	 6.345728350933587e-01	 1.207413563795567e+01
 2.201767510424072e+00	 6.547393630000171e-01	 1.209407766034785e+01
 2.195672261665650e+00	 6.748977670805086e-01	 1.211384891343758e+01
 2.189377899293605e+00	 6.950452809138656e-01	 1.213329296813771e+01
 2.182883917805144e+00	 7.151791156894508e-01	 1.215231741519472e+01
 2.176189861063577e+00	 7.352964612080412e-01	 1.217089242876615e+01
 2.169295323054702e+00	 7.553944869109229e-01	 1.218903522113803e+01
 2.162199948619255e+00	 7.754703429364523e-01	 1.220662930787603e+01
 2.154903434160346e+00	 7.955211612035042e-01	 1.222346358983842e+01
 2.227387050560041e+00	 5.965087894846076e-01	 1.201147576956006e+01
 2.221864496722889e+00	 6.167608510498479e-01	 1.203192128609885e+01
 2.216143876210095e+00	 6.370102403756125e-01	 1.205362058062554e+01
 2.210224537689943e+00	 6.572542282663094e-01	 1.207508576999817e+01
 2.204105876975182e+00	 6.774900611270980e-01	 1.209610826441916e+01
 2.197787337847918e+00	 6.977149619111476e-01	 1.211654525316284e+01
 2.191268412863725e+00	 7.179261310959584e-01	 1.213631989406516e+01
 2.184548644133896e+00	 7.381207476882907e-01	 1.215541989718596e+01
 2.177627624084736e+00	 7.582959702572132e-01	 1.217385017091501e+01
 2.170504996192819e+00	 7.784489379947216e-01	 1.219145219823703e+01
 2.163180455695149e+00	 7.985767718033497e-01	 1.220803979977739e+01
 2.235909747098612e+00	 5.987912232387845e-01	 1.199234968397857e+01
 2.230366062201168e+00	 6.191207756805243e-01	 1.201108243959420e+01
 2.224623552761442e+00	 6.394476456579581e-01	 1.203233592674266e+01
 2.218681564955530e+00	 6.597690935327210e-01	 1.205543331947258e+01
 2.212539492284381e+00	 6.800823551738397e-01	 1.207801878669529e+01
 2.206196776401852e+00	 7.003846429086179e-01	 1.209971487959132e+01
 2.199652907921884e+00	 7.206731465026877e-01	 1.212046362974435e+01
 2.192907427203757e+00	 7.409450341687903e-01	 1.214027375143574e+01
 2.185959925114283e+00	 7.611974536037730e-01	 1.215912104130461e+01
 2.178810043765883e+00	 7.814275330532678e-01	 1.217682536488674e+01
 2.171457477229453e+00	 8.016323824034624e-01	 1.219323074772864e+01
 2.244432443637021e+00	 6.010736569931620e-01	 1.197757400144885e+01
 2.238867627679239e+00	 6.214807003114081e-01	 1.199494822979917e+01
 2.233103229312530e+00	 6.418850509405317e-01	 1.201448426998289e+01
 2.227138592220802e+00	 6.622839587993911e-01	 1.203607719354260e+01
 2.220973107593212e+00	 6.826746492208766e-01	 1.205955515257796e+01
 2.214606214955360e+00	 7.030543239064198e-01	 1.208279338873169e+01
 2.208037402979564e+00	 7.234201619097830e-01	 1.210475578407440e+01
 2.201266210273095e+00	 7.437693206496828e-01	 1.212547369798935e+01
 2.194292226143276e+00	 7.640989369507408e-01	 1.214487822201675e+01
 2.187115091338370e+00	 7.844061281122209e-01	 1.216279193900891e+01
 2.179734498763173e+00	 8.046879930039602e-01	 1.217909176156219e+01
 2.096964283409688e+00	 7.741318870022024e-01	 1.234255947079549e+01
 2.089666717323930e+00	 7.936197342440635e-01	 1.236041626259567e+01
 2.082172913425751e+00	 8.130775745313916e-01	 1.237559813978648e+01
 2.074482729206619e+00	 8.325025678724669e-01	 1.238856904707588e+01
 2.066596074862476e+00	 8.518918609662948e-01	 1.239983666468118e+01
 2.058512913847339e+00	 8.712425883789894e-01	 1.240994438996751e+01
 2.050233263396684e+00	 8.905518737420933e-01	 1.241946198498881e+01
 2.041757195019681e+00	 9.098168309719679e-01	 1.242897483340383e+01
 2.033084834959419e+00	 9.290345655093508e-01	 1.243907175564913e+01
 2.024216364620247e+00	 9.482021755781400e-01	 1.245033133735913e+01
 2.015152020961425e+00	 9.673167534624195e-01	 1.246330673282200e+01
 2.105241304945670e+00	 7.771874976034668e-01	 1.232495964338124e+01
 2.097914934310198e+00	 7.967522661989974e-01	 1.234255517253091e+01
 2.090391551283217e+00	 8.162869093982641e-01	 1.235767536586884e+01
 2.082671012793703e+00	 8.357885759996773e-01	 1.237074470217209e+01
 2.074753228683139e+00	 8.552544014398380e-01	 1.238223321281013e+01
 2.066638162261302e+00	 8.746815089745683e-01	 1.239264858404510e+01
 2.058325830831710e+00	 8.940670108819563e-01	 1.240252689994426e+01
 2.049816306185801e+00	 9.134080096865614e-01	 1.241242196687287e+01
 2.041109715064977e+00	 9.327015994038659e-01	 1.242289316601703e+01
 2.032206239589626e+00	 9.519448668040253e-01	 1.243449178658333e+01
 2.023106117654333e+00	 9.711348926939367e-01	 1.244774579923167e+01
 2.113518326481731e+00	 7.802431082041758e-01	 1.230739258784029e+01
 2.106163151296597e+00	 7.998847981534668e-01	 1.232468768897070e+01
 2.098610189140870e+00	 8.194962442647727e-01	 1.233970312920425e+01
 2.090859296381036e+00	 8.390745841266308e-01	 1.235282606810780e+01
 2.082910382504116e+00	 8.586169419132337e-01	 1.236449089063929e+01
 2.074763410675642e+00	 8.781204295701044e-01	 1.237517143290382e+01
 2.066418398267171e+00	 8.975821480218732e-01	 1.238537182306249e+01
 2.057875417352409e+00	 9.169991884012930e-01	 1.239561587580246e+01
 2.049134595171063e+00	 9.363686332985853e-01	 1.240643498432654e+01
 2.040196114559561e+00	 9.556875580301594e-01	 1.241835446011011e+01
 2.031060214347808e+00	 9.749530319257198e-01	 1.243187827769360e+01
 2.121795348017791e+00	 7.832987188044471e-01	 1.228996331042649e+01
 2.114411368283038e+00	 8.030173301075727e-01	 1.230693063499191e+01
 2.106828826998620e+00	 8.227055791309988e-01	 1.232180787094519e+01
 2.099047579968525e+00	 8.423605922533854e-01	 1.233494692764431e+01
 2.091067536325311e+00	 8.619794823865142e-01	 1.234674847090611e+01
 2.082888659090261e+00	 8.815593501656063e-01	 1.235765427531667e+01
 2.074510965702970e+00	 9.010972851618294e-01	 1.236813816606302e+01
 2.065934528519404e+00	 9.205903671161279e-01	 1.237869548607515e+01
 2.057159475277577e+00	 9.400356671934588e-01	 1.238983102988818e+01
 2.048185989529951e+00	 9.594302492564801e-01	 1.240204539201458e+01
 2.039014311041749e+00	 9.787711711577023e-01	 1.241581968474888e+01
 2.130072369553765e+00	 7.863543294043980e-01	 1.227276928748388e+01
 2.122659585269433e+00	 8.061498620614146e-01	 1.228939314893259e+01
 2.115047464856373e+00	 8.259149139970212e-01	 1.230410823441528e+01
 2.107235863556076e+00	 8.456466003799971e-01	 1.231723319368816e+01
 2.099224690146626e+00	 8.653420228597112e-01	 1.232913682484189e+01
 2.091013907505060e+00	 8.849982707610811e-01	 1.234023055657278e+01
 2.082603533139006e+00	 9.046124223018099e-01	 1.235095949416792e+01
 2.073993639686687e+00	 9.241815458310307e-01	 1.236179196231324e+01
 2.065184355384421e+00	 9.437027010884341e-01	 1.237320748352571e+01
 2.056175864500698e+00	 9.631729404829252e-01	 1.238568313748228e+01
 2.046968407736055e+00	 9.825893103898174e-01	 1.239967825376406e+01
 2.138349391089572e+00	 7.894099400041462e-01	 1.225590060969410e+01
 2.130907802255696e+00	 8.092823940150938e-01	 1.227217683970323e+01
 2.123266102714041e+00	 8.291242488629199e-01	 1.228671523067671e+01
 2.115424147143592e+00	 8.489326085065225e-01	 1.229980308428622e+01
 2.107381843967966e+00	 8.687045633328575e-01	 1.231177910574517e+01
 2.099139155919944e+00	 8.884371913565374e-01	 1.232302601975934e+01
 2.090696100575181e+00	 9.081275594418005e-01	 1.233396172420360e+01
 2.082052750854160e+00	 9.277727245459665e-01	 1.234502891189257e+01
 2.073209235491492e+00	 9.473697349834601e-01	 1.235668309657577e+01
 2.064165739471699e+00	 9.669156317094326e-01	 1.236937898585193e+01
 2.054922504430628e+00	 9.864074496219990e-01	 1.238355515105676e+01
 2.146626412625126e+00	 7.924655506038091e-01	 1.223944012637635e+01
 2.139156019241738e+00	 8.124149259687111e-01	 1.225537594202328e+01
 2.131484740571531e+00	 8.323335837287748e-01	 1.226973240391365e+01
 2.123612430730982e+00	 8.522186166330189e-01	 1.228276729734498e+01
 2.115538997789235e+00	 8.720671038059853e-01	 1.229479093220565e+01
 2.107264404334813e+00	 8.918761119519827e-01	 1.230615889663901e+01
 2.098788668011396e+00	 9.116426965817848e-01	 1.231726332226130e+01
 2.090111862021722e+00	 9.313639032609002e-01	 1.232852258849712e+01
 2.081234115598693e+00	 9.510367688784852e-01	 1.234036939942966e+01
 2.072155614442857e+00	 9.706583229359402e-01	 1.235323717321970e+01
 2.062876601125368e+00	 9.902255888541810e-01	 1.236754469162184e+01
 2.154903434160346e+00	 7.955211612035042e-01	 1.222346358983843e+01
 2.147404236227473e+00	 8.155474579223665e-01	 1.223907747158506e+01
 2.139703378428752e+00	 8.355429185946655e-01	 1.225325599663634e+01
 2.131800714318151e+00	 8.555046247595425e-01	 1.226622918508141e+01
 2.123696151610336e+00	 8.754296442791267e-01	 1.227828057098827e+01
 2.115389652749569e+00	 8.953150325474253e-01	 1.228974009813396e+01
 2.106881235447553e+00	 9.151578337217492e-01	 1.230097550092844e+01
 2.098170973189272e+00	 9.349550819757962e-01	 1.231238209522674e+01
 2.089258995705922e+00	 9.547038027734583e-01	 1.232437090962881e+01
 2.080145489414070e+00	 9.744010141623854e-01	 1.233735509461680e+01
 2.070830697820173e+00	 9.940437280862964e-01	 1.235173455446901e+01
 2.163180455695149e+00	 7.985767718033497e-01	 1.220803979977739e+01
 2.155652453212812e+00	 8.186799898761611e-01	 1.222336138014694e+01
 2.147922016285612e+00	 8.387522534606721e-01	 1.223737511471071e+01
 2.139988997905005e+00	 8.587906328861497e-01	 1.225028492821275e+01
 2.131853305431173e+00	 8.787921847523142e-01	 1.226234911958647e+01
 2.123514901164115e+00	 8.987539531428733e-01	 1.227387340442664e+01
 2.114973802883553e+00	 9.186729708616779e-01	 1.228520241610220e+01
 2.106230084356713e+00	 9.385462606906195e-01	 1.229670958727025e+01
 2.097283875813081e+00	 9.583708366683281e-01	 1.230878533952653e+01
 2.088135364385238e+00	 9.781437053887059e-01	 1.232182351577206e+01
 2.078784794514945e+00	 9.978618673182788e-01	 1.233620599758214e+01
 2.171457477229453e+00	 8.016323824034624e-01	 1.219323074772864e+01
 2.163900670197668e+00	 8.218125218301948e-01	 1.220830071055762e+01
 2.156140654142022e+00	 8.419615883268748e-01	 1.222217189221843e+01
 2.148177281491449e+00	 8.620766410128976e-01	 1.223502370989207e+01
 2.140010459251650e+00	 8.821547252255802e-01	 1.224709068845372e+01
 2.131640149578353e+00	 9.021928737383342e-01	 1.225865565468801e+01
 2.123066370319295e+00	 9.221881080015564e-01	 1.227004136339654e+01
 2.114289195523944e+00	 9.421374394053350e-01	 1.228160047415546e+01
 2.105308755920068e+00	 9.620378705630429e-01	 1.229370380352744e+01
 2.096125239356263e+00	 9.818863966148395e-01	 1.230672678447052e+01
 2.086738891209582e+00	 1.001680006550062e+00	 1.232103407251072e+01
 2.179734498763173e+00	 8.046879930039602e-01	 1.217909176156219e+01
 2.172148887181955e+00	 8.249450537845692e-01	 1.219396175171356e+01
 2.164359291997888e+00	 8.451709231933534e-01	 1.220772165615156e+01
 2.156365565077391e+00	 8.653626491398434e-01	 1.222052788939652e+01
 2.148167613071671e+00	 8.855172656989569e-01	 1.223259258292156e+01
 2.139765397992186e+00	 9.056317943338167e-01	 1.224417693644291e+01
 2.131158937754682e+00	 9.257032451413696e-01	 1.225558297415362e+01
 2.122348306690867e+00	 9.457286181199076e-01	 1.226714362158722e+01
 2.113333636026786e+00	 9.657049044575522e-01	 1.227921102491578e+01
 2.104115114327044e+00	 9.856290878407244e-01	 1.229214304151882e+01
 2.094692987903987e+00	 1.005498145781579e+00	 1.230628783860313e+01
 2.015152020961425e+00	 9.673167534624195e-01	 1.246330673282200e+01
 2.005893687236054e+00	 9.863721519403884e-01	 1.247571024850232e+01
 1.996440187068388e+00	 1.005368709659412e+00	 1.248518518144614e+01
 1.986791924473414e+00	 1.024303509347537e+00	 1.249207269396553e+01
 1.976949360212890e+00	 1.043173633027096e+00	 1.249659997471781e+01
 1.966913012010647e+00	 1.061976163366336e+00	 1.249885707412027e+01
 1.956683454730029e+00	 1.080708185042699e+00	 1.249877218382739e+01
 1.946261320512928e+00	 1.099366786116542e+00	 1.249608538751678e+01
 1.935647298879856e+00	 1.117949059414060e+00	 1.249046854209886e+01
 1.924842136790607e+00	 1.136452103918131e+00	 1.248310154980047e+01
 1.913846638665072e+00	 1.154873026165801e+00	 1.247444938968293e+01
 2.023106117654333e+00	 9.711348926939367e-01	 1.244774579923167e+01
 2.013811239945681e+00	 9.902655055878161e-01	 1.246028323872809e+01
 2.004320425444586e+00	 1.009337045469721e+00	 1.246970445856993e+01
 1.994634079760735e+00	 1.028346583552808e+00	 1.247639186588998e+01
 1.984752665474563e+00	 1.047291190341735e+00	 1.248061770555699e+01
 1.974676702353419e+00	 1.066167936989625e+00	 1.248252060255198e+01
 1.964406767529707e+00	 1.084973896666724e+00	 1.248208049995841e+01
 1.953943495640461e+00	 1.103706145939547e+00	 1.247909201895577e+01
 1.943287578927816e+00	 1.122361766159259e+00	 1.247349952238901e+01
 1.932439767299915e+00	 1.140937844858008e+00	 1.246652195908751e+01
 1.921400868351795e+00	 1.159431477151930e+00	 1.245842957680325e+01
 2.031060214347808e+00	 9.749530319257198e-01	 1.243187827769360e+01
 2.021728792655865e+00	 9.941588592354959e-01	 1.244456160206757e+01
 2.012200663821316e+00	 1.013305381280240e+00	 1.245396947296164e+01
 2.002476235048544e+00	 1.032389657758226e+00	 1.246052102270459e+01
 1.992555970736670e+00	 1.051408747656441e+00	 1.246452910218237e+01
 1.982440392696559e+00	 1.070359710612884e+00	 1.246617653804040e+01
 1.972130080329678e+00	 1.089239608290614e+00	 1.246549073617977e+01
 1.961625670768205e+00	 1.108045505762309e+00	 1.246231665702508e+01
 1.950927858975904e+00	 1.126774472904106e+00	 1.245692534451812e+01
 1.940037397809262e+00	 1.145423585797430e+00	 1.245038070544790e+01
 1.928955098038472e+00	 1.163989928137512e+00	 1.244287960455414e+01
 2.039014311041749e+00	 9.787711711577023e-01	 1.241581968474888e+01
 2.029646345366507e+00	 9.980522128833647e-01	 1.242864870443139e+01
 2.020080902198479e+00	 1.017273717090919e+00	 1.243807095254947e+01
 2.010318390336745e+00	 1.036432731963755e+00	 1.244453779542982e+01
 2.000359275999113e+00	 1.055526304971193e+00	 1.244839827206464e+01
 1.990204083039975e+00	 1.074551484236118e+00	 1.244987507414203e+01
 1.979853393129854e+00	 1.093505319914399e+00	 1.244903882216162e+01
 1.969307845896078e+00	 1.112384865584881e+00	 1.244578387582971e+01
 1.958568139024043e+00	 1.131187179648680e+00	 1.244072542686533e+01
 1.947635028318585e+00	 1.149909326736499e+00	 1.243464502520806e+01
 1.936509327725052e+00	 1.168548379122663e+00	 1.242775448207204e+01
 2.046968407736055e+00	 9.825893103898174e-01	 1.239967825376406e+01
 2.037563898077505e+00	 1.001945566531359e+00	 1.241264084183969e+01
 2.027961140575972e+00	 1.021242052901702e+00	 1.242209276704971e+01
 2.018160545625237e+00	 1.040475806169355e+00	 1.242851316522678e+01
 2.008162581261798e+00	 1.059643862285976e+00	 1.243228287616182e+01
 1.997967773383570e+00	 1.078743257859332e+00	 1.243366015460544e+01
 1.987576705930144e+00	 1.097771031538108e+00	 1.243275462624135e+01
 1.976990021023997e+00	 1.116724225407317e+00	 1.242955443256292e+01
 1.966208419072159e+00	 1.135599886393057e+00	 1.242487635249900e+01
 1.955232658827821e+00	 1.154395067675310e+00	 1.241927949091271e+01
 1.944063557411484e+00	 1.173106830107501e+00	 1.241300672243015e+01
 2.054922504430628e+00	 9.864074496219990e-01	 1.238355515105676e+01
 2.045481450788762e+00	 1.005838920179418e+00	 1.239662745899937e+01
 2.035841378953698e+00	 1.025210388712538e+00	 1.240611214870826e+01
 2.026002700913923e+00	 1.044518880374991e+00	 1.241251168602228e+01
 2.015965886524625e+00	 1.063761419600771e+00	 1.241623435315327e+01
 2.005731463727252e+00	 1.082935031482530e+00	 1.241756969894764e+01
 1.995300018730459e+00	 1.102036743161770e+00	 1.241666218208307e+01
 1.984672196151880e+00	 1.121063585229672e+00	 1.241363451931707e+01
 1.973848699120177e+00	 1.140012593137313e+00	 1.240935197892417e+01
 1.962830289336903e+00	 1.158880808613961e+00	 1.240424612062431e+01
 1.951617787097718e+00	 1.177665281092140e+00	 1.239858645141438e+01
 2.062876601125368e+00	 9.902255888541810e-01	 1.236754469162184e+01
 2.053399003500176e+00	 1.009732273827475e+00	 1.238069136753225e+01
 2.043721617331558e+00	 1.029178724523373e+00	 1.239019991274657e+01
 2.033844856202704e+00	 1.048561954580625e+00	 1.239659170689403e+01
 2.023769191787500e+00	 1.067878976915561e+00	 1.240029814349289e+01
 2.013495154070926e+00	 1.087126805105718e+00	 1.240163582790995e+01
 2.003023331530710e+00	 1.106302454785413e+00	 1.240077991527874e+01
 1.992354371279641e+00	 1.125402945051998e+00	 1.239800694051730e+01
 1.981488979168024e+00	 1.144425299881529e+00	 1.239412354789989e+01
 1.970427919845770e+00	 1.163366549552554e+00	 1.238950448735699e+01
 1.959172016783703e+00	 1.182223732076696e+00	 1.238444151649822e+01
 2.070830697820173e+00	 9.940437280862964e-01	 1.235173455446901e+01
 2.061316556211649e+00	 1.013625627475470e+00	 1.236490896386336e+01
 2.051601855709449e+00	 1.033147060334154e+00	 1.237442067751974e+01
 2.041687011491481e+00	 1.052605028786220e+00	 1.238080559422321e+01
 2.031572497050323e+00	 1.071996534230328e+00	 1.238451391328613e+01
 2.021258844414498e+00	 1.091318578728901e+00	 1.238588508879678e+01
 2.010746644330807e+00	 1.110568166409069e+00	 1.238512086989275e+01
 2.000036546407199e+00	 1.129742304874350e+00	 1.238265182150024e+01
 1.989129259215624e+00	 1.148838006625779e+00	 1.237915979532508e+01
 1.978025550354356e+00	 1.167852290491185e+00	 1.237501182864175e+01
 1.966726246469390e+00	 1.186782183061286e+00	 1.237051759601177e+01
 2.078784794514945e+00	 9.978618673182788e-01	 1.233620599758214e+01
 2.069234108923079e+00	 1.017518981123339e+00	 1.234935044677888e+01
 2.059482094087275e+00	 1.037115396144829e+00	 1.235883308439472e+01
 2.049529166780155e+00	 1.056648102991737e+00	 1.236519995361999e+01
 2.039375802313002e+00	 1.076114091545055e+00	 1.236891577799579e+01
 2.029022534757877e+00	 1.095510352352083e+00	 1.237033868070047e+01
 2.018469957130661e+00	 1.114833878032765e+00	 1.236970311996435e+01
 2.007718721534471e+00	 1.134081664696781e+00	 1.236754671863914e+01
 1.996769539262902e+00	 1.153250713370142e+00	 1.236442706119052e+01
 1.985623180862599e+00	 1.172338031429952e+00	 1.236072315621889e+01
 1.974280476154727e+00	 1.191340634046026e+00	 1.235675830849912e+01
 2.086738891209582e+00	 1.001680006550062e+00	 1.232103407251072e+01
 2.077151661634368e+00	 1.021412334771018e+00	 1.233408003466243e+01
 2.067362332464935e+00	 1.041083731955344e+00	 1.234349001735633e+01
 2.057371322068627e+00	 1.060691177197140e+00	 1.234981585162869e+01
 2.047179107575436e+00	 1.080231648859723e+00	 1.235353252598132e+01
 2.036786225100966e+00	 1.099702125975270e+00	 1.235501267961559e+01
 2.026193269930182e+00	 1.119099589656531e+00	 1.235453636738884e+01
 2.015400896661373e+00	 1.138421024519345e+00	 1.235266672947454e+01
 2.004409819309784e+00	 1.157663420114694e+00	 1.234988939959566e+01
 1.993220811370433e+00	 1.176823772368955e+00	 1.234659136585456e+01
 1.981834705839663e+00	 1.195899085031030e+00	 1.234310532225937e+01
 2.094692987903987e+00	 1.005498145781579e+00	 1.230628783860313e+01
 2.085069214345415e+00	 1.025305688418445e+00	 1.231915618241838e+01
 2.075242570842331e+00	 1.045052067765647e+00	 1.232843882234809e+01
 2.065213477356800e+00	 1.064734251402391e+00	 1.233468903721839e+01
 2.054982412837529e+00	 1.084349206174316e+00	 1.233838784187611e+01
 2.044549915443673e+00	 1.103893899598468e+00	 1.233991826344545e+01
 2.033916582729284e+00	 1.123365301280397e+00	 1.233960432775498e+01
 2.023083071787823e+00	 1.142760384342097e+00	 1.233798460285035e+01
 2.012050099356196e+00	 1.162076126859514e+00	 1.233550868882815e+01
 2.000818441877797e+00	 1.181309513308291e+00	 1.233256734727795e+01
 1.989388935524150e+00	 1.200457536016417e+00	 1.232949846506610e+01
 1.913846638665072e+00	 1.154873026165801e+00	 1.247444938968293e+01
 1.902661666826218e+00	 1.173208942016625e+00	 1.246546221954744e+01
 1.891288142819316e+00	 1.191456979178688e+00	 1.245680727287353e+01
 1.879727045908540e+00	 1.209614277560408e+00	 1.244800126341982e+01
 1.867979412467919e+00	 1.227677990319973e+00	 1.243842661668944e+01
 1.856046335795278e+00	 1.245645285274350e+00	 1.242732268437741e+01
 1.843928965884853e+00	 1.263513346306681e+00	 1.241429933809193e+01
 1.831628509158474e+00	 1.281279374770660e+00	 1.239942912241193e+01
 1.819146228155318e+00	 1.298940590890470e+00	 1.238046516609751e+01
 1.806483441180266e+00	 1.316494235154875e+00	 1.235512224803662e+01
 1.793641521910966e+00	 1.333937569704040e+00	 1.232123183042478e+01
 1.921400868351795e+00	 1.159431477151930e+00	 1.245842957680325e+01
 1.910171747810132e+00	 1.177839767516462e+00	 1.245004340531277e+01
 1.898753330857676e+00	 1.196159832322338e+00	 1.244188763122726e+01
 1.887146600623915e+00	 1.214388800188779e+00	 1.243350422980562e+01
 1.875352597573609e+00	 1.232523813037072e+00	 1.242430147416431e+01
 1.863372419320002e+00	 1.250562027505147e+00	 1.241354497983828e+01
 1.851207220396538e+00	 1.268500616360523e+00	 1.240035237305728e+01
 1.838858211986984e+00	 1.286336769910229e+00	 1.238477803637272e+01
 1.826326661613955e+00	 1.304067697406268e+00	 1.236563712510532e+01
 1.813613892785886e+00	 1.321690628445213e+00	 1.234056152396207e+01
 1.800721284602547e+00	 1.339202814360497e+00	 1.230730854714558e+01
 1.928955098038472e+00	 1.163989928137512e+00	 1.244287960455414e+01
 1.917681828793916e+00	 1.182470593015675e+00	 1.243511042831290e+01
 1.906218518895826e+00	 1.200862685465300e+00	 1.242745558430041e+01
 1.894566155339006e+00	 1.219163322816412e+00	 1.241948498506093e+01
 1.882725782678945e+00	 1.237369635753398e+00	 1.241063553530979e+01
 1.870698502844313e+00	 1.255478769735147e+00	 1.240020200320452e+01
 1.858485474907758e+00	 1.273487886413557e+00	 1.238732773568705e+01
 1.846087914814986e+00	 1.291394165048992e+00	 1.237121327697877e+01
 1.833507095072052e+00	 1.309194803921275e+00	 1.235173097963255e+01
 1.820744344390948e+00	 1.326887021734783e+00	 1.232678426771309e+01
 1.807801047293561e+00	 1.344468059016220e+00	 1.229405712574124e+01
 1.936509327725052e+00	 1.168548379122663e+00	 1.242775448207204e+01
 1.925191909777535e+00	 1.187101418514392e+00	 1.242060642148809e+01
 1.913683706933751e+00	 1.205565538607712e+00	 1.241344308203686e+01
 1.901985710053817e+00	 1.223937845443448e+00	 1.240586496255083e+01
 1.890098967783955e+00	 1.242215458469090e+00	 1.239734035703441e+01
 1.878024586368254e+00	 1.260395511964490e+00	 1.238719604930839e+01
 1.865763729418575e+00	 1.278475156465919e+00	 1.237460783938636e+01
 1.853317617642557e+00	 1.296451560187076e+00	 1.235859092807035e+01
 1.840687528529700e+00	 1.314321910435607e+00	 1.233861649461983e+01
 1.827874795995547e+00	 1.332083415023695e+00	 1.231366118479104e+01
 1.814880809984109e+00	 1.349733303671310e+00	 1.228134956043828e+01
 1.944063557411484e+00	 1.173106830107501e+00	 1.241300672243015e+01
 1.932701990760956e+00	 1.191732244012742e+00	 1.240647217909621e+01
 1.921148894971435e+00	 1.210268391749708e+00	 1.239977987708402e+01
 1.909405264768351e+00	 1.228712368070029e+00	 1.239256352384711e+01
 1.897472152888661e+00	 1.247061281184294e+00	 1.238432553421459e+01
 1.885350669891869e+00	 1.265312254193315e+00	 1.237442754513930e+01
 1.873041983929049e+00	 1.283462426517742e+00	 1.236208074940516e+01
 1.860547320469775e+00	 1.301508955324611e+00	 1.234633607485607e+01
 1.847867961986985e+00	 1.319449016949386e+00	 1.232615334118573e+01
 1.835005247599781e+00	 1.337279808312057e+00	 1.230105305420064e+01
 1.821960572674290e+00	 1.354998548325865e+00	 1.226904804854738e+01
 1.951617787097718e+00	 1.177665281092140e+00	 1.239858645141438e+01
 1.940212071744144e+00	 1.196363069510854e+00	 1.239264626500478e+01
 1.928614083008861e+00	 1.214971244891428e+00	 1.238639363273993e+01
 1.916824819482612e+00	 1.233486890696295e+00	 1.237949806645723e+01
 1.904845337993084e+00	 1.251907103899148e+00	 1.237149880731985e+01
 1.892676753415201e+00	 1.270228996421762e+00	 1.236179515746801e+01
 1.880320238439241e+00	 1.288449696569163e+00	 1.234963661741699e+01
 1.867777023296715e+00	 1.306566350461724e+00	 1.233411285583194e+01
 1.855048395443998e+00	 1.324576123462730e+00	 1.231414354128101e+01
 1.842135699203746e+00	 1.342476201599982e+00	 1.228881115958108e+01
 1.829040335364204e+00	 1.360263792979988e+00	 1.225700542131390e+01
 1.959172016783703e+00	 1.182223732076696e+00	 1.238444151649822e+01
 1.947722152727065e+00	 1.200993895008855e+00	 1.237906512124412e+01
 1.936079271046015e+00	 1.219674098033007e+00	 1.237321003121830e+01
 1.924244374196605e+00	 1.238261413322389e+00	 1.236658413192280e+01
 1.912218523097251e+00	 1.256752926613798e+00	 1.235876617045495e+01
 1.900002836938293e+00	 1.275145738649970e+00	 1.234919590093032e+01
 1.887598492949212e+00	 1.293436966620314e+00	 1.233716402199581e+01
 1.875006726123453e+00	 1.311623745598542e+00	 1.232180193312178e+01
 1.862228828900827e+00	 1.329703229975759e+00	 1.230207133942216e+01
 1.849266150807539e+00	 1.347672594887578e+00	 1.227677772092855e+01
 1.836120098053952e+00	 1.365529037633778e+00	 1.224506557538254e+01
 1.966726246469390e+00	 1.186782183061286e+00	 1.237051759601177e+01
 1.955232233709683e+00	 1.205624720506876e+00	 1.236566317681451e+01
 1.943544459082879e+00	 1.224376951174583e+00	 1.236015288222265e+01
 1.931663928910332e+00	 1.243035935948451e+00	 1.235373551427803e+01
 1.919591708201184e+00	 1.261598749328382e+00	 1.234603197980778e+01
 1.907328920461187e+00	 1.280062480878080e+00	 1.233652524655798e+01
 1.894876747459023e+00	 1.298424236671334e+00	 1.232455007731171e+01
 1.882236428950067e+00	 1.316681140735194e+00	 1.230928256872959e+01
 1.869409262357561e+00	 1.334830336488594e+00	 1.228972952480254e+01
 1.856396602411258e+00	 1.352868988174956e+00	 1.226471769798566e+01
 1.843199860743632e+00	 1.370794282287334e+00	 1.223306390485894e+01
 1.974280476154727e+00	 1.191340634046026e+00	 1.235675830849912e+01
 1.962742314691966e+00	 1.210255546005045e+00	 1.235237295674047e+01
 1.951009647119439e+00	 1.229079804316292e+00	 1.234714423182151e+01
 1.939083483623798e+00	 1.247810458574623e+00	 1.234086436885813e+01
 1.926964893304907e+00	 1.266444572043045e+00	 1.233319906249175e+01
 1.914655003983927e+00	 1.284979223106230e+00	 1.232367723074450e+01
 1.902155001968735e+00	 1.303411506722354e+00	 1.231168054229798e+01
 1.889466131776633e+00	 1.321738535871809e+00	 1.229643273397412e+01
 1.876589695814288e+00	 1.339957443001354e+00	 1.227698874844097e+01
 1.863527054014999e+00	 1.358065381462227e+00	 1.225222372544219e+01
 1.850279623433346e+00	 1.376059526940758e+00	 1.222082773395265e+01
 1.981834705839663e+00	 1.195899085031030e+00	 1.234310532225937e+01
 1.970252395673880e+00	 1.214886371503490e+00	 1.233912519136559e+01
 1.958474835155678e+00	 1.233782657458274e+00	 1.233410447161627e+01
 1.946503038337006e+00	 1.252584981201045e+00	 1.232788132144818e+01
 1.934338078408444e+00	 1.271290394757927e+00	 1.232016882577241e+01
 1.921981087506555e+00	 1.289895965334562e+00	 1.231054456463446e+01
 1.909433256478409e+00	 1.308398776773510e+00	 1.229843993027694e+01
 1.896695834603225e+00	 1.326795931008512e+00	 1.228312921941386e+01
 1.883770129271097e+00	 1.345084549514157e+00	 1.226371853086508e+01
 1.870657505618858e+00	 1.363261774749500e+00	 1.223913450207412e+01
 1.857359386123191e+00	 1.381324771594149e+00	 1.220811292141850e+01
 1.989388935524150e+00	 1.200457536016417e+00	 1.232949846506610e+01
 1.977762476655390e+00	 1.219517197002342e+00	 1.232584892588140e+01
 1.965940023191580e+00	 1.238485510600662e+00	 1.232095244819425e+01
 1.953922593049960e+00	 1.257359503827861e+00	 1.231469557776378e+01
 1.941711263511819e+00	 1.276136217473172e+00	 1.230684136666786e+01
 1.929307171029115e+00	 1.294812707563214e+00	 1.229701874392495e+01
 1.916711510988107e+00	 1.313386046824939e+00	 1.228471161903215e+01
 1.903925537429925e+00	 1.331853326145434e+00	 1.226924774524870e+01
 1.890950562728077e+00	 1.350211656027125e+00	 1.224978737289068e+01
 1.877787957222933e+00	 1.368458168036886e+00	 1.222531172637894e+01
 1.864439148813270e+00	 1.386590016247609e+00	 1.219461134227306e+01
 1.793641521910966e+00	 1.333937569704040e+00	 1.232123183042478e+01
 1.780619671693210e+00	 1.351270814630199e+00	 1.228535162914443e+01
 1.767421548564461e+00	 1.368488294888244e+00	 1.225420605682828e+01
 1.754048697738162e+00	 1.385587334514377e+00	 1.222594661532244e+01
 1.740502717892060e+00	 1.402565284615472e+00	 1.219871990073252e+01
 1.726785260568927e+00	 1.419419524704581e+00	 1.217063251797279e+01
 1.712898029537639e+00	 1.436147464020815e+00	 1.213971366003416e+01
 1.698842780115081e+00	 1.452746542832192e+00	 1.210387557875081e+01
 1.684621318449455e+00	 1.469214233720123e+00	 1.206087219474641e+01
 1.670235500765549e+00	 1.485548042844174e+00	 1.200884460093140e+01
 1.655687232572625e+00	 1.501745511185803e+00	 1.195908290570338e+01
 1.800721284602547e+00	 1.339202814360497e+00	 1.230730854714558e+01
 1.787648035257332e+00	 1.356604476113089e+00	 1.227232413085781e+01
 1.774397817226498e+00	 1.373889916257660e+00	 1.224215795979151e+01
 1.760972181822651e+00	 1.391056448268004e+00	 1.221480139828564e+01
 1.747372734033735e+00	 1.408101412795434e+00	 1.218824270475319e+01
 1.733601131921385e+00	 1.425022179009569e+00	 1.216043122812344e+01
 1.719659085979478e+00	 1.441816145923415e+00	 1.212923919024218e+01
 1.705548358453376e+00	 1.458480743701365e+00	 1.209242128588809e+01
 1.691270762620391e+00	 1.475013434948751e+00	 1.204757235356267e+01
 1.676828162032080e+00	 1.491411715981592e+00	 1.199547989599483e+01
 1.662222469719014e+00	 1.507673118075252e+00	 1.194854894446007e+01
 1.807801047293561e+00	 1.344468059016220e+00	 1.229405712574124e+01
 1.794676398820894e+00	 1.361938137595289e+00	 1.225986231897522e+01
 1.781374085887994e+00	 1.379291537626440e+00	 1.223055506964145e+01
 1.767895665906628e+00	 1.396525562021053e+00	 1.220397047632319e+01
 1.754242750174934e+00	 1.413637540974881e+00	 1.217794277213734e+01
 1.740417003273408e+00	 1.430624833314105e+00	 1.215026878118774e+01
 1.726420142420930e+00	 1.447484827825629e+00	 1.211866887967205e+01
 1.712253936791332e+00	 1.464214944570216e+00	 1.208074569827759e+01
 1.697920206791036e+00	 1.480812636177113e+00	 1.203394082461101e+01
 1.683420823298369e+00	 1.497275389118798e+00	 1.198379306744175e+01
 1.668757706865203e+00	 1.513600724964534e+00	 1.193939207343413e+01
 1.814880809984109e+00	 1.349733303671310e+00	 1.228134956043828e+01
 1.801704762383994e+00	 1.367271799076890e+00	 1.224784048431492e+01
 1.788350354549037e+00	 1.384693158994662e+00	 1.221927563475328e+01
 1.774819149990168e+00	 1.401994675773593e+00	 1.219333766711561e+01
 1.761112766315720e+00	 1.419173669153872e+00	 1.216771105921947e+01
 1.747232874625044e+00	 1.436227487618241e+00	 1.214004480571810e+01
 1.733181198862023e+00	 1.453153509727497e+00	 1.210791253324435e+01
 1.718959515128960e+00	 1.469949145438773e+00	 1.206877027802885e+01
 1.704569650961385e+00	 1.486611837405231e+00	 1.202069477553436e+01
 1.690013484564393e+00	 1.503139062255801e+00	 1.197350421655098e+01
 1.675292944011158e+00	 1.519528331853648e+00	 1.193134873074721e+01
 1.821960572674290e+00	 1.354998548325865e+00	 1.226904804854738e+01
 1.808733125946728e+00	 1.372605460557982e+00	 1.223612320210947e+01
 1.795326623209718e+00	 1.390094780362409e+00	 1.220818821082640e+01
 1.781742634073352e+00	 1.407463789525695e+00	 1.218277706120932e+01
 1.767982782456155e+00	 1.424709797332467e+00	 1.215742870459063e+01
 1.754048745976337e+00	 1.441830141922026e+00	 1.212964896714333e+01
 1.739942255302785e+00	 1.458822191629058e+00	 1.209686979414457e+01
 1.725665093466270e+00	 1.475683346307066e+00	 1.205640607536808e+01
 1.711219095131432e+00	 1.492411038633125e+00	 1.200883901629817e+01
 1.696606145830132e+00	 1.509002735392614e+00	 1.196433381620674e+01
 1.681828181156845e+00	 1.525455938742596e+00	 1.192415546965533e+01
 1.829040335364204e+00	 1.360263792979988e+00	 1.225700542131390e+01
 1.815761489509192e+00	 1.377939122038655e+00	 1.222456576245976e+01
 1.802302891870125e+00	 1.395496401729758e+00	 1.219715209102496e+01
 1.788666118156256e+00	 1.412932903277429e+00	 1.217215345191154e+01
 1.774852798596301e+00	 1.430245925510728e+00	 1.214696745880163e+01
 1.760864617327334e+00	 1.447432796225509e+00	 1.211896139732099e+01
 1.746703311743244e+00	 1.464490873530353e+00	 1.208543057325288e+01
 1.732370671803273e+00	 1.481417547175127e+00	 1.204355415796233e+01
 1.717868539301168e+00	 1.498210239860813e+00	 1.199809381273107e+01
 1.703198807095564e+00	 1.514866408529244e+00	 1.195600289464069e+01
 1.688363418302234e+00	 1.531383545631376e+00	 1.191754914366725e+01
 1.836120098053952e+00	 1.365529037633778e+00	 1.224506557538254e+01
 1.822789853071486e+00	 1.383272783518999e+00	 1.221301460141796e+01
 1.809279160530349e+00	 1.400898023096792e+00	 1.218601773674862e+01
 1.795589602238957e+00	 1.418402017028866e+00	 1.216132276580456e+01
 1.781722814736224e+00	 1.435782053688712e+00	 1.213619011466330e+01
 1.767680488678083e+00	 1.453035450528743e+00	 1.210785312465294e+01
 1.753464368183430e+00	 1.470159555431423e+00	 1.207347547909228e+01
 1.739076250139979e+00	 1.487151748042984e+00	 1.203089585660868e+01
 1.724517983470590e+00	 1.504009441088318e+00	 1.198816633829947e+01
 1.709791468360668e+00	 1.520730081665703e+00	 1.194823321948935e+01
 1.694898655447289e+00	 1.537311152519990e+00	 1.191126709189334e+01
 1.843199860743632e+00	 1.370794282287334e+00	 1.223306390485894e+01
 1.829818216633706e+00	 1.388606444999106e+00	 1.220130773268144e+01
 1.816255429190478e+00	 1.406299644463590e+00	 1.217462720901641e+01
 1.802513086321534e+00	 1.423871130780076e+00	 1.215013249386308e+01
 1.788592830875984e+00	 1.441318181866483e+00	 1.212495093812773e+01
 1.774496360028629e+00	 1.458638104831776e+00	 1.209618650474855e+01
 1.760225424623369e+00	 1.475828237332307e+00	 1.206087624828000e+01
 1.745781828476398e+00	 1.492885948910667e+00	 1.201902052216198e+01
 1.731167427639690e+00	 1.509808642315658e+00	 1.197876490690653e+01
 1.716384129625421e+00	 1.526593754802000e+00	 1.194074748215912e+01
 1.701433892591978e+00	 1.543238759408437e+00	 1.190504732461833e+01
 1.850279623433346e+00	 1.376059526940758e+00	 1.222082773395265e+01
 1.836846580195948e+00	 1.393940106479063e+00	 1.218927517988177e+01
 1.823231697850602e+00	 1.411701265830231e+00	 1.216281460044691e+01
 1.809436570404062e+00	 1.429340244531128e+00	 1.213842212315770e+01
 1.795462847015646e+00	 1.446854310044099e+00	 1.211309609973409e+01
 1.781312231379016e+00	 1.464240759134659e+00	 1.208381565162033e+01
 1.766986481063092e+00	 1.481496919233046e+00	 1.204749617851242e+01
 1.752487406812542e+00	 1.498620149778209e+00	 1.200762469470342e+01
 1.737816871808461e+00	 1.515607843542854e+00	 1.196959915661467e+01
 1.722976790889804e+00	 1.532457427938146e+00	 1.193326948249004e+01
 1.707969129736268e+00	 1.549166366296717e+00	 1.189862870909282e+01
 1.857359386123191e+00	 1.381324771594149e+00	 1.220811292141850e+01
 1.843874943758311e+00	 1.399273767958964e+00	 1.217673940945184e+01
 1.830207966510811e+00	 1.417102887196798e+00	 1.215040646781844e+01
 1.816360054486623e+00	 1.434809358282093e+00	 1.212602356912854e+01
 1.802332863155270e+00	 1.452390438221620e+00	 1.210046410660427e+01
 1.788128102729292e+00	 1.469843413437442e+00	 1.207058686939746e+01
 1.773747537502624e+00	 1.487165601133679e+00	 1.203383829340908e+01
 1.759192985148420e+00	 1.504354350645638e+00	 1.199640647683692e+01
 1.744466315976898e+00	 1.521407044769926e+00	 1.196038023372964e+01
 1.729569452153795e+00	 1.538321101074150e+00	 1.192552431371128e+01
 1.714504366880125e+00	 1.555093973184831e+00	 1.189175115553715e+01
 1.864439148813270e+00	 1.386590016247609e+00	 1.219461134227306e+01
 1.850903307320891e+00	 1.404607429438896e+00	 1.216351576405605e+01
 1.837184235171193e+00	 1.422504508563369e+00	 1.213722226519367e+01
 1.823283538569292e+00	 1.440278472033041e+00	 1.211276160841380e+01
 1.809202879294923e+00	 1.457926566399106e+00	 1.208688623497240e+01
 1.794943974079505e+00	 1.475446067740176e+00	 1.205633908454303e+01
 1.780508593941997e+00	 1.492834283034248e+00	 1.202028846960737e+01
 1.765898563484045e+00	 1.510088551512984e+00	 1.198506584100609e+01
 1.751115760144993e+00	 1.527206245996894e+00	 1.195082097723638e+01
 1.736162113417373e+00	 1.544184774210023e+00	 1.191723854768008e+01
 1.721039604023517e+00	 1.561021580072778e+00	 1.188415580335302e+01
 1.655687232572625e+00	 1.501745511185803e+00	 1.195908290570338e+01
 1.640980977214357e+00	 1.517801502379484e+00	 1.191061196546282e+01
 1.626116254222871e+00	 1.533716418641320e+00	 1.185732245643084e+01
 1.611095084601319e+00	 1.549487940025887e+00	 1.179998392504638e+01
 1.595919535078986e+00	 1.565113786121580e+00	 1.173940386930467e+01
 1.580591717156995e+00	 1.580591717156995e+00	 1.167640119782950e+01
 1.565113786121580e+00	 1.595919535078986e+00	 1.161177905779370e+01
 1.549487940025886e+00	 1.611095084601319e+00	 1.154629722195190e+01
 1.533716418641319e+00	 1.626116254222872e+00	 1.148064422978837e+01
 1.517801502379483e+00	 1.640980977214357e+00	 1.141540948127127e+01
 1.501745511185803e+00	 1.655687232572625e+00	 1.135105548391130e+01
 1.662222469719014e+00	 1.507673118075252e+00	 1.194854894446007e+01
 1.647458166642315e+00	 1.523792484590229e+00	 1.190214394276978e+01
 1.632534770437641e+00	 1.539770219330222e+00	 1.185028991651613e+01
 1.617454310085350e+00	 1.555603993192633e+00	 1.179384796426622e+01
 1.602218860472419e+00	 1.571291516764728e+00	 1.173372214419076e+01
 1.586830541434388e+00	 1.586830541434388e+00	 1.167083206330824e+01
 1.571291516764728e+00	 1.602218860472420e+00	 1.160608480753092e+01
 1.555603993192633e+00	 1.617454310085350e+00	 1.154034640792687e+01
 1.539770219330221e+00	 1.632534770437640e+00	 1.147441304350960e+01
 1.523792484590228e+00	 1.647458166642315e+00	 1.140898218448221e+01
 1.507673118075252e+00	 1.662222469719015e+00	 1.134462388216552e+01
 1.668757706865203e+00	 1.513600724964534e+00	 1.193939207343413e+01
 1.653935356070108e+00	 1.529783466800842e+00	 1.189479753504867e+01
 1.638953286652277e+00	 1.545824020019018e+00	 1.184418924032606e+01
 1.623813535569272e+00	 1.561720046359288e+00	 1.178851152950650e+01
 1.608518185865760e+00	 1.577469247407792e+00	 1.172875656833582e+01
 1.593069365711697e+00	 1.593069365711697e+00	 1.166593606207313e+01
 1.577469247407792e+00	 1.608518185865761e+00	 1.160105228188872e+01
 1.561720046359288e+00	 1.623813535569272e+00	 1.153506860430025e+01
 1.545824020019018e+00	 1.638953286652278e+00	 1.146887976935209e+01
 1.529783466800841e+00	 1.653935356070109e+00	 1.140328206698897e+01
 1.513600724964534e+00	 1.668757706865203e+00	 1.133894366347297e+01
 1.675292944011158e+00	 1.519528331853648e+00	 1.193134873074721e+01
 1.660412545497697e+00	 1.535774449011314e+00	 1.188832456781912e+01
 1.645371802866735e+00	 1.551877820707688e+00	 1.183878477576802e+01
 1.630172761053036e+00	 1.567836099525825e+00	 1.178374876142929e+01
 1.614817511258964e+00	 1.583646978050739e+00	 1.172428848591004e+01
 1.599308189988881e+00	 1.599308189988881e+00	 1.166149929755084e+01
 1.583646978050739e+00	 1.614817511258964e+00	 1.159647004848597e+01
 1.567836099525824e+00	 1.630172761053037e+00	 1.153025270076774e+01
 1.551877820707688e+00	 1.645371802866736e+00	 1.146383163324005e+01
 1.535774449011313e+00	 1.660412545497698e+00	 1.139809286422648e+01
 1.519528331853649e+00	 1.675292944011158e+00	 1.133379340759244e+01
 1.681828181156845e+00	 1.525455938742596e+00	 1.192415546965533e+01
 1.666889734925040e+00	 1.541765431221634e+00	 1.188247672140367e+01
 1.651790319080969e+00	 1.557931621396212e+00	 1.183384049228444e+01
 1.636531986536599e+00	 1.573952152692216e+00	 1.177933321518078e+01
 1.621116836651983e+00	 1.589824708693531e+00	 1.172009847390787e+01
 1.605547014265897e+00	 1.605547014265897e+00	 1.165730694891671e+01
 1.589824708693531e+00	 1.621116836651983e+00	 1.159212561740875e+01
 1.573952152692216e+00	 1.636531986536599e+00	 1.152568641922805e+01
 1.557931621396211e+00	 1.651790319080969e+00	 1.145905460528795e+01
 1.541765431221633e+00	 1.666889734925041e+00	 1.139319698929978e+01
 1.525455938742596e+00	 1.681828181156845e+00	 1.132895032617102e+01
 1.688363418302234e+00	 1.531383545631376e+00	 1.191754914366725e+01
 1.673366924352097e+00	 1.547756413431792e+00	 1.187700571702290e+01
 1.658208835294932e+00	 1.563985422084572e+00	 1.182912016694646e+01
 1.642891212019911e+00	 1.580068205858431e+00	 1.177503804554237e+01
 1.627416162044774e+00	 1.596002439336134e+00	 1.171596652545430e+01
 1.611785838542706e+00	 1.611785838542706e+00	 1.165314345169440e+01
 1.596002439336134e+00	 1.627416162044774e+00	 1.158780561828155e+01
 1.580068205858431e+00	 1.642891212019911e+00	 1.152115648654599e+01
 1.563985422084572e+00	 1.658208835294933e+00	 1.145433356751680e+01
 1.547756413431791e+00	 1.673366924352097e+00	 1.138837569495884e+01
 1.531383545631376e+00	 1.688363418302234e+00	 1.132419041832610e+01
 1.694898655447289e+00	 1.537311152519990e+00	 1.191126709189334e+01
 1.679844113778824e+00	 1.553747395641779e+00	 1.187166350304062e+01
 1.664627351508581e+00	 1.570039222772748e+00	 1.182438757063512e+01
 1.649250437502926e+00	 1.586184259024445e+00	 1.177063619212486e+01
 1.633715487437289e+00	 1.602180169978511e+00	 1.171167223312747e+01
 1.618024662819265e+00	 1.618024662819265e+00	 1.164879267836021e+01
 1.602180169978511e+00	 1.633715487437289e+00	 1.158329597734774e+01
 1.586184259024445e+00	 1.649250437502926e+00	 1.151644880734278e+01
 1.570039222772747e+00	 1.664627351508581e+00	 1.144945248163123e+01
 1.553747395641777e+00	 1.679844113778824e+00	 1.138340923567976e+01
 1.537311152519990e+00	 1.694898655447289e+00	 1.131928862639195e+01
 1.701433892591978e+00	 1.543238759408437e+00	 1.190504732461833e+01
 1.686321303205182e+00	 1.559738377851583e+00	 1.186620244135510e+01
 1.671045867721866e+00	 1.576093023460720e+00	 1.181940665430861e+01
 1.655609662985597e+00	 1.592300312190228e+00	 1.176590056460556e+01
 1.640014812829485e+00	 1.608357900620628e+00	 1.170699497229672e+01
 1.624263487095532e+00	 1.624263487095532e+00	 1.164403811895261e+01
 1.608357900620628e+00	 1.640014812829485e+00	 1.157838209455852e+01
 1.592300312190227e+00	 1.655609662985597e+00	 1.151134863681391e+01
 1.576093023460720e+00	 1.671045867721867e+00	 1.144419455685501e+01
 1.559738377851583e+00	 1.686321303205183e+00	 1.137807702984946e+01
 1.543238759408437e+00	 1.701433892591978e+00	 1.131401899182621e+01
 1.707969129736268e+00	 1.549166366296717e+00	 1.189862870909282e+01
 1.692798492631129e+00	 1.565729360061197e+00	 1.186037549393233e+01
 1.677464383934746e+00	 1.582146824148469e+00	 1.181394173535240e+01
 1.661968888467875e+00	 1.598416365355750e+00	 1.176060422800650e+01
 1.646314138221316e+00	 1.614535631262448e+00	 1.170171408447640e+01
 1.630502311371466e+00	 1.630502311371466e+00	 1.163866306168599e+01
 1.614535631262447e+00	 1.646314138221315e+00	 1.157284902067084e+01
 1.598416365355751e+00	 1.661968888467876e+00	 1.150564075357333e+01
 1.582146824148469e+00	 1.677464383934746e+00	 1.143834241782443e+01
 1.565729360061197e+00	 1.692798492631130e+00	 1.137215782205131e+01
 1.549166366296717e+00	 1.707969129736268e+00	 1.130815481127205e+01
 1.714504366880125e+00	 1.555093973184831e+00	 1.189175115553715e+01
 1.699275682056624e+00	 1.571720342270610e+00	 1.185393640947801e+01
 1.683882900147171e+00	 1.588200624835976e+00	 1.180775768401141e+01
 1.668328113949717e+00	 1.604532418520987e+00	 1.175452058801328e+01
 1.652613463612735e+00	 1.620713361903935e+00	 1.169560906069482e+01
 1.636741135647025e+00	 1.636741135647025e+00	 1.163245077356970e+01
 1.620713361903935e+00	 1.652613463612734e+00	 1.156648163435383e+01
 1.604532418520987e+00	 1.668328113949717e+00	 1.149910963252370e+01
 1.588200624835976e+00	 1.683882900147172e+00	 1.143167827253768e+01
 1.571720342270609e+00	 1.699275682056624e+00	 1.136542984544867e+01
 1.555093973184831e+00	 1.714504366880125e+00	 1.130146879277205e+01
 1.721039604023517e+00	 1.561021580072778e+00	 1.188415580335302e+01
 1.705752871481626e+00	 1.577711324479812e+00	 1.184663991024467e+01
 1.690301416359099e+00	 1.594254425523221e+00	 1.180062010990106e+01
 1.674687339431072e+00	 1.610648471685908e+00	 1.174742357633352e+01
 1.658912789003697e+00	 1.626891092545054e+00	 1.168845972487773e+01
 1.642979959922168e+00	 1.642979959922168e+00	 1.162518468103169e+01
 1.626891092545055e+00	 1.658912789003697e+00	 1.155906481930385e+01
 1.610648471685908e+00	 1.674687339431073e+00	 1.149153961775223e+01
 1.594254425523221e+00	 1.690301416359099e+00	 1.142398408035906e+01
 1.577711324479812e+00	 1.705752871481626e+00	 1.135767098426462e+01
 1.561021580072778e+00	 1.721039604023517e+00	 1.129373321213025e+01
 1.501745511185803e+00	 1.655687232572625e+00	 1.135105548391130e+01
 1.485548042844174e+00	 1.670235500765547e+00	 1.128276089572819e+01
 1.469214233720123e+00	 1.684621318449455e+00	 1.120786784210172e+01
 1.452746542832192e+00	 1.698842780115080e+00	 1.113087295765902e+01
 1.436147464020815e+00	 1.712898029537638e+00	 1.105223064549764e+01
 1.419419524704582e+00	 1.726785260568927e+00	 1.097220144633677e+01
 1.402565284615473e+00	 1.740502717892059e+00	 1.089094180018760e+01
 1.385587334514378e+00	 1.754048697738161e+00	 1.080841256451254e+01
 1.368488294888244e+00	 1.767421548564461e+00	 1.072428885336747e+01
 1.351270814630200e+00	 1.780619671693210e+00	 1.063787192092819e+01
 1.333937569704040e+00	 1.793641521910966e+00	 1.054800379965380e+01
 1.507673118075252e+00	 1.662222469719015e+00	 1.134462388216552e+01
 1.491411715981593e+00	 1.676828162032079e+00	 1.127678503755201e+01
 1.475013434948752e+00	 1.691270762620391e+00	 1.120183871019393e+01
 1.458480743701366e+00	 1.705548358453375e+00	 1.112462644029374e+01
 1.441816145923415e+00	 1.719659085979478e+00	 1.104637170261427e+01
 1.425022179009569e+00	 1.733601131921384e+00	 1.096721914807078e+01
 1.408101412795435e+00	 1.747372734033735e+00	 1.088720707897731e+01
 1.391056448268004e+00	 1.760972181822650e+00	 1.080617321341959e+01
 1.373889916257661e+00	 1.774397817226498e+00	 1.072366178770405e+01
 1.356604476113090e+00	 1.787648035257331e+00	 1.063883274058321e+01
 1.339202814360497e+00	 1.800721284602547e+00	 1.055037370957478e+01
 1.513600724964534e+00	 1.668757706865203e+00	 1.133894366347297e+01
 1.497275389118799e+00	 1.683420823298369e+00	 1.127156212287955e+01
 1.480812636177114e+00	 1.697920206791036e+00	 1.119724505364774e+01
 1.464214944570217e+00	 1.712253936791332e+00	 1.111977258135708e+01
 1.447484827825630e+00	 1.726420142420929e+00	 1.104183936815664e+01
 1.430624833314105e+00	 1.740417003273407e+00	 1.096348009005785e+01
 1.413637540974881e+00	 1.754242750174934e+00	 1.088462094546306e+01
 1.396525562021053e+00	 1.767895665906627e+00	 1.080498258312058e+01
 1.379291537626440e+00	 1.781374085887994e+00	 1.072398438498370e+01
 1.361938137595290e+00	 1.794676398820894e+00	 1.064065086844575e+01
 1.344468059016220e+00	 1.807801047293561e+00	 1.055352095880749e+01
 1.519528331853649e+00	 1.675292944011158e+00	 1.133379340759244e+01
 1.503139062255803e+00	 1.690013484564393e+00	 1.126686524434633e+01
 1.486611837405232e+00	 1.704569650961384e+00	 1.119356033939997e+01
 1.469949145438773e+00	 1.718959515128959e+00	 1.111604717918852e+01
 1.453153509727497e+00	 1.733181198862022e+00	 1.103837616666958e+01
 1.436227487618241e+00	 1.747232874625042e+00	 1.096073386075708e+01
 1.419173669153873e+00	 1.761112766315720e+00	 1.088294054126066e+01
 1.401994675773594e+00	 1.774819149990168e+00	 1.080460601285743e+01
 1.384693158994663e+00	 1.788350354549037e+00	 1.072503098390683e+01
 1.367271799076891e+00	 1.801704762383993e+00	 1.064311060244177e+01
 1.349733303671310e+00	 1.814880809984109e+00	 1.055724092121164e+01
 1.525455938742596e+00	 1.681828181156845e+00	 1.132895032617102e+01
 1.509002735392615e+00	 1.696606145830132e+00	 1.126246608246762e+01
 1.492411038633126e+00	 1.711219095131431e+00	 1.119013920552233e+01
 1.475683346307067e+00	 1.725665093466269e+00	 1.111317771429110e+01
 1.458822191629058e+00	 1.739942255302784e+00	 1.103571560414549e+01
 1.441830141922026e+00	 1.754048745976336e+00	 1.095872027571771e+01
 1.424709797332469e+00	 1.767982782456154e+00	 1.088191243268371e+01
 1.407463789525696e+00	 1.781742634073352e+00	 1.080479742186819e+01
 1.390094780362410e+00	 1.795326623209717e+00	 1.072656362198213e+01
 1.372605460557983e+00	 1.808733125946727e+00	 1.064598302753036e+01
 1.354998548325865e+00	 1.821960572674290e+00	 1.056131482127026e+01
 1.531383545631376e+00	 1.688363418302234e+00	 1.132419041832610e+01
 1.514866408529244e+00	 1.703198807095564e+00	 1.125813505457232e+01
 1.498210239860814e+00	 1.717868539301168e+00	 1.118674282215895e+01
 1.481417547175128e+00	 1.732370671803272e+00	 1.111088446956791e+01
 1.464490873530355e+00	 1.746703311743244e+00	 1.103358326717243e+01
 1.447432796225509e+00	 1.760864617327333e+00	 1.095717045505221e+01
 1.430245925510728e+00	 1.774852798596301e+00	 1.088127366598337e+01
 1.412932903277430e+00	 1.788666118156255e+00	 1.080530034186413e+01
 1.395496401729759e+00	 1.802302891870124e+00	 1.072833304474244e+01
 1.377939122038655e+00	 1.815761489509192e+00	 1.064902700119075e+01
 1.360263792979988e+00	 1.829040335364205e+00	 1.056551069541219e+01
 1.537311152519990e+00	 1.694898655447289e+00	 1.131928862639195e+01
 1.520730081665703e+00	 1.709791468360667e+00	 1.125364146396176e+01
 1.504009441088319e+00	 1.724517983470590e+00	 1.118313570282287e+01
 1.487151748042984e+00	 1.739076250139977e+00	 1.110861036365974e+01
 1.470159555431424e+00	 1.753464368183429e+00	 1.103169792244642e+01
 1.453035450528744e+00	 1.767680488678082e+00	 1.095580790131891e+01
 1.435782053688713e+00	 1.781722814736223e+00	 1.088075282303895e+01
 1.418402017028867e+00	 1.795589602238956e+00	 1.080584894999642e+01
 1.400898023096792e+00	 1.809279160530348e+00	 1.073007971548556e+01
 1.383272783519000e+00	 1.822789853071486e+00	 1.065199013946736e+01
 1.365529037633777e+00	 1.836120098053952e+00	 1.056958435392344e+01
 1.543238759408437e+00	 1.701433892591978e+00	 1.131401899182621e+01
 1.526593754802001e+00	 1.716384129625421e+00	 1.124875364928872e+01
 1.509808642315658e+00	 1.731167427639690e+00	 1.117908131745584e+01
 1.492885948910669e+00	 1.745781828476398e+00	 1.110581364065606e+01
 1.475828237332308e+00	 1.760225424623369e+00	 1.102977261663756e+01
 1.458638104831776e+00	 1.774496360028628e+00	 1.095434957780292e+01
 1.441318181866484e+00	 1.788592830875984e+00	 1.088007107748804e+01
 1.423871130780076e+00	 1.802513086321532e+00	 1.080616910229960e+01
 1.406299644463590e+00	 1.816255429190478e+00	 1.073153482552658e+01
 1.388606444999106e+00	 1.829818216633705e+00	 1.065460980355807e+01
 1.370794282287334e+00	 1.843199860743632e+00	 1.057328034343130e+01
 1.549166366296717e+00	 1.707969129736268e+00	 1.130815481127205e+01
 1.532457427938147e+00	 1.722976790889803e+00	 1.124323913415021e+01
 1.515607843542855e+00	 1.737816871808461e+00	 1.117434223564617e+01
 1.498620149778210e+00	 1.752487406812541e+00	 1.110225270132408e+01
 1.481496919233046e+00	 1.766986481063090e+00	 1.102751577587018e+01
 1.464240759134660e+00	 1.781312231379015e+00	 1.095250698718413e+01
 1.446854310044099e+00	 1.795462847015645e+00	 1.087894325128329e+01
 1.429340244531129e+00	 1.809436570404062e+00	 1.080597936759824e+01
 1.411701265830233e+00	 1.823231697850602e+00	 1.073242130494719e+01
 1.393940106479064e+00	 1.836846580195948e+00	 1.065661408693091e+01
 1.376059526940758e+00	 1.850279623433346e+00	 1.057633290994610e+01
 1.555093973184831e+00	 1.714504366880125e+00	 1.130146879277205e+01
 1.538321101074151e+00	 1.729569452153795e+00	 1.123686477688825e+01
 1.521407044769926e+00	 1.744466315976897e+00	 1.116868027010710e+01
 1.504354350645638e+00	 1.759192985148420e+00	 1.109768512681752e+01
 1.487165601133680e+00	 1.773747537502623e+00	 1.102439975723922e+01
 1.469843413437443e+00	 1.788128102729292e+00	 1.094998725058188e+01
 1.452390438221620e+00	 1.802332863155270e+00	 1.087707887166444e+01
 1.434809358282094e+00	 1.816360054486623e+00	 1.080499206186492e+01
 1.417102887196799e+00	 1.830207966510810e+00	 1.073245483382895e+01
 1.399273767958964e+00	 1.843874943758311e+00	 1.065772280295529e+01
 1.381324771594150e+00	 1.857359386123191e+00	 1.057815252414147e+01
 1.561021580072778e+00	 1.721039604023517e+00	 1.129373321213025e+01
 1.544184774210024e+00	 1.736162113417373e+00	 1.122939692059398e+01
 1.527206245996895e+00	 1.751115760144993e+00	 1.116185662040862e+01
 1.510088551512984e+00	 1.765898563484043e+00	 1.109186777418404e+01
 1.492834283034248e+00	 1.780508593941995e+00	 1.101993026095201e+01
 1.475446067740177e+00	 1.794943974079505e+00	 1.094649418696531e+01
 1.457926566399107e+00	 1.809202879294922e+00	 1.087418322853436e+01
 1.440278472033042e+00	 1.823283538569291e+00	 1.080291428301643e+01
 1.422504508563371e+00	 1.837184235171193e+00	 1.073134485395738e+01
 1.404607429438897e+00	 1.850903307320891e+00	 1.065764847303336e+01
 1.386590016247609e+00	 1.864439148813270e+00	 1.057765024574327e+01
 1.333937569704040e+00	 1.793641521910966e+00	 1.054800379965380e+01
 1.316494235154875e+00	 1.806483441180266e+00	 1.045902666290568e+01
 1.298940590890470e+00	 1.819146228155318e+00	 1.037473756838182e+01
 1.281279374770660e+00	 1.831628509158474e+00	 1.029227418543217e+01
 1.263513346306681e+00	 1.843928965884853e+00	 1.020800097930719e+01
 1.245645285274350e+00	 1.856046335795278e+00	 1.011783996815327e+01
 1.227677990319974e+00	 1.867979412467918e+00	 1.002304864143672e+01
 1.209614277560409e+00	 1.879727045908540e+00	 9.924867968378011e+00
 1.191456979178689e+00	 1.891288142819314e+00	 9.823632550994432e+00
 1.173208942016627e+00	 1.902661666826218e+00	 9.719792417595821e+00
 1.154873026165801e+00	 1.913846638665072e+00	 9.613916698168335e+00
 1.339202814360497e+00	 1.800721284602547e+00	 1.055037370957478e+01
 1.321690628445213e+00	 1.813613892785887e+00	 1.046240233025917e+01
 1.304067697406269e+00	 1.826326661613954e+00	 1.037845476262777e+01
 1.286336769910229e+00	 1.838858211986983e+00	 1.029543054486243e+01
 1.268500616360523e+00	 1.851207220396538e+00	 1.020943136905863e+01
 1.250562027505148e+00	 1.863372419320001e+00	 1.011845602998174e+01
 1.232523813037073e+00	 1.875352597573608e+00	 1.002404739889923e+01
 1.214388800188781e+00	 1.887146600623915e+00	 9.926389398015159e+00
 1.196159832322339e+00	 1.898753330857675e+00	 9.825770740730771e+00
 1.177839767516464e+00	 1.910171747810131e+00	 9.722596353042215e+00
 1.159431477151930e+00	 1.921400868351795e+00	 9.617391252993469e+00
 1.344468059016220e+00	 1.807801047293561e+00	 1.055352095880750e+01
 1.326887021734783e+00	 1.820744344390948e+00	 1.046648197242059e+01
 1.309194803921275e+00	 1.833507095072052e+00	 1.038280206300796e+01
 1.291394165048992e+00	 1.846087914814986e+00	 1.029914588887438e+01
 1.273487886413557e+00	 1.858485474907758e+00	 1.021191859033136e+01
 1.255478769735148e+00	 1.870698502844312e+00	 1.012117503799837e+01
 1.237369635753399e+00	 1.882725782678946e+00	 1.002719351719201e+01
 1.219163322816413e+00	 1.894566155339006e+00	 9.930109418303481e+00
 1.200862685465302e+00	 1.906218518895826e+00	 9.830170301494466e+00
 1.182470593015676e+00	 1.917681828793916e+00	 9.727740895079544e+00
 1.163989928137511e+00	 1.928955098038471e+00	 9.623307179379850e+00
 1.349733303671310e+00	 1.814880809984109e+00	 1.055724092121164e+01
 1.332083415023695e+00	 1.827874795995548e+00	 1.047107385587230e+01
 1.314321910435607e+00	 1.840687528529700e+00	 1.038760315579067e+01
 1.296451560187077e+00	 1.853317617642557e+00	 1.030327451141151e+01
 1.278475156465919e+00	 1.865763729418575e+00	 1.021583947572069e+01
 1.260395511964490e+00	 1.878024586368254e+00	 1.012536722407356e+01
 1.242215458469091e+00	 1.890098967783955e+00	 1.003184884879036e+01
 1.223937845443449e+00	 1.901985710053816e+00	 9.935382388398441e+00
 1.205565538607713e+00	 1.913683706933750e+00	 9.836178946131870e+00
 1.187101418514393e+00	 1.925191909777534e+00	 9.734567919423778e+00
 1.168548379122664e+00	 1.936509327725052e+00	 9.631001288710866e+00
 1.354998548325865e+00	 1.821960572674290e+00	 1.056131482127026e+01
 1.337279808312057e+00	 1.835005247599780e+00	 1.047597113430872e+01
 1.319449016949385e+00	 1.847867961986985e+00	 1.039266562119605e+01
 1.301508955324611e+00	 1.860547320469775e+00	 1.030796522422865e+01
 1.283462426517742e+00	 1.873041983929048e+00	 1.022059541939355e+01
 1.265312254193315e+00	 1.885350669891869e+00	 1.013041799527227e+01
 1.247061281184295e+00	 1.897472152888660e+00	 1.003739037150487e+01
 1.228712368070030e+00	 1.909405264768351e+00	 9.941577721583819e+00
 1.210268391749709e+00	 1.921148894971434e+00	 9.843159348899839e+00
 1.191732244012743e+00	 1.932701990760955e+00	 9.742434148841134e+00
 1.173106830107502e+00	 1.944063557411484e+00	 9.639825103321078e+00
 1.360263792979988e+00	 1.829040335364205e+00	 1.056551069541219e+01
 1.342476201599982e+00	 1.842135699203746e+00	 1.048095278556007e+01
 1.324576123462730e+00	 1.855048395443998e+00	 1.039777416807150e+01
 1.306566350461724e+00	 1.867777023296715e+00	 1.031288722111731e+01
 1.288449696569163e+00	 1.880320238439240e+00	 1.022559613094197e+01
 1.270228996421762e+00	 1.892676753415200e+00	 1.013572770409367e+01
 1.251907103899149e+00	 1.904845337993083e+00	 1.004320996499759e+01
 1.233486890696297e+00	 1.916824819482612e+00	 9.948079668467530e+00
 1.214971244891429e+00	 1.928614083008861e+00	 9.850488935722483e+00
 1.196363069510855e+00	 1.940212071744143e+00	 9.750710950825100e+00
 1.177665281092140e+00	 1.951617787097718e+00	 9.649144661928112e+00
 1.365529037633777e+00	 1.836120098053952e+00	 1.056958435392345e+01
 1.347672594887578e+00	 1.849266150807540e+00	 1.048578454913000e+01
 1.329703229975759e+00	 1.862228828900827e+00	 1.040253814551731e+01
 1.311623745598542e+00	 1.875006726123453e+00	 1.031747522457173e+01
 1.293436966620315e+00	 1.887598492949212e+00	 1.023026605326930e+01
 1.275145738649971e+00	 1.900002836938292e+00	 1.014071141933821e+01
 1.256752926613798e+00	 1.912218523097250e+00	 1.004871418790619e+01
 1.238261413322390e+00	 1.924244374196604e+00	 9.954287100757663e+00
 1.219674098033008e+00	 1.936079271046014e+00	 9.857559674992569e+00
 1.200993895008857e+00	 1.947722152727063e+00	 9.758784135774341e+00
 1.182223732076697e+00	 1.959172016783703e+00	 9.658340325517964e+00
 1.370794282287334e+00	 1.843199860743632e+00	 1.057328034343130e+01
 1.352868988174956e+00	 1.856396602411258e+00	 1.049009273245201e+01
 1.334830336488594e+00	 1.869409262357560e+00	 1.040642285968255e+01
 1.316681140735195e+00	 1.882236428950067e+00	 1.032117844759887e+01
 1.298424236671334e+00	 1.894876747459023e+00	 1.023404412823822e+01
 1.280062480878080e+00	 1.907328920461187e+00	 1.014479869758499e+01
 1.261598749328383e+00	 1.919591708201184e+00	 1.005332405555932e+01
 1.243035935948452e+00	 1.931663928910331e+00	 9.959613295603075e+00
 1.224376951174584e+00	 1.943544459082879e+00	 9.863777868903282e+00
 1.205624720506878e+00	 1.955232233709682e+00	 9.766053755660202e+00
 1.186782183061287e+00	 1.966726246469390e+00	 9.666806583670969e+00
 1.376059526940758e+00	 1.850279623433346e+00	 1.057633290994610e+01
 1.358065381462228e+00	 1.863527054014999e+00	 1.049304557663565e+01
 1.339957443001354e+00	 1.876589695814287e+00	 1.040890294165309e+01
 1.321738535871809e+00	 1.889466131776632e+00	 1.032346035457435e+01
 1.303411506722355e+00	 1.902155001968735e+00	 1.023638356292395e+01
 1.284979223106231e+00	 1.914655003983926e+00	 1.014743335526357e+01
 1.266444572043045e+00	 1.926964893304907e+00	 1.005647481826759e+01
 1.247810458574623e+00	 1.939083483623797e+00	 9.963485720483559e+00
 1.229079804316294e+00	 1.951009647119438e+00	 9.868563945296030e+00
 1.210255546005046e+00	 1.962742314691965e+00	 9.771933903169728e+00
 1.191340634046026e+00	 1.974280476154726e+00	 9.673951861315430e+00
 1.381324771594150e+00	 1.857359386123191e+00	 1.057815252414147e+01
 1.363261774749500e+00	 1.870657505618858e+00	 1.049410668063357e+01
 1.345084549514157e+00	 1.883770129271097e+00	 1.040946699764254e+01
 1.326795931008512e+00	 1.896695834603226e+00	 1.032379842269023e+01
 1.308398776773511e+00	 1.909433256478410e+00	 1.023675159645627e+01
 1.289895965334563e+00	 1.921981087506554e+00	 1.014807324130377e+01
 1.271290394757928e+00	 1.934338078408444e+00	 1.005761574017453e+01
 1.252584981201046e+00	 1.946503038337005e+00	 9.965345818634471e+00
 1.233782657458275e+00	 1.958474835155677e+00	 9.871352250010588e+00
 1.214886371503492e+00	 1.970252395673879e+00	 9.775852511311449e+00
 1.195899085031030e+00	 1.981834705839663e+00	 9.679198325899179e+00
 1.386590016247609e+00	 1.864439148813270e+00	 1.057765024574327e+01
 1.368458168036886e+00	 1.877787957222933e+00	 1.049279038599694e+01
 1.350211656027125e+00	 1.890950562728077e+00	 1.040761736605049e+01
 1.331853326145434e+00	 1.903925537429925e+00	 1.032168390397901e+01
 1.313386046824939e+00	 1.916711510988107e+00	 1.023462926743473e+01
 1.294812707563215e+00	 1.929307171029115e+00	 1.014619001034874e+01
 1.276136217473172e+00	 1.941711263511818e+00	 1.005620987865329e+01
 1.257359503827862e+00	 1.953922593049959e+00	 9.964648794992115e+00
 1.238485510600663e+00	 1.965940023191579e+00	 9.871590839723730e+00
 1.219517197002343e+00	 1.977762476655389e+00	 9.777251153471930e+00
 1.200457536016417e+00	 1.989388935524150e+00	 9.681981694966604e+00
 1.154873026165801e+00	 1.913846638665072e+00	 9.613916698168335e+00
 1.136452103918131e+00	 1.924842136790607e+00	 9.509158625176921e+00
 1.117949059414061e+00	 1.935647298879856e+00	 9.407883126498641e+00
 1.099366786116543e+00	 1.946261320512928e+00	 9.309304522034317e+00
 1.080708185042699e+00	 1.956683454730028e+00	 9.211471964526936e+00
 1.061976163366337e+00	 1.966913012010647e+00	 9.113466530321904e+00
 1.043173633027097e+00	 1.976949360212890e+00	 9.014920411995709e+00
 1.024303509347539e+00	 1.986791924473413e+00	 8.915872202245142e+00
 1.005368709659413e+00	 1.996440187068386e+00	 8.816716510216725e+00
 9.863721519403903e-01	 2.005893687236055e+00	 8.718155136848198e+00
 9.673167534624196e-01	 2.015152020961425e+00	 8.621150021543432e+00
 1.159431477151930e+00	 1.921400868351795e+00	 9.617391252993469e+00
 1.140937844858008e+00	 1.932439767299915e+00	 9.513127675578186e+00
 1.122361766159259e+00	 1.943287578927815e+00	 9.412037681425613e+00
 1.103706145939548e+00	 1.953943495640461e+00	 9.313584848405451e+00
 1.084973896666725e+00	 1.964406767529707e+00	 9.216062973113109e+00
 1.066167936989626e+00	 1.974676702353418e+00	 9.118451248234720e+00
 1.047291190341737e+00	 1.984752665474563e+00	 9.020415285708237e+00
 1.028346583552809e+00	 1.994634079760735e+00	 8.922030117282546e+00
 1.009337045469723e+00	 2.004320425444586e+00	 8.823728598501560e+00
 9.902655055878178e-01	 2.013811239945681e+00	 8.726251435913037e+00
 9.711348926939367e-01	 2.023106117654333e+00	 8.630599054359491e+00
 1.163989928137511e+00	 1.928955098038471e+00	 9.623307179379850e+00
 1.145423585797431e+00	 1.940037397809262e+00	 9.519672393994453e+00
 1.126774472904106e+00	 1.950927858975903e+00	 9.418937801770454e+00
 1.108045505762309e+00	 1.961625670768204e+00	 9.320691477661761e+00
 1.089239608290615e+00	 1.972130080329677e+00	 9.223585226900198e+00
 1.070359710612885e+00	 1.982440392696559e+00	 9.126456028623812e+00
 1.051408747656442e+00	 1.992555970736669e+00	 9.028993450067368e+00
 1.032389657758227e+00	 2.002476235048544e+00	 8.931299246947209e+00
 1.013305381280242e+00	 2.012200663821316e+00	 8.833834547948300e+00
 9.941588592354975e-01	 2.021728792655865e+00	 8.737368728382656e+00
 9.749530319257198e-01	 2.031060214347808e+00	 8.642930194456902e+00
 1.168548379122664e+00	 1.936509327725052e+00	 9.631001288710866e+00
 1.149909326736499e+00	 1.947635028318585e+00	 9.528123378410925e+00
 1.131187179648680e+00	 1.958568139024042e+00	 9.427904923491026e+00
 1.112384865584882e+00	 1.969307845896078e+00	 9.329964570898401e+00
 1.093505319914400e+00	 1.979853393129853e+00	 9.233374086790191e+00
 1.074551484236119e+00	 1.990204083039974e+00	 9.136812232422439e+00
 1.055526304971194e+00	 2.000359275999112e+00	 9.039980337627265e+00
 1.036432731963756e+00	 2.010318390336744e+00	 8.942997401667121e+00
 1.017273717090920e+00	 2.020080902198478e+00	 8.846343083467977e+00
 9.980522128833663e-01	 2.029646345366506e+00	 8.750805415795233e+00
 9.787711711577025e-01	 2.039014311041749e+00	 8.657430502384166e+00
 1.173106830107502e+00	 1.944063557411484e+00	 9.639825103321078e+00
 1.154395067675310e+00	 1.955232658827819e+00	 9.537825809194867e+00
 1.135599886393057e+00	 1.966208419072158e+00	 9.438274971327884e+00
 1.116724225407318e+00	 1.976990021023997e+00	 9.340793527733938e+00
 1.097771031538109e+00	 1.987576705930144e+00	 9.244773791404183e+00
 1.078743257859333e+00	 1.997967773383569e+00	 9.148859604358487e+00
 1.059643862285977e+00	 2.008162581261797e+00	 9.052709311645508e+00
 1.040475806169357e+00	 2.018160545625237e+00	 8.956449909704022e+00
 1.021242052901703e+00	 2.027961140575972e+00	 8.860570074449232e+00
 1.001945566531361e+00	 2.037563898077505e+00	 8.765866709521489e+00
 9.825893103898176e-01	 2.046968407736056e+00	 8.673393551687001e+00
 1.177665281092140e+00	 1.951617787097718e+00	 9.649144661928112e+00
 1.158880808613962e+00	 1.962830289336903e+00	 9.548139262030917e+00
 1.140012593137314e+00	 1.973848699120177e+00	 9.449398178436230e+00
 1.121063585229672e+00	 1.984672196151879e+00	 9.352535318247474e+00
 1.102036743161770e+00	 1.995300018730458e+00	 9.257137636591235e+00
 1.082935031482531e+00	 2.005731463727250e+00	 9.161946442974156e+00
 1.063761419600772e+00	 2.015965886524625e+00	 9.066521826066385e+00
 1.044518880374993e+00	 2.026002700913923e+00	 8.970989766607996e+00
 1.025210388712539e+00	 2.035841378953698e+00	 8.875838673250417e+00
 1.005838920179419e+00	 2.045481450788762e+00	 8.781864757915267e+00
 9.864074496219992e-01	 2.054922504430628e+00	 8.690119544392484e+00
 1.182223732076697e+00	 1.959172016783703e+00	 9.658340325517964e+00
 1.163366549552554e+00	 1.970427919845770e+00	 9.558437521266640e+00
 1.144425299881529e+00	 1.981488979168023e+00	 9.460638906403153e+00
 1.125402945051999e+00	 1.992354371279641e+00	 9.364542178112082e+00
 1.106302454785414e+00	 2.003023331530709e+00	 9.269828155334235e+00
 1.087126805105719e+00	 2.013495154070926e+00	 9.175429771067662e+00
 1.067878976915562e+00	 2.023769191787499e+00	 9.080767585966129e+00
 1.048561954580627e+00	 2.033844856202704e+00	 8.985957785190157e+00
 1.029178724523375e+00	 2.043721617331557e+00	 8.891479454276704e+00
 1.009732273827477e+00	 2.053399003500176e+00	 8.798118774127987e+00
 9.902255888541812e-01	 2.062876601125368e+00	 8.706915427247811e+00
 1.186782183061287e+00	 1.966726246469390e+00	 9.666806583670969e+00
 1.167852290491185e+00	 1.978025550354356e+00	 9.568108393655418e+00
 1.148838006625779e+00	 1.989129259215624e+00	 9.471375465637999e+00
 1.129742304874350e+00	 2.000036546407199e+00	 9.376180248129378e+00
 1.110568166409069e+00	 2.010746644330806e+00	 9.282217298041576e+00
 1.091318578728902e+00	 2.021258844414498e+00	 9.188675506546430e+00
 1.071996534230329e+00	 2.031572497050323e+00	 9.094804708449342e+00
 1.052605028786221e+00	 2.041687011491480e+00	 9.000702745998446e+00
 1.033147060334156e+00	 2.051601855709450e+00	 8.906830553627229e+00
 1.013625627475472e+00	 2.061316556211648e+00	 8.813955164569842e+00
 9.940437280862963e-01	 2.070830697820173e+00	 8.723095008694081e+00
 1.191340634046026e+00	 1.974280476154726e+00	 9.673951861315430e+00
 1.172338031429952e+00	 1.985623180862599e+00	 9.576553522486977e+00
 1.153250713370142e+00	 1.996769539262902e+00	 9.480999936128264e+00
 1.134081664696782e+00	 2.007718721534471e+00	 9.386829400886693e+00
 1.114833878032766e+00	 2.018469957130660e+00	 9.293705221058953e+00
 1.095510352352085e+00	 2.029022534757877e+00	 9.201058633679223e+00
 1.076114091545056e+00	 2.039375802313002e+00	 9.107999883983730e+00
 1.056648102991739e+00	 2.049529166780154e+00	 9.014581548284704e+00
 1.037115396144830e+00	 2.059482094087275e+00	 8.921237809295919e+00
 1.017518981123340e+00	 2.069234108923078e+00	 8.828707658001466e+00
 9.978618673182789e-01	 2.078784794514945e+00	 8.737979076554627e+00
 1.195899085031030e+00	 1.981834705839663e+00	 9.679198325899179e+00
 1.176823772368955e+00	 1.993220811370433e+00	 9.583188202095094e+00
 1.157663420114694e+00	 2.004409819309784e+00	 9.488917988548511e+00
 1.138421024519346e+00	 2.015400896661373e+00	 9.395883067762899e+00
 1.119099589656532e+00	 2.026193269930182e+00	 9.303706255255905e+00
 1.099702125975272e+00	 2.036786225100966e+00	 9.211963374738691e+00
 1.080231648859724e+00	 2.047179107575435e+00	 9.119728538161953e+00
 1.060691177197142e+00	 2.057371322068627e+00	 9.026959361448267e+00
 1.041083731955346e+00	 2.067362332464934e+00	 8.934054901912102e+00
 1.021412334771020e+00	 2.077151661634367e+00	 8.841717435237150e+00
 1.001680006550062e+00	 2.086738891209582e+00	 8.750895516419856e+00
 1.200457536016417e+00	 1.989388935524150e+00	 9.681981694966604e+00
 1.181309513308292e+00	 2.000818441877797e+00	 9.587441192731836e+00
 1.162076126859514e+00	 2.012050099356196e+00	 9.494548705715184e+00
 1.142760384342097e+00	 2.023083071787823e+00	 9.402748066273414e+00
 1.123365301280397e+00	 2.033916582729283e+00	 9.311612923056780e+00
 1.103893899598469e+00	 2.044549915443672e+00	 9.220783362022654e+00
 1.084349206174317e+00	 2.054982412837529e+00	 9.129374993878859e+00
 1.064734251402393e+00	 2.065213477356799e+00	 9.037209776944573e+00
 1.045052067765649e+00	 2.075242570842330e+00	 8.944643496006613e+00
 1.025305688418447e+00	 2.085069214345414e+00	 8.852333259445556e+00
 1.005498145781580e+00	 2.094692987903986e+00	 8.761179430709088e+00
 9.673167534624196e-01	 2.015152020961425e+00	 8.621150021543432e+00
 9.482021755781406e-01	 2.024216364620247e+00	 8.524902933175220e+00
 9.290345655093517e-01	 2.033084834959419e+00	 8.427993272747937e+00
 9.098168309719685e-01	 2.041757195019680e+00	 8.330656066170375e+00
 8.905518737420935e-01	 2.050233263396683e+00	 8.233214426897616e+00
 8.712425883789897e-01	 2.058512913847339e+00	 8.136045630442855e+00
 8.518918609662952e-01	 2.066596074862476e+00	 8.039549785857666e+00
 8.325025678724677e-01	 2.074482729206619e+00	 7.944121169062330e+00
 8.130775745313923e-01	 2.082172913425751e+00	 7.850122262621930e+00
 7.936197342440642e-01	 2.089666717323930e+00	 7.757860526760235e+00
 7.741318870022023e-01	 2.096964283409688e+00	 7.667567907199440e+00
 9.711348926939367e-01	 2.023106117654333e+00	 8.630599054359491e+00
 9.519448668040258e-01	 2.032206239589626e+00	 8.535895317281266e+00
 9.327015994038663e-01	 2.041109715064976e+00	 8.440589487316883e+00
 9.134080096865619e-01	 2.049816306185801e+00	 8.344873743419692e+00
 8.940670108819566e-01	 2.058325830831709e+00	 8.249024078405048e+00
 8.746815089745689e-01	 2.066638162261302e+00	 8.153365801777726e+00
 8.552544014398387e-01	 2.074753228683138e+00	 8.058241722580037e+00
 8.357885759996779e-01	 2.082671012793702e+00	 7.963983077638249e+00
 8.162869093982649e-01	 2.090391551283217e+00	 7.870883249780942e+00
 7.967522661989983e-01	 2.097914934310198e+00	 7.779174300291517e+00
 7.771874976034669e-01	 2.105241304945670e+00	 7.689006320161628e+00
 9.749530319257198e-01	 2.031060214347808e+00	 8.642930194456902e+00
 9.556875580301600e-01	 2.040196114559561e+00	 8.549554920370555e+00
 9.363686332985863e-01	 2.049134595171063e+00	 8.455572690928566e+00
 9.169991884012939e-01	 2.057875417352409e+00	 8.361152954622691e+00
 8.975821480218735e-01	 2.066418398267170e+00	 8.266544594303223e+00
 8.781204295701049e-01	 2.074763410675641e+00	 8.172040819197509e+00
 8.586169419132345e-01	 2.082910382504116e+00	 8.077946822303510e+00
 8.390745841266316e-01	 2.090859296381037e+00	 7.984550269075301e+00
 8.194962442647739e-01	 2.098610189140870e+00	 7.892094661974843e+00
 7.998847981534678e-01	 2.106163151296597e+00	 7.800755604637621e+00
 7.802431082041756e-01	 2.113518326481731e+00	 7.710619969202940e+00
 9.787711711577025e-01	 2.039014311041749e+00	 8.657430502384166e+00
 9.594302492564809e-01	 2.048185989529952e+00	 8.565159049575175e+00
 9.400356671934595e-01	 2.057159475277577e+00	 8.472214379358055e+00
 9.205903671161286e-01	 2.065934528519404e+00	 8.378763154369651e+00
 9.010972851618301e-01	 2.074510965702969e+00	 8.285046978501400e+00
 8.815593501656065e-01	 2.082888659090260e+00	 8.191346638986717e+00
 8.619794823865147e-01	 2.091067536325310e+00	 8.097949201558844e+00
 8.423605922533861e-01	 2.099047579968526e+00	 8.005118025171608e+00
 8.227055791309997e-01	 2.106828826998619e+00	 7.913065740887124e+00
 8.030173301075735e-01	 2.114411368283037e+00	 7.821930218171726e+00
 7.832987188044471e-01	 2.121795348017791e+00	 7.731753521142211e+00
 9.825893103898176e-01	 2.046968407736056e+00	 8.673393551687001e+00
 9.631729404829260e-01	 2.056175864500697e+00	 8.581991227763398e+00
 9.437027010884343e-01	 2.065184355384420e+00	 8.489791932050116e+00
 9.241815458310317e-01	 2.073993639686688e+00	 8.396979318652669e+00
 9.046124223018104e-01	 2.082603533139005e+00	 8.303807368354699e+00
 8.849982707610817e-01	 2.091013907505061e+00	 8.210563941652067e+00
 8.653420228597120e-01	 2.099224690146626e+00	 8.117537274929244e+00
 8.456466003799976e-01	 2.107235863556074e+00	 8.024985486883638e+00
 8.259149139970219e-01	 2.115047464856373e+00	 7.933109139854812e+00
 8.061498620614156e-01	 2.122659585269433e+00	 7.842026878812241e+00
 7.863543294043980e-01	 2.130072369553765e+00	 7.751754149528834e+00
 9.864074496219992e-01	 2.054922504430628e+00	 8.690119544392484e+00
 9.669156317094336e-01	 2.064165739471699e+00	 8.599341297805124e+00
 9.473697349834607e-01	 2.073209235491492e+00	 8.507588706317474e+00
 9.277727245459672e-01	 2.082052750854160e+00	 8.415082030086637e+00
 9.081275594418009e-01	 2.090696100575181e+00	 8.322107111938699e+00
 8.884371913565380e-01	 2.099139155919944e+00	 8.228978202221112e+00
 8.687045633328584e-01	 2.107381843967966e+00	 8.136003819282703e+00
 8.489326085065232e-01	 2.115424147143592e+00	 8.043455713337062e+00
 8.291242488629210e-01	 2.123266102714041e+00	 7.951540978443017e+00
 8.092823940150953e-01	 2.130907802255696e+00	 7.860377334881221e+00
 7.894099400041461e-01	 2.138349391089572e+00	 7.769971582439464e+00
 9.902255888541812e-01	 2.062876601125368e+00	 8.706915427247811e+00
 9.706583229359409e-01	 2.072155614442857e+00	 8.616505527677445e+00
 9.510367688784858e-01	 2.081234115598693e+00	 8.524894132438074e+00
 9.313639032609008e-01	 2.090111862021721e+00	 8.432357564068504e+00
 9.116426965817855e-01	 2.098788668011396e+00	 8.339232846282339e+00
 8.918761119519836e-01	 2.107264404334813e+00	 8.245879761500953e+00
 8.720671038059857e-01	 2.115538997789235e+00	 8.152646038948808e+00
 8.522186166330196e-01	 2.123612430730982e+00	 8.059835741754524e+00
 8.323335837287754e-01	 2.131484740571530e+00	 7.967680897892951e+00
 8.124149259687123e-01	 2.139156019241738e+00	 7.876316396781262e+00
 7.924655506038089e-01	 2.146626412625126e+00	 7.785758151029976e+00
 9.940437280862963e-01	 2.070830697820173e+00	 8.723095008694081e+00
 9.744010141623860e-01	 2.080145489414070e+00	 8.632786716384633e+00
 9.547038027734588e-01	 2.089258995705922e+00	 8.541003809627263e+00
 9.349550819757968e-01	 2.098170973189272e+00	 8.448097975850054e+00
 9.151578337217495e-01	 2.106881235447553e+00	 8.354476576533724e+00
 8.953150325474258e-01	 2.115389652749569e+00	 8.260563898271613e+00
 8.754296442791274e-01	 2.123696151610336e+00	 8.166765631815938e+00
 8.555046247595429e-01	 2.131800714318151e+00	 8.073436648274448e+00
 8.355429185946665e-01	 2.139703378428751e+00	 7.980852117419754e+00
 8.155474579223673e-01	 2.147404236227472e+00	 7.889181989468987e+00
 7.955211612035042e-01	 2.154903434160346e+00	 7.798468838820718e+00
 9.978618673182789e-01	 2.078784794514945e+00	 8.737979076554627e+00
 9.781437053887063e-01	 2.088135364385238e+00	 8.647494300673124e+00
 9.583708366683288e-01	 2.097283875813081e+00	 8.555219602861690e+00
 9.385462606906200e-01	 2.106230084356712e+00	 8.461601188500126e+00
 9.186729708616787e-01	 2.114973802883553e+00	 8.367135756033559e+00
 8.987539531428741e-01	 2.123514901164115e+00	 8.272330902389022e+00
 8.787921847523151e-01	 2.131853305431174e+00	 8.177668856324697e+00
 8.587906328861503e-01	 2.139988997905005e+00	 8.083573609637403e+00
 8.387522534606728e-01	 2.147922016285611e+00	 7.990381491337265e+00
 8.186799898761620e-01	 2.155652453212812e+00	 7.898315205704300e+00
 7.985767718033495e-01	 2.163180455695149e+00	 7.807461331696213e+00
 1.001680006550062e+00	 2.086738891209582e+00	 8.750895516419856e+00
 9.818863966148403e-01	 2.096125239356263e+00	 8.659944462518894e+00
 9.620378705630438e-01	 2.105308755920068e+00	 8.566849740532222e+00
 9.421374394053353e-01	 2.114289195523944e+00	 8.472171081731272e+00
 9.221881080015569e-01	 2.123066370319294e+00	 8.376513367272482e+00
 9.021928737383350e-01	 2.131640149578353e+00	 8.280486148773218e+00
 8.821547252255810e-01	 2.140010459251651e+00	 8.184666599332818e+00
 8.620766410128983e-01	 2.148177281491450e+00	 8.089565965717245e+00
 8.419615883268757e-01	 2.156140654142021e+00	 7.995599566988079e+00
 8.218125218301959e-01	 2.163900670197667e+00	 7.903060360054539e+00
 8.016323824034624e-01	 2.171457477229453e+00	 7.812096068599703e+00
 1.005498145781580e+00	 2.094692987903986e+00	 8.761179430709088e+00
 9.856290878407250e-01	 2.104115114327044e+00	 8.669460237367865e+00
 9.657049044575525e-01	 2.113333636026786e+00	 8.575208912903308e+00
 9.457286181199082e-01	 2.122348306690866e+00	 8.479117581569781e+00
 9.257032451413704e-01	 2.131158937754683e+00	 8.381918003708211e+00
 9.056317943338176e-01	 2.139765397992186e+00	 8.284340172258231e+00
 8.855172656989574e-01	 2.148167613071671e+00	 8.187074444828625e+00
 8.653626491398443e-01	 2.156365565077391e+00	 8.090737282874809e+00
 8.451709231933541e-01	 2.164359291997887e+00	 7.995840643457422e+00
 8.249450537845703e-01	 2.172148887181954e+00	 7.902765043632813e+00
 8.046879930039602e-01	 2.179734498763173e+00	 7.811736292904934e+00
 7.741318870022023e-01	 2.096964283409688e+00	 7.667567907199438e+00
 7.546201775254084e-01	 2.104064615596794e+00	 7.579471695728527e+00
 7.350841034828635e-01	 2.110969215836829e+00	 7.492679536099562e+00
 7.155264558413447e-01	 2.117678379563855e+00	 7.405959587345775e+00
 6.959500078380153e-01	 2.124192452387945e+00	 7.319611121511326e+00
 6.763575139261093e-01	 2.130511829406764e+00	 7.234116285706427e+00
 6.567517087467765e-01	 2.136636954492820e+00	 7.149791125384732e+00
 6.371353061276586e-01	 2.142568319557409e+00	 7.066748455208380e+00
 6.175109981087186e-01	 2.148306463792312e+00	 6.984869890643675e+00
 5.978814539958085e-01	 2.153851972890297e+00	 6.903786587170226e+00
 5.782493194424027e-01	 2.159205478245480e+00	 6.822868192624110e+00
 7.771874976034669e-01	 2.105241304945670e+00	 7.689006320161628e+00
 7.575987725853764e-01	 2.112369663171694e+00	 7.600485444544763e+00
 7.379855868311260e-01	 2.119301516868275e+00	 7.512788463332214e+00
 7.183507423238283e-01	 2.126037162635601e+00	 7.424690247089261e+00
 6.986970232470018e-01	 2.132576947447920e+00	 7.336487904786761e+00
 6.790271949260915e-01	 2.138921267962409e+00	 7.248828030626184e+00
 6.593440027962585e-01	 2.145070569803611e+00	 7.162166482691623e+00
 6.396501713970013e-01	 2.151025346824469e+00	 7.076731653350162e+00
 6.199484033941417e-01	 2.156786140345039e+00	 6.992497175326834e+00
 6.002413786296545e-01	 2.162353538369905e+00	 6.909163594292766e+00
 5.805317531997776e-01	 2.167728174785390e+00	 6.826148496431069e+00
 7.802431082041756e-01	 2.113518326481731e+00	 7.710619969202940e+00
 7.605773676447123e-01	 2.120674710746636e+00	 7.621707555436055e+00
 7.408870701786928e-01	 2.127633817899733e+00	 7.533290904533311e+00
 7.211750288055655e-01	 2.134395945707333e+00	 7.444232067236503e+00
 7.014440386552016e-01	 2.140961442507862e+00	 7.354776211816550e+00
 6.816968759252573e-01	 2.147330706518005e+00	 7.265748194793391e+00
 6.619362968449025e-01	 2.153504185114335e+00	 7.177756472830598e+00
 6.421650366654920e-01	 2.159482374091446e+00	 7.091156753705738e+00
 6.223858086787040e-01	 2.165265816897660e+00	 7.006025394165451e+00
 6.026013032626345e-01	 2.170855103849377e+00	 6.922142029683902e+00
 5.828141869562861e-01	 2.176250871325130e+00	 6.838980907146420e+00
 7.832987188044471e-01	 2.121795348017791e+00	 7.731753521142211e+00
 7.635559627035454e-01	 2.128979758321541e+00	 7.642505111689685e+00
 7.437885535257025e-01	 2.135966118931131e+00	 7.553583133951985e+00
 7.239993152866990e-01	 2.142754728778989e+00	 7.464005579217666e+00
 7.041910540627595e-01	 2.149345937567716e+00	 7.373937618014176e+00
 6.843665569237507e-01	 2.155740145073506e+00	 7.284385762916852e+00
 6.645285908928505e-01	 2.161937800424958e+00	 7.196123496569133e+00
 6.446799019332691e-01	 2.167939401358312e+00	 7.109645192101809e+00
 6.248232139625406e-01	 2.173745493450156e+00	 7.025140221206644e+00
 6.049612278948836e-01	 2.179356669328708e+00	 6.942476566098662e+00
 5.850966207120616e-01	 2.184773567864700e+00	 6.861193388553173e+00
 7.863543294043980e-01	 2.130072369553765e+00	 7.751754149528832e+00
 7.665345577620063e-01	 2.137284805896333e+00	 7.662247231711648e+00
 7.466900368722924e-01	 2.144298419962397e+00	 7.573066442975384e+00
 7.268236017673713e-01	 2.151113511850506e+00	 7.483431257188691e+00
 7.069380694698197e-01	 2.157730432627428e+00	 7.393432206670691e+00
 6.870362379217146e-01	 2.164149583628863e+00	 7.304246844839557e+00
 6.671208849402435e-01	 2.170371415735439e+00	 7.216825752125354e+00
 6.471947672004714e-01	 2.176396428625035e+00	 7.131812931732382e+00
 6.272606192457887e-01	 2.182225170002508e+00	 7.049520647514302e+00
 6.073211525265351e-01	 2.187858234807885e+00	 6.969914044426211e+00
 5.873790544672369e-01	 2.193296264404102e+00	 6.892604986500946e+00
 7.894099400041461e-01	 2.138349391089572e+00	 7.769971582439464e+00
 7.695131528202245e-01	 2.145589853470934e+00	 7.680305114779129e+00
 7.495915202186005e-01	 2.152630720993461e+00	 7.591138132192031e+00
 7.296478882477241e-01	 2.159472294921819e+00	 7.501929820333648e+00
 7.096850848765260e-01	 2.166114927686940e+00	 7.412718854918332e+00
 6.897059189192931e-01	 2.172559022184030e+00	 7.324834947080630e+00
 6.697131789872235e-01	 2.178805031045739e+00	 7.239417494141800e+00
 6.497096324672377e-01	 2.184853455891588e+00	 7.157270711348877e+00
 6.296980245285837e-01	 2.190704846554697e+00	 7.078839220289376e+00
 6.096810771577232e-01	 2.196359800286902e+00	 7.004193705380334e+00
 5.896614882219460e-01	 2.201818960943336e+00	 6.933026054730710e+00
 7.924655506038089e-01	 2.146626412625126e+00	 7.785758151029976e+00
 7.724917478783301e-01	 2.153894901045267e+00	 7.696052087464911e+00
 7.524930035647649e-01	 2.160963022024253e+00	 7.607197119291184e+00
 7.324721747279002e-01	 2.167831077992863e+00	 7.518922535593642e+00
 7.124321002830218e-01	 2.174499422746198e+00	 7.431255519962652e+00
 6.923755999166294e-01	 2.180968460738960e+00	 7.345651244467094e+00
 6.723054730339317e-01	 2.187238646355822e+00	 7.263449292548465e+00
 6.522244977337072e-01	 2.193310483157944e+00	 7.185624293120679e+00
 6.321354298110623e-01	 2.199184523106704e+00	 7.112762281424859e+00
 6.120410017885825e-01	 2.204861365765747e+00	 7.045047420373213e+00
 5.919439219763216e-01	 2.210341657482403e+00	 6.982258479617833e+00
 7.955211612035042e-01	 2.154903434160346e+00	 7.798468838820718e+00
 7.754703429364526e-01	 2.162199948619255e+00	 7.708863650713833e+00
 7.553944869109233e-01	 2.169295323054702e+00	 7.620643985253399e+00
 7.352964612080417e-01	 2.176189861063577e+00	 7.533831520811023e+00
 7.151791156894516e-01	 2.182883917805145e+00	 7.448499525576058e+00
 6.950452809138665e-01	 2.189377899293604e+00	 7.366194851851361e+00
 6.748977670805096e-01	 2.195672261665649e+00	 7.288468291317315e+00
 6.547393630000186e-01	 2.201767510424071e+00	 7.216474710174701e+00
 6.345728350933605e-01	 2.207664199658510e+00	 7.150950205510146e+00
 6.144009264192466e-01	 2.213362931244411e+00	 7.092199921594977e+00
 5.942263557304979e-01	 2.218864354021305e+00	 7.040095903863244e+00
 7.985767718033495e-01	 2.163180455695149e+00	 7.807461331696213e+00
 7.784489379947221e-01	 2.170504996192819e+00	 7.718117527555698e+00
 7.582959702572135e-01	 2.177627624084735e+00	 7.630881021072682e+00
 7.381207476882913e-01	 2.184548644133895e+00	 7.546080048277751e+00
 7.179261310959593e-01	 2.191268412863725e+00	 7.463907848846050e+00
 6.977149619111488e-01	 2.197787337847918e+00	 7.385963095913114e+00
 6.774900611270990e-01	 2.204105876975182e+00	 7.314018467111710e+00
 6.572542282663105e-01	 2.210224537689943e+00	 7.249418513822128e+00
 6.370102403756142e-01	 2.216143876210095e+00	 7.193057637299859e+00
 6.167608510498497e-01	 2.221864496722888e+00	 7.145369031319458e+00
 5.965087894846076e-01	 2.227387050560041e+00	 7.099333033536278e+00
 8.016323824034624e-01	 2.171457477229453e+00	 7.812096068599703e+00
 7.814275330532683e-01	 2.178810043765883e+00	 7.723193711436059e+00
 7.611974536037734e-01	 2.185959925114283e+00	 7.637312274996338e+00
 7.409450341687908e-01	 2.192907427203756e+00	 7.555092906401490e+00
 7.206731465026885e-01	 2.199652907921883e+00	 7.476937407170941e+00
 7.003846429086187e-01	 2.206196776401851e+00	 7.404451787043346e+00
 6.800823551738414e-01	 2.212539492284382e+00	 7.339640887833089e+00
 6.597690935327222e-01	 2.218681564955529e+00	 7.284048020481569e+00
 6.394476456579596e-01	 2.224623552761442e+00	 7.237279465885647e+00
 6.191207756805260e-01	 2.230366062201167e+00	 7.187415982762874e+00
 5.987912232387845e-01	 2.235909747098613e+00	 7.132141195712792e+00
 8.046879930039602e-01	 2.179734498763173e+00	 7.811736292904934e+00
 7.844061281122209e-01	 2.187115091338370e+00	 7.723474515149920e+00
 7.640989369507413e-01	 2.194292226143276e+00	 7.639343600268280e+00
 7.437693206496833e-01	 2.201266210273095e+00	 7.560307305247931e+00
 7.234201619097839e-01	 2.208037402979565e+00	 7.487045345496634e+00
 7.030543239064208e-01	 2.214606214955360e+00	 7.421155491307443e+00
 6.826746492208779e-01	 2.220973107593211e+00	 7.364873971067946e+00
 6.622839587993923e-01	 2.227138592220802e+00	 7.314140011462450e+00
 6.418850509405333e-01	 2.233103229312530e+00	 7.258501357820527e+00
 6.214807003114096e-01	 2.238867627679239e+00	 7.198714084211736e+00
 6.010736569931618e-01	 2.244432443637021e+00	 7.135724995314636e+00
 5.782493194424027e-01	 2.159205478245480e+00	 6.822868192624110e+00
 5.586172158277957e-01	 2.164367656603575e+00	 6.740922399128033e+00
 5.389877401750129e-01	 2.169339230627673e+00	 6.658475546803833e+00
 5.193634634720780e-01	 2.174120966629006e+00	 6.577087934464573e+00
 4.997469295961534e-01	 2.178713673225113e+00	 6.498079336928569e+00
 4.801406545416229e-01	 2.183118200453216e+00	 6.422546828221446e+00
 4.605471256781661e-01	 2.187335438869950e+00	 6.351387350459545e+00
 4.409688010389614e-01	 2.191366318638528e+00	 6.285324389531349e+00
 4.214081086391326e-01	 2.195211808604377e+00	 6.224938116793671e+00
 4.018674458244917e-01	 2.198872915360329e+00	 6.170698358535312e+00
 3.823491786506145e-01	 2.202350682302378e+00	 6.122999761738413e+00
 5.805317531997776e-01	 2.167728174785390e+00	 6.826148496431069e+00
 5.608221588307604e-01	 2.172910729008428e+00	 6.742475698787264e+00
 5.411152027964579e-01	 2.177901926554573e+00	 6.658896205581204e+00
 5.214134662329624e-01	 2.182702536759802e+00	 6.577003966133375e+00
 5.017195030584956e-01	 2.187313371433394e+00	 6.498138157259612e+00
 4.820358391984427e-01	 2.191735283967799e+00	 6.423403026392657e+00
 4.623649718404984e-01	 2.195969168434815e+00	 6.353692607477789e+00
 4.427093687200609e-01	 2.200015958669146e+00	 6.289719650509824e+00
 4.230714674359884e-01	 2.203876627340405e+00	 6.232048103717227e+00
 4.034536747967711e-01	 2.207552185014595e+00	 6.181128490097426e+00
 3.838583661971548e-01	 2.211043679206151e+00	 6.137335527051558e+00
 5.828141869562861e-01	 2.176250871325130e+00	 6.838980907146420e+00
 5.630271018328598e-01	 2.181453801413066e+00	 6.755779832573018e+00
 5.432426654170399e-01	 2.186464622481203e+00	 6.673459005452107e+00
 5.234634689929882e-01	 2.191284106890273e+00	 6.593573267159807e+00
 5.036920765199844e-01	 2.195913069641293e+00	 6.517407538332277e+00
 4.839310238544153e-01	 2.200352367481941e+00	 6.445998841075298e+00
 4.641828180019897e-01	 2.204602897999183e+00	 6.380163322423536e+00
 4.444499364003264e-01	 2.208665598699223e+00	 6.320527599095728e+00
 4.247348262320168e-01	 2.212541446075854e+00	 6.267563741778718e+00
 4.050399037682288e-01	 2.216231454668254e+00	 6.221627220038641e+00
 3.853675537428787e-01	 2.219736676109307e+00	 6.182997136285164e+00
 5.850966207120616e-01	 2.184773567864700e+00	 6.861193388553173e+00
 5.652320448342278e-01	 2.189996873817498e+00	 6.780733661318227e+00
 5.453701280368968e-01	 2.195027318407586e+00	 6.702125234311748e+00
 5.255134717522970e-01	 2.199865677020448e+00	 6.626811495991918e+00
 5.056646499807671e-01	 2.204512767848845e+00	 6.555949846206851e+00
 4.858262085096931e-01	 2.208969450995686e+00	 6.490436057694291e+00
 4.660006641627995e-01	 2.213236627563107e+00	 6.430933768752495e+00
 4.461905040799235e-01	 2.217315238728811e+00	 6.377908405728686e+00
 4.263981850273895e-01	 2.221206264810776e+00	 6.331664832213297e+00
 4.066261327390430e-01	 2.224910724321361e+00	 6.290407878707790e+00
 3.868767412879703e-01	 2.228429673011896e+00	 6.250004561571155e+00
 5.873790544672369e-01	 2.193296264404102e+00	 6.892604986500946e+00
 5.674369878349996e-01	 2.198539946221737e+00	 6.817226201917871e+00
 5.474975906561652e-01	 2.203590014333742e+00	 6.744845657225483e+00
 5.275634745110304e-01	 2.208447247150357e+00	 6.676723341975215e+00
 5.076372234409896e-01	 2.213112466056087e+00	 6.613816249370557e+00
 4.877213931644295e-01	 2.217586534509080e+00	 6.556805238318121e+00
 4.678185103230870e-01	 2.221870357126636e+00	 6.506127158081136e+00
 4.479310717590181e-01	 2.225964878757965e+00	 6.458094884498284e+00
 4.280615438222796e-01	 2.229871083545230e+00	 6.408475198060622e+00
 4.082123617093930e-01	 2.233589993973973e+00	 6.358805174705123e+00
 3.883859288326132e-01	 2.237122669913967e+00	 6.310691704796334e+00
 5.896614882219460e-01	 2.201818960943336e+00	 6.933026054730710e+00
 5.696419308353097e-01	 2.207083018625792e+00	 6.865136846910161e+00
 5.496250532749830e-01	 2.212152710259691e+00	 6.801560727633430e+00
 5.296134772693294e-01	 2.217028817280029e+00	 6.743302726251603e+00
 5.096097969007990e-01	 2.221712164263061e+00	 6.691046907601590e+00
 4.896165778187765e-01	 2.226203618022165e+00	 6.640733365233227e+00
 4.696363564830114e-01	 2.230504086689820e+00	 6.586760719483790e+00
 4.496716394377758e-01	 2.234614518786735e+00	 6.530543504408340e+00
 4.297249026168588e-01	 2.238535902279266e+00	 6.473571755460311e+00
 4.097985906794562e-01	 2.242269263626135e+00	 6.417362017790328e+00
 3.898951163769912e-01	 2.245815666815570e+00	 6.363470023277566e+00
 5.919439219763216e-01	 2.210341657482403e+00	 6.982258479617833e+00
 5.718468738352918e-01	 2.215626091029676e+00	 6.924335582741611e+00
 5.517525158934872e-01	 2.220715406185453e+00	 6.872200797077711e+00
 5.316634800273360e-01	 2.225610387409493e+00	 6.823341609840947e+00
 5.115823703603422e-01	 2.230311862469800e+00	 6.769531070587772e+00
 4.915117624728872e-01	 2.234820701534987e+00	 6.711584962782668e+00
 4.714542026427314e-01	 2.239137816252708e+00	 6.650884367700045e+00
 4.514122071163629e-01	 2.243264158815177e+00	 6.588806469854946e+00
 4.313882614112995e-01	 2.247200721012941e+00	 6.526739049613548e+00
 4.113848196494116e-01	 2.250948533277908e+00	 6.466094028783433e+00
 3.914043039212879e-01	 2.254508663716754e+00	 6.408320140276713e+00
 5.942263557304979e-01	 2.218864354021305e+00	 7.040095903863244e+00
 5.740518168350808e-01	 2.224169163433397e+00	 6.993645855199414e+00
 5.538799785118151e-01	 2.229278102111049e+00	 6.943174596290916e+00
 5.337134827851910e-01	 2.234191957538781e+00	 6.887160014574322e+00
 5.135549438197654e-01	 2.238911560676342e+00	 6.826890484267915e+00
 4.934069471269141e-01	 2.243437785047590e+00	 6.763615787031718e+00
 4.732720488024067e-01	 2.247771545815349e+00	 6.698563838909238e+00
 4.531527747949448e-01	 2.251913798843344e+00	 6.632956308858412e+00
 4.330516202057744e-01	 2.255865539746309e+00	 6.568023198691339e+00
 4.129710486194372e-01	 2.259627802929341e+00	 6.505016456663259e+00
 3.929134914656874e-01	 2.263201660617569e+00	 6.445222698597240e+00
 5.965087894846076e-01	 2.227387050560041e+00	 7.099333033536278e+00
 5.762567598348114e-01	 2.232712235836967e+00	 7.046800414823677e+00
 5.560074411301041e-01	 2.237840798036500e+00	 6.989177277636216e+00
 5.357634855430367e-01	 2.242773527667920e+00	 6.927608402640272e+00
 5.155275172792155e-01	 2.247511258882727e+00	 6.863179172680978e+00
 4.953021317810100e-01	 2.252054868560018e+00	 6.796933704692036e+00
 4.750898949621962e-01	 2.256405275377793e+00	 6.729891776986541e+00
 4.548933424736874e-01	 2.260563438871286e+00	 6.663064621256819e+00
 4.347149790004553e-01	 2.264530358479424e+00	 6.597469651879492e+00
 4.145572775897117e-01	 2.268307072580489e+00	 6.534144207566658e+00
 3.944226790103732e-01	 2.271894657518064e+00	 6.474158382054823e+00
 5.987912232387845e-01	 2.235909747098613e+00	 7.132141195712792e+00
 5.784617028346182e-01	 2.241255308240398e+00	 7.072477465998723e+00
 5.581349037484914e-01	 2.246403493961826e+00	 7.009734747062961e+00
 5.378134883010135e-01	 2.251355097796938e+00	 6.944803694521438e+00
 5.175000907388394e-01	 2.256110957088990e+00	 6.878512519029597e+00
 4.971973164353277e-01	 2.260671952072315e+00	 6.811645415397271e+00
 4.769077411222592e-01	 2.265039004940090e+00	 6.744959755491912e+00
 4.566339101527566e-01	 2.269213078899059e+00	 6.679202116988111e+00
 4.363783377955150e-01	 2.273195177212341e+00	 6.615123223340571e+00
 4.161435065604135e-01	 2.276986342231405e+00	 6.553491872831607e+00
 3.959318665555291e-01	 2.280587654418289e+00	 6.495107936202221e+00
 6.010736569931618e-01	 2.244432443637021e+00	 7.135724995314636e+00
 5.806666458346349e-01	 2.249798380643699e+00	 7.070772246959513e+00
 5.602623663671141e-01	 2.254966189887047e+00	 7.004956779263624e+00
 5.398634910592640e-01	 2.259936667925870e+00	 6.938861772336963e+00
 5.194726641987837e-01	 2.264710655295170e+00	 6.873004773796871e+00
 4.990925010900198e-01	 2.269289035584527e+00	 6.807856491604962e+00
 4.787255872827550e-01	 2.273672734502291e+00	 6.743858317114893e+00
 4.583744778323183e-01	 2.277862718926716e+00	 6.681438653120260e+00
 4.380416965911256e-01	 2.281859995945114e+00	 6.621028125067992e+00
 4.177297355317209e-01	 2.285665611882142e+00	 6.563073756109130e+00
 3.974410541013390e-01	 2.289280651318292e+00	 6.508052188328453e+00
 3.823491786506145e-01	 2.202350682302378e+00	 6.122999761738413e+00
 3.628523302823573e-01	 2.205646733239143e+00	 6.081973693690006e+00
 3.433825281487635e-01	 2.208761574701650e+00	 6.046689322077976e+00
 3.239420471692807e-01	 2.211696353730531e+00	 6.015490498159272e+00
 3.045331286623382e-01	 2.214452250366265e+00	 5.986978819818551e+00
 2.851579798744769e-01	 2.217030476671454e+00	 5.960030199573945e+00
 2.658187735393538e-01	 2.219432275749678e+00	 5.933815466844685e+00
 2.465176474664039e-01	 2.221658920761856e+00	 5.907814167814728e+00
 2.272567041589152e-01	 2.223711713941045e+00	 5.881458612481515e+00
 2.080380104612432e-01	 2.225591985606564e+00	 5.854355150070976e+00
 1.888635972348596e-01	 2.227301093178355e+00	 5.827548445390651e+00
 3.838583661971548e-01	 2.211043679206151e+00	 6.137335527051560e+00
 3.642845609462932e-01	 2.214352740133107e+00	 6.100753173768859e+00
 3.447379086855124e-01	 2.217479876325829e+00	 6.070324682172174e+00
 3.252206933137017e-01	 2.220426239352480e+00	 6.044101062044569e+00
 3.057351649961038e-01	 2.223193013911316e+00	 6.020195539765584e+00
 2.862835396915866e-01	 2.225781416849120e+00	 5.995252144713036e+00
 2.668679987099064e-01	 2.228192696176171e+00	 5.968674021208436e+00
 2.474906882987467e-01	 2.230428130078733e+00	 5.940819423368925e+00
 2.281537192602854e-01	 2.232489025929950e+00	 5.912261132022873e+00
 2.088591665970166e-01	 2.234376719300101e+00	 5.883770041984318e+00
 1.896090691865213e-01	 2.236092572967051e+00	 5.856299817618315e+00
 3.853675537428787e-01	 2.219736676109307e+00	 6.182997136285163e+00
 3.657167916094172e-01	 2.223058747026457e+00	 6.151433552533253e+00
 3.460932892214530e-01	 2.226198177949418e+00	 6.122381020316331e+00
 3.264993394573170e-01	 2.229156124973871e+00	 6.093493384826281e+00
 3.069372013290657e-01	 2.231933777455859e+00	 6.064272215369559e+00
 2.874090995078942e-01	 2.234532357026339e+00	 6.034486748416082e+00
 2.679172238796579e-01	 2.236953116602290e+00	 6.004154103339694e+00
 2.484637291302891e-01	 2.239197339395315e+00	 5.973520740104899e+00
 2.290507343608555e-01	 2.241266337918653e+00	 5.943045108428918e+00
 2.096803227319902e-01	 2.243161452993535e+00	 5.913381435743785e+00
 1.903545411373831e-01	 2.244884052755747e+00	 5.885364599567485e+00
 3.868767412879703e-01	 2.228429673011896e+00	 6.250004561571155e+00
 3.671490222719179e-01	 2.231764753919240e+00	 6.211512999444034e+00
 3.474486697567771e-01	 2.234916479572446e+00	 6.175188660751695e+00
 3.277779856003216e-01	 2.237886010594730e+00	 6.140190429436229e+00
 3.081392376614210e-01	 2.240674540999905e+00	 6.105938430325061e+00
 2.885346593235978e-01	 2.243283297203106e+00	 6.072117346218136e+00
 2.689664490488076e-01	 2.245713537028013e+00	 6.038656751869067e+00
 2.494367699612307e-01	 2.247966548711565e+00	 6.005712713681087e+00
 2.299477494608254e-01	 2.250043649907096e+00	 5.973650602380409e+00
 2.105014788663636e-01	 2.251946186686789e+00	 5.943029063741244e+00
 1.911000130876450e-01	 2.253675532544351e+00	 5.914585090745842e+00
 3.883859288326132e-01	 2.237122669913967e+00	 6.310691704796334e+00
 3.685812529339829e-01	 2.240470760811494e+00	 6.265414609233261e+00
 3.488040502916766e-01	 2.243634781194952e+00	 6.223266019801053e+00
 3.290566317429092e-01	 2.246615896215075e+00	 6.183364760718932e+00
 3.093412739933658e-01	 2.249415304543459e+00	 6.145070971606911e+00
 2.896602191388955e-01	 2.252034237379413e+00	 6.108006149636333e+00
 2.700156742175540e-01	 2.254473957453314e+00	 6.072033581275580e+00
 2.504098107917710e-01	 2.256735758027442e+00	 6.037240064509952e+00
 2.308447645603949e-01	 2.258820961895221e+00	 6.003918866505252e+00
 2.113226350003370e-01	 2.260730920379785e+00	 5.972553859508587e+00
 1.918454850375068e-01	 2.262467012332769e+00	 5.943804776111864e+00
 3.898951163769912e-01	 2.245815666815570e+00	 6.363470023277566e+00
 3.700134835958010e-01	 2.249176767703266e+00	 6.313085662435536e+00
 3.501594308263428e-01	 2.252353082816968e+00	 6.266532503673000e+00
 3.303352778852750e-01	 2.255345781834930e+00	 6.222912656318178e+00
 3.105433103250967e-01	 2.258156068086532e+00	 6.181547467892393e+00
 2.907857789539853e-01	 2.260785177555253e+00	 6.142016349521042e+00
 2.710648993860964e-01	 2.263234377878171e+00	 6.104137285309276e+00
 2.513828516221095e-01	 2.265504967342905e+00	 6.067948657942411e+00
 2.317417796597639e-01	 2.267598273882971e+00	 6.033692333158516e+00
 2.121437911341104e-01	 2.269515654072454e+00	 6.001797943572030e+00
 1.925909569871686e-01	 2.271258492120908e+00	 5.972868310689655e+00
 3.914043039212879e-01	 2.254508663716754e+00	 6.408320140276713e+00
 3.714457142575599e-01	 2.257882774594598e+00	 6.354474644817179e+00
 3.515148113609678e-01	 2.261071384438524e+00	 6.304907975989627e+00
 3.316139240276131e-01	 2.264075667454317e+00	 6.258731067125581e+00
 3.117453466568103e-01	 2.266896831629129e+00	 6.215246393455447e+00
 2.919113387690648e-01	 2.269536117730618e+00	 6.174012114589099e+00
 2.721141245546337e-01	 2.271994798302562e+00	 6.134821631152524e+00
 2.523558924524459e-01	 2.274274176657915e+00	 6.097685494967534e+00
 2.326387947591321e-01	 2.276375585870287e+00	 6.062814602488263e+00
 2.129649472678835e-01	 2.278300387764714e+00	 6.030604609634549e+00
 1.933364289368304e-01	 2.280049971908675e+00	 6.001621504538053e+00
 3.929134914656874e-01	 2.263201660617569e+00	 6.445222698597240e+00
 3.728779449194480e-01	 2.266588781485531e+00	 6.389531474521007e+00
 3.528701918957430e-01	 2.269789686059657e+00	 6.338312775314753e+00
 3.328925701701180e-01	 2.272805553073256e+00	 6.290717627395789e+00
 3.129473829887030e-01	 2.275637595171260e+00	 6.246047071993269e+00
 2.930368985843323e-01	 2.278287057905504e+00	 6.203858590007405e+00
 2.731633497233648e-01	 2.280755218726461e+00	 6.163941453728373e+00
 2.533289332829796e-01	 2.283043385972431e+00	 6.126298703132622e+00
 2.335358098586995e-01	 2.285152897857111e+00	 6.091130430780528e+00
 2.137861034018567e-01	 2.287085121456493e+00	 6.058818311077834e+00
 1.940819008866921e-01	 2.288841451695976e+00	 6.029911308066427e+00
 3.944226790103732e-01	 2.271894657518064e+00	 6.474158382054823e+00
 3.743101755816536e-01	 2.275294788376108e+00	 6.418203490976733e+00
 3.542255724308606e-01	 2.278507987680400e+00	 6.366667732318643e+00
 3.341712163129843e-01	 2.281535438691769e+00	 6.318770664659889e+00
 3.141494193209712e-01	 2.284378358712934e+00	 6.273829680387749e+00
 2.941624583999858e-01	 2.287037998079902e+00	 6.231421896025502e+00
 2.742125748924886e-01	 2.289515639149848e+00	 6.191352650149295e+00
 2.543019741139103e-01	 2.291812595286413e+00	 6.153637527679780e+00
 2.344328249586660e-01	 2.293930209843388e+00	 6.118485719074706e+00
 2.146072595362296e-01	 2.295869855147714e+00	 6.086284647775251e+00
 1.948273728369537e-01	 2.297632931482718e+00	 6.057585797686135e+00
 3.959318665555291e-01	 2.280587654418289e+00	 6.495107936202221e+00
 3.757424062443647e-01	 2.284000795266373e+00	 6.440438312414928e+00
 3.555809529665118e-01	 2.287226289300784e+00	 6.389894186589750e+00
 3.354498624564063e-01	 2.290265324309880e+00	 6.342789209442680e+00
 3.153514556538118e-01	 2.293119122254156e+00	 6.298475252403885e+00
 2.952880182162232e-01	 2.295788938253804e+00	 6.256569126655521e+00
 2.752618000622042e-01	 2.298276059572699e+00	 6.216912174305074e+00
 2.552750149454373e-01	 2.300581804599820e+00	 6.179552322891057e+00
 2.353298400592313e-01	 2.302707521829055e+00	 6.144727502043435e+00
 2.154284156712022e-01	 2.304654588838302e+00	 6.112850353207470e+00
 1.955728447878152e-01	 2.306424411268809e+00	 6.084494161789699e+00
 3.974410541013390e-01	 2.289280651318292e+00	 6.508052188328453e+00
 3.771746369077695e-01	 2.292706802156369e+00	 6.456183999108515e+00
 3.569363335028887e-01	 2.295944590920846e+00	 6.407914003101729e+00
 3.367285086005786e-01	 2.298995209927609e+00	 6.362673004788068e+00
 3.165534919874212e-01	 2.301859885794940e+00	 6.319865682325953e+00
 2.964135780332426e-01	 2.304539878427208e+00	 6.279168348398397e+00
 2.763110252327106e-01	 2.307036479994991e+00	 6.240478031584233e+00
 2.562480557777606e-01	 2.309351013912615e+00	 6.203894543637850e+00
 2.362268551605955e-01	 2.311484833814059e+00	 6.169703937128882e+00
 2.162495718069747e-01	 2.313439322528182e+00	 6.138363281872091e+00
 1.963183167394766e-01	 2.315215891054156e+00	 6.110486687048605e+00
 1.888635972348596e-01	 2.227301093178355e+00	 5.827548445390649e+00
 1.697386989461173e-01	 2.228840172817007e+00	 5.802610321171015e+00
 1.506619724293075e-01	 2.230210937148586e+00	 5.779969236978085e+00
 1.316352944638852e-01	 2.231414817817765e+00	 5.759271165298998e+00
 1.126605060445370e-01	 2.232453269611154e+00	 5.740319688008356e+00
 9.373941219014767e-02	 2.233327769499624e+00	 5.723066423711549e+00
 7.487378177835993e-02	 2.234039815685173e+00	 5.707602126077501e+00
 5.606534740530249e-02	 2.234590926653027e+00	 5.694148401192174e+00
 3.731580527004347e-02	 2.234982640229672e+00	 5.683049993226035e+00
 1.862681508331029e-02	 2.235216512647499e+00	 5.674767589196611e+00
 0.000000000000000e+00	 2.235294117616666e+00	 5.669871096684935e+00
 1.896090691865213e-01	 2.236092572967051e+00	 5.856299817618315e+00
 1.704086821563501e-01	 2.237637727575971e+00	 5.831285861056879e+00
 1.512566570391123e-01	 2.239013902512914e+00	 5.809074351733201e+00
 1.321548780221677e-01	 2.240222535073460e+00	 5.789249057552321e+00
 1.131051933668601e-01	 2.241265085786478e+00	 5.771548450333844e+00
 9.410941521672982e-02	 2.242143037452657e+00	 5.755856370015049e+00
 7.516931943142079e-02	 2.242857894187619e+00	 5.742193366621951e+00
 5.628664544585469e-02	 2.243411180470268e+00	 5.730708666258574e+00
 3.746309615422838e-02	 2.243804440197124e+00	 5.721672708696360e+00
 1.870033781837339e-02	 2.244039235743249e+00	 5.715470205729070e+00
 0.000000000000000e+00	 2.244117147030466e+00	 5.712593672546536e+00
 1.903545411373831e-01	 2.244884052755747e+00	 5.885364599567485e+00
 1.710786653657838e-01	 2.246435282335047e+00	 5.860306569082479e+00
 1.518513416481237e-01	 2.247816867877463e+00	 5.838474703327409e+00
 1.326744615796724e-01	 2.249030252329490e+00	 5.819397293940524e+00
 1.135498806884355e-01	 2.250076901962240e+00	 5.802754457193512e+00
 9.447941824261366e-02	 2.250958305406227e+00	 5.788369031928669e+00
 7.546485708385678e-02	 2.251675972690686e+00	 5.776198162182439e+00
 5.650794348588412e-02	 2.252231434288208e+00	 5.766325508925433e+00
 3.761038703802571e-02	 2.252626240165328e+00	 5.758954036782432e+00
 1.877386055322171e-02	 2.252861958839786e+00	 5.754399323245790e+00
 0.000000000000000e+00	 2.252940176445066e+00	 5.753083341022743e+00
 1.911000130876450e-01	 2.253675532544351e+00	 5.914585090745842e+00
 1.717486485746180e-01	 2.255232837094122e+00	 5.889520439828273e+00
 1.524460262565400e-01	 2.256619833242108e+00	 5.868027451246510e+00
 1.331940451365936e-01	 2.257837969585706e+00	 5.849585547458106e+00
 1.139945680094499e-01	 2.258888718138283e+00	 5.833823120737842e+00
 9.484942126797379e-02	 2.259773573360162e+00	 5.820508661971380e+00
 7.576039473582419e-02	 2.260494051194198e+00	 5.809542581176386e+00
 5.672924152552148e-02	 2.261051688106654e+00	 5.800949662348700e+00
 3.775767792153237e-02	 2.261448040134089e+00	 5.794872096740489e+00
 1.884738328790895e-02	 2.261684681936912e+00	 5.791563040426810e+00
 0.000000000000000e+00	 2.261763205860265e+00	 5.791380645156252e+00
 1.918454850375068e-01	 2.262467012332769e+00	 5.943804776111864e+00
 1.724186317830527e-01	 2.264030391853086e+00	 5.918776608123335e+00
 1.530407108645597e-01	 2.265422798606721e+00	 5.897590814161338e+00
 1.337136286931259e-01	 2.266645686841974e+00	 5.879684434176656e+00
 1.144392553300906e-01	 2.267700534314453e+00	 5.864640645868703e+00
 9.521942429298476e-02	 2.268588841314297e+00	 5.852180121697014e+00
 7.605593238747917e-02	 2.269312129697973e+00	 5.842153084787892e+00
 5.695053956489744e-02	 2.269871941925420e+00	 5.834532004469623e+00
 3.790496880484522e-02	 2.270269840103212e+00	 5.829404873772416e+00
 1.892090602248878e-02	 2.270507405034428e+00	 5.826969013057422e+00
 0.000000000000000e+00	 2.270586235275865e+00	 5.827525347120507e+00
 1.925909569871686e-01	 2.271258492120908e+00	 5.972868310689655e+00
 1.730886149912876e-01	 2.272827946611831e+00	 5.947925333181091e+00
 1.536353954723810e-01	 2.274225763971177e+00	 5.927024054451438e+00
 1.342332122494638e-01	 2.275453404098145e+00	 5.909565498995470e+00
 1.148839426505443e-01	 2.276512350490592e+00	 5.895094018019940e+00
 9.558942731782116e-02	 2.277404109268463e+00	 5.883288872281046e+00
 7.635147003897792e-02	 2.278130208201834e+00	 5.873956521099786e+00
 5.717183760414270e-02	 2.278692195744318e+00	 5.867023556407042e+00
 3.805225968806117e-02	 2.279091640072504e+00	 5.862530222353756e+00
 1.899442875701491e-02	 2.279330128132136e+00	 5.860624462940233e+00
 0.000000000000000e+00	 2.279409264691664e+00	 5.861556443333192e+00
 1.933364289368304e-01	 2.280049971908675e+00	 6.001621504538053e+00
 1.737585981995224e-01	 2.281625501370243e+00	 5.976817983100257e+00
 1.542300800802022e-01	 2.283028729335347e+00	 5.956187463085593e+00
 1.347527958058015e-01	 2.284261121354082e+00	 5.939101201717642e+00
 1.153286299709979e-01	 2.285324166666546e+00	 5.925070991218742e+00
 9.595943034265751e-02	 2.286219377222491e+00	 5.913740965321646e+00
 7.664700769047661e-02	 2.286948286705600e+00	 5.904880119361104e+00
 5.739313564338794e-02	 2.287512449563160e+00	 5.898375480883672e+00
 3.819955057127708e-02	 2.287913440041769e+00	 5.894225869485426e+00
 1.906795149154102e-02	 2.288152851229837e+00	 5.892536186601568e+00
 0.000000000000000e+00	 2.288232294107464e+00	 5.893512179218917e+00
 1.940819008866921e-01	 2.288841451695976e+00	 6.029911308066427e+00
 1.744285814079569e-01	 2.290423056128214e+00	 6.005307019719640e+00
 1.548247646882218e-01	 2.291831694699106e+00	 5.984942344846443e+00
 1.352723793623337e-01	 2.293068838609642e+00	 5.968164903445736e+00
 1.157733172916385e-01	 2.294135982842159e+00	 5.954460076418830e+00
 9.632943336766836e-02	 2.295034645176212e+00	 5.943443033850949e+00
 7.694254534213150e-02	 2.295766365209097e+00	 5.934851484385233e+00
 5.761443368276380e-02	 2.296332703381759e+00	 5.928539080689177e+00
 3.834684145458987e-02	 2.296735240010814e+00	 5.924469417867203e+00
 1.914147422612082e-02	 2.296975574327333e+00	 5.922710563796507e+00
 0.000000000000000e+00	 2.297055323523064e+00	 5.923430063632109e+00
 1.948273728369537e-01	 2.297632931482718e+00	 6.057585797686136e+00
 1.750985646167911e-01	 2.299220610885635e+00	 6.033245983820593e+00
 1.554194492966379e-01	 2.300634660062328e+00	 6.013151003893714e+00
 1.357919629192548e-01	 2.301876555864683e+00	 5.996630853286224e+00
 1.162180046126528e-01	 2.302947799017273e+00	 5.983150530099921e+00
 9.669943639302830e-02	 2.303849913129458e+00	 5.972302283550496e+00
 7.723808299409873e-02	 2.304584443712136e+00	 5.963798591074349e+00
 5.783573172240101e-02	 2.305152957199925e+00	 5.957465797176089e+00
 3.849413233809643e-02	 2.305557039979444e+00	 5.953238349000585e+00
 1.921499696080799e-02	 2.305798297424425e+00	 5.951153565819277e+00
 0.000000000000000e+00	 2.305878352938263e+00	 5.951346882948503e+00
 1.955728447878152e-01	 2.306424411268809e+00	 6.084494161789699e+00
 1.757685478262243e-01	 2.308018165642391e+00	 6.060489480664939e+00
 1.560141339056490e-01	 2.309437625424884e+00	 6.040676729654238e+00
 1.363115464767591e-01	 2.310684273119061e+00	 6.024374175355882e+00
 1.166626919342278e-01	 2.311759615191734e+00	 6.011032343124278e+00
 9.706943941891187e-02	 2.312665181082062e+00	 6.000226484165811e+00
 7.753362064653452e-02	 2.313402522214548e+00	 5.991649779067069e+00
 5.805702976243027e-02	 2.313973211017472e+00	 5.985107208791016e+00
 3.864142322189361e-02	 2.314378839947464e+00	 5.980510026218262e+00
 1.928851969565624e-02	 2.314621020520913e+00	 5.977870763622366e+00
 0.000000000000000e+00	 2.314701382352864e+00	 5.977298714834752e+00
 1.963183167394766e-01	 2.315215891054156e+00	 6.110486687048605e+00
 1.764385310364568e-01	 2.316815720398379e+00	 6.086893165860776e+00
 1.566088185154535e-01	 2.318240590786652e+00	 6.067383783030854e+00
 1.368311300350413e-01	 2.319491990372638e+00	 6.051270856080573e+00
 1.171073792565506e-01	 2.320571431365386e+00	 6.037996229846113e+00
 9.743944244549368e-02	 2.321480449033855e+00	 6.027123961114101e+00
 7.782915829959509e-02	 2.322220600716149e+00	 6.018333747508038e+00
 5.827832780298224e-02	 2.322793464834211e+00	 6.011415029635684e+00
 3.878871410607834e-02	 2.323200639914681e+00	 6.006261697645357e+00
 1.936204243071925e-02	 2.323443743616602e+00	 6.002867335751586e+00
 0.000000000000000e+00	 2.323524411766664e+00	 6.001320941704189e+00
 2.323524411766664e+00	 0.000000000000000e+00	 1.167449461857301e+01
 2.323443743616602e+00	 1.936204243071796e-02	 1.167781958273115e+01
 2.323200639914680e+00	 3.878871410607723e-02	 1.168059341834128e+01
 2.322793464834211e+00	 5.827832780298133e-02	 1.168317139619757e+01
 2.322220600716149e+00	 7.782915829959436e-02	 1.168586154424779e+01
 2.321480449033855e+00	 9.743944244549314e-02	 1.168892388999490e+01
 2.320571431365386e+00	 1.171073792565502e-01	 1.169256946513980e+01
 2.319491990372638e+00	 1.368311300350412e-01	 1.169695905176727e+01
 2.318240590786651e+00	 1.566088185154535e-01	 1.170220164778634e+01
 2.316815720398378e+00	 1.764385310364570e-01	 1.170835262791528e+01
 2.315215891054155e+00	 1.963183167394767e-01	 1.171541157505042e+01
 2.332348940767776e+00	 0.000000000000000e+00	 1.166055830702427e+01
 2.332267966247539e+00	 1.943557766217617e-02	 1.166342119649336e+01
 2.332023939260249e+00	 3.893603002471444e-02	 1.166585697187159e+01
 2.331615217766517e+00	 5.849966345662133e-02	 1.166820059550319e+01
 2.331040177963597e+00	 7.812474618384858e-02	 1.167074172866392e+01
 2.330297215253816e+00	 9.780950835971168e-02	 1.167372405706002e+01
 2.329384745220547e+00	 1.175521421601332e-01	 1.167734438033657e+01
 2.328301204611078e+00	 1.373508019042064e-01	 1.168175144474696e+01
 2.327045052325661e+00	 1.572036042005578e-01	 1.168704449651617e+01
 2.325614770412040e+00	 1.771086281199704e-01	 1.169327153196242e+01
 2.324008865064697e+00	 1.970639153947111e-01	 1.170042721893910e+01
 2.341173467267554e+00	 0.000000000000000e+00	 1.164661111165523e+01
 2.341092186377230e+00	 1.950911287302710e-02	 1.164906084657268e+01
 2.340847236104838e+00	 3.908334590202416e-02	 1.165119719241049e+01
 2.340436968198291e+00	 5.872099904810694e-02	 1.165333609531103e+01
 2.339859752711145e+00	 7.842033398502124e-02	 1.165575008089792e+01
 2.339113978974688e+00	 9.817957416982777e-02	 1.165866766011096e+01
 2.338198056577620e+00	 1.179969049385057e-01	 1.166227250101382e+01
 2.337110416352620e+00	 1.378704736269727e-01	 1.166670234559042e+01
 2.335849511369155e+00	 1.577983897180010e-01	 1.167204764889700e+01
 2.334413817931758e+00	 1.777787250144939e-01	 1.167834991641997e+01
 2.332801836583068e+00	 1.978095138395674e-01	 1.168559971393547e+01
 2.349997988765666e+00	 0.000000000000000e+00	 1.163265333943526e+01
 2.349916401505432e+00	 1.958264804239493e-02	 1.163474383577648e+01
 2.349670527948471e+00	 3.923066169619430e-02	 1.163662337583608e+01
 2.349258713629998e+00	 5.894233451463022e-02	 1.163859016797713e+01
 2.348679322459877e+00	 7.871592161924970e-02	 1.164090081854750e+01
 2.347930737698365e+00	 9.854963977086598e-02	 1.164376981528055e+01
 2.347011362939482e+00	 1.184416674655224e-01	 1.164736877883315e+01
 2.345919623101312e+00	 1.383901450559685e-01	 1.165182546135503e+01
 2.344653965422533e+00	 1.583931748991300e-01	 1.165722246930369e+01
 2.343212860464476e+00	 1.784488215300385e-01	 1.166359568615223e+01
 2.341594803117931e+00	 1.985551118626670e-01	 1.167093236903115e+01
 2.358822502761778e+00	 0.000000000000000e+00	 1.161868645816624e+01
 2.358740609131898e+00	 1.965618314940383e-02	 1.162047635674278e+01
 2.358493812291163e+00	 3.937797736541278e-02	 1.162214546371090e+01
 2.358080451562100e+00	 5.916366979338318e-02	 1.162397551461313e+01
 2.357498884710881e+00	 7.901150900267125e-02	 1.162620839858032e+01
 2.356747488926737e+00	 9.891970505785086e-02	 1.162904571651925e+01
 2.355824661809015e+00	 1.188864296150379e-01	 1.163264810980765e+01
 2.354728822361202e+00	 1.389098160438223e-01	 1.163713433828443e+01
 2.353458411991198e+00	 1.589879595752919e-01	 1.164258008460863e+01
 2.352011895517132e+00	 1.791189174766153e-01	 1.164901646044480e+01
 2.350387762177955e+00	 1.993007092526315e-01	 1.165642818827183e+01
 2.367647006755555e+00	 0.000000000000000e+00	 1.160471307488752e+01
 2.367564806756384e+00	 1.972971817317799e-02	 1.160626547290692e+01
 2.367317086632938e+00	 3.952529286786756e-02	 1.160777402664912e+01
 2.366902179495063e+00	 5.938500482155783e-02	 1.160950525068786e+01
 2.366318436965246e+00	 7.930709605142312e-02	 1.161168750500009e+01
 2.365564230161695e+00	 9.928976992580693e-02	 1.161451062515069e+01
 2.364637950689095e+00	 1.193311912609068e-01	 1.161812532556698e+01
 2.363538011636338e+00	 1.394294864431625e-01	 1.162264235459798e+01
 2.362262848580552e+00	 1.595827435778335e-01	 1.162813137830571e+01
 2.360810920596668e+00	 1.797890126642353e-01	 1.163461956826843e+01
 2.359180711271804e+00	 2.000463057980825e-01	 1.164208986696009e+01
 2.376471498246666e+00	 0.000000000000000e+00	 1.159073691475570e+01
 2.376388991878643e+00	 1.980325309284157e-02	 1.159211909988844e+01
 2.376140348473815e+00	 3.967260816174652e-02	 1.159352024805588e+01
 2.375723894929350e+00	 5.960633953634623e-02	 1.159519289196060e+01
 2.375137976724059e+00	 7.960268268164264e-02	 1.159735303680973e+01
 2.374380958905133e+00	 9.965983426975876e-02	 1.160017985969671e+01
 2.373451227082600e+00	 1.197759522769838e-01	 1.160381518487119e+01
 2.372347188430767e+00	 1.399491561066176e-01	 1.160836271351572e+01
 2.371067272695995e+00	 1.601775267381020e-01	 1.161388698486361e+01
 2.369609933210024e+00	 1.804591069029094e-01	 1.162041204377238e+01
 2.367973647908145e+00	 2.007919012876414e-01	 1.162791978809641e+01
 2.385295974734777e+00	 0.000000000000000e+00	 1.157676280038683e+01
 2.385213161998431e+00	 1.987678788751876e-02	 1.157804598728766e+01
 2.384963595313815e+00	 3.981992320523760e-02	 1.157939590823018e+01
 2.384545595365426e+00	 5.982767387494037e-02	 1.158105234073716e+01
 2.383957501488406e+00	 7.989826880946704e-02	 1.158322009626418e+01
 2.383197672658942e+00	 1.000298979847308e-01	 1.158606878596517e+01
 2.382264488492409e+00	 1.202207125371235e-01	 1.158973236536726e+01
 2.381156350248538e+00	 1.404688248868162e-01	 1.159430843651268e+01
 2.379871681842928e+00	 1.607723088874440e-01	 1.159985728430206e+01
 2.378408930864142e+00	 1.811292000026486e-01	 1.160640062200212e+01
 2.376766569595645e+00	 2.015374955099300e-01	 1.161392001905209e+01
 2.394120433719554e+00	 0.000000000000000e+00	 1.156279663164918e+01
 2.394037314615504e+00	 1.995032253633372e-02	 1.156405570088124e+01
 2.393786824652957e+00	 3.996723795652874e-02	 1.156541336882101e+01
 2.393367278303754e+00	 6.004900777453227e-02	 1.156709787244083e+01
 2.392777008759376e+00	 8.019385435103364e-02	 1.156930397740515e+01
 2.392014368925014e+00	 1.003999609657477e-01	 1.157219280739336e+01
 2.391077732421400e+00	 1.206654719151807e-01	 1.157589145558195e+01
 2.389965494593699e+00	 1.409884926363867e-01	 1.158049235679677e+01
 2.388676073526756e+00	 1.613670898572067e-01	 1.158605239698566e+01
 2.387207911065962e+00	 1.817992917734640e-01	 1.159259173483508e+01
 2.385559473842969e+00	 2.022830882535698e-01	 1.160009230846816e+01
 2.402944872700665e+00	 0.000000000000000e+00	 1.154884536589523e+01
 2.402861447229616e+00	 2.002385701841063e-02	 1.155015860520677e+01
 2.402610033991262e+00	 4.011455237380784e-02	 1.155158555762856e+01
 2.402188941244798e+00	 6.027034117231397e-02	 1.155334412248993e+01
 2.401596496038056e+00	 8.048943922247974e-02	 1.155562015487070e+01
 2.400831045205240e+00	 1.007700231078340e-01	 1.155856735564125e+01
 2.399890956372451e+00	 1.211102302850098e-01	 1.156230694714506e+01
 2.398774618970295e+00	 1.415081592079575e-01	 1.156692711300444e+01
 2.397480445252878e+00	 1.619618694787370e-01	 1.157248217862970e+01
 2.396006871322424e+00	 1.824693820253664e-01	 1.157899150712940e+01
 2.394352358158783e+00	 2.030286793071823e-01	 1.158643808337489e+01
 2.411769289177776e+00	 0.000000000000000e+00	 1.153491699862134e+01
 2.411685557340520e+00	 2.009739131287368e-02	 1.153636584652608e+01
 2.411433220828751e+00	 4.026186641526282e-02	 1.153792595374127e+01
 2.411010581689024e+00	 6.049167400547752e-02	 1.153980607347427e+01
 2.410415960825535e+00	 8.078502333994263e-02	 1.154218427297299e+01
 2.409647699001513e+00	 1.011400843060141e-01	 1.154520788142766e+01
 2.408704157848441e+00	 1.215549875204656e-01	 1.154899322723739e+01
 2.407583720882377e+00	 1.420278244541572e-01	 1.155362514310899e+01
 2.406284794526695e+00	 1.625566475833819e-01	 1.155915621551259e+01
 2.404805809140468e+00	 1.831394705683671e-01	 1.156560575307980e+01
 2.403145220051753e+00	 2.037742684593891e-01	 1.157295844652569e+01
 2.315215891054155e+00	 1.963183167394767e-01	 1.171541157505042e+01
 2.313439322528182e+00	 2.162495718069737e-01	 1.172312541321349e+01
 2.311484833814060e+00	 2.362268551605946e-01	 1.173141801546497e+01
 2.309351013912615e+00	 2.562480557777598e-01	 1.174046917370494e+01
 2.307036479994991e+00	 2.763110252327098e-01	 1.175039438109456e+01
 2.304539878427208e+00	 2.964135780332421e-01	 1.176124024286124e+01
 2.301859885794940e+00	 3.165534919874207e-01	 1.177297936379794e+01
 2.298995209927609e+00	 3.367285086005783e-01	 1.178550467766123e+01
 2.295944590920845e+00	 3.569363335028883e-01	 1.179862318247379e+01
 2.292706802156369e+00	 3.771746369077693e-01	 1.181210557817556e+01
 2.289280651318292e+00	 3.974410541013390e-01	 1.182649118943364e+01
 2.324008865064697e+00	 1.970639153947111e-01	 1.170042721893910e+01
 2.322225549296722e+00	 2.170708675098281e-01	 1.170825373853063e+01
 2.320263637616369e+00	 2.371240227222551e-01	 1.171667227789477e+01
 2.318121713665623e+00	 2.572212619919357e-01	 1.172586413033397e+01
 2.315798389363781e+00	 2.773604287335799e-01	 1.173594817782314e+01
 2.313292305935888e+00	 2.975393291546790e-01	 1.174697636891982e+01
 2.310602134941420e+00	 3.177557326236096e-01	 1.175892867206018e+01
 2.307726579302260e+00	 3.380073720681416e-01	 1.177170746878670e+01
 2.304664374329044e+00	 3.582919444046357e-01	 1.178513135018675e+01
 2.301414288744912e+00	 3.786071109981869e-01	 1.179899500623360e+01
 2.297975125705680e+00	 3.989504981539398e-01	 1.181374041063834e+01
 2.332801836583068e+00	 1.978095138395674e-01	 1.168559971393547e+01
 2.331011773575056e+00	 2.178921629808588e-01	 1.169353012456497e+01
 2.329042438930636e+00	 2.380211900305954e-01	 1.170205354289078e+01
 2.326892410932952e+00	 2.581944679312457e-01	 1.171135106951417e+01
 2.324560296249448e+00	 2.784098319379906e-01	 1.172154352747890e+01
 2.322044730964200e+00	 2.986650799580174e-01	 1.173268701718007e+01
 2.319344381610483e+00	 3.189579729200166e-01	 1.174476794545703e+01
 2.316457946202639e+00	 3.392862351741970e-01	 1.175769749273874e+01
 2.313384155266309e+00	 3.596475549231081e-01	 1.177130548077345e+01
 2.310121772866059e+00	 3.800395846835241e-01	 1.178540471866799e+01
 2.306669597629398e+00	 4.004599417796175e-01	 1.180033366980017e+01
 2.341594803117931e+00	 1.985551118626670e-01	 1.167093236903115e+01
 2.339797992873766e+00	 2.187134579872421e-01	 1.167895429901222e+01
 2.337821235269544e+00	 2.389183568312966e-01	 1.168756115172628e+01
 2.335663103229576e+00	 2.591676733198283e-01	 1.169693216006986e+01
 2.333322198169454e+00	 2.794592345484933e-01	 1.170718865656978e+01
 2.330797151032284e+00	 2.997908301241789e-01	 1.171838971516983e+01
 2.328086623325142e+00	 3.201602125358942e-01	 1.173052726611501e+01
 2.325189308154834e+00	 3.405650975562916e-01	 1.174352064710475e+01
 2.322103931262002e+00	 3.610031646741135e-01	 1.175721055247873e+01
 2.318829252052637e+00	 3.814720575578183e-01	 1.177142042096139e+01
 2.315364064625950e+00	 4.019693845506116e-01	 1.178638444513562e+01
 2.350387762177955e+00	 1.993007092526315e-01	 1.165642818827183e+01
 2.348584204703428e+00	 2.195347522961541e-01	 1.166452566151502e+01
 2.346600024145775e+00	 2.398155228700398e-01	 1.167319405785994e+01
 2.344433788070470e+00	 2.601408778818218e-01	 1.168260908595304e+01
 2.342084092641259e+00	 2.805086362676384e-01	 1.169289117172857e+01
 2.339549563660281e+00	 3.009165793340846e-01	 1.170410119693941e+01
 2.336828857608416e+00	 3.213624511304948e-01	 1.171623570982181e+01
 2.333920662684929e+00	 3.418439588519719e-01	 1.172922157034984e+01
 2.330823699845481e+00	 3.623587732734598e-01	 1.174290999105397e+01
 2.327536723837478e+00	 3.829045292151071e-01	 1.175712625596575e+01
 2.324058524231837e+00	 4.034788260391605e-01	 1.177200420639268e+01
 2.359180711271804e+00	 2.000463057980825e-01	 1.164208986696009e+01
 2.357370406574623e+00	 2.203560456747713e-01	 1.165024328120533e+01
 2.355378803072010e+00	 2.407126878925058e-01	 1.165895082682612e+01
 2.353204462970608e+00	 2.611140813413643e-01	 1.166838304949568e+01
 2.350845977182324e+00	 2.815580367979773e-01	 1.167865806734678e+01
 2.348301966368331e+00	 3.020423272686564e-01	 1.168983741610091e+01
 2.345571081983317e+00	 3.225646883630709e-01	 1.170192136549854e+01
 2.342652007319017e+00	 3.431228186987856e-01	 1.171484366875252e+01
 2.339543458546102e+00	 3.637143803369544e-01	 1.172846570518871e+01
 2.336244185753410e+00	 3.843369992494279e-01	 1.174260482896916e+01
 2.332752973983562e+00	 4.049882658175036e-01	 1.175730244851859e+01
 2.367973647908145e+00	 2.007919012876414e-01	 1.162791978809641e+01
 2.366156595997930e+00	 2.211773378902697e-01	 1.163610589448702e+01
 2.364157569560931e+00	 2.416098516443755e-01	 1.164482963634792e+01
 2.361975125444967e+00	 2.620872834225944e-01	 1.165425477484784e+01
 2.359607849310109e+00	 2.826074358420603e-01	 1.166449573333733e+01
 2.357054356676573e+00	 3.031680736088151e-01	 1.167561355891919e+01
 2.354313293972862e+00	 3.237669238928752e-01	 1.168761135462636e+01
 2.351383339583185e+00	 3.444016767342794e-01	 1.170042914317702e+01
 2.348263204893227e+00	 3.650699854804051e-01	 1.171393812164075e+01
 2.344951635333265e+00	 3.857694672548180e-01	 1.172793723230113e+01
 2.341447411417628e+00	 4.064977034578798e-01	 1.174238672468730e+01
 2.376766569595645e+00	 2.015374955099300e-01	 1.161392001905209e+01
 2.374942770483929e+00	 2.219986287098258e-01	 1.162211190305253e+01
 2.372936321125219e+00	 2.425070138713300e-01	 1.163082827666738e+01
 2.370745773008521e+00	 2.630604838496503e-01	 1.164022451159662e+01
 2.368369706542075e+00	 2.836568331024389e-01	 1.165040996302241e+01
 2.365806732105149e+00	 3.042938180354824e-01	 1.166144405745301e+01
 2.363055491100067e+00	 3.249691573791602e-01	 1.167333185062831e+01
 2.360114657003518e+00	 3.456805325960001e-01	 1.168601901568626e+01
 2.356982936416214e+00	 3.664255883196198e-01	 1.169938622007253e+01
 2.353659070109870e+00	 3.872019328253149e-01	 1.171320306948824e+01
 2.350141834070536e+00	 4.080071385325283e-01	 1.172736267870293e+01
 2.385559473842969e+00	 2.022830882535698e-01	 1.160009230846816e+01
 2.383728927543198e+00	 2.228199179006156e-01	 1.160825937212769e+01
 2.381715055277557e+00	 2.434041743190502e-01	 1.161694415108725e+01
 2.379516403176245e+00	 2.640336823466701e-01	 1.162629203856152e+01
 2.377131546395682e+00	 2.847062282816638e-01	 1.163640596114354e+01
 2.374559090174199e+00	 3.054195602295796e-01	 1.164734260274489e+01
 2.371797670887946e+00	 3.261713884811782e-01	 1.165910809820779e+01
 2.368845957106104e+00	 3.469593859214951e-01	 1.167165315599970e+01
 2.365702650644420e+00	 3.677811884704060e-01	 1.168486756760103e+01
 2.362366487616057e+00	 3.886343955549560e-01	 1.169848047897183e+01
 2.358836239478789e+00	 4.095165706136882e-01	 1.171233407679544e+01
 2.394352358158783e+00	 2.030286793071823e-01	 1.158643808337489e+01
 2.392515064686318e+00	 2.236412052298155e-01	 1.159454602893881e+01
 2.390493769530627e+00	 2.443013327332173e-01	 1.160317427671892e+01
 2.388287013463114e+00	 2.650068786377924e-01	 1.161245666776148e+01
 2.385893366388392e+00	 2.857556210822857e-01	 1.162248835199059e+01
 2.383311428403863e+00	 3.065452998720281e-01	 1.163332215805876e+01
 2.380539830859514e+00	 3.273736168581818e-01	 1.164496443264439e+01
 2.377577237417034e+00	 3.482382363483113e-01	 1.165737030779971e+01
 2.374422345107206e+00	 3.691367855485713e-01	 1.167043835306876e+01
 2.371073885384655e+00	 3.900668550377789e-01	 1.168384615739869e+01
 2.367530625178890e+00	 4.110259992735984e-01	 1.169740283882413e+01
 2.403145220051753e+00	 2.037742684593891e-01	 1.157295844652569e+01
 2.401301179423868e+00	 2.244624904646018e-01	 1.158096926139653e+01
 2.399272461397111e+00	 2.451984888595121e-01	 1.158951528543137e+01
 2.397057601384104e+00	 2.659800724471556e-01	 1.159871724854933e+01
 2.394655164037665e+00	 2.868050112068558e-01	 1.160866118764665e+01
 2.392063744314279e+00	 3.076710366437493e-01	 1.161939497216394e+01
 2.389281968537789e+00	 3.285758421694235e-01	 1.163092429904844e+01
 2.386308495462393e+00	 3.495170835139956e-01	 1.164320811489055e+01
 2.383142017333930e+00	 3.704923791699238e-01	 1.165615341559043e+01
 2.379781260948493e+00	 3.914993108678208e-01	 1.166937538249623e+01
 2.376224988707342e+00	 4.125354240844981e-01	 1.168266906890399e+01
 2.289280651318292e+00	 3.974410541013390e-01	 1.182649118943364e+01
 2.285665611882141e+00	 4.177297355317194e-01	 1.184137449649192e+01
 2.281859995945115e+00	 4.380416965911244e-01	 1.185610857971777e+01
 2.277862718926717e+00	 4.583744778323171e-01	 1.187078617550658e+01
 2.273672734502291e+00	 4.787255872827543e-01	 1.188548727309520e+01
 2.269289035584527e+00	 4.990925010900192e-01	 1.190028104283383e+01
 2.264710655295170e+00	 5.194726641987831e-01	 1.191522788823652e+01
 2.259936667925870e+00	 5.398634910592639e-01	 1.193038163389326e+01
 2.254966189887047e+00	 5.602623663671141e-01	 1.194579186095215e+01
 2.249798380643699e+00	 5.806666458346353e-01	 1.196150640136672e+01
 2.244432443637021e+00	 6.010736569931620e-01	 1.197757400144885e+01
 2.297975125705680e+00	 3.989504981539398e-01	 1.181374041063834e+01
 2.294346356687181e+00	 4.193162341039567e-01	 1.182895951742766e+01
 2.290526287376104e+00	 4.397053380968214e-01	 1.184404904916602e+01
 2.286513829072793e+00	 4.601153413445548e-01	 1.185906082335649e+01
 2.282307931478736e+00	 4.805437424103435e-01	 1.187403788085712e+01
 2.277907583681775e+00	 5.009880078564237e-01	 1.188901650217649e+01
 2.273311815131525e+00	 5.214455729236140e-01	 1.190402834772208e+01
 2.268519696603858e+00	 5.419138422424646e-01	 1.191910273439034e+01
 2.263530341153386e+00	 5.623901905759559e-01	 1.193426906050789e+01
 2.258342905052813e+00	 5.828719635936400e-01	 1.194955939061099e+01
 2.252956588718057e+00	 6.033564786770743e-01	 1.196501121088371e+01
 2.306669597629398e+00	 4.004599417796175e-01	 1.180033366980017e+01
 2.303027099032474e+00	 4.209027322273973e-01	 1.181572373886736e+01
 2.299192576351457e+00	 4.413689791318174e-01	 1.183104259806707e+01
 2.295164936767550e+00	 4.618562043641621e-01	 1.184630857009957e+01
 2.290943126008370e+00	 4.823618970233515e-01	 1.186153440227459e+01
 2.286526129336921e+00	 5.028835140862803e-01	 1.187672934508772e+01
 2.281912972530687e+00	 5.234184810899195e-01	 1.189190135551544e+01
 2.277102722849768e+00	 5.439641928451562e-01	 1.190705943778649e+01
 2.272094489992965e+00	 5.645180141823033e-01	 1.192221613400266e+01
 2.266887427040690e+00	 5.850772807281696e-01	 1.193739017645123e+01
 2.261480731383585e+00	 6.056392997145411e-01	 1.195260931277129e+01
 2.315364064625950e+00	 4.019693845506116e-01	 1.178638444513562e+01
 2.311707836458393e+00	 4.224892294524600e-01	 1.180180501948922e+01
 2.307858860415636e+00	 4.430326192246884e-01	 1.181724138431358e+01
 2.303816039559728e+00	 4.635970663978493e-01	 1.183268570058382e+01
 2.299578315644430e+00	 4.841800506066048e-01	 1.184812699102653e+01
 2.295144670107906e+00	 5.047790192425134e-01	 1.186355325534200e+01
 2.290514125055513e+00	 5.253913881387063e-01	 1.187895371150150e+01
 2.285685744231581e+00	 5.460145422864141e-01	 1.189432117630896e+01
 2.280658633979106e+00	 5.666458365832896e-01	 1.190965459802693e+01
 2.275431944186209e+00	 5.872825966134051e-01	 1.192496175332642e+01
 2.270004869218262e+00	 6.079221194587818e-01	 1.194026212012790e+01
 2.324058524231837e+00	 4.034788260391605e-01	 1.177200420639268e+01
 2.320388566505321e+00	 4.240757253295643e-01	 1.178733881545084e+01
 2.316525137113097e+00	 4.446962579040100e-01	 1.180279492142482e+01
 2.312467134998071e+00	 4.653379269523279e-01	 1.181834576729979e+01
 2.308213497940153e+00	 4.859982026449298e-01	 1.183396313589333e+01
 2.303763203552670e+00	 5.066745227880483e-01	 1.184961947619282e+01
 2.299115270268857e+00	 5.273642935109814e-01	 1.186529015771447e+01
 2.294268758317280e+00	 5.480648899853142e-01	 1.188095586656735e+01
 2.289222770685134e+00	 5.687736571760474e-01	 1.189660515651174e+01
 2.283976454068253e+00	 5.894879106245265e-01	 1.191223716775236e+01
 2.278528999806741e+00	 6.102049372630166e-01	 1.192786452550041e+01
 2.332752973983562e+00	 4.049882658175036e-01	 1.175730244851859e+01
 2.329069286713632e+00	 4.256622194091289e-01	 1.177245822177624e+01
 2.325191403988295e+00	 4.463598946983577e-01	 1.178785012490342e+01
 2.321118220631321e+00	 4.670787855343085e-01	 1.180343963893022e+01
 2.316848670448773e+00	 4.878163526231535e-01	 1.181918770869604e+01
 2.312381727229153e+00	 5.085700241858092e-01	 1.183505685487360e+01
 2.307716405733574e+00	 5.293371966477524e-01	 1.185101341654968e+01
 2.302851762674848e+00	 5.501152353609325e-01	 1.186702993860356e+01
 2.297786897684372e+00	 5.709014753577101e-01	 1.188308771772457e+01
 2.292520954265702e+00	 5.916932221367140e-01	 1.189917952035256e+01
 2.287053120733681e+00	 6.124877524804658e-01	 1.191531248510534e+01
 2.341447411417628e+00	 4.064977034578798e-01	 1.174238672468730e+01
 2.337749994623704e+00	 4.272487112415729e-01	 1.175729401294393e+01
 2.333857658585689e+00	 4.480235291363075e-01	 1.177255135769695e+01
 2.329769294008222e+00	 4.688196416505025e-01	 1.178811554797046e+01
 2.325483830723528e+00	 4.896345000261021e-01	 1.180394301133575e+01
 2.321000238695292e+00	 5.104655228987205e-01	 1.181999188629169e+01
 2.316317529012518e+00	 5.313100969900261e-01	 1.183622422832537e+01
 2.311434754872265e+00	 5.521655778323449e-01	 1.185260836451394e+01
 2.306351012550143e+00	 5.730292905254102e-01	 1.186912141112437e+01
 2.301065442357438e+00	 5.938985305251482e-01	 1.188575196810114e+01
 2.295577229583733e+00	 6.147705644643494e-01	 1.190250300359840e+01
 2.350141834070536e+00	 4.080071385325283e-01	 1.172736267870293e+01
 2.346430687775914e+00	 4.288352003773154e-01	 1.174197468269694e+01
 2.342523898449734e+00	 4.496871607464351e-01	 1.175704047478716e+01
 2.338420352677514e+00	 4.705604948076199e-01	 1.177251913744360e+01
 2.334118976317655e+00	 4.914526443386029e-01	 1.178836882195603e+01
 2.329618735509030e+00	 5.123610183897077e-01	 1.180454875593625e+01
 2.324918637668544e+00	 5.332829939788098e-01	 1.182102138821177e+01
 2.320017732477515e+00	 5.542159168186270e-01	 1.183775468665449e+01
 2.314915112855773e+00	 5.751571020762805e-01	 1.185472460407931e+01
 2.309609915922340e+00	 5.961038351650093e-01	 1.187191772677203e+01
 2.304101323941556e+00	 6.170533725678875e-01	 1.188933411945808e+01
 2.358836239478789e+00	 4.095165706136882e-01	 1.171233407679544e+01
 2.355111363710641e+00	 4.304216863667755e-01	 1.172662648309450e+01
 2.351190121124888e+00	 4.513507890573158e-01	 1.174145686692958e+01
 2.347071394187944e+00	 4.723013445123727e-01	 1.175679350673377e+01
 2.342754104784390e+00	 4.932707850454817e-01	 1.177260244025126e+01
 2.338237215228305e+00	 5.142565101216949e-01	 1.178884938201990e+01
 2.333519729264506e+00	 5.352558870551105e-01	 1.180550178254299e+01
 2.328600693058578e+00	 5.562662517388549e-01	 1.182253104543983e+01
 2.323479196174583e+00	 5.772849094074546e-01	 1.183991491845085e+01
 2.318154372539290e+00	 5.983091354314773e-01	 1.185764007358915e+01
 2.312625401391804e+00	 6.193361761443000e-01	 1.187570489096752e+01
 2.367530625178890e+00	 4.110259992735984e-01	 1.169740283882413e+01
 2.363792019968259e+00	 4.320081687603721e-01	 1.171137346282512e+01
 2.359856324155606e+00	 4.530144135975258e-01	 1.172593750356504e+01
 2.355722416088251e+00	 4.740421902714712e-01	 1.174107925655990e+01
 2.351389213676971e+00	 4.950889216315657e-01	 1.175677873194264e+01
 2.346855675411061e+00	 5.161519975576072e-01	 1.177301345687425e+01
 2.342120801363259e+00	 5.372287756599352e-01	 1.178976042452819e+01
 2.337183634183438e+00	 5.583165820121047e-01	 1.180699820674648e+01
 2.332043260079898e+00	 5.794127119160645e-01	 1.182470924704753e+01
 2.326698809787171e+00	 6.005144306997326e-01	 1.184288235007233e+01
 2.321149459519132e+00	 6.216189745468074e-01	 1.186151538277923e+01
 2.376224988707342e+00	 4.125354240844981e-01	 1.168266906890399e+01
 2.372472654089149e+00	 4.335946471085245e-01	 1.169633750479970e+01
 2.368522505086349e+00	 4.546780338956407e-01	 1.171061697492436e+01
 2.364373415927180e+00	 4.757830315916268e-01	 1.172551453311212e+01
 2.360024300548634e+00	 4.969070535816814e-01	 1.174103017244301e+01
 2.355474113615235e+00	 5.180474801603691e-01	 1.175715848761790e+01
 2.350721851527660e+00	 5.392016592342913e-01	 1.177389048937683e+01
 2.345766553420076e+00	 5.603669070574515e-01	 1.179121558893034e+01
 2.340607302145042e+00	 5.815405089992439e-01	 1.180912376995156e+01
 2.335243225244861e+00	 6.027197203449562e-01	 1.182760796507397e+01
 2.329673495908198e+00	 6.239017671286294e-01	 1.184666665304774e+01
 2.244432443637021e+00	 6.010736569931620e-01	 1.197757400144885e+01
 2.238867627679239e+00	 6.214807003114081e-01	 1.199494822979917e+01
 2.233103229312530e+00	 6.418850509405317e-01	 1.201448426998289e+01
 2.227138592220802e+00	 6.622839587993911e-01	 1.203607719354260e+01
 2.220973107593212e+00	 6.826746492208766e-01	 1.205955515257796e+01
 2.214606214955360e+00	 7.030543239064198e-01	 1.208279338873169e+01
 2.208037402979564e+00	 7.234201619097830e-01	 1.210475578407440e+01
 2.201266210273095e+00	 7.437693206496828e-01	 1.212547369798935e+01
 2.194292226143276e+00	 7.640989369507408e-01	 1.214487822201675e+01
 2.187115091338370e+00	 7.844061281122209e-01	 1.216279193900891e+01
 2.179734498763173e+00	 8.046879930039602e-01	 1.217909176156219e+01
 2.252956588718057e+00	 6.033564786770743e-01	 1.196501121088371e+01
 2.247370638108388e+00	 6.238410260424130e-01	 1.198145036084342e+01
 2.241584347094333e+00	 6.443228704920893e-01	 1.199965215908282e+01
 2.235597056867188e+00	 6.647992515004044e-01	 1.201957484135384e+01
 2.229408156303924e+00	 6.852673838623174e-01	 1.204116684462481e+01
 2.223017082801537e+00	 7.057244586515778e-01	 1.206437022324967e+01
 2.216423323090388e+00	 7.261676442082519e-01	 1.208792229035934e+01
 2.209626414025442e+00	 7.465940871551929e-01	 1.210990428389626e+01
 2.202625943354270e+00	 7.670009134429437e-01	 1.213016542570989e+01
 2.195421550460755e+00	 7.873852294225351e-01	 1.214854617070005e+01
 2.188012927083394e+00	 8.077441229455768e-01	 1.216495477085374e+01
 2.261480731383585e+00	 6.056392997145411e-01	 1.195260931277129e+01
 2.255873646127970e+00	 6.262013511050141e-01	 1.196853936904223e+01
 2.250065462472716e+00	 6.467606893532984e-01	 1.198583534357246e+01
 2.244055519116518e+00	 6.673145434891383e-01	 1.200450781575384e+01
 2.237843202624165e+00	 6.878601177695596e-01	 1.202455725546807e+01
 2.231427948264040e+00	 7.083945926406287e-01	 1.204597738284751e+01
 2.224809240824560e+00	 7.289151257287159e-01	 1.206875878016928e+01
 2.217986615408383e+00	 7.494188528608096e-01	 1.209225759477113e+01
 2.210959658203332e+00	 7.699028891133737e-01	 1.211382729526204e+01
 2.203728007228910e+00	 7.903643298892038e-01	 1.213308522808665e+01
 2.196291353057320e+00	 8.108002520216828e-01	 1.214996519721395e+01
 2.270004869218262e+00	 6.079221194587818e-01	 1.194026212012790e+01
 2.264376649328631e+00	 6.285616748304660e-01	 1.195603986024190e+01
 2.258546573044541e+00	 6.491985068334476e-01	 1.197279995415799e+01
 2.252513976572083e+00	 6.698298340529159e-01	 1.199059463709655e+01
 2.246278244163864e+00	 6.904528502079680e-01	 1.200946655474497e+01
 2.239838808959671e+00	 7.110647251169906e-01	 1.202945209285944e+01
 2.233195153805962e+00	 7.316626056926607e-01	 1.205058496552114e+01
 2.226346812053099e+00	 7.522436169661046e-01	 1.207284028201821e+01
 2.219293368329158e+00	 7.728048631397116e-01	 1.209558258048443e+01
 2.212034459289262e+00	 7.933434286680453e-01	 1.211614350784911e+01
 2.204569774339321e+00	 8.138563793662641e-01	 1.213388513650598e+01
 2.278528999806741e+00	 6.102049372630166e-01	 1.192786452550041e+01
 2.272879645301021e+00	 6.309219965500236e-01	 1.194377855098703e+01
 2.267027676406665e+00	 6.516363222418236e-01	 1.196031510622297e+01
 2.260972426837172e+00	 6.723451224790604e-01	 1.197755752526881e+01
 2.254713278532966e+00	 6.930455804429082e-01	 1.199558089623518e+01
 2.248249662505230e+00	 7.137348553240817e-01	 1.201445538677764e+01
 2.241581059658478e+00	 7.344100833215709e-01	 1.203424983429629e+01
 2.234707001590772e+00	 7.550683786706500e-01	 1.205492709850938e+01
 2.227627071370443e+00	 7.757068346996387e-01	 1.207610923987354e+01
 2.220340904288235e+00	 7.963225249148774e-01	 1.209745373671451e+01
 2.212848188583769e+00	 8.169125041133077e-01	 1.211647470184107e+01
 2.287053120733681e+00	 6.124877524804658e-01	 1.191531248510534e+01
 2.281382631635785e+00	 6.332823155949410e-01	 1.193158423480426e+01
 2.275508770155950e+00	 6.540741348877150e-01	 1.194815285129196e+01
 2.269430867515072e+00	 6.748604080548951e-01	 1.196512233940462e+01
 2.263148303341400e+00	 6.956383077397452e-01	 1.198259061819831e+01
 2.256660506517515e+00	 7.164049825053189e-01	 1.200065286819378e+01
 2.249966956005988e+00	 7.371575578369325e-01	 1.201940514891386e+01
 2.243067181652582e+00	 7.578931371740172e-01	 1.203877151910354e+01
 2.235960764965883e+00	 7.786088029708361e-01	 1.205837629897870e+01
 2.228647339872258e+00	 7.993016177855189e-01	 1.207803056029980e+01
 2.221126593445035e+00	 8.199686253968002e-01	 1.209749209192037e+01
 2.295577229583733e+00	 6.147705644643494e-01	 1.190250300359840e+01
 2.289885605923573e+00	 6.356426312964735e-01	 1.191928774953519e+01
 2.283989851889253e+00	 6.565119440804092e-01	 1.193608812989567e+01
 2.277889296209072e+00	 6.773756900677430e-01	 1.195301851928583e+01
 2.271583316199104e+00	 6.982310313638446e-01	 1.197019017634639e+01
 2.265071338613330e+00	 7.190751059041209e-01	 1.198771463841102e+01
 2.258352840472378e+00	 7.399050284602304e-01	 1.200570739159087e+01
 2.251427349869710e+00	 7.607178916757774e-01	 1.202402493221378e+01
 2.244294446754171e+00	 7.815107671309854e-01	 1.204231831381610e+01
 2.236953763687752e+00	 8.022807064357864e-01	 1.206043710939070e+01
 2.229404986577490e+00	 8.230247423507278e-01	 1.207820755229492e+01
 2.304101323941556e+00	 6.170533725678875e-01	 1.188933411945808e+01
 2.298388565755036e+00	 6.380029429858750e-01	 1.190672194569134e+01
 2.292470919203435e+00	 6.589497491291934e-01	 1.192389872580103e+01
 2.286347710522461e+00	 6.798909678049279e-01	 1.194097902838554e+01
 2.280018314716012e+00	 7.008237505805707e-01	 1.195807807867056e+01
 2.273482156409474e+00	 7.217452247639053e-01	 1.197531522605415e+01
 2.266738710681527e+00	 7.426524944129502e-01	 1.199281528656071e+01
 2.259787503873337e+00	 7.635426413755030e-01	 1.201034381034336e+01
 2.252628114374006e+00	 7.844127263577670e-01	 1.202760121318268e+01
 2.245260173381147e+00	 8.052597900214989e-01	 1.204446507205497e+01
 2.237683365635504e+00	 8.260808541090771e-01	 1.206079316245134e+01
 2.312625401391804e+00	 6.193361761443000e-01	 1.187570489096752e+01
 2.306891508720819e+00	 6.403632499944010e-01	 1.189372165580468e+01
 2.300951969695355e+00	 6.613875493433560e-01	 1.191136522157141e+01
 2.294806108058528e+00	 6.824062405537721e-01	 1.192874029851163e+01
 2.288453296502063e+00	 7.034164646552896e-01	 1.194595682207367e+01
 2.281892957522748e+00	 7.244153383280898e-01	 1.196313351862660e+01
 2.275124564257317e+00	 7.453999549165763e-01	 1.198038637656744e+01
 2.268147641294644e+00	 7.663673854727651e-01	 1.199738962118487e+01
 2.260961765464081e+00	 7.873146798288625e-01	 1.201389578864237e+01
 2.253566566598867e+00	 8.082388676984741e-01	 1.202980521775225e+01
 2.245961728273450e+00	 8.291369598058346e-01	 1.204500331231578e+01
 2.321149459519132e+00	 6.216189745468074e-01	 1.186151538277923e+01
 2.315394432411569e+00	 6.427235516533060e-01	 1.188012366474822e+01
 2.309433000961870e+00	 6.638253440321840e-01	 1.189827095542222e+01
 2.303264486420560e+00	 6.849215076015991e-01	 1.191604217600963e+01
 2.296888259167190e+00	 7.060091728533664e-01	 1.193353283076272e+01
 2.290303739569949e+00	 7.270854458400926e-01	 1.195085269596374e+01
 2.283510398823632e+00	 7.481474091925951e-01	 1.196808789362551e+01
 2.276507759764810e+00	 7.691921231671358e-01	 1.198482874069482e+01
 2.269295397663093e+00	 7.902166267219531e-01	 1.200087761024298e+01
 2.261872940987338e+00	 8.112179386225301e-01	 1.201615280814952e+01
 2.254240072145697e+00	 8.321930585749869e-01	 1.203056352703584e+01
 2.329673495908198e+00	 6.239017671286294e-01	 1.184666665304774e+01
 2.323897334417938e+00	 6.450838472938442e-01	 1.186576668100173e+01
 2.317914010599845e+00	 6.662631325049658e-01	 1.188440197933930e+01
 2.311722843211848e+00	 6.874367682357324e-01	 1.190262786948468e+01
 2.305323200321330e+00	 7.086018744401660e-01	 1.192051639635577e+01
 2.298714500167883e+00	 7.297555465433316e-01	 1.193816016553451e+01
 2.291896212004354e+00	 7.508948564624919e-01	 1.195559223400857e+01
 2.284867856915019e+00	 7.720168536581867e-01	 1.197233236809357e+01
 2.277629008609737e+00	 7.931185662147199e-01	 1.198822694410272e+01
 2.270179294192987e+00	 8.141970019494853e-01	 1.200320752016672e+01
 2.262518394906619e+00	 8.352491495505205e-01	 1.201720331148212e+01
 2.179734498763173e+00	 8.046879930039602e-01	 1.217909176156219e+01
 2.172148887181955e+00	 8.249450537845692e-01	 1.219396175171356e+01
 2.164359291997888e+00	 8.451709231933534e-01	 1.220772165615156e+01
 2.156365565077391e+00	 8.653626491398434e-01	 1.222052788939652e+01
 2.148167613071671e+00	 8.855172656989569e-01	 1.223259258292156e+01
 2.139765397992186e+00	 9.056317943338167e-01	 1.224417693644291e+01
 2.131158937754682e+00	 9.257032451413696e-01	 1.225558297415362e+01
 2.122348306690867e+00	 9.457286181199076e-01	 1.226714362158722e+01
 2.113333636026786e+00	 9.657049044575522e-01	 1.227921102491578e+01
 2.104115114327044e+00	 9.856290878407244e-01	 1.229214304151882e+01
 2.094692987903987e+00	 1.005498145781579e+00	 1.230628783860313e+01
 2.188012927083394e+00	 8.077441229455768e-01	 1.216495477085374e+01
 2.180398506057042e+00	 8.280781181537844e-01	 1.217979670474334e+01
 2.172579326717225e+00	 8.483808035282425e-01	 1.219357838964386e+01
 2.164555240367735e+00	 8.686492157667182e-01	 1.220643614034688e+01
 2.156326153305231e+00	 8.888803776798218e-01	 1.221856250932823e+01
 2.147892027396868e+00	 9.090712994184721e-01	 1.223019979948806e+01
 2.139252880626412e+00	 9.292189797242424e-01	 1.224163195461731e+01
 2.130408787607849e+00	 9.493204072016984e-01	 1.225317474013654e+01
 2.121359880065587e+00	 9.693725616117750e-01	 1.226516413284082e+01
 2.112106347280358e+00	 9.893724151852169e-01	 1.227794284551304e+01
 2.102648436499953e+00	 1.009316933955051e+00	 1.229184492033020e+01
 2.196291353057320e+00	 8.108002520216828e-01	 1.214996519721395e+01
 2.188648122594005e+00	 8.312111816356275e-01	 1.216508630298448e+01
 2.180799359106836e+00	 8.515906829539126e-01	 1.217913993950710e+01
 2.172744913336986e+00	 8.719357814625505e-01	 1.219224661264300e+01
 2.164484691226553e+00	 8.922434887078539e-01	 1.220458353337633e+01
 2.156018654498391e+00	 9.125108035285455e-01	 1.221637829538092e+01
 2.147346821204283e+00	 9.327347133108352e-01	 1.222790090277046e+01
 2.138469266240492e+00	 9.529121952655715e-01	 1.223945405736690e+01
 2.129386121829784e+00	 9.730402177265116e-01	 1.225136162108135e+01
 2.120097577969012e+00	 9.931157414687324e-01	 1.226395517622594e+01
 2.110603882841414e+00	 1.013135721046144e+00	 1.227755861475903e+01
 2.204569774339321e+00	 8.138563793662641e-01	 1.213388513650598e+01
 2.196897734455373e+00	 8.343442433422844e-01	 1.214962571738914e+01
 2.189019386837630e+00	 8.548005605607883e-01	 1.216423315435418e+01
 2.180934581664643e+00	 8.752223452960440e-01	 1.217781632467937e+01
 2.172643224523951e+00	 8.956065978300775e-01	 1.219054122691181e+01
 2.164145276994103e+00	 9.159503056894265e-01	 1.220262482699404e+01
 2.155440757194895e+00	 9.362504449049491e-01	 1.221432722670138e+01
 2.146529740304868e+00	 9.565039812937876e-01	 1.222594206044235e+01
 2.137412359045143e+00	 9.767078717625338e-01	 1.223778503280599e+01
 2.128088804128694e+00	 9.968590656306067e-01	 1.225018051656027e+01
 2.118559324674199e+00	 1.016954505972811e+00	 1.226344613911198e+01
 2.212848188583769e+00	 8.169125041133077e-01	 1.211647470184107e+01
 2.205147339303680e+00	 8.374773023859429e-01	 1.213320775228326e+01
 2.197239407580518e+00	 8.580104354392952e-01	 1.214868216040015e+01
 2.189124243030212e+00	 8.785089063359020e-01	 1.216299924429114e+01
 2.180801750885739e+00	 8.989697040935158e-01	 1.217631781017377e+01
 2.172271892581347e+00	 9.193898049265036e-01	 1.218884817116273e+01
 2.163534686304845e+00	 9.397661735103845e-01	 1.220084446015417e+01
 2.154590207517046e+00	 9.600957642686071e-01	 1.221259513951228e+01
 2.145438589437429e+00	 9.803755226806119e-01	 1.222441161665832e+01
 2.136080023495087e+00	 1.000602386610174e+00	 1.223661488208054e+01
 2.126514759744138e+00	 1.020773287653006e+00	 1.224952009471231e+01
 2.221126593445035e+00	 8.199686253968002e-01	 1.209749209192037e+01
 2.213396934801456e+00	 8.406103578787893e-01	 1.211562292989008e+01
 2.205459419006409e+00	 8.612203066798584e-01	 1.213230846163146e+01
 2.197313895113193e+00	 8.817954636508282e-01	 1.214764640400759e+01
 2.188960268000233e+00	 9.023328065451943e-01	 1.216179228154464e+01
 2.180398498957471e+00	 9.228293002651670e-01	 1.217495362231914e+01
 2.171628606240729e+00	 9.432818981309415e-01	 1.218738241940910e+01
 2.162650665593098e+00	 9.636875431722913e-01	 1.219936575717578e+01
 2.153464810732409e+00	 9.840431694415176e-01	 1.221121450811892e+01
 2.144071233803876e+00	 1.004345703346769e+00	 1.222325001356327e+01
 2.134470185797058e+00	 1.024592065004682e+00	 1.223578866998956e+01
 2.229404986577490e+00	 8.230247423507278e-01	 1.207820755229492e+01
 2.221646518611236e+00	 8.437434089330106e-01	 1.209665957638708e+01
 2.213679418786210e+00	 8.644301733729022e-01	 1.211493104128328e+01
 2.205503535593090e+00	 8.850820163095255e-01	 1.213160601739922e+01
 2.197118773555748e+00	 9.056959042321361e-01	 1.214684054819121e+01
 2.188525093819819e+00	 9.262687907308047e-01	 1.216084313682642e+01
 2.179722514709145e+00	 9.467976177704217e-01	 1.217386736068418e+01
 2.170711112249095e+00	 9.672793169871000e-01	 1.218620261830124e+01
 2.161491020655851e+00	 9.877108110060228e-01	 1.219816291106930e+01
 2.152062432790749e+00	 1.008089014779728e+00	 1.221007356960850e+01
 2.142425600578789e+00	 1.028410836945792e+00	 1.222225584341948e+01
 2.237683365635504e+00	 8.260808541090771e-01	 1.206079316245134e+01
 2.229896088395551e+00	 8.468764546607934e-01	 1.207773097126704e+01
 2.221899404590832e+00	 8.676400346088523e-01	 1.209636646459021e+01
 2.213693162149406e+00	 8.883685633806987e-01	 1.211472359648938e+01
 2.205277265240596e+00	 9.090589962013659e-01	 1.213133555757264e+01
 2.196651674865739e+00	 9.297082753488071e-01	 1.214641547799370e+01
 2.187816409416692e+00	 9.503133314326252e-01	 1.216022213804370e+01
 2.178771545201104e+00	 9.708710846952945e-01	 1.217305084019039e+01
 2.169517216933517e+00	 9.913784463348977e-01	 1.218522227955100e+01
 2.160053618191390e+00	 1.011832319848384e+00	 1.219706931930986e+01
 2.150381001835161e+00	 1.032229602394291e+00	 1.220892158639877e+01
 2.245961728273450e+00	 8.291369598058346e-01	 1.204500331231578e+01
 2.238145641816934e+00	 8.500094941743244e-01	 1.206069830803252e+01
 2.230119374091181e+00	 8.708498894781340e-01	 1.207804711529298e+01
 2.221882772461643e+00	 8.916551039330501e-01	 1.209684207020236e+01
 2.213435740743093e+00	 9.124220814999077e-01	 1.211514742979215e+01
 2.204778239792574e+00	 9.331477531445621e-01	 1.213156636175348e+01
 2.195910288069967e+00	 9.538290381213524e-01	 1.214636636179908e+01
 2.186831962165200e+00	 9.744628452791348e-01	 1.215985212307748e+01
 2.177543397291178e+00	 9.950460743889147e-01	 1.217235449971369e+01
 2.168044787741484e+00	 1.015575617492073e+00	 1.218421733498040e+01
 2.158336387312002e+00	 1.036048360268131e+00	 1.219578206605505e+01
 2.254240072145697e+00	 8.321930585749869e-01	 1.203056352703584e+01
 2.246395176537915e+00	 8.531425265857909e-01	 1.204532997598427e+01
 2.238339324958170e+00	 8.740597370711721e-01	 1.206163053997716e+01
 2.230072364209305e+00	 8.949416370352841e-01	 1.207929892057626e+01
 2.221594197751555e+00	 9.157851591747860e-01	 1.209814359076980e+01
 2.212904786297673e+00	 9.365872231434597e-01	 1.211618860298335e+01
 2.204004148375565e+00	 9.573447368404041e-01	 1.213221655738881e+01
 2.194892360857451e+00	 9.780545977208817e-01	 1.214654492095305e+01
 2.185569559454597e+00	 9.987136941288444e-01	 1.215951807194627e+01
 2.176035939176717e+00	 1.019318906650129e+00	 1.217149418493141e+01
 2.166291754755141e+00	 1.039867109485265e+00	 1.218282984799217e+01
 2.262518394906619e+00	 8.352491495505205e-01	 1.201720331148212e+01
 2.254644690221028e+00	 8.562755510073792e-01	 1.203138976430697e+01
 2.246559254862706e+00	 8.772695764783921e-01	 1.204691537852406e+01
 2.238261935071895e+00	 8.982281617561039e-01	 1.206365809184490e+01
 2.229752633954296e+00	 9.191482282730243e-01	 1.208147448507745e+01
 2.221031312078379e+00	 9.400266843708884e-01	 1.210017226245436e+01
 2.212097988040086e+00	 9.608604265935810e-01	 1.211768632472366e+01
 2.202952738993927e+00	 9.816463410027958e-01	 1.213306461270324e+01
 2.193595701149540e+00	 1.002381304515459e+00	 1.214666829318457e+01
 2.184027070232773e+00	 1.023062186261888e+00	 1.215887312630130e+01
 2.174247101910407e+00	 1.043685848963648e+00	 1.217005409897117e+01
 2.094692987903987e+00	 1.005498145781579e+00	 1.230628783860313e+01
 2.085069214345415e+00	 1.025305688418445e+00	 1.231915618241838e+01
 2.075242570842331e+00	 1.045052067765647e+00	 1.232843882234809e+01
 2.065213477356800e+00	 1.064734251402391e+00	 1.233468903721839e+01
 2.054982412837529e+00	 1.084349206174316e+00	 1.233838784187611e+01
 2.044549915443673e+00	 1.103893899598468e+00	 1.233991826344545e+01
 2.033916582729284e+00	 1.123365301280397e+00	 1.233960432775498e+01
 2.023083071787823e+00	 1.142760384342097e+00	 1.233798460285035e+01
 2.012050099356196e+00	 1.162076126859514e+00	 1.233550868882815e+01
 2.000818441877797e+00	 1.181309513308291e+00	 1.233256734727795e+01
 1.989388935524150e+00	 1.200457536016417e+00	 1.232949846506610e+01
 2.102648436499953e+00	 1.009316933955051e+00	 1.229184492033020e+01
 2.092988112746893e+00	 1.029199703791507e+00	 1.230445965493314e+01
 2.083124148568081e+00	 1.049021078045822e+00	 1.231356206338866e+01
 2.073056965520585e+00	 1.068778012780347e+00	 1.231970429459143e+01
 2.062787044372133e+00	 1.088467463321072e+00	 1.232337077601942e+01
 2.052314925325784e+00	 1.108086385667955e+00	 1.232495227864895e+01
 2.041641208205069e+00	 1.127631737917381e+00	 1.232480377740773e+01
 2.030766552599056e+00	 1.147100481695540e+00	 1.232341841500454e+01
 2.019691677966768e+00	 1.166489583601383e+00	 1.232123158617604e+01
 2.008417363700488e+00	 1.185796016657869e+00	 1.231863450534651e+01
 1.996944449147465e+00	 1.205016761770121e+00	 1.231596678140153e+01
 2.110603882841414e+00	 1.013135721046144e+00	 1.227755861475903e+01
 2.100907008904224e+00	 1.033093718060886e+00	 1.228986317316454e+01
 2.091005724060252e+00	 1.052990087201106e+00	 1.229874841193849e+01
 2.080900451461565e+00	 1.072821773012292e+00	 1.230476450921573e+01
 2.070591673694926e+00	 1.092585719300793e+00	 1.230839829073911e+01
 2.060079933007296e+00	 1.112278870549466e+00	 1.231004717794699e+01
 2.049365831491686e+00	 1.131898173345535e+00	 1.231007430853884e+01
 2.038450031232771e+00	 1.151440577819378e+00	 1.230893215686061e+01
 2.027333254411702e+00	 1.170903039092953e+00	 1.230705151432665e+01
 2.016016283369649e+00	 1.190282518736530e+00	 1.230482159612180e+01
 2.004499960629588e+00	 1.209575986232364e+00	 1.230258097216938e+01
 2.118559324674199e+00	 1.016954505972811e+00	 1.226344613911198e+01
 2.108825900573605e+00	 1.036987730123215e+00	 1.227539774375821e+01
 2.098887295085629e+00	 1.056959094106872e+00	 1.228403902307671e+01
 2.088743932957343e+00	 1.076865530952411e+00	 1.228991731947203e+01
 2.078396298594540e+00	 1.096703972946536e+00	 1.229352082482767e+01
 2.067844936288086e+00	 1.116471353055012e+00	 1.229525136639581e+01
 2.057090450400474e+00	 1.136164606355898e+00	 1.229545190835309e+01
 2.046133505511988e+00	 1.155780671483765e+00	 1.229455608277524e+01
 2.034974826525907e+00	 1.175316492083581e+00	 1.229298952087727e+01
 2.023615198732285e+00	 1.194769018272925e+00	 1.229113700414426e+01
 2.012055467829828e+00	 1.214135208111189e+00	 1.228933332375050e+01
 2.126514759744138e+00	 1.020773287653006e+00	 1.224952009471231e+01
 2.116744785511231e+00	 1.040881738875128e+00	 1.226108964250963e+01
 2.106768859410999e+00	 1.060928097638494e+00	 1.226947024852193e+01
 2.096587407785516e+00	 1.080909285454883e+00	 1.227520552916745e+01
 2.086200916859602e+00	 1.100822223091359e+00	 1.227878399145754e+01
 2.075609932968031e+00	 1.120663831996600e+00	 1.228060160856181e+01
 2.064815062742778e+00	 1.140431035739509e+00	 1.228096958712798e+01
 2.053816973259728e+00	 1.160120761458857e+00	 1.228031757888079e+01
 2.042616392144289e+00	 1.179729941322622e+00	 1.227906394106154e+01
 2.031214107635401e+00	 1.199255513995705e+00	 1.227758660381101e+01
 2.019610968607495e+00	 1.218694426114637e+00	 1.227621386013987e+01
 2.134470185797058e+00	 1.024592065004682e+00	 1.223578866998956e+01
 2.124663661473299e+00	 1.044775743213258e+00	 1.224696062688638e+01
 2.114650414803146e+00	 1.064897096671347e+00	 1.225507385754046e+01
 2.104430873723678e+00	 1.084953035373888e+00	 1.226066733569208e+01
 2.094005526278741e+00	 1.104940468568320e+00	 1.226422881244268e+01
 2.083374920847009e+00	 1.124856306186241e+00	 1.226613018514872e+01
 2.072539666329936e+00	 1.144697460287411e+00	 1.226665750486038e+01
 2.061500432299009e+00	 1.164460846514808e+00	 1.226624129127991e+01
 2.050257949101757e+00	 1.184143385559435e+00	 1.226529052647759e+01
 2.038813007926001e+00	 1.203742004633522e+00	 1.226417388762560e+01
 2.027166460821896e+00	 1.223253638950750e+00	 1.226321046970945e+01
 2.142425600578789e+00	 1.028410836945792e+00	 1.222225584341948e+01
 2.132582526216002e+00	 1.048669742034235e+00	 1.223302814837563e+01
 2.122531959028857e+00	 1.068866090080803e+00	 1.224087725759249e+01
 2.112274328549429e+00	 1.088996779563608e+00	 1.224633655784780e+01
 2.101810124640586e+00	 1.109058708210477e+00	 1.224989195212859e+01
 2.091139897724899e+00	 1.129048774435946e+00	 1.225186658692238e+01
 2.080264258973291e+00	 1.148963878790642e+00	 1.225254309750999e+01
 2.069183880452850e+00	 1.168800925421771e+00	 1.225234925385741e+01
 2.057899495233219e+00	 1.188556823543375e+00	 1.225168257347493e+01
 2.046411897451093e+00	 1.208228488915024e+00	 1.225090009416894e+01
 2.034721942332342e+00	 1.227812845327571e+00	 1.225030903177517e+01
 2.150381001835161e+00	 1.032229602394291e+00	 1.220892158639877e+01
 2.140501377495537e+00	 1.052563734234695e+00	 1.221930556466014e+01
 2.130413489854918e+00	 1.072835076742238e+00	 1.222690371472147e+01
 2.120117770040366e+00	 1.093040516878224e+00	 1.223224286335669e+01
 2.109614709733765e+00	 1.113176940850887e+00	 1.223580431862991e+01
 2.098904861401575e+00	 1.133241235557722e+00	 1.223783763799891e+01
 2.087988838484186e+00	 1.153230290040244e+00	 1.223865120284954e+01
 2.076867315544271e+00	 1.173140996949903e+00	 1.223866101571842e+01
 2.065541028373582e+00	 1.192970254023798e+00	 1.223825105120782e+01
 2.054010774057679e+00	 1.212714965568865e+00	 1.223776433579727e+01
 2.042277410998140e+00	 1.232372043953140e+00	 1.223749354297220e+01
 2.158336387312002e+00	 1.036048360268131e+00	 1.219578206605505e+01
 2.148420213068101e+00	 1.056457718711270e+00	 1.220580235162564e+01
 2.138295005048113e+00	 1.076804055531025e+00	 1.221317257369202e+01
 2.127961195974085e+00	 1.097084246171915e+00	 1.221841199605506e+01
 2.117419279346907e+00	 1.117295165322609e+00	 1.222198296600963e+01
 2.106669809676916e+00	 1.137433688363579e+00	 1.222406761874950e+01
 2.095713402673961e+00	 1.157496692827257e+00	 1.222500418593077e+01
 2.084550735396291e+00	 1.177481059869356e+00	 1.222519376826141e+01
 2.073182546357754e+00	 1.197383675750061e+00	 1.222500472936276e+01
 2.061609635592767e+00	 1.217201433323694e+00	 1.222476372607362e+01
 2.049832864678601e+00	 1.236931233535500e+00	 1.222474624344239e+01
 2.166291754755141e+00	 1.039867109485265e+00	 1.218282984799217e+01
 2.156339030689888e+00	 1.060351694360594e+00	 1.219252431520253e+01
 2.146176502375230e+00	 1.080773025322537e+00	 1.219969947788101e+01
 2.135804604128185e+00	 1.101127966298864e+00	 1.220486600278030e+01
 2.125223831268640e+00	 1.121413380458700e+00	 1.220844701480079e+01
 2.114434740350801e+00	 1.141626131665528e+00	 1.221057838833123e+01
 2.103437949353958e+00	 1.161763085942720e+00	 1.221162206417504e+01
 2.092234137831928e+00	 1.181821112950286e+00	 1.221196247189451e+01
 2.080824047020644e+00	 1.201797087471521e+00	 1.221195030556739e+01
 2.069208479903361e+00	 1.221687890908163e+00	 1.221189350693807e+01
 2.057388301233035e+00	 1.241490412782693e+00	 1.221204774283743e+01
 2.174247101910407e+00	 1.043685848963648e+00	 1.217005409897117e+01
 2.164257828117094e+00	 1.064245660079298e+00	 1.217947380304457e+01
 2.154057979603053e+00	 1.084741984992150e+00	 1.218649658892670e+01
 2.143647992280264e+00	 1.105171676113251e+00	 1.219162345995613e+01
 2.133028363287593e+00	 1.125531585092218e+00	 1.219521461204646e+01
 2.122199651223107e+00	 1.145818564275578e+00	 1.219738950685207e+01
 2.111162476335520e+00	 1.166029468177674e+00	 1.219852263209730e+01
 2.099917520674204e+00	 1.186161154962848e+00	 1.219897998240337e+01
 2.088465528197159e+00	 1.206210487937535e+00	 1.219909253248806e+01
 2.076807304836467e+00	 1.226174337050922e+00	 1.219914717562265e+01
 2.064943718520748e+00	 1.246049580402761e+00	 1.219937714614157e+01
 1.989388935524150e+00	 1.200457536016417e+00	 1.232949846506610e+01
 1.977762476655390e+00	 1.219517197002342e+00	 1.232584892588140e+01
 1.965940023191580e+00	 1.238485510600662e+00	 1.232095244819425e+01
 1.953922593049960e+00	 1.257359503827861e+00	 1.231469557776378e+01
 1.941711263511819e+00	 1.276136217473172e+00	 1.230684136666786e+01
 1.929307171029115e+00	 1.294812707563214e+00	 1.229701874392495e+01
 1.916711510988107e+00	 1.313386046824939e+00	 1.228471161903215e+01
 1.903925537429925e+00	 1.331853326145434e+00	 1.226924774524870e+01
 1.890950562728077e+00	 1.350211656027125e+00	 1.224978737289068e+01
 1.877787957222933e+00	 1.368458168036886e+00	 1.222531172637894e+01
 1.864439148813270e+00	 1.386590016247609e+00	 1.219461134227306e+01
 1.996944449147465e+00	 1.205016761770121e+00	 1.231596678140153e+01
 1.985273834072144e+00	 1.224148809570533e+00	 1.231262846711846e+01
 1.973406480032670e+00	 1.243189163054434e+00	 1.230783627753408e+01
 1.961343408812223e+00	 1.262134837947207e+00	 1.230152550695483e+01
 1.949085701783490e+00	 1.280982863799295e+00	 1.229350965499261e+01
 1.936634499714556e+00	 1.299730285456395e+00	 1.228346959921828e+01
 1.923991002531625e+00	 1.318374164527963e+00	 1.227094248478242e+01
 1.911156469038548e+00	 1.336911580852564e+00	 1.225531035783700e+01
 1.898132216593087e+00	 1.355339633958594e+00	 1.223578857312818e+01
 1.884919620740023e+00	 1.373655444518904e+00	 1.221141400971048e+01
 1.871520114801142e+00	 1.391856155797832e+00	 1.218103313232912e+01
 2.004499960629588e+00	 1.209575986232364e+00	 1.230258097216939e+01
 1.992785189360277e+00	 1.228780420826792e+00	 1.229958504950653e+01
 1.980872934757937e+00	 1.247892814175880e+00	 1.229493650570205e+01
 1.968764222471682e+00	 1.266910170713916e+00	 1.228861765498562e+01
 1.956460137965593e+00	 1.285829508752559e+00	 1.228049084068882e+01
 1.943961826323868e+00	 1.304647861956592e+00	 1.227028741295903e+01
 1.931270492012660e+00	 1.323362280817980e+00	 1.225759640703600e+01
 1.918387398598522e+00	 1.341969834126770e+00	 1.224185294891004e+01
 1.905313868423473e+00	 1.360467610437339e+00	 1.222232641881821e+01
 1.892051282236691e+00	 1.378852719528515e+00	 1.219810840671990e+01
 1.878601078782971e+00	 1.397122293856093e+00	 1.216810049760048e+01
 2.012055467829828e+00	 1.214135208111189e+00	 1.228933332375050e+01
 2.000296540391606e+00	 1.233412029458653e+00	 1.228669354484906e+01
 1.988339385251911e+00	 1.252596462632128e+00	 1.228221138789112e+01
 1.976185031925786e+00	 1.271685500774818e+00	 1.227591447637875e+01
 1.963834569968696e+00	 1.290676150959604e+00	 1.226771241221917e+01
 1.951289148780951e+00	 1.309565435670361e+00	 1.225738556156926e+01
 1.938549977368639e+00	 1.328350394281576e+00	 1.224457352437764e+01
 1.925618324061019e+00	 1.347028084534785e+00	 1.222876331440781e+01
 1.912495516184350e+00	 1.365595584010351e+00	 1.220927728026572e+01
 1.899182939692204e+00	 1.384049991593090e+00	 1.218526080174924e+01
 1.885682038752376e+00	 1.402388428930264e+00	 1.215566979965482e+01
 2.019610968607495e+00	 1.218694426114637e+00	 1.227621386013987e+01
 2.007807885037947e+00	 1.238043634153649e+00	 1.227392682368030e+01
 1.995805829399123e+00	 1.257300107090308e+00	 1.226961742042469e+01
 1.983605835071982e+00	 1.276460826776742e+00	 1.226335688980408e+01
 1.971208995703370e+00	 1.295522789047066e+00	 1.225510052519149e+01
 1.958616465009702e+00	 1.314483005204259e+00	 1.224467627099093e+01
 1.945829456536996e+00	 1.333338503505338e+00	 1.223177298609258e+01
 1.932849243377207e+00	 1.352086330643339e+00	 1.221592840042030e+01
 1.919677157840830e+00	 1.370723553224621e+00	 1.219651679514406e+01
 1.906314591085828e+00	 1.389247259240002e+00	 1.217273644103288e+01
 1.892762992702984e+00	 1.407654559528214e+00	 1.214359683335715e+01
 2.027166460821896e+00	 1.223253638950750e+00	 1.226321046970945e+01
 2.015319221171121e+00	 1.242675233599315e+00	 1.226125588012075e+01
 2.003272265084102e+00	 1.262003746217548e+00	 1.225710946387115e+01
 1.991026629807716e+00	 1.281236147366518e+00	 1.225088439962053e+01
 1.978583413080184e+00	 1.300369421641584e+00	 1.224258012249813e+01
 1.965943772934017e+00	 1.319400569164842e+00	 1.223207073559494e+01
 1.953108927455161e+00	 1.338326607075852e+00	 1.221909307001888e+01
 1.940080154498257e+00	 1.357144571019162e+00	 1.220323442015939e+01
 1.926858791358031e+00	 1.375851516627142e+00	 1.218391998476375e+01
 1.913446234396830e+00	 1.394444520996620e+00	 1.216040004844282e+01
 1.899843938628414e+00	 1.412920684157815e+00	 1.213173694227293e+01
 2.034721942332342e+00	 1.227812845327571e+00	 1.225030903177517e+01
 2.022830546662941e+00	 1.247306826483184e+00	 1.224864995662765e+01
 2.010738690191378e+00	 1.266707378680977e+00	 1.224464086613867e+01
 1.998447414030436e+00	 1.286011461190974e+00	 1.223843521747821e+01
 1.985957820009707e+00	 1.305216047369794e+00	 1.223007505458970e+01
 1.973271070477796e+00	 1.324318126158666e+00	 1.221947923729270e+01
 1.960388388060565e+00	 1.343314703579704e+00	 1.220643130066501e+01
 1.947311055375339e+00	 1.362202804228986e+00	 1.219056697125172e+01
 1.934040414701069e+00	 1.380979472764906e+00	 1.217136137071241e+01
 1.920577867604473e+00	 1.399641775390316e+00	 1.214811594164885e+01
 1.906924874522291e+00	 1.418186801326936e+00	 1.211994513452359e+01
 2.042277410998140e+00	 1.232372043953140e+00	 1.223749354297220e+01
 2.030341859385229e+00	 1.251938411492789e+00	 1.223607666864212e+01
 2.018205102605480e+00	 1.271411003147725e+00	 1.223216358555013e+01
 2.005868185637590e+00	 1.290786766896941e+00	 1.222594638397795e+01
 1.993332214402511e+00	 1.310062664858336e+00	 1.221750819987862e+01
 1.980598355564936e+00	 1.329235674792287e+00	 1.220681126484397e+01
 1.967667836290638e+00	 1.348302791603481e+00	 1.219368456758402e+01
 1.954541943959624e+00	 1.367261028839541e+00	 1.217781115334335e+01
 1.941222025835057e+00	 1.386107420184904e+00	 1.215871509185514e+01
 1.927709488688025e+00	 1.404839020948460e+00	 1.213574814868181e+01
 1.914005798378236e+00	 1.423452909543449e+00	 1.210807619908155e+01
 2.049832864678601e+00	 1.236931233535500e+00	 1.222474624344239e+01
 2.037853157209798e+00	 1.256569987315664e+00	 1.222350212913467e+01
 2.025671500210940e+00	 1.276114618284919e+00	 1.221962831389706e+01
 2.013288942526624e+00	 1.295562063131247e+00	 1.221335389038610e+01
 2.000706594169164e+00	 1.314909272733847e+00	 1.220480158526774e+01
 1.987925626119334e+00	 1.334153213672261e+00	 1.219397563335457e+01
 1.974947270082814e+00	 1.353290869733770e+00	 1.218074924399689e+01
 1.961772818202281e+00	 1.372319243417560e+00	 1.216485168600668e+01
 1.948403622725112e+00	 1.391235357434127e+00	 1.214585502168460e+01
 1.934841095626754e+00	 1.410036256198424e+00	 1.212316052488810e+01
 1.921086708189874e+00	 1.428719007315223e+00	 1.209598482249186e+01
 2.057388301233035e+00	 1.241490412782693e+00	 1.221204774283743e+01
 2.045364438008468e+00	 1.261201552639344e+00	 1.221089107305043e+01
 2.033137880892288e+00	 1.280818222759688e+00	 1.220698459947240e+01
 2.020709682594987e+00	 1.300337348540723e+00	 1.220059280040143e+01
 2.008080957220236e+00	 1.319755869622965e+00	 1.219187650679978e+01
 1.995252880064886e+00	 1.339070741405143e+00	 1.218088060395798e+01
 1.982226687374521e+00	 1.358278936557156e+00	 1.216752130565726e+01
 1.969003676054482e+00	 1.377377446529773e+00	 1.215157302694053e+01
 1.955585203336348e+00	 1.396363283059569e+00	 1.213265488601067e+01
 1.941972686399922e+00	 1.415233479667579e+00	 1.211021687026403e+01
 1.928167601950828e+00	 1.433985093150131e+00	 1.208352570600822e+01
 2.064943718520748e+00	 1.246049580402761e+00	 1.219937714614157e+01
 2.052875699653055e+00	 1.265833106151361e+00	 1.219820698165553e+01
 2.040604242534051e+00	 1.285521815239163e+00	 1.219418097008108e+01
 2.028130403740126e+00	 1.305112621772199e+00	 1.218759737197179e+01
 2.015455301466299e+00	 1.324602454152327e+00	 1.217865365042319e+01
 2.002580115325494e+00	 1.343988256597492e+00	 1.216743400367454e+01
 1.989506086103193e+00	 1.363266990660227e+00	 1.215389644994968e+01
 1.976234515467395e+00	 1.382435636742910e+00	 1.213785949045482e+01
 1.962766765633880e+00	 1.401491195608219e+00	 1.211898838097936e+01
 1.949104258986799e+00	 1.420430689883295e+00	 1.209678104715905e+01
 1.935248477654718e+00	 1.439251165556041e+00	 1.207055368313151e+01
 1.864439148813270e+00	 1.386590016247609e+00	 1.219461134227306e+01
 1.850903307320891e+00	 1.404607429438896e+00	 1.216351576405605e+01
 1.837184235171193e+00	 1.422504508563369e+00	 1.213722226519367e+01
 1.823283538569292e+00	 1.440278472033041e+00	 1.211276160841380e+01
 1.809202879294923e+00	 1.457926566399106e+00	 1.208688623497240e+01
 1.794943974079505e+00	 1.475446067740176e+00	 1.205633908454303e+01
 1.780508593941997e+00	 1.492834283034248e+00	 1.202028846960737e+01
 1.765898563484045e+00	 1.510088551512984e+00	 1.198506584100608e+01
 1.751115760144993e+00	 1.527206245996894e+00	 1.195082097723638e+01
 1.736162113417373e+00	 1.544184774210023e+00	 1.191723854768008e+01
 1.721039604023517e+00	 1.561021580072778e+00	 1.188415580335302e+01
 1.871520114801142e+00	 1.391856155797832e+00	 1.218103313232912e+01
 1.857932865445300e+00	 1.409941997443875e+00	 1.215028938952419e+01
 1.844161689539152e+00	 1.427907048005617e+00	 1.212403463390627e+01
 1.830208199388038e+00	 1.445748515330842e+00	 1.209945004187836e+01
 1.816074063082990e+00	 1.463463635513391e+00	 1.207321099058665e+01
 1.801761003875421e+00	 1.481049674286660e+00	 1.204194999386525e+01
 1.787270799510458e+00	 1.498503928400789e+00	 1.200759925193960e+01
 1.772605281519428e+00	 1.515823726982075e+00	 1.197437921280948e+01
 1.757766334472023e+00	 1.533006432873232e+00	 1.194171898562144e+01
 1.742755895188810e+00	 1.550049443953068e+00	 1.190922924602331e+01
 1.727575951914733e+00	 1.566950194434223e+00	 1.187667848156396e+01
 1.878601078782971e+00	 1.397122293856093e+00	 1.216810049760048e+01
 1.864962421578210e+00	 1.415276563937467e+00	 1.213774535141960e+01
 1.851139141930328e+00	 1.433309585917184e+00	 1.211161343172125e+01
 1.837132858244895e+00	 1.451218557078806e+00	 1.208689854196016e+01
 1.822945244924235e+00	 1.469000703058818e+00	 1.206028163664119e+01
 1.808578031739763e+00	 1.486653279245410e+00	 1.202872285752915e+01
 1.794033003162784e+00	 1.504173572160856e+00	 1.199652473732162e+01
 1.779311997654301e+00	 1.521558900826096e+00	 1.196512310373419e+01
 1.764416906914359e+00	 1.538806618106047e+00	 1.193387072647725e+01
 1.749349675091570e+00	 1.555914112034282e+00	 1.190231138387712e+01
 1.734112297953490e+00	 1.572878807115677e+00	 1.187015224832249e+01
 1.885682038752376e+00	 1.402388428930264e+00	 1.215566979965482e+01
 1.871991973727809e+00	 1.420611127408160e+00	 1.212573075428099e+01
 1.858116590367678e+00	 1.438712120767305e+00	 1.209975095206402e+01
 1.844057513177781e+00	 1.456688595727043e+00	 1.207490930328707e+01
 1.829816422871745e+00	 1.474537767466510e+00	 1.204790489475747e+01
 1.815395055740979e+00	 1.492256881028687e+00	 1.201696952196767e+01
 1.800795202982969e+00	 1.509843212707999e+00	 1.198675197390879e+01
 1.786018709988396e+00	 1.527294071420026e+00	 1.195699520038648e+01
 1.771067475587658e+00	 1.544606800051898e+00	 1.192698552632420e+01
 1.755943451257415e+00	 1.561778776791955e+00	 1.189620687440009e+01
 1.740648640287829e+00	 1.578807416437315e+00	 1.186431249905077e+01
 1.892762992702984e+00	 1.407654559528214e+00	 1.214359683335715e+01
 1.879021519902285e+00	 1.425945686344444e+00	 1.211409335057204e+01
 1.865094032874155e+00	 1.444114651025215e+00	 1.208826030111027e+01
 1.850982162224622e+00	 1.462158629725662e+00	 1.206327916102868e+01
 1.836687594978606e+00	 1.480074827167581e+00	 1.203588205827448e+01
 1.822212073947515e+00	 1.497860478048757e+00	 1.200637362772950e+01
 1.807557397055009e+00	 1.515512848435769e+00	 1.197797086597113e+01
 1.792725416621447e+00	 1.533029237138850e+00	 1.194969592100291e+01
 1.777718038607577e+00	 1.550406977067346e+00	 1.192077527801937e+01
 1.762537221818100e+00	 1.567643436564377e+00	 1.189063999271779e+01
 1.747184977065789e+00	 1.584736020719312e+00	 1.185889674951280e+01
 1.899843938628414e+00	 1.412920684157815e+00	 1.213173694227293e+01
 1.886051058109825e+00	 1.431280239234809e+00	 1.210268048255235e+01
 1.872071467472716e+00	 1.449517175160149e+00	 1.207698242573551e+01
 1.857906803423340e+00	 1.467628657524773e+00	 1.205182024692160e+01
 1.843558759297907e+00	 1.485611880593152e+00	 1.202422758645339e+01
 1.829029084427817e+00	 1.503464068717884e+00	 1.199661870525529e+01
 1.814319583462900e+00	 1.521182477737717e+00	 1.196987435799951e+01
 1.799432115653187e+00	 1.538764396357546e+00	 1.194292859948789e+01
 1.784368594089770e+00	 1.556207147508950e+00	 1.191495462493586e+01
 1.769130984905386e+00	 1.573508089689840e+00	 1.188533756043748e+01
 1.753721306435410e+00	 1.590664618281842e+00	 1.185364482084190e+01
 1.906924874522291e+00	 1.418186801326936e+00	 1.211994513452359e+01
 1.893080586358616e+00	 1.436614784567744e+00	 1.209133919812857e+01
 1.879048892186315e+00	 1.454919691641342e+00	 1.206575816927529e+01
 1.864831434811856e+00	 1.473098677574487e+00	 1.204038202555682e+01
 1.850429913882734e+00	 1.491148926174340e+00	 1.201321973698000e+01
 1.835846085250330e+00	 1.509067651448332e+00	 1.198739159239312e+01
 1.821081760290637e+00	 1.526852099007392e+00	 1.196215861924020e+01
 1.806138805183349e+00	 1.544499547451097e+00	 1.193639966984312e+01
 1.791019140149892e+00	 1.562007309733271e+00	 1.190924114548842e+01
 1.775724738651032e+00	 1.579372734506631e+00	 1.188002913045523e+01
 1.760257626544733e+00	 1.596593207445081e+00	 1.184829902479832e+01
 1.914005798378236e+00	 1.423452909543449e+00	 1.210807619908155e+01
 1.900110102656846e+00	 1.441949320831738e+00	 1.207991636717226e+01
 1.886026305037907e+00	 1.460322198938027e+00	 1.205442820279251e+01
 1.871756054428095e+00	 1.478568688324913e+00	 1.202880095410299e+01
 1.857301056786175e+00	 1.496685962342265e+00	 1.200260062586192e+01
 1.842663074483502e+00	 1.514671224652364e+00	 1.197838261969722e+01
 1.827843925622218e+00	 1.532521710638346e+00	 1.195452322864506e+01
 1.812845483311668e+00	 1.550234688794485e+00	 1.192981885097711e+01
 1.797669674903600e+00	 1.567807462096869e+00	 1.190335553799465e+01
 1.782318481186795e+00	 1.585237369353043e+00	 1.187444717204551e+01
 1.766793935541797e+00	 1.602521786529205e+00	 1.184260434924874e+01
 1.921086708189874e+00	 1.428719007315223e+00	 1.209598482249186e+01
 1.907139605012702e+00	 1.447283846515282e+00	 1.206825879829125e+01
 1.893003704050447e+00	 1.465724695519441e+00	 1.204283314228616e+01
 1.878680660309978e+00	 1.484038688226160e+00	 1.201697809650268e+01
 1.864172186061317e+00	 1.502222987528044e+00	 1.199215428001748e+01
 1.849480050195777e+00	 1.520274786742246e+00	 1.196928579615471e+01
 1.834606077541637e+00	 1.538191311024130e+00	 1.194667136022382e+01
 1.819552148137876e+00	 1.555969818762690e+00	 1.192289933188240e+01
 1.804320196466549e+00	 1.573607602956306e+00	 1.189702180586084e+01
 1.788912210644436e+00	 1.591101992567367e+00	 1.186832725622433e+01
 1.773330231574643e+00	 1.608450353854388e+00	 1.183630864386001e+01
 1.928167601950828e+00	 1.433985093150131e+00	 1.208352570600822e+01
 1.914169091434372e+00	 1.452618360106865e+00	 1.205621335604116e+01
 1.899981087246890e+00	 1.471127179854817e+00	 1.203081366635539e+01
 1.885605250495428e+00	 1.489508675728339e+00	 1.200516454087888e+01
 1.871043299761248e+00	 1.507760000162794e+00	 1.198162477194724e+01
 1.856297010455603e+00	 1.525878336130241e+00	 1.195982950384006e+01
 1.841368214132891e+00	 1.543860898558293e+00	 1.193830996878656e+01
 1.826258797761706e+00	 1.561704935730695e+00	 1.191535795716911e+01
 1.810970702954395e+00	 1.579407730668139e+00	 1.188996744308214e+01
 1.795505925155712e+00	 1.596966602487890e+00	 1.186140824137641e+01
 1.779866512791311e+00	 1.614378907740806e+00	 1.182916280599932e+01
 1.935248477654718e+00	 1.439251165556041e+00	 1.207055368313151e+01
 1.921198559930043e+00	 1.457952860094976e+00	 1.204362707856470e+01
 1.906958452650192e+00	 1.476529650413391e+00	 1.201821063430565e+01
 1.892529823022367e+00	 1.494978649281559e+00	 1.199319879053683e+01
 1.877914395939055e+00	 1.513296998677638e+00	 1.197076116920635e+01
 1.863113953331427e+00	 1.531481871228614e+00	 1.194984428451097e+01
 1.848130333479975e+00	 1.549530471634388e+00	 1.192914997606365e+01
 1.832965430282894e+00	 1.567440038073481e+00	 1.190691541294335e+01
 1.817621192482792e+00	 1.585207843588931e+00	 1.188192362004641e+01
 1.802099622852384e+00	 1.602831197452905e+00	 1.185343245913747e+01
 1.786402777339841e+00	 1.620307446508633e+00	 1.182092096683361e+01
 1.721039604023517e+00	 1.561021580072778e+00	 1.188415580335302e+01
 1.705752871481626e+00	 1.577711324479812e+00	 1.184663991024467e+01
 1.690301416359099e+00	 1.594254425523221e+00	 1.180062010990106e+01
 1.674687339431072e+00	 1.610648471685908e+00	 1.174742357633352e+01
 1.658912789003697e+00	 1.626891092545054e+00	 1.168845972487773e+01
 1.642979959922168e+00	 1.642979959922168e+00	 1.162518468103169e+01
 1.626891092545055e+00	 1.658912789003697e+00	 1.155906481930385e+01
 1.610648471685908e+00	 1.674687339431073e+00	 1.149153961775223e+01
 1.594254425523221e+00	 1.690301416359099e+00	 1.142398408035906e+01
 1.577711324479812e+00	 1.705752871481626e+00	 1.135767098426462e+01
 1.561021580072778e+00	 1.721039604023517e+00	 1.129373321213025e+01
 1.727575951914733e+00	 1.566950194434223e+00	 1.187667848156396e+01
 1.712231161788455e+00	 1.583703324933919e+00	 1.183933920807457e+01
 1.696721023480571e+00	 1.600309255132129e+00	 1.179339750212761e+01
 1.681047645744755e+00	 1.616765564353048e+00	 1.174019584978143e+01
 1.665213185046218e+00	 1.633069873171222e+00	 1.168116282520869e+01
 1.649219844565963e+00	 1.649219844565963e+00	 1.161777661591244e+01
 1.633069873171222e+00	 1.665213185046219e+00	 1.155152758546347e+01
 1.616765564353048e+00	 1.681047645744757e+00	 1.148388012549508e+01
 1.600309255132129e+00	 1.696721023480571e+00	 1.141623405534786e+01
 1.583703324933918e+00	 1.712231161788455e+00	 1.134988583278849e+01
 1.566950194434223e+00	 1.727575951914733e+00	 1.128598984259190e+01
 1.734112297953490e+00	 1.572878807115677e+00	 1.187015224832249e+01
 1.718709450259242e+00	 1.589695323690025e+00	 1.183288444478156e+01
 1.703140628782617e+00	 1.606364083025182e+00	 1.178695546174787e+01
 1.687407950255825e+00	 1.622882655286639e+00	 1.173371782083672e+01
 1.671513579303124e+00	 1.639248652046312e+00	 1.167461394998242e+01
 1.655459727441323e+00	 1.655459727441322e+00	 1.161113875305507e+01
 1.639248652046312e+00	 1.671513579303124e+00	 1.154480118388713e+01
 1.622882655286639e+00	 1.687407950255825e+00	 1.147708508260517e+01
 1.606364083025182e+00	 1.703140628782617e+00	 1.140940953901484e+01
 1.589695323690025e+00	 1.718709450259243e+00	 1.134308905297614e+01
 1.572878807115678e+00	 1.734112297953491e+00	 1.127929376519124e+01
 1.740648640287829e+00	 1.578807416437315e+00	 1.186431249905077e+01
 1.725187735058482e+00	 1.595687319050353e+00	 1.182702388606452e+01
 1.709560230446359e+00	 1.612418907486808e+00	 1.178105311274661e+01
 1.693768251162196e+00	 1.628999742753476e+00	 1.172775756943062e+01
 1.677813969989298e+00	 1.645427427419650e+00	 1.166858834717768e+01
 1.661699606780268e+00	 1.661699606780268e+00	 1.160505183940521e+01
 1.645427427419649e+00	 1.677813969989298e+00	 1.153867031417301e+01
 1.628999742753476e+00	 1.693768251162197e+00	 1.147094172128806e+01
 1.612418907486807e+00	 1.709560230446359e+00	 1.140329900544162e+01
 1.595687319050353e+00	 1.725187735058483e+00	 1.133706920194274e+01
 1.578807416437315e+00	 1.740648640287829e+00	 1.127343259521817e+01
 1.747184977065789e+00	 1.584736020719312e+00	 1.185889674951280e+01
 1.731666014350667e+00	 1.601679309317123e+00	 1.182150766284495e+01
 1.715979826652915e+00	 1.618473726801433e+00	 1.177545119796457e+01
 1.700128546661788e+00	 1.635116825020353e+00	 1.172208455650945e+01
 1.684114355319626e+00	 1.651606197540560e+00	 1.166286241628476e+01
 1.667939480814823e+00	 1.667939480814823e+00	 1.159929755209904e+01
 1.651606197540561e+00	 1.684114355319627e+00	 1.153292039284770e+01
 1.635116825020352e+00	 1.700128546661788e+00	 1.146523778537840e+01
 1.618473726801432e+00	 1.715979826652915e+00	 1.139769124293036e+01
 1.601679309317123e+00	 1.731666014350667e+00	 1.133161496145347e+01
 1.584736020719312e+00	 1.747184977065789e+00	 1.126819389084437e+01
 1.753721306435410e+00	 1.590664618281842e+00	 1.185364482084190e+01
 1.738144286300291e+00	 1.607671292792556e+00	 1.181608795656187e+01
 1.722399415583405e+00	 1.624528539253485e+00	 1.176991226402024e+01
 1.706488834952518e+00	 1.641233900354063e+00	 1.171646980796953e+01
 1.690414733508997e+00	 1.657784960658371e+00	 1.165721389066560e+01
 1.674179347777009e+00	 1.674179347777009e+00	 1.159365867868864e+01
 1.657784960658371e+00	 1.690414733508997e+00	 1.152733773092484e+01
 1.641233900354063e+00	 1.706488834952518e+00	 1.145976170472866e+01
 1.624528539253484e+00	 1.722399415583405e+00	 1.139237552474800e+01
 1.607671292792556e+00	 1.738144286300292e+00	 1.132651530457953e+01
 1.590664618281842e+00	 1.753721306435410e+00	 1.126336531527705e+01
 1.760257626544733e+00	 1.596593207445081e+00	 1.184829902479832e+01
 1.744622549071847e+00	 1.613663267778873e+00	 1.181051918463583e+01
 1.728818995418950e+00	 1.630583343127389e+00	 1.176420084635033e+01
 1.712849114232304e+00	 1.647350967021405e+00	 1.171068609866911e+01
 1.696715102772293e+00	 1.663963715022407e+00	 1.165142201995960e+01
 1.680419205898848e+00	 1.680419205898847e+00	 1.158791929739023e+01
 1.663963715022407e+00	 1.696715102772293e+00	 1.152170971147249e+01
 1.647350967021405e+00	 1.712849114232305e+00	 1.145430276959997e+01
 1.630583343127389e+00	 1.728818995418950e+00	 1.138714177987452e+01
 1.613663267778873e+00	 1.744622549071847e+00	 1.132155966236614e+01
 1.596593207445081e+00	 1.760257626544733e+00	 1.125873479893902e+01
 1.766793935541797e+00	 1.602521786529205e+00	 1.184260434924874e+01
 1.751100800829827e+00	 1.619655232578295e+00	 1.180455818609532e+01
 1.735238564340668e+00	 1.636638136707574e+00	 1.175808365436284e+01
 1.719209382699064e+00	 1.653468023289169e+00	 1.170450813651377e+01
 1.703015461324401e+00	 1.670142458881994e+00	 1.164526775253177e+01
 1.686659053412363e+00	 1.686659053412363e+00	 1.158186495735294e+01
 1.670142458881994e+00	 1.703015461324401e+00	 1.151582496718700e+01
 1.653468023289169e+00	 1.719209382699064e+00	 1.144865130505400e+01
 1.636638136707574e+00	 1.735238564340668e+00	 1.138178076375314e+01
 1.619655232578294e+00	 1.751100800829828e+00	 1.131653809051070e+01
 1.602521786529205e+00	 1.766793935541797e+00	 1.125409070167383e+01
 1.773330231574643e+00	 1.608450353854388e+00	 1.183630864386001e+01
 1.757579039738728e+00	 1.625647185493043e+00	 1.179796440735953e+01
 1.741658120529679e+00	 1.642692918278465e+00	 1.175132975669882e+01
 1.725569638550716e+00	 1.659585067424153e+00	 1.169771274661111e+01
 1.709315807380207e+00	 1.676321190486458e+00	 1.163853391796070e+01
 1.692898888549577e+00	 1.692898888549577e+00	 1.157528285894589e+01
 1.676321190486458e+00	 1.709315807380207e+00	 1.150947355797187e+01
 1.659585067424152e+00	 1.725569638550716e+00	 1.144259884534342e+01
 1.642692918278465e+00	 1.741658120529680e+00	 1.137608422904061e+01
 1.625647185493043e+00	 1.757579039738728e+00	 1.131124143604927e+01
 1.608450353854388e+00	 1.773330231574643e+00	 1.124922197497339e+01
 1.779866512791311e+00	 1.614378907740806e+00	 1.182916280599932e+01
 1.764057263963040e+00	 1.631639124825339e+00	 1.179050008817151e+01
 1.748077662167105e+00	 1.648747686124491e+00	 1.174371076659718e+01
 1.731929879985176e+00	 1.665702097693149e+00	 1.169007905549121e+01
 1.715616139154597e+00	 1.682499908085125e+00	 1.163100540956279e+01
 1.699138709542511e+00	 1.699138709542511e+00	 1.156796203406059e+01
 1.682499908085125e+00	 1.715616139154597e+00	 1.150244714851922e+01
 1.665702097693149e+00	 1.731929879985177e+00	 1.143593830829980e+01
 1.648747686124491e+00	 1.748077662167105e+00	 1.136984509635628e+01
 1.631639124825338e+00	 1.764057263963040e+00	 1.130546150404945e+01
 1.614378907740805e+00	 1.779866512791310e+00	 1.124391832422577e+01
 1.786402777339841e+00	 1.620307446508633e+00	 1.182092096683361e+01
 1.770535471667258e+00	 1.637631048877402e+00	 1.178193044767534e+01
 1.754497187434063e+00	 1.654802438530077e+00	 1.173500102735849e+01
 1.738290105200364e+00	 1.671819112362954e+00	 1.168138867538900e+01
 1.721916454862457e+00	 1.688678609927321e+00	 1.162246936695063e+01
 1.705378514623189e+00	 1.705378514623189e+00	 1.155969352642745e+01
 1.688678609927321e+00	 1.721916454862457e+00	 1.149453918589228e+01
 1.671819112362954e+00	 1.738290105200364e+00	 1.142846416971698e+01
 1.654802438530077e+00	 1.754497187434064e+00	 1.136285762502794e+01
 1.637631048877402e+00	 1.770535471667259e+00	 1.129899122430795e+01
 1.620307446508632e+00	 1.786402777339840e+00	 1.123797037098151e+01
 1.561021580072778e+00	 1.721039604023517e+00	 1.129373321213025e+01
 1.544184774210024e+00	 1.736162113417373e+00	 1.122939692059398e+01
 1.527206245996895e+00	 1.751115760144993e+00	 1.116185662040862e+01
 1.510088551512984e+00	 1.765898563484043e+00	 1.109186777418404e+01
 1.492834283034248e+00	 1.780508593941995e+00	 1.101993026095201e+01
 1.475446067740177e+00	 1.794943974079505e+00	 1.094649418696531e+01
 1.457926566399107e+00	 1.809202879294922e+00	 1.087418322853436e+01
 1.440278472033042e+00	 1.823283538569291e+00	 1.080291428301643e+01
 1.422504508563371e+00	 1.837184235171193e+00	 1.073134485395738e+01
 1.404607429438897e+00	 1.850903307320891e+00	 1.065764847303336e+01
 1.386590016247609e+00	 1.864439148813270e+00	 1.057765024574327e+01
 1.566950194434223e+00	 1.727575951914733e+00	 1.128598984259190e+01
 1.550049443953068e+00	 1.742755895188809e+00	 1.122192331492901e+01
 1.533006432873233e+00	 1.757766334472022e+00	 1.115501472432745e+01
 1.515823726982076e+00	 1.772605281519428e+00	 1.108600909722851e+01
 1.498503928400790e+00	 1.787270799510458e+00	 1.101538968497189e+01
 1.481049674286661e+00	 1.801761003875420e+00	 1.094334447678131e+01
 1.463463635513391e+00	 1.816074063082990e+00	 1.087166586692300e+01
 1.445748515330843e+00	 1.830208199388039e+00	 1.080125553360451e+01
 1.427907048005618e+00	 1.844161689539151e+00	 1.073070765350936e+01
 1.409941997443876e+00	 1.857932865445300e+00	 1.065762105076048e+01
 1.391856155797832e+00	 1.871520114801143e+00	 1.057648083158891e+01
 1.572878807115678e+00	 1.734112297953491e+00	 1.127929376519124e+01
 1.555914112034282e+00	 1.749349675091570e+00	 1.121554823245390e+01
 1.538806618106048e+00	 1.764416906914358e+00	 1.114931742963904e+01
 1.521558900826097e+00	 1.779311997654300e+00	 1.108133953203080e+01
 1.504173572160857e+00	 1.794033003162784e+00	 1.101208468240002e+01
 1.486653279245410e+00	 1.808578031739762e+00	 1.094171931468397e+01
 1.469000703058819e+00	 1.822945244924235e+00	 1.087096364836975e+01
 1.451218557078806e+00	 1.837132858244894e+00	 1.080155370755547e+01
 1.433309585917184e+00	 1.851139141930327e+00	 1.073218874979887e+01
 1.415276563937468e+00	 1.864962421578209e+00	 1.065848871645960e+01
 1.397122293856093e+00	 1.878601078782971e+00	 1.057637499466559e+01
 1.578807416437315e+00	 1.740648640287829e+00	 1.127343259521817e+01
 1.561778776791956e+00	 1.755943451257414e+00	 1.121005810177179e+01
 1.544606800051898e+00	 1.771067475587658e+00	 1.114455044247722e+01
 1.527294071420028e+00	 1.786018709988396e+00	 1.107764455441640e+01
 1.509843212708000e+00	 1.800795202982968e+00	 1.100980101823194e+01
 1.492256881028687e+00	 1.815395055740978e+00	 1.094116937105075e+01
 1.474537767466510e+00	 1.829816422871744e+00	 1.087181737230558e+01
 1.456688595727043e+00	 1.844057513177781e+00	 1.080355184717309e+01
 1.438712120767306e+00	 1.858116590367677e+00	 1.073491569976747e+01
 1.420611127408160e+00	 1.871991973727808e+00	 1.065987025573579e+01
 1.402388428930264e+00	 1.885682038752377e+00	 1.057695394394392e+01
 1.584736020719312e+00	 1.747184977065789e+00	 1.126819389084437e+01
 1.567643436564378e+00	 1.762537221818100e+00	 1.120523911070384e+01
 1.550406977067346e+00	 1.777718038607577e+00	 1.114049903410210e+01
 1.533029237138851e+00	 1.792725416621446e+00	 1.107470900246053e+01
 1.515512848435770e+00	 1.807557397055008e+00	 1.100832360970651e+01
 1.497860478048758e+00	 1.822212073947514e+00	 1.094147897633907e+01
 1.480074827167582e+00	 1.836687594978606e+00	 1.087396718750240e+01
 1.462158629725662e+00	 1.850982162224621e+00	 1.080699121948015e+01
 1.444114651025216e+00	 1.865094032874154e+00	 1.073765761118610e+01
 1.425945686344444e+00	 1.879021519902285e+00	 1.066140888445256e+01
 1.407654559528214e+00	 1.892762992702983e+00	 1.057785065106984e+01
 1.590664618281842e+00	 1.753721306435410e+00	 1.126336531527705e+01
 1.573508089689840e+00	 1.769130984905385e+00	 1.120087736373585e+01
 1.556207147508951e+00	 1.784368594089769e+00	 1.113694819362629e+01
 1.538764396357547e+00	 1.799432115653187e+00	 1.107231722448192e+01
 1.521182477737718e+00	 1.814319583462899e+00	 1.100743666955603e+01
 1.503464068717884e+00	 1.829029084427815e+00	 1.094243274250961e+01
 1.485611880593152e+00	 1.843558759297906e+00	 1.087706862875758e+01
 1.467628657524774e+00	 1.857906803423339e+00	 1.081098090262072e+01
 1.449517175160149e+00	 1.872071467472715e+00	 1.074007056081415e+01
 1.431280239234810e+00	 1.886051058109825e+00	 1.066275928534474e+01
 1.412920684157815e+00	 1.899843938628414e+00	 1.057870961728473e+01
 1.596593207445081e+00	 1.760257626544733e+00	 1.125873479893902e+01
 1.579372734506632e+00	 1.775724738651031e+00	 1.119675903950838e+01
 1.562007309733271e+00	 1.791019140149892e+00	 1.113368278080014e+01
 1.544499547451098e+00	 1.806138805183349e+00	 1.107025322710888e+01
 1.526852099007393e+00	 1.821081760290637e+00	 1.100692384934030e+01
 1.509067651448332e+00	 1.835846085250330e+00	 1.094381449537746e+01
 1.491148926174341e+00	 1.850429913882733e+00	 1.088067329938945e+01
 1.473098677574488e+00	 1.864831434811856e+00	 1.081420715084236e+01
 1.454919691641342e+00	 1.879048892186314e+00	 1.074183047178557e+01
 1.436614784567744e+00	 1.893080586358616e+00	 1.066358737031555e+01
 1.418186801326936e+00	 1.906924874522291e+00	 1.057918664040255e+01
 1.602521786529205e+00	 1.766793935541797e+00	 1.125409070167383e+01
 1.585237369353044e+00	 1.782318481186795e+00	 1.119267054834835e+01
 1.567807462096870e+00	 1.797669674903600e+00	 1.113048767885256e+01
 1.550234688794486e+00	 1.812845483311668e+00	 1.106830082341389e+01
 1.532521710638347e+00	 1.827843925622217e+00	 1.100656838286042e+01
 1.514671224652365e+00	 1.842663074483501e+00	 1.094540741329239e+01
 1.496685962342265e+00	 1.857301056786174e+00	 1.088401663408370e+01
 1.478568688324913e+00	 1.871756054428095e+00	 1.081635265988279e+01
 1.460322198938028e+00	 1.886026305037906e+00	 1.074262418923161e+01
 1.441949320831739e+00	 1.900110102656845e+00	 1.066357004278583e+01
 1.423452909543449e+00	 1.914005798378236e+00	 1.057894858184319e+01
 1.608450353854388e+00	 1.773330231574643e+00	 1.124922197497339e+01
 1.591101992567368e+00	 1.788912210644435e+00	 1.118839868983921e+01
 1.573607602956306e+00	 1.804320196466549e+00	 1.112714794738518e+01
 1.555969818762691e+00	 1.819552148137875e+00	 1.106624378111421e+01
 1.538191311024130e+00	 1.834606077541636e+00	 1.100615322964983e+01
 1.520274786742247e+00	 1.849480050195777e+00	 1.094699416590564e+01
 1.502222987528044e+00	 1.864172186061316e+00	 1.088571234194565e+01
 1.484038688226160e+00	 1.878680660309977e+00	 1.081709821847576e+01
 1.465724695519442e+00	 1.893003704050447e+00	 1.074214923814680e+01
 1.447283846515282e+00	 1.907139605012702e+00	 1.066239496009548e+01
 1.428719007315224e+00	 1.921086708189874e+00	 1.057767313372178e+01
 1.614378907740805e+00	 1.779866512791310e+00	 1.124391832422577e+01
 1.596966602487891e+00	 1.795505925155712e+00	 1.118373081042746e+01
 1.579407730668140e+00	 1.810970702954394e+00	 1.112344897531677e+01
 1.561704935730695e+00	 1.826258797761706e+00	 1.106386597083485e+01
 1.543860898558294e+00	 1.841368214132890e+00	 1.100546121853870e+01
 1.525878336130242e+00	 1.856297010455603e+00	 1.094799149317206e+01
 1.507760000162796e+00	 1.871043299761247e+00	 1.088548175002333e+01
 1.489508675728339e+00	 1.885605250495427e+00	 1.081599094074461e+01
 1.471127179854818e+00	 1.899981087246890e+00	 1.074011358130325e+01
 1.452618360106865e+00	 1.914169091434371e+00	 1.065976029595679e+01
 1.433985093150131e+00	 1.928167601950828e+00	 1.057504858599302e+01
 1.620307446508632e+00	 1.786402777339840e+00	 1.123797037098151e+01
 1.602831197452906e+00	 1.802099622852383e+00	 1.117845496106297e+01
 1.585207843588931e+00	 1.817621192482791e+00	 1.111917663387506e+01
 1.567440038073481e+00	 1.832965430282893e+00	 1.106095151443160e+01
 1.549530471634388e+00	 1.848130333479974e+00	 1.100427519128885e+01
 1.531481871228615e+00	 1.863113953331426e+00	 1.094690752804950e+01
 1.513296998677638e+00	 1.877914395939054e+00	 1.088309170419542e+01
 1.494978649281560e+00	 1.892529823022367e+00	 1.081275473137139e+01
 1.476529650413391e+00	 1.906958452650191e+00	 1.073623537721218e+01
 1.457952860094977e+00	 1.921198559930042e+00	 1.065537450295887e+01
 1.439251165556041e+00	 1.935248477654719e+00	 1.057077359365055e+01
 1.386590016247609e+00	 1.864439148813270e+00	 1.057765024574327e+01
 1.368458168036886e+00	 1.877787957222933e+00	 1.049279038599694e+01
 1.350211656027125e+00	 1.890950562728077e+00	 1.040761736605049e+01
 1.331853326145434e+00	 1.903925537429925e+00	 1.032168390397901e+01
 1.313386046824939e+00	 1.916711510988107e+00	 1.023462926743473e+01
 1.294812707563215e+00	 1.929307171029115e+00	 1.014619001034874e+01
 1.276136217473172e+00	 1.941711263511818e+00	 1.005620987865329e+01
 1.257359503827862e+00	 1.953922593049959e+00	 9.964648794992115e+00
 1.238485510600663e+00	 1.965940023191579e+00	 9.871590839723730e+00
 1.219517197002343e+00	 1.977762476655389e+00	 9.777251153471930e+00
 1.200457536016417e+00	 1.989388935524150e+00	 9.681981694966604e+00
 1.391856155797832e+00	 1.871520114801143e+00	 1.057648083158891e+01
 1.373655444518903e+00	 1.884919620740023e+00	 1.049088451598691e+01
 1.355339633958595e+00	 1.898132216593088e+00	 1.040525147679956e+01
 1.336911580852564e+00	 1.911156469038548e+00	 1.031912206248916e+01
 1.318374164527964e+00	 1.923991002531626e+00	 1.023212410131787e+01
 1.299730285456395e+00	 1.936634499714555e+00	 1.014398399792406e+01
 1.280982863799295e+00	 1.949085701783490e+00	 1.005453697706836e+01
 1.262134837947208e+00	 1.961343408812223e+00	 9.963736381628227e+00
 1.243189163054435e+00	 1.973406480032670e+00	 9.871661939441671e+00
 1.224148809570534e+00	 1.985273834072143e+00	 9.778526921749371e+00
 1.205016761770121e+00	 1.996944449147465e+00	 9.684684124693044e+00
 1.397122293856093e+00	 1.878601078782971e+00	 1.057637499466559e+01
 1.378852719528515e+00	 1.892051282236691e+00	 1.049022901301970e+01
 1.360467610437339e+00	 1.905313868423473e+00	 1.040431897922597e+01
 1.341969834126771e+00	 1.918387398598522e+00	 1.031816907549569e+01
 1.323362280817981e+00	 1.931270492012660e+00	 1.023139188381842e+01
 1.304647861956593e+00	 1.943961826323868e+00	 1.014369986007083e+01
 1.285829508752560e+00	 1.956460137965592e+00	 1.005491593301341e+01
 1.266910170713917e+00	 1.968764222471682e+00	 9.964983132280143e+00
 1.247892814175880e+00	 1.980872934757936e+00	 9.873973157175675e+00
 1.228780420826794e+00	 1.992785189360276e+00	 9.782093806449019e+00
 1.209575986232365e+00	 2.004499960629588e+00	 9.689695198142610e+00
 1.402388428930264e+00	 1.885682038752377e+00	 1.057695394394392e+01
 1.384049991593091e+00	 1.899182939692204e+00	 1.049043415380413e+01
 1.365595584010351e+00	 1.912495516184349e+00	 1.040441812023743e+01
 1.347028084534786e+00	 1.925618324061018e+00	 1.031841010038131e+01
 1.328350394281577e+00	 1.938549977368639e+00	 1.023200366226047e+01
 1.309565435670362e+00	 1.951289148780951e+00	 1.014489355430772e+01
 1.290676150959605e+00	 1.963834569968696e+00	 1.005688667705234e+01
 1.271685500774819e+00	 1.976185031925785e+00	 9.967912058021305e+00
 1.252596462632129e+00	 1.988339385251911e+00	 9.878029738800091e+00
 1.233412029458654e+00	 2.000296540391605e+00	 9.787438491763485e+00
 1.214135208111189e+00	 2.012055467829829e+00	 9.696482293142855e+00
 1.407654559528214e+00	 1.892762992702983e+00	 1.057785065106984e+01
 1.389247259240002e+00	 1.906314591085828e+00	 1.049112204453478e+01
 1.370723553224621e+00	 1.919677157840829e+00	 1.040515905762116e+01
 1.352086330643339e+00	 1.932849243377207e+00	 1.031944229966395e+01
 1.333338503505339e+00	 1.945829456536996e+00	 1.023354259449346e+01
 1.314483005204260e+00	 1.958616465009701e+00	 1.014713326347370e+01
 1.295522789047067e+00	 1.971208995703369e+00	 1.006000148754213e+01
 1.276460826776743e+00	 1.983605835071981e+00	 9.972058646149817e+00
 1.257300107090309e+00	 1.995805829399122e+00	 9.883349539097139e+00
 1.238043634153651e+00	 2.007807885037947e+00	 9.794060406037801e+00
 1.218694426114638e+00	 2.019610968607495e+00	 9.704525667810627e+00
 1.412920684157815e+00	 1.899843938628414e+00	 1.057870961728473e+01
 1.394444520996620e+00	 1.913446234396830e+00	 1.049192639249050e+01
 1.375851516627142e+00	 1.926858791358031e+00	 1.040616363618848e+01
 1.357144571019162e+00	 1.940080154498256e+00	 1.032087462156000e+01
 1.338326607075852e+00	 1.953108927455161e+00	 1.023560373375123e+01
 1.319400569164843e+00	 1.965943772934017e+00	 1.014999918476493e+01
 1.300369421641584e+00	 1.978583413080182e+00	 1.006382478373490e+01
 1.281236147366518e+00	 1.991026629807715e+00	 9.976970657247769e+00
 1.262003746217550e+00	 2.003272265084101e+00	 9.889462822671055e+00
 1.242675233599317e+00	 2.015319221171120e+00	 9.801471526441203e+00
 1.223253638950750e+00	 2.027166460821896e+00	 9.713318268889516e+00
 1.418186801326936e+00	 1.906924874522291e+00	 1.057918664040255e+01
 1.399641775390316e+00	 1.920577867604473e+00	 1.049249227769674e+01
 1.380979472764906e+00	 1.934040414701068e+00	 1.040706516399517e+01
 1.362202804228986e+00	 1.947311055375339e+00	 1.032232758064035e+01
 1.343314703579704e+00	 1.960388388060564e+00	 1.023779381362599e+01
 1.324318126158667e+00	 1.973271070477796e+00	 1.015308331891319e+01
 1.305216047369795e+00	 1.985957820009707e+00	 1.006793291905191e+01
 1.286011461190975e+00	 1.998447414030435e+00	 9.982207922447174e+00
 1.266707378680979e+00	 2.010738690191377e+00	 9.895912065106719e+00
 1.247306826483185e+00	 2.022830546662941e+00	 9.809196183924229e+00
 1.227812845327571e+00	 2.034721942332341e+00	 9.722365540416103e+00
 1.423452909543449e+00	 1.914005798378236e+00	 1.057894858184319e+01
 1.404839020948460e+00	 1.927709488688025e+00	 1.049247592465041e+01
 1.386107420184904e+00	 1.941222025835056e+00	 1.040750818863649e+01
 1.367261028839542e+00	 1.954541943959623e+00	 1.032343303857800e+01
 1.348302791603482e+00	 1.967667836290638e+00	 1.023973103315482e+01
 1.329235674792287e+00	 1.980598355564935e+00	 1.015598925950255e+01
 1.310062664858337e+00	 1.993332214402511e+00	 1.007191397452593e+01
 1.290786766896941e+00	 2.005868185637589e+00	 9.987342140897182e+00
 1.271411003147726e+00	 2.018205102605481e+00	 9.902251754366134e+00
 1.251938411492790e+00	 2.030341859385227e+00	 9.816770868453387e+00
 1.232372043953140e+00	 2.042277410998140e+00	 9.731185232706604e+00
 1.428719007315224e+00	 1.921086708189874e+00	 1.057767313372178e+01
 1.410036256198424e+00	 1.934841095626753e+00	 1.049154447410695e+01
 1.391235357434127e+00	 1.948403622725111e+00	 1.040714827361539e+01
 1.372319243417560e+00	 1.961772818202281e+00	 1.032383398498473e+01
 1.353290869733770e+00	 1.974947270082814e+00	 1.024104484201655e+01
 1.334153213672261e+00	 1.987925626119333e+00	 1.015833198242138e+01
 1.314909272733848e+00	 2.000706594169163e+00	 1.007536755240732e+01
 1.295562063131248e+00	 2.013288942526623e+00	 9.991956677428002e+00
 1.276114618284920e+00	 2.025671500210940e+00	 9.908048192417493e+00
 1.256569987315666e+00	 2.037853157209798e+00	 9.823744034516814e+00
 1.236931233535500e+00	 2.049832864678602e+00	 9.739307211655543e+00
 1.433985093150131e+00	 1.928167601950828e+00	 1.057504858599302e+01
 1.415233479667579e+00	 1.941972686399922e+00	 1.048937575492854e+01
 1.396363283059568e+00	 1.955585203336347e+00	 1.040565177478300e+01
 1.377377446529773e+00	 1.969003676054482e+00	 1.032318431833620e+01
 1.358278936557157e+00	 1.982226687374522e+00	 1.024137572583680e+01
 1.339070741405144e+00	 1.995252880064886e+00	 1.015973763544656e+01
 1.319755869622966e+00	 2.008080957220236e+00	 1.007790456993073e+01
 1.300337348540725e+00	 2.020709682594986e+00	 9.995646360406576e+00
 1.280818222759690e+00	 2.033137880892287e+00	 9.912879297090427e+00
 1.261201552639345e+00	 2.045364438008467e+00	 9.829675906894440e+00
 1.241490412782693e+00	 2.057388301233035e+00	 9.746273268338847e+00
 1.439251165556041e+00	 1.935248477654719e+00	 1.057077359365055e+01
 1.420430689883295e+00	 1.949104258986799e+00	 1.048565805599277e+01
 1.401491195608220e+00	 1.962766765633880e+00	 1.040269561685036e+01
 1.382435636742910e+00	 1.976234515467395e+00	 1.032114862698315e+01
 1.363266990660228e+00	 1.989506086103192e+00	 1.024037499159870e+01
 1.343988256597493e+00	 2.002580115325494e+00	 1.015984332795744e+01
 1.324602454152328e+00	 2.015455301466298e+00	 1.007914705323850e+01
 1.305112621772200e+00	 2.028130403740125e+00	 9.998017279779814e+00
 1.285521815239164e+00	 2.040604242534051e+00	 9.916334404153066e+00
 1.265833106151362e+00	 2.052875699653055e+00	 9.834138286685278e+00
 1.246049580402761e+00	 2.064943718520748e+00	 9.751636928913719e+00
 1.200457536016417e+00	 1.989388935524150e+00	 9.681981694966604e+00
 1.181309513308292e+00	 2.000818441877797e+00	 9.587441192731836e+00
 1.162076126859514e+00	 2.012050099356196e+00	 9.494548705715184e+00
 1.142760384342097e+00	 2.023083071787823e+00	 9.402748066273414e+00
 1.123365301280397e+00	 2.033916582729283e+00	 9.311612923056780e+00
 1.103893899598469e+00	 2.044549915443672e+00	 9.220783362022654e+00
 1.084349206174317e+00	 2.054982412837529e+00	 9.129374993878859e+00
 1.064734251402393e+00	 2.065213477356799e+00	 9.037209776944573e+00
 1.045052067765649e+00	 2.075242570842330e+00	 8.944643496006613e+00
 1.025305688418447e+00	 2.085069214345414e+00	 8.852333259445556e+00
 1.005498145781580e+00	 2.094692987903986e+00	 8.761179430709088e+00
 1.205016761770121e+00	 1.996944449147465e+00	 9.684684124693044e+00
 1.185796016657869e+00	 2.008417363700488e+00	 9.591646889776680e+00
 1.166489583601383e+00	 2.019691677966768e+00	 9.500152653499473e+00
 1.147100481695540e+00	 2.030766552599055e+00	 9.409595642126119e+00
 1.127631737917382e+00	 2.041641208205070e+00	 9.319502384185244e+00
 1.108086385667956e+00	 2.052314925325784e+00	 9.229522660961585e+00
 1.088467463321074e+00	 2.062787044372132e+00	 9.138881736377375e+00
 1.068778012780347e+00	 2.073056965520583e+00	 9.047242456087972e+00
 1.049021078045824e+00	 2.083124148568080e+00	 8.954920410660371e+00
 1.029199703791509e+00	 2.092988112746892e+00	 8.862530370090017e+00
 1.009316933955051e+00	 2.102648436499953e+00	 8.770927061644793e+00
 1.209575986232365e+00	 2.004499960629588e+00	 9.689695198142610e+00
 1.190282518736530e+00	 2.016016283369649e+00	 9.598138653409803e+00
 1.170903039092954e+00	 2.027333254411703e+00	 9.507983769582568e+00
 1.151440577819378e+00	 2.038450031232771e+00	 9.418587542845890e+00
 1.131898173345536e+00	 2.049365831491685e+00	 9.329442005060997e+00
 1.112278870549467e+00	 2.060079933007295e+00	 9.240175800785789e+00
 1.092585719300795e+00	 2.070591673694925e+00	 9.150183963510425e+00
 1.072821773012294e+00	 2.080900451461565e+00	 9.058965608153205e+00
 1.052990087201108e+00	 2.091005724060251e+00	 8.966808804669125e+00
 1.033093718060888e+00	 2.100907008904224e+00	 8.874299942991863e+00
 1.013135721046144e+00	 2.110603882841414e+00	 8.782261838369601e+00
 1.214135208111189e+00	 2.012055467829829e+00	 9.696482293142855e+00
 1.194769018272925e+00	 2.023615198732285e+00	 9.606365007775688e+00
 1.175316492083581e+00	 2.034974826525907e+00	 9.517473259869499e+00
 1.155780671483765e+00	 2.046133505511987e+00	 9.429139075086795e+00
 1.136164606355898e+00	 2.057090450400474e+00	 9.340832497991535e+00
 1.116471353055013e+00	 2.067844936288084e+00	 9.252163281530656e+00
 1.096703972946537e+00	 2.078396298594539e+00	 9.162673393250053e+00
 1.076865530952413e+00	 2.088743932957343e+00	 9.071768412116491e+00
 1.056959094106874e+00	 2.098887295085629e+00	 8.979696930948082e+00
 1.036987730123218e+00	 2.108825900573605e+00	 8.887030888827860e+00
 1.016954505972811e+00	 2.118559324674199e+00	 8.794574877085672e+00
 1.218694426114638e+00	 2.019610968607495e+00	 9.704525667810627e+00
 1.199255513995706e+00	 2.031214107635401e+00	 9.615787475594882e+00
 1.179729941322623e+00	 2.042616392144289e+00	 9.528065412339570e+00
 1.160120761458858e+00	 2.053816973259729e+00	 9.440678677378305e+00
 1.140431035739510e+00	 2.064815062742776e+00	 9.353087724403302e+00
 1.120663831996601e+00	 2.075609932968030e+00	 9.264896051574086e+00
 1.100822223091361e+00	 2.086200916859602e+00	 9.175751564896357e+00
 1.080909285454884e+00	 2.096587407785515e+00	 9.085049205581203e+00
 1.060928097638496e+00	 2.106768859410998e+00	 8.992981533654518e+00
 1.040881738875130e+00	 2.116744785511231e+00	 8.900119940896920e+00
 1.020773287653006e+00	 2.126514759744138e+00	 8.807264450118202e+00
 1.223253638950750e+00	 2.027166460821896e+00	 9.713318268889516e+00
 1.203742004633522e+00	 2.038813007926001e+00	 9.625880390399491e+00
 1.184143385559436e+00	 2.050257949101757e+00	 9.539217413704499e+00
 1.164460846514808e+00	 2.061500432299009e+00	 9.452647741686635e+00
 1.144697460287412e+00	 2.072539666329935e+00	 9.365634521742745e+00
 1.124856306186243e+00	 2.083374920847009e+00	 9.277787524935572e+00
 1.104940468568322e+00	 2.094005526278740e+00	 9.188829999101328e+00
 1.084953035373889e+00	 2.104430873723677e+00	 9.098215637471997e+00
 1.064897096671348e+00	 2.114650414803145e+00	 9.006067993983367e+00
 1.044775743213259e+00	 2.124663661473298e+00	 8.912971794424790e+00
 1.024592065004682e+00	 2.134470185797058e+00	 8.819736119114015e+00
 1.227812845327571e+00	 2.034721942332341e+00	 9.722365540416103e+00
 1.208228488915025e+00	 2.046411897451092e+00	 9.636130709136467e+00
 1.188556823543375e+00	 2.057899495233218e+00	 9.550399166461688e+00
 1.168800925421772e+00	 2.069183880452850e+00	 9.464500435387617e+00
 1.148963878790643e+00	 2.080264258973291e+00	 9.377912530797092e+00
 1.129048774435947e+00	 2.091139897724898e+00	 9.290263916316956e+00
 1.109058708210478e+00	 2.101810124640585e+00	 9.201330358318998e+00
 1.088996779563609e+00	 2.112274328549428e+00	 9.110684821140929e+00
 1.068866090080805e+00	 2.122531959028856e+00	 9.018370476353024e+00
 1.048669742034237e+00	 2.132582526216001e+00	 8.924999246231778e+00
 1.028410836945792e+00	 2.142425600578789e+00	 8.831402868569189e+00
 1.232372043953140e+00	 2.042277410998140e+00	 9.731185232706604e+00
 1.212714965568865e+00	 2.054010774057679e+00	 9.646037825129541e+00
 1.192970254023798e+00	 2.065541028373581e+00	 9.561093106332478e+00
 1.173140996949904e+00	 2.076867315544271e+00	 9.475703523641545e+00
 1.153230290040245e+00	 2.087988838484186e+00	 9.389374023423542e+00
 1.133241235557723e+00	 2.098904861401575e+00	 9.301764074561831e+00
 1.113176940850888e+00	 2.109614709733764e+00	 9.212688045999352e+00
 1.093040516878225e+00	 2.120117770040364e+00	 9.121883487871960e+00
 1.072835076742239e+00	 2.130413489854916e+00	 9.029312074968832e+00
 1.052563734234697e+00	 2.140501377495537e+00	 8.935623334750648e+00
 1.032229602394291e+00	 2.150381001835161e+00	 8.841685239675476e+00
 1.236931233535500e+00	 2.049832864678602e+00	 9.739307211655543e+00
 1.217201433323694e+00	 2.061609635592766e+00	 9.655113381389414e+00
 1.197383675750061e+00	 2.073182546357753e+00	 9.570794020075462e+00
 1.177481059869357e+00	 2.084550735396290e+00	 9.485736192159221e+00
 1.157496692827257e+00	 2.095713402673961e+00	 9.399483730675742e+00
 1.137433688363580e+00	 2.106669809676916e+00	 9.311739316510302e+00
 1.117295165322610e+00	 2.117419279346906e+00	 9.222364863850695e+00
 1.097084246171917e+00	 2.127961195974085e+00	 9.131248140770641e+00
 1.076804055531026e+00	 2.138295005048112e+00	 9.038324960751531e+00
 1.056457718711272e+00	 2.148420213068100e+00	 8.944273480383691e+00
 1.036048360268131e+00	 2.158336387312002e+00	 8.850011464474139e+00
 1.241490412782693e+00	 2.057388301233035e+00	 9.746273268338847e+00
 1.221687890908163e+00	 2.069208479903361e+00	 9.662881084264711e+00
 1.201797087471522e+00	 2.080824047020644e+00	 9.579008863665216e+00
 1.181821112950287e+00	 2.092234137831928e+00	 9.494089870348294e+00
 1.161763085942720e+00	 2.103437949353958e+00	 9.407718671318008e+00
 1.141626131665529e+00	 2.114434740350801e+00	 9.319653261239313e+00
 1.121413380458701e+00	 2.125223831268639e+00	 9.229815444128121e+00
 1.101127966298866e+00	 2.135804604128185e+00	 9.138225209026160e+00
 1.080773025322539e+00	 2.146176502375229e+00	 9.044850528618467e+00
 1.060351694360596e+00	 2.156339030689887e+00	 8.950387626187283e+00
 1.039867109485265e+00	 2.166291754755141e+00	 8.855817600307240e+00
 1.246049580402761e+00	 2.064943718520748e+00	 9.751636928913719e+00
 1.226174337050922e+00	 2.076807304836466e+00	 9.668876517424273e+00
 1.206210487937536e+00	 2.088465528197159e+00	 9.585256580827469e+00
 1.186161154962849e+00	 2.099917520674204e+00	 9.500268054831604e+00
 1.166029468177675e+00	 2.111162476335520e+00	 9.413567980716714e+00
 1.145818564275578e+00	 2.122199651223106e+00	 9.324981664678258e+00
 1.125531585092219e+00	 2.133028363287593e+00	 9.234503044319473e+00
 1.105171676113252e+00	 2.143647992280263e+00	 9.142271202533346e+00
 1.084741984992152e+00	 2.154057979603053e+00	 9.048339545106092e+00
 1.064245660079300e+00	 2.164257828117093e+00	 8.953412378873379e+00
 1.043685848963648e+00	 2.174247101910407e+00	 8.858547664556228e+00
 1.005498145781580e+00	 2.094692987903986e+00	 8.761179430709088e+00
 9.856290878407250e-01	 2.104115114327044e+00	 8.669460237367865e+00
 9.657049044575525e-01	 2.113333636026786e+00	 8.575208912903308e+00
 9.457286181199082e-01	 2.122348306690866e+00	 8.479117581569781e+00
 9.257032451413704e-01	 2.131158937754683e+00	 8.381918003708211e+00
 9.056317943338176e-01	 2.139765397992186e+00	 8.284340172258231e+00
 8.855172656989574e-01	 2.148167613071671e+00	 8.187074444828625e+00
 8.653626491398443e-01	 2.156365565077391e+00	 8.090737282874809e+00
 8.451709231933541e-01	 2.164359291997887e+00	 7.995840643457422e+00
 8.249450537845703e-01	 2.172148887181954e+00	 7.902765043632813e+00
 8.046879930039602e-01	 2.179734498763173e+00	 7.811736292904934e+00
 1.009316933955051e+00	 2.102648436499953e+00	 8.770927061644793e+00
 9.893724151852175e-01	 2.112106347280357e+00	 8.678333665989589e+00
 9.693725616117758e-01	 2.121359880065587e+00	 8.582866242772242e+00
 9.493204072016990e-01	 2.130408787607848e+00	 8.485371086713887e+00
 9.292189797242429e-01	 2.139252880626412e+00	 8.386728546715759e+00
 9.090712994184728e-01	 2.147892027396868e+00	 8.287810653224774e+00
 8.888803776798223e-01	 2.156326153305230e+00	 8.189442388847610e+00
 8.686492157667185e-01	 2.164555240367735e+00	 8.092366674638027e+00
 8.483808035282435e-01	 2.172579326717224e+00	 7.997213117754785e+00
 8.280781181537853e-01	 2.180398506057042e+00	 7.904470540133911e+00
 8.077441229455766e-01	 2.188012927083394e+00	 7.814463282586020e+00
 1.013135721046144e+00	 2.110603882841414e+00	 8.782261838369601e+00
 9.931157414687330e-01	 2.120097577969012e+00	 8.688897113777404e+00
 9.730402177265126e-01	 2.129386121829784e+00	 8.592446471147859e+00
 9.529121952655721e-01	 2.138469266240492e+00	 8.493934972842988e+00
 9.327347133108357e-01	 2.147346821204282e+00	 8.394416188410949e+00
 9.125108035285460e-01	 2.156018654498391e+00	 8.294928802230256e+00
 8.922434887078549e-01	 2.164484691226552e+00	 8.196456974609086e+00
 8.719357814625512e-01	 2.172744913336986e+00	 8.099894529694648e+00
 8.515906829539134e-01	 2.180799359106835e+00	 8.006013016156359e+00
 8.312111816356282e-01	 2.188648122594004e+00	 7.915433659906415e+00
 8.108002520216825e-01	 2.196291353057319e+00	 7.828603202265949e+00
 1.016954505972811e+00	 2.118559324674199e+00	 8.794574877085672e+00
 9.968590656306071e-01	 2.128088804128693e+00	 8.700548063930114e+00
 9.767078717625344e-01	 2.137412359045142e+00	 8.603360123660188e+00
 9.565039812937882e-01	 2.146529740304868e+00	 8.504239285943850e+00
 9.362504449049498e-01	 2.155440757194894e+00	 8.404436764918392e+00
 9.159503056894269e-01	 2.164145276994102e+00	 8.305182296570610e+00
 8.956065978300778e-01	 2.172643224523950e+00	 8.207643542335123e+00
 8.752223452960447e-01	 2.180934581664643e+00	 8.112889433252002e+00
 8.548005605607892e-01	 2.189019386837630e+00	 8.021857500954411e+00
 8.343442433422853e-01	 2.196897734455372e+00	 7.935325214396890e+00
 8.138563793662640e-01	 2.204569774339321e+00	 7.853885314743825e+00
 1.020773287653006e+00	 2.126514759744138e+00	 8.807264450118202e+00
 1.000602386610175e+00	 2.136080023495087e+00	 8.712690454793311e+00
 9.803755226806125e-01	 2.145438589437429e+00	 8.615023410541925e+00
 9.600957642686079e-01	 2.154590207517046e+00	 8.515718921651214e+00
 9.397661735103849e-01	 2.163534686304844e+00	 8.416250067735026e+00
 9.193898049265045e-01	 2.172271892581347e+00	 8.318061820333094e+00
 8.989697040935165e-01	 2.180801750885739e+00	 8.222529441089971e+00
 8.785089063359024e-01	 2.189124243030211e+00	 8.130920936896342e+00
 8.580104354392961e-01	 2.197239407580518e+00	 8.044363618609097e+00
 8.374773023859436e-01	 2.205147339303678e+00	 7.963814781935900e+00
 8.169125041133076e-01	 2.212848188583769e+00	 7.890036501926790e+00
 1.024592065004682e+00	 2.134470185797058e+00	 8.819736119114015e+00
 1.004345703346770e+00	 2.144071233803876e+00	 8.724734808051542e+00
 9.840431694415184e-01	 2.153464810732409e+00	 8.626858351605597e+00
 9.636875431722922e-01	 2.162650665593099e+00	 8.527813748737319e+00
 9.432818981309424e-01	 2.171628606240728e+00	 8.429319967393218e+00
 9.228293002651674e-01	 2.180398498957471e+00	 8.333061189826953e+00
 9.023328065451947e-01	 2.188960268000232e+00	 8.240644157504235e+00
 8.817954636508285e-01	 2.197313895113192e+00	 8.153559692066240e+00
 8.612203066798590e-01	 2.205459419006409e+00	 8.073148439356242e+00
 8.406103578787902e-01	 2.213396934801456e+00	 8.000570854793615e+00
 8.199686253967999e-01	 2.221126593445035e+00	 7.936781420573820e+00
 1.028410836945792e+00	 2.142425600578789e+00	 8.831402868569189e+00
 1.008089014779728e+00	 2.152062432790749e+00	 8.736098357195219e+00
 9.877108110060231e-01	 2.161491020655850e+00	 8.638292901405226e+00
 9.672793169871007e-01	 2.170711112249093e+00	 8.539968732660537e+00
 9.467976177704225e-01	 2.179722514709145e+00	 8.443114537024226e+00
 9.262687907308054e-01	 2.188525093819819e+00	 8.349677478725150e+00
 9.056959042321368e-01	 2.197118773555747e+00	 8.261519443990316e+00
 8.850820163095264e-01	 2.205503535593090e+00	 8.180377582770067e+00
 8.644301733729030e-01	 2.213679418786210e+00	 8.107829195785616e+00
 8.437434089330116e-01	 2.221646518611236e+00	 8.045260984907513e+00
 8.230247423507278e-01	 2.229404986577490e+00	 7.984860645694479e+00
 1.032229602394291e+00	 2.150381001835161e+00	 8.841685239675476e+00
 1.011832319848384e+00	 2.160053618191390e+00	 8.746205176253431e+00
 9.913784463348982e-01	 2.169517216933517e+00	 8.648761074575107e+00
 9.708710846952949e-01	 2.178771545201104e+00	 8.551634059168927e+00
 9.503133314326258e-01	 2.187816409416692e+00	 8.457106175823416e+00
 9.297082753488076e-01	 2.196651674865739e+00	 8.367411142922567e+00
 9.090589962013669e-01	 2.205277265240595e+00	 8.284689446461119e+00
 8.883685633806990e-01	 2.213693162149405e+00	 8.210947857565618e+00
 8.676400346088532e-01	 2.221899404590831e+00	 8.148023420414724e+00
 8.468764546607941e-01	 2.229896088395551e+00	 8.087882260847698e+00
 8.260808541090766e-01	 2.237683365635505e+00	 8.019830785025190e+00
 1.036048360268131e+00	 2.158336387312002e+00	 8.850011464474139e+00
 1.015575617492074e+00	 2.168044787741483e+00	 8.754486308782585e+00
 9.950460743889153e-01	 2.177543397291178e+00	 8.657703071339405e+00
 9.744628452791351e-01	 2.186831962165200e+00	 8.562265257956483e+00
 9.538290381213530e-01	 2.195910288069966e+00	 8.470771732417237e+00
 9.331477531445627e-01	 2.204778239792574e+00	 8.385766145116678e+00
 9.124220814999083e-01	 2.213435740743093e+00	 8.309690831562946e+00
 8.916551039330509e-01	 2.221882772461643e+00	 8.244845260819540e+00
 8.708498894781350e-01	 2.230119374091181e+00	 8.183718369637216e+00
 8.500094941743254e-01	 2.238145641816933e+00	 8.115985546095537e+00
 8.291369598058347e-01	 2.245961728273450e+00	 8.041730127683991e+00
 1.039867109485265e+00	 2.166291754755141e+00	 8.855817600307240e+00
 1.019318906650130e+00	 2.176035939176716e+00	 8.760379897103121e+00
 9.987136941288448e-01	 2.185569559454596e+00	 8.664565403185792e+00
 9.780545977208820e-01	 2.194892360857450e+00	 8.571323326367610e+00
 9.573447368404047e-01	 2.204004148375564e+00	 8.483592628132962e+00
 9.365872231434600e-01	 2.212904786297672e+00	 8.404250079115746e+00
 9.157851591747862e-01	 2.221594197751554e+00	 8.336062913433743e+00
 8.949416370352846e-01	 2.230072364209305e+00	 8.272724204371048e+00
 8.740597370711732e-01	 2.238339324958170e+00	 8.203818096208254e+00
 8.531425265857919e-01	 2.246395176537915e+00	 8.129706542138818e+00
 8.321930585749867e-01	 2.254240072145698e+00	 8.050789671403674e+00
 1.043685848963648e+00	 2.174247101910407e+00	 8.858547664556228e+00
 1.023062186261889e+00	 2.184027070232773e+00	 8.763331311774881e+00
 1.002381304515459e+00	 2.193595701149540e+00	 8.668801018696870e+00
 9.816463410027967e-01	 2.202952738993927e+00	 8.578274853147180e+00
 9.608604265935818e-01	 2.212097988040085e+00	 8.495054980171712e+00
 9.400266843708891e-01	 2.221031312078378e+00	 8.422374293880029e+00
 9.191482282730248e-01	 2.229752633954294e+00	 8.355675517980611e+00
 8.982281617561046e-01	 2.238261935071894e+00	 8.284175401886785e+00
 8.772695764783929e-01	 2.246559254862706e+00	 8.208447992720361e+00
 8.562755510073803e-01	 2.254644690221029e+00	 8.129226607882751e+00
 8.352491495505203e-01	 2.262518394906619e+00	 8.047237113924320e+00
 8.046879930039602e-01	 2.179734498763173e+00	 7.811736292904934e+00
 7.844061281122209e-01	 2.187115091338370e+00	 7.723474515149920e+00
 7.640989369507413e-01	 2.194292226143276e+00	 7.639343600268280e+00
 7.437693206496833e-01	 2.201266210273095e+00	 7.560307305247931e+00
 7.234201619097839e-01	 2.208037402979565e+00	 7.487045345496634e+00
 7.030543239064208e-01	 2.214606214955360e+00	 7.421155491307443e+00
 6.826746492208779e-01	 2.220973107593211e+00	 7.364873971067946e+00
 6.622839587993923e-01	 2.227138592220802e+00	 7.314140011462450e+00
 6.418850509405333e-01	 2.233103229312530e+00	 7.258501357820527e+00
 6.214807003114096e-01	 2.238867627679239e+00	 7.198714084211736e+00
 6.010736569931618e-01	 2.244432443637021e+00	 7.135724995314636e+00
 8.077441229455766e-01	 2.188012927083394e+00	 7.814463282586020e+00
 7.873852294225351e-01	 2.195421550460754e+00	 7.728182721045091e+00
 7.670009134429442e-01	 2.202625943354270e+00	 7.647402427005934e+00
 7.465940871551935e-01	 2.209626414025442e+00	 7.573377752626821e+00
 7.261676442082527e-01	 2.216423323090388e+00	 7.507062525497373e+00
 7.057244586515787e-01	 2.223017082801537e+00	 7.449867515717496e+00
 6.852673838623187e-01	 2.229408156303923e+00	 7.392743330473155e+00
 6.647992515004058e-01	 2.235597056867187e+00	 7.330411937044544e+00
 6.443228704920908e-01	 2.241584347094332e+00	 7.264448237005017e+00
 6.238410260424149e-01	 2.247370638108388e+00	 7.196251832816416e+00
 6.033564786770745e-01	 2.252956588718058e+00	 7.127072687348649e+00
 8.108002520216825e-01	 2.196291353057319e+00	 7.828603202265949e+00
 7.903643298892039e-01	 2.203728007228910e+00	 7.746808894449169e+00
 7.699028891133740e-01	 2.210959658203332e+00	 7.672192946028402e+00
 7.494188528608102e-01	 2.217986615408382e+00	 7.606225338028353e+00
 7.289151257287166e-01	 2.224809240824560e+00	 7.548625761263891e+00
 7.083945926406297e-01	 2.231427948264039e+00	 7.486484829167679e+00
 6.878601177695608e-01	 2.237843202624164e+00	 7.418353001328307e+00
 6.673145434891398e-01	 2.244055519116518e+00	 7.346235626698305e+00
 6.467606893533000e-01	 2.250065462472715e+00	 7.271934728173413e+00
 6.262013511050160e-01	 2.255873646127969e+00	 7.197076136559559e+00
 6.056392997145412e-01	 2.261480731383585e+00	 7.123134942200474e+00
 8.138563793662640e-01	 2.204569774339321e+00	 7.853885314743825e+00
 7.933434286680455e-01	 2.212034459289262e+00	 7.779134958536746e+00
 7.728048631397120e-01	 2.219293368329157e+00	 7.713534138700891e+00
 7.522436169661052e-01	 2.226346812053099e+00	 7.655206916395578e+00
 7.316626056926614e-01	 2.233195153805963e+00	 7.590491085744499e+00
 7.110647251169916e-01	 2.239838808959671e+00	 7.518569726632609e+00
 6.904528502079692e-01	 2.246278244163864e+00	 7.441630562922189e+00
 6.698298340529172e-01	 2.252513976572083e+00	 7.361830077151220e+00
 6.491985068334492e-01	 2.258546573044541e+00	 7.281120470176333e+00
 6.285616748304678e-01	 2.264376649328631e+00	 7.201276730001700e+00
 6.079221194587819e-01	 2.270004869218262e+00	 7.123921974563705e+00
 8.169125041133076e-01	 2.212848188583769e+00	 7.890036501926790e+00
 7.963225249148778e-01	 2.220340904288236e+00	 7.824939436152624e+00
 7.757068346996393e-01	 2.227627071370443e+00	 7.765565447205989e+00
 7.550683786706507e-01	 2.234707001590772e+00	 7.699214027315384e+00
 7.344100833215719e-01	 2.241581059658479e+00	 7.625923728715290e+00
 7.137348553240825e-01	 2.248249662505229e+00	 7.546421158984909e+00
 6.930455804429094e-01	 2.254713278532965e+00	 7.462840026206758e+00
 6.723451224790620e-01	 2.260972426837172e+00	 7.377412133109411e+00
 6.516363222418253e-01	 2.267027676406665e+00	 7.292163822169038e+00
 6.309219965500253e-01	 2.272879645301019e+00	 7.208943080219345e+00
 6.102049372630167e-01	 2.278528999806742e+00	 7.129444870583903e+00
 8.199686253967999e-01	 2.221126593445035e+00	 7.936781420573820e+00
 7.993016177855189e-01	 2.228647339872257e+00	 7.876397373514939e+00
 7.786088029708366e-01	 2.235960764965882e+00	 7.808955489354318e+00
 7.578931371740175e-01	 2.243067181652582e+00	 7.734993499928343e+00
 7.371575578369334e-01	 2.249966956005989e+00	 7.655240695093187e+00
 7.164049825053198e-01	 2.256660506517516e+00	 7.570334690955820e+00
 6.956383077397468e-01	 2.263148303341400e+00	 7.482242564867868e+00
 6.748604080548967e-01	 2.269430867515071e+00	 7.393196513675178e+00
 6.540741348877166e-01	 2.275508770155950e+00	 7.305221879111974e+00
 6.332823155949427e-01	 2.281382631635784e+00	 7.220164388271178e+00
 6.124877524804658e-01	 2.287053120733680e+00	 7.139715572424618e+00
 8.230247423507278e-01	 2.229404986577490e+00	 7.984860645694479e+00
 8.022807064357865e-01	 2.236953763687752e+00	 7.916628963083957e+00
 7.815107671309854e-01	 2.244294446754171e+00	 7.842395694574096e+00
 7.607178916757781e-01	 2.251427349869710e+00	 7.762867370482805e+00
 7.399050284602311e-01	 2.258352840472378e+00	 7.678755266449552e+00
 7.190751059041217e-01	 2.265071338613330e+00	 7.590602536962150e+00
 6.982310313638458e-01	 2.271583316199103e+00	 7.500096547403674e+00
 6.773756900677448e-01	 2.277889296209072e+00	 7.409395837134561e+00
 6.565119440804107e-01	 2.283989851889253e+00	 7.320450485969319e+00
 6.356426312964751e-01	 2.289885605923574e+00	 7.235029589755053e+00
 6.147705644643494e-01	 2.295577229583733e+00	 7.154746862376693e+00
 8.260808541090766e-01	 2.237683365635505e+00	 8.019830785025190e+00
 8.052597900214988e-01	 2.245260173381146e+00	 7.945287482459182e+00
 7.844127263577675e-01	 2.252628114374005e+00	 7.866192046270902e+00
 7.635426413755035e-01	 2.259787503873336e+00	 7.783152954858414e+00
 7.426524944129507e-01	 2.266738710681526e+00	 7.696781343733631e+00
 7.217452247639062e-01	 2.273482156409474e+00	 7.607513594917717e+00
 7.008237505805720e-01	 2.280018314716012e+00	 7.516657567364542e+00
 6.798909678049291e-01	 2.286347710522461e+00	 7.426220644156877e+00
 6.589497491291951e-01	 2.292470919203435e+00	 7.338004250638967e+00
 6.380029429858770e-01	 2.298388565755035e+00	 7.253627354479488e+00
 6.170533725678875e-01	 2.304101323941556e+00	 7.174552346522765e+00
 8.291369598058347e-01	 2.245961728273450e+00	 8.041730127683991e+00
 8.082388676984743e-01	 2.253566566598867e+00	 7.962648627983916e+00
 7.873146798288629e-01	 2.260961765464082e+00	 7.880646075152255e+00
 7.663673854727657e-01	 2.268147641294643e+00	 7.796162938218726e+00
 7.453999549165772e-01	 2.275124564257317e+00	 7.709638806954107e+00
 7.244153383280907e-01	 2.281892957522746e+00	 7.621353478081703e+00
 7.034164646552908e-01	 2.288453296502062e+00	 7.532178471801720e+00
 6.824062405537734e-01	 2.294806108058527e+00	 7.443879419447601e+00
 6.613875493433575e-01	 2.300951969695354e+00	 7.358036555647185e+00
 6.403632499944026e-01	 2.306891508720817e+00	 7.276046085272437e+00
 6.193361761443001e-01	 2.312625401391804e+00	 7.199146437968306e+00
 8.321930585749867e-01	 2.254240072145698e+00	 8.050789671403674e+00
 8.112179386225303e-01	 2.261872940987338e+00	 7.968984116681506e+00
 7.902166267219535e-01	 2.269295397663093e+00	 7.886054943349842e+00
 7.691921231671363e-01	 2.276507759764810e+00	 7.802205462650351e+00
 7.481474091925959e-01	 2.283510398823632e+00	 7.717633801010282e+00
 7.270854458400936e-01	 2.290303739569949e+00	 7.632404544994323e+00
 7.060091728533677e-01	 2.296888259167190e+00	 7.546909387971146e+00
 6.849215076016004e-01	 2.303264486420560e+00	 7.462578611894055e+00
 6.638253440321856e-01	 2.309433000961871e+00	 7.380699568639371e+00
 6.427235516533077e-01	 2.315394432411569e+00	 7.302373915949893e+00
 6.216189745468071e-01	 2.321149459519132e+00	 7.228544339650802e+00
 8.352491495505203e-01	 2.262518394906619e+00	 8.047237113924320e+00
 8.141970019494854e-01	 2.270179294192986e+00	 7.964561761075324e+00
 7.931185662147202e-01	 2.277629008609738e+00	 7.882711526651360e+00
 7.720168536581871e-01	 2.284867856915018e+00	 7.801584212840380e+00
 7.508948564624924e-01	 2.291896212004354e+00	 7.721067366799440e+00
 7.297555465433327e-01	 2.298714500167882e+00	 7.640945927549316e+00
 7.086018744401672e-01	 2.305323200321329e+00	 7.561097748337195e+00
 6.874367682357337e-01	 2.311722843211848e+00	 7.482522653243255e+00
 6.662631325049674e-01	 2.317914010599844e+00	 7.406144251698209e+00
 6.450838472938460e-01	 2.323897334417937e+00	 7.332698708465469e+00
 6.239017671286295e-01	 2.329673495908198e+00	 7.262762026737447e+00
 6.010736569931618e-01	 2.244432443637021e+00	 7.135724995314636e+00
 5.806666458346349e-01	 2.249798380643699e+00	 7.070772246959513e+00
 5.602623663671141e-01	 2.254966189887047e+00	 7.004956779263624e+00
 5.398634910592640e-01	 2.259936667925870e+00	 6.938861772336963e+00
 5.194726641987837e-01	 2.264710655295170e+00	 6.873004773796871e+00
 4.990925010900198e-01	 2.269289035584527e+00	 6.807856491604962e+00
 4.787255872827550e-01	 2.273672734502291e+00	 6.743858317114893e+00
 4.583744778323183e-01	 2.277862718926716e+00	 6.681438653120260e+00
 4.380416965911256e-01	 2.281859995945114e+00	 6.621028125067992e+00
 4.177297355317209e-01	 2.285665611882142e+00	 6.563073756109130e+00
 3.974410541013390e-01	 2.289280651318292e+00	 6.508052188328453e+00
 6.033564786770745e-01	 2.252956588718058e+00	 7.127072687348649e+00
 5.828719635936395e-01	 2.258342905052813e+00	 7.058292058561132e+00
 5.623901905759557e-01	 2.263530341153386e+00	 6.990750444810685e+00
 5.419138422424650e-01	 2.268519696603859e+00	 6.924725432426787e+00
 5.214455729236145e-01	 2.273311815131524e+00	 6.860426036047709e+00
 5.009880078564244e-01	 2.277907583681776e+00	 6.798011842121499e+00
 4.805437424103443e-01	 2.282307931478736e+00	 6.737610848272947e+00
 4.601153413445558e-01	 2.286513829072792e+00	 6.679336076152077e+00
 4.397053380968226e-01	 2.290526287376103e+00	 6.623301038811737e+00
 4.193162341039582e-01	 2.294346356687182e+00	 6.569634146201897e+00
 3.989504981539398e-01	 2.297975125705680e+00	 6.518492134048191e+00
 6.056392997145412e-01	 2.261480731383585e+00	 7.123134942200474e+00
 5.850772807281693e-01	 2.266887427040690e+00	 7.051540506296793e+00
 5.645180141823034e-01	 2.272094489992964e+00	 6.982867102220546e+00
 5.439641928451564e-01	 2.277102722849767e+00	 6.917143081564109e+00
 5.234184810899200e-01	 2.281912972530687e+00	 6.854325921635343e+00
 5.028835140862811e-01	 2.286526129336922e+00	 6.794321627506466e+00
 4.823618970233524e-01	 2.290943126008371e+00	 6.737002796034936e+00
 4.618562043641630e-01	 2.295164936767550e+00	 6.682225422484908e+00
 4.413689791318187e-01	 2.299192576351458e+00	 6.629844533859600e+00
 4.209027322273986e-01	 2.303027099032473e+00	 6.579728735624694e+00
 4.004599417796176e-01	 2.306669597629399e+00	 6.531773760186956e+00
 6.079221194587819e-01	 2.270004869218262e+00	 7.123921974563705e+00
 5.872825966134051e-01	 2.275431944186209e+00	 7.050450563607310e+00
 5.666458365832896e-01	 2.280658633979106e+00	 6.981175623419544e+00
 5.460145422864142e-01	 2.285685744231581e+00	 6.915932014986516e+00
 5.253913881387067e-01	 2.290514125055513e+00	 6.854482060231398e+00
 5.047790192425142e-01	 2.295144670107906e+00	 6.796535110736585e+00
 4.841800506066055e-01	 2.299578315644430e+00	 6.741765744977592e+00
 4.635970663978504e-01	 2.303816039559728e+00	 6.689830677895523e+00
 4.430326192246895e-01	 2.307858860415636e+00	 6.640384470164921e+00
 4.224892294524614e-01	 2.311707836458393e+00	 6.593094127106346e+00
 4.019693845506116e-01	 2.315364064625950e+00	 6.547652678876676e+00
 6.102049372630167e-01	 2.278528999806742e+00	 7.129444870583903e+00
 5.894879106245263e-01	 2.283976454068253e+00	 7.054957163996374e+00
 5.687736571760474e-01	 2.289222770685133e+00	 6.985547717363879e+00
 5.480648899853144e-01	 2.294268758317280e+00	 6.920913040855400e+00
 5.273642935109819e-01	 2.299115270268856e+00	 6.860676079920957e+00
 5.066745227880489e-01	 2.303763203552670e+00	 6.804405859043674e+00
 4.859982026449307e-01	 2.308213497940151e+00	 6.751635720957296e+00
 4.653379269523288e-01	 2.312467134998071e+00	 6.701880248543054e+00
 4.446962579040113e-01	 2.316525137113097e+00	 6.654650960192113e+00
 4.240757253295657e-01	 2.320388566505321e+00	 6.609470872030853e+00
 4.034788260391606e-01	 2.324058524231837e+00	 6.565888022083896e+00
 6.124877524804658e-01	 2.287053120733680e+00	 7.139715572424618e+00
 5.916932221367138e-01	 2.292520954265703e+00	 7.064997169139472e+00
 5.709014753577101e-01	 2.297786897684371e+00	 6.995857885153634e+00
 5.501152353609329e-01	 2.302851762674848e+00	 6.931910425656452e+00
 5.293371966477528e-01	 2.307716405733574e+00	 6.872693545990060e+00
 5.085700241858097e-01	 2.312381727229153e+00	 6.817691679007293e+00
 4.878163526231543e-01	 2.316848670448772e+00	 6.766353125245039e+00
 4.670787855343096e-01	 2.321118220631321e+00	 6.718106896702114e+00
 4.463598946983590e-01	 2.325191403988296e+00	 6.672378308622990e+00
 4.256622194091302e-01	 2.329069286713631e+00	 6.628603416311321e+00
 4.049882658175036e-01	 2.332752973983562e+00	 6.586242395665228e+00
 6.147705644643494e-01	 2.295577229583733e+00	 7.154746862376693e+00
 5.938985305251478e-01	 2.301065442357437e+00	 7.080509336974092e+00
 5.730292905254101e-01	 2.306351012550143e+00	 7.011983375485677e+00
 5.521655778323450e-01	 2.311434754872265e+00	 6.948751840219647e+00
 5.313100969900266e-01	 2.316317529012518e+00	 6.890323900539529e+00
 5.104655228987212e-01	 2.321000238695292e+00	 6.836154552612536e+00
 4.896345000261031e-01	 2.325483830723527e+00	 6.785662669700530e+00
 4.688196416505032e-01	 2.329769294008221e+00	 6.738247677548637e+00
 4.480235291363087e-01	 2.333857658585688e+00	 6.693304953072650e+00
 4.272487112415743e-01	 2.337749994623703e+00	 6.650240047178006e+00
 4.064977034578799e-01	 2.341447411417628e+00	 6.608481834193864e+00
 6.170533725678875e-01	 2.304101323941556e+00	 7.174552346522765e+00
 5.961038351650089e-01	 2.309609915922340e+00	 7.101434289772332e+00
 5.751571020762805e-01	 2.314915112855772e+00	 7.033804140436793e+00
 5.542159168186273e-01	 2.320017732477514e+00	 6.971268306342357e+00
 5.332829939788103e-01	 2.324918637668543e+00	 6.913360402904354e+00
 5.123610183897084e-01	 2.329618735509029e+00	 6.859560574248153e+00
 4.914526443386036e-01	 2.334118976317654e+00	 6.809313312958800e+00
 4.705604948076211e-01	 2.338420352677515e+00	 6.762043876971114e+00
 4.496871607464362e-01	 2.342523898449734e+00	 6.717173405788976e+00
 4.288352003773169e-01	 2.346430687775914e+00	 6.674132840857116e+00
 4.080071385325283e-01	 2.350141834070536e+00	 6.632375756536605e+00
 6.193361761443001e-01	 2.312625401391804e+00	 7.199146437968306e+00
 5.983091354314772e-01	 2.318154372539291e+00	 7.127714482196063e+00
 5.772849094074545e-01	 2.323479196174583e+00	 7.061202791568551e+00
 5.562662517388552e-01	 2.328600693058579e+00	 6.999294144000263e+00
 5.352558870551107e-01	 2.333519729264506e+00	 6.941600070857524e+00
 5.142565101216956e-01	 2.338237215228306e+00	 6.887679888621030e+00
 4.932707850454824e-01	 2.342754104784390e+00	 6.837058197603046e+00
 4.723013445123737e-01	 2.347071394187943e+00	 6.789240950380867e+00
 4.513507890573169e-01	 2.351190121124886e+00	 6.743730196310383e+00
 4.304216863667768e-01	 2.355111363710639e+00	 6.700037611117168e+00
 4.095165706136882e-01	 2.358836239478789e+00	 6.657696922162382e+00
 6.216189745468071e-01	 2.321149459519132e+00	 7.228544339650802e+00
 6.005144306997326e-01	 2.326698809787171e+00	 7.159294169335322e+00
 5.794127119160645e-01	 2.332043260079898e+00	 7.094064556345709e+00
 5.583165820121045e-01	 2.337183634183437e+00	 7.032666919130962e+00
 5.372287756599355e-01	 2.342120801363259e+00	 6.974843622578394e+00
 5.161519975576078e-01	 2.346855675411061e+00	 6.920286629562976e+00
 4.950889216315665e-01	 2.351389213676971e+00	 6.868654588298472e+00
 4.740421902714724e-01	 2.355722416088251e+00	 6.819588462495688e+00
 4.530144135975269e-01	 2.359856324155606e+00	 6.772725815056745e+00
 4.320081687603736e-01	 2.363792019968260e+00	 6.727713858660697e+00
 4.110259992735985e-01	 2.367530625178890e+00	 6.684221388163433e+00
 6.239017671286295e-01	 2.329673495908198e+00	 7.262762026737447e+00
 6.027197203449561e-01	 2.335243225244862e+00	 7.196119374730344e+00
 5.815405089992440e-01	 2.340607302145042e+00	 7.132277234860142e+00
 5.603669070574516e-01	 2.345766553420075e+00	 7.071227391975479e+00
 5.392016592342920e-01	 2.350721851527660e+00	 7.012895419365782e+00
 5.180474801603698e-01	 2.355474113615235e+00	 6.957158859707464e+00
 4.969070535816822e-01	 2.360024300548634e+00	 6.903863810862352e+00
 4.757830315916279e-01	 2.364373415927180e+00	 6.852840028071718e+00
 4.546780338956418e-01	 2.368522505086348e+00	 6.803914657830161e+00
 4.335946471085258e-01	 2.372472654089150e+00	 6.756924721339471e+00
 4.125354240844981e-01	 2.376224988707342e+00	 6.711728466970385e+00
 3.974410541013390e-01	 2.289280651318292e+00	 6.508052188328453e+00
 3.771746369077695e-01	 2.292706802156369e+00	 6.456183999108515e+00
 3.569363335028887e-01	 2.295944590920846e+00	 6.407914003101729e+00
 3.367285086005786e-01	 2.298995209927609e+00	 6.362673004788068e+00
 3.165534919874212e-01	 2.301859885794940e+00	 6.319865682325953e+00
 2.964135780332426e-01	 2.304539878427208e+00	 6.279168348398397e+00
 2.763110252327106e-01	 2.307036479994991e+00	 6.240478031584233e+00
 2.562480557777606e-01	 2.309351013912615e+00	 6.203894543637850e+00
 2.362268551605955e-01	 2.311484833814059e+00	 6.169703937128882e+00
 2.162495718069747e-01	 2.313439322528182e+00	 6.138363281872091e+00
 1.963183167394766e-01	 2.315215891054156e+00	 6.110486687048605e+00
 3.989504981539398e-01	 2.297975125705680e+00	 6.518492134048191e+00
 3.786071109981872e-01	 2.301414288744914e+00	 6.469873525747026e+00
 3.582919444046360e-01	 2.304664374329043e+00	 6.424267698908790e+00
 3.380073720681420e-01	 2.307726579302260e+00	 6.381227508060593e+00
 3.177557326236101e-01	 2.310602134941421e+00	 6.340212681455794e+00
 2.975393291546795e-01	 2.313292305935888e+00	 6.300962347170298e+00
 2.773604287335805e-01	 2.315798389363781e+00	 6.263432337524137e+00
 2.572212619919365e-01	 2.318121713665623e+00	 6.227777274010229e+00
 2.371240227222559e-01	 2.320263637616369e+00	 6.194334071271761e+00
 2.170708675098290e-01	 2.322225549296722e+00	 6.163606786023236e+00
 1.970639153947111e-01	 2.324008865064697e+00	 6.136252735305341e+00
 4.004599417796176e-01	 2.306669597629399e+00	 6.531773760186956e+00
 3.800395846835243e-01	 2.310121772866058e+00	 6.485819832931679e+00
 3.596475549231084e-01	 2.313384155266310e+00	 6.442405878379646e+00
 3.392862351741974e-01	 2.316457946202639e+00	 6.401194082182979e+00
 3.189579729200171e-01	 2.319344381610483e+00	 6.361685497784842e+00
 2.986650799580179e-01	 2.322044730964200e+00	 6.323669125638959e+00
 2.784098319379913e-01	 2.324560296249448e+00	 6.287146390570273e+00
 2.581944679312465e-01	 2.326892410932952e+00	 6.252313271367444e+00
 2.380211900305964e-01	 2.329042438930637e+00	 6.219543878119043e+00
 2.178921629808598e-01	 2.331011773575057e+00	 6.189375400580803e+00
 1.978095138395674e-01	 2.332801836583068e+00	 6.162494349378474e+00
 4.019693845506116e-01	 2.315364064625950e+00	 6.547652678876676e+00
 3.814720575578184e-01	 2.318829252052637e+00	 6.503799950485623e+00
 3.610031646741138e-01	 2.322103931262002e+00	 6.462125651884323e+00
 3.405650975562919e-01	 2.325189308154833e+00	 6.422387475380387e+00
 3.201602125358946e-01	 2.328086623325142e+00	 6.384114296460845e+00
 2.997908301241795e-01	 2.330797151032284e+00	 6.347132182255587e+00
 2.794592345484939e-01	 2.333322198169453e+00	 6.311475073723786e+00
 2.591676733198291e-01	 2.335663103229576e+00	 6.277366987002974e+00
 2.389183568312976e-01	 2.337821235269544e+00	 6.245205691210675e+00
 2.187134579872431e-01	 2.339797992873766e+00	 6.215547783298723e+00
 1.985551118626669e-01	 2.341594803117931e+00	 6.189095079110406e+00
 4.034788260391606e-01	 2.324058524231837e+00	 6.565888022083896e+00
 3.829045292151072e-01	 2.327536723837477e+00	 6.523593963973363e+00
 3.623587732734601e-01	 2.330823699845481e+00	 6.483226594761625e+00
 3.418439588519724e-01	 2.333920662684930e+00	 6.444624472503554e+00
 3.213624511304951e-01	 2.336828857608415e+00	 6.407330911382072e+00
 3.009165793340853e-01	 2.339549563660281e+00	 6.371196373922364e+00
 2.805086362676391e-01	 2.342084092641259e+00	 6.336274372791205e+00
 2.601408778818226e-01	 2.344433788070469e+00	 6.302803771081024e+00
 2.398155228700407e-01	 2.346600024145774e+00	 6.271192587770054e+00
 2.195347522961551e-01	 2.348584204703427e+00	 6.242003226197913e+00
 1.993007092526315e-01	 2.350387762177955e+00	 6.215939041975421e+00
 4.049882658175036e-01	 2.332752973983562e+00	 6.586242395665228e+00
 3.843369992494279e-01	 2.336244185753409e+00	 6.544984977306725e+00
 3.637143803369547e-01	 2.339543458546102e+00	 6.505510727271818e+00
 3.431228186987860e-01	 2.342652007319017e+00	 6.467723879683909e+00
 3.225646883630715e-01	 2.345571081983316e+00	 6.431168833717729e+00
 3.020423272686569e-01	 2.348301966368331e+00	 6.395707907579824e+00
 2.815580367979779e-01	 2.350845977182324e+00	 6.361401370282158e+00
 2.611140813413651e-01	 2.353204462970607e+00	 6.328489868126787e+00
 2.407126878925066e-01	 2.355378803072008e+00	 6.297378385110793e+00
 2.203560456747723e-01	 2.357370406574623e+00	 6.268621652251817e+00
 2.000463057980824e-01	 2.359180711271805e+00	 6.242910919447614e+00
 4.064977034578799e-01	 2.341447411417628e+00	 6.608481834193864e+00
 3.857694672548181e-01	 2.344951635333264e+00	 6.567759075966595e+00
 3.650699854804054e-01	 2.348263204893226e+00	 6.528782495032681e+00
 3.444016767342797e-01	 2.351383339583184e+00	 6.491506509359950e+00
 3.237669238928758e-01	 2.354313293972862e+00	 6.455463200706713e+00
 3.031680736088157e-01	 2.357054356676572e+00	 6.420514331999673e+00
 2.826074358420612e-01	 2.359607849310108e+00	 6.386714239456172e+00
 2.620872834225951e-01	 2.361975125444967e+00	 6.354292412627264e+00
 2.416098516443764e-01	 2.364157569560930e+00	 6.323637637129977e+00
 2.211773378902707e-01	 2.366156595997930e+00	 6.295283612150479e+00
 2.007919012876414e-01	 2.367973647908145e+00	 6.269895953453169e+00
 4.080071385325283e-01	 2.350141834070536e+00	 6.632375756536605e+00
 3.872019328253151e-01	 2.353659070109870e+00	 6.591705290824273e+00
 3.664255883196201e-01	 2.356982936416213e+00	 6.552848749925925e+00
 3.456805325960006e-01	 2.360114657003518e+00	 6.515795165665223e+00
 3.249691573791607e-01	 2.363055491100066e+00	 6.480050784728085e+00
 3.042938180354829e-01	 2.365806732105149e+00	 6.445464529777173e+00
 2.836568331024397e-01	 2.368369706542075e+00	 6.412072238514962e+00
 2.630604838496510e-01	 2.370745773008522e+00	 6.380079424739599e+00
 2.425070138713309e-01	 2.372936321125219e+00	 6.349845630886457e+00
 2.219986287098268e-01	 2.374942770483929e+00	 6.321870281141417e+00
 2.015374955099299e-01	 2.376766569595645e+00	 6.296779942903616e+00
 4.095165706136882e-01	 2.358836239478789e+00	 6.657696922162382e+00
 3.886343955549562e-01	 2.362366487616057e+00	 6.616615562547163e+00
 3.677811884704062e-01	 2.365702650644420e+00	 6.577518731462279e+00
 3.469593859214955e-01	 2.368845957106105e+00	 6.540414630168012e+00
 3.261713884811787e-01	 2.371797670887945e+00	 6.504769982635707e+00
 3.054195602295801e-01	 2.374559090174198e+00	 6.470408709518095e+00
 2.847062282816644e-01	 2.377131546395682e+00	 6.437335704936270e+00
 2.640336823466709e-01	 2.379516403176245e+00	 6.405719806103305e+00
 2.434041743190512e-01	 2.381715055277557e+00	 6.375878383261338e+00
 2.228199179006166e-01	 2.383728927543198e+00	 6.348263455944455e+00
 2.022830882535697e-01	 2.385559473842969e+00	 6.323449240309753e+00
 4.110259992735985e-01	 2.367530625178890e+00	 6.684221388163433e+00
 3.900668550377791e-01	 2.371073885384655e+00	 6.642284706573243e+00
 3.691367855485716e-01	 2.374422345107205e+00	 6.602604048592779e+00
 3.482382363483116e-01	 2.377577237417034e+00	 6.565191647953899e+00
 3.273736168581822e-01	 2.380539830859515e+00	 6.529460805350322e+00
 3.065452998720287e-01	 2.383311428403861e+00	 6.495198398214837e+00
 2.857556210822865e-01	 2.385893366388392e+00	 6.462366049945267e+00
 2.650068786377933e-01	 2.388287013463113e+00	 6.431083335754590e+00
 2.443013327332182e-01	 2.390493769530626e+00	 6.401612637698909e+00
 2.236412052298165e-01	 2.392515064686318e+00	 6.374345551739651e+00
 2.030286793071822e-01	 2.394352358158783e+00	 6.349790748472325e+00
 4.125354240844981e-01	 2.376224988707342e+00	 6.711728466970385e+00
 3.914993108678211e-01	 2.379781260948494e+00	 6.668510378640262e+00
 3.704923791699241e-01	 2.383142017333930e+00	 6.627918669605748e+00
 3.495170835139961e-01	 2.386308495462393e+00	 6.589954914042213e+00
 3.285758421694240e-01	 2.389281968537790e+00	 6.553964867702391e+00
 3.076710366437497e-01	 2.392063744314279e+00	 6.519686433807340e+00
 2.868050112068564e-01	 2.394655164037665e+00	 6.487025753120310e+00
 2.659800724471563e-01	 2.397057601384103e+00	 6.456040666139767e+00
 2.451984888595130e-01	 2.399272461397111e+00	 6.426925861025308e+00
 2.244624904646028e-01	 2.401301179423868e+00	 6.399999599225328e+00
 2.037742684593891e-01	 2.403145220051754e+00	 6.375691917248664e+00
 1.963183167394766e-01	 2.315215891054156e+00	 6.110486687048605e+00
 1.764385310364568e-01	 2.316815720398379e+00	 6.086893165860774e+00
 1.566088185154535e-01	 2.318240590786652e+00	 6.067383783030854e+00
 1.368311300350413e-01	 2.319491990372638e+00	 6.051270856080573e+00
 1.171073792565506e-01	 2.320571431365386e+00	 6.037996229846113e+00
 9.743944244549368e-02	 2.321480449033855e+00	 6.027123961114100e+00
 7.782915829959509e-02	 2.322220600716149e+00	 6.018333747508038e+00
 5.827832780298224e-02	 2.322793464834211e+00	 6.011415029635682e+00
 3.878871410607834e-02	 2.323200639914681e+00	 6.006261697645355e+00
 1.936204243071925e-02	 2.323443743616602e+00	 6.002867335751587e+00
 0.000000000000000e+00	 2.323524411766664e+00	 6.001320941704191e+00
 1.970639153947111e-01	 2.324008865064697e+00	 6.136252735305341e+00
 1.771086281199702e-01	 2.325614770412040e+00	 6.113080959242827e+00
 1.572036042005577e-01	 2.327045052325662e+00	 6.093857351092039e+00
 1.373508019042066e-01	 2.328301204611078e+00	 6.077894402665481e+00
 1.175521421601336e-01	 2.329384745220547e+00	 6.064631340781534e+00
 9.780950835971221e-02	 2.330297215253816e+00	 6.053627029616459e+00
 7.812474618384929e-02	 2.331040177963597e+00	 6.044553625279558e+00
 5.849966345662223e-02	 2.331615217766517e+00	 6.037190909561581e+00
 3.893603002471555e-02	 2.332023939260249e+00	 6.031421232049003e+00
 1.943557766217746e-02	 2.332267966247539e+00	 6.027224992298958e+00
 0.000000000000000e+00	 2.332348940767776e+00	 6.024676597251004e+00
 1.978095138395674e-01	 2.332801836583068e+00	 6.162494349378474e+00
 1.777787250144937e-01	 2.334413817931758e+00	 6.139689129444138e+00
 1.577983897180009e-01	 2.335849511369154e+00	 6.120693570686383e+00
 1.378704736269728e-01	 2.337110416352620e+00	 6.104826802125300e+00
 1.179969049385061e-01	 2.338198056577620e+00	 6.091531762834247e+00
 9.817957416982828e-02	 2.339113978974688e+00	 6.080368323441842e+00
 7.842033398502198e-02	 2.339859752711145e+00	 6.071007168034129e+00
 5.872099904810785e-02	 2.340436968198292e+00	 6.063224361317213e+00
 3.908334590202525e-02	 2.340847236104838e+00	 6.056896528233868e+00
 1.950911287302839e-02	 2.341092186377230e+00	 6.051996575840851e+00
 0.000000000000000e+00	 2.341173467267554e+00	 6.048589890786812e+00
 1.985551118626669e-01	 2.341594803117931e+00	 6.189095079110406e+00
 1.784488215300383e-01	 2.343212860464476e+00	 6.166606254708927e+00
 1.583931748991300e-01	 2.344653965422534e+00	 6.147787590229325e+00
 1.383901450559686e-01	 2.345919623101312e+00	 6.131971191923812e+00
 1.184416674655227e-01	 2.347011362939483e+00	 6.118609917832620e+00
 9.854963977086653e-02	 2.347930737698364e+00	 6.107270720106504e+00
 7.871592161925042e-02	 2.348679322459877e+00	 6.097628756109228e+00
 5.894233451463112e-02	 2.349258713629998e+00	 6.089462191031506e+00
 3.923066169619540e-02	 2.349670527948470e+00	 6.082647617177210e+00
 1.958264804239622e-02	 2.349916401505431e+00	 6.077156017807710e+00
 0.000000000000000e+00	 2.349997988765666e+00	 6.073049207018106e+00
 1.993007092526315e-01	 2.350387762177955e+00	 6.215939041975421e+00
 1.791189174766151e-01	 2.352011895517132e+00	 6.193721432447289e+00
 1.589879595752919e-01	 2.353458411991199e+00	 6.175035024828791e+00
 1.389098160438224e-01	 2.354728822361202e+00	 6.159231120410960e+00
 1.188864296150382e-01	 2.355824661809015e+00	 6.145778580014080e+00
 9.891970505785140e-02	 2.356747488926737e+00	 6.134257389040568e+00
 7.901150900267198e-02	 2.357498884710880e+00	 6.124352999885152e+00
 5.916366979338409e-02	 2.358080451562100e+00	 6.115851372264590e+00
 3.937797736541390e-02	 2.358493812291163e+00	 6.108634634563797e+00
 1.965618314940513e-02	 2.358740609131897e+00	 6.102677292124770e+00
 0.000000000000000e+00	 2.358822502761778e+00	 6.098042912060413e+00
 2.000463057980824e-01	 2.359180711271805e+00	 6.242910919447614e+00
 1.797890126642351e-01	 2.360810920596668e+00	 6.220924275132054e+00
 1.595827435778335e-01	 2.362262848580552e+00	 6.202331951955049e+00
 1.394294864431627e-01	 2.363538011636339e+00	 6.186510542481757e+00
 1.193311912609072e-01	 2.364637950689095e+00	 6.172950871861767e+00
 9.928976992580749e-02	 2.365564230161696e+00	 6.161251787762954e+00
 7.930709605142384e-02	 2.366318436965246e+00	 6.151114736431647e+00
 5.938500482155876e-02	 2.366902179495063e+00	 6.142339043233189e+00
 3.952529286786867e-02	 2.367317086632938e+00	 6.134817818668903e+00
 1.972971817317929e-02	 2.367564806756383e+00	 6.128534413804676e+00
 0.000000000000000e+00	 2.367647006755555e+00	 6.123559352769473e+00
 2.007919012876414e-01	 2.367973647908145e+00	 6.269895953453169e+00
 1.804591069029091e-01	 2.369609933210024e+00	 6.248104906288994e+00
 1.601775267381020e-01	 2.371067272695995e+00	 6.229574907208261e+00
 1.399491561066178e-01	 2.372347188430768e+00	 6.213713815333133e+00
 1.197759522769842e-01	 2.373451227082600e+00	 6.200040260034870e+00
 9.965983426975930e-02	 2.374380958905133e+00	 6.188177658142577e+00
 7.960268268164336e-02	 2.375137976724058e+00	 6.177849026231384e+00
 5.960633953634716e-02	 2.375723894929350e+00	 6.168872504098880e+00
 3.967260816174764e-02	 2.376140348473814e+00	 6.161157508289589e+00
 1.980325309284289e-02	 2.376388991878643e+00	 6.154701437573295e+00
 0.000000000000000e+00	 2.376471498246666e+00	 6.149586856086545e+00
 2.015374955099299e-01	 2.376766569595645e+00	 6.296779942903616e+00
 1.811292000026484e-01	 2.378408930864142e+00	 6.275153956577810e+00
 1.607723088874440e-01	 2.379871681842929e+00	 6.256660880181251e+00
 1.404688248868164e-01	 2.381156350248540e+00	 6.240745694315273e+00
 1.202207125371239e-01	 2.382264488492409e+00	 6.226960551389841e+00
 1.000298979847314e-01	 2.383197672658942e+00	 6.214959022743435e+00
 7.989826880946778e-02	 2.383957501488406e+00	 6.204491149975578e+00
 5.982767387494128e-02	 2.384545595365426e+00	 6.195399214317285e+00
 3.981992320523873e-02	 2.384963595313814e+00	 6.187614140722594e+00
 1.987678788752008e-02	 2.385213161998432e+00	 6.181152456527184e+00
 0.000000000000000e+00	 2.385295974734777e+00	 6.176113728399077e+00
 2.022830882535697e-01	 2.385559473842969e+00	 6.323449240309753e+00
 1.817992917734637e-01	 2.387207911065961e+00	 6.301962559962037e+00
 1.613670898572067e-01	 2.388676073526756e+00	 6.283487310414976e+00
 1.409884926363869e-01	 2.389965494593699e+00	 6.267511328876385e+00
 1.206654719151811e-01	 2.391077732421400e+00	 6.253625889090590e+00
 1.003999609657483e-01	 2.392014368925014e+00	 6.241520181251004e+00
 8.019385435103442e-02	 2.392777008759376e+00	 6.230976605432712e+00
 6.004900777453322e-02	 2.393367278303754e+00	 6.221866790047190e+00
 3.996723795652986e-02	 2.393786824652957e+00	 6.214148249788464e+00
 1.995032253633504e-02	 2.394037314615505e+00	 6.207861600820708e+00
 0.000000000000000e+00	 2.394120433719554e+00	 6.203128254916794e+00
 2.030286793071822e-01	 2.394352358158783e+00	 6.349790748472325e+00
 1.824693820253662e-01	 2.396006871322423e+00	 6.328422349964695e+00
 1.619618694787370e-01	 2.397480445252878e+00	 6.309952083444228e+00
 1.415081592079577e-01	 2.398774618970295e+00	 6.293916258597101e+00
 1.211102302850102e-01	 2.399890956372451e+00	 6.279950748805171e+00
 1.007700231078345e-01	 2.400831045205240e+00	 6.267785706978747e+00
 8.048943922248050e-02	 2.401596496038056e+00	 6.257241104386333e+00
 6.027034117231492e-02	 2.402188941244799e+00	 6.248223001617632e+00
 4.011455237380896e-02	 2.402610033991262e+00	 6.240720463899745e+00
 2.002385701841196e-02	 2.402861447229616e+00	 6.234803036383246e+00
 0.000000000000000e+00	 2.402944872700665e+00	 6.230618699060464e+00
 2.037742684593891e-01	 2.403145220051754e+00	 6.375691917248664e+00
 1.831394705683669e-01	 2.404805809140469e+00	 6.354425456008478e+00
 1.625566475833818e-01	 2.406284794526695e+00	 6.335953526931336e+00
 1.420278244541574e-01	 2.407583720882376e+00	 6.319866409312726e+00
 1.215549875204660e-01	 2.408704157848441e+00	 6.305849934986009e+00
 1.011400843060147e-01	 2.409647699001514e+00	 6.293680443451624e+00
 8.078502333994339e-02	 2.410415960825535e+00	 6.283220569641509e+00
 6.049167400547847e-02	 2.411010581689024e+00	 6.274415771051945e+00
 4.026186641526397e-02	 2.411433220828751e+00	 6.267291504173349e+00
 2.009739131287501e-02	 2.411685557340521e+00	 6.261950963666501e+00
 0.000000000000000e+00	 2.411769289177776e+00	 6.258573301865835e+00
 2.411769289177776e+00	 0.000000000000000e+00	 1.153491699862134e+01
 2.411685557340520e+00	 2.009739131287368e-02	 1.153636584652608e+01
 2.411433220828751e+00	 4.026186641526282e-02	 1.153792595374127e+01
 2.411010581689024e+00	 6.049167400547752e-02	 1.153980607347427e+01
 2.410415960825535e+00	 8.078502333994263e-02	 1.154218427297299e+01
 2.409647699001513e+00	 1.011400843060141e-01	 1.154520788142766e+01
 2.408704157848441e+00	 1.215549875204656e-01	 1.154899322723739e+01
 2.407583720882377e+00	 1.420278244541572e-01	 1.155362514310899e+01
 2.406284794526695e+00	 1.625566475833819e-01	 1.155915621551259e+01
 2.404805809140468e+00	 1.831394705683671e-01	 1.156560575307980e+01
 2.403145220051753e+00	 2.037742684593891e-01	 1.157295844652569e+01
 2.420592184004311e+00	 0.000000000000000e+00	 1.152118874021287e+01
 2.420508145853693e+00	 2.017091292721681e-02	 1.152278029765967e+01
 2.420254886227749e+00	 4.040915505419339e-02	 1.152448188876153e+01
 2.419830700961471e+00	 6.071296867252746e-02	 1.152649128587956e+01
 2.419233904816472e+00	 8.108055648764277e-02	 1.152897700173218e+01
 2.418462832486047e+00	 1.015100816918718e-01	 1.153207829938554e+01
 2.417515839608091e+00	 1.219996680633029e-01	 1.153590499558066e+01
 2.416391303785128e+00	 1.425474000909046e-01	 1.154053703585697e+01
 2.415087625610806e+00	 1.631513231264263e-01	 1.154602381794575e+01
 2.413603229702029e+00	 1.838094435635525e-01	 1.155238323791002e+01
 2.411936565736030e+00	 2.045197290447714e-01	 1.155960043144197e+01
 2.429415071334221e+00	 0.000000000000000e+00	 1.150785077289013e+01
 2.429330726870513e+00	 2.024443447889918e-02	 1.150950415557374e+01
 2.429076544131215e+00	 4.055644356765203e-02	 1.151128945367332e+01
 2.428650812739752e+00	 6.093426315114193e-02	 1.151338864784530e+01
 2.428051841315157e+00	 8.137608938378982e-02	 1.151595608940235e+01
 2.427277958480798e+00	 1.018800787629030e-01	 1.151911858365985e+01
 2.426327513880976e+00	 1.224443482278824e-01	 1.152297527085133e+01
 2.425198879204688e+00	 1.430669752858037e-01	 1.152759728306122e+01
 2.423890449215851e+00	 1.637459981638709e-01	 1.153302715359013e+01
 2.422400642789204e+00	 1.844794159892236e-01	 1.153927795311330e+01
 2.420727903951157e+00	 2.052651889965601e-01	 1.154633212486266e+01
 2.438237968666715e+00	 0.000000000000000e+00	 1.149493880627592e+01
 2.438153317889580e+00	 2.031795611367892e-02	 1.149655556453639e+01
 2.437898212035911e+00	 4.070373224766095e-02	 1.149835302814740e+01
 2.437470934517559e+00	 6.115555788009839e-02	 1.150049264301854e+01
 2.436869787810966e+00	 8.167162261439190e-02	 1.150311005695857e+01
 2.436093094469554e+00	 1.022500762528061e-01	 1.150631528753759e+01
 2.435139198144029e+00	 1.228890288960369e-01	 1.151019269201637e+01
 2.434006464609849e+00	 1.435865510692486e-01	 1.151480071777610e+01
 2.432693282801188e+00	 1.643406738750812e-01	 1.152017140960048e+01
 2.431198065850612e+00	 1.851493891741113e-01	 1.152630964804657e+01
 2.429519252133696e+00	 2.060106497932278e-01	 1.153319209094546e+01
 2.447060893501001e+00	 0.000000000000000e+00	 1.148248906733922e+01
 2.446975936409492e+00	 2.039147797731409e-02	 1.148395323261067e+01
 2.446719907438604e+00	 4.085102138624248e-02	 1.148567756168086e+01
 2.446291083788585e+00	 6.137685329817418e-02	 1.148779828973153e+01
 2.445687761793263e+00	 8.196715676545709e-02	 1.149042788298043e+01
 2.444908257936103e+00	 1.026200748952796e-01	 1.149365530211082e+01
 2.443950909874183e+00	 1.233337109495989e-01	 1.149754607253809e+01
 2.442814077469403e+00	 1.441061284716330e-01	 1.150214213992878e+01
 2.441496143826175e+00	 1.649353514394233e-01	 1.150746148725493e+01
 2.439995516334869e+00	 1.858193644469466e-01	 1.151349748748905e+01
 2.438310627720206e+00	 2.067561129132469e-01	 1.152021796378281e+01
 2.455883863336285e+00	 0.000000000000000e+00	 1.147053829094632e+01
 2.455798599928851e+00	 2.046500021556279e-02	 1.147171641900439e+01
 2.455541647836058e+00	 4.099831127541885e-02	 1.147326855882274e+01
 2.455111278046521e+00	 6.159814984414676e-02	 1.147530112519744e+01
 2.454505780751423e+00	 8.226269242299340e-02	 1.147789898792826e+01
 2.453723466364230e+00	 1.029900754240222e-01	 1.148112584175911e+01
 2.452762666548367e+00	 1.237783952704008e-01	 1.148502438820372e+01
 2.451621735252139e+00	 1.446257085233509e-01	 1.148961630765054e+01
 2.450299049750167e+00	 1.655300320362625e-01	 1.149490199795597e+01
 2.448793011690591e+00	 1.864893431364605e-01	 1.150086005349374e+01
 2.447102048147246e+00	 2.075015798350896e-01	 1.150744645629644e+01
 2.464706895671778e+00	 0.000000000000000e+00	 1.145912371065471e+01
 2.464621325946256e+00	 2.053852297418312e-02	 1.145986492172645e+01
 2.464363450725036e+00	 4.114560220721233e-02	 1.146113206475017e+01
 2.463931534785059e+00	 6.181944795679352e-02	 1.146299719008019e+01
 2.463323862174812e+00	 8.255823017300901e-02	 1.146551321879602e+01
 2.462538737237723e+00	 1.033600785727321e-01	 1.146871442999020e+01
 2.461574485643514e+00	 1.242230827402754e-01	 1.147261676527292e+01
 2.460429455426854e+00	 1.451452922547962e-01	 1.147721792886408e+01
 2.459102018032526e+00	 1.661247168449647e-01	 1.148249725940377e+01
 2.457590569366397e+00	 1.871593265713841e-01	 1.148841534730472e+01
 2.455893530851377e+00	 2.082470520372284e-01	 1.149491336906853e+01
 2.473530008006687e+00	 0.000000000000000e+00	 1.144828304974325e+01
 2.473444131960304e+00	 2.061204639893316e-02	 1.144841906554206e+01
 2.473185333602305e+00	 4.129289447364520e-02	 1.144927465118627e+01
 2.472751871497893e+00	 6.204074807489190e-02	 1.145088301342843e+01
 2.472142023552804e+00	 8.285377060151190e-02	 1.145326083413085e+01
 2.471354088040368e+00	 1.037300850751079e-01	 1.145640888562922e+01
 2.470386384636555e+00	 1.246677742410551e-01	 1.146031246893491e+01
 2.469237255462335e+00	 1.456648806963626e-01	 1.146494165312028e+01
 2.467905066132604e+00	 1.667194070448957e-01	 1.147025129193676e+01
 2.466388206810903e+00	 1.878293160804483e-01	 1.147618079133840e+01
 2.464685093269159e+00	 2.089925309981359e-01	 1.148265359911107e+01
 2.482353217840222e+00	 0.000000000000000e+00	 1.143805451247312e+01
 2.482267035469597e+00	 2.068557063557098e-02	 1.143739969021899e+01
 2.482007313964629e+00	 4.144018836673971e-02	 1.143770340265024e+01
 2.481572305678712e+00	 6.226205063721928e-02	 1.143895559796425e+01
 2.480960282374767e+00	 8.314931429451024e-02	 1.144113248940966e+01
 2.480169536255953e+00	 1.041000956648482e-01	 1.144419730934728e+01
 2.479198381004420e+00	 1.251124706545726e-01	 1.144810089206681e+01
 2.478045152827377e+00	 1.461844748784441e-01	 1.145278206367741e+01
 2.476708211509762e+00	 1.673141038154211e-01	 1.145816781503531e+01
 2.475185941472726e+00	 1.884993129923843e-01	 1.146417323122646e+01
 2.473476752837151e+00	 2.097380181962843e-01	 1.147070114857436e+01
 2.491176542671590e+00	 0.000000000000000e+00	 1.142847677557324e+01
 2.491090053972734e+00	 2.075909582985468e-02	 1.142682813905732e+01
 2.490829409308772e+00	 4.158748417851815e-02	 1.142642590303159e+01
 2.490392854821212e+00	 6.248335608255309e-02	 1.142721240571707e+01
 2.489778656130071e+00	 8.344486183801204e-02	 1.142911922276330e+01
 2.488985099368266e+00	 1.044701110756514e-01	 1.143206807052022e+01
 2.488010492224041e+00	 1.255571728626603e-01	 1.143597154428530e+01
 2.486853164990770e+00	 1.467040758314346e-01	 1.144073366981634e+01
 2.485511471623356e+00	 1.679088083359065e-01	 1.144625024398352e+01
 2.483983790800481e+00	 1.891693186359228e-01	 1.145240893791879e+01
 2.482268526991912e+00	 2.104835151101462e-01	 1.145908913339620e+01
 2.500000000000000e+00	 0.000000000000000e+00	 1.141958897994500e+01
 2.499913204968313e+00	 2.083262212754237e-02	 1.141672624769567e+01
 2.499651637131500e+00	 4.173478220100279e-02	 1.141545022247983e+01
 2.499213536419082e+00	 6.270466484967074e-02	 1.141565134399409e+01
 2.498597162308088e+00	 8.374041381802545e-02	 1.141721244103919e+01
 2.497800794861094e+00	 1.048401320412160e-01	 1.142000979440907e+01
 2.496822735772351e+00	 1.260018817471509e-01	 1.142391404128344e+01
 2.495661309421307e+00	 1.472236845857280e-01	 1.142879089938526e+01
 2.494314863932743e+00	 1.685035217857179e-01	 1.143450168668492e+01
 2.492781772242788e+00	 1.898393343397951e-01	 1.144090360984460e+01
 2.491060433170003e+00	 2.112290232181939e-01	 1.144784979189291e+01
 2.403145220051753e+00	 2.037742684593891e-01	 1.157295844652569e+01
 2.401301179423868e+00	 2.244624904646018e-01	 1.158096926139653e+01
 2.399272461397111e+00	 2.451984888595121e-01	 1.158951528543137e+01
 2.397057601384104e+00	 2.659800724471556e-01	 1.159871724854933e+01
 2.394655164037665e+00	 2.868050112068558e-01	 1.160866118764665e+01
 2.392063744314279e+00	 3.076710366437493e-01	 1.161939497216394e+01
 2.389281968537789e+00	 3.285758421694235e-01	 1.163092429904844e+01
 2.386308495462393e+00	 3.495170835139956e-01	 1.164320811489055e+01
 2.383142017333930e+00	 3.704923791699238e-01	 1.165615341559043e+01
 2.379781260948493e+00	 3.914993108678208e-01	 1.166937538249623e+01
 2.376224988707342e+00	 4.125354240844981e-01	 1.168266906890399e+01
 2.411936565736030e+00	 2.045197290447714e-01	 1.155960043144197e+01
 2.410085779116245e+00	 2.252836340798409e-01	 1.156747296116390e+01
 2.408049639498448e+00	 2.460954902833876e-01	 1.157590939195206e+01
 2.405826676937398e+00	 2.669530984424627e-01	 1.158501839981174e+01
 2.403415450835028e+00	 2.878542203783776e-01	 1.159487784785698e+01
 2.400814551007787e+00	 3.087965792975076e-01	 1.160553146670903e+01
 2.398022598754243e+00	 3.297778601733234e-01	 1.161698500460206e+01
 2.395038247921946e+00	 3.507957101599751e-01	 1.162920180415333e+01
 2.391860185972615e+00	 3.718477390377299e-01	 1.164209619882413e+01
 2.388487135044622e+00	 3.929315196905244e-01	 1.165521559904523e+01
 2.384917853011747e+00	 4.140445886158671e-01	 1.166835608983556e+01
 2.420727903951157e+00	 2.052651889965601e-01	 1.154633212486266e+01
 2.418870371345269e+00	 2.261047769972317e-01	 1.155403671839102e+01
 2.416826810142783e+00	 2.469924909450028e-01	 1.156234325811671e+01
 2.414595745040610e+00	 2.679261236109486e-01	 1.157135198140508e+01
 2.412175730189792e+00	 2.889034286583775e-01	 1.158113573878372e+01
 2.409565350266758e+00	 3.099221209949132e-01	 1.159173681774129e+01
 2.406763221544790e+00	 3.309798771559180e-01	 1.160316323709860e+01
 2.403767992964807e+00	 3.520743357195856e-01	 1.161538446811076e+01
 2.400578347204410e+00	 3.732030977540010e-01	 1.162832002048417e+01
 2.397193001744243e+00	 3.943637272964342e-01	 1.164145066903906e+01
 2.393610709930618e+00	 4.155537518651016e-01	 1.165458336925822e+01
 2.429519252133696e+00	 2.060106497932278e-01	 1.153319209094546e+01
 2.427654973534109e+00	 2.269259208453727e-01	 1.154071715522842e+01
 2.425603990738564e+00	 2.478894926234245e-01	 1.154888571855400e+01
 2.423364823086110e+00	 2.688991498824757e-01	 1.155779312948856e+01
 2.420936019476900e+00	 2.899526381278242e-01	 1.156751032325885e+01
 2.418316159447325e+00	 3.110476639683347e-01	 1.157808077764862e+01
 2.415503854245390e+00	 3.321818955012538e-01	 1.158951694089269e+01
 2.412497747905362e+00	 3.533529627288108e-01	 1.160179608695269e+01
 2.409296518320724e+00	 3.745584580069012e-01	 1.161483993635515e+01
 2.405898878314389e+00	 3.957959365261204e-01	 1.162806668109592e+01
 2.402303576705195e+00	 4.170629168253849e-01	 1.164130161166587e+01
 2.438310627720206e+00	 2.067561129132469e-01	 1.152021796378281e+01
 2.436439603105941e+00	 2.277470672528620e-01	 1.152756964345463e+01
 2.434381198694239e+00	 2.487864970977196e-01	 1.153560413541751e+01
 2.432133928466276e+00	 2.698721791869063e-01	 1.154441538434482e+01
 2.429696336071292e+00	 2.910018508676860e-01	 1.155407544396091e+01
 2.427066995905628e+00	 3.121732104501406e-01	 1.156463155386062e+01
 2.424244514191992e+00	 3.333839175933769e-01	 1.157610269031879e+01
 2.421227530057993e+00	 3.546315937236350e-01	 1.158847554572356e+01
 2.418014716612970e+00	 3.759138224845953e-01	 1.160167048986954e+01
 2.414604782022097e+00	 3.972281502201535e-01	 1.161504960399761e+01
 2.410996470576720e+00	 4.185720864898998e-01	 1.162846188798884e+01
 2.447102048147246e+00	 2.075015798350896e-01	 1.150744645629644e+01
 2.445224277483935e+00	 2.285682178482976e-01	 1.151464832030969e+01
 2.443158451418256e+00	 2.496835061469548e-01	 1.152256441973640e+01
 2.440903078573478e+00	 2.708452134541026e-01	 1.153129071580947e+01
 2.438456697347905e+00	 2.920510689589316e-01	 1.154090335146969e+01
 2.435817876997804e+00	 3.132987626727000e-01	 1.155145583805937e+01
 2.432985218720554e+00	 3.345859458163336e-01	 1.156297571857436e+01
 2.429957356737081e+00	 3.559102312400417e-01	 1.157546066138025e+01
 2.426732959372563e+00	 3.772691938752474e-01	 1.158882571783289e+01
 2.423310730134402e+00	 3.986603712191036e-01	 1.160238528569148e+01
 2.419689408786432e+00	 4.200812638518300e-01	 1.161601562626649e+01
 2.455893530851377e+00	 2.082470520372284e-01	 1.149491336906853e+01
 2.454009014091267e+00	 2.293893742602779e-01	 1.150200610414194e+01
 2.451935766319064e+00	 2.505805215501969e-01	 1.150983105249058e+01
 2.449672290800092e+00	 2.718182546139270e-01	 1.151848954837169e+01
 2.447217120681682e+00	 2.931002944825294e-01	 1.152806473197347e+01
 2.444568820079989e+00	 3.144243228683814e-01	 1.153861883505994e+01
 2.441725985167030e+00	 3.357879825541701e-01	 1.155018994632563e+01
 2.438687245257011e+00	 3.571888778140149e-01	 1.156278820966131e+01
 2.435451263890913e+00	 3.786245748670222e-01	 1.157631915609229e+01
 2.432016739918337e+00	 4.000926023635405e-01	 1.159005945239411e+01
 2.428382408575571e+00	 4.215904519043582e-01	 1.160391460261569e+01
 2.464685093269159e+00	 2.089925309981359e-01	 1.148265359911107e+01
 2.462793830351111e+00	 2.302105381174011e-01	 1.148969470987262e+01
 2.460713160805109e+00	 2.514775450865129e-01	 1.149746710541745e+01
 2.458441582538490e+00	 2.727913045962421e-01	 1.150608078595410e+01
 2.455977623447563e+00	 2.941495295194478e-01	 1.151562873463796e+01
 2.453319842508320e+00	 3.155498932695536e-01	 1.152618429136938e+01
 2.450466830867374e+00	 3.369900301909327e-01	 1.153779801004368e+01
 2.447417212932166e+00	 3.584675359815389e-01	 1.155049395177348e+01
 2.444169647459435e+00	 3.799799681480838e-01	 1.156416384514981e+01
 2.440722828640938e+00	 4.015248464940345e-01	 1.157805770779365e+01
 2.437075487185377e+00	 4.230996536406678e-01	 1.159211093248763e+01
 2.473476752837151e+00	 2.097380181962843e-01	 1.147070114857436e+01
 2.471578743686635e+00	 2.310317110482652e-01	 1.147776466428290e+01
 2.469490652284840e+00	 2.523745785349696e-01	 1.148553426155704e+01
 2.467210971181047e+00	 2.737643653309100e-01	 1.149413183638024e+01
 2.464738223020486e+00	 2.951987761506554e-01	 1.150366299864553e+01
 2.462070961638934e+00	 3.166754761085852e-01	 1.151421452343268e+01
 2.459207773157542e+00	 3.381920911106676e-01	 1.152585129007814e+01
 2.456147277076928e+00	 3.597462082785973e-01	 1.153861266090085e+01
 2.452888127369539e+00	 3.813353764065971e-01	 1.155237233572190e+01
 2.449429013569240e+00	 4.029571064511562e-01	 1.156636553234854e+01
 2.445768661857091e+00	 4.246088720539421e-01	 1.158055706220549e+01
 2.482268526991912e+00	 2.104835151101462e-01	 1.145908913339620e+01
 2.480363771521017e+00	 2.318528946814686e-01	 1.146626532112751e+01
 2.478268258166706e+00	 2.532716236746337e-01	 1.147409283554193e+01
 2.475980474120135e+00	 2.747374387477931e-01	 1.148270863553764e+01
 2.473498936775393e+00	 2.962480364571207e-01	 1.149223367991354e+01
 2.470822194827969e+00	 3.178010736178452e-01	 1.150277044557424e+01
 2.467948829373485e+00	 3.393941676974210e-01	 1.151439993847597e+01
 2.464877455005680e+00	 3.610248972411741e-01	 1.152717814854170e+01
 2.461606720912640e+00	 3.826908023307264e-01	 1.154095669424628e+01
 2.458135311970276e+00	 4.043893850754751e-01	 1.155496828268000e+01
 2.454461949831952e+00	 4.261181101373641e-01	 1.156920576077589e+01
 2.491060433170003e+00	 2.112290232181939e-01	 1.144784979189291e+01
 2.489148931277429e+00	 2.326740906456094e-01	 1.145524487607921e+01
 2.487045995859153e+00	 2.541686822845721e-01	 1.146320179363854e+01
 2.484750108748132e+00	 2.757105267767539e-01	 1.147187567124434e+01
 2.482259782087225e+00	 2.972973125198122e-01	 1.148140547749996e+01
 2.479573559431561e+00	 3.189266880297021e-01	 1.149191159764273e+01
 2.476690016851162e+00	 3.405962623352393e-01	 1.150349290655204e+01
 2.473607764032804e+00	 3.623036054052532e-01	 1.151622329067871e+01
 2.470325445380151e+00	 3.840462486086361e-01	 1.152992850833730e+01
 2.466841741111083e+00	 4.058216852075619e-01	 1.154385119105571e+01
 2.463155368351200e+00	 4.276273708841171e-01	 1.155801011196701e+01
 2.376224988707342e+00	 4.125354240844981e-01	 1.168266906890399e+01
 2.372472654089149e+00	 4.335946471085245e-01	 1.169633750479970e+01
 2.368522505086349e+00	 4.546780338956407e-01	 1.171061697492436e+01
 2.364373415927180e+00	 4.757830315916268e-01	 1.172551453311212e+01
 2.360024300548634e+00	 4.969070535816814e-01	 1.174103017244301e+01
 2.355474113615235e+00	 5.180474801603691e-01	 1.175715848761790e+01
 2.350721851527660e+00	 5.392016592342913e-01	 1.177389048937683e+01
 2.345766553420076e+00	 5.603669070574515e-01	 1.179121558893034e+01
 2.340607302145042e+00	 5.815405089992439e-01	 1.180912376995156e+01
 2.335243225244861e+00	 6.027197203449562e-01	 1.182760796507397e+01
 2.329673495908198e+00	 6.239017671286294e-01	 1.184666665304774e+01
 2.384917853011747e+00	 4.140445886158671e-01	 1.166835608983556e+01
 2.381151791353338e+00	 4.351808518903860e-01	 1.168182502945115e+01
 2.377187191652528e+00	 4.563413673254687e-01	 1.169588249365162e+01
 2.373022924019193e+00	 4.775235727278697e-01	 1.171055851197625e+01
 2.368657898417226e+00	 4.987248720202559e-01	 1.172587334068061e+01
 2.364091065687044e+00	 5.199426359136076e-01	 1.174183898368123e+01
 2.359321418557904e+00	 5.411742026124564e-01	 1.175846087103801e+01
 2.354347992648878e+00	 5.624168785529432e-01	 1.177573971383015e+01
 2.349169867457369e+00	 5.836679391736147e-01	 1.179367355385531e+01
 2.343786167334006e+00	 6.049246297188565e-01	 1.181226002596889e+01
 2.338196062442770e+00	 6.261841660747979e-01	 1.183149885007380e+01
 2.393610709930618e+00	 4.155537518651016e-01	 1.165458336925822e+01
 2.389830921243562e+00	 4.367670553247101e-01	 1.166800167461643e+01
 2.385851870856911e+00	 4.580046993422883e-01	 1.168195661787449e+01
 2.381672424762188e+00	 4.792641123855698e-01	 1.169649502865334e+01
 2.377291488950196e+00	 5.005426889146960e-01	 1.171165209866704e+01
 2.372708010437258e+00	 5.218377900570660e-01	 1.172745278315975e+01
 2.367920978281215e+00	 5.431467443151478e-01	 1.174391336484456e+01
 2.362929424586053e+00	 5.644668483072237e-01	 1.176104320005184e+01
 2.357732425494026e+00	 5.857953675409996e-01	 1.177884666636484e+01
 2.352329102164099e+00	 6.071295372199625e-01	 1.179732533039777e+01
 2.346718621735574e+00	 6.284665630823352e-01	 1.181648035354971e+01
 2.402303576705195e+00	 4.170629168253849e-01	 1.164130161166587e+01
 2.398510060973844e+00	 4.383532605574560e-01	 1.165478476838757e+01
 2.394516559884871e+00	 4.596680332450079e-01	 1.166873380047925e+01
 2.390321935311451e+00	 4.810046540167408e-01	 1.168320626536220e+01
 2.385925089271292e+00	 5.023605078702577e-01	 1.169824705924907e+01
 2.381324964956625e+00	 5.237329463493646e-01	 1.171388972077995e+01
 2.376520547753875e+00	 5.451192882544532e-01	 1.173015790159888e+01
 2.371510866251946e+00	 5.665168203859349e-01	 1.174706702439699e+01
 2.366294993237942e+00	 5.879227983206606e-01	 1.176462614851529e+01
 2.360872046679166e+00	 6.093344472212072e-01	 1.178284006256637e+01
 2.355241190690244e+00	 6.307489626778779e-01	 1.180171162269851e+01
 2.410996470576720e+00	 4.185720864898998e-01	 1.162846188798884e+01
 2.407189227758209e+00	 4.399394707345836e-01	 1.164209246419698e+01
 2.403181275921789e+00	 4.613313723325360e-01	 1.165610962913685e+01
 2.398971472822265e+00	 4.827452010733954e-01	 1.167057569799300e+01
 2.394558716504258e+00	 5.041783324921966e-01	 1.168554013624169e+01
 2.389941946335890e+00	 5.256281085491237e-01	 1.170104078697824e+01
 2.385120144032165e+00	 5.470918383424604e-01	 1.171710526910269e+01
 2.380092334666901e+00	 5.685667988547181e-01	 1.173375256767669e+01
 2.374857587672045e+00	 5.900502357318614e-01	 1.175099483732579e+01
 2.369415017823233e+00	 6.115393640955250e-01	 1.176883943891910e+01
 2.363763786210413e+00	 6.330313693880619e-01	 1.178729122890564e+01
 2.419689408786432e+00	 4.200812638518300e-01	 1.161601562626649e+01
 2.415868438810683e+00	 4.415256890020526e-01	 1.162984372373463e+01
 2.411846036153035e+00	 4.629947199037815e-01	 1.164398080423780e+01
 2.407621054449918e+00	 4.844857570075466e-01	 1.165848807185725e+01
 2.403192387772838e+00	 5.059961663857694e-01	 1.167341452081340e+01
 2.398558971665798e+00	 5.275232804149631e-01	 1.168879810776310e+01
 2.393719784172369e+00	 5.490643984912575e-01	 1.170466709835774e+01
 2.388673846851264e+00	 5.706167877792142e-01	 1.172104161012945e+01
 2.383420225779265e+00	 5.921776839938636e-01	 1.173793537332940e+01
 2.377958032540327e+00	 6.137442922158496e-01	 1.175535773068952e+01
 2.372286425199708e+00	 6.353137877395229e-01	 1.177331589621105e+01
 2.428382408575571e+00	 4.215904519043582e-01	 1.160391460261569e+01
 2.424547711345289e+00	 4.431119185058226e-01	 1.161795830034404e+01
 2.420510857763988e+00	 4.646580792576526e-01	 1.163224511742822e+01
 2.416270697349693e+00	 4.862263252712080e-01	 1.164682937810092e+01
 2.411826120200776e+00	 5.078140131562318e-01	 1.166175465853587e+01
 2.407176058037094e+00	 5.294184657055032e-01	 1.167705492518168e+01
 2.402319485230767e+00	 5.510369726129323e-01	 1.169275585024818e+01
 2.397255419825381e+00	 5.726667912250649e-01	 1.170887632713623e+01
 2.391982924542530e+00	 5.943051473259304e-01	 1.172543020815289e+01
 2.386501107774475e+00	 6.159492359551141e-01	 1.174242828619089e+01
 2.380809124561764e+00	 6.375962222588970e-01	 1.175988054116790e+01
 2.437075487185377e+00	 4.230996536406678e-01	 1.159211093248763e+01
 2.433227062576054e+00	 4.446981623918532e-01	 1.160635672288444e+01
 2.429175757940025e+00	 4.663214536930586e-01	 1.162080143073193e+01
 2.424920418676879e+00	 4.879669093163925e-01	 1.163548683076415e+01
 2.420459930911816e+00	 5.096318764088399e-01	 1.165044622708133e+01
 2.415793222540528e+00	 5.313136681793640e-01	 1.166570557837498e+01
 2.410919264263641e+00	 5.530095646195722e-01	 1.168128480269273e+01
 2.405837070609595e+00	 5.747168132579111e-01	 1.169719928522544e+01
 2.400545700944769e+00	 5.964326299473243e-01	 1.171346161214574e+01
 2.395044260469703e+00	 6.181541996862523e-01	 1.173008355285354e+01
 2.389331901200212e+00	 6.398786774728203e-01	 1.174707831208460e+01
 2.445768661857091e+00	 4.246088720539421e-01	 1.158055706220549e+01
 2.441906509717001e+00	 4.462844238061043e-01	 1.159496028004760e+01
 2.437840753866521e+00	 4.679848465089073e-01	 1.160954965624336e+01
 2.433570235586758e+00	 4.897075125951131e-01	 1.162434884447112e+01
 2.429093837029705e+00	 5.114497597488500e-01	 1.163937611455105e+01
 2.424410482266842e+00	 5.332088915951659e-01	 1.165464548520702e+01
 2.419519138327274e+00	 5.549821784232656e-01	 1.167016803825475e+01
 2.414418816224253e+00	 5.767668579433947e-01	 1.168595343836067e+01
 2.409108571968911e+00	 5.985601360773081e-01	 1.170201168205727e+01
 2.403587507570036e+00	 6.203591877821977e-01	 1.171835509901638e+01
 2.397854772018683e+00	 6.421611579079286e-01	 1.173500062766652e+01
 2.454461949831952e+00	 4.261181101373641e-01	 1.156920576077589e+01
 2.450586069982156e+00	 4.478707058945353e-01	 1.158369100511738e+01
 2.446505862728852e+00	 4.696482610041077e-01	 1.159839073637738e+01
 2.442220165234617e+00	 4.914481385593829e-01	 1.161330501273401e+01
 2.437727855678187e+00	 5.132676667815177e-01	 1.162843239841926e+01
 2.433027854306784e+00	 5.351041397115290e-01	 1.164377112445366e+01
 2.428119124477946e+00	 5.569548179360997e-01	 1.165932043219889e+01
 2.423000673689698e+00	 5.788169293471567e-01	 1.167508212450449e+01
 2.417671554597885e+00	 6.006876699351440e-01	 1.169106234876125e+01
 2.412130866019502e+00	 6.225642046158842e-01	 1.170727363547879e+01
 2.406377753920809e+00	 6.444436680908577e-01	 1.172373721507308e+01
 2.463155368351200e+00	 4.276273708841171e-01	 1.155801011196701e+01
 2.459265760585544e+00	 4.494570118031062e-01	 1.157247166116114e+01
 2.455171101712394e+00	 4.713117004775685e-01	 1.158722662466129e+01
 2.450870224775741e+00	 4.931887906612153e-01	 1.160224608685583e+01
 2.446362003981006e+00	 5.150856011120998e-01	 1.161750432507701e+01
 2.441645355751100e+00	 5.369994162870736e-01	 1.163298001853714e+01
 2.436719239771942e+00	 5.589274870701633e-01	 1.164865764098346e+01
 2.431582660026279e+00	 5.808670315348383e-01	 1.166452906245160e+01
 2.426234665814621e+00	 6.028152357400953e-01	 1.168059538502726e+01
 2.420674352762128e+00	 6.247692545602455e-01	 1.169686903682011e+01
 2.414900863810222e+00	 6.467262125482436e-01	 1.171337614740579e+01
 2.329673495908198e+00	 6.239017671286294e-01	 1.184666665304774e+01
 2.323897334417938e+00	 6.450838472938442e-01	 1.186576668100173e+01
 2.317914010599845e+00	 6.662631325049658e-01	 1.188440197933930e+01
 2.311722843211848e+00	 6.874367682357324e-01	 1.190262786948468e+01
 2.305323200321330e+00	 7.086018744401660e-01	 1.192051639635577e+01
 2.298714500167883e+00	 7.297555465433316e-01	 1.193816016553451e+01
 2.291896212004354e+00	 7.508948564624919e-01	 1.195559223400857e+01
 2.284867856915019e+00	 7.720168536581867e-01	 1.197233236809357e+01
 2.277629008609737e+00	 7.931185662147199e-01	 1.198822694410272e+01
 2.270179294192987e+00	 8.141970019494853e-01	 1.200320752016672e+01
 2.262518394906619e+00	 8.352491495505205e-01	 1.201720331148212e+01
 2.338196062442770e+00	 6.261841660747979e-01	 1.183149885007380e+01
 2.332398770214142e+00	 6.474437359343465e-01	 1.185086438248759e+01
 2.326393557802711e+00	 6.687005006150659e-01	 1.186983587636934e+01
 2.320179741474245e+00	 6.899515951480814e-01	 1.188843820000917e+01
 2.313756686984342e+00	 7.111941289514443e-01	 1.190671870967810e+01
 2.307123810444363e+00	 7.324251868245162e-01	 1.192475122997273e+01
 2.300280579165536e+00	 7.536418299728570e-01	 1.194249603818592e+01
 2.293226512480131e+00	 7.748410970631522e-01	 1.195942499025365e+01
 2.285961182538526e+00	 7.960200053076523e-01	 1.197542224427579e+01
 2.278484215081045e+00	 8.171755515775548e-01	 1.199042947699014e+01
 2.270795290183433e+00	 8.383047135447205e-01	 1.200439242110455e+01
 2.346718621735574e+00	 6.284665630823352e-01	 1.181648035354971e+01
 2.340900198786538e+00	 6.498036225703604e-01	 1.183584130231521e+01
 2.334873097800403e+00	 6.711378666548100e-01	 1.185492586959503e+01
 2.328636632550767e+00	 6.924664199242102e-01	 1.187373641455794e+01
 2.322190166481446e+00	 7.137863812606550e-01	 1.189230202748236e+01
 2.315533113575553e+00	 7.350948248378139e-01	 1.191068261864860e+01
 2.308664939202700e+00	 7.563888011495592e-01	 1.192874963885541e+01
 2.301585160943147e+00	 7.776653380687356e-01	 1.194595814710524e+01
 2.294293349387783e+00	 7.989214419355525e-01	 1.196222375767950e+01
 2.286789128912769e+00	 8.201540986750240e-01	 1.197749663832485e+01
 2.279072178427747e+00	 8.413602749428494e-01	 1.199173573508148e+01
 2.355241190690244e+00	 6.307489626778779e-01	 1.180171162269851e+01
 2.349401636996866e+00	 6.521635118822361e-01	 1.182085929295049e+01
 2.343352647411264e+00	 6.735752354582543e-01	 1.183987820476616e+01
 2.337093533214851e+00	 6.949812475518479e-01	 1.185875604948961e+01
 2.330623655539652e+00	 7.163786365091444e-01	 1.187750998106339e+01
 2.323942426240530e+00	 7.377644658781127e-01	 1.189619077903487e+01
 2.317049308745463e+00	 7.591357754409273e-01	 1.191456365020857e+01
 2.309943818882697e+00	 7.804895822765816e-01	 1.193210170321653e+01
 2.302625525683621e+00	 8.018228818532340e-01	 1.194874307728806e+01
 2.295094052160227e+00	 8.231326491497069e-01	 1.196444476484527e+01
 2.287349076056038e+00	 8.444158398055267e-01	 1.197917559414599e+01
 2.363763786210413e+00	 6.330313693880619e-01	 1.178729122890564e+01
 2.357903101706866e+00	 6.545234085503246e-01	 1.180607744481438e+01
 2.351832223453632e+00	 6.760126118594533e-01	 1.182489574086790e+01
 2.345550460239932e+00	 6.974960830187225e-01	 1.184372688062583e+01
 2.339057170885978e+00	 7.189708998382592e-01	 1.186258231965917e+01
 2.332351765118369e+00	 7.404341152403006e-01	 1.188150840842731e+01
 2.325433704423443e+00	 7.618827582952892e-01	 1.190014560645200e+01
 2.318302502877411e+00	 7.833138352883350e-01	 1.191802303937219e+01
 2.310957727952152e+00	 8.047243308155118e-01	 1.193509016107394e+01
 2.303399001295480e+00	 8.261112089094171e-01	 1.195130908417513e+01
 2.295625999484788e+00	 8.474714141933701e-01	 1.196665516153467e+01
 2.372286425199708e+00	 6.353137877395229e-01	 1.177331589621105e+01
 2.366404609778275e+00	 6.568833172549762e-01	 1.179165214400472e+01
 2.360311842745852e+00	 6.784500006924630e-01	 1.181017802070120e+01
 2.354007430399444e+00	 7.000109313125620e-01	 1.182887500229109e+01
 2.347490729247438e+00	 7.215631763893470e-01	 1.184775499352526e+01
 2.340761146888150e+00	 7.431037782192651e-01	 1.186685899331730e+01
 2.333818142866254e+00	 7.646297551609732e-01	 1.188570002152350e+01
 2.326661229505918e+00	 7.861381027056406e-01	 1.190388710179653e+01
 2.319289972719490e+00	 8.076257945772006e-01	 1.192137336620527e+01
 2.311703992790594e+00	 8.290897838619680e-01	 1.193812430551611e+01
 2.303902965130477e+00	 8.505270041669979e-01	 1.195411841349763e+01
 2.380809124561764e+00	 6.375962222588970e-01	 1.175988054116790e+01
 2.374906178072832e+00	 6.592432426765410e-01	 1.177773712902827e+01
 2.368791522106264e+00	 6.808874067913385e-01	 1.179592134021402e+01
 2.362464460466825e+00	 7.025257974210954e-01	 1.181442290494175e+01
 2.355924347351050e+00	 7.241554713037538e-01	 1.183326023553567e+01
 2.349170588228949e+00	 7.457734601098945e-01	 1.185245890702121e+01
 2.342202640703515e+00	 7.673767714863076e-01	 1.187142844751580e+01
 2.335020015346847e+00	 7.889623901301437e-01	 1.188985645031751e+01
 2.327622276511749e+00	 8.105272788931156e-01	 1.190769948251718e+01
 2.320009043117633e+00	 8.320683799151728e-01	 1.192492463398368e+01
 2.312179989409584e+00	 8.535826157870279e-01	 1.194151013004911e+01
 2.389331901200212e+00	 6.398786774728203e-01	 1.174707831208460e+01
 2.383407823452274e+00	 6.616031894953696e-01	 1.176448354656871e+01
 2.377271278353209e+00	 6.833248349901350e-01	 1.178231881661611e+01
 2.370921567215508e+00	 7.050406863320510e-01	 1.180058955142167e+01
 2.364358041923826e+00	 7.267477897228267e-01	 1.181932664134911e+01
 2.357580105819843e+00	 7.484431662070755e-01	 1.183852866366879e+01
 2.350587214564840e+00	 7.701238127196205e-01	 1.185752953184144e+01
 2.343378876978828e+00	 7.917867031634892e-01	 1.187609130549915e+01
 2.335954655855042e+00	 8.134287895180705e-01	 1.189417376527621e+01
 2.328314168748661e+00	 8.350470029768464e-01	 1.191174378465817e+01
 2.320457088738592e+00	 8.566382551140787e-01	 1.192877588595298e+01
 2.397854772018683e+00	 6.421611579079286e-01	 1.173500062766652e+01
 2.391909562778341e+00	 6.639631623918123e-01	 1.175204000631582e+01
 2.385751128305029e+00	 6.857622901229081e-01	 1.176956045530905e+01
 2.379378767418929e+00	 7.075556030331569e-01	 1.178759045188003e+01
 2.372791829692784e+00	 7.293401367879123e-01	 1.180617924817797e+01
 2.365989716339909e+00	 7.511129018056970e-01	 1.182528567654660e+01
 2.358971881079847e+00	 7.728708843092401e-01	 1.184419907317096e+01
 2.351737830980490e+00	 7.946110474073220e-01	 1.186274959476886e+01
 2.344287127275481e+00	 8.163303322068803e-01	 1.188089996725587e+01
 2.336619386155741e+00	 8.380256589548013e-01	 1.189861499635832e+01
 2.328734279533980e+00	 8.596939282087687e-01	 1.191586204193755e+01
 2.406377753920809e+00	 6.444436680908577e-01	 1.172373721507308e+01
 2.400411412912772e+00	 6.663231660462197e-01	 1.174055263488058e+01
 2.394231088780065e+00	 6.881997770237134e-01	 1.175783321566245e+01
 2.387836077850523e+00	 7.100705525121414e-01	 1.177563773738638e+01
 2.381225727384938e+00	 7.319325176403579e-01	 1.179403961219661e+01
 2.374399436468224e+00	 7.537826722006462e-01	 1.181294424914351e+01
 2.367356656878152e+00	 7.756179917034952e-01	 1.183163007617597e+01
 2.360096893930464e+00	 7.974354284632876e-01	 1.184998699756543e+01
 2.352619707299179e+00	 8.192319127143596e-01	 1.186798037014125e+01
 2.344924711810938e+00	 8.410043537568513e-01	 1.188557104514493e+01
 2.337011578212228e+00	 8.627496411317159e-01	 1.190271573613411e+01
 2.414900863810222e+00	 6.467262125482436e-01	 1.171337614740579e+01
 2.408913390717305e+00	 6.686832051389422e-01	 1.173016512881983e+01
 2.402711176596659e+00	 6.906373005266060e-01	 1.174732107566629e+01
 2.396293515283728e+00	 7.125855397567337e-01	 1.176494023227677e+01
 2.389659751727306e+00	 7.345249374215101e-01	 1.178312588462466e+01
 2.382809282883867e+00	 7.564524826868108e-01	 1.180171563406697e+01
 2.375741558589372e+00	 7.783651403507136e-01	 1.182001280510741e+01
 2.368456082407380e+00	 8.002598519330307e-01	 1.183795698953272e+01
 2.360952412452252e+00	 8.221335367953236e-01	 1.185551581527997e+01
 2.353230162186319e+00	 8.439830932908107e-01	 1.187264425756155e+01
 2.345289001189816e+00	 8.658053999435387e-01	 1.188928487573370e+01
 2.262518394906619e+00	 8.352491495505205e-01	 1.201720331148212e+01
 2.254644690221028e+00	 8.562755510073792e-01	 1.203138976430697e+01
 2.246559254862706e+00	 8.772695764783921e-01	 1.204691537852406e+01
 2.238261935071895e+00	 8.982281617561039e-01	 1.206365809184490e+01
 2.229752633954296e+00	 9.191482282730243e-01	 1.208147448507745e+01
 2.221031312078379e+00	 9.400266843708884e-01	 1.210017226245436e+01
 2.212097988040086e+00	 9.608604265935810e-01	 1.211768632472366e+01
 2.202952738993927e+00	 9.816463410027958e-01	 1.213306461270324e+01
 2.193595701149540e+00	 1.002381304515459e+00	 1.214666829318457e+01
 2.184027070232773e+00	 1.023062186261888e+00	 1.215887312630130e+01
 2.174247101910407e+00	 1.043685848963648e+00	 1.217005409897117e+01
 2.270795290183433e+00	 8.383047135447205e-01	 1.200439242110455e+01
 2.262892781387759e+00	 8.594080351814513e-01	 1.201838115261006e+01
 2.254777767352143e+00	 8.804788623923592e-01	 1.203345515706663e+01
 2.246450093754339e+00	 9.015141197603106e-01	 1.204953579887755e+01
 2.237909663345580e+00	 9.225107174556043e-01	 1.206651974592537e+01
 2.229156436550089e+00	 9.434655525098746e-01	 1.208427933923406e+01
 2.220190432031832e+00	 9.643755101137453e-01	 1.210258593662466e+01
 2.211011727227574e+00	 9.852374649373047e-01	 1.211927913699862e+01
 2.201620458845245e+00	 1.006048282472418e+00	 1.213372485983344e+01
 2.192016823326705e+00	 1.026804820395856e+00	 1.214631915853947e+01
 2.182201077274037e+00	 1.047503929952193e+00	 1.215745908255405e+01
 2.279072178427747e+00	 8.413602749428494e-01	 1.199173573508148e+01
 2.271140865546448e+00	 8.625405166940810e-01	 1.200585684610702e+01
 2.262996272858634e+00	 8.836881455796276e-01	 1.202077924959127e+01
 2.254638245479569e+00	 9.048000749726840e-01	 1.203646108582281e+01
 2.246066685806030e+00	 9.258732037813431e-01	 1.205283405471304e+01
 2.237281554117995e+00	 9.469044177271441e-01	 1.206980372753572e+01
 2.228282869147467e+00	 9.678905906474560e-01	 1.208724994424247e+01
 2.219070708613470e+00	 9.888285858207663e-01	 1.210485447147219e+01
 2.209645209722230e+00	 1.009715257313883e+00	 1.212040983286866e+01
 2.200006569631635e+00	 1.030547451350040e+00	 1.213361681708538e+01
 2.190155045879068e+00	 1.051322007696823e+00	 1.214489864257094e+01
 2.287349076056038e+00	 8.444158398055267e-01	 1.197917559414599e+01
 2.279388959056444e+00	 8.656730017584985e-01	 1.199366548763586e+01
 2.271214787682855e+00	 8.868974324058002e-01	 1.200865973623864e+01
 2.262826406488048e+00	 9.080860339109358e-01	 1.202414668173378e+01
 2.254223717514355e+00	 9.292356939197759e-01	 1.204008806572928e+01
 2.245406680897510e+00	 9.503432868437472e-01	 1.205641931157706e+01
 2.236375315437564e+00	 9.714056751669474e-01	 1.207304989329345e+01
 2.227129699135804e+00	 9.924197107762448e-01	 1.208986379181500e+01
 2.217669969696763e+00	 1.013382236313375e+00	 1.210638745867350e+01
 2.207996324994358e+00	 1.034290086548014e+00	 1.212047350887750e+01
 2.198109023501284e+00	 1.055140089770742e+00	 1.213214062812697e+01
 2.295625999484788e+00	 8.474714141933701e-01	 1.196665516153467e+01
 2.287637078277101e+00	 8.688054965879354e-01	 1.198165790212678e+01
 2.279433328125484e+00	 8.901067292364798e-01	 1.199687199181803e+01
 2.271014593020246e+00	 9.113720030927777e-01	 1.201230947486104e+01
 2.262380774649266e+00	 9.325981945404379e-01	 1.202795720805215e+01
 2.253531833004051e+00	 9.537821666807349e-01	 1.204377714074276e+01
 2.244467786952697e+00	 9.749207706444541e-01	 1.205970668153459e+01
 2.235188714778766e+00	 9.960108469268052e-01	 1.207565915198910e+01
 2.225694754685102e+00	 1.017049226744411e+00	 1.209152432715069e+01
 2.215986105261665e+00	 1.038032733413349e+00	 1.210659780484600e+01
 2.206063025916469e+00	 1.058958183747155e+00	 1.211895336097508e+01
 2.303902965130477e+00	 8.505270041669979e-01	 1.195411841349763e+01
 2.295885239567763e+00	 8.719380073956221e-01	 1.196968706292745e+01
 2.287651910487201e+00	 8.933160424372689e-01	 1.198519463239301e+01
 2.279202821316628e+00	 9.146579890359218e-01	 1.200067044396337e+01
 2.270537873389478e+00	 9.359607123128643e-01	 1.201612160606636e+01
 2.261657026553031e+00	 9.572210640591571e-01	 1.203153331933978e+01
 2.252560299743440e+00	 9.784358840522107e-01	 1.204686926710530e+01
 2.243247771526545e+00	 9.996020013955126e-01	 1.206207209072509e+01
 2.233719580603510e+00	 1.020716235880510e+00	 1.207706394956320e+01
 2.223975926280349e+00	 1.041775399369618e+00	 1.209174716472107e+01
 2.214017068900405e+00	 1.062776297199268e+00	 1.210510578168727e+01
 2.312179989409584e+00	 8.535826157870279e-01	 1.194151013004911e+01
 2.304133459287780e+00	 8.750705403947892e-01	 1.195760805890401e+01
 2.295870551068684e+00	 8.965253783737703e-01	 1.197340946308008e+01
 2.287391107617659e+00	 9.179439982580789e-01	 1.198895459117055e+01
 2.278695029913700e+00	 9.393232539065900e-01	 1.200426600177326e+01
 2.269782277659865e+00	 9.606599858000637e-01	 1.201934892275104e+01
 2.260652869860363e+00	 9.819510223624504e-01	 1.203419169132461e+01
 2.251306885363327e+00	 1.003193181305431e+00	 1.204876627511607e+01
 2.241744463368251e+00	 1.024383270995191e+00	 1.206302887372138e+01
 2.231965803897203e+00	 1.045518091840396e+00	 1.207692059983098e+01
 2.221971168228874e+00	 1.066594437700284e+00	 1.209036759689171e+01
 2.320457088738592e+00	 8.566382551140787e-01	 1.192877588595298e+01
 2.312381753796503e+00	 8.782031017986682e-01	 1.194527806229838e+01
 2.304089266170612e+00	 8.997347434115873e-01	 1.196130142702965e+01
 2.295579468163808e+00	 9.212300372769618e-01	 1.197689087635923e+01
 2.286852260400646e+00	 9.426858259911503e-01	 1.199207967884839e+01
 2.277907602439966e+00	 9.640989387245048e-01	 1.200688991547492e+01
 2.268745513354044e+00	 9.854661925474093e-01	 1.202133299502258e+01
 2.259366072273304e+00	 1.006784393779626e+00	 1.203541024470061e+01
 2.249769418895582e+00	 1.028050339361972e+00	 1.204911357535854e+01
 2.239955753959019e+00	 1.049260818249255e+00	 1.206242622010135e+01
 2.229925339677661e+00	 1.070412612823410e+00	 1.207532354453493e+01
 2.328734279533980e+00	 8.596939282087687e-01	 1.191586204193755e+01
 2.320630139453281e+00	 8.813356978204894e-01	 1.193255629732273e+01
 2.312308072093663e+00	 9.029441439163223e-01	 1.194865855555970e+01
 2.303767919195540e+00	 9.245161126102819e-01	 1.196421215300323e+01
 2.295009581029028e+00	 9.460484352360796e-01	 1.197925638840226e+01
 2.286033017008748e+00	 9.675379296535310e-01	 1.199382707100245e+01
 2.276838246275052e+00	 9.889814015793197e-01	 1.200795713675058e+01
 2.267425348240664e+00	 1.010375645941163e+00	 1.202167733222884e+01
 2.257794463101769e+00	 1.031717448254372e+00	 1.203501696540485e+01
 2.247945792312591e+00	 1.053003586019767e+00	 1.204800472172265e+01
 2.237879599022548e+00	 1.074230830141849e+00	 1.206066954348619e+01
 2.337011578212228e+00	 8.627496411317159e-01	 1.190271573613411e+01
 2.328878632617463e+00	 8.844683346734837e-01	 1.191930400947304e+01
 2.320526985138517e+00	 9.061535862535784e-01	 1.193527191941302e+01
 2.311956476953323e+00	 9.278022307757506e-01	 1.195065510546177e+01
 2.303167007977557e+00	 9.494110883109137e-01	 1.196549427640147e+01
 2.294158537481629e+00	 9.709769654081926e-01	 1.197983589348653e+01
 2.284931084673964e+00	 9.924966564304178e-01	 1.199373291282276e+01
 2.275484729249596e+00	 1.013966944913105e+00	 1.200724558620780e+01
 2.265819611903070e+00	 1.035384604945910e+00	 1.202044231917181e+01
 2.255935934804709e+00	 1.056746402575507e+00	 1.203340058439935e+01
 2.245833962039317e+00	 1.078049097228806e+00	 1.204620788814319e+01
 2.345289001189816e+00	 8.658053999435387e-01	 1.188928487573370e+01
 2.337127249648398e+00	 8.876010185708825e-01	 1.190538443554371e+01
 2.328746021605851e+00	 9.093630767889582e-01	 1.192093558111032e+01
 2.320145157677621e+00	 9.310883982910803e-01	 1.193596018766913e+01
 2.311324557424947e+00	 9.527737918851877e-01	 1.195049581270875e+01
 2.302284179974021e+00	 9.744160528095396e-01	 1.196459654115780e+01
 2.293024044601351e+00	 9.960119640729374e-01	 1.197833387914309e+01
 2.283544231284290e+00	 1.017558297818519e+00	 1.199179769518142e+01
 2.273844881215751e+00	 1.039051816710104e+00	 1.200509720713078e+01
 2.263926197282168e+00	 1.060489275340046e+00	 1.201836201267368e+01
 2.253788444503754e+00	 1.081867421657487e+00	 1.203174316053980e+01
 2.174247101910407e+00	 1.043685848963648e+00	 1.217005409897117e+01
 2.164257828117094e+00	 1.064245660079298e+00	 1.217947380304457e+01
 2.154057979603053e+00	 1.084741984992150e+00	 1.218649658892670e+01
 2.143647992280264e+00	 1.105171676113251e+00	 1.219162345995613e+01
 2.133028363287593e+00	 1.125531585092218e+00	 1.219521461204646e+01
 2.122199651223107e+00	 1.145818564275578e+00	 1.219738950685207e+01
 2.111162476335520e+00	 1.166029468177674e+00	 1.219852263209730e+01
 2.099917520674204e+00	 1.186161154962848e+00	 1.219897998240337e+01
 2.088465528197159e+00	 1.206210487937535e+00	 1.219909253248806e+01
 2.076807304836467e+00	 1.226174337050922e+00	 1.219914717562265e+01
 2.064943718520748e+00	 1.246049580402761e+00	 1.219937714614157e+01
 2.182201077274037e+00	 1.047503929952193e+00	 1.215745908255405e+01
 2.172175260055250e+00	 1.068138954336390e+00	 1.216668693856211e+01
 2.161938097777304e+00	 1.088710260268420e+00	 1.217362383423156e+01
 2.151490027946855e+00	 1.109214688644599e+00	 1.217876202560426e+01
 2.140831549521430e+00	 1.129649079597028e+00	 1.218237434178132e+01
 2.129963223142588e+00	 1.150010273957264e+00	 1.218460177120211e+01
 2.118885671328078e+00	 1.170295114732615e+00	 1.218581731380804e+01
 2.107599578622378e+00	 1.190500448593737e+00	 1.218636757496444e+01
 2.096105691705081e+00	 1.210623127372194e+00	 1.218656225905573e+01
 2.084404819456578e+00	 1.230660009566597e+00	 1.218666506224024e+01
 2.072497832980598e+00	 1.250607961855945e+00	 1.218688403965071e+01
 2.190155045879068e+00	 1.051322007696823e+00	 1.214489864257094e+01
 2.180092685265895e+00	 1.072032245285613e+00	 1.215408389260859e+01
 2.169818209255819e+00	 1.092678532173049e+00	 1.216105560699570e+01
 2.159332056950160e+00	 1.113257697740727e+00	 1.216629756890750e+01
 2.148634729125098e+00	 1.133766570603249e+00	 1.216997867894816e+01
 2.137726788465682e+00	 1.154201980077221e+00	 1.217229789697507e+01
 2.126608859758675e+00	 1.174560757662926e+00	 1.217361333570524e+01
 2.115281630043663e+00	 1.194839738537354e+00	 1.217425204767429e+01
 2.103745848721818e+00	 1.215035763057208e+00	 1.217450139859467e+01
 2.092002327621830e+00	 1.235145678270544e+00	 1.217459990995148e+01
 2.080051941022524e+00	 1.255166339435620e+00	 1.217472756744431e+01
 2.198109023501284e+00	 1.055140089770742e+00	 1.213214062812697e+01
 2.188010119452279e+00	 1.075925540649333e+00	 1.214149689717487e+01
 2.177698329667777e+00	 1.096646808577094e+00	 1.214867914022327e+01
 2.167174094843762e+00	 1.117300711420900e+00	 1.215414840743685e+01
 2.156437917575068e+00	 1.137884066277843e+00	 1.215799561964545e+01
 2.145490362590222e+00	 1.158393690949569e+00	 1.216047408258473e+01
 2.134332056945008e+00	 1.178826405429338e+00	 1.216192581420204e+01
 2.122963690174114e+00	 1.199179033400459e+00	 1.216265813698274e+01
 2.111386014400291e+00	 1.219448403744773e+00	 1.216293500365892e+01
 2.099599844400525e+00	 1.239631352059772e+00	 1.216296778534323e+01
 2.087606057628739e+00	 1.259724722182968e+00	 1.216290551790540e+01
 2.206063025916469e+00	 1.058958183747155e+00	 1.211895336097508e+01
 2.195927578317650e+00	 1.079818848149917e+00	 1.212875789537056e+01
 2.185578474642357e+00	 1.100615097351617e+00	 1.213638073659130e+01
 2.175016157181246e+00	 1.121343737704382e+00	 1.214224239591258e+01
 2.164241130347803e+00	 1.142001574787767e+00	 1.214639194130907e+01
 2.153253960914043e+00	 1.162585414888432e+00	 1.214912497231774e+01
 2.142055278204773e+00	 1.183092066492578e+00	 1.215076810511751e+01
 2.130645774249785e+00	 1.203518341789813e+00	 1.215160874080094e+01
 2.119026203893421e+00	 1.223861058187083e+00	 1.215188633829421e+01
 2.107197384860967e+00	 1.244117039831291e+00	 1.215178314388025e+01
 2.095160197781454e+00	 1.264283119139172e+00	 1.215141437234790e+01
 2.214017068900405e+00	 1.062776297199268e+00	 1.210510578168727e+01
 2.203845077565253e+00	 1.083712175509728e+00	 1.211569870937959e+01
 2.193458659808739e+00	 1.104583406367678e+00	 1.212404595566811e+01
 2.182858259516197e+00	 1.125386784610440e+00	 1.213050864910828e+01
 2.172044382919772e+00	 1.146119104299983e+00	 1.213513330714803e+01
 2.161017598834980e+00	 1.166777160207931e+00	 1.213824377103125e+01
 2.149778538855663e+00	 1.187357749313377e+00	 1.214015192619943e+01
 2.138327897506732e+00	 1.207857672312177e+00	 1.214112504640790e+01
 2.126666432354129e+00	 1.228273735136334e+00	 1.214137700888312e+01
 2.114794964071461e+00	 1.248602750482109e+00	 1.214105896124261e+01
 2.102714376462878e+00	 1.268841539345415e+00	 1.214024943440053e+01
 2.221971168228874e+00	 1.066594437700284e+00	 1.209036759689171e+01
 2.211762632898338e+00	 1.087605530451136e+00	 1.210215120911172e+01
 2.201338900796104e+00	 1.108551743496337e+00	 1.211155980150900e+01
 2.190700417402197e+00	 1.129429860158338e+00	 1.211887571161393e+01
 2.179847690767442e+00	 1.150236662981450e+00	 1.212418437048959e+01
 2.168781291750868e+00	 1.170968935222187e+00	 1.212782235859410e+01
 2.157501854215372e+00	 1.191623462352464e+00	 1.213008747927735e+01
 2.146010075181009e+00	 1.212197033574312e+00	 1.213122665792571e+01
 2.134306714935337e+00	 1.232686443344719e+00	 1.213142709454968e+01
 2.122392597100310e+00	 1.253088492909236e+00	 1.213080686426556e+01
 2.110268608655223e+00	 1.273399991842879e+00	 1.212940495908790e+01
 2.229925339677661e+00	 1.070412612823410e+00	 1.207532354453493e+01
 2.219680260020152e+00	 1.091498920696504e+00	 1.208794748154457e+01
 2.209219213233630e+00	 1.112520116608654e+00	 1.209880573292833e+01
 2.198542646392831e+00	 1.133472972367343e+00	 1.210727164983755e+01
 2.187651069367277e+00	 1.154354258999129e+00	 1.211350887904215e+01
 2.176545055059542e+00	 1.175160748245323e+00	 1.211785140408460e+01
 2.165225239601598e+00	 1.195889214070569e+00	 1.212058357206165e+01
 2.153692322508668e+00	 1.216536434182978e+00	 1.212193172338125e+01
 2.141947066789965e+00	 1.237099191564434e+00	 1.212205527714186e+01
 2.129990299015817e+00	 1.257574276009681e+00	 1.212103726149918e+01
 2.117822909340700e+00	 1.277958485672748e+00	 1.211887428162419e+01
 2.237879599022548e+00	 1.074230830141849e+00	 1.206066954348619e+01
 2.227597974633942e+00	 1.095392353968200e+00	 1.207327986222791e+01
 2.217099612750497e+00	 1.116488533575690e+00	 1.208565453159994e+01
 2.206384962041681e+00	 1.137516129256720e+00	 1.209562414413952e+01
 2.195454534195748e+00	 1.158471900519979e+00	 1.210306977908463e+01
 2.184308904158836e+00	 1.179352607591460e+00	 1.210832047975774e+01
 2.172948710332034e+00	 1.200155012928420e+00	 1.211164773960464e+01
 2.161374654725767e+00	 1.220875882744937e+00	 1.211325706137231e+01
 2.149587503070937e+00	 1.241511988547674e+00	 1.211327897081021e+01
 2.137588084886287e+00	 1.262060108680452e+00	 1.211175947340545e+01
 2.125377293501519e+00	 1.282517029876202e+00	 1.210864994593469e+01
 2.245833962039317e+00	 1.078049097228806e+00	 1.204620788814319e+01
 2.235515792442957e+00	 1.099285837988589e+00	 1.205910048215370e+01
 2.224980114975884e+00	 1.120457002268505e+00	 1.207207264586491e+01
 2.214227379902334e+00	 1.141559338845734e+00	 1.208386058110282e+01
 2.203258100729319e+00	 1.162589595710960e+00	 1.209282931959061e+01
 2.192072854446586e+00	 1.183544521574720e+00	 1.209921817479450e+01
 2.180672281724375e+00	 1.204420867386748e+00	 1.210328636543968e+01
 2.169057087068358e+00	 1.225215387866951e+00	 1.210521828735559e+01
 2.157228038931172e+00	 1.245924843046632e+00	 1.210511445120051e+01
 2.145185969780024e+00	 1.266545999818560e+00	 1.210298186220960e+01
 2.132931776119892e+00	 1.287075633494425e+00	 1.209872383292005e+01
 2.253788444503754e+00	 1.081867421657487e+00	 1.203174316053980e+01
 2.243433729150446e+00	 1.103179380480039e+00	 1.204535093680973e+01
 2.232860735538972e+00	 1.124425530558159e+00	 1.205895592775100e+01
 2.222069915528371e+00	 1.145602609153650e+00	 1.207190814594210e+01
 2.211061784444457e+00	 1.166707352739031e+00	 1.208274915629563e+01
 2.199836921320626e+00	 1.187736498509225e+00	 1.209053220884589e+01
 2.188395969096317e+00	 1.208686785906282e+00	 1.209550480241326e+01
 2.176739634772497e+00	 1.229554958155779e+00	 1.209782993957332e+01
 2.164868689523592e+00	 1.250337763813504e+00	 1.209757698427786e+01
 2.152783968765333e+00	 1.271031958321013e+00	 1.209471196142279e+01
 2.140486372178029e+00	 1.291634305568600e+00	 1.208908728847812e+01
 2.064943718520748e+00	 1.246049580402761e+00	 1.219937714614157e+01
 2.052875699653055e+00	 1.265833106151361e+00	 1.219820698165553e+01
 2.040604242534051e+00	 1.285521815239163e+00	 1.219418097008108e+01
 2.028130403740126e+00	 1.305112621772199e+00	 1.218759737197180e+01
 2.015455301466299e+00	 1.324602454152327e+00	 1.217865365042319e+01
 2.002580115325494e+00	 1.343988256597492e+00	 1.216743400367454e+01
 1.989506086103193e+00	 1.363266990660227e+00	 1.215389644994968e+01
 1.976234515467395e+00	 1.382435636742910e+00	 1.213785949045482e+01
 1.962766765633880e+00	 1.401491195608219e+00	 1.211898838097936e+01
 1.949104258986799e+00	 1.420430689883295e+00	 1.209678104715905e+01
 1.935248477654718e+00	 1.439251165556041e+00	 1.207055368313151e+01
 2.072497832980598e+00	 1.250607961855945e+00	 1.218688403965071e+01
 2.060385666083847e+00	 1.270463861014588e+00	 1.218561059092465e+01
 2.048069316704406e+00	 1.290224596647789e+00	 1.218139335068661e+01
 2.035549845283896e+00	 1.309887071572553e+00	 1.217456248271011e+01
 2.022828374107993e+00	 1.329448202954017e+00	 1.216535040892847e+01
 2.009906087104954e+00	 1.348904923831257e+00	 1.215387917727974e+01
 1.996784229599385e+00	 1.368254184641358e+00	 1.214014736092444e+01
 1.983464108021130e+00	 1.387492954740201e+00	 1.212401651453636e+01
 1.969947089569313e+00	 1.406618223918459e+00	 1.210519721801586e+01
 1.956234601831544e+00	 1.425627003911244e+00	 1.208323474271547e+01
 1.942328132358409e+00	 1.444516329899898e+00	 1.205749438007136e+01
 2.080051941022524e+00	 1.255166339435620e+00	 1.217472756744431e+01
 2.067895626134259e+00	 1.275094611942842e+00	 1.217326769603907e+01
 2.055534384532526e+00	 1.294927374060297e+00	 1.216879915959424e+01
 2.042969280524187e+00	 1.314661517315974e+00	 1.216168188461336e+01
 2.030201440485569e+00	 1.334293947638285e+00	 1.215218139191642e+01
 2.017232052660271e+00	 1.353821586887445e+00	 1.214045600486550e+01
 2.004062366912016e+00	 1.373241374385090e+00	 1.212654356738127e+01
 1.990693694432500e+00	 1.392550268440615e+00	 1.211034769720412e+01
 1.977127407404193e+00	 1.411745247872681e+00	 1.209162360462698e+01
 1.963364938618164e+00	 1.430823313524385e+00	 1.206996351179776e+01
 1.949407781047018e+00	 1.449781489770505e+00	 1.204478171262793e+01
 2.087606057628739e+00	 1.259724722182968e+00	 1.216290551790540e+01
 2.075405594698942e+00	 1.279725368120815e+00	 1.216115419942661e+01
 2.062999460824043e+00	 1.299630156804208e+00	 1.215635449069114e+01
 2.050388724176149e+00	 1.319435968472097e+00	 1.214889395725043e+01
 2.037574515222249e+00	 1.339139697816155e+00	 1.213906937556433e+01
 2.024558026521288e+00	 1.358738255517717e+00	 1.212707378679358e+01
 2.011340512476121e+00	 1.378228569782951e+00	 1.211298303807936e+01
 1.997923289040297e+00	 1.397607587874744e+00	 1.209674183648895e+01
 1.984307733379644e+00	 1.416872277639734e+00	 1.207814934570545e+01
 1.970495283488694e+00	 1.436019629028974e+00	 1.205684436054485e+01
 1.956487437762086e+00	 1.455046655610667e+00	 1.203229009945932e+01
 2.095160197781454e+00	 1.264283119139172e+00	 1.215141437234790e+01
 2.082915586672545e+00	 1.284356138733201e+00	 1.214924504467688e+01
 2.070464560384584e+00	 1.304332954207039e+00	 1.214401478895864e+01
 2.057808190954932e+00	 1.324210434510561e+00	 1.213613670222640e+01
 2.044947612941255e+00	 1.343985463098655e+00	 1.212593698938890e+01
 2.031884023217855e+00	 1.363654939473736e+00	 1.211364186782524e+01
 2.018618680726733e+00	 1.383215780726467e+00	 1.209936393643661e+01
 2.005152906183309e+00	 1.402664923073183e+00	 1.208308803402872e+01
 1.991488081736781e+00	 1.421999323388458e+00	 1.206465661692793e+01
 1.977625650585169e+00	 1.441215960731266e+00	 1.204375469087528e+01
 1.963567116545152e+00	 1.460311837863190e+00	 1.201989433746036e+01
 2.102714376462878e+00	 1.268841539345415e+00	 1.214024943440053e+01
 2.090425616949721e+00	 1.288986932964692e+00	 1.213751434299334e+01
 2.077929698019778e+00	 1.309035775596313e+00	 1.213173497448145e+01
 2.065227695575687e+00	 1.328984924901003e+00	 1.212334786524040e+01
 2.052320748265806e+00	 1.348831253096813e+00	 1.211270683684521e+01
 2.039210057279817e+00	 1.368571648507169e+00	 1.210006975675566e+01
 2.025896886098886e+00	 1.388203017107166e+00	 1.208558473969508e+01
 2.012382560200324e+00	 1.407722284066526e+00	 1.206927581426173e+01
 1.998668466716727e+00	 1.427126395287697e+00	 1.205102808447400e+01
 1.984756054049619e+00	 1.446412318937514e+00	 1.203057242123041e+01
 1.970646831437752e+00	 1.465577046970878e+00	 1.200746972402825e+01
 2.110268608655223e+00	 1.273399991842879e+00	 1.212940495908790e+01
 2.097935700425119e+00	 1.293617759999984e+00	 1.212593549945687e+01
 2.085394888535255e+00	 1.313738630299545e+00	 1.211946956637008e+01
 2.072647252753565e+00	 1.333759449113062e+00	 1.211046505814454e+01
 2.059693935819126e+00	 1.353677077421653e+00	 1.209930161600220e+01
 2.046536143237021e+00	 1.373488392369676e+00	 1.208626724618707e+01
 2.033175143027613e+00	 1.393190288816571e+00	 1.207154435827392e+01
 2.019612265430133e+00	 1.412779680885367e+00	 1.205519524384251e+01
 2.005848902560600e+00	 1.432253503506297e+00	 1.203714702498901e+01
 1.991886508024080e+00	 1.451608713953973e+00	 1.201717610756864e+01
 1.977726596481428e+00	 1.470842293376535e+00	 1.199489217957381e+01
 2.117822909340700e+00	 1.277958485672748e+00	 1.211887428162419e+01
 2.105445851993391e+00	 1.298248629023768e+00	 1.211448133911355e+01
 2.092860146736643e+00	 1.318441527644255e+00	 1.210717280660647e+01
 2.080066877203716e+00	 1.338534016616374e+00	 1.209742588101299e+01
 2.067067190224434e+00	 1.358522945684203e+00	 1.208564424030164e+01
 2.053862295619314e+00	 1.378405180812922e+00	 1.207214453244563e+01
 2.040453465947949e+00	 1.398177605746212e+00	 1.205714225531352e+01
 2.026842036211525e+00	 1.417837123560299e+00	 1.204073705128317e+01
 2.013029403509521e+00	 1.437380658213101e+00	 1.202289744579327e+01
 1.999017026650585e+00	 1.456805156086900e+00	 1.200344506461393e+01
 1.984806425717717e+00	 1.476107587522967e+00	 1.198203837028066e+01
 2.125377293501519e+00	 1.282517029876202e+00	 1.210864994593469e+01
 2.112956086549185e+00	 1.302879549220738e+00	 1.210312423289938e+01
 2.100325487429571e+00	 1.323144476957964e+00	 1.209479878382324e+01
 2.087486583641290e+00	 1.343308636880577e+00	 1.208416804422862e+01
 2.074440526104950e+00	 1.363368867495487e+00	 1.207165795940679e+01
 2.061188528956544e+00	 1.383322023588570e+00	 1.205761233564741e+01
 2.047731869294926e+00	 1.403164977787615e+00	 1.204227856641490e+01
 2.034071886883286e+00	 1.422894622121917e+00	 1.202579274682364e+01
 2.020209983804609e+00	 1.442507869576952e+00	 1.200816420534078e+01
 2.006147624071167e+00	 1.462001655642545e+00	 1.198925948736124e+01
 1.991886333188158e+00	 1.481372939852978e+00	 1.196878583111581e+01
 2.132931776119892e+00	 1.287075633494425e+00	 1.209872383292005e+01
 2.120466418987154e+00	 1.307510529775587e+00	 1.209183622341412e+01
 2.107790925419667e+00	 1.327847487568190e+00	 1.208230155702676e+01
 2.094906386781438e+00	 1.348083319375308e+00	 1.207062949059611e+01
 2.081813958083897e+00	 1.368214852466534e+00	 1.205726648014731e+01
 2.068514857778556e+00	 1.388238930448284e+00	 1.204258201991839e+01
 2.055010367503581e+00	 1.408152414832305e+00	 1.202685421957888e+01
 2.041301831784208e+00	 1.427952186600814e+00	 1.201025474253419e+01
 2.027390657686984e+00	 1.447635147766694e+00	 1.199283313393049e+01
 2.013278314427861e+00	 1.467198222927167e+00	 1.197450057284168e+01
 1.998966332934291e+00	 1.486638360809374e+00	 1.195510884446055e+01
 2.140486372178029e+00	 1.291634305568600e+00	 1.208908728847812e+01
 2.127976864201949e+00	 1.312141579873010e+00	 1.208058915055690e+01
 2.115256475512560e+00	 1.332550568802452e+00	 1.206963527927408e+01
 2.102326301339311e+00	 1.352858073570206e+00	 1.205674851748945e+01
 2.089187500784497e+00	 1.373060910208370e+00	 1.204239408756751e+01
 2.075841296615198e+00	 1.393155911143726e+00	 1.202696571377427e+01
 2.062288975008945e+00	 1.413139926771810e+00	 1.201077105534904e+01
 2.048531885253080e+00	 1.433009827027587e+00	 1.199401647265419e+01
 2.034571439397766e+00	 1.452762502951173e+00	 1.197679115467327e+01
 2.020409111862701e+00	 1.472394868247019e+00	 1.195905064215111e+01
 2.006046438997654e+00	 1.491903860834959e+00	 1.194096555578266e+01
 1.935248477654718e+00	 1.439251165556041e+00	 1.207055368313151e+01
 1.921198559930043e+00	 1.457952860094976e+00	 1.204362707856470e+01
 1.906958452650192e+00	 1.476529650413391e+00	 1.201821063430565e+01
 1.892529823022367e+00	 1.494978649281559e+00	 1.199319879053683e+01
 1.877914395939055e+00	 1.513296998677638e+00	 1.197076116920635e+01
 1.863113953331427e+00	 1.531481871228614e+00	 1.194984428451097e+01
 1.848130333479975e+00	 1.549530471634388e+00	 1.192914997606365e+01
 1.832965430282894e+00	 1.567440038073481e+00	 1.190691541294335e+01
 1.817621192482792e+00	 1.585207843588931e+00	 1.188192362004641e+01
 1.802099622852384e+00	 1.602831197452905e+00	 1.185343245913747e+01
 1.786402777339841e+00	 1.620307446508633e+00	 1.182092096683361e+01
 1.942328132358409e+00	 1.444516329899898e+00	 1.205749438007136e+01
 1.928226816289955e+00	 1.463286440221663e+00	 1.203097388822808e+01
 1.913934614902197e+00	 1.481931189389951e+00	 1.200555171253438e+01
 1.899453201501433e+00	 1.500447679612784e+00	 1.198158144796425e+01
 1.884784307290280e+00	 1.518833042412918e+00	 1.196012431439589e+01
 1.869929720718701e+00	 1.537084440074063e+00	 1.193996023517301e+01
 1.854891286792119e+00	 1.555199067070170e+00	 1.191984624325038e+01
 1.839670906337125e+00	 1.573174151476286e+00	 1.189827500262420e+01
 1.824270535225360e+00	 1.591006956359518e+00	 1.187365587643548e+01
 1.808692183556227e+00	 1.608694781148640e+00	 1.184522337051304e+01
 1.792937914799115e+00	 1.626234962980931e+00	 1.181245887747605e+01
 1.949407781047018e+00	 1.449781489770505e+00	 1.204478171262793e+01
 1.935255066678454e+00	 1.468620015817002e+00	 1.201874045166122e+01
 1.920910771227061e+00	 1.487332723777429e+00	 1.199362081701964e+01
 1.906376574098234e+00	 1.505916705297574e+00	 1.197083874866866e+01
 1.891654212804704e+00	 1.524369081444804e+00	 1.195030291223934e+01
 1.876745482315218e+00	 1.542687004159561e+00	 1.193082862213374e+01
 1.861652234360123e+00	 1.560867657689864e+00	 1.191120841607911e+01
 1.846376376694392e+00	 1.578908260007298e+00	 1.189016723455835e+01
 1.830919872318692e+00	 1.596806064203054e+00	 1.186595585625674e+01
 1.815284738659103e+00	 1.614558359862522e+00	 1.183762859292944e+01
 1.799473046706223e+00	 1.632162474417046e+00	 1.180467366936819e+01
 1.956487437762086e+00	 1.455046655610667e+00	 1.203229009945932e+01
 1.942283325035166e+00	 1.473953597459489e+00	 1.200679988086165e+01
 1.927886935461115e+00	 1.492734264289111e+00	 1.198241678251899e+01
 1.913299954544422e+00	 1.511385737183076e+00	 1.196077425088026e+01
 1.898524126107944e+00	 1.529905126753355e+00	 1.194110334166502e+01
 1.883561251639214e+00	 1.548289574597118e+00	 1.192225885577310e+01
 1.868413189593504e+00	 1.566536254736439e+00	 1.190307294609607e+01
 1.853081854654183e+00	 1.584642375039440e+00	 1.188236703835445e+01
 1.837569216950940e+00	 1.602605178621381e+00	 1.185860399858311e+01
 1.821877301236541e+00	 1.620421945224268e+00	 1.183043651154481e+01
 1.806008186022798e+00	 1.638089992573499e+00	 1.179736118967276e+01
 1.963567116545152e+00	 1.460311837863190e+00	 1.201989433746036e+01
 1.949311605299716e+00	 1.479287195727619e+00	 1.199502561933267e+01
 1.934863121440683e+00	 1.498135821638279e+00	 1.197174682753866e+01
 1.920223356571651e+00	 1.516854786116435e+00	 1.195119768215322e+01
 1.905394060825618e+00	 1.535441189318633e+00	 1.193233808922687e+01
 1.890377042208922e+00	 1.553892162498743e+00	 1.191406639144014e+01
 1.875174165901784e+00	 1.572204869452869e+00	 1.189525842545446e+01
 1.859787353515981e+00	 1.590376507945632e+00	 1.187477963451686e+01
 1.844218582310253e+00	 1.608404311116346e+00	 1.185138468801379e+01
 1.828469884364069e+00	 1.626285548863596e+00	 1.182343929436498e+01
 1.812543345710476e+00	 1.644017529206810e+00	 1.179032088419740e+01
 1.970646831437752e+00	 1.465577046970878e+00	 1.200746972402825e+01
 1.956339921411735e+00	 1.484620821199891e+00	 1.198334401431458e+01
 1.941839343002093e+00	 1.503537406538217e+00	 1.196142429480336e+01
 1.927146793911572e+00	 1.522323862944796e+00	 1.194192483492847e+01
 1.912264030583343e+00	 1.540977280120702e+00	 1.192382564580367e+01
 1.897192867542578e+00	 1.559494778976449e+00	 1.190607262746652e+01
 1.881935176694481e+00	 1.577873513082121e+00	 1.188758932759476e+01
 1.866492886579275e+00	 1.596110670098798e+00	 1.186728924492200e+01
 1.850867981584783e+00	 1.614203473189790e+00	 1.184408644697187e+01
 1.835062501117215e+00	 1.632149182410221e+00	 1.181643308377393e+01
 1.819078538730894e+00	 1.649945096073502e+00	 1.178335598798456e+01
 1.977726596481428e+00	 1.470842293376535e+00	 1.199489217957381e+01
 1.963368287310847e+00	 1.489954484454799e+00	 1.197183210040161e+01
 1.948815613981673e+00	 1.508939029702209e+00	 1.195126854630738e+01
 1.934070280295840e+00	 1.527792978515308e+00	 1.193277746251283e+01
 1.919134049006735e+00	 1.546513410139621e+00	 1.191539040369305e+01
 1.904008741158417e+00	 1.565097435142242e+00	 1.189810480355137e+01
 1.888696235381115e+00	 1.583542196867167e+00	 1.187989590708558e+01
 1.873198467143551e+00	 1.601844872871857e+00	 1.185972926395176e+01
 1.857517427962681e+00	 1.620002676343558e+00	 1.183657371187996e+01
 1.841655164571509e+00	 1.638012857493862e+00	 1.180921818827101e+01
 1.825613778045685e+00	 1.655872704930096e+00	 1.177627371607415e+01
 1.984806425717717e+00	 1.476107587522967e+00	 1.198203837028066e+01
 1.970396716936679e+00	 1.495288196070839e+00	 1.196034057781493e+01
 1.955791948215750e+00	 1.514340701843537e+00	 1.194110485878921e+01
 1.940993829456107e+00	 1.533262143675113e+00	 1.192358317546243e+01
 1.926004129721413e+00	 1.552049590355453e+00	 1.190686255408867e+01
 1.910824676574673e+00	 1.570700142108135e+00	 1.188999589950691e+01
 1.895457355371207e+00	 1.589210932050975e+00	 1.187201409980093e+01
 1.879904108508296e+00	 1.607579127637732e+00	 1.185193870884355e+01
 1.864166934632097e+00	 1.625801932079493e+00	 1.182879513433581e+01
 1.848247887802479e+00	 1.643876585744234e+00	 1.180159927442743e+01
 1.832149076616485e+00	 1.661800367533113e+00	 1.176888545445214e+01
 1.991886333188158e+00	 1.481372939852978e+00	 1.196878583111581e+01
 1.977425224228859e+00	 1.500621966626507e+00	 1.194869853946810e+01
 1.962768359540652e+00	 1.519742433675487e+00	 1.193076431961763e+01
 1.947917455124025e+00	 1.538731369271359e+00	 1.191417533835929e+01
 1.932874286352993e+00	 1.557585831748260e+00	 1.189807798493036e+01
 1.917640687309581e+00	 1.576302910986138e+00	 1.188158453435459e+01
 1.902218550074274e+00	 1.594879729876518e+00	 1.186378542342474e+01
 1.886609823972995e+00	 1.613313445769345e+00	 1.184376212175418e+01
 1.870816514781184e+00	 1.631601251899441e+00	 1.182060052414927e+01
 1.854840683885653e+00	 1.649740378791056e+00	 1.179340478500003e+01
 1.838684447404929e+00	 1.667728095639074e+00	 1.176100695119873e+01
 1.998966332934291e+00	 1.486638360809374e+00	 1.195510884446055e+01
 1.984453823127015e+00	 1.505955806700301e+00	 1.193674083999714e+01
 1.969744861792705e+00	 1.525144235911340e+00	 1.192008372307787e+01
 1.954841171031248e+00	 1.544200666151192e+00	 1.190439296696951e+01
 1.939744532527093e+00	 1.563122145298102e+00	 1.188887817911578e+01
 1.924456786881375e+00	 1.581905752888260e+00	 1.187271486576158e+01
 1.908979832899837e+00	 1.600548601586764e+00	 1.185505687827265e+01
 1.893315626837136e+00	 1.619047838639616e+00	 1.183504947211695e+01
 1.877466181598091e+00	 1.637400647305243e+00	 1.181184290338416e+01
 1.861433565896559e+00	 1.655604248264044e+00	 1.178460648201913e+01
 1.845219903372652e+00	 1.673655901004500e+00	 1.175245850784890e+01
 2.006046438997654e+00	 1.491903860834959e+00	 1.194096555578266e+01
 1.991482527570772e+00	 1.511289726870715e+00	 1.192430799176921e+01
 1.976721468808238e+00	 1.530546119264382e+00	 1.190890546704584e+01
 1.961764990909429e+00	 1.549670045161758e+00	 1.189408062577244e+01
 1.946614881869332e+00	 1.568658541985043e+00	 1.187911011306370e+01
 1.931272988808291e+00	 1.587508678926512e+00	 1.186323648980759e+01
 1.915741217257416e+00	 1.606217558424685e+00	 1.184568084842189e+01
 1.900021530400206e+00	 1.624782317621468e+00	 1.182565605928314e+01
 1.884115948270970e+00	 1.643200129798745e+00	 1.180238057131290e+01
 1.868026546910727e+00	 1.661468205792915e+00	 1.177509268435593e+01
 1.851755457481291e+00	 1.679583795385915e+00	 1.174306517097947e+01
 1.786402777339841e+00	 1.620307446508633e+00	 1.182092096683361e+01
 1.770535471667258e+00	 1.637631048877402e+00	 1.178193044767534e+01
 1.754497187434063e+00	 1.654802438530077e+00	 1.173500102735849e+01
 1.738290105200364e+00	 1.671819112362954e+00	 1.168138867538900e+01
 1.721916454862457e+00	 1.688678609927321e+00	 1.162246936695063e+01
 1.705378514623189e+00	 1.705378514623189e+00	 1.155969352642745e+01
 1.688678609927321e+00	 1.721916454862457e+00	 1.149453918589228e+01
 1.671819112362954e+00	 1.738290105200364e+00	 1.142846416971698e+01
 1.654802438530077e+00	 1.754497187434064e+00	 1.136285762502794e+01
 1.637631048877402e+00	 1.770535471667259e+00	 1.129899122430795e+01
 1.620307446508632e+00	 1.786402777339840e+00	 1.123797037098151e+01
 1.792937914799115e+00	 1.626234962980931e+00	 1.181245887747605e+01
 1.777012562293325e+00	 1.643621939704016e+00	 1.177317563225711e+01
 1.760915605741834e+00	 1.660856146876343e+00	 1.172615652527425e+01
 1.744649233681815e+00	 1.677935072237191e+00	 1.167262589716412e+01
 1.728215684167117e+00	 1.694856246336879e+00	 1.161393186323401e+01
 1.711617243734853e+00	 1.711617243734853e+00	 1.155149967346631e+01
 1.694856246336879e+00	 1.728215684167117e+00	 1.148678374799362e+01
 1.677935072237191e+00	 1.744649233681815e+00	 1.142121870638593e+01
 1.660856146876342e+00	 1.760915605741834e+00	 1.135616971789261e+01
 1.643621939704015e+00	 1.777012562293325e+00	 1.129288250655009e+01
 1.626234962980931e+00	 1.792937914799115e+00	 1.123243334974670e+01
 1.799473046706223e+00	 1.632162474417046e+00	 1.180467366936818e+01
 1.783489647416537e+00	 1.649612825440606e+00	 1.176517395846359e+01
 1.767334018596579e+00	 1.666909850079233e+00	 1.171814813378357e+01
 1.751008356760585e+00	 1.684051026915193e+00	 1.166478651821146e+01
 1.734514908119950e+00	 1.701033877497837e+00	 1.160640697655485e+01
 1.717855967546052e+00	 1.717855967546052e+00	 1.154440717304742e+01
 1.701033877497837e+00	 1.734514908119950e+00	 1.148021546405886e+01
 1.684051026915193e+00	 1.751008356760586e+00	 1.141524075166789e+01
 1.666909850079233e+00	 1.767334018596580e+00	 1.135082163279349e+01
 1.649612825440606e+00	 1.783489647416538e+00	 1.128817518554170e+01
 1.632162474417046e+00	 1.799473046706223e+00	 1.122834573925334e+01
 1.806008186022798e+00	 1.638089992573499e+00	 1.179736118967276e+01
 1.789966739883403e+00	 1.655603717969389e+00	 1.175772737993085e+01
 1.773752438728440e+00	 1.672963560145552e+00	 1.171078174639897e+01
 1.757367487049223e+00	 1.690166988527229e+00	 1.165767829253975e+01
 1.740814139214706e+00	 1.707211515662789e+00	 1.159970233465698e+01
 1.724094698430546e+00	 1.724094698430546e+00	 1.153822163747886e+01
 1.707211515662789e+00	 1.740814139214707e+00	 1.147463614389999e+01
 1.690166988527229e+00	 1.757367487049224e+00	 1.141032663198109e+01
 1.672963560145552e+00	 1.773752438728441e+00	 1.134660264158886e+01
 1.655603717969389e+00	 1.789966739883403e+00	 1.128465002021841e+01
 1.638089992573499e+00	 1.806008186022798e+00	 1.122547844251985e+01
 1.812543345710476e+00	 1.644017529206810e+00	 1.179032088419740e+01
 1.796443852540426e+00	 1.661594629172582e+00	 1.175064125708978e+01
 1.780170878867555e+00	 1.679017289082106e+00	 1.170386647711146e+01
 1.763726637160278e+00	 1.696282969203571e+00	 1.165111201424737e+01
 1.747113389945136e+00	 1.713389173084329e+00	 1.159362843135197e+01
 1.730333448762094e+00	 1.730333448762094e+00	 1.153275137796247e+01
 1.713389173084329e+00	 1.747113389945137e+00	 1.146985013641514e+01
 1.696282969203571e+00	 1.763726637160278e+00	 1.140627506094004e+01
 1.679017289082106e+00	 1.780170878867556e+00	 1.134330425994070e+01
 1.661594629172582e+00	 1.796443852540427e+00	 1.128208987902763e+01
 1.644017529206810e+00	 1.812543345710476e+00	 1.122360434750717e+01
 1.819078538730894e+00	 1.649945096073502e+00	 1.178335598798456e+01
 1.802920998234117e+00	 1.667585570932400e+00	 1.174372454641374e+01
 1.786589351744064e+00	 1.685071048895701e+00	 1.169721484768026e+01
 1.770085819706298e+00	 1.702398981074488e+00	 1.164490170225598e+01
 1.753412672804990e+00	 1.719566862015051e+00	 1.158799880811691e+01
 1.736572230914457e+00	 1.736572230914456e+00	 1.152780758249528e+01
 1.719566862015051e+00	 1.753412672804990e+00	 1.146566450325307e+01
 1.702398981074488e+00	 1.770085819706299e+00	 1.140288730826297e+01
 1.685071048895701e+00	 1.786589351744065e+00	 1.134072041096643e+01
 1.667585570932400e+00	 1.802920998234117e+00	 1.128027989784730e+01
 1.649945096073502e+00	 1.819078538730894e+00	 1.122249847884961e+01
 1.825613778045685e+00	 1.655872704930096e+00	 1.177627371607415e+01
 1.809398189810981e+00	 1.673576555131060e+00	 1.173678998980871e+01
 1.793007870088108e+00	 1.691124851593142e+00	 1.169064297504306e+01
 1.776445047299832e+00	 1.708515036270250e+00	 1.163886478515131e+01
 1.759712000288018e+00	 1.725744594707550e+00	 1.158263023579420e+01
 1.742811057261392e+00	 1.742811057261392e+00	 1.152320449387569e+01
 1.725744594707550e+00	 1.759712000288017e+00	 1.146188919259293e+01
 1.708515036270250e+00	 1.776445047299833e+00	 1.139996736881271e+01
 1.691124851593141e+00	 1.793007870088108e+00	 1.133864758904923e+01
 1.673576555131060e+00	 1.809398189810981e+00	 1.127900763809611e+01
 1.655872704930096e+00	 1.825613778045685e+00	 1.122193814981688e+01
 1.832149076616485e+00	 1.661800367533113e+00	 1.176888545445214e+01
 1.815875440117524e+00	 1.679567593650777e+00	 1.172965430415951e+01
 1.799426446629824e+00	 1.697178709181232e+00	 1.168397075886125e+01
 1.782804332553428e+00	 1.714631146921127e+00	 1.163282228614526e+01
 1.766011384887967e+00	 1.731922383414419e+00	 1.157734289640703e+01
 1.749049940176661e+00	 1.749049940176661e+00	 1.151875958782772e+01
 1.731922383414419e+00	 1.766011384887968e+00	 1.145833721305185e+01
 1.714631146921127e+00	 1.782804332553428e+00	 1.139732213178255e+01
 1.697178709181232e+00	 1.799426446629825e+00	 1.133688502381790e+01
 1.679567593650777e+00	 1.815875440117524e+00	 1.127806324504388e+01
 1.661800367533113e+00	 1.832149076616485e+00	 1.122170311451430e+01
 1.838684447404929e+00	 1.667728095639074e+00	 1.176100695119873e+01
 1.822352762000254e+00	 1.685558698373769e+00	 1.172213837104620e+01
 1.805845094099354e+00	 1.703232633666778e+00	 1.167702206921339e+01
 1.789163688079636e+00	 1.720747325157391e+00	 1.162659900817323e+01
 1.772310839098592e+00	 1.738100240388253e+00	 1.157196056510447e+01
 1.755288892034023e+00	 1.755288892034023e+00	 1.151429375125643e+01
 1.738100240388253e+00	 1.772310839098592e+00	 1.145482480773284e+01
 1.720747325157391e+00	 1.789163688079636e+00	 1.139476155003848e+01
 1.703232633666778e+00	 1.805845094099354e+00	 1.133523484430607e+01
 1.685558698373769e+00	 1.822352762000255e+00	 1.127723960633169e+01
 1.667728095639074e+00	 1.838684447404929e+00	 1.122157572032898e+01
 1.845219903372652e+00	 1.673655901004500e+00	 1.175245850784890e+01
 1.828830168305679e+00	 1.691549881182252e+00	 1.171406742664421e+01
 1.812263825226835e+00	 1.709286637056585e+00	 1.166962493445176e+01
 1.795523126491003e+00	 1.726863583109311e+00	 1.162002371914063e+01
 1.778610375413639e+00	 1.744278177881645e+00	 1.156631079224962e+01
 1.761527925207237e+00	 1.761527925207236e+00	 1.150963146064766e+01
 1.744278177881645e+00	 1.778610375413639e+00	 1.145117162842530e+01
 1.726863583109311e+00	 1.795523126491003e+00	 1.139209880962951e+01
 1.709286637056585e+00	 1.812263825226835e+00	 1.133350224330157e+01
 1.691549881182251e+00	 1.828830168305679e+00	 1.127633251071071e+01
 1.673655901004501e+00	 1.845219903372653e+00	 1.122134106062981e+01
 1.851755457481291e+00	 1.679583795385915e+00	 1.174306517097947e+01
 1.835307671880304e+00	 1.697541153958441e+00	 1.170527125182191e+01
 1.818682652742408e+00	 1.715340731357458e+00	 1.166161172923526e+01
 1.801882660400078e+00	 1.732979932907158e+00	 1.161292933733232e+01
 1.784910006326859e+00	 1.750456208147191e+00	 1.156022508566441e+01
 1.767767052070063e+00	 1.767767052070063e+00	 1.150460096062542e+01
 1.750456208147191e+00	 1.784910006326859e+00	 1.144720090997089e+01
 1.732979932907157e+00	 1.801882660400079e+00	 1.138915049947772e+01
 1.715340731357458e+00	 1.818682652742409e+00	 1.133149564189649e+01
 1.697541153958441e+00	 1.835307671880305e+00	 1.127514080700877e+01
 1.679583795385915e+00	 1.851755457481291e+00	 1.122078712772875e+01
 1.620307446508632e+00	 1.786402777339840e+00	 1.123797037098151e+01
 1.602831197452906e+00	 1.802099622852383e+00	 1.117845496106297e+01
 1.585207843588931e+00	 1.817621192482791e+00	 1.111917663387506e+01
 1.567440038073481e+00	 1.832965430282893e+00	 1.106095151443160e+01
 1.549530471634388e+00	 1.848130333479974e+00	 1.100427519128885e+01
 1.531481871228615e+00	 1.863113953331426e+00	 1.094690752804950e+01
 1.513296998677638e+00	 1.877914395939054e+00	 1.088309170419542e+01
 1.494978649281560e+00	 1.892529823022367e+00	 1.081275473137139e+01
 1.476529650413391e+00	 1.906958452650191e+00	 1.073623537721218e+01
 1.457952860094977e+00	 1.921198559930042e+00	 1.065537450295887e+01
 1.439251165556041e+00	 1.935248477654719e+00	 1.057077359365055e+01
 1.626234962980931e+00	 1.792937914799115e+00	 1.123243334974670e+01
 1.608694781148641e+00	 1.808692183556226e+00	 1.117363061430932e+01
 1.591006956359519e+00	 1.824270535225360e+00	 1.111539668654481e+01
 1.573174151476286e+00	 1.839670906337124e+00	 1.105857485607891e+01
 1.555199067070170e+00	 1.854891286792119e+00	 1.100351125100256e+01
 1.537084440074064e+00	 1.869929720718700e+00	 1.094473374025252e+01
 1.518833042412919e+00	 1.884784307290279e+00	 1.087965589129419e+01
 1.500447679612785e+00	 1.899453201501433e+00	 1.080852144581109e+01
 1.481931189389951e+00	 1.913934614902196e+00	 1.073163673926053e+01
 1.463286440221664e+00	 1.928226816289955e+00	 1.065038713729072e+01
 1.444516329899898e+00	 1.942328132358409e+00	 1.056603189501353e+01
 1.632162474417046e+00	 1.799473046706223e+00	 1.122834573925334e+01
 1.614558359862523e+00	 1.815284738659102e+00	 1.117029652877710e+01
 1.596806064203055e+00	 1.830919872318692e+00	 1.111315194224476e+01
 1.578908260007299e+00	 1.846376376694392e+00	 1.105778696632833e+01
 1.560867657689864e+00	 1.861652234360122e+00	 1.100295408137078e+01
 1.542687004159562e+00	 1.876745482315218e+00	 1.094255635125012e+01
 1.524369081444804e+00	 1.891654212804703e+00	 1.087627791341985e+01
 1.505916705297575e+00	 1.906376574098233e+00	 1.080441819786512e+01
 1.487332723777430e+00	 1.920910771227060e+00	 1.072734071443663e+01
 1.468620015817002e+00	 1.935255066678453e+00	 1.064596163059608e+01
 1.449781489770505e+00	 1.949407781047018e+00	 1.056203149806958e+01
 1.638089992573499e+00	 1.806008186022798e+00	 1.122547844251985e+01
 1.620421945224269e+00	 1.821877301236541e+00	 1.116821448337221e+01
 1.602605178621382e+00	 1.837569216950939e+00	 1.111219781247249e+01
 1.584642375039440e+00	 1.853081854654181e+00	 1.105831328410226e+01
 1.566536254736441e+00	 1.868413189593503e+00	 1.100210534956306e+01
 1.548289574597119e+00	 1.883561251639213e+00	 1.094013974178156e+01
 1.529905126753356e+00	 1.898524126107945e+00	 1.087272168821816e+01
 1.511385737183076e+00	 1.913299954544421e+00	 1.080021077728500e+01
 1.492734264289112e+00	 1.927886935461114e+00	 1.072303244182365e+01
 1.473953597459490e+00	 1.942283325035165e+00	 1.064184465982435e+01
 1.455046655610668e+00	 1.956487437762086e+00	 1.055852477190917e+01
 1.644017529206810e+00	 1.812543345710476e+00	 1.122360434750717e+01
 1.626285548863596e+00	 1.828469884364069e+00	 1.116714809943254e+01
 1.608404311116347e+00	 1.844218582310253e+00	 1.111229136381395e+01
 1.590376507945633e+00	 1.859787353515980e+00	 1.105884209174187e+01
 1.572204869452870e+00	 1.875174165901783e+00	 1.100073928391327e+01
 1.553892162498744e+00	 1.890377042208922e+00	 1.093725527188578e+01
 1.535441189318634e+00	 1.905394060825617e+00	 1.086875805922787e+01
 1.516854786116435e+00	 1.920223356571650e+00	 1.079567181103154e+01
 1.498135821638280e+00	 1.934863121440682e+00	 1.071848857839310e+01
 1.479287195727621e+00	 1.949311605299715e+00	 1.063779219431989e+01
 1.460311837863190e+00	 1.963567116545151e+00	 1.055527326682713e+01
 1.649945096073502e+00	 1.819078538730894e+00	 1.122249847884961e+01
 1.632149182410222e+00	 1.835062501117215e+00	 1.116686298634464e+01
 1.614203473189791e+00	 1.850867981584783e+00	 1.111319145803682e+01
 1.596110670098798e+00	 1.866492886579275e+00	 1.105859729109199e+01
 1.577873513082122e+00	 1.881935176694480e+00	 1.099863699207879e+01
 1.559494778976449e+00	 1.897192867542578e+00	 1.093368116562882e+01
 1.540977280120702e+00	 1.912264030583342e+00	 1.086416468406043e+01
 1.522323862944797e+00	 1.927146793911572e+00	 1.079058065560000e+01
 1.503537406538218e+00	 1.941839343002092e+00	 1.071349239162254e+01
 1.484620821199892e+00	 1.956339921411734e+00	 1.063354491816342e+01
 1.465577046970878e+00	 1.970646831437753e+00	 1.055204748322305e+01
 1.655872704930096e+00	 1.825613778045685e+00	 1.122193814981688e+01
 1.638012857493863e+00	 1.841655164571509e+00	 1.116712688742675e+01
 1.620002676343559e+00	 1.857517427962680e+00	 1.111410153504028e+01
 1.601844872871858e+00	 1.873198467143551e+00	 1.105737198104586e+01
 1.583542196867167e+00	 1.888696235381115e+00	 1.099558634351768e+01
 1.565097435142243e+00	 1.904008741158417e+00	 1.092920239631091e+01
 1.546513410139622e+00	 1.919134049006734e+00	 1.085872592303216e+01
 1.527792978515308e+00	 1.934070280295839e+00	 1.078472328975614e+01
 1.508939029702210e+00	 1.948815613981673e+00	 1.070783365699844e+01
 1.489954484454800e+00	 1.963368287310846e+00	 1.062878072378038e+01
 1.470842293376535e+00	 1.977726596481428e+00	 1.054862664080200e+01
 1.661800367533113e+00	 1.832149076616485e+00	 1.122170311451430e+01
 1.643876585744235e+00	 1.848247887802478e+00	 1.116770982608358e+01
 1.625801932079494e+00	 1.864166934632097e+00	 1.111383234275964e+01
 1.607579127637734e+00	 1.879904108508296e+00	 1.105496588179506e+01
 1.589210932050976e+00	 1.895457355371206e+00	 1.099138185244477e+01
 1.570700142108137e+00	 1.910824676574673e+00	 1.092361057214008e+01
 1.552049590355453e+00	 1.926004129721411e+00	 1.085223272823620e+01
 1.533262143675114e+00	 1.940993829456106e+00	 1.077789220767204e+01
 1.514340701843538e+00	 1.955791948215751e+00	 1.070130855586479e+01
 1.495288196070840e+00	 1.970396716936678e+00	 1.062328895502523e+01
 1.476107587522967e+00	 1.984806425717717e+00	 1.054479844806039e+01
 1.667728095639074e+00	 1.838684447404929e+00	 1.122157572032898e+01
 1.649740378791057e+00	 1.854840683885652e+00	 1.116823976605719e+01
 1.631601251899442e+00	 1.870816514781183e+00	 1.111217924998348e+01
 1.613313445769345e+00	 1.886609823972994e+00	 1.105118521622824e+01
 1.594879729876519e+00	 1.902218550074273e+00	 1.098582456125349e+01
 1.576302910986139e+00	 1.917640687309579e+00	 1.091670382235945e+01
 1.557585831748260e+00	 1.932874286352992e+00	 1.084448253304252e+01
 1.538731369271360e+00	 1.947917455124025e+00	 1.076988631245080e+01
 1.519742433675487e+00	 1.962768359540651e+00	 1.069371957360861e+01
 1.500621966626508e+00	 1.977425224228858e+00	 1.061687773789918e+01
 1.481372939852978e+00	 1.991886333188159e+00	 1.054035887204290e+01
 1.673655901004501e+00	 1.845219903372653e+00	 1.122134106062981e+01
 1.655604248264045e+00	 1.861433565896558e+00	 1.116743692664978e+01
 1.637400647305244e+00	 1.877466181598091e+00	 1.110896230078837e+01
 1.619047838639617e+00	 1.893315626837136e+00	 1.104584259178037e+01
 1.600548601586765e+00	 1.908979832899837e+00	 1.097872192439002e+01
 1.581905752888261e+00	 1.924456786881373e+00	 1.090828668381515e+01
 1.563122145298103e+00	 1.939744532527093e+00	 1.083527914201410e+01
 1.544200666151193e+00	 1.954841171031247e+00	 1.076051081002948e+01
 1.525144235911341e+00	 1.969744861792704e+00	 1.068487539817277e+01
 1.505955806700301e+00	 1.984453823127014e+00	 1.060936126881198e+01
 1.486638360809374e+00	 1.998966332934291e+00	 1.053506327020749e+01
 1.679583795385915e+00	 1.851755457481291e+00	 1.122078712772875e+01
 1.661468205792916e+00	 1.868026546910726e+00	 1.116491560636958e+01
 1.643200129798746e+00	 1.884115948270970e+00	 1.110400774528196e+01
 1.624782317621469e+00	 1.900021530400205e+00	 1.103875688271907e+01
 1.606217558424685e+00	 1.915741217257415e+00	 1.096988769266666e+01
 1.587508678926513e+00	 1.931272988808290e+00	 1.089816998795244e+01
 1.568658541985044e+00	 1.946614881869331e+00	 1.082443262122680e+01
 1.549670045161758e+00	 1.961764990909427e+00	 1.074957710344936e+01
 1.530546119264383e+00	 1.976721468808237e+00	 1.067459081888722e+01
 1.511289726870716e+00	 1.991482527570771e+00	 1.060055971856856e+01
 1.491903860834959e+00	 2.006046438997654e+00	 1.052868037792178e+01
 1.439251165556041e+00	 1.935248477654719e+00	 1.057077359365055e+01
 1.420430689883295e+00	 1.949104258986799e+00	 1.048565805599277e+01
 1.401491195608220e+00	 1.962766765633880e+00	 1.040269561685036e+01
 1.382435636742910e+00	 1.976234515467395e+00	 1.032114862698315e+01
 1.363266990660228e+00	 1.989506086103192e+00	 1.024037499159870e+01
 1.343988256597493e+00	 2.002580115325494e+00	 1.015984332795744e+01
 1.324602454152328e+00	 2.015455301466298e+00	 1.007914705323850e+01
 1.305112621772200e+00	 2.028130403740125e+00	 9.998017279779814e+00
 1.285521815239164e+00	 2.040604242534051e+00	 9.916334404153066e+00
 1.265833106151362e+00	 2.052875699653055e+00	 9.834138286685278e+00
 1.246049580402761e+00	 2.064943718520748e+00	 9.751636928913719e+00
 1.444516329899898e+00	 1.942328132358409e+00	 1.056603189501353e+01
 1.425627003911244e+00	 1.956234601831544e+00	 1.048161647825408e+01
 1.406618223918459e+00	 1.969947089569313e+00	 1.039955141570855e+01
 1.387492954740202e+00	 1.983464108021129e+00	 1.031904845991366e+01
 1.368254184641359e+00	 1.996784229599385e+00	 1.023941559512601e+01
 1.348904923831258e+00	 2.009906087104953e+00	 1.016007274600166e+01
 1.329448202954018e+00	 2.022828374107992e+00	 1.008056639032282e+01
 1.309887071572554e+00	 2.035549845283895e+00	 1.000058294908277e+01
 1.290224596647790e+00	 2.048069316704405e+00	 9.919960836807050e+00
 1.270463861014590e+00	 2.060385666083846e+00	 9.838701065385496e+00
 1.250607961855945e+00	 2.072497832980598e+00	 9.756976305829907e+00
 1.449781489770505e+00	 1.949407781047018e+00	 1.056203149806958e+01
 1.430823313524385e+00	 1.963364938618164e+00	 1.047851028316822e+01
 1.411745247872682e+00	 1.977127407404194e+00	 1.039753209132929e+01
 1.392550268440615e+00	 1.990693694432500e+00	 1.031825107977280e+01
 1.373241374385091e+00	 2.004062366912016e+00	 1.023991789703900e+01
 1.353821586887445e+00	 2.017232052660270e+00	 1.016189597115911e+01
 1.334293947638286e+00	 2.030201440485568e+00	 1.008367667568279e+01
 1.314661517315975e+00	 2.042969280524185e+00	 1.000489324295232e+01
 1.294927374060298e+00	 2.055534384532526e+00	 9.925333303806426e+00
 1.275094611942843e+00	 2.067895626134259e+00	 9.844949943541749e+00
 1.255166339435620e+00	 2.080051941022524e+00	 9.763871175368475e+00
 1.455046655610668e+00	 1.956487437762086e+00	 1.055852477190917e+01
 1.436019629028974e+00	 1.970495283488694e+00	 1.047609600451942e+01
 1.416872277639734e+00	 1.984307733379644e+00	 1.039639318884721e+01
 1.397607587874744e+00	 1.997923289040297e+00	 1.031850595650163e+01
 1.378228569782952e+00	 2.011340512476121e+00	 1.024162027665320e+01
 1.358738255517717e+00	 2.024558026521287e+00	 1.016503535233014e+01
 1.339139697816155e+00	 2.037574515222249e+00	 1.008817936839352e+01
 1.319435968472098e+00	 2.050388724176148e+00	 1.001062395654110e+01
 1.299630156804209e+00	 2.062999460824042e+00	 9.932097252713392e+00
 1.279725368120817e+00	 2.075405594698941e+00	 9.852495433171296e+00
 1.259724722182968e+00	 2.087606057628739e+00	 9.771892627198934e+00
 1.460311837863190e+00	 1.963567116545151e+00	 1.055527326682713e+01
 1.441215960731266e+00	 1.977625650585169e+00	 1.047413926899974e+01
 1.421999323388458e+00	 1.991488081736780e+00	 1.039589933190187e+01
 1.402664923073184e+00	 2.005152906183309e+00	 1.031957169581733e+01
 1.383215780726468e+00	 2.018618680726732e+00	 1.024427037574313e+01
 1.363654939473737e+00	 2.031884023217855e+00	 1.016922269466953e+01
 1.343985463098657e+00	 2.044947612941254e+00	 1.009378564236203e+01
 1.324210434510562e+00	 2.057808190954932e+00	 1.001746092083713e+01
 1.304332954207041e+00	 2.070464560384583e+00	 9.939908547977941e+00
 1.284356138733202e+00	 2.082915586672545e+00	 9.860958901889731e+00
 1.264283119139172e+00	 2.095160197781454e+00	 9.780623100556950e+00
 1.465577046970878e+00	 1.970646831437753e+00	 1.055204748322305e+01
 1.446412318937514e+00	 1.984756054049619e+00	 1.047241457332823e+01
 1.427126395287697e+00	 1.998668466716727e+00	 1.039582400680354e+01
 1.407722284066526e+00	 2.012382560200324e+00	 1.032121582926587e+01
 1.388203017107165e+00	 2.025896886098884e+00	 1.024762489333618e+01
 1.368571648507170e+00	 2.039210057279816e+00	 1.017419905798975e+01
 1.348831253096814e+00	 2.052320748265806e+00	 1.010021618722376e+01
 1.328984924901005e+00	 2.065227695575687e+00	 1.002509980495316e+01
 1.309035775596313e+00	 2.077929698019778e+00	 9.948433273537633e+00
 1.288986932964694e+00	 2.090425616949720e+00	 9.869972374755816e+00
 1.268841539345415e+00	 2.102714376462878e+00	 9.789656184287853e+00
 1.470842293376535e+00	 1.977726596481428e+00	 1.054862664080200e+01
 1.451608713953973e+00	 1.991886508024080e+00	 1.047070506159934e+01
 1.432253503506297e+00	 2.005848902560599e+00	 1.039594934688506e+01
 1.412779680885367e+00	 2.019612265430133e+00	 1.032321460444556e+01
 1.393190288816572e+00	 2.033175143027612e+00	 1.025144938068866e+01
 1.373488392369677e+00	 2.046536143237021e+00	 1.017971455538526e+01
 1.353677077421653e+00	 2.059693935819125e+00	 1.010720100952466e+01
 1.333759449113063e+00	 2.072647252753565e+00	 1.003324591879200e+01
 1.313738630299546e+00	 2.085394888535254e+00	 9.957347535907489e+00
 1.293617759999985e+00	 2.097935700425118e+00	 9.879178336744847e+00
 1.273399991842879e+00	 2.110268608655223e+00	 9.798596417680159e+00
 1.476107587522967e+00	 1.984806425717717e+00	 1.054479844806039e+01
 1.456805156086899e+00	 1.999017026650585e+00	 1.046880230284762e+01
 1.437380658213101e+00	 2.013029403509521e+00	 1.039606591702868e+01
 1.417837123560299e+00	 2.026842036211524e+00	 1.032535277539123e+01
 1.398177605746213e+00	 2.040453465947948e+00	 1.025551803643535e+01
 1.378405180812923e+00	 2.053862295619314e+00	 1.018552815206779e+01
 1.358522945684203e+00	 2.067067190224433e+00	 1.011447923417749e+01
 1.338534016616374e+00	 2.080066877203715e+00	 1.004161401607387e+01
 1.318441527644256e+00	 2.092860146736642e+00	 9.966337267743919e+00
 1.298248629023769e+00	 2.105445851993389e+00	 9.888229535831414e+00
 1.277958485672748e+00	 2.117822909340700e+00	 9.807059092066790e+00
 1.481372939852978e+00	 1.991886333188159e+00	 1.054035887204290e+01
 1.462001655642545e+00	 2.006147624071168e+00	 1.046650606881643e+01
 1.442507869576952e+00	 2.020209983804609e+00	 1.039597249835722e+01
 1.422894622121917e+00	 2.034071886883286e+00	 1.032742339310933e+01
 1.403164977787615e+00	 2.047731869294926e+00	 1.025961350190173e+01
 1.383322023588571e+00	 2.061188528956543e+00	 1.019140746440228e+01
 1.363368867495488e+00	 2.074440526104949e+00	 1.012179890618108e+01
 1.343308636880578e+00	 2.087486583641289e+00	 1.004992809771271e+01
 1.323144476957965e+00	 2.100325487429569e+00	 9.975098031867455e+00
 1.302879549220739e+00	 2.112956086549184e+00	 9.896788786663157e+00
 1.282517029876202e+00	 2.125377293501519e+00	 9.814670053171612e+00
 1.486638360809374e+00	 1.998966332934291e+00	 1.053506327020749e+01
 1.467198222927167e+00	 2.013278314427861e+00	 1.046362411191832e+01
 1.447635147766694e+00	 2.027390657686983e+00	 1.039547587307824e+01
 1.427952186600815e+00	 2.041301831784208e+00	 1.032922759625314e+01
 1.408152414832305e+00	 2.055010367503580e+00	 1.026352665656919e+01
 1.388238930448284e+00	 2.068514857778556e+00	 1.019712855913267e+01
 1.368214852466535e+00	 2.081813958083897e+00	 1.012891679259050e+01
 1.348083319375309e+00	 2.094906386781437e+00	 1.005792121552823e+01
 1.327847487568191e+00	 2.107790925419665e+00	 9.983334825728200e+00
 1.307510529775588e+00	 2.120466418987153e+00	 9.904528774807169e+00
 1.287075633494425e+00	 2.132931776119891e+00	 9.821065504179636e+00
 1.491903860834959e+00	 2.006046438997654e+00	 1.052868037792178e+01
 1.472394868247019e+00	 2.020409111862701e+00	 1.045997194337417e+01
 1.452762502951173e+00	 2.034571439397765e+00	 1.039439060947019e+01
 1.433009827027587e+00	 2.048531885253080e+00	 1.033057440192841e+01
 1.413139926771811e+00	 2.062288975008945e+00	 1.026705641368304e+01
 1.393155911143727e+00	 2.075841296615197e+00	 1.020247575278731e+01
 1.373060910208370e+00	 2.089187500784497e+00	 1.013559818472662e+01
 1.352858073570207e+00	 2.102326301339310e+00	 1.006533527628008e+01
 1.332550568802453e+00	 2.115256475512560e+00	 9.990761886298916e+00
 1.312141579873011e+00	 2.127976864201947e+00	 9.911131861550414e+00
 1.291634305568600e+00	 2.140486372178028e+00	 9.825891809509182e+00
 1.246049580402761e+00	 2.064943718520748e+00	 9.751636928913719e+00
 1.226174337050922e+00	 2.076807304836466e+00	 9.668876517424273e+00
 1.206210487937536e+00	 2.088465528197159e+00	 9.585256580827469e+00
 1.186161154962849e+00	 2.099917520674204e+00	 9.500268054831604e+00
 1.166029468177675e+00	 2.111162476335520e+00	 9.413567980716714e+00
 1.145818564275578e+00	 2.122199651223106e+00	 9.324981664678258e+00
 1.125531585092219e+00	 2.133028363287593e+00	 9.234503044319473e+00
 1.105171676113252e+00	 2.143647992280263e+00	 9.142271202533346e+00
 1.084741984992152e+00	 2.154057979603053e+00	 9.048339545106092e+00
 1.064245660079300e+00	 2.164257828117093e+00	 8.953412378873379e+00
 1.043685848963648e+00	 2.174247101910407e+00	 8.858547664556228e+00
 1.250607961855945e+00	 2.072497832980598e+00	 9.756976305829907e+00
 1.230660009566597e+00	 2.084404819456578e+00	 9.674673565992101e+00
 1.210623127372194e+00	 2.096105691705081e+00	 9.591107652720069e+00
 1.190500448593738e+00	 2.107599578622377e+00	 9.505852842824336e+00
 1.170295114732616e+00	 2.118885671328077e+00	 9.418655070052235e+00
 1.150010273957265e+00	 2.129963223142588e+00	 9.329434084012622e+00
 1.129649079597029e+00	 2.140831549521430e+00	 9.238283764677144e+00
 1.109214688644601e+00	 2.151490027946855e+00	 9.145468391959980e+00
 1.088710260268422e+00	 2.161938097777303e+00	 9.051194514287683e+00
 1.068138954336392e+00	 2.172175260055249e+00	 8.956180911944081e+00
 1.047503929952193e+00	 2.182201077274037e+00	 8.861593042228645e+00
 1.255166339435620e+00	 2.080051941022524e+00	 9.763871175368475e+00
 1.235145678270545e+00	 2.092002327621830e+00	 9.681836103308363e+00
 1.215035763057208e+00	 2.103745848721818e+00	 9.598118228298830e+00
 1.194839738537355e+00	 2.115281630043663e+00	 9.512414837401851e+00
 1.174560757662927e+00	 2.126608859758675e+00	 9.424601653462247e+00
 1.154201980077221e+00	 2.137726788465682e+00	 9.334734933560473e+00
 1.133766570603250e+00	 2.148634729125098e+00	 9.243051669575152e+00
 1.113257697740729e+00	 2.159332056950159e+00	 9.149967882848008e+00
 1.092678532173051e+00	 2.169818209255818e+00	 9.055918913811999e+00
 1.072032245285615e+00	 2.180092685265895e+00	 8.961668258323449e+00
 1.051322007696823e+00	 2.190155045879068e+00	 8.868533591195083e+00
 1.259724722182968e+00	 2.087606057628739e+00	 9.771892627198934e+00
 1.239631352059773e+00	 2.099599844400525e+00	 9.689899915019016e+00
 1.219448403744773e+00	 2.111386014400290e+00	 9.605801156062514e+00
 1.199179033400460e+00	 2.122963690174114e+00	 9.519455884072816e+00
 1.178826405429338e+00	 2.134332056945007e+00	 9.430910071140243e+00
 1.158393690949570e+00	 2.145490362590221e+00	 9.340398106197444e+00
 1.137884066277844e+00	 2.156437917575067e+00	 9.248342820247032e+00
 1.117300711420901e+00	 2.167174094843761e+00	 9.155353549896549e+00
 1.096646808577096e+00	 2.177698329667776e+00	 9.062127237444267e+00
 1.075925540649335e+00	 2.188010119452279e+00	 8.969544571699938e+00
 1.055140089770742e+00	 2.198109023501284e+00	 8.879105096586070e+00
 1.264283119139172e+00	 2.095160197781454e+00	 9.780623100556950e+00
 1.244117039831291e+00	 2.107197384860966e+00	 9.698412560495658e+00
 1.223861058187084e+00	 2.119026203893420e+00	 9.613681292341591e+00
 1.203518341789813e+00	 2.130645774249785e+00	 9.526489885158144e+00
 1.183092066492579e+00	 2.142055278204773e+00	 9.437094589007181e+00
 1.162585414888433e+00	 2.153253960914042e+00	 9.345949114568185e+00
 1.142001574787768e+00	 2.164241130347803e+00	 9.253704422184079e+00
 1.121343737704383e+00	 2.175016157181246e+00	 9.161206491576847e+00
 1.100615097351618e+00	 2.185578474642356e+00	 9.069442201475837e+00
 1.079818848149918e+00	 2.195927578317649e+00	 8.979486602326464e+00
 1.058958183747156e+00	 2.206063025916469e+00	 8.893048195883072e+00
 1.268841539345415e+00	 2.102714376462878e+00	 9.789656184287853e+00
 1.248602750482110e+00	 2.114794964071461e+00	 9.706933172249723e+00
 1.228273735136334e+00	 2.126666432354128e+00	 9.621295303381675e+00
 1.207857672312177e+00	 2.138327897506732e+00	 9.533042607720763e+00
 1.187357749313378e+00	 2.149778538855662e+00	 9.442681215542702e+00
 1.166777160207932e+00	 2.161017598834980e+00	 9.350924919749428e+00
 1.146119104299984e+00	 2.172044382919772e+00	 9.258694668435421e+00
 1.125386784610441e+00	 2.182858259516197e+00	 9.167115978624516e+00
 1.104583406367679e+00	 2.193458659808738e+00	 9.077494919106783e+00
 1.083712175509730e+00	 2.203845077565252e+00	 8.991177880413840e+00
 1.062776297199268e+00	 2.214017068900405e+00	 8.910108573846912e+00
 1.273399991842879e+00	 2.110268608655223e+00	 9.798596417680159e+00
 1.253088492909236e+00	 2.122392597100309e+00	 9.715032256272746e+00
 1.232686443344719e+00	 2.134306714935336e+00	 9.628191468416063e+00
 1.212197033574312e+00	 2.146010075181008e+00	 9.538651492477481e+00
 1.191623462352465e+00	 2.157501854215372e+00	 9.447207519522504e+00
 1.170968935222188e+00	 2.168781291750868e+00	 9.354873760678700e+00
 1.150236662981452e+00	 2.179847690767441e+00	 9.262882583470420e+00
 1.129429860158340e+00	 2.190700417402196e+00	 9.172681507946630e+00
 1.108551743496338e+00	 2.201338900796103e+00	 9.085925074777846e+00
 1.087605530451137e+00	 2.211762632898337e+00	 9.004308899068493e+00
 1.066594437700285e+00	 2.221971168228874e+00	 8.930037156534459e+00
 1.277958485672748e+00	 2.117822909340700e+00	 9.807059092066790e+00
 1.257574276009680e+00	 2.129990299015816e+00	 9.722291493277186e+00
 1.237099191564434e+00	 2.141947066789965e+00	 9.633929483700436e+00
 1.216536434182979e+00	 2.153692322508668e+00	 9.542865463665926e+00
 1.195889214070570e+00	 2.165225239601598e+00	 9.450222448638787e+00
 1.175160748245324e+00	 2.176545055059541e+00	 9.357354984329277e+00
 1.154354258999130e+00	 2.187651069367277e+00	 9.265847867589315e+00
 1.133472972367345e+00	 2.198542646392831e+00	 9.177512663827532e+00
 1.112520116608656e+00	 2.209219213233629e+00	 9.094382027627388e+00
 1.091498920696506e+00	 2.219680260020150e+00	 9.018577296806013e+00
 1.070412612823410e+00	 2.229925339677661e+00	 8.947742636356310e+00
 1.282517029876202e+00	 2.125377293501519e+00	 9.814670053171612e+00
 1.262060108680452e+00	 2.137588084886287e+00	 9.728303540812666e+00
 1.241511988547674e+00	 2.149587503070936e+00	 9.638080267484252e+00
 1.220875882744938e+00	 2.161374654725766e+00	 9.545244739842490e+00
 1.200155012928422e+00	 2.172948710332034e+00	 9.451286148980305e+00
 1.179352607591461e+00	 2.184308904158836e+00	 9.357938876612041e+00
 1.158471900519980e+00	 2.195454534195747e+00	 9.267180741868128e+00
 1.137516129256721e+00	 2.206384962041680e+00	 9.181228979419291e+00
 1.116488533575692e+00	 2.217099612750496e+00	 9.102533955998448e+00
 1.095392353968202e+00	 2.227597974633942e+00	 9.031535867792863e+00
 1.074230830141849e+00	 2.237879599022548e+00	 8.957871433791075e+00
 1.287075633494425e+00	 2.132931776119891e+00	 9.821065504179636e+00
 1.266545999818560e+00	 2.145185969780024e+00	 9.732671836232935e+00
 1.245924843046632e+00	 2.157228038931172e+00	 9.640225765892264e+00
 1.225215387866951e+00	 2.169057087068357e+00	 9.545360645584706e+00
 1.204420867386749e+00	 2.180672281724375e+00	 9.449969785349134e+00
 1.183544521574721e+00	 2.192072854446585e+00	 9.356206493985093e+00
 1.162589595710960e+00	 2.203258100729318e+00	 9.266481793624411e+00
 1.141559338845735e+00	 2.214227379902332e+00	 9.183459798509666e+00
 1.120457002268507e+00	 2.224980114975883e+00	 9.109532051223351e+00
 1.099285837988591e+00	 2.235515792442956e+00	 9.036483449927990e+00
 1.078049097228806e+00	 2.245833962039317e+00	 8.960615478256457e+00
 1.291634305568600e+00	 2.140486372178028e+00	 9.825891809509182e+00
 1.271031958321013e+00	 2.152783968765333e+00	 9.735010400489299e+00
 1.250337763813505e+00	 2.164868689523592e+00	 9.639958759691510e+00
 1.229554958155780e+00	 2.176739634772497e+00	 9.542795424074409e+00
 1.208686785906283e+00	 2.188395969096317e+00	 9.445855362391635e+00
 1.187736498509226e+00	 2.199836921320626e+00	 9.351749495752506e+00
 1.166707352739033e+00	 2.211061784444457e+00	 9.263361822390006e+00
 1.145602609153652e+00	 2.222069915528370e+00	 9.183844137560946e+00
 1.124425530558161e+00	 2.232860735538971e+00	 9.109143527627433e+00
 1.103179380480040e+00	 2.243433729150444e+00	 9.033075705183091e+00
 1.081867421657487e+00	 2.253788444503754e+00	 8.956168004715558e+00
 1.043685848963648e+00	 2.174247101910407e+00	 8.858547664556228e+00
 1.023062186261889e+00	 2.184027070232773e+00	 8.763331311774881e+00
 1.002381304515459e+00	 2.193595701149540e+00	 8.668801018696870e+00
 9.816463410027967e-01	 2.202952738993927e+00	 8.578274853147180e+00
 9.608604265935818e-01	 2.212097988040085e+00	 8.495054980171712e+00
 9.400266843708891e-01	 2.221031312078378e+00	 8.422374293880029e+00
 9.191482282730248e-01	 2.229752633954294e+00	 8.355675517980611e+00
 8.982281617561046e-01	 2.238261935071894e+00	 8.284175401886785e+00
 8.772695764783929e-01	 2.246559254862706e+00	 8.208447992720361e+00
 8.562755510073803e-01	 2.254644690221029e+00	 8.129226607882751e+00
 8.352491495505203e-01	 2.262518394906619e+00	 8.047237113924320e+00
 1.047503929952193e+00	 2.182201077274037e+00	 8.861593042228645e+00
 1.026804820395857e+00	 2.192016823326705e+00	 8.767423322210929e+00
 1.006048282472418e+00	 2.201620458845244e+00	 8.675277988536246e+00
 9.852374649373056e-01	 2.211011727227574e+00	 8.588816662580811e+00
 9.643755101137459e-01	 2.220190432031832e+00	 8.511676378176713e+00
 9.434655525098751e-01	 2.229156436550089e+00	 8.441357429396838e+00
 9.225107174556050e-01	 2.237909663345580e+00	 8.366646381908708e+00
 9.015141197603114e-01	 2.246450093754339e+00	 8.288116813745175e+00
 8.804788623923600e-01	 2.254777767352143e+00	 8.206800149026279e+00
 8.594080351814524e-01	 2.262892781387759e+00	 8.123720446174589e+00
 8.383047135447202e-01	 2.270795290183433e+00	 8.039896258314899e+00
 1.051322007696823e+00	 2.190155045879068e+00	 8.868533591195083e+00
 1.030547451350041e+00	 2.200006569631635e+00	 8.776967213017636e+00
 1.009715257313884e+00	 2.209645209722230e+00	 8.689114794609297e+00
 9.888285858207667e-01	 2.219070708613470e+00	 8.608900637490416e+00
 9.678905906474565e-01	 2.228282869147467e+00	 8.535920192206861e+00
 9.469044177271446e-01	 2.237281554117994e+00	 8.458733529252241e+00
 9.258732037813436e-01	 2.246066685806030e+00	 8.377540617067464e+00
 9.048000749726843e-01	 2.254638245479567e+00	 8.293583018060041e+00
 8.836881455796285e-01	 2.262996272858633e+00	 8.208094546682885e+00
 8.625405166940820e-01	 2.271140865546448e+00	 8.122303088800455e+00
 8.413602749428495e-01	 2.279072178427747e+00	 8.037432188733721e+00
 1.055140089770742e+00	 2.198109023501284e+00	 8.879105096586070e+00
 1.034290086548014e+00	 2.207996324994357e+00	 8.791758259952548e+00
 1.013382236313376e+00	 2.217669969696762e+00	 8.710144833995312e+00
 9.924197107762452e-01	 2.227129699135804e+00	 8.635769045254321e+00
 9.714056751669483e-01	 2.236375315437564e+00	 8.557495411525547e+00
 9.503432868437480e-01	 2.245406680897510e+00	 8.474669734328486e+00
 9.292356939197770e-01	 2.254223717514355e+00	 8.388659230994612e+00
 9.080860339109362e-01	 2.262826406488048e+00	 8.300822127352667e+00
 8.868974324058010e-01	 2.271214787682854e+00	 8.212509575549213e+00
 8.656730017584998e-01	 2.279388959056444e+00	 8.125067332754714e+00
 8.444158398055267e-01	 2.287349076056038e+00	 8.039837202319239e+00
 1.058958183747156e+00	 2.206063025916469e+00	 8.893048195883072e+00
 1.038032733413349e+00	 2.215986105261665e+00	 8.811594963488375e+00
 1.017049226744412e+00	 2.225694754685102e+00	 8.736995283812430e+00
 9.960108469268057e-01	 2.235188714778765e+00	 8.659252475437432e+00
 9.749207706444551e-01	 2.244467786952697e+00	 8.576282325427083e+00
 9.537821666807358e-01	 2.253531833004051e+00	 8.489497458761376e+00
 9.325981945404387e-01	 2.262380774649266e+00	 8.400299009501921e+00
 9.113720030927787e-01	 2.271014593020246e+00	 8.310078776912018e+00
 8.901067292364803e-01	 2.279433328125483e+00	 8.220221136354635e+00
 8.688054965879365e-01	 2.287637078277100e+00	 8.132104704828253e+00
 8.474714141933698e-01	 2.295625999484788e+00	 8.047103762912842e+00
 1.062776297199268e+00	 2.214017068900405e+00	 8.910108573846912e+00
 1.041775399369619e+00	 2.223975926280349e+00	 8.835991707359479e+00
 1.020716235880511e+00	 2.233719580603511e+00	 8.760222739917804e+00
 9.996020013955130e-01	 2.243247771526543e+00	 8.678639141729015e+00
 9.784358840522113e-01	 2.252560299743439e+00	 8.592623682078351e+00
 9.572210640591579e-01	 2.261657026553031e+00	 8.503543490950380e+00
 9.359607123128652e-01	 2.270537873389477e+00	 8.412752592249159e+00
 9.146579890359224e-01	 2.279202821316628e+00	 8.321594187169026e+00
 8.933160424372695e-01	 2.287651910487200e+00	 8.231402685502639e+00
 8.719380073956230e-01	 2.295885239567761e+00	 8.143505484718737e+00
 8.505270041669976e-01	 2.303902965130477e+00	 8.059224498601409e+00
 1.066594437700285e+00	 2.221971168228874e+00	 8.930037156534459e+00
 1.045518091840397e+00	 2.231965803897202e+00	 8.857124313563286e+00
 1.024383270995192e+00	 2.241744463368251e+00	 8.778106753104048e+00
 1.003193181305432e+00	 2.251306885363327e+00	 8.694263956794263e+00
 9.819510223624514e-01	 2.260652869860364e+00	 8.606857474272188e+00
 9.606599858000642e-01	 2.269782277659863e+00	 8.517130075769705e+00
 9.393232539065905e-01	 2.278695029913699e+00	 8.426308546570112e+00
 9.179439982580797e-01	 2.287391107617658e+00	 8.335606224621742e+00
 8.965253783737714e-01	 2.295870551068683e+00	 8.246225278820008e+00
 8.750705403947902e-01	 2.304133459287779e+00	 8.159358727570865e+00
 8.535826157870279e-01	 2.312179989409584e+00	 8.076192199259598e+00
 1.070412612823410e+00	 2.229925339677661e+00	 8.947742636356310e+00
 1.049260818249256e+00	 2.239955753959018e+00	 8.871747122455334e+00
 1.028050339361973e+00	 2.249769418895582e+00	 8.790955161348876e+00
 1.006784393779627e+00	 2.259366072273303e+00	 8.706457220014306e+00
 9.854661925474095e-01	 2.268745513354043e+00	 8.619317023283639e+00
 9.640989387245058e-01	 2.277907602439965e+00	 8.530574994883256e+00
 9.426858259911510e-01	 2.286852260400646e+00	 8.441251439595501e+00
 9.212300372769628e-01	 2.295579468163807e+00	 8.352349461348814e+00
 8.997347434115883e-01	 2.304089266170612e+00	 8.264857614278753e+00
 8.782031017986689e-01	 2.312381753796502e+00	 8.179752285961797e+00
 8.566382551140788e-01	 2.320457088738593e+00	 8.097999814091946e+00
 1.074230830141849e+00	 2.237879599022548e+00	 8.957871433791075e+00
 1.053003586019768e+00	 2.247945792312590e+00	 8.880121614871959e+00
 1.031717448254373e+00	 2.257794463101769e+00	 8.799071600148807e+00
 1.010375645941163e+00	 2.267425348240664e+00	 8.715544698086125e+00
 9.889814015793206e-01	 2.276838246275052e+00	 8.630331060791859e+00
 9.675379296535319e-01	 2.286033017008749e+00	 8.544191645212173e+00
 9.460484352360803e-01	 2.295009581029028e+00	 8.457861908716119e+00
 9.245161126102827e-01	 2.303767919195540e+00	 8.372055233146881e+00
 9.029441439163232e-01	 2.312308072093663e+00	 8.287466073716704e+00
 8.813356978204905e-01	 2.320630139453281e+00	 8.204772831345611e+00
 8.596939282087687e-01	 2.328734279533981e+00	 8.124640449174931e+00
 1.078049097228806e+00	 2.245833962039317e+00	 8.960615478256457e+00
 1.056746402575507e+00	 2.255935934804708e+00	 8.882505745323627e+00
 1.035384604945910e+00	 2.265819611903070e+00	 8.802755575056997e+00
 1.013966944913106e+00	 2.275484729249596e+00	 8.721847703755790e+00
 9.924966564304187e-01	 2.284931084673963e+00	 8.640223808916343e+00
 9.709769654081932e-01	 2.294158537481629e+00	 8.558289115601170e+00
 9.494110883109145e-01	 2.303167007977557e+00	 8.476416730428106e+00
 9.278022307757513e-01	 2.311956476953322e+00	 8.394951696327036e+00
 9.061535862535792e-01	 2.320526985138516e+00	 8.314214763582505e+00
 8.844683346734850e-01	 2.328878632617462e+00	 8.234505874970724e+00
 8.627496411317157e-01	 2.337011578212227e+00	 8.156107364998947e+00
 1.081867421657487e+00	 2.253788444503754e+00	 8.956168004715558e+00
 1.060489275340047e+00	 2.263926197282168e+00	 8.879154001766832e+00
 1.039051816710104e+00	 2.273844881215751e+00	 8.802302532525866e+00
 1.017558297818519e+00	 2.283544231284289e+00	 8.725683172732401e+00
 9.960119640729381e-01	 2.293024044601351e+00	 8.649315058415340e+00
 9.744160528095400e-01	 2.302284179974021e+00	 8.573172261729542e+00
 9.527737918851885e-01	 2.311324557424947e+00	 8.497188887601263e+00
 9.310883982910807e-01	 2.320145157677620e+00	 8.421263883203952e+00
 9.093630767889591e-01	 2.328746021605850e+00	 8.345265554729316e+00
 8.876010185708836e-01	 2.337127249648398e+00	 8.269035788283620e+00
 8.658053999435384e-01	 2.345289001189816e+00	 8.192393974010377e+00
 8.352491495505203e-01	 2.262518394906619e+00	 8.047237113924320e+00
 8.141970019494854e-01	 2.270179294192986e+00	 7.964561761075324e+00
 7.931185662147202e-01	 2.277629008609738e+00	 7.882711526651360e+00
 7.720168536581871e-01	 2.284867856915018e+00	 7.801584212840380e+00
 7.508948564624924e-01	 2.291896212004354e+00	 7.721067366799440e+00
 7.297555465433327e-01	 2.298714500167882e+00	 7.640945927549316e+00
 7.086018744401672e-01	 2.305323200321329e+00	 7.561097748337195e+00
 6.874367682357337e-01	 2.311722843211848e+00	 7.482522653243255e+00
 6.662631325049674e-01	 2.317914010599844e+00	 7.406144251698209e+00
 6.450838472938460e-01	 2.323897334417937e+00	 7.332698708465469e+00
 6.239017671286295e-01	 2.329673495908198e+00	 7.262762026737447e+00
 8.383047135447202e-01	 2.270795290183433e+00	 8.039896258314899e+00
 8.171755515775549e-01	 2.278484215081044e+00	 7.957481891379321e+00
 7.960200053076527e-01	 2.285961182538526e+00	 7.877666697287967e+00
 7.748410970631530e-01	 2.293226512480131e+00	 7.800048345765553e+00
 7.536418299728579e-01	 2.300280579165536e+00	 7.724209466595658e+00
 7.324251868245170e-01	 2.307123810444363e+00	 7.649660936082856e+00
 7.111941289514456e-01	 2.313756686984343e+00	 7.575816247191007e+00
 6.899515951480827e-01	 2.320179741474244e+00	 7.503225362717103e+00
 6.687005006150676e-01	 2.326393557802710e+00	 7.432455135451876e+00
 6.474437359343483e-01	 2.332398770214141e+00	 7.363883617711965e+00
 6.261841660747978e-01	 2.338196062442769e+00	 7.297727887141038e+00
 8.413602749428495e-01	 2.279072178427747e+00	 8.037432188733721e+00
 8.201540986750241e-01	 2.286789128912769e+00	 7.955594627332021e+00
 7.989214419355528e-01	 2.294293349387783e+00	 7.877654744881688e+00
 7.776653380687363e-01	 2.301585160943147e+00	 7.802987939863088e+00
 7.563888011495602e-01	 2.308664939202700e+00	 7.730951111604057e+00
 7.350948248378150e-01	 2.315533113575554e+00	 7.660856314591658e+00
 7.137863812606564e-01	 2.322190166481445e+00	 7.591782712975699e+00
 6.924664199242117e-01	 2.328636632550767e+00	 7.523886107562784e+00
 6.711378666548118e-01	 2.334873097800403e+00	 7.457460133188073e+00
 6.498036225703621e-01	 2.340900198786537e+00	 7.392609140374200e+00
 6.284665630823351e-01	 2.346718621735575e+00	 7.329276435388889e+00
 8.444158398055267e-01	 2.287349076056038e+00	 8.039837202319239e+00
 8.231326491497071e-01	 2.295094052160227e+00	 7.958795713798837e+00
 8.018228818532342e-01	 2.302625525683620e+00	 7.882496390601034e+00
 7.804895822765822e-01	 2.309943818882697e+00	 7.810169327038782e+00
 7.591357754409280e-01	 2.317049308745463e+00	 7.741023977734692e+00
 7.377644658781138e-01	 2.323942426240529e+00	 7.674243936384742e+00
 7.163786365091456e-01	 2.330623655539652e+00	 7.608706985079436e+00
 6.949812475518492e-01	 2.337093533214851e+00	 7.544229361739262e+00
 6.735752354582557e-01	 2.343352647411264e+00	 7.480914119668075e+00
 6.521635118822380e-01	 2.349401636996865e+00	 7.418675417725918e+00
 6.307489626778779e-01	 2.355241190690244e+00	 7.357267046710902e+00
 8.474714141933698e-01	 2.295625999484788e+00	 8.047103762912842e+00
 8.261112089094171e-01	 2.303399001295480e+00	 7.966982446082485e+00
 8.047243308155120e-01	 2.310957727952152e+00	 7.892014982602696e+00
 7.833138352883354e-01	 2.318302502877411e+00	 7.821362247678620e+00
 7.618827582952897e-01	 2.325433704423442e+00	 7.754163648036045e+00
 7.404341152403017e-01	 2.332351765118369e+00	 7.689540583676410e+00
 7.189708998382606e-01	 2.339057170885977e+00	 7.626303940408512e+00
 6.974960830187238e-01	 2.345550460239932e+00	 7.563984502072348e+00
 6.760126118594550e-01	 2.351832223453634e+00	 7.502576487321953e+00
 6.545234085503264e-01	 2.357903101706865e+00	 7.441886485812097e+00
 6.330313693880619e-01	 2.363763786210413e+00	 7.381562143476228e+00
 8.505270041669976e-01	 2.303902965130477e+00	 8.059224498601409e+00
 8.290897838619679e-01	 2.311703992790594e+00	 7.980053642908266e+00
 8.076257945772014e-01	 2.319289972719491e+00	 7.906036450023929e+00
 7.861381027056413e-01	 2.326661229505917e+00	 7.836339790979608e+00
 7.646297551609739e-01	 2.333818142866254e+00	 7.770109544460814e+00
 7.431037782192662e-01	 2.340761146888149e+00	 7.706474122920278e+00
 7.215631763893482e-01	 2.347490729247438e+00	 7.644293372845233e+00
 7.000109313125639e-01	 2.354007430399445e+00	 7.582885696787927e+00
 6.784500006924646e-01	 2.360311842745852e+00	 7.522211047810734e+00
 6.568833172549781e-01	 2.366404609778274e+00	 7.462050193753367e+00
 6.353137877395229e-01	 2.372286425199707e+00	 7.402027133712836e+00
 8.535826157870279e-01	 2.312179989409584e+00	 8.076192199259598e+00
 8.320683799151731e-01	 2.320009043117632e+00	 7.997909619955898e+00
 8.105272788931159e-01	 2.327622276511749e+00	 7.924389257945013e+00
 7.889623901301442e-01	 2.335020015346847e+00	 7.854878336556339e+00
 7.673767714863083e-01	 2.342202640703515e+00	 7.788604861100247e+00
 7.457734601098953e-01	 2.349170588228948e+00	 7.724781007637228e+00
 7.241554713037550e-01	 2.355924347351049e+00	 7.662399874276159e+00
 7.025257974210970e-01	 2.362464460466825e+00	 7.600671795508005e+00
 6.808874067913400e-01	 2.368791522106264e+00	 7.539585934851822e+00
 6.592432426765429e-01	 2.374906178072831e+00	 7.478978123027161e+00
 6.375962222588971e-01	 2.380809124561765e+00	 7.418530350235617e+00
 8.566382551140788e-01	 2.320457088738593e+00	 8.097999814091946e+00
 8.350470029768466e-01	 2.328314168748660e+00	 8.020452163923627e+00
 8.134287895180706e-01	 2.335954655855041e+00	 7.946904363296694e+00
 7.917867031634899e-01	 2.343378876978828e+00	 7.876757497290336e+00
 7.701238127196210e-01	 2.350587214564839e+00	 7.809396498849810e+00
 7.484431662070767e-01	 2.357580105819843e+00	 7.744193277784937e+00
 7.267477897228278e-01	 2.364358041923825e+00	 7.680352717148029e+00
 7.050406863320523e-01	 2.370921567215507e+00	 7.617086220670219e+00
 6.833248349901367e-01	 2.377271278353210e+00	 7.554473508273595e+00
 6.616031894953714e-01	 2.383407823452274e+00	 7.492485507699163e+00
 6.398786774728203e-01	 2.389331901200212e+00	 7.430942990366558e+00
 8.596939282087687e-01	 2.328734279533981e+00	 8.124640449174931e+00
 8.380256589548014e-01	 2.336619386155741e+00	 8.047584507111276e+00
 8.163303322068804e-01	 2.344287127275481e+00	 7.973415171688893e+00
 7.946110474073228e-01	 2.351737830980490e+00	 7.901760063391169e+00
 7.728708843092411e-01	 2.358971881079847e+00	 7.832235001469573e+00
 7.511129018056980e-01	 2.365989716339908e+00	 7.764446751440765e+00
 7.293401367879138e-01	 2.372791829692784e+00	 7.697885738509935e+00
 7.075556030331583e-01	 2.379378767418929e+00	 7.631876860332332e+00
 6.857622901229100e-01	 2.385751128305029e+00	 7.566650259266145e+00
 6.639631623918143e-01	 2.391909562778341e+00	 7.502391155579588e+00
 6.421611579079285e-01	 2.397854772018683e+00	 7.439139056230937e+00
 8.627496411317157e-01	 2.337011578212227e+00	 8.156107364998947e+00
 8.410043537568516e-01	 2.344924711810939e+00	 8.079211302509352e+00
 8.192319127143599e-01	 2.352619707299180e+00	 8.003757495137464e+00
 7.974354284632884e-01	 2.360096893930465e+00	 7.929671947638383e+00
 7.756179917034960e-01	 2.367356656878152e+00	 7.856874493004139e+00
 7.537826722006470e-01	 2.374399436468223e+00	 7.785281037416119e+00
 7.319325176403594e-01	 2.381225727384938e+00	 7.714737225501419e+00
 7.100705525121429e-01	 2.387836077850523e+00	 7.644795962324423e+00
 6.881997770237152e-01	 2.394231088780064e+00	 7.575896716796027e+00
 6.663231660462215e-01	 2.400411412912772e+00	 7.508517370279116e+00
 6.444436680908576e-01	 2.406377753920808e+00	 7.442995295613660e+00
 8.658053999435384e-01	 2.345289001189816e+00	 8.192393974010377e+00
 8.439830932908110e-01	 2.353230162186319e+00	 8.115238599381327e+00
 8.221335367953240e-01	 2.360952412452252e+00	 8.037769510666198e+00
 8.002598519330313e-01	 2.368456082407380e+00	 7.960282131774608e+00
 7.783651403507144e-01	 2.375741558589372e+00	 7.883072616528153e+00
 7.564524826868121e-01	 2.382809282883866e+00	 7.806439470703516e+00
 7.345249374215115e-01	 2.389659751727305e+00	 7.730649802247175e+00
 7.125855397567351e-01	 2.396293515283727e+00	 7.655600029712383e+00
 6.906373005266077e-01	 2.402711176596659e+00	 7.581997355153665e+00
 6.686832051389440e-01	 2.408913390717305e+00	 7.510689874140617e+00
 6.467262125482437e-01	 2.414900863810222e+00	 7.442391143360313e+00
 6.239017671286295e-01	 2.329673495908198e+00	 7.262762026737447e+00
 6.027197203449561e-01	 2.335243225244862e+00	 7.196119374730344e+00
 5.815405089992440e-01	 2.340607302145042e+00	 7.132277234860142e+00
 5.603669070574516e-01	 2.345766553420075e+00	 7.071227391975479e+00
 5.392016592342920e-01	 2.350721851527660e+00	 7.012895419365782e+00
 5.180474801603698e-01	 2.355474113615235e+00	 6.957158859707464e+00
 4.969070535816822e-01	 2.360024300548634e+00	 6.903863810862352e+00
 4.757830315916279e-01	 2.364373415927180e+00	 6.852840028071718e+00
 4.546780338956418e-01	 2.368522505086348e+00	 6.803914657830161e+00
 4.335946471085258e-01	 2.372472654089150e+00	 6.756924721339471e+00
 4.125354240844981e-01	 2.376224988707342e+00	 6.711728466970385e+00
 6.261841660747978e-01	 2.338196062442769e+00	 7.297727887141038e+00
 6.049246297188564e-01	 2.343786167334006e+00	 7.233534112435145e+00
 5.836679391736149e-01	 2.349169867457370e+00	 7.170929827817194e+00
 5.624168785529433e-01	 2.354347992648878e+00	 7.110090082552638e+00
 5.411742026124571e-01	 2.359321418557904e+00	 7.051126587448080e+00
 5.199426359136082e-01	 2.364091065687044e+00	 6.994105410574077e+00
 4.987248720202569e-01	 2.368657898417226e+00	 6.939063046323070e+00
 4.775235727278708e-01	 2.373022924019193e+00	 6.886020973985651e+00
 4.563413673254701e-01	 2.377187191652527e+00	 6.834998825786121e+00
 4.351808518903875e-01	 2.381151791353338e+00	 6.786026286921897e+00
 4.140445886158672e-01	 2.384917853011747e+00	 6.739153851639498e+00
 6.284665630823351e-01	 2.346718621735575e+00	 7.329276435388889e+00
 6.071295372199624e-01	 2.352329102164099e+00	 7.266875375498797e+00
 5.857953675409997e-01	 2.357732425494026e+00	 7.205173892339780e+00
 5.644668483072240e-01	 2.362929424586053e+00	 7.144485197336281e+00
 5.431467443151482e-01	 2.367920978281215e+00	 7.085061454742971e+00
 5.218377900570667e-01	 2.372708010437259e+00	 7.027111052606426e+00
 5.005426889146970e-01	 2.377291488950197e+00	 6.970814214104522e+00
 4.792641123855708e-01	 2.381672424762187e+00	 6.916337070096589e+00
 4.580046993422895e-01	 2.385851870856911e+00	 6.863844317495434e+00
 4.367670553247116e-01	 2.389830921243562e+00	 6.813510590667933e+00
 4.155537518651018e-01	 2.393610709930618e+00	 6.765530674521001e+00
 6.307489626778779e-01	 2.355241190690244e+00	 7.357267046710902e+00
 6.093344472212071e-01	 2.360872046679166e+00	 7.296061516051566e+00
 5.879227983206611e-01	 2.366294993237942e+00	 7.234973264971794e+00
 5.665168203859353e-01	 2.371510866251946e+00	 7.174409158477227e+00
 5.451192882544537e-01	 2.376520547753874e+00	 7.114716731760185e+00
 5.237329463493655e-01	 2.381324964956626e+00	 7.056201096104826e+00
 5.023605078702587e-01	 2.385925089271292e+00	 6.999140150764792e+00
 4.810046540167416e-01	 2.390321935311449e+00	 6.943798226307159e+00
 4.596680332450091e-01	 2.394516559884872e+00	 6.890438288721166e+00
 4.383532605574575e-01	 2.398510060973844e+00	 6.839332836178496e+00
 4.170629168253849e-01	 2.402303576705196e+00	 6.790773621749600e+00
 6.330313693880619e-01	 2.363763786210413e+00	 7.381562143476228e+00
 6.115393640955251e-01	 2.369415017823233e+00	 7.321013066537752e+00
 5.900502357318614e-01	 2.374857587672046e+00	 7.260293268942640e+00
 5.685667988547182e-01	 2.380092334666901e+00	 7.199859347715615e+00
 5.470918383424609e-01	 2.385120144032165e+00	 7.140109721393356e+00
 5.256281085491243e-01	 2.389941946335889e+00	 7.081401229822579e+00
 5.041783324921976e-01	 2.394558716504258e+00	 7.024064004068215e+00
 4.827452010733964e-01	 2.398971472822264e+00	 6.968414736601844e+00
 4.613313723325373e-01	 2.403181275921788e+00	 6.914768485772806e+00
 4.399394707345851e-01	 2.407189227758209e+00	 6.863449151151953e+00
 4.185720864898999e-01	 2.410996470576721e+00	 6.814798757723212e+00
 6.353137877395229e-01	 2.372286425199707e+00	 7.402027133712836e+00
 6.137442922158493e-01	 2.377958032540327e+00	 7.341652698229202e+00
 5.921776839938637e-01	 2.383420225779265e+00	 7.281100689015748e+00
 5.706167877792144e-01	 2.388673846851264e+00	 7.220834094050326e+00
 5.490643984912580e-01	 2.393719784172369e+00	 7.161258316042929e+00
 5.275232804149638e-01	 2.398558971665798e+00	 7.102737524322067e+00
 5.059961663857703e-01	 2.403192387772837e+00	 7.045609239503797e+00
 4.844857570075478e-01	 2.407621054449918e+00	 6.990197285806127e+00
 4.629947199037828e-01	 2.411846036153035e+00	 6.936823249736158e+00
 4.415256890020541e-01	 2.415868438810683e+00	 6.885816586466051e+00
 4.200812638518300e-01	 2.419689408786432e+00	 6.837523516570657e+00
 6.375962222588971e-01	 2.380809124561765e+00	 7.418530350235617e+00
 6.159492359551137e-01	 2.386501107774475e+00	 7.357905179979264e+00
 5.943051473259304e-01	 2.391982924542530e+00	 7.297363746285213e+00
 5.726667912250650e-01	 2.397255419825381e+00	 7.237332661136837e+00
 5.510369726129325e-01	 2.402319485230767e+00	 7.178180994316739e+00
 5.294184657055038e-01	 2.407176058037094e+00	 7.120236434824511e+00
 5.078140131562326e-01	 2.411826120200775e+00	 7.063799646275934e+00
 4.862263252712091e-01	 2.416270697349693e+00	 7.009156955857414e+00
 4.646580792576541e-01	 2.420510857763989e+00	 6.956591520310856e+00
 4.431119185058240e-01	 2.424547711345288e+00	 6.906393115017089e+00
 4.215904519043582e-01	 2.428382408575571e+00	 6.858866693576923e+00
 6.398786774728203e-01	 2.389331901200212e+00	 7.430942990366558e+00
 6.181541996862522e-01	 2.395044260469702e+00	 7.369697337210408e+00
 5.964326299473244e-01	 2.400545700944769e+00	 7.309052072921331e+00
 5.747168132579117e-01	 2.405837070609595e+00	 7.249355234419895e+00
 5.530095646195727e-01	 2.410919264263641e+00	 7.190896817319207e+00
 5.313136681793647e-01	 2.415793222540528e+00	 7.133924803566607e+00
 5.096318764088407e-01	 2.420459930911815e+00	 7.078659342782086e+00
 4.879669093163936e-01	 2.424920418676879e+00	 7.025305231600752e+00
 4.663214536930597e-01	 2.429175757940024e+00	 6.974062839266192e+00
 4.446981623918547e-01	 2.433227062576053e+00	 6.925137630323415e+00
 4.230996536406679e-01	 2.437075487185377e+00	 6.878748436567775e+00
 6.421611579079285e-01	 2.397854772018683e+00	 7.439139056230937e+00
 6.203591877821976e-01	 2.403587507570036e+00	 7.376958011128946e+00
 5.985601360773081e-01	 2.409108571968912e+00	 7.316136686866144e+00
 5.767668579433949e-01	 2.414418816224252e+00	 7.256902908007718e+00
 5.549821784232659e-01	 2.419519138327273e+00	 7.199425424539651e+00
 5.332088915951666e-01	 2.424410482266842e+00	 7.143829861676446e+00
 5.114497597488508e-01	 2.429093837029705e+00	 7.090212781589962e+00
 4.897075125951141e-01	 2.433570235586758e+00	 7.038654006121689e+00
 4.679848465089086e-01	 2.437840753866520e+00	 6.989227353525500e+00
 4.462844238061057e-01	 2.441906509717000e+00	 6.942009944899681e+00
 4.246088720539422e-01	 2.445768661857091e+00	 6.897090237255281e+00
 6.444436680908576e-01	 2.406377753920808e+00	 7.442995295613660e+00
 6.225642046158841e-01	 2.412130866019502e+00	 7.379618018159976e+00
 6.006876699351441e-01	 2.417671554597886e+00	 7.318589966479077e+00
 5.788169293471569e-01	 2.423000673689698e+00	 7.259977671293877e+00
 5.569548179361002e-01	 2.428119124477946e+00	 7.203787029349431e+00
 5.351041397115297e-01	 2.433027854306784e+00	 7.149979230581366e+00
 5.132676667815187e-01	 2.437727855678187e+00	 7.098484753927780e+00
 4.914481385593841e-01	 2.442220165234616e+00	 7.049215585628697e+00
 4.696482610041089e-01	 2.446505862728852e+00	 7.002075817889247e+00
 4.478707058945368e-01	 2.450586069982156e+00	 6.956970788408426e+00
 4.261181101373641e-01	 2.454461949831952e+00	 6.913814922546104e+00
 6.467262125482437e-01	 2.414900863810222e+00	 7.442391143360313e+00
 6.247692545602453e-01	 2.420674352762128e+00	 7.377610109596342e+00
 6.028152357400953e-01	 2.426234665814622e+00	 7.316385625134174e+00
 5.808670315348385e-01	 2.431582660026279e+00	 7.258582395332748e+00
 5.589274870701637e-01	 2.436719239771942e+00	 7.204002414118086e+00
 5.369994162870741e-01	 2.441645355751099e+00	 7.152400922959350e+00
 5.150856011121007e-01	 2.446362003981005e+00	 7.103500393699748e+00
 4.931887906612165e-01	 2.450870224775741e+00	 7.057002693896417e+00
 4.713117004775699e-01	 2.455171101712394e+00	 7.012599597405805e+00
 4.494570118031077e-01	 2.459265760585544e+00	 6.969981805594891e+00
 4.276273708841172e-01	 2.463155368351200e+00	 6.928846645813900e+00
 4.125354240844981e-01	 2.376224988707342e+00	 6.711728466970385e+00
 3.914993108678211e-01	 2.379781260948494e+00	 6.668510378640262e+00
 3.704923791699241e-01	 2.383142017333930e+00	 6.627918669605748e+00
 3.495170835139961e-01	 2.386308495462393e+00	 6.589954914042213e+00
 3.285758421694240e-01	 2.389281968537790e+00	 6.553964867702391e+00
 3.076710366437497e-01	 2.392063744314279e+00	 6.519686433807340e+00
 2.868050112068564e-01	 2.394655164037665e+00	 6.487025753120310e+00
 2.659800724471563e-01	 2.397057601384103e+00	 6.456040666139767e+00
 2.451984888595130e-01	 2.399272461397111e+00	 6.426925861025308e+00
 2.244624904646028e-01	 2.401301179423868e+00	 6.399999599225328e+00
 2.037742684593891e-01	 2.403145220051754e+00	 6.375691917248664e+00
 4.140445886158672e-01	 2.384917853011747e+00	 6.739153851639498e+00
 3.929315196905247e-01	 2.388487135044622e+00	 6.694690279966516e+00
 3.718477390377304e-01	 2.391860185972617e+00	 6.653207961160344e+00
 3.507957101599756e-01	 2.395038247921946e+00	 6.614693123729973e+00
 3.297778601733239e-01	 2.398022598754242e+00	 6.578430170138190e+00
 3.087965792975083e-01	 2.400814551007788e+00	 6.544109762183576e+00
 2.878542203783784e-01	 2.403415450835027e+00	 6.511586042912271e+00
 2.669530984424634e-01	 2.405826676937397e+00	 6.480858534197625e+00
 2.460954902833885e-01	 2.408049639498448e+00	 6.452057581354433e+00
 2.252836340798418e-01	 2.410085779116246e+00	 6.425431401445712e+00
 2.045197290447714e-01	 2.411936565736029e+00	 6.401334630481623e+00
 4.155537518651018e-01	 2.393610709930618e+00	 6.765530674521001e+00
 3.943637272964343e-01	 2.397193001744242e+00	 6.720279664770609e+00
 3.732030977540012e-01	 2.400578347204410e+00	 6.678241266661408e+00
 3.520743357195860e-01	 2.403767992964807e+00	 6.639393543748197e+00
 3.309798771559185e-01	 2.406763221544790e+00	 6.602983787710414e+00
 3.099221209949139e-01	 2.409565350266758e+00	 6.568671214710053e+00
 2.889034286583783e-01	 2.412175730189793e+00	 6.536276884469421e+00
 2.679261236109494e-01	 2.414595745040609e+00	 6.505761034410535e+00
 2.469924909450037e-01	 2.416826810142783e+00	 6.477208801028970e+00
 2.261047769972327e-01	 2.418870371345268e+00	 6.450817571646067e+00
 2.052651889965601e-01	 2.420727903951158e+00	 6.426885858466092e+00
 4.170629168253849e-01	 2.402303576705196e+00	 6.790773621749600e+00
 3.957959365261206e-01	 2.405898878314389e+00	 6.745152532468933e+00
 3.745584580069016e-01	 2.409296518320723e+00	 6.702859623643464e+00
 3.533529627288112e-01	 2.412497747905362e+00	 6.663873304256156e+00
 3.321818955012544e-01	 2.415503854245389e+00	 6.627426509187693e+00
 3.110476639683353e-01	 2.418316159447326e+00	 6.593162843124844e+00
 2.899526381278250e-01	 2.420936019476900e+00	 6.560888942337169e+00
 2.688991498824765e-01	 2.423364823086111e+00	 6.530544535102076e+00
 2.478894926234254e-01	 2.425603990738563e+00	 6.502188420316272e+00
 2.269259208453737e-01	 2.427654973534108e+00	 6.475986103865244e+00
 2.060106497932278e-01	 2.429519252133696e+00	 6.452198981372036e+00
 4.185720864898999e-01	 2.410996470576721e+00	 6.814798757723212e+00
 3.972281502201537e-01	 2.414604782022096e+00	 6.769184717008747e+00
 3.759138224845954e-01	 2.418014716612970e+00	 6.726906250867033e+00
 3.546315937236353e-01	 2.421227530057993e+00	 6.687951812077655e+00
 3.333839175933773e-01	 2.424244514191992e+00	 6.651561486384682e+00
 3.121732104501413e-01	 2.427066995905629e+00	 6.617379068267213e+00
 2.910018508676867e-01	 2.429696336071292e+00	 6.585215178356960e+00
 2.698721791869070e-01	 2.432133928466275e+00	 6.555007554689078e+00
 2.487864970977205e-01	 2.434381198694238e+00	 6.526807269436542e+00
 2.277470672528630e-01	 2.436439603105940e+00	 6.500766631474151e+00
 2.067561129132467e-01	 2.438310627720205e+00	 6.477128660055659e+00
 4.200812638518300e-01	 2.419689408786432e+00	 6.837523516570657e+00
 3.986603712191037e-01	 2.423310730134403e+00	 6.792253870419293e+00
 3.772691938752477e-01	 2.426732959372562e+00	 6.750226525683140e+00
 3.559102312400421e-01	 2.429957356737082e+00	 6.711450731863713e+00
 3.345859458163341e-01	 2.432985218720554e+00	 6.675194211032365e+00
 3.132987626727006e-01	 2.435817876997804e+00	 6.641116654423376e+00
 2.920510689589323e-01	 2.438456697347906e+00	 6.609050825191694e+00
 2.708452134541033e-01	 2.440903078573478e+00	 6.578950736027361e+00
 2.496835061469557e-01	 2.443158451418256e+00	 6.550878085305395e+00
 2.285682178482987e-01	 2.445224277483935e+00	 6.524990407827277e+00
 2.075015798350895e-01	 2.447102048147247e+00	 6.501530822066113e+00
 4.215904519043582e-01	 2.428382408575571e+00	 6.858866693576923e+00
 4.000926023635407e-01	 2.432016739918337e+00	 6.814239446523832e+00
 3.786245748670223e-01	 2.435451263890913e+00	 6.772667961720786e+00
 3.571888778140154e-01	 2.438687245257012e+00	 6.734193967694723e+00
 3.357879825541705e-01	 2.441725985167030e+00	 6.698132492168724e+00
 3.144243228683821e-01	 2.444568820079989e+00	 6.664174684236207e+00
 2.931002944825301e-01	 2.447217120681682e+00	 6.632193360423612e+00
 2.718182546139279e-01	 2.449672290800091e+00	 6.602176821304369e+00
 2.505805215501979e-01	 2.451935766319064e+00	 6.574215488764488e+00
 2.293893742602790e-01	 2.454009014091267e+00	 6.548490287311053e+00
 2.082470520372284e-01	 2.455893530851378e+00	 6.525262647929335e+00
 4.230996536406679e-01	 2.437075487185377e+00	 6.878748436567775e+00
 4.015248464940348e-01	 2.440722828640939e+00	 6.835022684809021e+00
 3.799799681480843e-01	 2.444169647459435e+00	 6.794080186889221e+00
 3.584675359815393e-01	 2.447417212932166e+00	 6.756007645111914e+00
 3.369900301909332e-01	 2.450466830867374e+00	 6.720186434036809e+00
 3.155498932695541e-01	 2.453319842508320e+00	 6.686354534165381e+00
 2.941495295194485e-01	 2.455977623447562e+00	 6.654442481210743e+00
 2.727913045962429e-01	 2.458441582538489e+00	 6.624490627464690e+00
 2.514775450865139e-01	 2.460713160805110e+00	 6.596635962287706e+00
 2.302105381174021e-01	 2.462793830351110e+00	 6.571100706780470e+00
 2.089925309981358e-01	 2.464685093269159e+00	 6.548182557700900e+00
 4.246088720539422e-01	 2.445768661857091e+00	 6.897090237255281e+00
 4.029571064511563e-01	 2.449429013569240e+00	 6.854486594448360e+00
 3.813353764065975e-01	 2.452888127369540e+00	 6.814314921688449e+00
 3.597462082785977e-01	 2.456147277076928e+00	 6.776720093568374e+00
 3.381920911106681e-01	 2.459207773157541e+00	 6.741168414479029e+00
 3.166754761085858e-01	 2.462070961638934e+00	 6.707459850484897e+00
 2.951987761506561e-01	 2.464738223020487e+00	 6.675600079488163e+00
 2.737643653309108e-01	 2.467210971181046e+00	 6.645699022155910e+00
 2.523745785349705e-01	 2.469490652284841e+00	 6.617957828151708e+00
 2.310317110482663e-01	 2.471578743686635e+00	 6.592657667373421e+00
 2.097380181962843e-01	 2.473476752837150e+00	 6.570150197782956e+00
 4.261181101373641e-01	 2.454461949831952e+00	 6.913814922546104e+00
 4.043893850754753e-01	 2.458135311970276e+00	 6.872515938476546e+00
 3.826908023307267e-01	 2.461606720912640e+00	 6.833225957820082e+00
 3.610248972411744e-01	 2.464877455005679e+00	 6.796161829290349e+00
 3.393941676974216e-01	 2.467948829373485e+00	 6.760893063815615e+00
 3.178010736178458e-01	 2.470822194827969e+00	 6.727296525804845e+00
 2.962480364571214e-01	 2.473498936775393e+00	 6.695470217701233e+00
 2.747374387477939e-01	 2.475980474120136e+00	 6.665610900182199e+00
 2.532716236746345e-01	 2.478268258166706e+00	 6.638001227059380e+00
 2.318528946814697e-01	 2.480363771521017e+00	 6.612998716694085e+00
 2.104835151101461e-01	 2.482268526991912e+00	 6.591026427997533e+00
 4.276273708841172e-01	 2.463155368351200e+00	 6.928846645813900e+00
 4.058216852075621e-01	 2.466841741111083e+00	 6.888997218111592e+00
 3.840462486086365e-01	 2.470325445380151e+00	 6.850669137092235e+00
 3.623036054052536e-01	 2.473607764032804e+00	 6.814165538539203e+00
 3.405962623352399e-01	 2.476690016851161e+00	 6.779177244196036e+00
 3.189266880297028e-01	 2.479573559431562e+00	 6.745672676105515e+00
 2.972973125198130e-01	 2.482259782087224e+00	 6.713859105057834e+00
 2.757105267767547e-01	 2.484750108748132e+00	 6.684037160452866e+00
 2.541686822845730e-01	 2.487045995859153e+00	 6.656588097205047e+00
 2.326740906456104e-01	 2.489148931277429e+00	 6.631962931356270e+00
 2.112290232181938e-01	 2.491060433170003e+00	 6.610673308910902e+00
 2.037742684593891e-01	 2.403145220051754e+00	 6.375691917248664e+00
 1.831394705683669e-01	 2.404805809140469e+00	 6.354425456008478e+00
 1.625566475833818e-01	 2.406284794526695e+00	 6.335953526931336e+00
 1.420278244541574e-01	 2.407583720882376e+00	 6.319866409312726e+00
 1.215549875204660e-01	 2.408704157848441e+00	 6.305849934986010e+00
 1.011400843060147e-01	 2.409647699001514e+00	 6.293680443451624e+00
 8.078502333994339e-02	 2.410415960825535e+00	 6.283220569641509e+00
 6.049167400547847e-02	 2.411010581689024e+00	 6.274415771051944e+00
 4.026186641526397e-02	 2.411433220828751e+00	 6.267291504173349e+00
 2.009739131287501e-02	 2.411685557340521e+00	 6.261950963666501e+00
 0.000000000000000e+00	 2.411769289177776e+00	 6.258573301865835e+00
 2.045197290447714e-01	 2.411936565736029e+00	 6.401334630481623e+00
 1.838094435635523e-01	 2.413603229702029e+00	 6.380151446198120e+00
 1.631513231264263e-01	 2.415087625610806e+00	 6.361682940660015e+00
 1.425474000909047e-01	 2.416391303785128e+00	 6.345566183168321e+00
 1.219996680633033e-01	 2.417515839608091e+00	 6.331529590348683e+00
 1.015100816918724e-01	 2.418462832486047e+00	 6.319388141177281e+00
 8.108055648764352e-02	 2.419233904816471e+00	 6.309039434056795e+00
 6.071296867252839e-02	 2.419830700961470e+00	 6.300460490216937e+00
 4.040915505419455e-02	 2.420254886227749e+00	 6.293705211026435e+00
 2.017091292721813e-02	 2.420508145853693e+00	 6.288902400448633e+00
 0.000000000000000e+00	 2.420592184004311e+00	 6.286254268098604e+00
 2.052651889965601e-01	 2.420727903951158e+00	 6.426885858466092e+00
 1.844794159892233e-01	 2.422400642789204e+00	 6.405779644511765e+00
 1.637459981638708e-01	 2.423890449215851e+00	 6.387342233603554e+00
 1.430669752858039e-01	 2.425198879204688e+00	 6.371237845353345e+00
 1.224443482278828e-01	 2.426327513880975e+00	 6.357217590372226e+00
 1.018800787629036e-01	 2.427277958480799e+00	 6.345114982963355e+00
 8.137608938379057e-02	 2.428051841315157e+00	 6.334842304677816e+00
 6.093426315114290e-02	 2.428650812739752e+00	 6.326387720475815e+00
 4.055644356765318e-02	 2.429076544131215e+00	 6.319813052675729e+00
 2.024443447890052e-02	 2.429330726870513e+00	 6.315252121644219e+00
 0.000000000000000e+00	 2.429415071334221e+00	 6.312909566509501e+00
 2.060106497932278e-01	 2.429519252133696e+00	 6.452198981372036e+00
 1.851493891741110e-01	 2.431198065850612e+00	 6.431189761071482e+00
 1.643406738750812e-01	 2.432693282801188e+00	 6.412833348820151e+00
 1.435865510692487e-01	 2.434006464609849e+00	 6.396801649793215e+00
 1.228890288960373e-01	 2.435139198144030e+00	 6.382848752066250e+00
 1.022500762528067e-01	 2.436093094469555e+00	 6.370806774794540e+00
 8.167162261439265e-02	 2.436869787810965e+00	 6.360582575462562e+00
 6.115555788009933e-02	 2.437470934517560e+00	 6.352155215345221e+00
 4.070373224766211e-02	 2.437898212035911e+00	 6.345574085891454e+00
 2.031795611368026e-02	 2.438153317889578e+00	 6.340957602644960e+00
 0.000000000000000e+00	 2.438237968666715e+00	 6.338492377752667e+00
 2.067561129132467e-01	 2.438310627720205e+00	 6.477128660055659e+00
 1.858193644469463e-01	 2.439995516334869e+00	 6.456262435744345e+00
 1.649353514394232e-01	 2.441496143826174e+00	 6.438058887431855e+00
 1.441061284716332e-01	 2.442814077469402e+00	 6.422178312437951e+00
 1.233337109495992e-01	 2.443950909874183e+00	 6.408358230438512e+00
 1.026200748952802e-01	 2.444908257936103e+00	 6.396409605003424e+00
 8.196715676545782e-02	 2.445687761793264e+00	 6.386213931804791e+00
 6.137685329817513e-02	 2.446291083788585e+00	 6.377721089966414e+00
 4.085102138624364e-02	 2.446719907438604e+00	 6.370947856726833e+00
 2.039147797731544e-02	 2.446975936409492e+00	 6.365976989631156e+00
 0.000000000000000e+00	 2.447060893501001e+00	 6.362956785015285e+00
 2.075015798350895e-01	 2.447102048147247e+00	 6.501530822066114e+00
 1.864893431364603e-01	 2.448793011690591e+00	 6.480879229571898e+00
 1.655300320362625e-01	 2.450299049750168e+00	 6.462922104244353e+00
 1.446257085233511e-01	 2.451621735252139e+00	 6.447289009891231e+00
 1.237783952704012e-01	 2.452762666548368e+00	 6.433681519003951e+00
 1.029900754240227e-01	 2.453723466364229e+00	 6.421869845582584e+00
 8.226269242299415e-02	 2.454505780751423e+00	 6.411690351623379e+00
 6.159814984414769e-02	 2.455111278046521e+00	 6.403043820998304e+00
 4.099831127542001e-02	 2.455541647836057e+00	 6.395894398293446e+00
 2.046500021556416e-02	 2.455798599928852e+00	 6.390269094360223e+00
 0.000000000000000e+00	 2.455883863336285e+00	 6.386257765000870e+00
 2.082470520372284e-01	 2.455893530851378e+00	 6.525262647929335e+00
 1.871593265713839e-01	 2.457590569366397e+00	 6.504922616355577e+00
 1.661247168449647e-01	 2.459102018032525e+00	 6.487326903430082e+00
 1.451452922547963e-01	 2.460429455426853e+00	 6.472055378037616e+00
 1.242230827402758e-01	 2.461574485643514e+00	 6.458754450252215e+00
 1.033600785727327e-01	 2.462538737237722e+00	 6.447134153439222e+00
 8.255823017300974e-02	 2.463323862174812e+00	 6.436966106402238e+00
 6.181944795679448e-02	 2.463931534785059e+00	 6.428082246491209e+00
 4.114560220721350e-02	 2.464363450725036e+00	 6.420374228567543e+00
 2.053852297418449e-02	 2.464621325946255e+00	 6.413793389054940e+00
 0.000000000000000e+00	 2.464706895671778e+00	 6.408351179100519e+00
 2.089925309981358e-01	 2.464685093269159e+00	 6.548182557700900e+00
 1.878293160804481e-01	 2.466388206810903e+00	 6.528275974394173e+00
 1.667194070448957e-01	 2.467905066132603e+00	 6.511177834273322e+00
 1.456648806963628e-01	 2.469237255462335e+00	 6.496399510667296e+00
 1.246677742410555e-01	 2.470386384636555e+00	 6.483513196074238e+00
 1.037300850751085e-01	 2.471354088040368e+00	 6.472149471594689e+00
 8.285377060151269e-02	 2.472142023552804e+00	 6.461995762182353e+00
 6.204074807489285e-02	 2.472751871497892e+00	 6.452795565741055e+00
 4.129289447364637e-02	 2.473185333602306e+00	 6.444348348225874e+00
 2.061204639893452e-02	 2.473444131960304e+00	 6.436510001389918e+00
 0.000000000000000e+00	 2.473530008006687e+00	 6.429193764748187e+00
 2.097380181962843e-01	 2.473476752837150e+00	 6.570150197782956e+00
 1.884993129923840e-01	 2.475185941472725e+00	 6.550823578369313e+00
 1.673141038154211e-01	 2.476708211509763e+00	 6.534380086975121e+00
 1.461844748784443e-01	 2.478045152827377e+00	 6.520243958099289e+00
 1.251124706545730e-01	 2.479198381004420e+00	 6.507894268148837e+00
 1.041000956648488e-01	 2.480169536255953e+00	 6.496863030328747e+00
 8.314931429451103e-02	 2.480960282374767e+00	 6.486734180506684e+00
 6.226205063722023e-02	 2.481572305678712e+00	 6.477143339125101e+00
 4.144018836674089e-02	 2.482007313964628e+00	 6.467778238510835e+00
 2.068557063557235e-02	 2.482267035469596e+00	 6.458379709573438e+00
 0.000000000000000e+00	 2.482353217840222e+00	 6.448743126953907e+00
 2.104835151101461e-01	 2.482268526991912e+00	 6.591026427997533e+00
 1.891693186359226e-01	 2.483983790800480e+00	 6.572450591376294e+00
 1.679088083359065e-01	 2.485511471623355e+00	 6.556839488517802e+00
 1.467040758314348e-01	 2.486853164990770e+00	 6.543511725801936e+00
 1.255571728626607e-01	 2.488010492224042e+00	 6.531834518290643e+00
 1.044701110756520e-01	 2.488985099368266e+00	 6.521222348271240e+00
 8.344486183801283e-02	 2.489778656130071e+00	 6.511136519318919e+00
 6.248335608255406e-02	 2.490392854821211e+00	 6.501085487919126e+00
 4.158748417851933e-02	 2.490829409308772e+00	 6.490625859124021e+00
 2.075909582985606e-02	 2.491090053972733e+00	 6.479363937521548e+00
 0.000000000000000e+00	 2.491176542671590e+00	 6.466957730011370e+00
 2.112290232181938e-01	 2.491060433170003e+00	 6.610673308910902e+00
 1.898393343397949e-01	 2.492781772242788e+00	 6.593043057095707e+00
 1.685035217857178e-01	 2.494314863932743e+00	 6.578462498586241e+00
 1.472236845857282e-01	 2.495661309421307e+00	 6.566126273012671e+00
 1.260018817471512e-01	 2.496822735772351e+00	 6.555271138760142e+00
 1.048401320412165e-01	 2.497800794861093e+00	 6.545175233441809e+00
 8.374041381802622e-02	 2.498597162308088e+00	 6.535158233817937e+00
 6.270466484967173e-02	 2.499213536419082e+00	 6.524582294096708e+00
 4.173478220100397e-02	 2.499651637131500e+00	 6.512853646146713e+00
 2.083262212754375e-02	 2.499913204968313e+00	 6.499424750122820e+00
 0.000000000000000e+00	 2.500000000000000e+00	 6.483796889374273e+00
