patch_n	x	y	stress_yy
0	 0.000000000000000e+00	 0.000000000000000e+00	 1.960928025482708e-02
0	 3.703751761278757e-02	 0.000000000000000e+00	 6.028512010902645e-03
0	 7.407591860629409e-02	 0.000000000000000e+00	-1.162215026948286e-03
0	 1.111150863032353e-01	 0.000000000000000e+00	-3.182203435385655e-03
0	 1.481549040263268e-01	 0.000000000000000e+00	-1.250770482323050e-03
0	 1.851952550982844e-01	 0.000000000000000e+00	 3.412751876624983e-03
0	 2.222360228418238e-01	 0.000000000000000e+00	 9.589017001001256e-03
0	 2.592770905796607e-01	 0.000000000000000e+00	 1.605866356767015e-02
0	 2.963183416345107e-01	 0.000000000000000e+00	 2.160231557228800e-02
0	 3.333596593290896e-01	 0.000000000000000e+00	 2.500058233007973e-02
0	 3.704009269861132e-01	 0.000000000000000e+00	 2.503405847592168e-02
0	 3.704009269861132e-01	 0.000000000000000e+00	 2.503405847592168e-02
0	 4.074320498716263e-01	 0.000000000000000e+00	 2.162522447303880e-02
0	 4.444630227948896e-01	 0.000000000000000e+00	 1.594222081290583e-02
0	 4.814938624184864e-01	 0.000000000000000e+00	 8.635784113368997e-03
0	 5.185245854050001e-01	 0.000000000000000e+00	 3.566486153818473e-04
0	 5.555552084170138e-01	 0.000000000000000e+00	-8.244453817081530e-03
0	 5.925857481171107e-01	 0.000000000000000e+00	-1.651679369709770e-02
0	 6.296162211678745e-01	 0.000000000000000e+00	-2.380964391484875e-02
0	 6.666466442318879e-01	 0.000000000000000e+00	-2.947227973766120e-02
0	 7.036770339717346e-01	 0.000000000000000e+00	-3.285397881002897e-02
0	 7.407074070499978e-01	 0.000000000000000e+00	-3.330402115362016e-02
0	 7.407074070499978e-01	 0.000000000000000e+00	-3.330402115362015e-02
0	 7.777477718965361e-01	 0.000000000000000e+00	-3.221831643443159e-02
0	 8.147881034103083e-01	 0.000000000000000e+00	-3.146670615171901e-02
0	 8.518283682575469e-01	 0.000000000000000e+00	-3.110838325065882e-02
0	 8.888685331044861e-01	 0.000000000000000e+00	-3.120255675805081e-02
0	 9.259085646173584e-01	 0.000000000000000e+00	-3.180845178272752e-02
0	 9.629484294623976e-01	 0.000000000000000e+00	-3.298530951618110e-02
0	 9.999880943058367e-01	 0.000000000000000e+00	-3.479238723340704e-02
0	 1.037027525813909e+00	 0.000000000000000e+00	-3.728895829396502e-02
0	 1.074066690652848e+00	 0.000000000000000e+00	-4.053431214325708e-02
0	 1.111105555488888e+00	 0.000000000000000e+00	-4.458775431402302e-02
0	 1.111105555488888e+00	 0.000000000000000e+00	-4.458775431402302e-02
0	 1.148144103655110e+00	 0.000000000000000e+00	-1.140438098155627e-01
0	 1.185182385152000e+00	 0.000000000000000e+00	-3.083005930099528e-01
0	 1.222220466646889e+00	 0.000000000000000e+00	-6.196217149241280e-01
0	 1.259258414807111e+00	 0.000000000000000e+00	-1.040269332399263e+00
0	 1.296296296300000e+00	 0.000000000000000e+00	-1.562504148060410e+00
0	 1.333334177792889e+00	 0.000000000000000e+00	-2.178585410325407e+00
0	 1.370372125953112e+00	 0.000000000000000e+00	-2.880770913453049e+00
0	 1.407410207448001e+00	 0.000000000000000e+00	-3.661316997630520e+00
0	 1.444448488944890e+00	 0.000000000000000e+00	-4.512478549100074e+00
0	 1.481487037111112e+00	 0.000000000000000e+00	-5.426509000324954e+00
0	 1.481487037111112e+00	 0.000000000000000e+00	-5.426509000324954e+00
0	 1.518525901947152e+00	 0.000000000000000e+00	-6.233137834390428e+00
0	 1.555565066786090e+00	 0.000000000000000e+00	-6.774888349006368e+00
0	 1.592604498294163e+00	 0.000000000000000e+00	-7.063202811073872e+00
0	 1.629644163137602e+00	 0.000000000000000e+00	-7.109522424532572e+00
0	 1.666684027982641e+00	 0.000000000000000e+00	-6.925287330453731e+00
0	 1.703724059495513e+00	 0.000000000000000e+00	-6.521936607118934e+00
0	 1.740764224342452e+00	 0.000000000000000e+00	-5.910908270084539e+00
0	 1.777804489189690e+00	 0.000000000000000e+00	-5.103639272231641e+00
0	 1.814844820703462e+00	 0.000000000000000e+00	-4.111565503801863e+00
0	 1.851885185550002e+00	 0.000000000000000e+00	-2.946121792418540e+00
0	 1.851885185550002e+00	 0.000000000000000e+00	-2.946121792418540e+00
0	 1.888915555851201e+00	 0.000000000000000e+00	-1.712984099505727e+00
0	 1.925945926151601e+00	 0.000000000000000e+00	-5.107371824258156e-01
0	 1.962976296451401e+00	 0.000000000000000e+00	 6.588106780876775e-01
0	 2.000006666750801e+00	 0.000000000000000e+00	 1.793851201301033e+00
0	 2.037037037050001e+00	 0.000000000000000e+00	 2.892576106480361e+00
0	 2.074067407349200e+00	 0.000000000000000e+00	 3.953177112891549e+00
0	 2.111097777648601e+00	 0.000000000000000e+00	 4.973845939800326e+00
0	 2.148128147948400e+00	 0.000000000000000e+00	 5.952774306472233e+00
0	 2.185158518248799e+00	 0.000000000000000e+00	 6.888153932172634e+00
0	 2.222188888549998e+00	 0.000000000000000e+00	 7.778176536166659e+00
0	 2.222188888549998e+00	 0.000000000000000e+00	 7.778176536166659e+00
0	 2.259229258952148e+00	 0.000000000000000e+00	 8.585476645370161e+00
0	 2.296269629355197e+00	 0.000000000000000e+00	 9.277229917252400e+00
0	 2.333309999759047e+00	 0.000000000000000e+00	 9.859141960804230e+00
0	 2.370350370163597e+00	 0.000000000000000e+00	 1.033691838501542e+01
0	 2.407390740568747e+00	 0.000000000000000e+00	 1.071626479887460e+01
0	 2.444431110974397e+00	 0.000000000000000e+00	 1.100288681136935e+01
0	 2.481471481380447e+00	 0.000000000000000e+00	 1.120249003148609e+01
0	 2.518511851786798e+00	 0.000000000000000e+00	 1.132078006821015e+01
0	 2.555552222193348e+00	 0.000000000000000e+00	 1.136346253052577e+01
0	 2.592592592600000e+00	 0.000000000000000e+00	 1.133624302741605e+01
0	 2.592592592600000e+00	 0.000000000000000e+00	 1.133624302741605e+01
0	 2.629632963006650e+00	 0.000000000000000e+00	 1.127890621183350e+01
0	 2.666673333413201e+00	 0.000000000000000e+00	 1.122715585629163e+01
0	 2.703713703819551e+00	 0.000000000000000e+00	 1.118057624911423e+01
0	 2.740754074225602e+00	 0.000000000000000e+00	 1.113875167862513e+01
0	 2.777794444631251e+00	 0.000000000000000e+00	 1.110126643314820e+01
0	 2.814834815036402e+00	 0.000000000000000e+00	 1.106770480100731e+01
0	 2.851875185440952e+00	 0.000000000000000e+00	 1.103765107052640e+01
0	 2.888915555844801e+00	 0.000000000000000e+00	 1.101068953002941e+01
0	 2.925955926247851e+00	 0.000000000000000e+00	 1.098640446784034e+01
0	 2.962996296650002e+00	 0.000000000000000e+00	 1.096438017228318e+01
0	 2.962996296650002e+00	 0.000000000000000e+00	 1.096438017228319e+01
0	 3.000026666951201e+00	 0.000000000000000e+00	 1.094325051278749e+01
0	 3.037057037251600e+00	 0.000000000000000e+00	 1.092197532340061e+01
0	 3.074087407551401e+00	 0.000000000000000e+00	 1.090064487432162e+01
0	 3.111117777850801e+00	 0.000000000000000e+00	 1.087934943574958e+01
0	 3.148148148150001e+00	 0.000000000000000e+00	 1.085817927788358e+01
0	 3.185178518449201e+00	 0.000000000000000e+00	 1.083722467092271e+01
0	 3.222208888748601e+00	 0.000000000000000e+00	 1.081657588506606e+01
0	 3.259239259048400e+00	 0.000000000000000e+00	 1.079632319051272e+01
0	 3.296269629348799e+00	 0.000000000000000e+00	 1.077655685746179e+01
0	 3.333299999649998e+00	 0.000000000000000e+00	 1.075736715611241e+01
0	 3.333299999649998e+00	 0.000000000000000e+00	 1.075736715611240e+01
0	 3.370340370052147e+00	 0.000000000000000e+00	 1.073908951485090e+01
0	 3.407380740455197e+00	 0.000000000000000e+00	 1.072194674609536e+01
0	 3.444421110859047e+00	 0.000000000000000e+00	 1.070584490743828e+01
0	 3.481461481263596e+00	 0.000000000000000e+00	 1.069069005647224e+01
0	 3.518501851668747e+00	 0.000000000000000e+00	 1.067638825078973e+01
0	 3.555542222074398e+00	 0.000000000000000e+00	 1.066284554798332e+01
0	 3.592582592480448e+00	 0.000000000000000e+00	 1.064996800564555e+01
0	 3.629622962886798e+00	 0.000000000000000e+00	 1.063766168136898e+01
0	 3.666663333293348e+00	 0.000000000000000e+00	 1.062583263274617e+01
0	 3.703703703700000e+00	 0.000000000000000e+00	 1.061438691736969e+01
0	 3.703703703700000e+00	 0.000000000000000e+00	 1.061438691736969e+01
0	 3.740744074106651e+00	 0.000000000000000e+00	 1.060311638268346e+01
0	 3.777784444513201e+00	 0.000000000000000e+00	 1.059189622277181e+01
0	 3.814824814919551e+00	 0.000000000000000e+00	 1.058075751518797e+01
0	 3.851865185325602e+00	 0.000000000000000e+00	 1.056973133748511e+01
0	 3.888905555731252e+00	 0.000000000000000e+00	 1.055884876721646e+01
0	 3.925945926136402e+00	 0.000000000000000e+00	 1.054814088193521e+01
0	 3.962986296540952e+00	 0.000000000000000e+00	 1.053763875919457e+01
0	 4.000026666944802e+00	 0.000000000000000e+00	 1.052737347654775e+01
0	 4.037067037347851e+00	 0.000000000000000e+00	 1.051737611154798e+01
0	 4.074107407750003e+00	 0.000000000000000e+00	 1.050767774174845e+01
0	 4.074107407750003e+00	 0.000000000000000e+00	 1.050767774174845e+01
0	 4.111137778051202e+00	 0.000000000000000e+00	 1.049831896027951e+01
0	 4.148168148351601e+00	 0.000000000000000e+00	 1.048929779592418e+01
0	 4.185198518651401e+00	 0.000000000000000e+00	 1.048058920529209e+01
0	 4.222228888950800e+00	 0.000000000000000e+00	 1.047216814499293e+01
0	 4.259259259250000e+00	 0.000000000000000e+00	 1.046400957163631e+01
0	 4.296289629549201e+00	 0.000000000000000e+00	 1.045608844183191e+01
0	 4.333319999848601e+00	 0.000000000000000e+00	 1.044837971218936e+01
0	 4.370350370148401e+00	 0.000000000000000e+00	 1.044085833931829e+01
0	 4.407380740448801e+00	 0.000000000000000e+00	 1.043349927982835e+01
0	 4.444411110749998e+00	 0.000000000000000e+00	 1.042627749032917e+01
0	 4.444411110749998e+00	 0.000000000000000e+00	 1.042627749032917e+01
0	 4.481451475596535e+00	 0.000000000000000e+00	 1.041914712040742e+01
0	 4.518491807110308e+00	 0.000000000000000e+00	 1.041208771779780e+01
0	 4.555532071957548e+00	 0.000000000000000e+00	 1.040510653478984e+01
0	 4.592572236804486e+00	 0.000000000000000e+00	 1.039821082417601e+01
0	 4.629612268317358e+00	 0.000000000000000e+00	 1.039140783925156e+01
0	 4.666652133162397e+00	 0.000000000000000e+00	 1.038470483381444e+01
0	 4.703691798005836e+00	 0.000000000000000e+00	 1.037810906216523e+01
0	 4.740731229513909e+00	 0.000000000000000e+00	 1.037162777910705e+01
0	 4.777770394352848e+00	 0.000000000000000e+00	 1.036526823994551e+01
0	 4.814809259188888e+00	 0.000000000000000e+00	 1.035903770048865e+01
0	 4.814809259188888e+00	 0.000000000000000e+00	 1.035903770048864e+01
0	 4.851847807355111e+00	 0.000000000000000e+00	 1.035293157180555e+01
0	 4.888886088852000e+00	 0.000000000000000e+00	 1.034693669249491e+01
0	 4.925924170346889e+00	 0.000000000000000e+00	 1.034104745943950e+01
0	 4.962962118507111e+00	 0.000000000000000e+00	 1.033525826872639e+01
0	 4.999999999999999e+00	 0.000000000000000e+00	 1.032956351564668e+01
0	 5.037037881492887e+00	 0.000000000000000e+00	 1.032395759469511e+01
0	 5.074075829653110e+00	 0.000000000000000e+00	 1.031843489956972e+01
0	 5.111113911148001e+00	 0.000000000000000e+00	 1.031298982317154e+01
0	 5.148152192644890e+00	 0.000000000000000e+00	 1.030761675760433e+01
0	 5.185190740811112e+00	 0.000000000000000e+00	 1.030231009417429e+01
0	 5.185190740811112e+00	 0.000000000000000e+00	 1.030231009417429e+01
0	 5.222229605647151e+00	 0.000000000000000e+00	 1.029705808387956e+01
0	 5.259268770486091e+00	 0.000000000000000e+00	 1.029185332138284e+01
0	 5.296308201994164e+00	 0.000000000000000e+00	 1.028669671312959e+01
0	 5.333347866837603e+00	 0.000000000000000e+00	 1.028158916588614e+01
0	 5.370387731682643e+00	 0.000000000000000e+00	 1.027653158673962e+01
0	 5.407427763195515e+00	 0.000000000000000e+00	 1.027152488309788e+01
0	 5.444467928042457e+00	 0.000000000000000e+00	 1.026656996268940e+01
0	 5.481508192889694e+00	 0.000000000000000e+00	 1.026166773356318e+01
0	 5.518548524403467e+00	 0.000000000000000e+00	 1.025681910408876e+01
0	 5.555588889250002e+00	 0.000000000000000e+00	 1.025202498295605e+01
0	 5.555588889250002e+00	 0.000000000000000e+00	 1.025202498295605e+01
0	 5.592619259551202e+00	 0.000000000000000e+00	 1.024728043445077e+01
0	 5.629649629851602e+00	 0.000000000000000e+00	 1.024257654569004e+01
0	 5.666680000151401e+00	 0.000000000000000e+00	 1.023791212045919e+01
0	 5.703710370450801e+00	 0.000000000000000e+00	 1.023328596254346e+01
0	 5.740740740750002e+00	 0.000000000000000e+00	 1.022869687572816e+01
0	 5.777771111049200e+00	 0.000000000000000e+00	 1.022414366379858e+01
0	 5.814801481348600e+00	 0.000000000000000e+00	 1.021962513054001e+01
0	 5.851831851648401e+00	 0.000000000000000e+00	 1.021514007973771e+01
0	 5.888862221948800e+00	 0.000000000000000e+00	 1.021068731517699e+01
0	 5.925892592249998e+00	 0.000000000000000e+00	 1.020626564064312e+01
0	 5.925892592249998e+00	 0.000000000000000e+00	 1.020626564064312e+01
0	 5.962932962652147e+00	 0.000000000000000e+00	 1.020186915246402e+01
0	 5.999973333055197e+00	 0.000000000000000e+00	 1.019749492397916e+01
0	 6.037013703459048e+00	 0.000000000000000e+00	 1.019314265452485e+01
0	 6.074054073863598e+00	 0.000000000000000e+00	 1.018881204343746e+01
0	 6.111094444268749e+00	 0.000000000000000e+00	 1.018450279005333e+01
0	 6.148134814674400e+00	 0.000000000000000e+00	 1.018021459370881e+01
0	 6.185175185080451e+00	 0.000000000000000e+00	 1.017594715374024e+01
0	 6.222215555486802e+00	 0.000000000000000e+00	 1.017170016948398e+01
0	 6.259255925893352e+00	 0.000000000000000e+00	 1.016747334027638e+01
0	 6.296296296300000e+00	 0.000000000000000e+00	 1.016326636545377e+01
0	 6.296296296300000e+00	 0.000000000000000e+00	 1.016326636545377e+01
0	 6.333336666706651e+00	 0.000000000000000e+00	 1.015907546343063e+01
0	 6.370377037113201e+00	 0.000000000000000e+00	 1.015489670648183e+01
0	 6.407417407519554e+00	 0.000000000000000e+00	 1.015072957473434e+01
0	 6.444457777925605e+00	 0.000000000000000e+00	 1.014657354831512e+01
0	 6.481498148331255e+00	 0.000000000000000e+00	 1.014242810735115e+01
0	 6.518538518736407e+00	 0.000000000000000e+00	 1.013829273196939e+01
0	 6.555578889140956e+00	 0.000000000000000e+00	 1.013416690229683e+01
0	 6.592619259544807e+00	 0.000000000000000e+00	 1.013005009846041e+01
0	 6.629659629947858e+00	 0.000000000000000e+00	 1.012594180058713e+01
0	 6.666700000350003e+00	 0.000000000000000e+00	 1.012184148880395e+01
0	 6.666700000350003e+00	 0.000000000000000e+00	 1.012184148880395e+01
0	 6.703730370651201e+00	 0.000000000000000e+00	 1.011774782430139e+01
0	 6.740760740951601e+00	 0.000000000000000e+00	 1.011365720745242e+01
0	 6.777791111251401e+00	 0.000000000000000e+00	 1.010956904505074e+01
0	 6.814821481550801e+00	 0.000000000000000e+00	 1.010548274389007e+01
0	 6.851851851850000e+00	 0.000000000000000e+00	 1.010139771076414e+01
0	 6.888882222149200e+00	 0.000000000000000e+00	 1.009731335246667e+01
0	 6.925912592448602e+00	 0.000000000000000e+00	 1.009322907579136e+01
0	 6.962942962748400e+00	 0.000000000000000e+00	 1.008914428753196e+01
0	 6.999973333048802e+00	 0.000000000000000e+00	 1.008505839448216e+01
0	 7.037003703349997e+00	 0.000000000000000e+00	 1.008097080343567e+01
0	 7.037003703349997e+00	 0.000000000000000e+00	 1.008097080343567e+01
0	 7.074044073752147e+00	 0.000000000000000e+00	 1.007687847309466e+01
0	 7.111084444155199e+00	 0.000000000000000e+00	 1.007278049767152e+01
0	 7.148124814559049e+00	 0.000000000000000e+00	 1.006867617479934e+01
0	 7.185165184963600e+00	 0.000000000000000e+00	 1.006456480211124e+01
0	 7.222205555368750e+00	 0.000000000000000e+00	 1.006044567724037e+01
0	 7.259245925774400e+00	 0.000000000000000e+00	 1.005631809781981e+01
0	 7.296286296180451e+00	 0.000000000000000e+00	 1.005218136148270e+01
0	 7.333326666586802e+00	 0.000000000000000e+00	 1.004803476586215e+01
0	 7.370367036993352e+00	 0.000000000000000e+00	 1.004387760859127e+01
0	 7.407407407399999e+00	 0.000000000000000e+00	 1.003970918730320e+01
0	 7.407407407399999e+00	 0.000000000000000e+00	 1.003970918730320e+01
0	 7.444447777806652e+00	 0.000000000000000e+00	 1.003552829801729e+01
0	 7.481488148213201e+00	 0.000000000000000e+00	 1.003133356772603e+01
0	 7.518528518619553e+00	 0.000000000000000e+00	 1.002712404052226e+01
0	 7.555568889025603e+00	 0.000000000000000e+00	 1.002289876049882e+01
0	 7.592609259431255e+00	 0.000000000000000e+00	 1.001865677174853e+01
0	 7.629649629836405e+00	 0.000000000000000e+00	 1.001439711836424e+01
0	 7.666690000240954e+00	 0.000000000000000e+00	 1.001011884443877e+01
0	 7.703730370644806e+00	 0.000000000000000e+00	 1.000582099406497e+01
0	 7.740770741047855e+00	 0.000000000000000e+00	 1.000150261133567e+01
0	 7.777811111450003e+00	 0.000000000000000e+00	 9.997162740343697e+00
0	 7.777811111450003e+00	 0.000000000000000e+00	 9.997162740343697e+00
0	 7.814841481751202e+00	 0.000000000000000e+00	 9.992801863283729e+00
0	 7.851871852051601e+00	 0.000000000000000e+00	 9.988417931925708e+00
0	 7.888902222351401e+00	 0.000000000000000e+00	 9.984009718699818e+00
0	 7.925932592650801e+00	 0.000000000000000e+00	 9.979575996036276e+00
0	 7.962962962950000e+00	 0.000000000000000e+00	 9.975115536365257e+00
0	 7.999993333249201e+00	 0.000000000000000e+00	 9.970627112116984e+00
0	 8.037023703548602e+00	 0.000000000000000e+00	 9.966109495721618e+00
0	 8.074054073848401e+00	 0.000000000000000e+00	 9.961561459609365e+00
0	 8.111084444148801e+00	 0.000000000000000e+00	 9.956981776210423e+00
0	 8.148114814450000e+00	 0.000000000000000e+00	 9.952369217954983e+00
0	 8.148114814450000e+00	 0.000000000000000e+00	 9.952369217954983e+00
0	 8.185155179296538e+00	 0.000000000000000e+00	 9.947722370141832e+00
0	 8.222195510810311e+00	 0.000000000000000e+00	 9.943042044357897e+00
0	 8.259235775657549e+00	 0.000000000000000e+00	 9.938326602044457e+00
0	 8.296275940504488e+00	 0.000000000000000e+00	 9.933574404788805e+00
0	 8.333315972017362e+00	 0.000000000000000e+00	 9.928783814324166e+00
0	 8.370355836862398e+00	 0.000000000000000e+00	 9.923953192529776e+00
0	 8.407395501705842e+00	 0.000000000000000e+00	 9.919080901430879e+00
0	 8.444434933213913e+00	 0.000000000000000e+00	 9.914165303198669e+00
0	 8.481474098052853e+00	 0.000000000000000e+00	 9.909204760150349e+00
0	 8.518512962888888e+00	 0.000000000000000e+00	 9.904197634749170e+00
0	 8.518512962888888e+00	 0.000000000000000e+00	 9.904197634749170e+00
0	 8.555551511055112e+00	 0.000000000000000e+00	 9.899144363038292e+00
0	 8.592589792551999e+00	 0.000000000000000e+00	 9.894045011496253e+00
0	 8.629627874046889e+00	 0.000000000000000e+00	 9.888897388094785e+00
0	 8.666665822207115e+00	 0.000000000000000e+00	 9.883699300466795e+00
0	 8.703703703700002e+00	 0.000000000000000e+00	 9.878448555906401e+00
0	 8.740741585192893e+00	 0.000000000000000e+00	 9.873142961368956e+00
0	 8.777779533353117e+00	 0.000000000000000e+00	 9.867780323471015e+00
0	 8.814817614848005e+00	 0.000000000000000e+00	 9.862358448490454e+00
0	 8.851855896344894e+00	 0.000000000000000e+00	 9.856875142366407e+00
0	 8.888894444511113e+00	 0.000000000000000e+00	 9.851328210699412e+00
0	 8.888894444511113e+00	 0.000000000000000e+00	 9.851328210699412e+00
0	 8.925933309347151e+00	 0.000000000000000e+00	 9.845718707615227e+00
0	 8.962972474186092e+00	 0.000000000000000e+00	 9.840047209584807e+00
0	 9.000011905694164e+00	 0.000000000000000e+00	 9.834310805626725e+00
0	 9.037051570537605e+00	 0.000000000000000e+00	 9.828506584965217e+00
0	 9.074091435382645e+00	 0.000000000000000e+00	 9.822631637030206e+00
0	 9.111131466895516e+00	 0.000000000000000e+00	 9.816683051457280e+00
0	 9.148171631742454e+00	 0.000000000000000e+00	 9.810657918087728e+00
0	 9.185211896589696e+00	 0.000000000000000e+00	 9.804553326968511e+00
0	 9.222252228103468e+00	 0.000000000000000e+00	 9.798366368352307e+00
0	 9.259292592950004e+00	 0.000000000000000e+00	 9.792094132697482e+00
0	 9.259292592950004e+00	 0.000000000000000e+00	 9.792094132697482e+00
0	 9.296322966028265e+00	 0.000000000000000e+00	 9.785740368121630e+00
0	 9.333353355768113e+00	 0.000000000000000e+00	 9.779304729619987e+00
0	 9.370383778832126e+00	 0.000000000000000e+00	 9.772783283448311e+00
0	 9.407414251882889e+00	 0.000000000000000e+00	 9.766172095732006e+00
0	 9.444444791582987e+00	 0.000000000000000e+00	 9.759467232466161e+00
0	 9.481475414595002e+00	 0.000000000000000e+00	 9.752664759515522e+00
0	 9.518506137581515e+00	 0.000000000000000e+00	 9.745760742614545e+00
0	 9.555536977205113e+00	 0.000000000000000e+00	 9.738751247367357e+00
0	 9.592567950128375e+00	 0.000000000000000e+00	 9.731632339247781e+00
0	 9.629599073013889e+00	 0.000000000000000e+00	 9.724400083599390e+00
0	 9.629599073013889e+00	 0.000000000000000e+00	 9.724400083599390e+00
0	 9.666640340670911e+00	 0.000000000000000e+00	 9.717055153132845e+00
0	 9.703681658365491e+00	 0.000000000000000e+00	 9.709601322166055e+00
0	 9.740722909420342e+00	 0.000000000000000e+00	 9.702033403016287e+00
0	 9.777763977158179e+00	 0.000000000000000e+00	 9.694346209171684e+00
0	 9.814804744901718e+00	 0.000000000000000e+00	 9.686534555291820e+00
0	 9.851845095973676e+00	 0.000000000000000e+00	 9.678593257208167e+00
0	 9.888884913696767e+00	 0.000000000000000e+00	 9.670517131924697e+00
0	 9.925924081393710e+00	 0.000000000000000e+00	 9.662300997618505e+00
0	 9.962962482387216e+00	 0.000000000000000e+00	 9.653939673640497e+00
0	 1.000000000000000e+01	 0.000000000000000e+00	 9.645427980516107e+00
1	 1.000000000000000e+00	 0.000000000000000e+00	 3.088936477886011e+01
1	 1.008823457328410e+00	 0.000000000000000e+00	 3.026582853069259e+01
1	 1.017646782159778e+00	 0.000000000000000e+00	 2.966838100384668e+01
1	 1.026469991993312e+00	 0.000000000000000e+00	 2.909530727836132e+01
1	 1.035293104328222e+00	 0.000000000000000e+00	 2.854495105041392e+01
1	 1.044116136663715e+00	 0.000000000000000e+00	 2.801571215416453e+01
1	 1.052939106499000e+00	 0.000000000000000e+00	 2.750604420881250e+01
1	 1.061762031333285e+00	 0.000000000000000e+00	 2.701445238354544e+01
1	 1.070584928665779e+00	 0.000000000000000e+00	 2.653949127354657e+01
1	 1.079407815995689e+00	 0.000000000000000e+00	 2.607976288067416e+01
1	 1.088230710822225e+00	 0.000000000000000e+00	 2.563391469284449e+01
1	 1.088230710822225e+00	 0.000000000000000e+00	 2.563391469284449e+01
1	 1.097055127299335e+00	 0.000000000000000e+00	 2.520640660004523e+01
1	 1.105879566280446e+00	 0.000000000000000e+00	 2.480194799475558e+01
1	 1.114704025265223e+00	 0.000000000000000e+00	 2.441939731426606e+01
1	 1.123528501753334e+00	 0.000000000000000e+00	 2.405764885646890e+01
1	 1.132352993244445e+00	 0.000000000000000e+00	 2.371563138317379e+01
1	 1.141177497238223e+00	 0.000000000000000e+00	 2.339230678816958e+01
1	 1.150002011234334e+00	 0.000000000000000e+00	 2.308666882655702e+01
1	 1.158826532732445e+00	 0.000000000000000e+00	 2.279774190208947e+01
1	 1.167651059232224e+00	 0.000000000000000e+00	 2.252457990945501e+01
1	 1.176475588233336e+00	 0.000000000000000e+00	 2.226626512861812e+01
1	 1.176475588233336e+00	 0.000000000000000e+00	 2.226626512861812e+01
1	 1.185298617647136e+00	 0.000000000000000e+00	 2.202453480215459e+01
1	 1.194121647061736e+00	 0.000000000000000e+00	 2.180114027970498e+01
1	 1.202944676476936e+00	 0.000000000000000e+00	 2.159535019978629e+01
1	 1.211767705892536e+00	 0.000000000000000e+00	 2.140645450143713e+01
1	 1.220590735308335e+00	 0.000000000000000e+00	 2.123376365436538e+01
1	 1.229413764724135e+00	 0.000000000000000e+00	 2.107660792224539e+01
1	 1.238236794139735e+00	 0.000000000000000e+00	 2.093433665751128e+01
1	 1.247059823554935e+00	 0.000000000000000e+00	 2.080631762608645e+01
1	 1.255882852969535e+00	 0.000000000000000e+00	 2.069193636057717e+01
1	 1.264705882383334e+00	 0.000000000000000e+00	 2.059059554054010e+01
1	 1.264705882383334e+00	 0.000000000000000e+00	 2.059059554054010e+01
1	 1.273528911796184e+00	 0.000000000000000e+00	 2.050144259330323e+01
1	 1.282351941208134e+00	 0.000000000000000e+00	 2.042372171927156e+01
1	 1.291174970619284e+00	 0.000000000000000e+00	 2.035700227198606e+01
1	 1.299998000029734e+00	 0.000000000000000e+00	 2.030086529610874e+01
1	 1.308821029439584e+00	 0.000000000000000e+00	 2.025490313336112e+01
1	 1.317644058848934e+00	 0.000000000000000e+00	 2.021871904429447e+01
1	 1.326467088257884e+00	 0.000000000000000e+00	 2.019192684515536e+01
1	 1.335290117666534e+00	 0.000000000000000e+00	 2.017415055914744e+01
1	 1.344113147074984e+00	 0.000000000000000e+00	 2.016502408142868e+01
1	 1.352936176483334e+00	 0.000000000000000e+00	 2.016419085721652e+01
1	 1.352936176483334e+00	 0.000000000000000e+00	 2.016419085721652e+01
1	 1.361760705896667e+00	 0.000000000000000e+00	 2.017358829411903e+01
1	 1.370585235310001e+00	 0.000000000000000e+00	 2.019509125985524e+01
1	 1.379409764723334e+00	 0.000000000000000e+00	 2.022826647422859e+01
1	 1.388234294136667e+00	 0.000000000000000e+00	 2.027269167389203e+01
1	 1.397058823550000e+00	 0.000000000000000e+00	 2.032795526440836e+01
1	 1.405883352963333e+00	 0.000000000000000e+00	 2.039365598541414e+01
1	 1.414707882376666e+00	 0.000000000000000e+00	 2.046940258831534e+01
1	 1.423532411789999e+00	 0.000000000000000e+00	 2.055481352597081e+01
1	 1.432356941203333e+00	 0.000000000000000e+00	 2.064951665384663e+01
1	 1.441181470616666e+00	 0.000000000000000e+00	 2.075314894214944e+01
1	 1.441181470616666e+00	 0.000000000000000e+00	 2.075314894214944e+01
1	 1.450004500024999e+00	 0.000000000000000e+00	 2.085919644632669e+01
1	 1.458827529433332e+00	 0.000000000000000e+00	 2.096137221790741e+01
1	 1.467650558841666e+00	 0.000000000000000e+00	 2.105960660630246e+01
1	 1.476473588250000e+00	 0.000000000000000e+00	 2.115383162578364e+01
1	 1.485296617658333e+00	 0.000000000000000e+00	 2.124398090603519e+01
1	 1.494119647066666e+00	 0.000000000000000e+00	 2.132998964445746e+01
1	 1.502942676475000e+00	 0.000000000000000e+00	 2.141179456015047e+01
1	 1.511765705883333e+00	 0.000000000000000e+00	 2.148933384950894e+01
1	 1.520588735291667e+00	 0.000000000000000e+00	 2.156254714336319e+01
1	 1.529411764700000e+00	 0.000000000000000e+00	 2.163137546560348e+01
1	 1.529411764700000e+00	 0.000000000000000e+00	 2.163137546560348e+01
1	 1.538234794108333e+00	 0.000000000000000e+00	 2.169064040490725e+01
1	 1.547057823516667e+00	 0.000000000000000e+00	 2.173525367865433e+01
1	 1.555880852925000e+00	 0.000000000000000e+00	 2.176529121048293e+01
1	 1.564703882333334e+00	 0.000000000000000e+00	 2.178082721155854e+01
1	 1.573526911741667e+00	 0.000000000000000e+00	 2.178193422858477e+01
1	 1.582349941150001e+00	 0.000000000000000e+00	 2.176868319020757e+01
1	 1.591172970558334e+00	 0.000000000000000e+00	 2.174114345187579e+01
1	 1.599995999966668e+00	 0.000000000000000e+00	 2.169938283921734e+01
1	 1.608819029375000e+00	 0.000000000000000e+00	 2.164346768998834e+01
1	 1.617642058783334e+00	 0.000000000000000e+00	 2.157346289464900e+01
1	 1.617642058783334e+00	 0.000000000000000e+00	 2.157346289464899e+01
1	 1.626466587363230e+00	 0.000000000000000e+00	 2.149130910631979e+01
1	 1.635291110942501e+00	 0.000000000000000e+00	 2.139898618013137e+01
1	 1.644115624520522e+00	 0.000000000000000e+00	 2.129657609436613e+01
1	 1.652940123096667e+00	 0.000000000000000e+00	 2.118415904335579e+01
1	 1.661764601670313e+00	 0.000000000000000e+00	 2.106181348393298e+01
1	 1.670589055240833e+00	 0.000000000000000e+00	 2.092961618041422e+01
1	 1.679413478807604e+00	 0.000000000000000e+00	 2.078764224816918e+01
1	 1.688237867370000e+00	 0.000000000000000e+00	 2.063596519582708e+01
1	 1.697062215927397e+00	 0.000000000000000e+00	 2.047465696617002e+01
1	 1.705886519479168e+00	 0.000000000000000e+00	 2.030378797576057e+01
1	 1.705886519479168e+00	 0.000000000000000e+00	 2.030378797576057e+01
1	 1.714709275570436e+00	 0.000000000000000e+00	 2.012217998080312e+01
1	 1.723531991670303e+00	 0.000000000000000e+00	 1.992865969521080e+01
1	 1.732354677776619e+00	 0.000000000000000e+00	 1.972339093415290e+01
1	 1.741177343887234e+00	 0.000000000000000e+00	 1.950653428012962e+01
1	 1.750000000000000e+00	 0.000000000000000e+00	 1.927824716662580e+01
1	 1.758822656112766e+00	 0.000000000000000e+00	 1.903868395922633e+01
1	 1.767645322223381e+00	 0.000000000000000e+00	 1.878799603428384e+01
1	 1.776468008329698e+00	 0.000000000000000e+00	 1.852633185522306e+01
1	 1.785290724429565e+00	 0.000000000000000e+00	 1.825383704656457e+01
1	 1.794113480520832e+00	 0.000000000000000e+00	 1.797065446574742e+01
1	 1.794113480520832e+00	 0.000000000000000e+00	 1.797065446574742e+01
1	 1.802937784072603e+00	 0.000000000000000e+00	 1.767950896446299e+01
1	 1.811762132630000e+00	 0.000000000000000e+00	 1.738317712517882e+01
1	 1.820586521192396e+00	 0.000000000000000e+00	 1.708172917657276e+01
1	 1.829410944759166e+00	 0.000000000000000e+00	 1.677523396308595e+01
1	 1.838235398329687e+00	 0.000000000000000e+00	 1.646375897758192e+01
1	 1.847059876903333e+00	 0.000000000000000e+00	 1.614737039307352e+01
1	 1.855884375479479e+00	 0.000000000000000e+00	 1.582613309354868e+01
1	 1.864708889057499e+00	 0.000000000000000e+00	 1.550011070392396e+01
1	 1.873533412636770e+00	 0.000000000000000e+00	 1.516936561915548e+01
1	 1.882357941216666e+00	 0.000000000000000e+00	 1.483395903253378e+01
1	 1.882357941216666e+00	 0.000000000000000e+00	 1.483395903253378e+01
1	 1.891180970624999e+00	 0.000000000000000e+00	 1.449815321142112e+01
1	 1.900004000033333e+00	 0.000000000000000e+00	 1.416605112256843e+01
1	 1.908827029441666e+00	 0.000000000000000e+00	 1.383764642962775e+01
1	 1.917650058849999e+00	 0.000000000000000e+00	 1.351293291286551e+01
1	 1.926473088258333e+00	 0.000000000000000e+00	 1.319190446649194e+01
1	 1.935296117666666e+00	 0.000000000000000e+00	 1.287455509606388e+01
1	 1.944119147074999e+00	 0.000000000000000e+00	 1.256087891595799e+01
1	 1.952942176483333e+00	 0.000000000000000e+00	 1.225087014691243e+01
1	 1.961765205891666e+00	 0.000000000000000e+00	 1.194452311363527e+01
1	 1.970588235300000e+00	 0.000000000000000e+00	 1.164183224247659e+01
1	 1.970588235300000e+00	 0.000000000000000e+00	 1.164183224247659e+01
1	 1.979411264708333e+00	 0.000000000000000e+00	 1.134206849550443e+01
1	 1.988234294116667e+00	 0.000000000000000e+00	 1.104452205247717e+01
1	 1.997057323525000e+00	 0.000000000000000e+00	 1.074921593195819e+01
1	 2.005880352933334e+00	 0.000000000000000e+00	 1.045617274751243e+01
1	 2.014703382341667e+00	 0.000000000000000e+00	 1.016541471657450e+01
1	 2.023526411750000e+00	 0.000000000000000e+00	 9.876963669084985e+00
1	 2.032349441158334e+00	 0.000000000000000e+00	 9.590841055901560e+00
1	 2.041172470566667e+00	 0.000000000000000e+00	 9.307067956992148e+00
1	 2.049995499975000e+00	 0.000000000000000e+00	 9.025665089416499e+00
1	 2.058818529383334e+00	 0.000000000000000e+00	 8.746652815102307e+00
1	 2.058818529383334e+00	 0.000000000000000e+00	 8.746652815102305e+00
1	 2.067643058796667e+00	 0.000000000000000e+00	 8.470182218577150e+00
1	 2.076467588210001e+00	 0.000000000000000e+00	 8.196480186524562e+00
1	 2.085292117623334e+00	 0.000000000000000e+00	 7.925538930727393e+00
1	 2.094116647036667e+00	 0.000000000000000e+00	 7.657350794247311e+00
1	 2.102941176450000e+00	 0.000000000000000e+00	 7.391908248670259e+00
1	 2.111765705863333e+00	 0.000000000000000e+00	 7.129203891421067e+00
1	 2.120590235276666e+00	 0.000000000000000e+00	 6.869230443144977e+00
1	 2.129414764689999e+00	 0.000000000000000e+00	 6.611980745154355e+00
1	 2.138239294103332e+00	 0.000000000000000e+00	 6.357447756938672e+00
1	 2.147063823516666e+00	 0.000000000000000e+00	 6.105624553735761e+00
1	 2.147063823516666e+00	 0.000000000000000e+00	 6.105624553735761e+00
1	 2.155886852925016e+00	 0.000000000000000e+00	 5.856792741061682e+00
1	 2.164709882333466e+00	 0.000000000000000e+00	 5.611177098306801e+00
1	 2.173532911742116e+00	 0.000000000000000e+00	 5.368812838744009e+00
1	 2.182355941151066e+00	 0.000000000000000e+00	 5.129734606191146e+00
1	 2.191178970560415e+00	 0.000000000000000e+00	 4.893976486475962e+00
1	 2.200001999970266e+00	 0.000000000000000e+00	 4.661572018625208e+00
1	 2.208825029380716e+00	 0.000000000000000e+00	 4.432554205785527e+00
1	 2.217648058791865e+00	 0.000000000000000e+00	 4.206955525883766e+00
1	 2.226471088203815e+00	 0.000000000000000e+00	 3.984807942033700e+00
1	 2.235294117616666e+00	 0.000000000000000e+00	 3.766142912696368e+00
1	 2.235294117616666e+00	 0.000000000000000e+00	 3.766142912696368e+00
1	 2.244117147030466e+00	 0.000000000000000e+00	 3.553027792093529e+00
1	 2.252940176445066e+00	 0.000000000000000e+00	 3.347426223175388e+00
1	 2.261763205860265e+00	 0.000000000000000e+00	 3.149215181765743e+00
1	 2.270586235275865e+00	 0.000000000000000e+00	 2.958273555875867e+00
1	 2.279409264691664e+00	 0.000000000000000e+00	 2.774482108696366e+00
1	 2.288232294107464e+00	 0.000000000000000e+00	 2.597723442445269e+00
1	 2.297055323523064e+00	 0.000000000000000e+00	 2.427881963049221e+00
1	 2.305878352938263e+00	 0.000000000000000e+00	 2.264843845635673e+00
1	 2.314701382352864e+00	 0.000000000000000e+00	 2.108497000814076e+00
1	 2.323524411766664e+00	 0.000000000000000e+00	 1.958731041725495e+00
1	 2.323524411766664e+00	 0.000000000000000e+00	 1.958731041725494e+00
1	 2.332348940767776e+00	 0.000000000000000e+00	 1.815174217079086e+00
1	 2.341173467267554e+00	 0.000000000000000e+00	 1.677525547566513e+00
1	 2.349997988765666e+00	 0.000000000000000e+00	 1.545708215181749e+00
1	 2.358822502761778e+00	 0.000000000000000e+00	 1.419646556392787e+00
1	 2.367647006755555e+00	 0.000000000000000e+00	 1.299266040765211e+00
1	 2.376471498246666e+00	 0.000000000000000e+00	 1.184493250060545e+00
1	 2.385295974734777e+00	 0.000000000000000e+00	 1.075255857797107e+00
1	 2.394120433719554e+00	 0.000000000000000e+00	 9.714826092614743e-01
1	 2.402944872700665e+00	 0.000000000000000e+00	 8.731033019589671e-01
1	 2.411769289177776e+00	 0.000000000000000e+00	 7.800487664920347e-01
1	 2.411769289177776e+00	 0.000000000000000e+00	 7.800487664920346e-01
1	 2.420592184004311e+00	 0.000000000000000e+00	 6.924311388506469e-01
1	 2.429415071334221e+00	 0.000000000000000e+00	 6.103494487073129e-01
1	 2.438237968666715e+00	 0.000000000000000e+00	 5.337621617863773e-01
1	 2.447060893501001e+00	 0.000000000000000e+00	 4.626283008448996e-01
1	 2.455883863336285e+00	 0.000000000000000e+00	 3.969074346946218e-01
1	 2.464706895671778e+00	 0.000000000000000e+00	 3.365596674667702e-01
1	 2.473530008006687e+00	 0.000000000000000e+00	 2.815456281134729e-01
1	 2.482353217840222e+00	 0.000000000000000e+00	 2.318264601398355e-01
1	 2.491176542671590e+00	 0.000000000000000e+00	 1.873638115608430e-01
1	 2.500000000000000e+00	 0.000000000000000e+00	 1.481198250774499e-01
