label=Stress xy
num_items=11728

0:1.5963603943629362e-02
1:1.5999901610801778e-02
2:1.4886098237475490e-01
3:2.3872801807066887e-01
4:4.3136102819654965e-02
5:-1.3062271340465436e-02
6:-6.5293435454932061e-02
7:-7.6323660491517606e-02
8:-7.2984975738486432e-02
9:-4.3168174601824830e-03
10:-5.7513358426694923e-02
11:-1.2563398862732020e-01
12:-1.6143594293427557e-01
13:3.5396983785305751e-02
14:8.0751429136989475e-02
15:1.5101396662025276e-02
16:2.4761047506605971e-01
17:1.7379869166784809e-01
18:-1.3390094707390154e-03
19:-1.0409963886138886e-01
20:-6.9113935436903612e-02
21:-4.8952234462950737e-02
22:-2.4804585102563899e-02
23:-1.8258283041369689e-02
24:-1.4510369151978048e-01
25:-1.1378642455510636e-01
26:-1.5263444387664657e-02
27:2.9479752880478764e-02
28:-3.1606968565051331e-02
29:-4.6937613848882058e-02
30:1.5620889301189003e-02
31:5.4972769203511358e-02
32:-1.1945896768383657e-01
33:-5.2324724655108269e-02
34:1.7150531932737020e-01
35:3.9784324628893025e-01
36:-1.9280213180173457e-02
37:2.0231625978869273e-02
38:1.7308110648906966e-01
39:3.7664164316194793e-01
40:2.3962636402504945e-02
41:2.5946093319418398e-02
42:1.3063347921205676e-01
43:3.4649203786736010e-01
44:5.3881916044045956e-02
45:5.5413747826724959e-02
46:1.5459529301488614e-01
47:3.7855385936808406e-01
48:5.2173164236986991e-01
49:7.2293585855299403e-01
50:8.9839968418794025e-01
51:9.4713426948515345e-01
52:5.1281675679146699e-01
53:7.2101437370481625e-01
54:8.6871128205575743e-01
55:8.7726798470808243e-01
56:5.1659451520660260e-01
57:7.6868607255413002e-01
58:9.2314587257396852e-01
59:9.0296333968070475e-01
60:5.6095597937860342e-01
61:8.3265801093265368e-01
62:9.9923162702696133e-01
63:9.7596789076097501e-01
64:9.3784985815671629e-01
65:8.7180816949975781e-01
66:7.2815576491374956e-01
67:6.0558489880505439e-01
68:8.4579515970416730e-01
69:7.8680428912529221e-01
70:7.2087107130682038e-01
71:6.7550002424809852e-01
72:8.4920052370056254e-01
73:7.9404207010944461e-01
74:8.0062540552098582e-01
75:8.3049505711145044e-01
76:9.1717316832521067e-01
77:8.7137863554746087e-01
78:9.1721353428499419e-01
79:9.8358627785833941e-01
80:5.4520897234977972e-01
81:4.4474504018959460e-01
82:3.3118556117455800e-01
83:2.5094896532946909e-01
84:6.5127729492083009e-01
85:5.9103059677594694e-01
86:4.8971503850485643e-01
87:4.0334666588688217e-01
88:8.4267986542441220e-01
89:8.2107301019874102e-01
90:7.2247365084913939e-01
91:6.1468735608503511e-01
92:1.0127264475939679e+00
93:1.0074707942422623e+00
94:9.0323989126639825e-01
95:7.7516997983515501e-01
96:2.0866877163870828e-01
97:1.3191110983740376e-01
98:4.8312709127281236e-02
99:7.1728952242475956e-03
100:3.5729516091620506e-01
101:2.8102849989185097e-01
102:2.0378504076275769e-01
103:1.6223902026128534e-01
104:5.5362740523837817e-01
105:4.5857963048066841e-01
106:3.7124116184895489e-01
107:3.2661936670859432e-01
108:6.9963691670473094e-01
109:5.8201747522096825e-01
110:4.7625451957190101e-01
111:4.2583485700854357e-01
112:-3.5458066145949351e-03
113:-3.6393651036680246e-03
114:1.8278498485149976e-02
115:3.6307863902504442e-02
116:1.4641269473310550e-01
117:1.2588449751426459e-01
118:1.1338405872805601e-01
119:1.1179686836881154e-01
120:3.0840149963502822e-01
121:2.7394294762576843e-01
122:2.3404435737235782e-01
123:2.1447811588264848e-01
124:4.0699792500469262e-01
125:3.6868987582827767e-01
126:3.1990888824949587e-01
127:2.9333341865278723e-01
128:4.1545957269430174e-02
129:3.9724429910170736e-02
130:2.4198247937500209e-02
131:1.1417668748516845e-02
132:1.1253716142557808e-01
133:1.1015892277619072e-01
134:1.0017876635726765e-01
135:8.8936543633636594e-02
136:2.0960001742675438e-01
137:2.0278239288880065e-01
138:1.9238536572722950e-01
139:1.7938485374639065e-01
140:2.8543654744557040e-01
141:2.7399867893505059e-01
142:2.5838106744857603e-01
143:2.4099718504893991e-01
144:7.1143932375391508e-03
145:5.7678379421634727e-03
146:1.1739409377921175e-02
147:1.7055100869595909e-02
148:8.2391805516006750e-02
149:7.3056505097731789e-02
150:6.6161384273934934e-02
151:6.3752630384497549e-02
152:1.6984884978434950e-01
153:1.5258637643951706e-01
154:1.3425047934522200e-01
155:1.2495377745070765e-01
156:2.2875928700871981e-01
157:2.0679680497835926e-01
158:1.8348887255898233e-01
159:1.7143360838114011e-01
160:1.8565503849129757e-02
161:1.7843196778273382e-02
162:1.2884806112306241e-02
163:8.8001161156242239e-03
164:6.3029200137820054e-02
165:6.0669880617322536e-02
166:5.5819086924859103e-02
167:5.1276634430168513e-02
168:1.2197081004479375e-01
169:1.1701885149851531e-01
170:1.1010886056472410e-01
171:1.0350678969052141e-01
172:1.6735728352531384e-01
173:1.6028388882176145e-01
174:1.5026682399352626e-01
175:1.4099029272204128e-01
176:7.3745075151360733e-03
177:6.6604330371231304e-03
178:7.9880951724605846e-03
179:9.2447348332462213e-03
180:4.8776984516472825e-02
181:4.4932183912878017e-02
182:4.1394470536927554e-02
183:3.9474012887059706e-02
184:9.9332370102677828e-02
185:9.1830529822357107e-02
186:8.3441168663773421e-02
187:7.8445735462809293e-02
188:1.3530556638370642e-01
189:1.2530045883539140e-01
190:1.1432304721496285e-01
191:1.0779415512992518e-01
192:9.5453701246100923e-03
193:9.1408124829120072e-03
194:7.5321983197826564e-03
195:6.2376129976968609e-03
196:3.8604945657270927e-02
197:3.6800791055636918e-02
198:3.4171022445713857e-02
199:3.2080872514825852e-02
200:7.6357197436740964e-02
201:7.2760712554411494e-02
202:6.8258979623578492e-02
203:6.4698795766206907e-02
204:1.0501275058203201e-01
205:1.0008343717688852e-01
206:9.3756073504574697e-02
207:8.8757875285693191e-02
208:5.7584782410711292e-03
209:5.3879987256608740e-03
210:5.5168262621283779e-03
211:5.6890505282704475e-03
212:3.0992010821728345e-02
213:2.9191365877908458e-02
214:2.7253891080369724e-02
215:2.5991563940893195e-02
216:6.2706378006930213e-02
217:5.9115952543667305e-02
218:5.4886279377339697e-02
219:5.2073583003880854e-02
220:8.6001206713705133e-02
221:8.1113109772308900e-02
222:7.5445321765996928e-02
223:7.1689143568821945e-02
224:5.6871381684382664e-03
225:5.4429217620022121e-03
226:4.8624567406484664e-03
227:4.4118363052172566e-03
228:2.5365790106509498e-02
229:2.4192638445803060e-02
230:2.2682551079599291e-02
231:2.1571377861839186e-02
232:5.0742374151906161e-02
233:4.8409215180865994e-02
234:4.5578874576342528e-02
235:4.3502392320778113e-02
236:6.9897061378110456e-02
237:6.6711642524314704e-02
238:6.2791347920646057e-02
239:5.9905215891664566e-02
240:4.2285449238532022e-03
241:4.0207501816776018e-03
242:3.9103266051940550e-03
243:3.8506068356835010e-03
244:2.1006362640475621e-02
245:2.0027027272596337e-02
246:1.8885577533945153e-02
247:1.8089417290092207e-02
248:4.2411099407956586e-02
249:4.0444802451547128e-02
250:3.8067497568016355e-02
251:3.6403118021835816e-02
252:5.8395855688622232e-02
253:5.5698367045116853e-02
254:5.2464045550668900e-02
255:5.0204841693122747e-02
256:3.7980120009907911e-03
257:3.6460054258113128e-03
258:3.3931327181319182e-03
259:3.2035389275129581e-03
260:1.7684754501819302e-02
261:1.6947868616585857e-02
262:1.6034274210077110e-02
263:1.5376016251869256e-02
264:3.5574663360258982e-02
265:3.4102838665687446e-02
266:3.2316630196546875e-02
267:3.1029514201586072e-02
268:4.9077012749491444e-02
269:4.7061627228278231e-02
270:4.4600072748680913e-02
271:4.2821891977277426e-02
272:3.1178331075971356e-03
273:2.9916153064597881e-03
274:2.8697636231213093e-03
275:2.7862694222471488e-03
276:1.5041827860709686e-02
277:1.4447871851209722e-02
278:1.3729895179046773e-02
279:1.3215487578611467e-02
280:3.0366891573979600e-02
281:2.9171663960224043e-02
282:2.7708068327228864e-02
283:2.6659278386713729e-02
284:4.1907476875865157e-02
285:4.0263086818770520e-02
286:3.8255986341490460e-02
287:3.6819270216151924e-02
288:2.7384004821042951e-03
289:2.6391529127448798e-03
290:2.5019991591065209e-03
291:2.4008853023716691e-03
292:1.2951689040302292e-02
293:1.2473414734446841e-02
294:1.1882038699718279e-02
295:1.1453797063955948e-02
296:2.6125842210883318e-02
297:2.5166558345585975e-02
298:2.3988065074937937e-02
299:2.3133778189410193e-02
300:3.6087916267280321e-02
301:3.4769927627436345e-02
302:3.3146684654293448e-02
303:3.1968396371836030e-02
304:2.3513682768513434e-03
305:2.2674640493223620e-03
306:2.1700813630747108e-03
307:2.0996693643005235e-03
308:1.1234395854215325e-02
309:1.0837650147091472e-02
310:1.0346114937828875e-02
311:9.9866349739398032e-03
312:2.2693741650333735e-02
313:2.1894213839779207e-02
314:2.0899862370312650e-02
315:2.0172879522306619e-02
316:3.1361428709518739e-02
317:3.0259504470444530e-02
318:2.8890313618975105e-02
319:2.7889587888157787e-02
320:2.0621294823869847e-03
321:1.9908524942874100e-03
322:1.8981562785128719e-03
323:1.8291173085908583e-03
324:9.8003200826157558e-03
325:9.4591396564168463e-03
326:9.0294954121996011e-03
327:8.7112444536353428e-03
328:1.9797109259357359e-02
329:1.9110399252177838e-02
330:1.8246675763050880e-02
331:1.7606281290984252e-02
332:2.7372206262058298e-02
333:2.6425990413430168e-02
334:2.5234671179223823e-02
335:2.4350734519559356e-02
336:1.7935497368774648e-03
337:1.7288911338247024e-03
338:1.6473446575961074e-03
339:1.5859129277450003e-03
340:8.5452260553587848e-03
341:8.2384049977856227e-03
342:7.8455887406443225e-03
343:7.5489724903595075e-03
344:1.7271594334408197e-02
345:1.6652277191137752e-02
346:1.5858638531101178e-02
347:1.5259407817811453e-02
348:2.3888633422604937e-02
349:2.3033605610920674e-02
350:2.1937974537923292e-02
351:2.1110674320569185e-02
352:1.5532120509981213e-03
353:1.4914196276797371e-03
354:1.4100501408081600e-03
355:1.3472532246241282e-03
356:7.3920111194582597e-03
357:7.0975699885577458e-03
358:6.7123233136700171e-03
359:6.4153523272993925e-03
360:1.4942496805165998e-02
361:1.4348110871835199e-02
362:1.3570285499636804e-02
363:1.2970353227835440e-02
364:2.0673088355310443e-02
365:1.9852110926530775e-02
366:1.8777280913543384e-02
367:1.7947950936116619e-02
368:1.3136487697816026e-03
369:1.2497735388418238e-03
370:1.1643716525580638e-03
371:1.0970133048019857e-03
372:6.2560984398297654e-03
373:5.9526266342126589e-03
374:5.5460383010746961e-03
375:5.2252858128989969e-03
376:1.2648453582905337e-02
377:1.2034876512665302e-02
378:1.1212630541235133e-02
379:1.0563931839481316e-02
380:1.7502873382651073e-02
381:1.6654438661099058e-02
382:1.5517343525264793e-02
383:1.4620150096285619e-02
384:1.0603128217071083e-03
385:9.8921975956112553e-04
386:8.9178505596821127e-04
387:8.1335023282405204e-04
388:5.0506657023676885e-03
389:4.7127025942458991e-03
390:4.2498510076773516e-03
391:3.8773014140591083e-03
392:1.0210785050309024e-02
393:9.5272278753618066e-03
394:8.5908923762666439e-03
395:7.8370786439461836e-03
396:1.4131685562583381e-02
397:1.3186097744539436e-02
398:1.1890634148040096e-02
399:1.0847564099365204e-02
400:7.7011905016445158e-04
401:6.8531613341825674e-04
402:5.6695802498662583e-04
403:4.7004815585700800e-04
404:3.6719199560349878e-03
405:3.2689818833766720e-03
406:2.7066077461523502e-03
407:2.2462370934998501e-03
408:7.4214559680411520e-03
409:6.6060239236228691e-03
410:5.4679408148316476e-03
411:4.5363086756257933e-03
412:1.0272418428778816e-02
413:9.1439964458903643e-03
414:7.5690696886716686e-03
415:6.2798356988934666e-03
416:4.1606161951100848e-04
417:3.0913505892896049e-04
418:1.5809866178986389e-04
419:3.3256228793834011e-05
420:1.9898290341420054e-03
421:1.4819506125489563e-03
422:7.6401802191428819e-04
423:1.6978739502067168e-04
424:4.0174383196064853e-03
425:2.9896321532213318e-03
426:1.5365506713387951e-03
427:3.3365372727498280e-04
428:5.5617997996930610e-03
429:4.1394741896579081e-03
430:2.1286503816897707e-03
431:4.6407264240157957e-04
432:-1.7324627596950412e-01
433:6.5318449462561906e-02
434:1.6708707600431671e-01
435:1.1241501441797740e-01
436:-1.1873834585424152e-01
437:9.9367825361065865e-02
438:2.1049061932968943e-01
439:1.4101516614232829e-01
440:1.1754865156646666e-02
441:9.1777301856047641e-02
442:9.9169616894758672e-02
443:-1.7247225856474268e-02
444:7.4059818251874965e-02
445:4.5303776982507440e-02
446:-2.9602236719738498e-02
447:-1.5367601410184792e-01
448:5.1838317375143980e-02
449:2.7814638009956948e-03
450:3.3101573839871647e-02
451:7.5050845676281439e-02
452:5.2783122383836242e-02
453:-3.8267140200347723e-02
454:-1.7952506679507767e-04
455:1.2521956328137859e-01
456:-1.2497725517767835e-01
457:-2.1167653336219752e-01
458:-5.7119478620522510e-02
459:2.6423197967300993e-01
460:-2.4390206382274995e-01
461:-2.7168348330974812e-01
462:1.1529719277006049e-02
463:4.7499800049854368e-01
464:8.8501730530211556e-02
465:1.1059581117769317e-01
466:2.1787774523939482e-01
467:4.3533737909777492e-01
468:2.1378022513774328e-01
469:3.3934816320094352e-01
470:4.8756983750979910e-01
471:6.6461216250252897e-01
472:4.9339462075647406e-01
473:8.0921073804466648e-01
474:1.0280054520321127e+00
475:1.1200082672305074e+00
476:7.9239386269566758e-01
477:1.2244771846553220e+00
478:1.4779338342667063e+00
479:1.5019459623202209e+00
480:6.1093680873044653e-01
481:8.7530301704440128e-01
482:1.0421018051593895e+00
483:1.0234997075764241e+00
484:7.9695448523441415e-01
485:1.0027612388175455e+00
486:1.1424689723079655e+00
487:1.1332389628179365e+00
488:1.1639878207316623e+00
489:1.2474322028707916e+00
490:1.3241262750933567e+00
491:1.3270972735611688e+00
492:1.4800107848840043e+00
493:1.4745936449179498e+00
494:1.5086507726502665e+00
495:1.5219865833038564e+00
496:9.6806992178892182e-01
497:9.3221877575365530e-01
498:9.9446332081782240e-01
499:1.0720587977797196e+00
500:1.0903001653934872e+00
501:1.0742383664365598e+00
502:1.1508390484976487e+00
503:1.2297256444354443e+00
504:1.3052499200684318e+00
505:1.3059314345077282e+00
506:1.3620934856507139e+00
507:1.4045086879084303e+00
508:1.5143550495866274e+00
509:1.5122680043615555e+00
510:1.5179938680323855e+00
511:1.5045751819409954e+00
512:1.1054537968089728e+00
513:1.1033142095665323e+00
514:9.9411268910389361e-01
515:8.5594612592210273e-01
516:1.2604131430508843e+00
517:1.2519809949591463e+00
518:1.1311545569250550e+00
519:9.7943681428434670e-01
520:1.4128678577630436e+00
521:1.3756709570600867e+00
522:1.2369790135256384e+00
523:1.0777349534452865e+00
524:1.4836964096123533e+00
525:1.4119873579243638e+00
526:1.2590710091105430e+00
527:1.1009079188891435e+00
528:7.7321315896073617e-01
529:6.4300355807787157e-01
530:5.2506952315355226e-01
531:4.7007870658676565e-01
532:8.8741934524595489e-01
533:7.3958068272169808e-01
534:6.0278672796370025e-01
535:5.4001224892392408e-01
536:9.8117478735452368e-01
537:8.2216702898696159e-01
538:6.7143516076379484e-01
539:6.0392034753558488e-01
540:1.0055486964487359e+00
541:8.4601534480122087e-01
542:6.9398655954674793e-01
543:6.2987511427049891e-01
544:4.5073790533882013e-01
545:4.1179401447232117e-01
546:3.6188996947917712e-01
547:3.3408555692386366e-01
548:5.1963583748075559e-01
549:4.7985837890549743e-01
550:4.2928104955833613e-01
551:4.0067876679375941e-01
552:5.8438511454371456e-01
553:5.4682876729679442e-01
554:4.9807617286589323e-01
555:4.6917569728261721e-01
556:6.1477228741776224e-01
557:5.8424093752634576e-01
558:5.3984246490372201e-01
559:5.0985069734413135e-01
560:3.2533600167580673e-01
561:3.1156825170369351e-01
562:2.9194640052018195e-01
563:2.7125976507385119e-01
564:3.9117672172725088e-01
565:3.7457392859651661e-01
566:3.4919068400365466e-01
567:3.2332917319377330e-01
568:4.5870023648274011e-01
569:4.3950878572807223e-01
570:4.0986742136463034e-01
571:3.8046226111295972e-01
572:4.9722917429965080e-01
573:4.7492089709661434e-01
574:4.4359544627335423e-01
575:4.1450929891229410e-01
576:2.5736994529630214e-01
577:2.3321510617166427e-01
578:2.0840089338247864e-01
579:1.9570998498928605e-01
580:3.0673088399463011e-01
581:2.7888938405587327e-01
582:2.5143443173371949e-01
583:2.3762462847357155e-01
584:3.6201939984454379e-01
585:3.3126588420245118e-01
586:3.0086699572774622e-01
587:2.8517178288830375e-01
588:3.9664933460048923e-01
589:3.6612876465733213e-01
590:3.3435697918681812e-01
591:3.1664550801055191e-01
592:1.9129902040207672e-01
593:1.8313040615390569e-01
594:1.7104330251567076e-01
595:1.6002040680959473e-01
596:2.3267024932990271e-01
597:2.2278595747054303e-01
598:2.0745872680712682e-01
599:1.9365210244926898e-01
600:2.7924595348285453e-01
601:2.6733933390040232e-01
602:2.4908775715969819e-01
603:2.3295966205735991e-01
604:3.0944922898282351e-01
605:2.9568892329143803e-01
606:2.7596112521459371e-01
607:2.5916940084956563e-01
608:1.5346288601598740e-01
609:1.4222213272465001e-01
610:1.3022704703882959e-01
611:1.2314656591835371e-01
612:1.8566975891554649e-01
613:1.7234557030493874e-01
614:1.5853007523510820e-01
615:1.5042253655293511e-01
616:2.2376517257156220e-01
617:2.0842900027913186e-01
618:1.9242231971983353e-01
619:1.8285480033533677e-01
620:2.4969096231786486e-01
621:2.3357432036324757e-01
622:2.1615172908663469e-01
623:2.0534085203122643e-01
624:1.2007669548623939e-01
625:1.1446040415252413e-01
626:1.0705273915330532e-01
627:1.0120274197218976e-01
628:1.4682833031405090e-01
629:1.4002898432517372e-01
630:1.3082210489762791e-01
631:1.2355876209586224e-01
632:1.7852176275124063e-01
633:1.7031100519208345e-01
634:1.5924547798904898e-01
635:1.5058912216566595e-01
636:2.0034297387837632e-01
637:1.9106848271852961e-01
638:1.7890958425680090e-01
639:1.6954783309662735e-01
640:9.8022659274538806e-02
641:9.2475648836729221e-02
642:8.6148786915227274e-02
643:8.1968967168943876e-02
644:1.1966775239944002e-01
645:1.1298635987756042e-01
646:1.0548090864693467e-01
647:1.0052675341221833e-01
648:1.4598346927817379e-01
649:1.3807010823527840e-01
650:1.2913867117077804e-01
651:1.2319056114227828e-01
652:1.6458208654491899e-01
653:1.5595252384764824e-01
654:1.4603986611654074e-01
655:1.3934454125184284e-01
656:7.9956719272091706e-02
657:7.6330536210599431e-02
658:7.1809816200315096e-02
659:6.8475765217797746e-02
660:9.8114626959426368e-02
661:9.3706955867362315e-02
662:8.8144486628941365e-02
663:8.4038339035884313e-02
664:1.2027092840474916e-01
665:1.1492999901767341e-01
666:1.0819600179433861e-01
667:1.0323824431984056e-01
668:1.3604227438720207e-01
669:1.3004521170944860e-01
670:1.2255344663556030e-01
671:1.1706373875121170e-01
672:6.6742325899804847e-02
673:6.3668172481283564e-02
674:6.0009505328068175e-02
675:5.7456778278692493e-02
676:8.1916837425163216e-02
677:7.8180949941905109e-02
678:7.3762038446045591e-02
679:7.0677310755696082e-02
680:1.0068313510143925e-01
681:9.6180461829484615e-02
682:9.0840458096968613e-02
683:8.7097374571646860e-02
684:1.1423411116128059e-01
685:1.0922186806796129e-01
686:1.0323535705640169e-01
687:9.9018935277471798e-02
688:5.6177568380373868e-02
689:5.3879481740592497e-02
690:5.1058106443794271e-02
691:4.9017823558211278e-02
692:6.9123733107973595e-02
693:6.6317868378652500e-02
694:6.2856514816150691e-02
695:6.0351967701387024e-02
696:8.5205856158797139e-02
697:8.1787137399839893e-02
698:7.7569149346233240e-02
699:7.4518777655110682e-02
700:9.6885727673563807e-02
701:9.3038213456511656e-02
702:8.8302333935021973e-02
703:8.4879689473463263e-02
704:4.7970729695993503e-02
705:4.6093046369507167e-02
706:4.3807183692557351e-02
707:4.2171377780367933e-02
708:5.9069566620720819e-02
709:5.6775341504782882e-02
710:5.3987154107994213e-02
711:5.1990318081150018e-02
712:7.2957928565096197e-02
713:7.0163680687979527e-02
714:6.6762241824304722e-02
715:6.4320894772171275e-02
716:8.3126992993898099e-02
717:7.9982778884885933e-02
718:7.6144996891411659e-02
719:7.3385435712370023e-02
720:4.1337518169851262e-02
721:3.9832060912298045e-02
722:3.7974580640900875e-02
723:3.6625587987098723e-02
724:5.0970271430191783e-02
725:4.9125230078041766e-02
726:4.6844855410452427e-02
727:4.5188144740620141e-02
728:6.3071716518977403e-02
729:6.0811032383334275e-02
730:5.8015702017771918e-02
731:5.5984408566420403e-02
732:7.1972675150226137e-02
733:6.9416686122549989e-02
734:6.6256596718720043e-02
735:6.3959213388479833e-02
736:3.5931048039306496e-02
737:3.4671110481854353e-02
738:3.3106592300736863e-02
739:3.1963043656247331e-02
740:4.4335687509010159e-02
741:4.2789948938492070e-02
742:4.0870596350518679e-02
743:3.9466673215906696e-02
744:5.4939134116772800e-02
745:5.3042528845916453e-02
746:5.0684627992493292e-02
747:4.8957510591424148e-02
748:6.2776209174673234e-02
749:6.0627668733920038e-02
750:5.7953150512137952e-02
751:5.5992100306932066e-02
752:3.1371539130078396e-02
753:3.0289143207443629e-02
754:2.8925543725015729e-02
755:2.7913503911132103e-02
756:3.8739821808064345e-02
757:3.7408833100845619e-02
758:3.5730842947779402e-02
759:3.4484995325392773e-02
760:4.8062457527888860e-02
761:4.6422651825848822e-02
762:4.4354024374458387e-02
763:4.2817236920998779e-02
764:5.4975305819130432e-02
765:5.3111927993073647e-02
766:5.0760020111362041e-02
767:4.9011580757219127e-02
768:2.7384447985671665e-02
769:2.6405621568894859e-02
770:2.5151372023534829e-02
771:2.4204167691804140e-02
772:3.3833676736170923e-02
773:3.2628440127042246e-02
774:3.1083432980646017e-02
775:2.9915984115981474e-02
776:4.2013507156455646e-02
777:4.0525330757135609e-02
778:3.8615755964179072e-02
779:3.7171396394785332e-02
780:4.8096653034557679e-02
781:4.6401574101330022e-02
782:4.4224668165753843e-02
783:4.2576831441156184e-02
784:2.3703069610970590e-02
785:2.2762753192344980e-02
786:2.1531399112291089e-02
787:2.0581141405479432e-02
788:2.9298090251058624e-02
789:2.8138210168223196e-02
790:2.6618685830209984e-02
791:2.5445632924623939e-02
792:3.6406449305005993e-02
793:3.4969876020212537e-02
794:3.3086682218216451e-02
795:3.1632019198050934e-02
796:4.1703718293746118e-02
797:4.0063379462836467e-02
798:3.7911836935377925e-02
799:3.6248931329659749e-02
800:2.0071130257257291e-02
801:1.9098870625597317e-02
802:1.7795718179900884e-02
803:1.6767405964888935e-02
804:2.4815925493945637e-02
805:2.3615229750124533e-02
806:2.2005384774147877e-02
807:2.0734669091921627e-02
808:3.0850845263279341e-02
809:2.9360727115966212e-02
810:2.7361667786482718e-02
811:2.5782888955150674e-02
812:3.5355587822233255e-02
813:3.3650891047906625e-02
814:3.1362842614052984e-02
815:2.9555045048923655e-02
816:1.6207517671188467e-02
817:1.5123602927569995e-02
818:1.3638525425202124e-02
819:1.2442717755581027e-02
820:2.0042663337834183e-02
821:1.8702792641553265e-02
822:1.6866716041835223e-02
823:1.5388071840572087e-02
824:2.4922845465940126e-02
825:2.3257249300339889e-02
826:2.0974171339108491e-02
827:1.9135099028533106e-02
828:2.8569992448308261e-02
829:2.6661932020811893e-02
830:2.4045839881405739e-02
831:2.1938051481683270e-02
832:1.1783335075083218e-02
833:1.0489631644771909e-02
834:8.6840074693294717e-03
835:7.2059131156231365e-03
836:1.4572668046523364e-02
837:1.2972774344957305e-02
838:1.0739671201997805e-02
839:8.9115592979286569e-03
840:1.8120796794119213e-02
841:1.6130460113925965e-02
842:1.3352082229746038e-02
843:1.1077404707066356e-02
844:2.0775397592004544e-02
845:1.8493783490663749e-02
846:1.5308537431057373e-02
847:1.2700600930733301e-02
848:6.3826892318891142e-03
849:4.7520238193713496e-03
850:2.4467265429188837e-03
851:5.3844949182504031e-04
852:7.8933750751245656e-03
853:5.8765963948576383e-03
854:3.0256384590354899e-03
855:6.6585269595621430e-04
856:9.8104622973694388e-03
857:7.3010829376308553e-03
858:3.7541107524527231e-03
859:8.1851143934249257e-04
860:1.1248010066085282e-02
861:8.3710437160873733e-03
862:4.3047849019185822e-03
863:9.3964672593893086e-04
864:6.8856073028566667e-02
865:7.4329333849465738e-03
866:-8.2904210790646499e-02
867:-1.8363921707260339e-01
868:-3.2257979671288801e-02
869:-6.6779090938524882e-02
870:-6.3252390131416772e-02
871:-2.7333433672955702e-02
872:-3.4129225095550619e-01
873:-1.9492353748027505e-01
874:1.1337664838468695e-01
875:4.4208538965322913e-01
876:-7.1158272586317284e-01
877:-3.4510933113074527e-01
878:2.7112274489173310e-01
879:8.4203588539161123e-01
880:-2.4625283644509874e-01
881:-2.1930336557146449e-01
882:1.3301362293864727e-01
883:6.4566939072212626e-01
884:7.0554942656949511e-03
885:1.8217703075247382e-01
886:6.4189929523354727e-01
887:1.1688450833785449e+00
888:6.4843626358908213e-01
889:1.0532081891270708e+00
890:1.6067123730212023e+00
891:2.0499443738471492e+00
892:1.1728244507079872e+00
893:1.7316039809870163e+00
894:2.3217487043871929e+00
895:2.6726579450832588e+00
896:9.8677091919386661e-01
897:1.4473595044711727e+00
898:1.7006370571945544e+00
899:1.6922915986765850e+00
900:1.4948892072641613e+00
901:1.9194594851724305e+00
902:2.1072835091018232e+00
903:2.0247005605369810e+00
904:2.2833396275514177e+00
905:2.5554876576510464e+00
906:2.5887550992795427e+00
907:2.4021561916652283e+00
908:2.8213978235007922e+00
909:2.9644503233411861e+00
910:2.8861244797098826e+00
911:2.6375618509964776e+00
912:1.6427526369857512e+00
913:1.6017933878697113e+00
914:1.6210134762983803e+00
915:1.6397078814546058e+00
916:1.9264583866454486e+00
917:1.8158649933652491e+00
918:1.7897861557321058e+00
919:1.8033983416579131e+00
920:2.2482698379427561e+00
921:2.0404122658348776e+00
922:1.9166850741032431e+00
923:1.8899852366137462e+00
924:2.4520361962330512e+00
925:2.1706500002725617e+00
926:1.9458641670129899e+00
927:1.8616195498294990e+00
928:1.6372867855864626e+00
929:1.6264663418083778e+00
930:1.5935503199651126e+00
931:1.5423583721824718e+00
932:1.8049831873109941e+00
933:1.7771388490272146e+00
934:1.6835208796440047e+00
935:1.5724429536999525e+00
936:1.8838421495079274e+00
937:1.8329020837376213e+00
938:1.6880575784559175e+00
939:1.5247545508460574e+00
940:1.8381106853379925e+00
941:1.7662477943800377e+00
942:1.6013203430022038e+00
943:1.4169267591152870e+00
944:1.5028183377759026e+00
945:1.4097293024923643e+00
946:1.2493633493013843e+00
947:1.0936034707649593e+00
948:1.5020858675272315e+00
949:1.3722258313387430e+00
950:1.1971222258684189e+00
951:1.0448788521118348e+00
952:1.4242412666462807e+00
953:1.2562644617991168e+00
954:1.0661406430474361e+00
955:9.2323144411175717e-01
956:1.3008630382720807e+00
957:1.1127258048061091e+00
958:9.1995497459631026e-01
959:7.9498514481310334e-01
960:1.0000641616460004e+00
961:8.4263464765011287e-01
962:6.9357290180116504e-01
963:6.3468808374238872e-01
964:9.5510987000484193e-01
965:8.0416404632790917e-01
966:6.6690681284752140e-01
967:6.2426043669765963e-01
968:8.4354252494493520e-01
969:7.1089009401580971e-01
970:5.9937549891074260e-01
971:5.8257254851882623e-01
972:7.3151092763039727e-01
973:6.2534264821359420e-01
974:5.3986758513994360e-01
975:5.3903720185447146e-01
976:6.2396206564862855e-01
977:5.9998476485601648e-01
978:5.5932905711680714e-01
979:5.2807228611549817e-01
980:6.2549215820335680e-01
981:6.1958745108422919e-01
982:5.9003148634234748e-01
983:5.5626802889089999e-01
984:6.0053558589669032e-01
985:6.2105723197187568e-01
986:6.1048244712487298e-01
987:5.7620158234019370e-01
988:5.6491141247393439e-01
989:5.9987562308991249e-01
990:6.0375528147774471e-01
991:5.7375217060435402e-01
992:5.1339636697952196e-01
993:4.8840173962833505e-01
994:4.5638477704645602e-01
995:4.2866581397899883e-01
996:5.3647785483436783e-01
997:5.0445739551400670e-01
998:4.7032973098221481e-01
999:4.4635944506330016e-01
1000:5.5058742239991687e-01
1001:5.1006300901134283e-01
1002:4.7340572676970533e-01
1003:4.5502705800018184e-01
1004:5.4731441452087048e-01
1005:5.0501493402736297e-01
1006:4.6850543920857923e-01
1007:4.5364975644362288e-01
1008:4.1202267893592809e-01
1009:3.8281525576265019e-01
1010:3.5082744131117422e-01
1011:3.3180415115105139e-01
1012:4.3331443296635280e-01
1013:4.0877746616062816e-01
1014:3.7816963948550192e-01
1015:3.5698500092028057e-01
1016:4.4750919294175628e-01
1017:4.3098962763427601e-01
1018:4.0465927290177678e-01
1019:3.8196640099585411e-01
1020:4.4946048982793529e-01
1021:4.3833534966257520e-01
1022:4.1607442879218426e-01
1023:3.9375822343721217e-01
1024:3.2365789980753878e-01
1025:3.0865889322974915e-01
1026:2.8831786310540858e-01
1027:2.7158014681224613e-01
1028:3.4681485415703750e-01
1029:3.2908889680581099e-01
1030:3.0748507170276007e-01
1031:2.9121061589177100e-01
1032:3.6950066982060636e-01
1033:3.4854415738269440e-01
1034:3.2553308565926775e-01
1035:3.1023074825031327e-01
1036:3.8050440618432019e-01
1037:3.5834535181429616e-01
1038:3.3495034007246571e-01
1039:3.2043471855681688e-01
1040:2.6221829153679566e-01
1041:2.4602490075398983e-01
1042:2.2799674844573148e-01
1043:2.1648420622589620e-01
1044:2.8243623159323278e-01
1045:2.6674013749786057e-01
1046:2.4816414098237338e-01
1047:2.3553443537673174e-01
1048:3.0256924321262846e-01
1049:2.8826863492168253e-01
1050:2.6991909737078990e-01
1051:2.5636738013421001e-01
1052:3.1356790681335739e-01
1053:3.0043414189630080e-01
1054:2.8272302442137826e-01
1055:2.6895683416848548e-01
1056:2.1108474679974504e-01
1057:2.0122587100773484e-01
1058:1.8858155486182973e-01
1059:1.7897134645753771e-01
1060:2.2939032914568347e-01
1061:2.1844315504299366e-01
1062:2.0495661551310879e-01
1063:1.9501090539177648e-01
1064:2.4942965502704884e-01
1065:2.3729507926357588e-01
1066:2.2293541857210833e-01
1067:2.1275386861014539e-01
1068:2.6167742364443164e-01
1069:2.4900382187945333e-01
1070:2.3425440122954863e-01
1071:2.2401712777472160e-01
1072:1.7388602431993994e-01
1073:1.6496807455317702e-01
1074:1.5458569846580186e-01
1075:1.4750258079427972e-01
1076:1.8980449604956995e-01
1077:1.8053214721935990e-01
1078:1.6946700283915692e-01
1079:1.6175961611574585e-01
1080:2.0753081750794003e-01
1081:1.9808243366837722e-01
1082:1.8648698243900355e-01
1083:1.7819170492267644e-01
1084:2.1883908001848923e-01
1085:2.0939895201217018e-01
1086:1.9762759587306189e-01
1087:1.8906155431458610e-01
1088:1.4399886271742424e-01
1089:1.3767186850161883e-01
1090:1.2982360974306417e-01
1091:1.2409245860988631e-01
1092:1.5791301983062431e-01
1093:1.5102319204798828e-01
1094:1.4257540620582618e-01
1095:1.3644946263329885e-01
1096:1.7399037493131839e-01
1097:1.6650776214593016e-01
1098:1.5742819981475700e-01
1099:1.5089800373704260e-01
1100:1.8467556798356319e-01
1101:1.7687249256229015e-01
1102:1.6744108403516117e-01
1103:1.6068679504099076e-01
1104:1.2113742783096995e-01
1105:1.1588308789945127e-01
1106:1.0957644086560002e-01
1107:1.0512140253897655e-01
1108:1.3329389672997952e-01
1109:1.2764972956704318e-01
1110:1.2081967970450024e-01
1111:1.1596789312542788e-01
1112:1.4754433484509946e-01
1113:1.4151350519802397e-01
1114:1.3415354266819809e-01
1115:1.2888782473551180e-01
1116:1.5722650239624136e-01
1117:1.5098690399184092e-01
1118:1.4333331690290979e-01
1119:1.3782847106487581e-01
1120:1.0286665614613690e-01
1121:9.8806479061321673e-02
1122:9.3817220037920826e-02
1123:9.0212506212838176e-02
1124:1.1350854862758430e-01
1125:1.0908837014996117e-01
1126:1.0366745925027693e-01
1127:9.9751156173148947e-02
1128:1.2620955289709312e-01
1129:1.2139879553656797e-01
1130:1.1550284376171281e-01
1131:1.1124121429026733e-01
1132:1.3501923400017485e-01
1133:1.2997042274254614e-01
1134:1.2377981921307923e-01
1135:1.1930265696959147e-01
1136:8.8365171576869003e-02
1137:8.5046545818607613e-02
1138:8.0989199005029266e-02
1139:7.8069138540318328e-02
1140:9.7741621549671254e-02
1141:9.4124170594675038e-02
1142:8.9690559318143181e-02
1143:8.6495063956922538e-02
1144:1.0905197191085012e-01
1145:1.0510369052623002e-01
1146:1.0025252402275572e-01
1147:9.6749271399708875e-02
1148:1.1700154346861238e-01
1149:1.1284688167244673e-01
1150:1.0773280126180694e-01
1151:1.0403266546354673e-01
1152:7.6574107072807845e-02
1153:7.3869920896776353e-02
1154:7.0526757791284256e-02
1155:6.8095247405744672e-02
1156:8.4858566270907584e-02
1157:8.1898355029069086e-02
1158:7.8236623844629066e-02
1159:7.5570145743290365e-02
1160:9.4953528575573487e-02
1161:9.1702678205659999e-02
1162:8.7675280736949177e-02
1163:8.4736741905828653e-02
1164:1.0213361320292115e-01
1165:9.8692523223971054e-02
1166:9.4423445265507000e-02
1167:9.1304007393972611e-02
1168:6.6842458808160907e-02
1169:6.4565884461278159e-02
1170:6.1730048990460938e-02
1171:5.9649741214045621e-02
1172:7.4194656209980087e-02
1173:7.1692889227791171e-02
1174:6.8573221818908611e-02
1175:6.6282908040365102e-02
1176:8.3218621355044778e-02
1177:8.0454754691064279e-02
1178:7.7003838990121504e-02
1179:7.4467391594903037e-02
1180:8.9690865967689784e-02
1181:8.6751811341603660e-02
1182:8.3077946711846970e-02
1183:8.0374332109583987e-02
1184:5.8570924732166324e-02
1185:5.6593554271479322e-02
1186:5.4096876114725967e-02
1187:5.2239912665015341e-02
1188:6.5094757139964043e-02
1189:6.2915802154768316e-02
1190:6.0161857503957604e-02
1191:5.8111147037660960e-02
1192:7.3150600410607697e-02
1193:7.0733240239912315e-02
1194:6.7672812177605485e-02
1195:6.5389800917630567e-02
1196:7.8969555330944838e-02
1197:7.6388271321681078e-02
1198:7.3115696280233469e-02
1199:7.0671000623235294e-02
1200:5.1267817884642429e-02
1201:4.9466224603677417e-02
1202:4.7151491626758892e-02
1203:4.5398639377726126e-02
1204:5.7036715450626663e-02
1205:5.5044230309292480e-02
1206:5.2482095673385507e-02
1207:5.0540414469767751e-02
1208:6.4192225141311149e-02
1209:6.1969505097878679e-02
1210:5.9107909159385186e-02
1211:5.6936769808957538e-02
1212:6.9387457565555463e-02
1213:6.7003478129835967e-02
1214:6.3931004827710705e-02
1215:6.1597355196823113e-02
1216:4.4469672958795989e-02
1217:4.2724004749332009e-02
1218:4.0433502671339307e-02
1219:3.8662563144797067e-02
1220:4.9510888592312209e-02
1221:4.7575209300792766e-02
1222:4.5033308464662684e-02
1223:4.3066408807041455e-02
1224:5.5784703926896051e-02
1225:5.3616747753237201e-02
1226:5.0766169548454636e-02
1227:4.8557718249160220e-02
1228:6.0358161226458824e-02
1229:5.8024509002926064e-02
1230:5.4952769519127052e-02
1231:5.2570591109176050e-02
1232:3.7710956772610951e-02
1233:3.5894721956491280e-02
1234:3.3456319957183435e-02
1235:3.1529278236568321e-02
1236:4.2008958549824359e-02
1237:3.9989896894108284e-02
1238:3.7277719316212064e-02
1239:3.5133279406483753e-02
1240:4.7369500668727332e-02
1241:4.5099417140992297e-02
1242:4.2047591772432669e-02
1243:3.9632837044781405e-02
1244:5.1288114971576676e-02
1245:4.8836721065533058e-02
1246:4.5538855328871398e-02
1247:4.2927751534943256e-02
1248:3.0479107788040378e-02
1249:2.8444687634132829e-02
1250:2.5654932928134606e-02
1251:2.3406931046448899e-02
1252:3.3964297605865550e-02
1253:3.1699141777920277e-02
1254:2.8591940339395102e-02
1255:2.6087409552574201e-02
1256:3.8315915853727102e-02
1257:3.5763094690585549e-02
1258:3.2259480219016867e-02
1259:2.9434179308836562e-02
1260:4.1503191482172935e-02
1261:3.8740801385355135e-02
1262:3.4947930483017420e-02
1263:3.1888261463547445e-02
1264:2.2166843099468796e-02
1265:1.9733176739689533e-02
1266:1.6335518609782714e-02
1267:1.3553589868551430e-02
1268:2.4705584229122925e-02
1269:2.1993537824226372e-02
1270:1.8206904436581642e-02
1271:1.5106305014646340e-02
1272:2.7874994940629769e-02
1273:2.4814482227209039e-02
1274:2.0540754798208872e-02
1275:1.7040986489626174e-02
1276:3.0199400130734771e-02
1277:2.6884008712875929e-02
1278:2.2253854673748588e-02
1279:1.8461904290470812e-02
1280:1.2004072378744752e-02
1281:8.9352025656126779e-03
1282:4.5978715030996148e-03
1283:1.0085311914317110e-03
1284:1.3379252240612892e-02
1285:9.9588940361208713e-03
1286:5.1251211112211849e-03
1287:1.1252366017554941e-03
1288:1.5091525352226376e-02
1289:1.1230889607010424e-02
1290:5.7754354979983784e-03
1291:1.2616028703363255e-03
1292:1.6349624368870028e-02
1293:1.2166746033849015e-02
1294:6.2564715329850697e-03
1295:1.3668071710075537e-03
1296:-9.5491112096698227e-01
1297:-4.5149677264595195e-01
1298:3.3374733910078891e-01
1299:1.0172938840937740e+00
1300:-1.4621901624213234e+00
1301:-6.8740715686087117e-01
1302:3.7108500675130485e-01
1303:1.1919487584830082e+00
1304:-2.0936410457152075e+00
1305:-1.0060903932361853e+00
1306:2.8361365224007129e-01
1307:1.1511359490435749e+00
1308:-2.4385353631665523e+00
1309:-1.2054678304915407e+00
1310:1.3607209154400782e-01
1311:9.5537971458537929e-01
1312:1.3983376628363595e+00
1313:2.0153365115651787e+00
1314:2.6116737650116733e+00
1315:2.9178885553354585e+00
1316:1.6181234859298317e+00
1317:2.2760258623892367e+00
1318:2.8471346034189575e+00
1319:3.0785215569025803e+00
1320:1.5607497022136627e+00
1321:2.1705911433051872e+00
1322:2.6576383860730131e+00
1323:2.8078912076364744e+00
1324:1.3163098244024349e+00
1325:1.8449607679500670e+00
1326:2.2506660282582152e+00
1327:2.3521547481501477e+00
1328:3.0290059393722037e+00
1329:3.1187146252039022e+00
1330:3.0007776882662371e+00
1331:2.7329448558284031e+00
1332:3.1349036767479173e+00
1333:3.1523287239086510e+00
1334:2.9958710724549391e+00
1335:2.7264194775849822e+00
1336:2.8171961417225080e+00
1337:2.7773541126169046e+00
1338:2.6121722592727399e+00
1339:2.3838983178507758e+00
1340:2.3390092573734704e+00
1341:2.2701571486671597e+00
1342:2.1057416024467135e+00
1343:1.9183430439396381e+00
1344:2.5366864785954704e+00
1345:2.2204757107780471e+00
1346:1.9369732268763999e+00
1347:1.8144181991332837e+00
1348:2.5328357847721459e+00
1349:2.1957303334899523e+00
1350:1.8511102528214707e+00
1351:1.6775371663399490e+00
1352:2.2257077109868746e+00
1353:1.9325982340958281e+00
1354:1.5973643313196160e+00
1355:1.3995474865409829e+00
1356:1.7975894159722947e+00
1357:1.5709260054006726e+00
1358:1.2932662750697508e+00
1359:1.1037071492424844e+00
1360:1.7777345323396514e+00
1361:1.6929139229332859e+00
1362:1.5223567002220486e+00
1363:1.3321900717433259e+00
1364:1.6189202262211584e+00
1365:1.5083674895025321e+00
1366:1.3202969962949913e+00
1367:1.1154114232476011e+00
1368:1.3197754145904752e+00
1369:1.1774582928041140e+00
1370:9.6327305338107594e-01
1371:7.4556149840221586e-01
1372:1.0132798132010459e+00
1373:8.5184844774740198e-01
1374:6.2805585297271405e-01
1375:4.2134776279172798e-01
1376:1.2101210495778720e+00
1377:1.0146354512587721e+00
1378:8.2549757189342210e-01
1379:7.1641850973944532e-01
1380:9.8207421052009525e-01
1381:7.7705379020991561e-01
1382:6.0826908683009018e-01
1383:5.4531430089500932e-01
1384:6.0725833324821088e-01
1385:4.0893021386274264e-01
1386:2.8925499987963033e-01
1387:3.0073690500218597e-01
1388:2.9672502264014883e-01
1389:1.2885463734858929e-01
1390:5.9766527011920569e-02
1391:1.2191160849001387e-01
1392:6.6615471820248273e-01
1393:5.8034384344914980e-01
1394:5.1085327291606109e-01
1395:5.1511058788530106e-01
1396:5.3017833353548116e-01
1397:4.9763858593690757e-01
1398:4.6618260840497516e-01
1399:4.7572346518936365e-01
1400:3.3770352812752025e-01
1401:3.8483214488477557e-01
1402:4.1004095948399166e-01
1403:4.2397326341594144e-01
1404:1.9022581350124215e-01
1405:2.8742975935507237e-01
1406:3.5235488736566056e-01
1407:3.7254696954989519e-01
1408:5.4175481242711943e-01
1409:5.7990823237198419e-01
1410:5.9021876851138155e-01
1411:5.6478477086472290e-01
1412:4.9788795124713203e-01
1413:5.3280824546035843e-01
1414:5.4981846328846840e-01
1415:5.3494829661991294e-01
1416:4.3560841166554665e-01
1417:4.5792333768103599e-01
1418:4.7744660398375677e-01
1419:4.7747225029348445e-01
1420:3.7873241270589841e-01
1421:3.9393605037058332e-01
1422:4.1511123358333041e-01
1423:4.2532551973100874e-01
1424:5.4004743562561719e-01
1425:4.9972376028443494e-01
1426:4.6463959003793243e-01
1427:4.5103777257853489e-01
1428:5.1663119252963141e-01
1429:4.8503991939361962e-01
1430:4.5571242841437892e-01
1431:4.4383598434107202e-01
1432:4.7058691837352812e-01
1433:4.5561349784971350e-01
1434:4.3761199267743256e-01
1435:4.2781042397202995e-01
1436:4.2672114327685101e-01
1437:4.2437577634119283e-01
1438:4.1584215816955489e-01
1439:4.0833298237955690e-01
1440:4.4784762378681198e-01
1441:4.3866040856057148e-01
1442:4.1848540788659327e-01
1443:3.9704548000513906e-01
1444:4.4117163422631861e-01
1445:4.3368218165955302e-01
1446:4.1665795388707011e-01
1447:3.9770064132381833e-01
1448:4.2455945560454617e-01
1449:4.1740788636051901e-01
1450:4.0385944459503886e-01
1451:3.8924839570588493e-01
1452:4.0487082335546803e-01
1453:3.9830270731865219e-01
1454:3.8781942795706464e-01
1455:3.7698594202253671e-01
1456:3.8391889906943294e-01
1457:3.6187130382631716e-01
1458:3.3867678128108869e-01
1459:3.2452975193157541e-01
1460:3.8571715646554250e-01
1461:3.6524097403177169e-01
1462:3.4330240239553406e-01
1463:3.2984114791217428e-01
1464:3.7989162202920196e-01
1465:3.6322178678470002e-01
1466:3.4416656526864403e-01
1467:3.3173767441579938e-01
1468:3.6996208734090263e-01
1469:3.5674170156251550e-01
1470:3.4039362346540797e-01
1471:3.2897513737441808e-01
1472:3.1797056698226273e-01
1473:3.0534997645679479e-01
1474:2.8806138148604765e-01
1475:2.7437536263259865e-01
1476:3.2364733453125955e-01
1477:3.1173324041735601e-01
1478:2.9527128199602387e-01
1479:2.8202687374933211e-01
1480:3.2583730886234241e-01
1481:3.1467260322910734e-01
1482:2.9951338144929207e-01
1483:2.8733982821298498e-01
1484:3.2336438829031461e-01
1485:3.1294509784042335e-01
1486:2.9911840558017955e-01
1487:2.8809021948308683e-01
1488:2.6704589336864426e-01
1489:2.5427360175827701e-01
1490:2.3944877558324168e-01
1491:2.2921857485202085e-01
1492:2.7483505798879643e-01
1493:2.6223244026147774e-01
1494:2.4754421363005197e-01
1495:2.3741454915558768e-01
1496:2.8068303176092596e-01
1497:2.6885261989621678e-01
1498:2.5480204167872628e-01
1499:2.4498257559569905e-01
1500:2.8203098959355455e-01
1501:2.7108507806964666e-01
1502:2.5779255994734779e-01
1503:2.4835068948913230e-01
1504:2.2407021432230487e-01
1505:2.1466232462602128e-01
1506:2.0286435631612518e-01
1507:1.9421894056278882e-01
1508:2.3233328785383939e-01
1509:2.2302808666363297e-01
1510:2.1128505174527032e-01
1511:2.0260148721577659e-01
1512:2.4003706530110538e-01
1513:2.3098614401314632e-01
1514:2.1953993887557607e-01
1515:2.1101853409748242e-01
1516:2.4356839114750123e-01
1517:2.3483884715604936e-01
1518:2.2381331306609595e-01
1519:2.1557592034227233e-01
1520:1.8977017157392614e-01
1521:1.8185148013189148e-01
1522:1.7228518458415668e-01
1523:1.6544257045310426e-01
1524:1.9810084540953046e-01
1525:1.9007339758861191e-01
1526:1.8036431349765206e-01
1527:1.7342177007761889e-01
1528:2.0657092690703957e-01
1529:1.9860047480737797e-01
1530:1.8891117061334042e-01
1531:1.8196368457362755e-01
1532:2.1125416900465843e-01
1533:2.0346735702048072e-01
1534:1.9393983158084549e-01
1535:1.8707981488257902e-01
1536:1.6194060017201781e-01
1537:1.5561914843246419e-01
1538:1.4784751565545717e-01
1539:1.4224249796157931e-01
1540:1.6987188292679492e-01
1541:1.6345256193667240e-01
1542:1.5552982814031077e-01
1543:1.4978760307532771e-01
1544:1.7840983254173770e-01
1545:1.7197102879386023e-01
1546:1.6398918196836945e-01
1547:1.5816906558376426e-01
1548:1.8356647390902125e-01
1549:1.7719427550546354e-01
1550:1.6927296713251969e-01
1551:1.6347213673243216e-01
1552:1.3937656860262021e-01
1553:1.3422299527574921e-01
1554:1.2790087514551995e-01
1555:1.2332718173750887e-01
1556:1.4684078525023420e-01
1557:1.4153556744444543e-01
1558:1.3502065062669130e-01
1559:1.3030456558074158e-01
1560:1.5516817994386756e-01
1561:1.4975532990470281e-01
1562:1.4309540166737711e-01
1563:1.3826810664732120e-01
1564:1.6047045970125903e-01
1565:1.5504556342294537e-01
1566:1.4835560934560132e-01
1567:1.4349811407789212e-01
1568:1.2097613908528089e-01
1569:1.1672892008346179e-01
1570:1.1149533668281837e-01
1571:1.0770400318004594e-01
1572:1.2787974738815844e-01
1573:1.2349369886617526e-01
1574:1.1807618764470353e-01
1575:1.1414073238298436e-01
1576:1.3578466774665313e-01
1577:1.3128384382906250e-01
1578:1.2570475640642603e-01
1579:1.2163537882324220e-01
1580:1.4099695622316027e-01
1581:1.3645678016104981e-01
1582:1.3081299974811406e-01
1583:1.2668325494165172e-01
1584:1.0575638938088337e-01
1585:1.0222534639368798e-01
1586:9.7841423800086605e-02
1587:9.4635862645803759e-02
1588:1.1211510948639283e-01
1589:1.0843902003455567e-01
1590:1.0386929831815396e-01
1591:1.0052400657841475e-01
1592:1.1953487152378960e-01
1593:1.1571793805239652e-01
1594:1.1096528471759712e-01
1595:1.0748054099874597e-01
1596:1.2454685856651919e-01
1597:1.2066030329615256e-01
1598:1.1581350031678729e-01
1599:1.1225420574128848e-01
1600:9.2977488182192120e-02
1601:8.9954690977738963e-02
1602:8.6173365911197966e-02
1603:8.3388381044591606e-02
1604:9.8792076720497835e-02
1605:9.5631955386195136e-02
1606:9.1672047378053040e-02
1607:8.8750086698557301e-02
1608:1.0567448845692524e-01
1609:1.0237361385045859e-01
1610:9.8226049350248701e-02
1611:9.5156872749037349e-02
1612:1.1040754578725748e-01
1613:1.0702751114883223e-01
1614:1.0277065876844779e-01
1615:9.9613188908662359e-02
1616:8.1940475537697163e-02
1617:7.9278559306062493e-02
1618:7.5901219987463797e-02
1619:7.3376435659567418e-02
1620:8.7229017376449586e-02
1621:8.4429905866507615e-02
1622:8.0873609535374785e-02
1623:7.8211458180026339e-02
1624:9.3556141970459514e-02
1625:9.0606650133571665e-02
1626:8.6852322708736815e-02
1627:8.4036644372677910e-02
1628:9.7963894484326103e-02
1629:9.4921675462719166e-02
1630:9.1043175537864451e-02
1631:8.8129589930817945e-02
1632:7.2050237996469937e-02
1633:6.9586001259146962e-02
1634:6.6408049789688520e-02
1635:6.3992694265355032e-02
1636:7.6811879651501103e-02
1637:7.4208899002038878e-02
1638:7.0847296522149231e-02
1639:6.8288748806841035e-02
1640:8.2554473727048050e-02
1641:7.9793951370993321e-02
1642:7.6221223663922019e-02
1643:7.3496256039187483e-02
1644:8.6594150211690701e-02
1645:8.3730879743120101e-02
1646:8.0018393949629285e-02
1647:7.7181854320446455e-02
1648:6.2709546222291440e-02
1649:6.0292114507564873e-02
1650:5.7108225144410059e-02
1651:5.4637728020266750e-02
1652:6.6928272698022914e-02
1653:6.4363088471520322e-02
1654:6.0980745644231893e-02
1655:5.8353458904466006e-02
1656:7.2045339446751622e-02
1657:6.9306565850841884e-02
1658:6.5689576761479032e-02
1659:6.2875769060138392e-02
1660:7.5669864278043439e-02
1661:7.2813168083494612e-02
1662:6.9035426501027994e-02
1663:6.6092811246421745e-02
1664:5.3307261452406753e-02
1665:5.0763405124333201e-02
1666:4.7339772772167124e-02
1667:4.4628085869082040e-02
1668:5.6937616454808937e-02
1669:5.4228886556313985e-02
1670:5.0580288145056662e-02
1671:4.7688194150603665e-02
1672:6.1357959899693504e-02
1673:5.8451542230631010e-02
1674:5.4531791765139857e-02
1675:5.1421287594990359e-02
1676:6.4504230164196485e-02
1677:6.1459982752597647e-02
1678:5.7350070084576668e-02
1679:5.4085637991813290e-02
1680:4.3148314193600310e-02
1681:4.0278335014670562e-02
1682:3.6336804589413116e-02
1683:3.3156578665172465e-02
1684:4.6109241885796792e-02
1685:4.3045793659296297e-02
1686:3.8836586261786453e-02
1687:3.5439035805732239e-02
1688:4.9721962826152995e-02
1689:4.6423292906015060e-02
1690:4.1887894006192083e-02
1691:3.8224982436092542e-02
1692:5.2301245472080905e-02
1693:4.8835999518271653e-02
1694:4.4068976349450686e-02
1695:4.0217191187591858e-02
1696:3.1400980811924960e-02
1697:2.7954382501981675e-02
1698:2.3140686810633530e-02
1699:1.9198240125284604e-02
1700:3.3563054366820298e-02
1701:2.9879670811949994e-02
1702:2.4734576791674762e-02
1703:2.0520302437030399e-02
1704:3.6201839345833584e-02
1705:3.2228791978695250e-02
1706:2.6677973589234225e-02
1707:2.2130727307299838e-02
1708:3.8089163255753913e-02
1709:3.3909510639372392e-02
1710:2.8069073424384056e-02
1711:2.3284013769568714e-02
1712:1.7002087840825145e-02
1713:1.2653249211315427e-02
1714:6.5088236017890842e-03
1715:1.4257480370976640e-03
1716:1.8172639908392543e-02
1717:1.3524071505127720e-02
1718:6.9569285409181968e-03
1719:1.5248234729390894e-03
1720:1.9597439436587670e-02
1721:1.4581781928824063e-02
1722:7.4972445169492908e-03
1723:1.6382047221096872e-03
1724:2.0618126130549915e-02
1725:1.5340343083363989e-02
1726:7.8866010206849191e-03
1727:1.7231140397034590e-03
1728:-2.5389550107688144e+00
1729:-1.2819365798869053e+00
1730:3.4097543510700115e-02
1731:8.0402417163100703e-01
1732:-2.5698057020511977e+00
1733:-1.3926689073503311e+00
1734:-2.1634830054331872e-01
1735:4.3835704505192868e-01
1736:-2.3706206815320172e+00
1737:-1.4679585217121145e+00
1738:-5.8906122382416648e-01
1739:-1.0681237983141004e-01
1740:-2.0957441997811435e+00
1741:-1.4612978439615230e+00
1742:-8.3989393889082375e-01
1743:-4.8942585640302283e-01
1744:1.1332423833932033e+00
1745:1.6135926055321146e+00
1746:1.9774924901826778e+00
1747:2.0588738219418325e+00
1748:7.0992311770759076e-01
1749:1.1083383385325791e+00
1750:1.4131923109017013e+00
1751:1.4796007327955216e+00
1752:9.4923263776447650e-02
1753:3.9958231423005552e-01
1754:6.4972968924754959e-01
1755:7.2200343558242608e-01
1756:-3.3700274468527214e-01
1757:-9.9999789460518060e-02
1758:1.0817342284630774e-01
1759:1.8397832940033215e-01
1760:2.0377247803869549e+00
1761:1.9560583442672794e+00
1762:1.7889546788980257e+00
1763:1.6198044132639422e+00
1764:1.4583519788220416e+00
1765:1.3759709144493077e+00
1766:1.2180145609824247e+00
1767:1.0768229514165297e+00
1768:7.1793475995124445e-01
1769:6.6452819028392363e-01
1770:5.3791012697415064e-01
1771:4.2133507396251357e-01
1772:1.9338493306068705e-01
1773:1.6598917506134434e-01
1774:6.5393510682954459e-02
1775:-4.2013136553210227e-02
1776:1.5180721789639260e+00
1777:1.3303183635301916e+00
1778:1.0930649545644102e+00
1779:9.1395483464101634e-01
1780:1.0004353843812914e+00
1781:8.6219418440193640e-01
1782:6.7055670244663101e-01
1783:4.9428771685399964e-01
1784:3.5960225627712583e-01
1785:2.4525386951275294e-01
1786:6.7914957376463345e-02
1787:-1.1809294037390616e-01
1788:-1.0374584092630644e-01
1789:-2.2092333801960742e-01
1790:-3.9998996980767249e-01
1791:-5.8014835680557253e-01
1792:8.1920385691791209e-01
1793:6.5031217353235737e-01
1794:4.2958835875489854e-01
1795:2.4166643194247714e-01
1796:3.8676820307662174e-01
1797:2.0757152184015656e-01
1798:1.9392824624281574e-02
1799:-9.8802559225517936e-02
1800:-2.3797197702737458e-01
1801:-4.0996562265818598e-01
1802:-5.1447498645655187e-01
1803:-5.0664829518978738e-01
1804:-6.9211966183421292e-01
1805:-8.2967217476551536e-01
1806:-8.5087797348641814e-01
1807:-7.5171343348550423e-01
1808:1.3389356432824376e-01
1809:-5.0737557985271273e-03
1810:-4.3571422934671478e-02
1811:3.8171831025966156e-02
1812:-1.5349127299533977e-01
1813:-2.1029742482386188e-01
1814:-1.8293359167618473e-01
1815:-7.9483277949561795e-02
1816:-4.7486738046138732e-01
1817:-4.0474122947917707e-01
1818:-2.9216456903867827e-01
1819:-1.8135271939136652e-01
1820:-6.6426407754380012e-01
1821:-5.1519985314905725e-01
1822:-3.5471366726973325e-01
1823:-2.4668102617136303e-01
1824:1.1609570445077898e-01
1825:2.3028769858956094e-01
1826:3.1200482543342367e-01
1827:3.3777385462103610e-01
1828:1.7774048790408924e-03
1829:1.2576441650602099e-01
1830:2.2501795538824101e-01
1831:2.6223860971571100e-01
1832:-1.1318726236706239e-01
1833:-3.0605754715132159e-03
1834:1.0103420303317884e-01
1835:1.5317784461063844e-01
1836:-1.9145724250687851e-01
1837:-9.6629160442426823e-02
1838:6.9547629858287873e-03
1839:6.9501922720815318e-02
1840:3.4376172914486275e-01
1841:3.5869079664314552e-01
1842:3.8199359951646833e-01
1843:3.9660543560909212e-01
1844:2.7211831470109188e-01
1845:2.9263847667835302e-01
1846:3.2259428720256789e-01
1847:3.4367314473309907e-01
1848:1.7269920216152296e-01
1849:2.0691241549207157e-01
1850:2.4771019103232886e-01
1851:2.7444781491973635e-01
1852:9.6737594075214511e-02
1853:1.4154230992809411e-01
1854:1.8954079711681246e-01
1855:2.1905331172833697e-01
1856:4.0140899009835190e-01
1857:4.0453125585209265e-01
1858:4.0067560378409262e-01
1859:3.9487373640950685e-01
1860:3.5281750890474567e-01
1861:3.6346548525127848e-01
1862:3.6732699305517985e-01
1863:3.6551647907436396e-01
1864:2.8652312878386665e-01
1865:3.0353328565935467e-01
1866:3.1639973482372652e-01
1867:3.2101104357982058e-01
1868:2.3242277132166181e-01
1869:2.5336376872655597e-01
1870:2.7326263968605996e-01
1871:2.8347262382086075e-01
1872:3.9173769112847751e-01
1873:3.8610218372668781e-01
1874:3.7763127168889482e-01
1875:3.6883139946239052e-01
1876:3.6381333284874212e-01
1877:3.6094705836486835e-01
1878:3.5654733771322455e-01
1879:3.5122030607165877e-01
1880:3.2226771487981770e-01
1881:3.2420197126311140e-01
1882:3.2514554047242228e-01
1883:3.2367185002307264e-01
1884:2.8739240048003717e-01
1885:2.9325033119243288e-01
1886:2.9791410720826356e-01
1887:2.9892805485527096e-01
1888:3.6299375466584516e-01
1889:3.5155434108720351e-01
1890:3.3669441676073797e-01
1891:3.2593075517325082e-01
1892:3.4731669495577078e-01
1893:3.3894521890787871e-01
1894:3.2699725996575341e-01
1895:3.1777897587506115e-01
1896:3.2185424682164548e-01
1897:3.1717055136057326e-01
1898:3.0939847335012005e-01
1899:3.0278815023999062e-01
1900:2.9851522908950145e-01
1901:2.9662590713702025e-01
1902:2.9245205611795594e-01
1903:2.8825184903616780e-01
1904:3.2055913836565703e-01
1905:3.1068421347238639e-01
1906:2.9772376719906929e-01
1907:2.8739675741764592e-01
1908:3.1305319385626179e-01
1909:3.0444334756765745e-01
1910:2.9322804547426384e-01
1911:2.8423265633842937e-01
1912:2.9922510086179660e-01
1913:2.9262175686620356e-01
1914:2.8380350275763377e-01
1915:2.7653914208944030e-01
1916:2.8576346321295282e-01
1917:2.8087444194333544e-01
1918:2.7391769897677998e-01
1919:2.6796767801068500e-01
1920:2.8169426005797271e-01
1921:2.7128296569822014e-01
1922:2.5846694982132046e-01
1923:2.4927858200542821e-01
1924:2.7920650397460967e-01
1925:2.6986281036948834e-01
1926:2.5809335042201198e-01
1927:2.4951185125430250e-01
1928:2.7240993130551044e-01
1929:2.6459510866848296e-01
1930:2.5450100882520843e-01
1931:2.4696621112814854e-01
1932:2.6454705032543263e-01
1933:2.5802259953022127e-01
1934:2.4945385570104164e-01
1935:2.4290806381063226e-01
1936:2.4461130476746884e-01
1937:2.3610734095595354e-01
1938:2.2537787202459303e-01
1939:2.1734545667813832e-01
1940:2.4512350461188909e-01
1941:2.3713519417782730e-01
1942:2.2704880920916748e-01
1943:2.1946096984887348e-01
1944:2.4305808333989834e-01
1945:2.3590572748212538e-01
1946:2.2680569424800201e-01
1947:2.1990072144203701e-01
1948:2.3944894076959861e-01
1949:2.3304863945997170e-01
1950:2.2480455361901283e-01
1951:2.1849565105189980e-01
1952:2.1311797945901539e-01
1953:2.0547424217610125e-01
1954:1.9608169327590530e-01
1955:1.8929952978649583e-01
1956:2.1544508209296007e-01
1957:2.0813960307677534e-01
1958:1.9909197937801829e-01
1959:1.9251930759987707e-01
1960:2.1622374180240406e-01
1961:2.0949037107544938e-01
1962:2.0106895417153689e-01
1963:1.9489241161887008e-01
1964:2.1512457506944940e-01
1965:2.0892658415531667e-01
1966:2.0111626549730593e-01
1967:1.9533484304909254e-01
1968:1.8582290399464158e-01
1969:1.7951455796167862e-01
1970:1.7166254962281205e-01
1971:1.6590002135883544e-01
1972:1.8914098543900051e-01
1973:1.8300265435720769e-01
1974:1.7534071331355683e-01
1975:1.6969502566536182e-01
1976:1.9169895277722518e-01
1977:1.8587777927326654e-01
1978:1.7857614278031445e-01
1979:1.7316671892607141e-01
1980:1.9232517996520176e-01
1981:1.8681773373875726e-01
1982:1.7987505959933384e-01
1983:1.7470836278518082e-01
1984:1.6291252178020107e-01
1985:1.5750638159689068e-01
1986:1.5082895678829117e-01
1987:1.4597425514584156e-01
1988:1.6675848882055594e-01
1989:1.6143132385060185e-01
1990:1.5482930172280157e-01
1991:1.5001489434373774e-01
1992:1.7034230306359271e-01
1993:1.6520092247313695e-01
1994:1.5879654994826634e-01
1995:1.5410246940847383e-01
1996:1.7200345999325875e-01
1997:1.6706565814505941e-01
1998:1.6088677493094769e-01
1999:1.5633588782786534e-01
2000:1.4347281711546844e-01
2001:1.3892822937745694e-01
2002:1.3327063409559095e-01
2003:1.2912391893961850e-01
2004:1.4752984206831007e-01
2005:1.4300741940788772e-01
2006:1.3736185991647837e-01
2007:1.3321134823189279e-01
2008:1.5167165416847078e-01
2009:1.4723715639697926e-01
2010:1.4168052722610261e-01
2011:1.3757893077874189e-01
2012:1.5397151566359768e-01
2013:1.4964898888103734e-01
2014:1.4421559660739178e-01
2015:1.4019181545416748e-01
2016:1.2697627293440686e-01
2017:1.2306654363799051e-01
2018:1.1818600669725772e-01
2019:1.1459828273489650e-01
2020:1.3105719736449090e-01
2021:1.2712973358664509e-01
2022:1.2221622077217791e-01
2023:1.1859606878809048e-01
2024:1.3544427920130292e-01
2025:1.3154312512833505e-01
2026:1.2664511735831571e-01
2027:1.2302331697137511e-01
2028:1.3809300276256864e-01
2029:1.3424903051878856e-01
2030:1.2940698098035819e-01
2031:1.2581476075237802e-01
2032:1.1273556821464588e-01
2033:1.0932333245985761e-01
2034:1.0502046017638671e-01
2035:1.0182478572161330e-01
2036:1.1671364732294963e-01
2037:1.1325990630877822e-01
2038:1.0889423834277297e-01
2039:1.0564404152064556e-01
2040:1.2113554669995687e-01
2041:1.1766465501787673e-01
2042:1.1326309667148489e-01
2043:1.0997523894383414e-01
2044:1.2393841631772837e-01
2045:1.2048256764265960e-01
2046:1.1608849008799624e-01
2047:1.1279713870805796e-01
2048:1.0015416681729217e-01
2049:9.7070710461410581e-02
2050:9.3135961127283132e-02
2051:9.0177232854785613e-02
2052:1.0394221804268922e-01
2053:1.0079703728874220e-01
2054:9.6775558854264490e-02
2055:9.3745468832031997e-02
2056:1.0824984625062781e-01
2057:1.0505462173936957e-01
2058:1.0095674413076493e-01
2059:9.7859734398947087e-02
2060:1.1106665420425928e-01
2061:1.0785619332777903e-01
2062:1.0372775462545727e-01
2063:1.0059950140547345e-01
2064:8.8616955953822449e-02
2065:8.5705331847312771e-02
2066:8.1926287873630779e-02
2067:7.9036082440391592e-02
2068:9.2145374844935540e-02
2069:8.9155410891786482e-02
2070:8.5267003701754121e-02
2071:8.2287500420881288e-02
2072:9.6221062295750601e-02
2073:9.3153328552176715e-02
2074:8.9152880897204037e-02
2075:8.6079367209263000e-02
2076:9.8941533273542451e-02
2077:9.5832970740755835e-02
2078:9.1770185944098304e-02
2079:8.8641888109710035e-02
2080:7.7494549974499394e-02
2081:7.4580515611132298e-02
2082:7.0724036371417554e-02
2083:6.7717902838966976e-02
2084:8.0696429817412971e-02
2085:7.7685536598612701e-02
2086:7.3694746055501165e-02
2087:7.0579363045796414e-02
2088:8.4435290349593711e-02
2089:8.1319208070311830e-02
2090:7.7179760447742940e-02
2091:7.3941563350610640e-02
2092:8.6966108930850480e-02
2093:8.3785696525039297e-02
2094:7.9552824213059092e-02
2095:7.6235774836689099e-02
2096:6.6094277251308217e-02
2097:6.2981546546952760e-02
2098:5.8776734272950056e-02
2099:5.5435204904625709e-02
2100:6.8895178064148674e-02
2101:6.5663665965490850e-02
2102:6.1293447728082727e-02
2103:5.7816962912487169e-02
2104:7.2188709724081604e-02
2105:6.8821586897257758e-02
2106:6.4260816856232583e-02
2107:6.0627632076088990e-02
2108:7.4438321008227809e-02
2109:7.0982305186908234e-02
2110:6.6295126253034270e-02
2111:6.2556920530871141e-02
2112:5.3608117747357527e-02
2113:5.0059133386447324e-02
2114:4.5175424276906684e-02
2115:4.1228315507267722e-02
2116:5.5914950129066027e-02
2117:5.2218702187585113e-02
2118:4.7129243052770227e-02
2119:4.3013689663396436e-02
2120:5.8638216906180034e-02
2121:5.4769538877286535e-02
2122:4.9438045262217317e-02
2123:4.5123600833146892e-02
2124:6.0508579229369391e-02
2125:5.6523109587285056e-02
2126:5.1026744079270672e-02
2127:4.6576203333349643e-02
2128:3.9047298009484886e-02
2129:3.4763209519675368e-02
2130:2.8776293806530268e-02
2131:2.3870913210374385e-02
2132:4.0738927816688232e-02
2133:3.6269976839417337e-02
2134:3.0023621100824922e-02
2135:2.4905036243614918e-02
2136:4.2737932235821369e-02
2137:3.8050058922985165e-02
2138:3.1496131041740864e-02
2139:2.6124586886804420e-02
2140:4.4114464019402881e-02
2141:3.9276249428955051e-02
2142:3.2510817899927248e-02
2143:2.6965152468696341e-02
2144:2.1137929309210012e-02
2145:1.5727545673709598e-02
2146:8.0871254307187130e-03
2147:1.7697787641312434e-03
2148:2.2053139562142769e-02
2149:1.6407812797588173e-02
2150:8.4368042924462209e-03
2151:1.8471431134231945e-03
2152:2.3131559524388119e-02
2153:1.7207526340962748e-02
2154:8.8447206338123988e-03
2155:1.9326620978181305e-03
2156:2.3874941126719732e-02
2157:1.7759109673848496e-02
2158:9.1270094897664463e-03
2159:1.9936528087071974e-03
2160:-1.9240145482118802e+00
2161:-1.4298536514937690e+00
2162:-9.3811104379343579e-01
2163:-6.5279654441470958e-01
2164:-1.5706747774726901e+00
2165:-1.2971409756915713e+00
2166:-1.0157334526675232e+00
2167:-8.4396911346532666e-01
2168:-1.0916166779751653e+00
2169:-1.0312408271928395e+00
2170:-9.6628277090589709e-01
2171:-9.2529871961206922e-01
2172:-7.5051450596153479e-01
2173:-8.0902827511969999e-01
2174:-8.7311594707618134e-01
2175:-9.1791554855494217e-01
2176:-5.2535620804803007e-01
2177:-3.2510962207094457e-01
2178:-1.4513017774512998e-01
2179:-7.4563513866595293e-02
2180:-7.6422735140935749e-01
2181:-6.4123852782655000e-01
2182:-5.3653807495441741e-01
2183:-5.0088082869515160e-01
2184:-9.0686166800498902e-01
2185:-8.9203785972739946e-01
2186:-9.1014007785478834e-01
2187:-9.4875920373267897e-01
2188:-9.4272286326466648e-01
2189:-1.0069355000284257e+00
2190:-1.1182403280472080e+00
2191:-1.2150262480206195e+00
2192:-6.2168738680824003e-02
2193:-8.0923349843552900e-02
2194:-1.7162567948323579e-01
2195:-2.7786157153071567e-01
2196:-4.9831422906108291e-01
2197:-5.2512848989935657e-01
2198:-6.1733661548853469e-01
2199:-7.2723195411545372e-01
2200:-9.7676795717793519e-01
2201:-1.0406896837057835e+00
2202:-1.1514881449682877e+00
2203:-1.2625737875264780e+00
2204:-1.2672989324194834e+00
2205:-1.3581419698344681e+00
2206:-1.4725138891942162e+00
2207:-1.5677685874653351e+00
2208:-3.4247339567664853e-01
2209:-4.6471533127093073e-01
2210:-6.4104999959340325e-01
2211:-8.0532714716289522e-01
2212:-7.9659299997440003e-01
2213:-9.1668604447816548e-01
2214:-1.0540496188740971e+00
2215:-1.1506340738570271e+00
2216:-1.3298108487659466e+00
2217:-1.4224110227122695e+00
2218:-1.4664697464007868e+00
2219:-1.4408012113265301e+00
2220:-1.6214137999084741e+00
2221:-1.6754487137074132e+00
2222:-1.6424199708356257e+00
2223:-1.5369526797543345e+00
2224:-9.0242218291890308e-01
2225:-1.0073824072661479e+00
2226:-9.8159234855477762e-01
2227:-8.4571640536957016e-01
2228:-1.1973781493606823e+00
2229:-1.2179350744644608e+00
2230:-1.1127449953575999e+00
2231:-9.4230109773382431e-01
2232:-1.4062036190956360e+00
2233:-1.3096978433210593e+00
2234:-1.1330514880672526e+00
2235:-9.6785801073263655e-01
2236:-1.4547066647726978e+00
2237:-1.2984619652309368e+00
2238:-1.1036006891974344e+00
2239:-9.6399305437141758e-01
2240:-7.3969161990546095e-01
2241:-5.6531489890719944e-01
2242:-3.9059820244906918e-01
2243:-2.8474618358729287e-01
2244:-8.2732640733826146e-01
2245:-6.4251097480214503e-01
2246:-4.6363928001433580e-01
2247:-3.6135807070444992e-01
2248:-8.7387716232625656e-01
2249:-7.2014579710638127e-01
2250:-5.6065411787691499e-01
2251:-4.6057573912292321e-01
2252:-8.9398214425275946e-01
2253:-7.7217027963956075e-01
2254:-6.2861518798075777e-01
2255:-5.2703194546481069e-01
2256:-2.3432347023289452e-01
2257:-1.4465330874163235e-01
2258:-4.0078009443334228e-02
2259:2.7275887141238974e-02
2260:-3.1464843026447120e-01
2261:-2.2790169330405222e-01
2262:-1.1981838776988787e-01
2263:-4.6170857553522390e-02
2264:-4.1192620305108840e-01
2265:-3.2166889535880028e-01
2266:-2.0978969777728126e-01
2267:-1.3331743108500571e-01
2268:-4.7493701960071893e-01
2269:-3.8154902568736143e-01
2270:-2.7061502752546651e-01
2271:-1.9592324404548847e-01
2272:5.7776586623108070e-02
2273:1.0685471693111809e-01
2274:1.5756475213221885e-01
2275:1.8823118200336025e-01
2276:-1.1795720743261439e-02
2277:4.2632921613787268e-02
2278:9.7628341333518789e-02
2279:1.3100689800976575e-01
2280:-9.7308835075983341e-02
2281:-3.9402803432647612e-02
2282:2.0956790796629859e-02
2283:5.9085928809313536e-02
2284:-1.6034419652864645e-01
2285:-1.0100140099215987e-01
2286:-3.5800078554972345e-02
2287:6.8286165918011862e-03
2288:2.0230496759916194e-01
2289:2.2548859373105173e-01
2290:2.4938209000113060e-01
2291:2.6268097848562955e-01
2292:1.4679522405992981e-01
2293:1.7425188892901350e-01
2294:2.0478822958223888e-01
2295:2.2300317386414359e-01
2296:7.7614501003640382e-02
2297:1.1021961433640479e-01
2298:1.4721450083669849e-01
2299:1.7000031413497749e-01
2300:2.7566190794170563e-02
2301:6.3378662632845639e-02
2302:1.0342097134886162e-01
2303:1.2838710754041954e-01
2304:2.6801057256479249e-01
2305:2.7584594854316130e-01
2306:2.8227247273416251e-01
2307:2.8448835069835970e-01
2308:2.3058794571535271e-01
2309:2.4180415412993042e-01
2310:2.5164165722237020e-01
2311:2.5632937554911661e-01
2312:1.7983658433826452e-01
2313:1.9500889005748098e-01
2314:2.0970209258004047e-01
2315:2.1806374237559234e-01
2316:1.3954476565557508e-01
2317:1.5757742687139750e-01
2318:1.7637771524051352e-01
2319:1.8783701090313570e-01
2320:2.8480339828052004e-01
2321:2.8444762082350888e-01
2322:2.8233692369833635e-01
2323:2.7953273913660698e-01
2324:2.5808922766379983e-01
2325:2.6059480969590038e-01
2326:2.6214355993585575e-01
2327:2.6178250845558354e-01
2328:2.2180770028301977e-01
2329:2.2787946984971305e-01
2330:2.3363214928678300e-01
2331:2.3606376319523284e-01
2332:1.9310766303150911e-01
2333:2.0168511445567405e-01
2334:2.1017553037376102e-01
2335:2.1447238038934172e-01
2336:2.7765646940614691e-01
2337:2.7371137965877013e-01
2338:2.6774191906610556e-01
2339:2.6249204989169955e-01
2340:2.6099632809508094e-01
2341:2.5880901813375268e-01
2342:2.5479457982258125e-01
2343:2.5096345216012184e-01
2344:2.3659637222044999e-01
2345:2.3671250524603760e-01
2346:2.3548385530932178e-01
2347:2.3369746489127813e-01
2348:2.1597050454954783e-01
2349:2.1790408294772676e-01
2350:2.1899855150906022e-01
2351:2.1889548495598168e-01
2352:2.5946100446741172e-01
2353:2.5366873580346355e-01
2354:2.4599212218927380e-01
2355:2.4003109328431979e-01
2356:2.4870851315435497e-01
2357:2.4433596646665398e-01
2358:2.3834639763241716e-01
2359:2.3348531221184249e-01
2360:2.3251718833318152e-01
2361:2.3003434475216550e-01
2362:2.2621931439803708e-01
2363:2.2278457927740361e-01
2364:2.1855758826097771e-01
2365:2.1751015021383652e-01
2366:2.1531889983554045e-01
2367:2.1297774318121249e-01
2368:2.3683534130185399e-01
2369:2.3086949515831437e-01
2370:2.2311369820352620e-01
2371:2.1714729254394033e-01
2372:2.3079137266868205e-01
2373:2.2567419720407031e-01
2374:2.1890300777847399e-01
2375:2.1363819233730844e-01
2376:2.2076474537257543e-01
2377:2.1682988657110630e-01
2378:2.1148041561068656e-01
2379:2.0723552583030236e-01
2380:2.1150065694381853e-01
2381:2.0854370130675506e-01
2382:2.0438974217348130e-01
2383:2.0099368139310403e-01
2384:2.1395513674034963e-01
2385:2.0807520933953366e-01
2386:2.0063414343201663e-01
2387:1.9509354353348665e-01
2388:2.1081151684097185e-01
2389:2.0557530935280119e-01
2390:1.9887518295905995e-01
2391:1.9381802276738039e-01
2392:2.0493236866898057e-01
2393:2.0060775447886742e-01
2394:1.9495089525754447e-01
2395:1.9058193689607028e-01
2396:1.9911646109096232e-01
2397:1.9552909928639214e-01
2398:1.9072023787790021e-01
2399:1.8692342468856749e-01
2400:1.9219580284929375e-01
2401:1.8687920959046947e-01
2402:1.8015588454984147e-01
2403:1.7513951674311259e-01
2404:1.9114678628879070e-01
2405:1.8622144219928805e-01
2406:1.7995594792553146e-01
2407:1.7525786547448000e-01
2408:1.8823975112911534e-01
2409:1.8389140787420236e-01
2410:1.7831203934813225e-01
2411:1.7409480933898522e-01
2412:1.8486211047512816e-01
2413:1.8101058760703698e-01
2414:1.7602448192833864e-01
2415:1.7222145545644010e-01
2416:1.7250971308771551e-01
2417:1.6770119170018552e-01
2418:1.6166768994052305e-01
2419:1.5721058712399980e-01
2420:1.7278799191524102e-01
2421:1.6825538629575515e-01
2422:1.6253376473819953e-01
2423:1.5827969724017468e-01
2424:1.7186652711633366e-01
2425:1.6775219754040574e-01
2426:1.6250814587333420e-01
2427:1.5857018779286042e-01
2428:1.7019987278902524e-01
2429:1.6644512997107735e-01
2430:1.6161712429889175e-01
2431:1.5796002059532491e-01
2432:1.5489020313107926e-01
2433:1.5064272998604583e-01
2434:1.4529399561802075e-01
2435:1.4132555795237717e-01
2436:1.5605543081538772e-01
2437:1.5197358021325771e-01
2438:1.4681495125545746e-01
2439:1.4297356339271694e-01
2440:1.5649789218163909e-01
2441:1.5268030766787277e-01
2442:1.4782930494009569e-01
2443:1.4419698213329510e-01
2444:1.5602498333296666e-01
2445:1.5244721915769954e-01
2446:1.4787687476853731e-01
2447:1.4443640763014082e-01
2448:1.3925302583390112e-01
2449:1.3545229314625171e-01
2450:1.3065535783876975e-01
2451:1.2708967177109257e-01
2452:1.4096244579563652e-01
2453:1.3726465299882668e-01
2454:1.3257892043258823e-01
2455:1.2908188035806517e-01
2456:1.4228827314110595e-01
2457:1.3876524344748956e-01
2458:1.3427462952182073e-01
2459:1.3090327327378429e-01
2460:1.4262213772804339e-01
2461:1.3926226330979324e-01
2462:1.3495800002968106e-01
2463:1.3171009095882905e-01
2464:1.2522485809961922e-01
2465:1.2178689219433897e-01
2466:1.1740901940201630e-01
2467:1.1412465316590997e-01
2468:1.2724822447379899e-01
2469:1.2386093168050635e-01
2470:1.1953454704453062e-01
2471:1.1627864215023294e-01
2472:1.2912869249929873e-01
2473:1.2584054322905927e-01
2474:1.2162177920631878e-01
2475:1.1843231946611645e-01
2476:1.2999480115228351e-01
2477:1.2680770463714697e-01
2478:1.2270191336461134e-01
2479:1.1958531439792501e-01
2480:1.1239597846993665e-01
2481:1.0918548616451157e-01
2482:1.0505060685161169e-01
2483:1.0191278799853622e-01
2484:1.1456130571763468e-01
2485:1.1136519642843740e-01
2486:1.0723613571692843e-01
2487:1.0409334784818193e-01
2488:1.1674490713089716e-01
2489:1.1359518431798619e-01
2490:1.0950816760277457e-01
2491:1.0638400752650297e-01
2492:1.1793210980478112e-01
2493:1.1483857258501434e-01
2494:1.1080965762243988e-01
2495:1.0771874759266445e-01
2496:1.0024817573344942e-01
2497:9.7124503185942027e-02
2498:9.3036824609802699e-02
2499:8.9885441528948437e-02
2500:1.0242291995854656e-01
2501:9.9282966451075275e-02
2502:9.5163631961610914e-02
2503:9.1980022413079177e-02
2504:1.0471889492309801e-01
2505:1.0158111129245080e-01
2506:9.7449670799842805e-02
2507:9.4245543252152925e-02
2508:1.0606749579774892e-01
2509:1.0294914358445313e-01
2510:9.8830592164692158e-02
2511:9.5627093574110381e-02
2512:8.8195927332756094e-02
2513:8.4987015591847070e-02
2514:8.0711665771823565e-02
2515:7.7358057795339025e-02
2516:9.0270516305366033e-02
2517:8.7018815822754600e-02
2518:8.2677416968210335e-02
2519:7.9265466453292827e-02
2520:9.2521188378769298e-02
2521:8.9234472723049615e-02
2522:8.4833557524030753e-02
2523:8.1365546990668725e-02
2524:9.3899897228239201e-02
2525:9.0602179838515609e-02
2526:8.6175968705367340e-02
2527:8.2680309781627825e-02
2528:7.5539712474310808e-02
2529:7.2041715612482196e-02
2530:6.7294213232334671e-02
2531:6.3505452821345246e-02
2532:7.7413319024632804e-02
2533:7.3846648810553792e-02
2534:6.8999144308626179e-02
2535:6.5125689898931222e-02
2536:7.9479866800864912e-02
2537:7.5843384925779050e-02
2538:7.0891280344612978e-02
2539:6.6927303259927226e-02
2540:8.0777009567694291e-02
2541:7.7102166819980555e-02
2542:7.2089730074463537e-02
2543:6.8071715708649658e-02
2544:6.1428605168987210e-02
2545:5.7386423341066535e-02
2546:5.1809632456952137e-02
2547:4.7292463724528423e-02
2548:6.3000813155402971e-02
2549:5.8862678840105133e-02
2550:5.3149110657369117e-02
2551:4.8518153797699221e-02
2552:6.4750505225367863e-02
2553:6.0507779369532111e-02
2554:5.4643603202981318e-02
2555:4.9886329375457762e-02
2556:6.5863381624167633e-02
2557:6.1556334072007890e-02
2558:5.5598151377512464e-02
2559:5.0761107671522324e-02
2560:4.4793412599607590e-02
2561:3.9881384216917837e-02
2562:3.3011996055645892e-02
2563:2.7380679034494152e-02
2564:4.5955236444270256e-02
2565:4.0916705814708104e-02
2566:3.3868921561599631e-02
2567:2.8090487396795680e-02
2568:4.7252202998672284e-02
2569:4.2072293581344525e-02
2570:3.4824637208164075e-02
2571:2.8881095999825839e-02
2572:4.8081733756673593e-02
2573:4.2811695481219866e-02
2574:3.5436183911512278e-02
2575:2.9386782213039513e-02
2576:2.4242646992891165e-02
2577:1.8032489784063830e-02
2578:9.2680874150369123e-03
2579:2.0261289439585770e-03
2580:2.4870291325167396e-02
2581:1.8498177612820136e-02
2582:9.5068923215310425e-03
2583:2.0789311482253357e-03
2584:2.5568634764130786e-02
2585:1.9014879349167995e-02
2586:9.7697032898728768e-03
2587:2.1340836010822354e-03
2588:2.6015116915472692e-02
2589:1.9344995176110807e-02
2590:9.9376481289361780e-03
2591:2.1698029876979197e-03
2592:-5.9011876882947256e-01
2593:-7.0032703559151099e-01
2594:-8.2247682017782620e-01
2595:-9.0733293262168702e-01
2596:-3.4081328150912188e-01
2597:-5.3241736013907393e-01
2598:-7.4542001264371105e-01
2599:-8.9088711314803815e-01
2600:-1.1611252175011232e-01
2601:-3.7675480450813864e-01
2602:-6.6738127796898150e-01
2603:-8.6148314929407033e-01
2604:-1.9606009822846590e-02
2605:-2.9780188213949543e-01
2606:-6.1138023424513910e-01
2607:-8.1835485831290622e-01
2608:-9.5274481653944998e-01
2609:-1.0543188761078994e+00
2610:-1.2082619823939582e+00
2611:-1.3297866109980434e+00
2612:-9.6615888499710023e-01
2613:-1.1179962269770665e+00
2614:-1.3225135352229431e+00
2615:-1.4681592666910470e+00
2616:-9.5821854706043097e-01
2617:-1.1384498365870332e+00
2618:-1.3586260659825538e+00
2619:-1.5023300205049976e+00
2620:-9.1861962483787729e-01
2621:-1.0954979303694807e+00
2622:-1.2984661451960211e+00
2623:-1.4260391437802908e+00
2624:-1.3913088167127323e+00
2625:-1.4893598288711647e+00
2626:-1.5951836081644351e+00
2627:-1.6723799439821887e+00
2628:-1.5362699113506781e+00
2629:-1.6321924034148403e+00
2630:-1.7081684421088734e+00
2631:-1.7434257461387970e+00
2632:-1.5652231665813776e+00
2633:-1.6438558898653777e+00
2634:-1.6793261598122060e+00
2635:-1.6667567534086516e+00
2636:-1.4814796629636247e+00
2637:-1.5505781640328422e+00
2638:-1.5758215874966972e+00
2639:-1.5507862190778829e+00
2640:-1.7132016106339356e+00
2641:-1.7415846690823018e+00
2642:-1.6743213537798252e+00
2643:-1.5434793808637455e+00
2644:-1.7566156777884576e+00
2645:-1.7413290182885741e+00
2646:-1.6390133931024107e+00
2647:-1.5002024892048358e+00
2648:-1.6493380585025261e+00
2649:-1.5974279717859738e+00
2650:-1.4953724694574735e+00
2651:-1.3943440091724835e+00
2652:-1.5242588633214527e+00
2653:-1.4681523439826814e+00
2654:-1.3888278775954706e+00
2655:-1.3259127010309879e+00
2656:-1.4490207640960988e+00
2657:-1.2817986669850845e+00
2658:-1.0930484179422038e+00
2659:-9.6917458010302171e-01
2660:-1.4085881641580142e+00
2661:-1.2550797605985897e+00
2662:-1.0934821701193518e+00
2663:-9.9178918632082402e-01
2664:-1.3346868525578754e+00
2665:-1.2325678704664049e+00
2666:-1.1141420636110333e+00
2667:-1.0266060538105148e+00
2668:-1.2922380949944428e+00
2669:-1.2256284747838897e+00
2670:-1.1276957497780769e+00
2671:-1.0408238521674529e+00
2672:-9.0948093513809203e-01
2673:-7.9978370117328845e-01
2674:-6.6012340376599477e-01
2675:-5.5650071101228216e-01
2676:-9.4239102571071076e-01
2677:-8.4377711314135173e-01
2678:-7.0711381881848823e-01
2679:-6.0224763976443951e-01
2680:-9.7845325762423829e-01
2681:-8.8117771813063417e-01
2682:-7.4779347239181826e-01
2683:-6.4777834617860330e-01
2684:-9.8973370840080011e-01
2685:-8.9202448903917364e-01
2686:-7.6648588248962846e-01
2687:-6.7546797333590836e-01
2688:-5.0292471998150678e-01
2689:-4.0923411071220162e-01
2690:-3.0092162663778099e-01
2691:-2.2835251197535592e-01
2692:-5.4840674142025625e-01
2693:-4.5693313455207385e-01
2694:-3.5398219757141175e-01
2695:-2.8454937622810100e-01
2696:-5.9755609376929153e-01
2697:-5.1234610176807738e-01
2698:-4.1519855390534061e-01
2699:-3.4766494505892559e-01
2700:-6.2991606436670633e-01
2701:-5.5028353748419578e-01
2702:-4.5554700655355684e-01
2703:-3.8787330580173834e-01
2704:-1.9327034696880244e-01
2705:-1.3317584156243994e-01
2706:-6.4992792883425188e-02
2707:-1.9781747464127881e-02
2708:-2.4994966020283860e-01
2709:-1.8852546242364787e-01
2710:-1.1611972658514073e-01
2711:-6.7440143076546388e-02
2712:-3.1301655039009568e-01
2713:-2.5059305263789516e-01
2714:-1.7600620161078878e-01
2715:-1.2559512708003417e-01
2716:-3.5300814329900226e-01
2717:-2.9085702643816591e-01
2718:-2.1729860314670479e-01
2719:-1.6745601075342509e-01
2720:2.0608514748653582e-03
2721:3.9201899726570649e-02
2722:8.0197431751269546e-02
2723:1.0593500777032767e-01
2724:-4.4162870921283313e-02
2725:-5.1812607167043175e-03
2726:3.7514466929735778e-02
2727:6.4879302431163563e-02
2728:-1.0153659065489706e-01
2729:-6.1051237956720954e-02
2730:-1.5919576167703162e-02
2731:1.3969185688287127e-02
2732:-1.4339405493025786e-01
2733:-1.0211196138917029e-01
2734:-5.4813537175219230e-02
2735:-2.2811581330391347e-02
2736:1.1770496634253150e-01
2737:1.3724918075772277e-01
2738:1.5835705588820290e-01
2739:1.7151621782755372e-01
2740:7.7871276258488123e-02
2741:1.0014057770446443e-01
2742:1.2509208411356229e-01
2743:1.4097071621848709e-01
2744:2.8597458322646183e-02
2745:5.3983994929312475e-02
2746:8.2797103561630961e-02
2747:1.0130670227995327e-01
2748:-7.0355022729404974e-03
2749:2.0220977809323745e-02
2750:5.1063479242468131e-02
2751:7.0998830492757820e-02
2752:1.7757141116395803e-01
2753:1.8737043028827630e-01
2754:1.9714761828272914e-01
2755:2.0236087084090154e-01
2756:1.4826837961476055e-01
2757:1.6009718245671206e-01
2758:1.7220834455278100e-01
2759:1.7919653786850809e-01
2760:1.0985225861860543e-01
2761:1.2395859891985840e-01
2762:1.3906141302264380e-01
2763:1.4844486955893052e-01
2764:8.0319254553341435e-02
2765:9.6028685457922078e-02
2766:1.1343310824549360e-01
2767:1.2464783878408997e-01
2768:2.0437067896846201e-01
2769:2.0730250549721549e-01
2770:2.0969293821642518e-01
2771:2.1050943774771078e-01
2772:1.8220802036457612e-01
2773:1.8702374439329780e-01
2774:1.9175236915883917e-01
2775:1.9417704460857674e-01
2776:1.5278251349878447e-01
2777:1.5996851971982065e-01
2778:1.6748274777930888e-01
2779:1.7178116069450003e-01
2780:1.2995022824124658e-01
2781:1.3879370899674048e-01
2782:1.4820275663681545e-01
2783:1.5380050154449701e-01
2784:2.1061523736353677e-01
2785:2.1031341189603805e-01
2786:2.0896690236766358e-01
2787:2.0721241233354667e-01
2788:1.9505045123980486e-01
2789:1.9607294383600352e-01
2790:1.9629611480038459e-01
2791:1.9567531438862848e-01
2792:1.7355889480686071e-01
2793:1.7621126144108512e-01
2794:1.7847613629459289e-01
2795:1.7937693503213636e-01
2796:1.5623506802899867e-01
2797:1.6011343866770938e-01
2798:1.6395564848733418e-01
2799:1.6602982870284058e-01
2800:2.0603744032367502e-01
2801:2.0363030825438130e-01
2802:2.0014824492668412e-01
2803:1.9722204484498890e-01
2804:1.9509335519250839e-01
2805:1.9374962885746499e-01
2806:1.9153736320070053e-01
2807:1.8948227535042889e-01
2808:1.7959295843870621e-01
2809:1.7965510538805265e-01
2810:1.7908588963725541e-01
2811:1.7814656764197515e-01
2812:1.6685071410728444e-01
2813:1.6796815117211025e-01
2814:1.6862919497424364e-01
2815:1.6853701356182096e-01
2816:1.9557628335869365e-01
2817:1.9238949964574709e-01
2818:1.8804613092954267e-01
2819:1.8457008645552234e-01
2820:1.8826212402325215e-01
2821:1.8582209279764977e-01
2822:1.8236775087499740e-01
2823:1.7951886879157047e-01
2824:1.7747321340125946e-01
2825:1.7601019172716248e-01
2826:1.7374882865192812e-01
2827:1.7175752965559285e-01
2828:1.6828724216522917e-01
2829:1.6758991864232378e-01
2830:1.6627220135037687e-01
2831:1.6495959941413110e-01
2832:1.8266934946316049e-01
2833:1.7910251115581549e-01
2834:1.7445538066228569e-01
2835:1.7088722598336531e-01
2836:1.7793603769601546e-01
2837:1.7493015750381696e-01
2838:1.7094479377112118e-01
2839:1.6783123684922105e-01
2840:1.7061233723649419e-01
2841:1.6837548290949278e-01
2842:1.6529235459858882e-01
2843:1.6279733930012172e-01
2844:1.6415909723445957e-01
2845:1.6252785399352937e-01
2846:1.6015838509277819e-01
2847:1.5815753890828682e-01
2848:1.6898201391925763e-01
2849:1.6543056912146323e-01
2850:1.6084033931082567e-01
2851:1.5734611923294514e-01
2852:1.6615034719993363e-01
2853:1.6299361601718382e-01
2854:1.5887123185797525e-01
2855:1.5570211987179081e-01
2856:1.6142223857798199e-01
2857:1.5880799506085799e-01
2858:1.5533690386487095e-01
2859:1.5262591422636260e-01
2860:1.5702917425562493e-01
2861:1.5485472041258838e-01
2862:1.5191411648336167e-01
2863:1.4957729832397351e-01
2864:1.5549159073990490e-01
2865:1.5205470669894758e-01
2866:1.4764929661613110e-01
2867:1.4432159219891147e-01
2868:1.5400975036852044e-01
2869:1.5085677479043733e-01
2870:1.4678357376477799e-01
2871:1.4368290078069551e-01
2872:1.5116364260146267e-01
2873:1.4841429745563983e-01
2874:1.4481474807056019e-01
2875:1.4203906594461529e-01
2876:1.4830309367467312e-01
2877:1.4588470024012357e-01
2878:1.4267606538386771e-01
2879:1.4017089308007782e-01
2880:1.4256285620775022e-01
2881:1.3929955265030508e-01
2882:1.3510695992630803e-01
2883:1.3193413460811823e-01
2884:1.4203600754010540e-01
2885:1.3896821907023080e-01
2886:1.3500399040084365e-01
2887:1.3198658867808319e-01
2888:1.4055285376635665e-01
2889:1.3776756855738581e-01
2890:1.3413663809425241e-01
2891:1.3134877950584167e-01
2892:1.3881931109762766e-01
2893:1.3627161258228265e-01
2894:1.3292254689825025e-01
2895:1.3033003036711266e-01
2896:1.3025530877517538e-01
2897:1.2713076286801692e-01
2898:1.2309570863026631e-01
2899:1.2002547076928474e-01
2900:1.3038393661918624e-01
2901:1.2739081241184069e-01
2902:1.2350576491003018e-01
2903:1.2053496824027078e-01
2904:1.2985962651077115e-01
2905:1.2706374525622591e-01
2906:1.2340656981563178e-01
2907:1.2058904015204992e-01
2908:1.2893792391882442e-01
2909:1.2631172788964901e-01
2910:1.2285269064071719e-01
2911:1.2017013117484553e-01
2912:1.1839435131770579e-01
2913:1.1533782895306403e-01
2914:1.1134879364174370e-01
2915:1.0828218068205135e-01
2916:1.1895166018952821e-01
2917:1.1597627148755421e-01
2918:1.1207685338910056e-01
2919:1.0906686304908271e-01
2920:1.1908026199685844e-01
2921:1.1623297377030382e-01
2922:1.1247855723793287e-01
2923:1.0956333895287937e-01
2924:1.1872761907159529e-01
2925:1.1599522851648590e-01
2926:1.1237295334601213e-01
2927:1.0954593399839525e-01
2928:1.0664172349854491e-01
2929:1.0353992379227216e-01
2930:9.9435985332124083e-02
2931:9.6238542077148478e-02
2932:1.0745244363827638e-01
2933:1.0439234848435322e-01
2934:1.0032932160261977e-01
2935:9.7153289597914375e-02
2936:1.0799383657600221e-01
2937:1.0500836630567455e-01
2938:1.0102446133061858e-01
2939:9.7895625336942599e-02
2940:1.0801898769130495e-01
2941:1.0510575960121883e-01
2942:1.0120174335352156e-01
2943:9.8123544150246475e-02
2944:9.4512819660533806e-02
2945:9.1214785981302546e-02
2946:8.6782224832778435e-02
2947:8.3277219044482639e-02
2948:9.5435592433320560e-02
2949:9.2146736107735869e-02
2950:8.7714870347899362e-02
2951:8.4201923663311709e-02
2952:9.6198504587925976e-02
2953:9.2940408696968291e-02
2954:8.8533724072830208e-02
2955:8.5028919827863605e-02
2956:9.6449804789032229e-02
2957:9.3229444186770538e-02
2958:8.8860370398069558e-02
2959:8.5375778044218753e-02
2960:8.1367375656360860e-02
2961:7.7677434220830982e-02
2962:7.2639861115402521e-02
2963:6.8598485880591462e-02
2964:8.2284908845267707e-02
2965:7.8576291523142744e-02
2966:7.3504335056777129e-02
2967:6.9429087088730926e-02
2968:8.3112405103448667e-02
2969:7.9398083645424236e-02
2970:7.4306015751485571e-02
2971:7.0205887419865345e-02
2972:8.3467094249625284e-02
2973:7.9762511423500465e-02
2974:7.4673760215833343e-02
2975:7.0569194265885066e-02
2976:6.6376275007981961e-02
2977:6.2040571006165397e-02
2978:5.6039898990896550e-02
2979:5.1166401396010794e-02
2980:6.7186217114950750e-02
2981:6.2807081942105464e-02
2982:5.6740717514994828e-02
2983:5.1810029387683351e-02
2984:6.7946500358061601e-02
2985:6.3530772197224902e-02
2986:5.7405965201478518e-02
2987:5.2422461298059830e-02
2988:6.8305059690013450e-02
2989:6.3876507644722455e-02
2990:5.7727599865704964e-02
2991:5.2720170186744249e-02
2992:4.8466231302238150e-02
2993:4.3154646001670030e-02
2994:3.5720014930940021e-02
2995:2.9621562911753867e-02
2996:4.9076993190059162e-02
2997:4.3699510139523452e-02
2998:3.6170758552865494e-02
2999:2.9994016928470802e-02
3000:4.9658521161708463e-02
3001:4.4218526952028235e-02
3002:3.6599680062188979e-02
3003:3.0347534953520890e-02
3004:4.9941641368109933e-02
3005:4.4471555534470873e-02
3006:3.6808479514835048e-02
3007:3.0518832215378666e-02
3008:2.6222445961509487e-02
3009:1.9498443714060888e-02
3010:1.0016203634437662e-02
3011:2.1874657702302728e-03
3012:2.6551044538204564e-02
3013:1.9741125925357112e-02
3014:1.0139879657338280e-02
3015:2.2147473642023015e-03
3016:2.6862231038158248e-02
3017:1.9969740603665156e-02
3018:1.0255059175083014e-02
3019:2.2388741480704245e-03
3020:2.7012376697538854e-02
3021:2.0078988942622073e-02
3022:1.0309076817063384e-02
3023:2.2494110476762828e-03
3024:5.3947956129361107e-03
3025:-2.6777599211812303e-01
3026:-5.7923109660550587e-01
3027:-7.8432747551535653e-01
3028:9.8936823860988430e-03
3029:-2.3338203785924341e-01
3030:-5.1953743013010445e-01
3031:-7.1063649162875042e-01
3032:-3.1263439240247541e-02
3033:-2.1795291448490592e-01
3034:-4.5096031505133011e-01
3035:-6.1470250556058004e-01
3036:-6.6020005053652048e-02
3037:-2.1562684853356659e-01
3038:-4.1163028305850635e-01
3039:-5.5705191317685587e-01
3040:-8.8226779642829634e-01
3041:-1.0500775830624911e+00
3042:-1.2371248214515815e+00
3043:-1.3545039244850436e+00
3044:-8.0121983991391021e-01
3045:-9.5080550555392229e-01
3046:-1.1119662705434170e+00
3047:-1.2147733327707821e+00
3048:-6.9439603831612162e-01
3049:-8.2487993308990704e-01
3050:-9.6524789607357819e-01
3051:-1.0577026557063156e+00
3052:-6.3080581093225241e-01
3053:-7.5459712283151803e-01
3054:-8.9098668928633684e-01
3055:-9.8085872388396134e-01
3056:-1.4068486097402273e+00
3057:-1.4761678055204612e+00
3058:-1.5088541470673129e+00
3059:-1.4904824536797803e+00
3060:-1.2634528211880718e+00
3061:-1.3368495714842570e+00
3062:-1.3904310624434126e+00
3063:-1.3940708108538700e+00
3064:-1.1037771984777223e+00
3065:-1.1816011543277682e+00
3066:-1.2580417147400516e+00
3067:-1.2905185702324686e+00
3068:-1.0248839129754019e+00
3069:-1.0996189958130969e+00
3070:-1.1774754809528098e+00
3071:-1.2184299556331117e+00
3072:-1.4667838791158907e+00
3073:-1.4186910558998032e+00
3074:-1.3551511868843578e+00
3075:-1.3074615992485530e+00
3076:-1.3824423727943442e+00
3077:-1.3559791494368691e+00
3078:-1.3171274040180663e+00
3079:-1.2842850351293358e+00
3080:-1.2971007840180702e+00
3081:-1.2982785326766433e+00
3082:-1.2795901660402007e+00
3083:-1.2493381055108879e+00
3084:-1.2325628476030523e+00
3085:-1.2445227802907113e+00
3086:-1.2315945062200149e+00
3087:-1.1997194961087052e+00
3088:-1.2822718369508621e+00
3089:-1.2248967858928554e+00
3090:-1.1287557041217535e+00
3091:-1.0394984772332252e+00
3092:-1.2649744600039139e+00
3093:-1.2124735111932512e+00
3094:-1.1159302332287557e+00
3095:-1.0266074017666071e+00
3096:-1.2271905806580381e+00
3097:-1.1713540826189730e+00
3098:-1.0780632725265014e+00
3099:-9.9860335044232396e-01
3100:-1.1751966876151181e+00
3101:-1.1209648179413239e+00
3102:-1.0402391129565955e+00
3103:-9.7537374356441431e-01
3104:-9.8723569225121111e-01
3105:-8.9132100249768975e-01
3106:-7.7322897325902573e-01
3107:-6.8867663699647985e-01
3108:-9.7607026500977367e-01
3109:-8.8785550561923043e-01
3110:-7.8411902248345922e-01
3111:-7.0967201931702251e-01
3112:-9.5608026265023882e-01
3113:-8.8250859670641202e-01
3114:-7.9456717274211186e-01
3115:-7.2844401479494392e-01
3116:-9.4117990815776409e-01
3117:-8.7891792359293364e-01
3118:-7.9871146777764579e-01
3119:-7.3542699893949559e-01
3120:-6.4585200140481225e-01
3121:-5.6890807194973758e-01
3122:-4.7454719003741963e-01
3123:-4.0638452533338842e-01
3124:-6.7066818756113589e-01
3125:-5.9773628089288489e-01
3126:-5.0488021432210417e-01
3127:-4.3721131679734782e-01
3128:-6.9227384306554862e-01
3129:-6.2353478732380629e-01
3130:-5.3519168956025032e-01
3131:-4.7100914482050599e-01
3132:-7.0044385310109170e-01
3133:-6.3507384300564418e-01
3134:-5.5253541213795820e-01
3135:-4.9284968808140922e-01
3136:-3.7147698649374000e-01
3137:-3.0997055329850454e-01
3138:-2.3786599061664285e-01
3139:-1.8884943100776880e-01
3140:-4.0297334040922211e-01
3141:-3.4341168342924477e-01
3142:-2.7400862201855919e-01
3143:-2.2617262522546525e-01
3144:-4.3881428650303045e-01
3145:-3.8259577516241533e-01
3146:-3.1606557777357680e-01
3147:-2.6898772640502466e-01
3148:-4.6272853976506062e-01
3149:-4.0914795572779922e-01
3150:-3.4409636924201797e-01
3151:-2.9719921180847775e-01
3152:-1.6490243270100943e-01
3153:-1.2322153280282831e-01
3154:-7.4666498708066797e-02
3155:-4.1550043909296223e-02
3156:-2.0225899576203360e-01
3157:-1.5985302042998170e-01
3158:-1.0952062625119893e-01
3159:-7.4972997707068820e-02
3160:-2.4491899761416616e-01
3161:-2.0192526150254866e-01
3162:-1.5064360862569420e-01
3163:-1.1544706624964370e-01
3164:-2.7307802273360987e-01
3165:-2.3019493015717310e-01
3166:-1.7929746149439538e-01
3167:-1.4434577697038617e-01
3168:-2.5252256346110662e-02
3169:2.7617116316797185e-03
3170:3.4364149655993444e-02
3171:5.4901447515110252e-02
3172:-5.8050617576694601e-02
3173:-2.9053047509698875e-02
3174:3.7771385609144128e-03
3175:2.5472444042794085e-02
3176:-9.8252643410605980e-02
3177:-6.8565758608261612e-02
3178:-3.4333248412939305e-02
3179:-1.1104707202944429e-02
3180:-1.2718455241597154e-01
3181:-9.7184045655324139e-02
3182:-6.1931626526575322e-02
3183:-3.7601093400229574e-02
3184:6.4606818886129028e-02
3185:8.1161634200866445e-02
3186:9.9797898904068524e-02
3187:1.1195673605394731e-01
3188:3.5939939046731699e-02
3189:5.4051803348435991e-02
3190:7.4785441183876145e-02
3191:8.8468253652122700e-02
3192:3.4534186826567191e-04
3193:2.0281371864876611e-02
3194:4.3238068871541663e-02
3195:5.8459812158237062e-02
3196:-2.5505567813986253e-02
3197:-4.4636170101526717e-03
3198:1.9761027699120418e-02
3199:3.5886111917771288e-02
3200:1.1773149834226888e-01
3201:1.2737265352057114e-01
3202:1.3769877197252978e-01
3203:1.4395421268592903e-01
3204:9.4988178584837199e-02
3205:1.0593685032920491e-01
3206:1.1787321993457579e-01
3207:1.2535501341832819e-01
3208:6.5735787820305855e-02
3209:7.8115657415148476e-02
3210:9.1991480720915189e-02
3211:1.0103240285854706e-01
3212:4.3642930906313854e-02
3213:5.7002257286553518e-02
3214:7.2279420098537092e-02
3215:8.2450060469418371e-02
3216:1.4673811157573610e-01
3217:1.5127615223919830e-01
3218:1.5596462659988447e-01
3219:1.5865586582658955e-01
3220:1.2880623683719664e-01
3221:1.3457628730843763e-01
3222:1.4079271188891973e-01
3223:1.4456820309101248e-01
3224:1.0533877099478881e-01
3225:1.1264326759048920e-01
3226:1.2069666476910001e-01
3227:1.2575110828117042e-01
3228:8.7362423575325795e-02
3229:9.5734557169016285e-02
3230:1.0505378530186102e-01
3231:1.1100308987695705e-01
3232:1.5978789222072748e-01
3233:1.6144782003221467e-01
3234:1.6274853318810148e-01
3235:1.6310745039777383e-01
3236:1.4624048527806302e-01
3237:1.4885963729443857e-01
3238:1.5132760881493196e-01
3239:1.5253393968160803e-01
3240:1.2806120513905919e-01
3241:1.3184423355543026e-01
3242:1.3578217588820404e-01
3243:1.3808350965877764e-01
3244:1.1377143604426160e-01
3245:1.1840812342250949e-01
3246:1.2344323037486743e-01
3247:1.2656392575903092e-01
3248:1.6308818729659438e-01
3249:1.6280864862141575e-01
3250:1.6200399615026262e-01
3251:1.6105698459619530e-01
3252:1.5295391131768796e-01
3253:1.5346395702906926e-01
3254:1.5361543062334040e-01
3255:1.5334164706703027e-01
3256:1.3907550673736879e-01
3257:1.4060436495425829e-01
3258:1.4197471930461417e-01
3259:1.4255408929178695e-01
3260:1.2798105457089359e-01
3261:1.3026399344528383e-01
3262:1.3253711200545631e-01
3263:1.3375451407910927e-01
3264:1.6044052215189286e-01
3265:1.5913347919109525e-01
3266:1.5714943842721221e-01
3267:1.5541897224684303e-01
3268:1.5306235264879842e-01
3269:1.5235457382793785e-01
3270:1.5109400743000306e-01
3271:1.4987857226279161e-01
3272:1.4270265080639741e-01
3273:1.4276433584409190e-01
3274:1.4244846625742258e-01
3275:1.4191449127763106e-01
3276:1.3422692630969782e-01
3277:1.3487579738883801e-01
3278:1.3528640760990149e-01
3279:1.3527787568572766e-01
3280:1.5442700612798690e-01
3281:1.5249592467698761e-01
3282:1.4984855164879743e-01
3283:1.4771800066309249e-01
3284:1.4914849613414399e-01
3285:1.4768363387037312e-01
3286:1.4559551350251626e-01
3287:1.4385696226850869e-01
3288:1.4153284575402644e-01
3289:1.4068708064362723e-01
3290:1.3933993157919675e-01
3291:1.3812089459633539e-01
3292:1.3516454210430859e-01
3293:1.3479567625018740e-01
3294:1.3402119125480796e-01
3295:1.3320640732374159e-01
3296:1.4654723077403958e-01
3297:1.4431139752531599e-01
3298:1.4131977751504951e-01
3299:1.3896596006211487e-01
3300:1.4288253892310701e-01
3301:1.4099489638358753e-01
3302:1.3842055200768136e-01
3303:1.3636014253255427e-01
3304:1.3740728154883483e-01
3305:1.3598489184905505e-01
3306:1.3397306413362534e-01
3307:1.3231135653575227e-01
3308:1.3269708134009803e-01
3309:1.3164064343094425e-01
3310:1.3007338895005649e-01
3311:1.2872782343115782e-01
3312:1.3769013563236548e-01
3313:1.3527633373456943e-01
3314:1.3208638460699504e-01
3315:1.2960434200010196e-01
3316:1.3523189796461044e-01
3317:1.3307910269660359e-01
3318:1.3019953836223072e-01
3319:1.2793327690905035e-01
3320:1.3138452300300105e-01
3321:1.2958846202151403e-01
3322:1.2713424427941733e-01
3323:1.2516485549857523e-01
3324:1.2796089460485557e-01
3325:1.2644866001648924e-01
3326:1.2433438108351685e-01
3327:1.2260370134307805e-01
3328:1.2826720205472084e-01
3329:1.2573747234039620e-01
3330:1.2239183403584536e-01
3331:1.1978713146873099e-01
3332:1.2670366045789672e-01
3333:1.2436333240797519e-01
3334:1.2124176445022972e-01
3335:1.1879200141341238e-01
3336:1.2408370097935371e-01
3337:1.2200609346702947e-01
3338:1.1919765404224353e-01
3339:1.1696615570149897e-01
3340:1.2164251077037258e-01
3341:1.1977795564181216e-01
3342:1.1722478147777518e-01
3343:1.1517218145559988e-01
3344:1.1838306713745547e-01
3345:1.1571763357077024e-01
3346:1.1217295414501524e-01
3347:1.0939823687613771e-01
3348:1.1746483502264032e-01
3349:1.1493381451111544e-01
3350:1.1154588413259124e-01
3351:1.0887764955383684e-01
3352:1.1574792088176093e-01
3353:1.1340824649633766e-01
3354:1.1024536839878764e-01
3355:1.0773162479377547e-01
3356:1.1404356454026825e-01
3357:1.1186200485388374e-01
3358:1.0888654895691992e-01
3359:1.0650268481236327e-01
3360:1.0789673322984279e-01
3361:1.0502713354686972e-01
3362:1.0117228539146683e-01
3363:9.8126052869603672e-02
3364:1.0742827453960165e-01
3365:1.0464875760987156e-01
3366:1.0089688653406183e-01
3367:9.7918855282905629e-02
3368:1.0635851001886469e-01
3369:1.0371198418773930e-01
3370:1.0011463295870802e-01
3371:9.7241051201585646e-02
3372:1.0519414981466428e-01
3373:1.0266104110154889e-01
3374:9.9197074784224445e-02
3375:9.6414995847745266e-02
3376:9.6467404015532290e-02
3377:9.3272053973008112e-02
3378:8.8929373667970005e-02
3379:8.5460406316219664e-02
3380:9.6292906586012306e-02
3381:9.3152737363576432e-02
3382:8.8870414188442937e-02
3383:8.5439136081379444e-02
3384:9.5666020753056788e-02
3385:9.2613420186044085e-02
3386:8.8430373495029316e-02
3387:8.5064190311947660e-02
3388:9.4885095016928489e-02
3389:9.1911148302998846e-02
3390:8.7819447504264722e-02
3391:8.4515025830885770e-02
3392:8.3558486005546925e-02
3393:7.9864005921973860e-02
3394:7.4783554467939703e-02
3395:7.0681734713416253e-02
3396:8.3554400257623243e-02
3397:7.9887445256438538e-02
3398:7.4834053378198095e-02
3399:7.0746448293721759e-02
3400:8.3210440824038806e-02
3401:7.9595746236366130e-02
3402:7.4599601497959120e-02
3403:7.0547875763674814e-02
3404:8.2691423785989523e-02
3405:7.9129000226416127e-02
3406:7.4193135446242342e-02
3407:7.0181872824831903e-02
3408:6.8417836824724784e-02
3409:6.3987778751737945e-02
3410:5.7833278325844978e-02
3411:5.2818905214407262e-02
3412:6.8487927132504678e-02
3413:6.4064593019987889e-02
3414:5.7912680668019717e-02
3415:5.2895807366995805e-02
3416:6.8305812872451951e-02
3417:6.3909546895740008e-02
3418:5.7786095393971032e-02
3419:5.2786162226276780e-02
3420:6.7959488966726517e-02
3421:6.3597658065812912e-02
3422:5.7514792206329698e-02
3423:5.2542964652575623e-02
3424:5.0035794721053947e-02
3425:4.4555926366094789e-02
3426:3.6877990775133013e-02
3427:3.0575477278486321e-02
3428:5.0109902702817018e-02
3429:4.4623064515273161e-02
3430:3.6933142044056656e-02
3431:3.0619502531273664e-02
3432:5.0007750593155202e-02
3433:4.4533673363532721e-02
3434:3.6858619307742799e-02
3435:3.0555444208230968e-02
3436:4.9778634601015753e-02
3437:4.4330693354967206e-02
3438:3.6689856212056997e-02
3439:3.0413382025700337e-02
3440:2.7061711927506737e-02
3441:2.0114383208016281e-02
3442:1.0326158262777090e-02
3443:2.2525432971301613e-03
3444:2.7099272726935873e-02
3445:2.0140168216692997e-02
3446:1.0337949448566211e-02
3447:2.2550427613451237e-03
3448:2.7040697033781102e-02
3449:2.0093816116326619e-02
3450:1.0312375583650675e-02
3451:2.2496783530954337e-03
3452:2.6913241684269364e-02
3453:1.9996338385302678e-02
3454:1.0259953153952207e-02
3455:2.2368522479469261e-03
3456:-7.5745081558951197e-02
3457:-2.1358096766453774e-01
3458:-3.9676498655212250e-01
3459:-5.3601198866098276e-01
3460:-7.2303748205902810e-02
3461:-2.0198857720879795e-01
3462:-3.7310945781663540e-01
3463:-5.0463672911049995e-01
3464:-4.3840894409765241e-02
3465:-1.7678913490728551e-01
3466:-3.4394898868181112e-01
3467:-4.6791685339718492e-01
3468:-2.0862477245490126e-02
3469:-1.5528391876444789e-01
3470:-3.1831118078149800e-01
3471:-4.3457245923022442e-01
3472:-6.0826982685578923e-01
3473:-7.3212083630997615e-01
3474:-8.7061851508469335e-01
3475:-9.6043481703367795e-01
3476:-5.7419521728071865e-01
3477:-6.9682789951010093e-01
3478:-8.3664964859332347e-01
3479:-9.2521256378159156e-01
3480:-5.3258990362095315e-01
3481:-6.4824909370136563e-01
3482:-7.8196472126764516e-01
3483:-8.6623379377428045e-01
3484:-4.9369673298255456e-01
3485:-5.9902886615920248e-01
3486:-7.2167935825006280e-01
3487:-8.0089149348868016e-01
3488:-1.0029046125808911e+00
3489:-1.0724206691688398e+00
3490:-1.1424954800084768e+00
3491:-1.1798425728848714e+00
3492:-9.6487517352047925e-01
3493:-1.0252679645851788e+00
3494:-1.0805614799622558e+00
3495:-1.1085840031614491e+00
3496:-9.0313392353556177e-01
3497:-9.5664373331184216e-01
3498:-1.0010895009441589e+00
3499:-1.0208307254912967e+00
3500:-8.3674601431630269e-01
3501:-8.9065308113563280e-01
3502:-9.3794395842047928e-01
3503:-9.5968327370676176e-01
3504:-1.1936262913977587e+00
3505:-1.2052240665740694e+00
3506:-1.1921776809047906e+00
3507:-1.1609211973344737e+00
3508:-1.1192555502747736e+00
3509:-1.1274803772802788e+00
3510:-1.1151322220795388e+00
3511:-1.0889353766959045e+00
3512:-1.0276836839551393e+00
3513:-1.0328002506749550e+00
3514:-1.0251738934429495e+00
3515:-1.0095829249632293e+00
3516:-9.6711524399278104e-01
3517:-9.7493404330051936e-01
3518:-9.7437852721280471e-01
3519:-9.6670574081598459e-01
3520:-1.1372883531888969e+00
3521:-1.0884318989841975e+00
3522:-1.0194272144429521e+00
3523:-9.6423476030032940e-01
3524:-1.0698566852937743e+00
3525:-1.0335570416694673e+00
3526:-9.8462714007037955e-01
3527:-9.4362810502230110e-01
3528:-9.9848727660222247e-01
3529:-9.7728138157826905e-01
3530:-9.4568774878342932e-01
3531:-9.1457397323508371e-01
3532:-9.6042542442014689e-01
3533:-9.4565285382219622e-01
3534:-9.1825783489234991e-01
3535:-8.8872307641902382e-01
3536:-9.3446700969630092e-01
3537:-8.7722329176872404e-01
3538:-7.9918065552527162e-01
3539:-7.3639988522388233e-01
3540:-9.1975378749024339e-01
3541:-8.6944893254124977e-01
3542:-7.9553787701915679e-01
3543:-7.3516428656156851e-01
3544:-8.9439506128070478e-01
3545:-8.4995248408312851e-01
3546:-7.8321972645278726e-01
3547:-7.2909819242454221e-01
3548:-8.6938646536454611e-01
3549:-8.2854163317791374e-01
3550:-7.6942050995770350e-01
3551:-7.2205897820789255e-01
3552:-7.0195679321892712e-01
3553:-6.3872568153910325e-01
3554:-5.6011511849202111e-01
3555:-5.0327061802514506e-01
3556:-7.0262006816662093e-01
3557:-6.4414650253545624e-01
3558:-5.7246388181941754e-01
3559:-5.2006547643195145e-01
3560:-7.0040324266375531e-01
3561:-6.4880971453101766e-01
3562:-5.8458892202255708e-01
3563:-5.3625540178979170e-01
3564:-6.9684149740346146e-01
3565:-6.5031360674356098e-01
3566:-5.9034115162440637e-01
3567:-5.4411427495836651e-01
3568:-4.7428855634411959e-01
3569:-4.2197390937985291e-01
3570:-3.5743801097013206e-01
3571:-3.1059733882521917e-01
3572:-4.9274359958414771e-01
3573:-4.4244283447907495e-01
3574:-3.7925375289514407e-01
3575:-3.3319212977823803e-01
3576:-5.1041775251784283e-01
3577:-4.6250417470239613e-01
3578:-4.0214192346285904e-01
3579:-3.5829981733919308e-01
3580:-5.1922151880856016e-01
3581:-4.7339357225572021e-01
3582:-4.1614291292530087e-01
3583:-3.7467571821500073e-01
3584:-2.8654897155597236e-01
3585:-2.4400612873805078e-01
3586:-1.9369387046278111e-01
3587:-1.5905294646111251e-01
3588:-3.0967575409170456e-01
3589:-2.6823024778418730e-01
3590:-2.1914242704415890e-01
3591:-1.8495505973131035e-01
3592:-3.3603545426936060e-01
3593:-2.9654889741961427e-01
3594:-2.4904272728851218e-01
3595:-2.1523679636213630e-01
3596:-3.5356177388670440e-01
3597:-3.1565370097630180e-01
3598:-2.6921565280871940e-01
3599:-2.3566565294413730e-01
3600:-1.4193516584364466e-01
3601:-1.1177066771761705e-01
3602:-7.5978671288664118e-02
3603:-5.1125451329061759e-02
3604:-1.6782131247241508e-01
3605:-1.3732573940195991e-01
3606:-1.0076561400342145e-01
3607:-7.5257492510317589e-02
3608:-1.9801164783666780e-01
3609:-1.6723436851326071e-01
3610:-1.3025940296313468e-01
3611:-1.0446683811372869e-01
3612:-2.1845162218344363e-01
3613:-1.8775461731428328e-01
3614:-1.5096362918223721e-01
3615:-1.2528825320022308e-01
3616:-3.8756969236450084e-02
3617:-1.7268838662933380e-02
3618:7.4719099225009251e-03
3619:2.4006974400355385e-02
3620:-6.2570658896576078e-02
3621:-4.0507957337556341e-02
3622:-1.4958655025723100e-02
3623:2.3245612065116708e-03
3624:-9.1650252271271049e-02
3625:-6.9201973493509719e-02
3626:-4.2816206862123084e-02
3627:-2.4623279471079687e-02
3628:-1.1249393702411969e-01
3629:-8.9892966587951442e-02
3630:-6.2972533868938488e-02
3631:-4.4175961178628556e-02
3632:3.2006830105274393e-02
3633:4.5873923377256404e-02
3634:6.1874732146290128e-02
3635:7.2610397567546975e-02
3636:1.0789121955096452e-02
3637:2.5580037736759577e-02
3638:4.2818025665964592e-02
3639:5.4477890505642293e-02
3640:-1.5584540336359828e-02
3641:2.7778712851449488e-04
3642:1.8850877704298302e-02
3643:3.1472179308863882e-02
3644:-3.4771913762848224e-02
3645:-1.8259529232114994e-02
3646:1.0997311482393198e-03
3647:1.4303498240418612e-02
3648:7.7815704882391395e-02
3649:8.6702083468196772e-02
3650:9.6640122415117463e-02
3651:1.0304265347798748e-01
3652:6.0153546483493574e-02
3653:6.9891075155732077e-02
3654:8.0907398600904221e-02
3655:8.8135564125817856e-02
3656:3.7637626463335939e-02
3657:4.8311528847466888e-02
3658:6.0599863450394510e-02
3659:6.8844826603160783e-02
3660:2.0782389312993321e-02
3661:3.2086962796464343e-02
3662:4.5267991137634238e-02
3663:5.4231877963872584e-02
3664:1.0605075463104707e-01
3665:1.1113678226956603e-01
3666:1.1674768444535005e-01
3667:1.2029305806630482e-01
3668:9.1589084038716975e-02
3669:9.7498403021942140e-02
3670:1.0414188870516024e-01
3671:1.0843617559484516e-01
3672:7.2852803202695715e-02
3673:7.9769141481781242e-02
3674:8.7648634631615471e-02
3675:9.2830195835056389e-02
3676:5.8627550410502584e-02
3677:6.6240708228341910e-02
3678:7.4972512645270342e-02
3679:8.0773819016962997e-02
3680:1.2192775110149687e-01
3681:1.2459710923036546e-01
3682:1.2733717610867340e-01
3683:1.2888995494082628e-01
3684:1.1045198700915804e-01
3685:1.1380697374334574e-01
3686:1.1739330064356096e-01
3687:1.1956554095407010e-01
3688:9.5298476666035928e-02
3689:9.9483163105472561e-02
3690:1.0412029682226398e-01
3691:1.0707583216724473e-01
3692:8.3564047584924139e-02
3693:8.8348165093190462e-02
3694:9.3755252087215940e-02
3695:9.7287151870908195e-02
3696:1.2953493581101688e-01
3697:1.3049746573700072e-01
3698:1.3129585064835445e-01
3699:1.3156661839331274e-01
3700:1.2053225548300568e-01
3701:1.2207698988031289e-01
3702:1.2358984668665483e-01
3703:1.2437232390904948e-01
3704:1.0845186222523129e-01
3705:1.1073351807093973e-01
3706:1.1314524347808710e-01
3707:1.1457046651172069e-01
3708:9.8963497456370564e-02
3709:1.0178475045810907e-01
3710:1.0485571388604778e-01
3711:1.0675593207170324e-01
3712:1.3159529014396956e-01
3713:1.3147930139419578e-01
3714:1.3101020886406894e-01
3715:1.3041278329275691e-01
3716:1.2466068982662923e-01
3717:1.2500997305986686e-01
3718:1.2510839274237837e-01
3719:1.2491862027343359e-01
3720:1.1518583539825518e-01
3721:1.1612593798803904e-01
3722:1.1695351235691277e-01
3723:1.1729234050844972e-01
3724:1.0761506132187773e-01
3725:1.0899846646592609e-01
3726:1.1037687900409858e-01
3727:1.1111640283153466e-01
3728:1.3001401444187699e-01
3729:1.2915594238754105e-01
3730:1.2782986716245606e-01
3731:1.2665576388831606e-01
3732:1.2472821912719791e-01
3733:1.2424370485583701e-01
3734:1.2337111018014861e-01
3735:1.2251915831780355e-01
3736:1.1737319182748532e-01
3737:1.1737471607865332e-01
3738:1.1709208427798624e-01
3739:1.1665999451966418e-01
3740:1.1140290735708551e-01
3741:1.1177319604911608e-01
3742:1.1193950901731375e-01
3743:1.1182864407975572e-01
3744:1.2597550725904166e-01
3745:1.2461741346494148e-01
3746:1.2268851090410204e-01
3747:1.2108868200675102e-01
3748:1.2200180097673242e-01
3749:1.2093439641750076e-01
3750:1.1935702848821773e-01
3751:1.1800669215055590e-01
3752:1.1635550678344976e-01
3753:1.1566970333145529e-01
3754:1.1455691073747852e-01
3755:1.1353829303164806e-01
3756:1.1168782831283602e-01
3757:1.1129651031277528e-01
3758:1.1054386758367001e-01
3759:1.0978332066950912e-01
3760:1.2019350764284900e-01
3761:1.1844640921893806e-01
3762:1.1603429954359230e-01
3763:1.1408079924032016e-01
3764:1.1723780269474249e-01
3765:1.1571561662630281e-01
3766:1.1357403715827703e-01
3767:1.1181098481570353e-01
3768:1.1293787258208519e-01
3769:1.1171623668450832e-01
3770:1.0993726013707598e-01
3771:1.0843051473731648e-01
3772:1.0931419121468175e-01
3773:1.0832726070446799e-01
3774:1.0683257789908709e-01
3775:1.0552782473268178e-01
3776:1.1300190931316145e-01
3777:1.1090832778834882e-01
3778:1.0803767731445489e-01
3779:1.0572687178292497e-01
3780:1.1082783751447454e-01
3781:1.0890416083470052e-01
3782:1.0623694117545047e-01
3783:1.0406873651037366e-01
3784:1.0757666247705511e-01
3785:1.0588336420072522e-01
3786:1.0349376813119932e-01
3787:1.0152151709067182e-01
3788:1.0477628552047667e-01
3789:1.0326591564047558e-01
3790:1.0109790160618519e-01
3791:9.9282887992359833e-02
3792:1.0445482533351956e-01
3793:1.0198604494943947e-01
3794:9.8598220039311110e-02
3795:9.5868776565520578e-02
3796:1.0286818967296897e-01
3797:1.0052587444757412e-01
3798:9.7288567066152951e-02
3799:9.4663864712237950e-02
3800:1.0041968960275893e-01
3801:9.8252764406761769e-02
3802:9.5225792905762746e-02
3803:9.2748779094287886e-02
3804:9.8260566465644100e-02
3805:9.6235468809462404e-02
3806:9.3379770019592717e-02
3807:9.1023998239055784e-02
3808:9.4364991093504977e-02
3809:9.1436875120355102e-02
3810:8.7399054534362114e-02
3811:8.4131610534039725e-02
3812:9.3212315591001890e-02
3813:9.0376417491796313e-02
3814:8.6448129756000136e-02
3815:8.3256777081332348e-02
3816:9.1371393783659216e-02
3817:8.8667398935435224e-02
3818:8.4897750866928537e-02
3819:8.1818205499996050e-02
3820:8.9707868747804911e-02
3821:8.7113477811424589e-02
3822:8.3476959297497363e-02
3823:8.0492293235148477e-02
3824:8.2326270900677248e-02
3825:7.8795902198136578e-02
3826:7.3897808099491258e-02
3827:6.9912577752506422e-02
3828:8.1489367467181134e-02
3829:7.8026215647313518e-02
3830:7.3208624276614329e-02
3831:6.9279947130761924e-02
3832:8.0107133025544910e-02
3833:7.6744928861919137e-02
3834:7.2050475526552957e-02
3835:6.8210113731408742e-02
3836:7.8829419344654192e-02
3837:7.5554307646556199e-02
3838:7.0967546101684639e-02
3839:6.7205578808718427e-02
3840:6.7703118618711811e-02
3841:6.3364364852498162e-02
3842:5.7309614892432408e-02
3843:5.2357995552772485e-02
3844:6.7098970241851588e-02
3845:6.2811767690332740e-02
3846:5.6821183419561501e-02
3847:5.1916741134962814e-02
3848:6.6074286831824355e-02
3849:6.1869930556621697e-02
3850:5.5984633695318219e-02
3851:5.1159257129409094e-02
3852:6.5110249857516816e-02
3853:6.0980886021678303e-02
3854:5.5192187787825552e-02
3855:5.0440318528980899e-02
3856:4.9604055310297865e-02
3857:4.4175702348318295e-02
3858:3.6560997492438366e-02
3859:3.0305217181912269e-02
3860:4.9187423365113968e-02
3861:4.3805914448973436e-02
3862:3.6254371255892218e-02
3863:3.0049012055721021e-02
3864:4.8471765994757041e-02
3865:4.3170464841315898e-02
3866:3.5728059405412148e-02
3867:2.9610415521950068e-02
3868:4.7792034322776400e-02
3869:4.2566268778262265e-02
3870:3.5227187411460636e-02
3871:2.9192908048651028e-02
3872:2.6816461384851654e-02
3873:1.9922660469630895e-02
3874:1.0220350472343775e-02
3875:2.2266739051465651e-03
3876:2.6588080022099458e-02
3877:1.9750423273338032e-02
3878:1.0130120326938838e-02
3879:2.2065905021549435e-03
3880:2.6198009822830284e-02
3881:1.9457794838493483e-02
3882:9.9786167989854499e-03
3883:2.1747981724762749e-03
3884:2.5826686661065877e-02
3885:1.9178931821036523e-02
3886:9.8329683506670276e-03
3887:2.1415728463680065e-03
3888:-1.3409225794645225e-02
3889:-1.4485423467010972e-01
3890:-3.0242874445403645e-01
3891:-4.1296081566279375e-01
3892:-1.1065133847255059e-02
3893:-1.3050525352135639e-01
3894:-2.7367086807856794e-01
3895:-3.7352380269536051e-01
3896:-2.1097623067868443e-02
3897:-1.1955486457700547e-01
3898:-2.4177982945126023e-01
3899:-3.3001126940907899e-01
3900:-2.9803308136578478e-02
3901:-1.1436758801817953e-01
3902:-2.2382869646594994e-01
3903:-3.0621071824026241e-01
3904:-4.6841030183858390e-01
3905:-5.6654546622710100e-01
3906:-6.8128773124392950e-01
3907:-7.5734945754398519e-01
3908:-4.2320427216570061e-01
3909:-5.1026523591123685e-01
3910:-6.1275745786224689e-01
3911:-6.8364859715146264e-01
3912:-3.7479235816150241e-01
3913:-4.5301099212801138e-01
3914:-5.4553407177579005e-01
3915:-6.1119975995100406e-01
3916:-3.4913145719098765e-01
3917:-4.2453286266658369e-01
3918:-5.1364995577707329e-01
3919:-5.7623934208141681e-01
3920:-7.9307785663454533e-01
3921:-8.4943117134701274e-01
3922:-9.0294570758194659e-01
3923:-9.2978935882747538e-01
3924:-7.1887810267854224e-01
3925:-7.7853036211384152e-01
3926:-8.4160477961950442e-01
3927:-8.7702439347207672e-01
3928:-6.4489262292619742e-01
3929:-7.0451632559557675e-01
3930:-7.7194418189272307e-01
3931:-8.1287277217773490e-01
3932:-6.0794928826817718e-01
3933:-6.6367449314458460e-01
3934:-7.2679961986348884e-01
3935:-7.6598180269739502e-01
3936:-9.3952340525429223e-01
3937:-9.5146149185145878e-01
3938:-9.5583347261940454e-01
3939:-9.5134858936116762e-01
3940:-8.9097179494100798e-01
3941:-9.1006309277631092e-01
3942:-9.2199141814988728e-01
3943:-9.2155595640306553e-01
3944:-8.3011637796829130e-01
3945:-8.5482694099335255e-01
3946:-8.7248651873128491e-01
3947:-8.7494761968933010e-01
3948:-7.8306916381252767e-01
3949:-8.0806116647053916e-01
3950:-8.2695784271385975e-01
3951:-8.3100105810858149e-01
3952:-9.4640205693017809e-01
3953:-9.3227758531091487e-01
3954:-9.0365515944626662e-01
3955:-8.7328747785547367e-01
3956:-9.1797655871987482e-01
3957:-9.0429274547362148e-01
3958:-8.7447357690374761e-01
3959:-8.4420382540826755e-01
3960:-8.7234130422397460e-01
3961:-8.6029042908205799e-01
3962:-8.3348170539956867e-01
3963:-8.0720055523551304e-01
3964:-8.2951091563923030e-01
3965:-8.2092295008384197e-01
3966:-8.0061648729438395e-01
3967:-7.8001002690664700e-01
3968:-8.5408919539032380e-01
3969:-8.1531047272770174e-01
3970:-7.6106442923492490e-01
3971:-7.1775132271727904e-01
3972:-8.2613646757304171e-01
3973:-7.9175464924020533e-01
3974:-7.4564408587282716e-01
3975:-7.0850421860591495e-01
3976:-7.9209706526647683e-01
3977:-7.6383679942841709e-01
3978:-7.2569224423450218e-01
3979:-6.9382350750386845e-01
3980:-7.6787069195450908e-01
3981:-7.4401416032720125e-01
3982:-7.0984694076722521e-01
3983:-6.8031752396978129e-01
3984:-6.9437706750627515e-01
3985:-6.5025046239016759e-01
3986:-5.9200602591227824e-01
3987:-5.4669464252829025e-01
3988:-6.8782896141193284e-01
3989:-6.4745800210909410e-01
3990:-5.9256419705165730e-01
3991:-5.4955643562605550e-01
3992:-6.7545411566638569e-01
3993:-6.3904128372300295e-01
3994:-5.8912997381963372e-01
3995:-5.5016775154324138e-01
3996:-6.6316644710334305e-01
3997:-6.2957354080061589e-01
3998:-5.8409829392717594e-01
3999:-5.4875414054606297e-01
4000:-5.2235102787360566e-01
4001:-4.7785284956272822e-01
4002:-4.2259174757973228e-01
4003:-3.8252190327660729e-01
4004:-5.2661171305109944e-01
4005:-4.8495972478391541e-01
4006:-4.3332151325848023e-01
4007:-3.9552099092831816e-01
4008:-5.2953093130223161e-01
4009:-4.9186436837706293e-01
4010:-4.4444667956125811e-01
4011:-4.0898312021396988e-01
4012:-5.2998789496977683e-01
4013:-4.9522058992044660e-01
4014:-4.5052399714601987e-01
4015:-4.1654464519292228e-01
4016:-3.6200770308233510e-01
4017:-3.2486850338477902e-01
4018:-2.7892571281128453e-01
4019:-2.4555018042814342e-01
4020:-3.7591409534824116e-01
4021:-3.4003115970293257e-01
4022:-2.9516239142106293e-01
4023:-2.6242873345128526e-01
4024:-3.9028500135826105e-01
4025:-3.5592320277271333e-01
4026:-3.1287654610772420e-01
4027:-2.8150933954260365e-01
4028:-3.9850461023994704e-01
4029:-3.6544901653939443e-01
4030:-3.2419020953970074e-01
4031:-2.9415044087386044e-01
4032:-2.2841482712143135e-01
4033:-1.9791751294222243e-01
4034:-1.6140561485942673e-01
4035:-1.3587161101785297e-01
4036:-2.4564277017995367e-01
4037:-2.1577678468091580e-01
4038:-1.7990345484516651e-01
4039:-1.5460487253833710e-01
4040:-2.6545457506468423e-01
4041:-2.3672135109296594e-01
4042:-2.0178038765483486e-01
4043:-1.7675802188071091e-01
4044:-2.7874621373605241e-01
4045:-2.5094930242391678e-01
4046:-2.1672583667423992e-01
4047:-1.9194808626536633e-01
4048:-1.2310036094022522e-01
4049:-1.0042752624024437e-01
4050:-7.3246694542326393e-02
4051:-5.4178550898261464e-02
4052:-1.4184024182615185e-01
4053:-1.1903395309408221e-01
4054:-9.1493523630562165e-02
4055:-7.2083078741242382e-02
4056:-1.6399079382379422e-01
4057:-1.4110776624633564e-01
4058:-1.1339870735750281e-01
4059:-9.3833349742330027e-02
4060:-1.7923484205423384e-01
4061:-1.5645464938926421e-01
4062:-1.2887279989647279e-01
4063:-1.0936527801766970e-01
4064:-4.4622465296802784e-02
4065:-2.7844367330420301e-02
4066:-8.1538513283358535e-03
4067:5.3179116316312714e-03
4068:-6.2342736391792428e-02
4069:-4.5210303546855513e-02
4070:-2.5002321086533823e-02
4071:-1.1059555528111293e-02
4072:-8.4004834793928937e-02
4073:-6.6620433165163306e-02
4074:-4.5895396482317524e-02
4075:-3.1410352483414651e-02
4076:-9.9540383425862453e-02
4077:-8.2059625919922441e-02
4078:-6.1028575539434970e-02
4079:-4.6200375670944892e-02
4080:1.1952429949530418e-02
4081:2.3575934243065623e-02
4082:3.7207924207027031e-02
4083:4.6527740510152203e-02
4084:-4.1400171847995144e-03
4085:8.0493088705656489e-03
4086:2.2449020860268586e-02
4087:3.2358014675104713e-02
4088:-2.4154053363689601e-02
4089:-1.1323782853213799e-02
4090:3.9061896596801183e-03
4091:1.4440365779497819e-02
4092:-3.8734499047196565e-02
4093:-2.5516958555149964e-02
4094:-9.7913289397736827e-03
4095:1.1271260062364914e-03
4096:5.1111268691579330e-02
4097:5.9061942401368507e-02
4098:6.8211919621405964e-02
4099:7.4325132563793611e-02
4100:3.7249378222755140e-02
4101:4.5766041115941063e-02
4102:5.5643515178762662e-02
4103:6.2316305492261408e-02
4104:1.9660226290963499e-02
4105:2.8805796698969904e-02
4106:3.9533716242892411e-02
4107:4.6881942078093826e-02
4108:6.5575564600999494e-03
4109:1.6122313193025168e-02
4110:2.7436683420546375e-02
4111:3.5255372093837042e-02
4112:7.7281016871236688e-02
4113:8.2375280486433153e-02
4114:8.8180871585595830e-02
4115:9.2009267843845180e-02
4116:6.5573498267217548e-02
4117:7.1227396010118599e-02
4118:7.7743349336792375e-02
4119:8.2095695921969705e-02
4120:5.0506126001513364e-02
4121:5.6834590473516571e-02
4122:6.4196714361878876e-02
4123:6.9170980172937921e-02
4124:3.9133893794611026e-02
4125:4.5927167150453828e-02
4126:5.3872390888906503e-02
4127:5.9280078019661071e-02
4128:9.3839020652275382e-02
4129:9.6936273194287090e-02
4130:1.0034667264833695e-01
4131:1.0249414133329254e-01
4132:8.4195827275964447e-02
4133:8.7783973997323905e-02
4134:9.1806842742356440e-02
4135:9.4406089333625515e-02
4136:7.1593246681602857e-02
4137:7.5774400193406047e-02
4138:8.0550823525431678e-02
4139:8.3713232540688798e-02
4140:6.1929999732590155e-02
4141:6.6535217465092097e-02
4142:7.1856890280460661e-02
4143:7.5428832555989769e-02
4144:1.0348131718249670e-01
4145:1.0509820362369730e-01
4146:1.0676706797035172e-01
4147:1.0771763503116437e-01
4148:9.5628683965308645e-02
4149:9.7673960532530676e-02
4150:9.9873971304237877e-02
4151:1.0120968744294231e-01
4152:8.5230674925957192e-02
4153:8.7811244733205229e-02
4154:9.0673514062851929e-02
4155:9.2489918357206255e-02
4156:7.7160565974080692e-02
4157:8.0130018867584585e-02
4158:8.3474610141857905e-02
4159:8.5643372185473937e-02
4160:1.0811225589302835e-01
4161:1.0867670359645550e-01
4162:1.0908034806123727e-01
4163:1.0914026257248263e-01
4164:1.0180160212622977e-01
4165:1.0272189781034376e-01
4166:1.0356350392370997e-01
4167:1.0394055684231612e-01
4168:9.3328797238686173e-02
4169:9.4697318779757469e-02
4170:9.6095365503795743e-02
4171:9.6878161913413960e-02
4172:8.6664484051284074e-02
4173:8.8365488944289097e-02
4174:9.0178748025896510e-02
4175:9.1265440378008766e-02
4176:1.0908685451990643e-01
4177:1.0885308188929263e-01
4178:1.0829343917702122e-01
4179:1.0767132790879387e-01
4180:1.0405002096347866e-01
4181:1.0410984823052055e-01
4182:1.0390991496844540e-01
4183:1.0354599746488626e-01
4184:9.7196677278699586e-02
4185:9.7633549440528197e-02
4186:9.7896189450083687e-02
4187:9.7865192122650782e-02
4188:9.1740707387960529e-02
4189:9.2460660494483871e-02
4190:9.3071695256974341e-02
4191:9.3292635176035602e-02
4192:1.0727265091262429e-01
4193:1.0641187807208650e-01
4194:1.0507051162545805e-01
4195:1.0387513265548155e-01
4196:1.0327885367283782e-01
4197:1.0265424526941079e-01
4198:1.0160111145037053e-01
4199:1.0061222987167148e-01
4200:9.7768113228190873e-02
4201:9.7450004671690793e-02
4202:9.6773030443096889e-02
4203:9.6055046383363138e-02
4204:9.3324775558773873e-02
4205:9.3240314822272255e-02
4206:9.2851339747011152e-02
4207:9.2341550967164038e-02
4208:1.0317916204974605e-01
4209:1.0176833623214100e-01
4210:9.9721231726502491e-02
4211:9.7992259203269358e-02
4212:1.0002144945080566e-01
4213:9.8799318020422522e-02
4214:9.6981910918650299e-02
4215:9.5416828910057122e-02
4216:9.5602689095648744e-02
4217:9.4629396944318572e-02
4218:9.3116001827092190e-02
4219:9.1768794843614568e-02
4220:9.1995806859333090e-02
4221:9.1214613725545249e-02
4222:8.9936876391600792e-02
4223:8.8759392798110001e-02
4224:9.7013528979623787e-02
4225:9.5066391716957105e-02
4226:9.2305255554115118e-02
4227:9.0016764686903464e-02
4228:9.4521306842995451e-02
4229:9.2723399240216262e-02
4230:9.0144100942552111e-02
4231:8.7985627209088715e-02
4232:9.0984272337642266e-02
4233:8.9386205258875015e-02
4234:8.7051902545115578e-02
4235:8.5069737591087116e-02
4236:8.8061662120640413e-02
4237:8.6620385374109446e-02
4238:8.4479300895903303e-02
4239:8.2636935266162476e-02
4240:8.8734755049000844e-02
4241:8.6201622600926134e-02
4242:8.2639920723018470e-02
4243:7.9708901290540563e-02
4244:8.6769779700687222e-02
4245:8.4355803136341917e-02
4246:8.0940362827463253e-02
4247:7.8114809286678993e-02
4248:8.3944007698565179e-02
4249:8.1693021733982518e-02
4250:7.8479035061019511e-02
4251:7.5799858756770172e-02
4252:8.1582925599217704e-02
4253:7.9462156761864036e-02
4254:7.6410127679849782e-02
4255:7.3849439369635464e-02
4256:7.8073400206387741e-02
4257:7.4847977393552922e-02
4258:7.0323109482678947e-02
4259:6.6606552838460426e-02
4260:7.6533341290441509e-02
4261:7.3406422225185813e-02
4262:6.9005077425823902e-02
4263:6.5379785353152572e-02
4264:7.4293795791768216e-02
4265:7.1305095704549612e-02
4266:6.7078544779121785e-02
4267:6.3583524130002261e-02
4268:7.2404710323504290e-02
4269:6.9528946976356823e-02
4270:6.5446200514165720e-02
4271:6.2059102611792337e-02
4272:6.4534809388732711e-02
4273:6.0449320637959700e-02
4274:5.4717513977403584e-02
4275:5.0009213918821051e-02
4276:6.3355667549055500e-02
4277:5.9359134118083919e-02
4278:5.3743343843995497e-02
4279:4.9124382549469228e-02
4280:6.1627781172000171e-02
4281:5.7759593242043619e-02
4282:5.2312374703940311e-02
4283:4.7824082698094440e-02
4284:6.0160263931545069e-02
4285:5.6399311304956963e-02
4286:5.1093720854858866e-02
4287:4.6715779548462094e-02
4288:4.7384259198201682e-02
4289:4.2203537639071628e-02
4290:3.4926221323027105e-02
4291:2.8941863870608577e-02
4292:4.6547424565125027e-02
4293:4.1459554817376863e-02
4294:3.4309839383868800e-02
4295:2.8428781478713774e-02
4296:4.5317604277335936e-02
4297:4.0366384706829204e-02
4298:3.3404927276932429e-02
4299:2.7676547541736100e-02
4300:4.4269003291746496e-02
4301:3.9433724239153430e-02
4302:3.2632274388053224e-02
4303:2.7033823865838625e-02
4304:2.5603316938487993e-02
4305:1.9010885040975135e-02
4306:9.7444296390455081e-03
4307:2.1199671771080196e-03
4308:2.5147533692919149e-02
4309:1.8669526311943116e-02
4310:9.5672044716855736e-03
4311:2.0806460913415700e-03
4312:2.4480044362527396e-02
4313:1.8171052973892945e-02
4314:9.3106158580313989e-03
4315:2.0268112109968219e-03
4316:2.3909469640583755e-02
4317:1.7744220105372976e-02
4318:9.0891139690739264e-03
4319:1.9771004091474701e-03
4320:-3.2081444537645616e-02
4321:-1.1183957206682850e-01
4322:-2.1701184402299439e-01
4323:-2.9760283851684172e-01
4324:-3.0599423391020699e-02
4325:-1.0580697945333353e-01
4326:-2.0587079822056406e-01
4327:-2.8321746412287674e-01
4328:-2.2329327850884480e-02
4329:-9.6230410670334041e-02
4330:-1.9202888826114969e-01
4331:-2.6433341796231524e-01
4332:-1.5704876112547242e-02
4333:-8.8584789619725254e-02
4334:-1.8032162866433626e-01
4335:-2.4767624638954247e-01
4336:-3.4007523877181189e-01
4337:-4.1509102199044323e-01
4338:-5.0359429598680916e-01
4339:-5.6477475454645865e-01
4340:-3.2423832049936374e-01
4341:-3.9731307569940461e-01
4342:-4.8356889475289810e-01
4343:-5.4201428123495254e-01
4344:-3.0219595958678663e-01
4345:-3.7016032840543667e-01
4346:-4.5104622120367871e-01
4347:-5.0576013929984576e-01
4348:-2.8239802923611146e-01
4349:-3.4492208880205671e-01
4350:-4.2018909800060378e-01
4351:-4.7202559538522465e-01
4352:-5.9515284837885307e-01
4353:-6.4746404455990825e-01
4354:-7.0555656732813776e-01
4355:-7.4151797120362184e-01
4356:-5.7020872977334236e-01
4357:-6.1714624240460592e-01
4358:-6.6741612016794161e-01
4359:-6.9829063919348611e-01
4360:-5.3190813244489021e-01
4361:-5.7471219813226981e-01
4362:-6.1974484335321800e-01
4363:-6.4742622026797592e-01
4364:-4.9722627169909228e-01
4365:-5.3915964056105259e-01
4366:-5.8430072686572754e-01
4367:-6.1256368935898353e-01
4368:-7.5741436213141256e-01
4369:-7.8097511385376683e-01
4370:-7.9953603079552926e-01
4371:-8.0453339265896140e-01
4372:-7.1223475856589169e-01
4373:-7.3350079399504664e-01
4374:-7.5173498334795008e-01
4375:-7.5858300491272346e-01
4376:-6.6016979818209554e-01
4377:-6.8027785125199636e-01
4378:-6.9917460273056897e-01
4379:-7.0821923461027958e-01
4380:-6.2566653286971674e-01
4381:-6.4660096856179206e-01
4382:-6.6688381378879025e-01
4383:-6.7720525766059825e-01
4384:-8.0401408679406194e-01
4385:-7.9831385305004754e-01
4386:-7.8291602633287949e-01
4387:-7.6601162850245585e-01
4388:-7.5982600789697885e-01
4389:-7.5887542823129472e-01
4390:-7.5108288153250691e-01
4391:-7.3974885450117478e-01
4392:-7.1122351931061278e-01
4393:-7.1429004954432496e-01
4394:-7.1236071318696703e-01
4395:-7.0534352859993144e-01
4396:-6.8093887180938828e-01
4397:-6.8516358036437564e-01
4398:-6.8462681909981882e-01
4399:-6.7892209360364719e-01
4400:-7.5552275924625845e-01
4401:-7.3373714974183890e-01
4402:-7.0099105164658271e-01
4403:-6.7230451574434891e-01
4404:-7.3172024357180343e-01
4405:-7.1324958025534446e-01
4406:-6.8335884125880453e-01
4407:-6.5677108004081941e-01
4408:-6.9936567349149137e-01
4409:-6.8438903167354337e-01
4410:-6.5889822487155769e-01
4411:-6.3601834750556985e-01
4412:-6.7384431101279740e-01
4413:-6.6116848734944800e-01
4414:-6.3955828636178735e-01
4415:-6.1999034581171752e-01
4416:-6.5574304750778556e-01
4417:-6.2372821118565702e-01
4418:-5.8083569321458339e-01
4419:-5.4748288594878824e-01
4420:-6.4160122660724783e-01
4421:-6.1271681682136170e-01
4422:-5.7430457579723138e-01
4423:-5.4414259391655950e-01
4424:-6.2305167608928280e-01
4425:-5.9826396563533712e-01
4426:-5.6475692048443682e-01
4427:-5.3778071144081097e-01
4428:-6.0878513782905974e-01
4429:-5.8686041732188610e-01
4430:-5.5634010642056142e-01
4431:-5.3126299700127277e-01
4432:-5.2965839214014987e-01
4433:-4.9627203302246270e-01
4434:-4.5282746178596961e-01
4435:-4.1959843949919107e-01
4436:-5.2777136319370266e-01
4437:-4.9664160516519873e-01
4438:-4.5555009531512786e-01
4439:-4.2396365563967403e-01
4440:-5.2285275612039883e-01
4441:-4.9428099357647209e-01
4442:-4.5643023054104809e-01
4443:-4.2736719722211985e-01
4444:-5.1727818013335380e-01
4445:-4.9061669798099550e-01
4446:-4.5545673982856549e-01
4447:-4.2849021510947188e-01
4448:-4.0195129327247803e-01
4449:-3.6970750384816636e-01
4450:-3.2954497339033484e-01
4451:-3.0026240033972401e-01
4452:-4.0721815903212383e-01
4453:-3.7667201973513370e-01
4454:-3.3855584596160743e-01
4455:-3.1056313181199580e-01
4456:-4.1199770855709106e-01
4457:-3.8380763084751063e-01
4458:-3.4821182619072533e-01
4459:-3.2168250745311044e-01
4460:-4.1420273642686051e-01
4461:-3.8775472644798981e-01
4462:-3.5391219974495108e-01
4463:-3.2841029133306338e-01
4464:-2.8519697716262987e-01
4465:-2.5787220968390884e-01
4466:-2.2401647599439023e-01
4467:-1.9940258695469928e-01
4468:-2.9604502353111728e-01
4469:-2.6953420782549037e-01
4470:-2.3644370876669357e-01
4471:-2.1228760734841817e-01
4472:-3.0777634099432927e-01
4473:-2.8229822476560390e-01
4474:-2.5041095362045235e-01
4475:-2.2710393750796454e-01
4476:-3.1497166056688863e-01
4477:-2.9036572449975567e-01
4478:-2.5958878162443944e-01
4479:-2.3707016009560761e-01
4480:-1.8675837823125921e-01
4481:-1.6411491183414673e-01
4482:-1.3669409573112606e-01
4483:-1.1726187026422440e-01
4484:-1.9987028369233334e-01
4485:-1.7761417021736556e-01
4486:-1.5057109049208342e-01
4487:-1.3128639944164069e-01
4488:-2.1511847746720658e-01
4489:-1.9353582645879974e-01
4490:-1.6707540014411340e-01
4491:-1.4800517382284994e-01
4492:-2.2546616672107467e-01
4493:-2.0445296995113779e-01
4494:-1.7847323271027929e-01
4495:-1.5960654024626617e-01
4496:-1.0744931225936301e-01
4497:-8.9932046144632058e-02
4498:-6.8762765698194520e-02
4499:-5.3784186108268565e-02
4500:-1.2149093667330117e-01
4501:-1.0392409093333201e-01
4502:-8.2574946984810951e-02
4503:-6.7404353961878938e-02
4504:-1.3824525820613184e-01
4505:-1.2068982324825728e-01
4506:-9.9280365493612646e-02
4507:-8.4019090895623635e-02
4508:-1.4991086918589477e-01
4509:-1.3245840919460966e-01
4510:-1.1114602071347812e-01
4511:-9.5916658943925162e-02
4512:-4.6230715540193590e-02
4513:-3.2852120932706202e-02
4514:-1.6913413787938099e-02
4515:-5.8181117177449546e-03
4516:-5.9739505934354030e-02
4517:-4.6137960653464136e-02
4518:-2.9865627544465673e-02
4519:-1.8468151054678712e-02
4520:-7.6292447580357470e-02
4521:-6.2522857549282024e-02
4522:-4.5923201576185201e-02
4523:-3.4192214466009931e-02
4524:-8.8186736550490488e-02
4525:-7.4353993161218851e-02
4526:-5.7571655894736652e-02
4527:-4.5637803192182295e-02
4528:-2.8530568226668105e-04
4529:9.4868050431797420e-03
4530:2.1092747579403548e-02
4531:2.9143114215488371e-02
4532:-1.2754688665857369e-02
4533:-2.6230673804253928e-03
4534:9.4768224220745222e-03
4535:1.7914095802749573e-02
4536:-2.8273844314059961e-02
4537:-1.7744220353058362e-02
4538:-5.1105274252670344e-03
4539:3.7430234121724549e-03
4540:-3.9594617896974882e-02
4541:-2.8825932761717476e-02
4542:-1.5870769904033105e-02
4543:-6.7588556711020110e-03
4544:3.3145331593343298e-02
4545:4.0164856978703686e-02
4546:4.8396818041530572e-02
4547:5.4021568495183782e-02
4548:2.2122159170234020e-02
4549:2.9524767714767787e-02
4550:3.8255090833724303e-02
4551:4.4265281895360935e-02
4552:8.1746475703538997e-03
4553:1.6006008495470018e-02
4554:2.5315282157701881e-02
4555:3.1784199674865815e-02
4556:-2.1837185966345081e-03
4557:5.9313698434204157e-03
4558:1.5634802265279524e-02
4559:2.2419622138906147e-02
4560:5.6787278634463756e-02
4561:6.1609309830831009e-02
4562:6.7210441845883651e-02
4563:7.0991865659956410e-02
4564:4.7238612175647364e-02
4565:5.2447872420651701e-02
4566:5.8545143791853757e-02
4567:6.2697137355507804e-02
4568:3.5006540531858948e-02
4569:4.0677846661133950e-02
4570:4.7364193276683134e-02
4571:5.1956488584876122e-02
4572:2.5813312793809721e-02
4573:3.1801940514705376e-02
4574:3.8894045773453241e-02
4575:4.3792750176510645e-02
4576:7.2832837682226315e-02
4577:7.6000816966874538e-02
4578:7.9592899489117172e-02
4579:8.1943888935180662e-02
4580:6.4731288791090635e-02
4581:6.8252680842911639e-02
4582:7.2289835218876372e-02
4583:7.4971442582251663e-02
4584:5.4221187840786909e-02
4585:5.8168693297433974e-02
4586:6.2749783372987422e-02
4587:6.5839523977666625e-02
4588:4.6219641821929627e-02
4589:5.0469707280039369e-02
4590:5.5440856747171058e-02
4591:5.8824865487916066e-02
4592:8.3059851362090070e-02
4593:8.4934347622716455e-02
4594:8.6964699457712902e-02
4595:8.8210365622070755e-02
4596:7.6260266916180930e-02
4597:7.8450775687830349e-02
4598:8.0876202926931207e-02
4599:8.2411170071126458e-02
4600:6.7342614802940612e-02
4601:6.9924686693054794e-02
4602:7.2839823481364946e-02
4603:7.4734258508133755e-02
4604:6.0482604038714784e-02
4605:6.3347538792191141e-02
4606:6.6617614571193848e-02
4607:6.8774114847859447e-02
4608:8.8767601806734833e-02
4609:8.9635805578138480e-02
4610:9.0429908658041042e-02
4611:9.0783815771558238e-02
4612:8.3117691291403395e-02
4613:8.4256789742291838e-02
4614:8.5387129134264592e-02
4615:8.5986424748231566e-02
4616:7.5626840228825459e-02
4617:7.7105219363328675e-02
4618:7.8659564298242349e-02
4619:7.9570105883557674e-02
4620:6.9803061454463064e-02
4621:7.1531189830886369e-02
4622:7.3399322428883973e-02
4623:7.4541124883477902e-02
4624:9.0884386671700207e-02
4625:9.0923878928235113e-02
4626:9.0688014105065107e-02
4627:9.0289100840957939e-02
4628:8.6213627360855485e-02
4629:8.6482670311247747e-02
4630:8.6530678803814501e-02
4631:8.6337658504104436e-02
4632:7.9958411439209676e-02
4633:8.0519886658385192e-02
4634:8.0930413769116999e-02
4635:8.1001203522771556e-02
4636:7.5049350663256589e-02
4637:7.5828901856340974e-02
4638:7.6510727995930783e-02
4639:7.6779845787795384e-02
4640:9.0000189512461332e-02
4641:8.9321575546647936e-02
4642:8.8170066727705998e-02
4643:8.7083822642861367e-02
4644:8.6154433225652652e-02
4645:8.5667026137591890e-02
4646:8.4751684558595580e-02
4647:8.3836788430385070e-02
4648:8.0953774847906543e-02
4649:8.0712889147260575e-02
4650:8.0103592950325611e-02
4651:7.9411848250595940e-02
4652:7.6834872847659136e-02
4653:7.6780561558894581e-02
4654:7.6403905428945221e-02
4655:7.5882487606781221e-02
4656:8.6432872310847939e-02
4657:8.5076275071665861e-02
4658:8.3039856159172573e-02
4659:8.1273452916016189e-02
4660:8.3273904699534745e-02
4661:8.2076995118540191e-02
4662:8.0238489572090288e-02
4663:7.8616162704435597e-02
4664:7.8964014664290261e-02
4665:7.7976258298213280e-02
4666:7.6398058412696535e-02
4667:7.4966122015665923e-02
4668:7.5522693723896750e-02
4669:7.4695408021892701e-02
4670:7.3317796085166906e-02
4671:7.2033286508282043e-02
4672:8.0258496267247306e-02
4673:7.8208805032892681e-02
4674:7.5245527145132510e-02
4675:7.2750045367820301e-02
4676:7.7675444103252778e-02
4677:7.5761221990460745e-02
4678:7.2967792652429600e-02
4679:7.0597630383470625e-02
4680:7.4123844360218544e-02
4681:7.2389911327654322e-02
4682:6.9823789846774828e-02
4683:6.7622297302535439e-02
4684:7.1267501974069045e-02
4685:6.9674119851544550e-02
4686:6.7286072909350236e-02
4687:6.5217367075008706e-02
4688:7.1339169428609628e-02
4689:6.8525904287240397e-02
4690:6.4523049035296945e-02
4691:6.1196143294501834e-02
4692:6.9252001270174640e-02
4693:6.6559495669256674e-02
4694:6.2711591558957058e-02
4695:5.9501876118737196e-02
4696:6.6364816612779806e-02
4697:6.3836021308901994e-02
4698:6.0199272041496450e-02
4699:5.7150086229966521e-02
4700:6.4029506742948772e-02
4701:6.1630412737710458e-02
4702:5.8161733770799362e-02
4703:5.5240915835293732e-02
4704:5.9329123358474581e-02
4705:5.5628266239572323e-02
4706:5.0402293267432473e-02
4707:4.6086565306499662e-02
4708:5.7696960915426150e-02
4709:5.4113661732254500e-02
4710:4.9043917297306290e-02
4711:4.4850608831942793e-02
4712:5.5430532519491545e-02
4713:5.2009283250911295e-02
4714:4.7155752590872548e-02
4715:4.3132473452182504e-02
4716:5.3589826124485408e-02
4717:5.0298863021380570e-02
4718:4.5619734678890064e-02
4719:4.1734004925257792e-02
4720:4.3673504773396023e-02
4721:3.8903756102072223e-02
4722:3.2192825077283965e-02
4723:2.6667924177003408e-02
4724:4.2503999890087248e-02
4725:3.7863521076524881e-02
4726:3.1331325787031086e-02
4727:2.5951752888511509e-02
4728:4.0878349935109297e-02
4729:3.6417984281625945e-02
4730:3.0135124430723751e-02
4731:2.4958456789727079e-02
4732:3.9554824892768570e-02
4733:3.5240537399813504e-02
4734:2.9160088878905678e-02
4735:2.4148250460107868e-02
4736:2.3584420140904713e-02
4737:1.7500505774889392e-02
4738:8.9614607077840615e-03
4739:1.9464470204772844e-03
4740:2.2948985337111837e-02
4741:1.7025744787158202e-02
4742:8.7157699826065343e-03
4743:1.8920280037803166e-03
4744:2.2068446483583835e-02
4745:1.6369452382413722e-02
4746:8.3787930870958798e-03
4747:1.8213419765872470e-03
4748:2.1349858302183979e-02
4749:1.5832950742915165e-02
4750:8.1012788578819321e-03
4751:1.7595619759816412e-03
4752:-1.3449251609003100e-02
4753:-8.4733858986904137e-02
4754:-1.7331429690610176e-01
4755:-2.3759188755608396e-01
4756:-1.2223617667759664e-02
4757:-7.8611435839057289e-02
4758:-1.6048147128392526e-01
4759:-2.1958404023651543e-01
4760:-1.4030546185446000e-02
4761:-7.2402390808047085e-02
4762:-1.4560057253156422e-01
4763:-1.9948365184186478e-01
4764:-1.5738912795798709e-02
4765:-6.8549714130047776e-02
4766:-1.3638577222812909e-01
4767:-1.8748405199148022e-01
4768:-2.7051089270726775e-01
4769:-3.2982846691345968e-01
4770:-4.0176761887480550e-01
4771:-4.5210357139488583e-01
4772:-2.4979603469022804e-01
4773:-3.0425885504663597e-01
4774:-3.7093922031524856e-01
4775:-4.1865125365038719e-01
4776:-2.2739095252101832e-01
4777:-2.7768010939489002e-01
4778:-3.3940195480754043e-01
4779:-3.8401410224088162e-01
4780:-2.1430355066676227e-01
4781:-2.6261645714502241e-01
4782:-3.2166739700836749e-01
4783:-3.6408086152725638e-01
4784:-4.7699300516338455e-01
4785:-5.1919391434131412e-01
4786:-5.6574288381066928e-01
4787:-5.9534743275060176e-01
4788:-4.4281901560877857e-01
4789:-4.8495672706224080e-01
4790:-5.3309715980353178e-01
4791:-5.6441311418016593e-01
4792:-4.0688845173284471e-01
4793:-4.4747557595176884e-01
4794:-4.9492097273173891e-01
4795:-5.2632614283048373e-01
4796:-3.8571477901035067e-01
4797:-4.2403031376667205e-01
4798:-4.6885880953016384e-01
4799:-4.9870851649796100e-01
4800:-6.0909802967134685e-01
4801:-6.3107489218468160e-01
4802:-6.5236727359732782e-01
4803:-6.6317002413811943e-01
4804:-5.7901849689776408e-01
4805:-6.0241368023387931e-01
4806:-6.2516874645075748e-01
4807:-6.3675581681616111e-01
4808:-5.4108434759531310e-01
4809:-5.6493327331166043e-01
4810:-5.8858101776876648e-01
4811:-6.0104705360913735e-01
4812:-5.1285285861246332e-01
4813:-5.3599376222427020e-01
4814:-5.5957273071180846e-01
4815:-5.7262617915646208e-01
4816:-6.6703988412790294e-01
4817:-6.7121284835267125e-01
4818:-6.7045294821906798e-01
4819:-6.6489552943537833e-01
4820:-6.4089970711230382e-01
4821:-6.4521293936920765e-01
4822:-6.4454615346507116e-01
4823:-6.3961787053974228e-01
4824:-6.0570889945987305e-01
4825:-6.1098471333048732e-01
4826:-6.1184903009056602e-01
4827:-6.0860099525241107e-01
4828:-5.7782101589617640e-01
4829:-5.8442743238214823e-01
4830:-5.8747633746722860e-01
4831:-5.8607322079417834e-01
4832:-6.6014454509267428e-01
4833:-6.4863729174444673e-01
4834:-6.2922728209466039e-01
4835:-6.1147303350864546e-01
4836:-6.3558796472826995e-01
4837:-6.2618024686909179e-01
4838:-6.1035618903546252e-01
4839:-5.9543722036891211e-01
4840:-6.0572563885112418e-01
4841:-5.9881243844235132e-01
4842:-5.8654264767029674e-01
4843:-5.7429568420720478e-01
4844:-5.8418062214424882e-01
4845:-5.7894114006085540e-01
4846:-5.6863101695362439e-01
4847:-5.5784440912167366e-01
4848:-6.0115508856661337e-01
4849:-5.8057424190962303e-01
4850:-5.5138114121962489e-01
4851:-5.2720459577747303e-01
4852:-5.8648960524005311e-01
4853:-5.6810434933397858e-01
4854:-5.4135151465514786e-01
4855:-5.1901437601768918e-01
4856:-5.6667756041301853e-01
4857:-5.5072678726103730e-01
4858:-5.2720017378539785e-01
4859:-5.0749854817431783e-01
4860:-5.5103625952669066e-01
4861:-5.3680512756827925e-01
4862:-5.1582774434856093e-01
4863:-4.9821075668416653e-01
4864:-5.1372452250152056e-01
4865:-4.8813381744667783e-01
4866:-4.5448734549846309e-01
4867:-4.2864454773820576e-01
4868:-5.0658813586841844e-01
4869:-4.8307494123046457e-01
4870:-4.5212991219276710e-01
4871:-4.2817622450931769e-01
4872:-4.9655673332011724e-01
4873:-4.7572210046068880e-01
4874:-4.4792864747628613e-01
4875:-4.2605664096911172e-01
4876:-4.8838383363454169e-01
4877:-4.6943712743592281e-01
4878:-4.4373696221728837e-01
4879:-4.2325171018823038e-01
4880:-4.1490224034580131e-01
4881:-3.8930895569608437e-01
4882:-3.5632630727401193e-01
4883:-3.3136647966085697e-01
4884:-4.1532511500594715e-01
4885:-3.9119105320458125e-01
4886:-3.5981689041690496e-01
4887:-3.3597147086745538e-01
4888:-4.1418400957362023e-01
4889:-3.9178867901647968e-01
4890:-3.6256937940700895e-01
4891:-3.4032966946822879e-01
4892:-4.1206700282830772e-01
4893:-3.9098402905229740e-01
4894:-3.6349308810872144e-01
4895:-3.4254567253025203e-01
4896:-3.1820068062267642e-01
4897:-2.9411705937005345e-01
4898:-2.6400093718169065e-01
4899:-2.4192962926512113e-01
4900:-3.2338855109003073e-01
4901:-3.0036454225699699e-01
4902:-2.7149577470731895e-01
4903:-2.5021962402466857e-01
4904:-3.2859172968488803e-01
4905:-3.0701748308930876e-01
4906:-2.7973283941744309e-01
4907:-2.5942080597628153e-01
4908:-3.3146651633077034e-01
4909:-3.1098101115819410e-01
4910:-2.8484794063113344e-01
4911:-2.6524760215824300e-01
4912:-2.3052923721615637e-01
4913:-2.0981555760533174e-01
4914:-1.8409617933185699e-01
4915:-1.6536040880053712e-01
4916:-2.3917018122598085e-01
4917:-2.1900004461547784e-01
4918:-1.9381675369920109e-01
4919:-1.7540226917462307e-01
4920:-2.4879692380175586e-01
4921:-2.2934450744357204e-01
4922:-2.0497556681129875e-01
4923:-1.8710906323958937e-01
4924:-2.5495619378689149e-01
4925:-2.3610184462130940e-01
4926:-2.1245645698482121e-01
4927:-1.9508460717366824e-01
4928:-1.5572048253735438e-01
4929:-1.3836622847817692e-01
4930:-1.1715666151831518e-01
4931:-1.0197206090633645e-01
4932:-1.6591451028441892e-01
4933:-1.4881199927246586e-01
4934:-1.2784375044290497e-01
4935:-1.1275902876995092e-01
4936:-1.7788933267004717e-01
4937:-1.6120892898446504e-01
4938:-1.4062346743973883e-01
4939:-1.2570227482973531e-01
4940:-1.8610077621560908e-01
4941:-1.6978331049350626e-01
4942:-1.4952749442157737e-01
4943:-1.3476522724495155e-01
4944:-9.4249472848132745e-02
4945:-8.0397670585510700e-02
4946:-6.3538648276839846e-02
4947:-5.1517929262938786e-02
4948:-1.0505497912005045e-01
4949:-9.1189268964812414e-02
4950:-7.4237839413915416e-02
4951:-6.2105515325325537e-02
4952:-1.1804125561666093e-01
4953:-1.0421494699653361e-01
4954:-8.7249977977586268e-02
4955:-7.5064636122923759e-02
4956:-1.2716215466757658e-01
4957:-1.1342392246072343e-01
4958:-9.6533214758834515e-02
4959:-8.4368436004971695e-02
4960:-4.5422390710523328e-02
4961:-3.4552934355553060e-02
4962:-2.1457593213749664e-02
4963:-1.2226795131835607e-02
4964:-5.5940986714706716e-02
4965:-4.4928349659049793e-02
4966:-3.1613447580524874e-02
4967:-2.2183611151377486e-02
4968:-6.8858346254344893e-02
4969:-5.7734170913966223e-02
4970:-4.4207467347180472e-02
4971:-3.4565183878142808e-02
4972:-7.8158330015712527e-02
4973:-6.6993640719662254e-02
4974:-5.3354811747824291e-02
4975:-4.3587869627712175e-02
4976:-7.5828885948884548e-03
4977:6.7034328467473387e-04
4978:1.0567396124713640e-02
4979:1.7507058531921370e-02
4980:-1.7421540189582693e-02
4981:-8.9327084714183845e-03
4982:1.2912260307262377e-03
4983:8.4910370771695345e-03
4984:-2.9673330359420016e-02
4985:-2.0928178055947627e-02
4986:-1.0351081201896295e-02
4987:-2.8686799796982113e-03
4988:-3.8618538059697227e-02
4989:-2.9720314144492228e-02
4990:-1.8929165575652728e-02
4991:-1.1270146032060623e-02
4992:2.0984234460658786e-02
4993:2.7127781952124685e-02
4994:3.4419715611429390e-02
4995:3.9471406727609681e-02
4996:1.2108550867669777e-02
4997:1.8515961355973484e-02
4998:2.6154823617401148e-02
4999:3.1476311849293365e-02
5000:9.0298119088509014e-04
5001:7.6069035213632849e-03
5002:1.5646787795403790e-02
5003:2.1286204282066512e-02
5004:-7.3994306057342148e-03
5005:-5.0032649288123349e-04
5006:7.8099881685067219e-03
5007:1.3666473096928450e-02
5008:4.1980186245590703e-02
5009:4.6383724451000169e-02
5010:5.1553416888590747e-02
5011:5.5087281920979399e-02
5012:3.4130579668611681e-02
5013:3.8806436090365590e-02
5014:4.4327717369252818e-02
5015:4.8126824295163809e-02
5016:2.4113154951056124e-02
5017:2.9111799470853201e-02
5018:3.5049718572333632e-02
5019:3.9164180592959466e-02
5020:1.6611608819988501e-02
5021:2.1831397145980397e-02
5022:2.8056237047127265e-02
5023:3.2389968056906547e-02
5024:5.6823689396076627e-02
5025:5.9832764665395707e-02
5026:6.3284509906020150e-02
5027:6.5575963382933936e-02
5028:5.0002606590647140e-02
5029:5.3268340506353540e-02
5030:5.7046025997874568e-02
5031:5.9581230733917273e-02
5032:4.1206433574528842e-02
5033:4.4781145622232468e-02
5034:4.8955367169529238e-02
5035:5.1789583410187370e-02
5036:3.4548987369113333e-02
5037:3.8342051115154333e-02
5038:4.2798925347491017e-02
5039:4.5847505956538706e-02
5040:6.6675468014188624e-02
5041:6.8533126841742772e-02
5042:7.0564398555787666e-02
5043:7.1826617226007888e-02
5044:6.0808632095346406e-02
5045:6.2901189929510395e-02
5046:6.5228499136447085e-02
5047:6.6709494311312859e-02
5048:5.3174485952353565e-02
5049:5.5556605747566871e-02
5050:5.8249606748250651e-02
5051:6.0001767987704825e-02
5052:4.7345567259514221e-02
5053:4.9936118182951780e-02
5054:5.2893412609317757e-02
5055:5.4842642320894239e-02
5056:7.2397320353101549e-02
5057:7.3290671647549849e-02
5058:7.4114514507125875e-02
5059:7.4487843487728342e-02
5060:6.7393856348606021e-02
5061:6.8494803938611931e-02
5062:6.9578812489995354e-02
5063:7.0143819926884982e-02
5064:6.0827446299007285e-02
5065:6.2187574549027798e-02
5066:6.3598316395318835e-02
5067:6.4405324493508900e-02
5068:5.5771486261457802e-02
5069:5.7321561871520960e-02
5070:5.8972981717379976e-02
5071:5.9959019694791837e-02
5072:7.4596856119169455e-02
5073:7.4641034321513935e-02
5074:7.4387485997367886e-02
5075:7.3956405171346870e-02
5076:7.0352369485432109e-02
5077:7.0578365874776242e-02
5078:7.0552519512872058e-02
5079:7.0288899005832517e-02
5080:6.4739924129811999e-02
5081:6.5196632036010824e-02
5082:6.5460677758419003e-02
5083:6.5411083511674656e-02
5084:6.0387090835303567e-02
5085:6.1015278057699934e-02
5086:6.1495646353378862e-02
5087:6.1606494712987847e-02
5088:7.3643371587668940e-02
5089:7.2901472524098801e-02
5090:7.1630920575400880e-02
5091:7.0425361797738076e-02
5092:7.0062694632026939e-02
5093:6.9479706698433563e-02
5094:6.8409095747708704e-02
5095:6.7351498334924015e-02
5096:6.5296180495274359e-02
5097:6.4917559884973483e-02
5098:6.4105346605586463e-02
5099:6.3239892097301659e-02
5100:6.1575308428945437e-02
5101:6.1350878330539309e-02
5102:6.0734486811420421e-02
5103:6.0015266253414329e-02
5104:6.9700637839143625e-02
5105:6.8182851101399572e-02
5106:6.5890860811496005e-02
5107:6.3893990751497140e-02
5108:6.6703900700165977e-02
5109:6.5328372410764751e-02
5110:6.3217657148979423e-02
5111:6.1356753526950421e-02
5112:6.2692760157084901e-02
5113:6.1503045066945469e-02
5114:5.9630101684166437e-02
5115:5.7948322677138633e-02
5116:5.9544803393437540e-02
5117:5.8497269395413533e-02
5118:5.6807023447747081e-02
5119:5.5263472848046238e-02
5120:6.2743866260721495e-02
5121:6.0415209137552953e-02
5122:5.7038068553131420e-02
5123:5.4187365159094024e-02
5124:6.0278198033544894e-02
5125:5.8083408340670169e-02
5126:5.4880769953607127e-02
5127:5.2164117557773240e-02
5128:5.6964335664347061e-02
5129:5.4946945759858444e-02
5130:5.1976522502756424e-02
5131:4.9438960238416270e-02
5132:5.4352675285799720e-02
5133:5.2472937198102657e-02
5134:4.9683363011317726e-02
5135:4.7285756830715966e-02
5136:5.2573738743788720e-02
5137:4.9354167701619975e-02
5138:4.4770784779301388e-02
5139:4.0960694364020625e-02
5140:5.0622246639494391e-02
5141:4.7539609951892853e-02
5142:4.3140223071019064e-02
5143:3.9475738536232471e-02
5144:4.7993187447931365e-02
5145:4.5094294403760650e-02
5146:4.0942447091879670e-02
5147:3.7474312451422874e-02
5148:4.5915242167907939e-02
5149:4.3160493411015501e-02
5150:3.9203290267930721e-02
5151:3.5889869943301914e-02
5152:3.8822765509367717e-02
5153:3.4588923498623997e-02
5154:2.8620002434007141e-02
5155:2.3699017835720881e-02
5156:3.7417296827216208e-02
5157:3.3338554134150489e-02
5158:2.7584791966413644e-02
5159:2.2839157265616840e-02
5160:3.5523204163118029e-02
5161:3.1654048129505188e-02
5162:2.6191255311346848e-02
5163:2.1682876542238903e-02
5164:3.4023436125834999e-02
5165:3.0319715032785535e-02
5166:2.5086726914691167e-02
5167:2.0765799037272246e-02
5168:2.0951131473113463e-02
5169:1.5534559015833980e-02
5170:7.9454941214778824e-03
5171:1.7224831199781361e-03
5172:2.0188761875113582e-02
5173:1.4965796214759464e-02
5174:7.6517314461276064e-03
5175:1.6574815236061070e-03
5176:1.9164410956640857e-02
5177:1.4203309893239690e-02
5178:7.2608678181183888e-03
5179:1.5754762636092262e-03
5180:1.8351577360464839e-02
5181:1.3597284371099329e-02
5182:6.9480847416634036e-03
5183:1.5062050413335896e-03
5184:-1.6076568048558199e-02
5185:-6.6665831965012065e-02
5186:-1.3242004253969344e-01
5187:-1.8243016979437462e-01
5188:-1.5336467724902393e-02
5189:-6.3105869783599916e-02
5190:-1.2572886739023220e-01
5191:-1.7360584939320692e-01
5192:-1.2872331516266450e-02
5193:-5.8475605830905879e-02
5194:-1.1766306128263053e-01
5195:-1.6240950583065172e-01
5196:-1.0929591963685290e-02
5197:-5.5045596778217326e-02
5198:-1.1145764850800952e-01
5199:-1.5354363868375387e-01
5200:-2.0880518536117085e-01
5201:-2.5632152801517938e-01
5202:-3.1421212255808068e-01
5203:-3.5549695830755867e-01
5204:-1.9889918409345050e-01
5205:-2.4452490463984025e-01
5206:-3.0000438069686064e-01
5207:-3.3926525893771092e-01
5208:-1.8588261527337793e-01
5209:-2.2837170465533077e-01
5210:-2.8029361925330160e-01
5211:-3.1711475935736055e-01
5212:-1.7546772969732030e-01
5213:-2.1529332404894241e-01
5214:-2.6434544577634062e-01
5215:-2.9946103010213826e-01
5216:-3.7640374361372753e-01
5217:-4.1319411336798051e-01
5218:-4.5600342057226928e-01
5219:-4.8453257134191474e-01
5220:-3.5896681174112222e-01
5221:-3.9330938637470614e-01
5222:-4.3296621490640957e-01
5223:-4.5947566872474049e-01
5224:-3.3557766740831246e-01
5225:-3.6766607460712314e-01
5226:-4.0472057341950235e-01
5227:-4.2968886721809718e-01
5228:-3.1719638719349591e-01
5229:-3.4820311206705706e-01
5230:-3.8431768683881462e-01
5231:-4.0885896161460134e-01
5232:-4.9812776209338927e-01
5233:-5.2056951691698283e-01
5234:-5.4387951274650370e-01
5235:-5.5721563760044523e-01
5236:-4.7224152801434233e-01
5237:-4.9361560859014003e-01
5238:-5.1647257347544584e-01
5239:-5.3017462212722422e-01
5240:-4.4184702997876263e-01
5241:-4.6242907514793502e-01
5242:-4.8490614049082759e-01
5243:-4.9880794839062065e-01
5244:-4.2087011578341893e-01
5245:-4.4125603954025217e-01
5246:-4.6361347180328244e-01
5247:-4.7752009602289863e-01
5248:-5.6273294678607610e-01
5249:-5.7021726525349936e-01
5250:-5.7470791163174628e-01
5251:-5.7442087428033706e-01
5252:-5.3613905207494261e-01
5253:-5.4489466227542582e-01
5254:-5.5154902376506543e-01
5255:-5.5299115082812489e-01
5256:-5.0505338309144188e-01
5257:-5.1468835366239152e-01
5258:-5.2300458306595377e-01
5259:-5.2594331609837619e-01
5260:-4.8380171254557292e-01
5261:-4.9360897139293686e-01
5262:-5.0242016427892000e-01
5263:-5.0599873241116233e-01
5264:-5.7305836347273598e-01
5265:-5.6861400922553740e-01
5266:-5.5912974131313087e-01
5267:-5.4899031984225988e-01
5268:-5.5247591108820626e-01
5269:-5.4938654137227372e-01
5270:-5.4147090832263189e-01
5271:-5.3263383141670995e-01
5272:-5.2625101432663157e-01
5273:-5.2470203466932774e-01
5274:-5.1891129384734713e-01
5275:-5.1190994425506642e-01
5276:-5.0675533720150823e-01
5277:-5.0624097093151332e-01
5278:-5.0209809677835948e-01
5279:-4.9651759545589658e-01
5280:-5.4258674528576400e-01
5281:-5.2927240097806838e-01
5282:-5.0967897179051069e-01
5283:-4.9315035888223219e-01
5284:-5.2703347338870832e-01
5285:-5.1541442113845692e-01
5286:-4.9821060635349135e-01
5287:-4.8348279660873139e-01
5288:-5.0738828311971063e-01
5289:-4.9783647407161713e-01
5290:-4.8329139058099352e-01
5291:-4.7048898557748320e-01
5292:-4.9278103363709108e-01
5293:-4.8462515396936773e-01
5294:-4.7176819376283957e-01
5295:-4.6019741865949598e-01
5296:-4.8387481064450166e-01
5297:-4.6583526571998762e-01
5298:-4.4113448265630728e-01
5299:-4.2134586562725795e-01
5300:-4.7510497742624019e-01
5301:-4.5860048952895560e-01
5302:-4.3571477412420950e-01
5303:-4.1727278244417837e-01
5304:-4.6307745817037926e-01
5305:-4.4835178964696371e-01
5306:-4.2777988371057724e-01
5307:-4.1114447653565417e-01
5308:-4.5343614082522454e-01
5309:-4.3999109050557156e-01
5310:-4.2117906759784979e-01
5311:-4.0592051824087666e-01
5312:-4.1053080403600412e-01
5313:-3.9016991740058471e-01
5314:-3.6363036950790717e-01
5315:-3.4337211518497679e-01
5316:-4.0718779312627074e-01
5317:-3.8820036767264138e-01
5318:-3.6338255684214538e-01
5319:-3.4432522704984514e-01
5320:-4.0203897874736777e-01
5321:-3.8480701793331140e-01
5322:-3.6206659242437811e-01
5323:-3.4441376984067118e-01
5324:-3.9754161719284314e-01
5325:-3.8156749817916430e-01
5326:-3.6027273567229545e-01
5327:-3.4360551069707329e-01
5328:-3.3263054446626145e-01
5329:-3.1269532402370293e-01
5330:-2.8714806606045729e-01
5331:-2.6792818477712577e-01
5332:-3.3416248233989215e-01
5333:-3.1520043032149614e-01
5334:-2.9075205272206189e-01
5335:-2.7228848313905790e-01
5336:-3.3492912289946714e-01
5337:-3.1716797486271137e-01
5338:-2.9417832353156359e-01
5339:-2.7676757147291270e-01
5340:-3.3461344683735944e-01
5341:-3.1776274598511389e-01
5342:-2.9592331194287991e-01
5343:-2.7934731458643658e-01
5344:-2.5782586265816093e-01
5345:-2.3931857100450810e-01
5346:-2.1609422484977961e-01
5347:-1.9900296148294497e-01
5348:-2.6257178985304941e-01
5349:-2.4475226306369158e-01
5350:-2.2232770056808354e-01
5351:-2.0575143255057216e-01
5352:-2.6759143983971395e-01
5353:-2.5070308606920966e-01
5354:-2.2931509959248106e-01
5355:-2.1339175035527053e-01
5356:-2.7059206627212801e-01
5357:-2.5441258909593917e-01
5358:-2.3380081516002191e-01
5359:-2.1837420000067687e-01
5360:-1.9014811624006200e-01
5361:-1.7402815570666469e-01
5362:-1.5395708622935067e-01
5363:-1.3929457372503526e-01
5364:-1.9712997882680247e-01
5365:-1.8138148709608434e-01
5366:-1.6168856634954890e-01
5367:-1.4725383074051818e-01
5368:-2.0506860617293104e-01
5369:-1.8982322378764599e-01
5370:-1.7069257566561391e-01
5371:-1.5662540256891030e-01
5372:-2.1028706093264404e-01
5373:-1.9545727615049560e-01
5374:-1.7681368178992701e-01
5375:-1.6307136880126416e-01
5376:-1.3173448094030910e-01
5377:-1.1806736543293660e-01
5378:-1.0124576454228956e-01
5379:-8.9109813343760988e-02
5380:-1.3979902650552181e-01
5381:-1.2630252274763962e-01
5382:-1.0964273097398687e-01
5383:-9.7576912309840225e-02
5384:-1.4934585766157393e-01
5385:-1.3612764453203172e-01
5386:-1.1972918845124629e-01
5387:-1.0778596872595575e-01
5388:-1.5594538079610124e-01
5389:-1.4296905730244078e-01
5390:-1.2680193964316394e-01
5391:-1.1497918349846405e-01
5392:-8.2904746404704951e-02
5393:-7.1730481802335280e-02
5394:-5.8047904765297600e-02
5395:-4.8228905459844360e-02
5396:-9.1388422752032350e-02
5397:-8.0214995551098373e-02
5398:-6.6484416765593468e-02
5399:-5.6598708017301984e-02
5400:-1.0163640500670011e-01
5401:-9.0506025637510479e-02
5402:-7.6780994946089365e-02
5403:-6.6864712219592629e-02
5404:-1.0887669256443543e-01
5405:-9.7816456052083334e-02
5406:-8.4148082028433976e-02
5407:-7.4246879948119140e-02
5408:-4.3227112838674198e-02
5409:-3.4263829303704176e-02
5410:-2.3378418001471068e-02
5411:-1.5638092619842611e-02
5412:-5.1553199785459504e-02
5413:-4.2496079729962610e-02
5414:-3.1463276745033603e-02
5415:-2.3588776759436055e-02
5416:-6.1791635248758525e-02
5417:-5.2660489470619541e-02
5418:-4.1487816940584725e-02
5419:-3.3473741076292710e-02
5420:-6.9171239375480142e-02
5421:-6.0014544882518027e-02
5422:-4.8771254372129431e-02
5423:-4.0677784450524265e-02
5424:-1.1720345218234271e-02
5425:-4.7272295473422890e-03
5426:3.7147542280785229e-03
5427:9.6772171107914473e-03
5428:-1.9591668678704866e-02
5429:-1.2440001992319172e-02
5430:-3.7762293210992352e-03
5431:2.3649955009525151e-03
5432:-2.9391523020906654e-02
5433:-2.2069508397899954e-02
5434:-1.3166131043253322e-02
5435:-6.8294746668279950e-03
5436:-3.6545636930424362e-02
5437:-2.9122435956531040e-02
5438:-2.0073226023401638e-02
5439:-1.3613857477677288e-02
5440:1.2679966873512475e-02
5441:1.8007895018677979e-02
5442:2.4374169805479844e-02
5443:2.8817174380900586e-02
5444:5.4652202278857639e-03
5445:1.0978004889807408e-02
5446:1.7589619161305220e-02
5447:2.2224486927253852e-02
5448:-3.6214145196499519e-03
5449:2.0995812456832416e-03
5450:8.9938025055312822e-03
5451:1.3853299710027446e-02
5452:-1.0336463136104344e-02
5453:-4.4789116098687947e-03
5454:2.6046478622003461e-03
5455:7.6166233713636580e-03
5456:3.1034873512341465e-02
5457:3.4938129943033684e-02
5458:3.9538217061337470e-02
5459:4.2695633014766178e-02
5460:2.4545843640607648e-02
5461:2.8643847986538441e-02
5462:3.3497196842025727e-02
5463:3.6847367158206169e-02
5464:1.6296875190287927e-02
5465:2.0624801658947783e-02
5466:2.5778027014467554e-02
5467:2.9357571474283129e-02
5468:1.0143547653028225e-02
5469:1.4628775741175404e-02
5470:1.9988566234511788e-02
5471:2.3727586136564408e-02
5472:4.4251171856398680e-02
5473:4.6947807393959727e-02
5474:5.0040173873040862e-02
5475:5.2090633867605825e-02
5476:3.8504879257787401e-02
5477:4.1390493090264630e-02
5478:4.4724935201213172e-02
5479:4.6957813687515330e-02
5480:3.1136999689546717e-02
5481:3.4250010016609045e-02
5482:3.7878305264820285e-02
5483:4.0334246300983687e-02
5484:2.5592411242492431e-02
5485:2.8865727583015470e-02
5486:3.2702821902787345e-02
5487:3.5318223705690203e-02
5488:5.3072673182650326e-02
5489:5.4720916264583898e-02
5490:5.6497066286005600e-02
5491:5.7576092311448036e-02
5492:4.8036007048130061e-02
5493:4.9861899149061750e-02
5494:5.1864156959506004e-02
5495:5.3112100730074809e-02
5496:4.1530469762465452e-02
5497:4.3574865927255686e-02
5498:4.5856167232004662e-02
5499:4.7313436976534562e-02
5500:3.6599074142899771e-02
5501:3.8800553073021271e-02
5502:4.1283397719820460e-02
5503:4.2892693524214452e-02
5504:5.8052771732511069e-02
5505:5.8770294611102426e-02
5506:5.9363711198539830e-02
5507:5.9558697502799511e-02
5508:5.3677228046527949e-02
5509:5.4557712555562486e-02
5510:5.5358127023939219e-02
5511:5.5707737974746221e-02
5512:4.7988526507506499e-02
5513:4.9072379201019457e-02
5514:5.0132532487872562e-02
5515:5.0677154474076717e-02
5516:4.3647973931856390e-02
5517:4.4880682266032694e-02
5518:4.6131916790737360e-02
5519:4.6820658139068931e-02
5520:5.9571521355624296e-02
5521:5.9428303563815961e-02
5522:5.8915326629899047e-02
5523:5.8273529572535863e-02
5524:5.5801624935916130e-02
5525:5.5808231573383674e-02
5526:5.5486500016623440e-02
5527:5.4988251405564549e-02
5528:5.0873593173876290e-02
5529:5.1070209256012369e-02
5530:5.0991954127402893e-02
5531:5.0677214470133139e-02
5532:4.7093093091981487e-02
5533:4.7430889550639899e-02
5534:4.7534303503170873e-02
5535:4.7357100891895480e-02
5536:5.7843725297387835e-02
5537:5.6871727301983130e-02
5538:5.5278814190015998e-02
5539:5.3809116486100844e-02
5540:5.4633968193656096e-02
5541:5.3802562815681368e-02
5542:5.2391367452839059e-02
5543:5.1059960563123750e-02
5544:5.0419756355174192e-02
5545:4.9769144255165799e-02
5546:4.8592648033157507e-02
5547:4.7440596082775725e-02
5548:4.7172435593693544e-02
5549:4.6658128408983840e-02
5550:4.5659292205905325e-02
5551:4.4643521378830098e-02
5552:5.2937497031203005e-02
5553:5.1131560011817546e-02
5554:4.8439161311402058e-02
5555:4.6116912593809956e-02
5556:5.0261840491208971e-02
5557:4.8594570420994077e-02
5558:4.6085160915360308e-02
5559:4.3905116557671771e-02
5560:4.6738048881933482e-02
5561:4.5251493613980634e-02
5562:4.2981327899600602e-02
5563:4.0987776751167410e-02
5564:4.4013765643555927e-02
5565:4.2665143536015859e-02
5566:4.0578148790807150e-02
5567:3.8727802397199869e-02
5568:4.4786970926301913e-02
5569:4.2110015273566274e-02
5570:3.8258010463665233e-02
5571:3.5028314687495850e-02
5572:4.2651841086671805e-02
5573:4.0122052213108203e-02
5574:3.6469364720666086e-02
5575:3.3398510806562996e-02
5576:3.9835239496225458e-02
5577:3.7499134080047687e-02
5578:3.4109314289441847e-02
5579:3.1248323078343434e-02
5580:3.7652762382572105e-02
5581:3.5465866549826405e-02
5582:3.2278924081466792e-02
5583:2.9580152816943112e-02
5584:3.3207736242839146e-02
5585:2.9593633673564382e-02
5586:2.4485170460779571e-02
5587:2.0265835106961585e-02
5588:3.1664993011465102e-02
5589:2.8221096466736765e-02
5590:2.3349213934258220e-02
5591:1.9322932575168032e-02
5592:2.9629943740219142e-02
5593:2.6411245946032787e-02
5594:2.1852520539524432e-02
5595:1.8081853137733615e-02
5596:2.8050848645697263e-02
5597:2.5006436185336205e-02
5598:2.0690155099358287e-02
5599:1.7117426463129887e-02
5600:1.7908111920786087e-02
5601:1.3265869165170309e-02
5602:6.7754652117077941e-03
5603:1.4653815271199681e-03
5604:1.7072578047188154e-02
5605:1.2643214667453771e-02
5606:6.4543523342222514e-03
5607:1.3944127385971620e-03
5608:1.5973669516633052e-02
5609:1.1826067109157947e-02
5610:6.0360200872050344e-03
5611:1.3066663778514389e-03
5612:1.5119338935558705e-02
5613:1.1189830327801296e-02
5614:5.7082443578145570e-03
5615:1.2343837778592496e-03
5616:-1.0203296393128074e-02
5617:-5.3297562567567250e-02
5618:-1.0801155051079152e-01
5619:-1.4861250669561882e-01
5620:-9.5505017243517603e-03
5621:-5.0275603199720464e-02
5622:-1.0172565777074634e-01
5623:-1.3982687691835924e-01
5624:-9.5193666888426856e-03
5625:-4.6797987123120825e-02
5626:-9.4219151403875420e-02
5627:-1.2965108122829602e-01
5628:-9.6032591764967073e-03
5629:-4.4433354518046878e-02
5630:-8.9211864254119866e-02
5631:-1.2299916181269514e-01
5632:-1.6971703381539838e-01
5633:-2.0812795519276076e-01
5634:-2.5566651513248717e-01
5635:-2.8993169525183449e-01
5636:-1.5964198947579292e-01
5637:-1.9579247787729842e-01
5638:-2.4079665013158957e-01
5639:-2.7352439416379765e-01
5640:-1.4819756168360074e-01
5641:-1.8205870676026578e-01
5642:-2.2427857849121172e-01
5643:-2.5509094040423580e-01
5644:-1.4078096185466446e-01
5645:-1.7322141023126505e-01
5646:-2.1358762943710852e-01
5647:-2.4298920731423190e-01
5648:-3.0733968748201512e-01
5649:-3.3795054275399983e-01
5650:-3.7386146853498764e-01
5651:-3.9838291132602138e-01
5652:-2.9028444433898631e-01
5653:-3.2001791487911502e-01
5654:-3.5528508184084123e-01
5655:-3.7954340174759910e-01
5656:-2.7093165195553975e-01
5657:-2.9921332313625565e-01
5658:-3.3304535100670191e-01
5659:-3.5646908106269587e-01
5660:-2.5808832714394481e-01
5661:-2.8507040593205668e-01
5662:-3.1742427992215050e-01
5663:-3.3990288862350942e-01
5664:-4.1040002552440208e-01
5665:-4.3079169363319819e-01
5666:-4.5313844326336633e-01
5667:-4.6701871301270997e-01
5668:-3.9145657870666284e-01
5669:-4.1169959839654113e-01
5670:-4.3393896996074355e-01
5671:-4.4779702050287051e-01
5672:-3.6800885501836633e-01
5673:-3.8772273316131989e-01
5674:-4.0961496751507254e-01
5675:-4.2346550009494316e-01
5676:-3.5101434793252334e-01
5677:-3.7011391453601128e-01
5678:-3.9158448991805905e-01
5679:-4.0540229234494579e-01
5680:-4.7327855944550778e-01
5681:-4.8304733187156967e-01
5682:-4.9190753414185051e-01
5683:-4.9568560466024153e-01
5684:-4.5406223090938264e-01
5685:-4.6385881685608604e-01
5686:-4.7291947231867176e-01
5687:-4.7710177187484637e-01
5688:-4.2981199511732354e-01
5689:-4.3984414780932862e-01
5690:-4.4942457971081262e-01
5691:-4.5422970120697953e-01
5692:-4.1183068882019785e-01
5693:-4.2213576653241747e-01
5694:-4.3226027852417798e-01
5695:-4.3759618994673249e-01
5696:-4.9663146169042743e-01
5697:-4.9662434056301108e-01
5698:-4.9334442584049398e-01
5699:-4.8849185129449590e-01
5700:-4.7838855243314088e-01
5701:-4.7924383001685983e-01
5702:-4.7738094544048926e-01
5703:-4.7370884716619704e-01
5704:-4.5594502290016997e-01
5705:-4.5775902444903127e-01
5706:-4.5736475466262155e-01
5707:-4.5491218400591804e-01
5708:-4.3962437099014684e-01
5709:-4.4205656128993354e-01
5710:-4.4254443038915015e-01
5711:-4.4084330898146296e-01
5712:-4.8513803189412058e-01
5713:-4.7763863991393640e-01
5714:-4.6556643473494691e-01
5715:-4.5459524350277841e-01
5716:-4.7097702673452640e-01
5717:-4.6458722933250740e-01
5718:-4.5392536075512568e-01
5719:-4.4408120655527145e-01
5720:-4.5284265780794797e-01
5721:-4.4772724951319570e-01
5722:-4.3882784421479842e-01
5723:-4.3044202800998255e-01
5724:-4.3920736963293167e-01
5725:-4.3498746056354159e-01
5726:-4.2739162973177658e-01
5727:-4.2008142891848238e-01
5728:-4.4816961405955358e-01
5729:-4.3540273064168844e-01
5730:-4.1752638287970678e-01
5731:-4.0298111345356541e-01
5732:-4.3829359658728223e-01
5733:-4.2677394765318366e-01
5734:-4.1055102610681338e-01
5735:-3.9723210800824232e-01
5736:-4.2547405488392703e-01
5737:-4.1548476868790646e-01
5738:-4.0119333458468937e-01
5739:-3.8927577426369825e-01
5740:-4.1570178017475351e-01
5741:-4.0677357027241245e-01
5742:-3.9378620856831648e-01
5743:-3.8282299508735007e-01
5744:-3.9496651333568644e-01
5745:-3.7961455973149633e-01
5746:-3.5903665546933494e-01
5747:-3.4287478996390425e-01
5748:-3.8983770221867969e-01
5749:-3.7557190504101495e-01
5750:-3.5630002084793078e-01
5751:-3.4109333700537103e-01
5752:-3.8259335843328218e-01
5753:-3.6962920468886767e-01
5754:-3.5201121892769111e-01
5755:-3.3805275728617395e-01
5756:-3.7663963881421347e-01
5757:-3.6462203425286505e-01
5758:-3.4824588369823972e-01
5759:-3.3522752958985358e-01
5760:-3.3414557134570472e-01
5761:-3.1778828529048403e-01
5762:-2.9657398535516649e-01
5763:-2.8044366581809843e-01
5764:-3.3286801744420097e-01
5765:-3.1743759233305918e-01
5766:-2.9736459155196132e-01
5767:-2.8203071975498351e-01
5768:-3.3048737909230103e-01
5769:-3.1623771194563310e-01
5770:-2.9757199242731402e-01
5771:-2.8320536624848902e-01
5772:-3.2815181389641623e-01
5773:-3.1476108892755184e-01
5774:-2.9710405889559083e-01
5775:-2.8343676945738178e-01
5776:-2.7190777929472665e-01
5777:-2.5609513174023707e-01
5778:-2.3588782408423178e-01
5779:-2.2072867614526562e-01
5780:-2.7388381126207473e-01
5781:-2.5873563936043875e-01
5782:-2.3928923317351899e-01
5783:-2.2465178861798585e-01
5784:-2.7553306259622135e-01
5785:-2.6122329929103943e-01
5786:-2.4278266656219094e-01
5787:-2.2885687975282171e-01
5788:-2.7611561068288121e-01
5789:-2.6244324160250782e-01
5790:-2.4478791713303960e-01
5791:-2.3142148980883642e-01
5792:-2.1277363794563281e-01
5793:-1.9818013424772740e-01
5794:-1.7981547285495861e-01
5795:-1.6625726935325588e-01
5796:-2.1695877374011774e-01
5797:-2.0282686519458132e-01
5798:-1.8499478210647100e-01
5799:-1.7178214063206068e-01
5800:-2.2152358762056065e-01
5801:-2.0801320773256257e-01
5802:-1.9088189056082380e-01
5803:-1.7812061163229886e-01
5804:-2.2436832150561556e-01
5805:-2.1133605819633641e-01
5806:-1.9474039936492413e-01
5807:-1.8232933416895994e-01
5808:-1.5921664438630778e-01
5809:-1.4637498072773961e-01
5810:-1.3034022792669170e-01
5811:-1.1859209715105694e-01
5812:-1.6490103096999634e-01
5813:-1.5231823186758228e-01
5814:-1.3655302002838454e-01
5815:-1.2496825608263100e-01
5816:-1.7145014385418023e-01
5817:-1.5922306876557424e-01
5818:-1.4385273764474599e-01
5819:-1.3252215379872584e-01
5820:-1.7582688064635910e-01
5821:-1.6389209121202983e-01
5822:-1.4885802766108916e-01
5823:-1.3774860889750692e-01
5824:-1.1252200005466713e-01
5825:-1.0151354365553979e-01
5826:-8.7893367347897641e-02
5827:-7.8011988519437483e-02
5828:-1.1897269349286622e-01
5829:-1.0808346411649747e-01
5830:-9.4575794207188188e-02
5831:-8.4745034716505060e-02
5832:-1.2664599965705858e-01
5833:-1.1594758424448345e-01
5834:-1.0262357058284902e-01
5835:-9.2884261922553293e-02
5836:-1.3197657777986141e-01
5837:-1.2144502781154468e-01
5838:-1.0828626608949263e-01
5839:-9.8637152878224207e-02
5840:-7.2940209684748403e-02
5841:-6.3779090138681716e-02
5842:-5.2510138278293574e-02
5843:-4.4384328489933504e-02
5844:-7.9687095062624155e-02
5845:-7.0532324635581900e-02
5846:-5.9238295711640555e-02
5847:-5.1071451508547958e-02
5848:-8.7858316019246485e-02
5849:-7.8742006774538964e-02
5850:-6.7460234653983139e-02
5851:-5.9275984824624324e-02
5852:-9.3647822571292103e-02
5853:-8.4585738438944610e-02
5854:-7.3347288306489677e-02
5855:-6.5174941537598632e-02
5856:-4.0231351073509010e-02
5857:-3.2764968206272616e-02
5858:-2.3651143144138822e-02
5859:-1.7135267450920755e-02
5860:-4.6890111197608254e-02
5861:-3.9360987056480848e-02
5862:-3.0146393694044090e-02
5863:-2.3538201857427138e-02
5864:-5.5076566613232479e-02
5865:-4.7497954756219492e-02
5866:-3.8189135632252416e-02
5867:-3.1486726215597838e-02
5868:-6.0974252917865554e-02
5869:-5.3379632159372505e-02
5870:-4.4025161337168869e-02
5871:-3.7270495218564875e-02
5872:-1.3825146545846054e-02
5873:-7.9022913757491875e-03
5874:-7.2710227418476808e-04
5875:4.3591100249331877e-03
5876:-2.0173527208067685e-02
5877:-1.4141354043943937e-02
5878:-6.8120326099376498e-03
5879:-1.6002487102065638e-03
5880:-2.8064536817191392e-02
5881:-2.1915939527341780e-02
5882:-1.4420092794487306e-02
5883:-9.0704134754465808e-03
5884:-3.3815039978379820e-02
5885:-2.7597605792843118e-02
5886:-2.0000140633700828e-02
5887:-1.4563599252172994e-02
5888:6.9266774170506865e-03
5889:1.1488913203837816e-02
5890:1.6950613724974983e-02
5891:2.0769040900682555e-02
5892:1.0363822230445602e-03
5893:5.7305969654184831e-03
5894:1.1369042670505465e-02
5895:1.5326571799905158e-02
5896:-6.3570020950418612e-03
5897:-1.5138519223738003e-03
5898:4.3278535129972744e-03
5899:8.4476881496041122e-03
5900:-1.1800787848259546e-02
5901:-6.8601446776664892e-03
5902:-8.8274764107467839e-04
5903:3.3469325279337739e-03
5904:2.2676670857152841e-02
5905:2.6030656336958106e-02
5906:2.9973283818020485e-02
5907:3.2669532916581381e-02
5908:1.7309582323334450e-02
5909:2.0805869514132162e-02
5910:2.4935104637554682e-02
5911:2.7774716474329889e-02
5912:1.0519276055919853e-02
5913:1.4183310135293975e-02
5914:1.8533655255271217e-02
5915:2.1544193356525573e-02
5916:5.4788410258939926e-03
5917:9.2576579730611272e-03
5918:1.3760528567757589e-02
5919:1.6890068203292512e-02
5920:3.3993352683770295e-02
5921:3.6274774605760146e-02
5922:3.8860605959461544e-02
5923:4.0547941379977533e-02
5924:2.9174905422073037e-02
5925:3.1598915495824470e-02
5926:3.4369395917713839e-02
5927:3.6197323944586662e-02
5928:2.3035874078242306e-02
5929:2.5631677147023541e-02
5930:2.8626374043373263e-02
5931:3.0626194055169524e-02
5932:1.8445874694309770e-02
5933:2.1162793183398334e-02
5934:2.4316770959055479e-02
5935:2.6439479786014065e-02
5936:4.1344519303832920e-02
5937:4.2654064168084517e-02
5938:4.4004232147930700e-02
5939:4.4767794266582242e-02
5940:3.7068511860475203e-02
5941:3.8517104720403490e-02
5942:4.0046753366262185e-02
5943:4.0946413887756376e-02
5944:3.1588957170703084e-02
5945:3.3208683574828479e-02
5946:3.4960172173723082e-02
5947:3.6028832661105119e-02
5948:2.7467943112858793e-02
5949:2.9210845620006160e-02
5950:3.1122831176202230e-02
5951:3.2314435898838284e-02
5952:4.5079747772632288e-02
5953:4.5491099622439538e-02
5954:4.5689452905938670e-02
5955:4.5584355820754742e-02
5956:4.1330389241493827e-02
5957:4.1876106490281770e-02
5958:4.2248486277417181e-02
5959:4.2275996878482325e-02
5960:3.6502537566724252e-02
5961:3.7216247811581789e-02
5962:3.7807314517369663e-02
5963:3.8002255857359675e-02
5964:3.2853668137430098e-02
5965:3.3690490065839948e-02
5966:3.4442602837010144e-02
5967:3.4761396517726209e-02
5968:4.5437935200967262e-02
5969:4.4995368794394426e-02
5970:4.4090272542983200e-02
5971:4.3146576091493527e-02
5972:4.2200055931143503e-02
5973:4.1889913467047464e-02
5974:4.1158261138827361e-02
5975:4.0348236760022832e-02
5976:3.8015562575087092e-02
5977:3.7873522742185958e-02
5978:3.7362851831596378e-02
5979:3.6723756392711263e-02
5980:3.4840902198250367e-02
5981:3.4823869842503567e-02
5982:3.4478153565968971e-02
5983:3.3967129030737009e-02
5984:4.2555373146520616e-02
5985:4.1279907261470392e-02
5986:3.9290258148175550e-02
5987:3.7516163126536321e-02
5988:3.9828646787944025e-02
5989:3.8689279796980260e-02
5990:3.6881122010947828e-02
5991:3.5249469300656304e-02
5992:3.6295957991757354e-02
5993:3.5331426724704837e-02
5994:3.3757132881668629e-02
5995:3.2309533872610811e-02
5996:3.3608273952127551e-02
5997:3.2775333796337361e-02
5998:3.1377558663455318e-02
5999:3.0069233144623120e-02
6000:3.6482436317230763e-02
6001:3.4375150394991914e-02
6002:3.1296569137123163e-02
6003:2.8684522451762146e-02
6004:3.4293008395103401e-02
6005:3.2334737015114086e-02
6006:2.9459207500228578e-02
6007:2.7009821830004388e-02
6008:3.1453073338570614e-02
6009:2.9687891557800369e-02
6010:2.7075880813384384e-02
6011:2.4837880015653693e-02
6012:2.9288555243788143e-02
6013:2.7669864177412348e-02
6014:2.5258068165603859e-02
6015:2.3180875423318360e-02
6016:2.7202862569127552e-02
6017:2.4251691042407778e-02
6018:2.0065141428739719e-02
6019:1.6598342280764237e-02
6020:2.5617570954408194e-02
6021:2.2841419746446535e-02
6022:1.8898445724705559e-02
6023:1.5630560244133423e-02
6024:2.3561907558436773e-02
6025:2.1013447993955599e-02
6026:1.7387442492121704e-02
6027:1.4378441387377813e-02
6028:2.1993422150254686e-02
6029:1.9618338600810439e-02
6030:1.6233730462493007e-02
6031:1.3421899728327264e-02
6032:1.4659174614750444e-02
6033:1.0846345277874253e-02
6034:5.5296975717500189e-03
6035:1.1923818385868598e-03
6036:1.3802032719240692e-02
6037:1.0208237153439140e-02
6038:5.2010592390868172e-03
6039:1.1198110678485144e-03
6040:1.2693907420619878e-02
6041:9.3850430375019556e-03
6042:4.7801369577737595e-03
6043:1.0314987908616833e-03
6044:1.1847025678182629e-02
6045:8.7550509707286627e-03
6046:4.4561229090555113e-03
6047:9.6029128713229000e-04
6048:-9.5299250428761348e-03
6049:-4.3260043879184244e-02
6050:-8.6856156417438976e-02
6051:-1.1988141895120401e-01
6052:-9.1065367834703460e-03
6053:-4.1152699151276069e-02
6054:-8.2756515720174589e-02
6055:-1.1434470051712196e-01
6056:-8.2499280881769745e-03
6057:-3.8568461374757196e-02
6058:-7.7812711535876003e-02
6059:-1.0749062045750193e-01
6060:-7.5935609473973134e-03
6061:-3.6706746709523723e-02
6062:-7.4182741365376864e-02
6063:-1.0239040660348533e-01
6064:-1.3729058248567455e-01
6065:-1.6903214111426965e-01
6066:-2.0846905110222588e-01
6067:-2.3713796132555442e-01
6068:-1.3100132172180892e-01
6069:-1.6136549246363216e-01
6070:-1.9906499463092120e-01
6071:-2.2643534741498353e-01
6072:-1.2309637592219087e-01
6073:-1.5158940226274034e-01
6074:-1.8706845268359362e-01
6075:-2.1289554424796367e-01
6076:-1.1719005127366705e-01
6077:-1.4427150744473607e-01
6078:-1.7813134919206744e-01
6079:-2.0288423472838463e-01
6080:-2.5183862016987252e-01
6081:-2.7808808601270868e-01
6082:-3.0956314454898953e-01
6083:-3.3146586737796269e-01
6084:-2.4045281968384599e-01
6085:-2.6546267391933215e-01
6086:-2.9547220669907226e-01
6087:-3.1642736045658659e-01
6088:-2.2614301443277227e-01
6089:-2.4980136582879012e-01
6090:-2.7827069900996626e-01
6091:-2.9825461467317482e-01
6092:-2.1561667513547539e-01
6093:-2.3840463515246152e-01
6094:-2.6592377121734745e-01
6095:-2.8532080177517405e-01
6096:-3.4231739326685212e-01
6097:-3.6103932388545235e-01
6098:-3.8223658853556552e-01
6099:-3.9601354486773521e-01
6100:-3.2685405016591856e-01
6101:-3.4494342229917102e-01
6102:-3.6563846993429122e-01
6103:-3.7927790082842450e-01
6104:-3.0824796396127269e-01
6105:-3.2566521773155316e-01
6106:-3.4575158037414799e-01
6107:-3.5912699768361406e-01
6108:-2.9505015905832316e-01
6109:-3.1204218609256446e-01
6110:-3.3170224085705519e-01
6111:-3.4484491363631442e-01
6112:-4.0247904520441802e-01
6113:-4.1293725926521441e-01
6114:-4.2337720680596730e-01
6115:-4.2900326921066551e-01
6116:-3.8575752925480883e-01
6117:-3.9638995659253951e-01
6118:-4.0727976821210438e-01
6119:-4.1336092888167120e-01
6120:-3.6553847158118441e-01
6121:-3.7620086691078480e-01
6122:-3.8740563687135965e-01
6123:-3.9390332751628893e-01
6124:-3.5116572414396269e-01
6125:-3.6174549715488480e-01
6126:-3.7302436858257887e-01
6127:-3.7972290993017666e-01
6128:-4.3119048135777360e-01
6129:-4.3391525282449556e-01
6130:-4.3480621730900376e-01
6131:-4.3346251677543129e-01
6132:-4.1581044430423786e-01
6133:-4.1903895834006311e-01
6134:-4.2065621989844909e-01
6135:-4.1996849208094328e-01
6136:-3.9662455013330100e-01
6137:-4.0042691569595279e-01
6138:-4.0293684998137058e-01
6139:-4.0306527837416878e-01
6140:-3.8260273431283703e-01
6141:-3.8678194910592922e-01
6142:-3.8992118470819925e-01
6143:-3.9062420150328325e-01
6144:-4.3204402759630095e-01
6145:-4.2828655604219407e-01
6146:-4.2136822339641494e-01
6147:-4.1460395079767987e-01
6148:-4.1894781601998055e-01
6149:-4.1601277601438558e-01
6150:-4.1026449287218913e-01
6151:-4.0442702168205247e-01
6152:-4.0253036877910803e-01
6153:-4.0055831754660026e-01
6154:-3.9613077849136180e-01
6155:-3.9132974878543431e-01
6156:-3.9042231323341992e-01
6157:-3.8908957922396237e-01
6158:-3.8552373090625880e-01
6159:-3.8141007114182890e-01
6160:-4.1051426970018889e-01
6161:-4.0210175923276920e-01
6162:-3.8974913746577217e-01
6163:-3.7926384374390698e-01
6164:-4.0082762431143293e-01
6165:-3.9330743067785062e-01
6166:-3.8209234324882052e-01
6167:-3.7248682950966749e-01
6168:-3.8828427685596428e-01
6169:-3.8181330743235103e-01
6170:-3.7199945042698290e-01
6171:-3.6350266725144376e-01
6172:-3.7874282882559490e-01
6173:-3.7301392076440837e-01
6174:-3.6421964666418777e-01
6175:-3.5653069250765967e-01
6176:-3.7333860586939266e-01
6177:-3.6181768815635645e-01
6178:-3.4609539747893642e-01
6179:-3.3356500938069195e-01
6180:-3.6704101670909611e-01
6181:-3.5642750098825399e-01
6182:-3.4187415473585958e-01
6183:-3.3020324127777750e-01
6184:-3.5866070801934824e-01
6185:-3.4916305890171140e-01
6186:-3.3601035525360540e-01
6187:-3.2535894451597130e-01
6188:-3.5212287108546175e-01
6189:-3.4341320239867251e-01
6190:-3.3123743122457883e-01
6191:-3.2130268046745936e-01
6192:-3.2673868258460548e-01
6193:-3.1378239326494201e-01
6194:-2.9663731772305169e-01
6195:-2.8333261372934032e-01
6196:-3.2381420749664303e-01
6197:-3.1163213852428073e-01
6198:-2.9542360007853735e-01
6199:-2.8279709595556107e-01
6200:-3.1949122511899614e-01
6201:-3.0825666558555731e-01
6202:-2.9323339634093781e-01
6203:-2.8148255865091842e-01
6204:-3.1580815739344015e-01
6205:-3.0526709323390494e-01
6206:-2.9112935325042255e-01
6207:-2.8003526700528858e-01
6208:-2.7619799908873577e-01
6209:-2.6286791573358564e-01
6210:-2.4563609224289432e-01
6211:-2.3256871346730362e-01
6212:-2.7601458579536337e-01
6213:-2.6332358524179578e-01
6214:-2.4687029092442847e-01
6215:-2.3434660200639251e-01
6216:-2.7515579752809088e-01
6217:-2.6327943558074623e-01
6218:-2.4780139743647370e-01
6219:-2.3595463209661111e-01
6220:-2.7404766596221253e-01
6221:-2.6277107991876925e-01
6222:-2.4800634349864989e-01
6223:-2.3665863308230756e-01
6224:-2.2566329798869667e-01
6225:-2.1288245241973466e-01
6226:-1.9657034497977782e-01
6227:-1.8434885124352640e-01
6228:-2.2770902162275894e-01
6229:-2.1539057648173474e-01
6230:-1.9961298506666672e-01
6231:-1.8775733355738217e-01
6232:-2.2965232897411669e-01
6233:-2.1792553964724404e-01
6234:-2.0285298382545155e-01
6235:-1.9149054592037520e-01
6236:-2.3060741071045024e-01
6237:-2.1933161566038809e-01
6238:-2.0480658560458956e-01
6239:-1.9382988869829318e-01
6240:-1.7793964897572756e-01
6241:-1.6616902259834482e-01
6242:-1.5132549758468627e-01
6243:-1.4034123387575018e-01
6244:-1.8153019305728457e-01
6245:-1.7007778272387461e-01
6246:-1.5559965324707298e-01
6247:-1.4485387115145126e-01
6248:-1.8551037363373535e-01
6249:-1.7448556885069280e-01
6250:-1.6049364170408476e-01
6251:-1.5006556127006551e-01
6252:-1.8804219556532772e-01
6253:-1.7734888179361177e-01
6254:-1.6373388689966747e-01
6255:-1.5355554382213224e-01
6256:-1.3462766534540785e-01
6257:-1.2419030240831379e-01
6258:-1.1112721967671935e-01
6259:-1.0153353847524887e-01
6260:-1.3925181392918237e-01
6261:-1.2899788802499271e-01
6262:-1.1612889307308662e-01
6263:-1.0665357775469435e-01
6264:-1.4461375731568521e-01
6265:-1.3461405883934871e-01
6266:-1.2202668235530902e-01
6267:-1.1273133308258290e-01
6268:-1.4822425856708601e-01
6269:-1.3843284677348908e-01
6270:-1.2608273114241456e-01
6271:-1.1694233963268413e-01
6272:-9.6568407809679402e-02
6273:-8.7544320294876798e-02
6274:-7.6340505364360406e-02
6275:-6.8182492812558879e-02
6276:-1.0174211902755483e-01
6277:-9.2803322453501286e-02
6278:-8.1680020423696542e-02
6279:-7.3559394290765703e-02
6280:-1.0790376646440071e-01
6281:-9.9099740818096624e-02
6282:-8.8108516943518400e-02
6283:-8.0056344576868790e-02
6284:-1.1218764981278384e-01
6285:-1.0350185557989022e-01
6286:-9.2630533053385603e-02
6287:-8.4645835129623953e-02
6288:-6.3984931261629088e-02
6289:-5.6388612761327443e-02
6290:-4.7018637529448550e-02
6291:-4.0243161687898620e-02
6292:-6.9373070930927080e-02
6293:-6.1784594321687182e-02
6294:-5.2401538513274171e-02
6295:-4.5600069485647536e-02
6296:-7.5895382294244751e-02
6297:-6.8338908264470546e-02
6298:-5.8969505129317507e-02
6299:-5.2158302732679247e-02
6300:-8.0512931109092092e-02
6301:-7.2998034122397776e-02
6302:-6.3662009305710754e-02
6303:-5.6860551227329324e-02
6304:-3.6773904803810022e-02
6305:-3.0527051674727173e-02
6306:-2.2884398915559843e-02
6307:-1.7407850094362073e-02
6308:-4.2111955841761244e-02
6309:-3.5822253413630989e-02
6310:-2.8109324798615287e-02
6311:-2.2567860388906697e-02
6312:-4.8658298771272215e-02
6313:-4.2335074952110897e-02
6314:-3.4557264719460128e-02
6315:-2.8950449336806773e-02
6316:-5.3360214426464096e-02
6317:-4.7026967507827387e-02
6318:-3.9218826729334501e-02
6319:-3.3576476020541632e-02
6320:-1.4621805534734834e-02
6321:-9.6347413508256468e-03
6322:-3.5919064857180931e-03
6323:6.9118638911180169e-04
6324:-1.9743392696033181e-02
6325:-1.4678978842288762e-02
6326:-8.5261166374087354e-03
6327:-4.1524565692354770e-03
6328:-2.6085946795038936e-02
6329:-2.0939621920965074e-02
6330:-1.4667803799271118e-02
6331:-1.0194307444014809e-02
6332:-3.0689068778264498e-02
6333:-2.5494478200699090e-02
6334:-1.9149910554448087e-02
6335:-1.4613338183010936e-02
6336:2.8525320952132007e-03
6337:6.6876233354175949e-03
6338:1.1265849379101474e-02
6339:1.4454668918502844e-02
6340:-1.9409137390919082e-03
6341:1.9908608256923176e-03
6342:6.6998907251922656e-03
6343:9.9925170565260332e-03
6344:-7.9267223349919896e-03
6345:-3.8855683531395808e-03
6346:9.7396690838625916e-04
6347:4.3876662236245660e-03
6348:-1.2309639350400766e-02
6349:-8.1968727401463565e-03
6350:-3.2369236749844690e-03
6351:2.5871207744049968e-04
6352:1.6042598897324071e-02
6353:1.8820422556008149e-02
6354:2.2054876919509383e-02
6355:2.4239914736905850e-02
6356:1.1636972850193989e-02
6357:1.4522242544474470e-02
6358:1.7899185480150036e-02
6359:2.0194995180729917e-02
6360:6.0985225936369169e-03
6361:9.1105800661906294e-03
6362:1.2656797065085542e-02
6363:1.5085134488173627e-02
6364:2.0148331456319077e-03
6365:5.1138368093635311e-03
6366:8.7771901824751919e-03
6367:1.1298090091112191e-02
6368:2.5301772666840971e-02
6369:2.7107442711070365e-02
6370:2.9101545206680228e-02
6371:3.0356319690661535e-02
6372:2.1316359598548773e-02
6373:2.3234242262366107e-02
6374:2.5375843463105733e-02
6375:2.6744579258692103e-02
6376:1.6278044607816605e-02
6377:1.8331548776656596e-02
6378:2.0652716750221668e-02
6379:2.2161094136263552e-02
6380:1.2541283613907524e-02
6381:1.4690634067702246e-02
6382:1.7139647431805505e-02
6383:1.8748087520452004e-02
6384:3.0929316406944133e-02
6385:3.1829718565751848e-02
6386:3.2665259808080382e-02
6387:3.3048394492095359e-02
6388:2.7378649082547449e-02
6389:2.8394276669559269e-02
6390:2.9381438162837437e-02
6391:2.9881832424019386e-02
6392:2.2870287060495948e-02
6393:2.4028085355883050e-02
6394:2.5203179118038346e-02
6395:2.5849583998285425e-02
6396:1.9511314337564475e-02
6397:2.0771724346022910e-02
6398:2.2083157165380986e-02
6399:2.2836031367789066e-02
6400:3.3162349633586614e-02
6401:3.3210485352929961e-02
6402:3.2950988861215794e-02
6403:3.2507077758434415e-02
6404:3.0058688818352476e-02
6405:3.0226051332386695e-02
6406:3.0124743600939051e-02
6407:2.9804289179400856e-02
6408:2.6105004636327936e-02
6409:2.6421729830919009e-02
6410:2.6519427407913410e-02
6411:2.6354877949159809e-02
6412:2.3148932767601816e-02
6413:2.3575264937746986e-02
6414:2.3819597487607699e-02
6415:2.3770347475135511e-02
6416:3.2184410664730316e-02
6417:3.1420632665714071e-02
6418:3.0115796149191472e-02
6419:2.8880913701966906e-02
6420:2.9548296634060011e-02
6421:2.8912103863806184e-02
6422:2.7779005114933846e-02
6423:2.6680047895881236e-02
6424:2.6183277448442760e-02
6425:2.5708871534236927e-02
6426:2.4794105093603740e-02
6427:2.3868358911054783e-02
6428:2.3661296109462236e-02
6429:2.3307024914518169e-02
6430:2.2554799202521850e-02
6431:2.1758308203410012e-02
6432:2.8140234844652143e-02
6433:2.6598918368265979e-02
6434:2.4292971890197700e-02
6435:2.2300863613784343e-02
6436:2.6013468279140813e-02
6437:2.4615599796703580e-02
6438:2.2506083900893929e-02
6439:2.0671999128518595e-02
6440:2.3296340304859307e-02
6441:2.2081729996702514e-02
6442:2.0223500335759266e-02
6443:1.8591793891391716e-02
6444:2.1256954654141447e-02
6445:2.0179428348148957e-02
6446:1.8509399424857326e-02
6447:1.7029413051014242e-02
6448:2.1160266983039119e-02
6449:1.8876968431730319e-02
6450:1.5620162438253319e-02
6451:1.2912716913353075e-02
6452:1.9618464106134437e-02
6453:1.7505722838146835e-02
6454:1.4486411989129854e-02
6455:1.1972941478891849e-02
6456:1.7649821230276561e-02
6457:1.5755659448360559e-02
6458:1.3040718632035989e-02
6459:1.0775826681181402e-02
6460:1.6171118509597137e-02
6461:1.4440913862456750e-02
6462:1.1954272615589895e-02
6463:9.8758111689073325e-03
6464:1.1395894416473179e-02
6465:8.4186994556242345e-03
6466:4.2816154810444325e-03
6467:9.1943835060429816e-04
6468:1.0563986473012193e-02
6469:7.8000017734348014e-03
6470:3.9634022925041602e-03
6471:8.4924847925511979e-04
6472:9.5050865555599828e-03
6473:7.0141606781709371e-03
6474:3.5620843435122261e-03
6475:7.6506998800025968e-04
6476:8.7087145002535029e-03
6477:6.4224351599468672e-03
6478:3.2582923583666761e-03
6479:6.9855309973068853e-04
6480:-7.3136205556855469e-03
6481:-3.5755422975662872e-02
6482:-7.2266131315778609e-02
6483:-9.9699721410677455e-02
6484:-6.9448594603446455e-03
6485:-3.4060642423605215e-02
6486:-6.8799706880481384e-02
6487:-9.4892735591259977e-02
6488:-6.6539618369784387e-03
6489:-3.2023852928361608e-02
6490:-6.4604737155016398e-02
6491:-8.9160853385533881e-02
6492:-6.4710264995914970e-03
6493:-3.0590733684345024e-02
6494:-6.1684199262662102e-02
6495:-8.5200306069723800e-02
6496:-1.1408758460058074e-01
6497:-1.4045150308001064e-01
6498:-1.7349259013348922e-01
6499:-1.9770756319834817e-01
6500:-1.0858840412938550e-01
6501:-1.3372989273138888e-01
6502:-1.6533338984104692e-01
6503:-1.8856927123019906e-01
6504:-1.0208431745012465e-01
6505:-1.2582998275660262e-01
6506:-1.5571738057532283e-01
6507:-1.7772691441038721e-01
6508:-9.7599689524970001e-02
6509:-1.2037815477369268e-01
6510:-1.4903899349089891e-01
6511:-1.7014630922112048e-01
6512:-2.1018499349652256e-01
6513:-2.3255160268819519e-01
6514:-2.5962225799817190e-01
6515:-2.7874328976350937e-01
6516:-2.0056987374912497e-01
6517:-2.2213718518883169e-01
6518:-2.4833772356412906e-01
6519:-2.6690844173591716e-01
6520:-1.8910990787776005e-01
6521:-2.0961844712915909e-01
6522:-2.3462876630589688e-01
6523:-2.5242271156639323e-01
6524:-1.8106657180609009e-01
6525:-2.0076804194769410e-01
6526:-2.2484946293682673e-01
6527:-2.4202542735435667e-01
6528:-2.8834630680332646e-01
6529:-3.0513191385858784e-01
6530:-3.2457834634801663e-01
6531:-3.3759698908698260e-01
6532:-2.7625493573133081e-01
6533:-2.9262670482444697e-01
6534:-3.1166183306586093e-01
6535:-3.2445984109328230e-01
6536:-2.6140101156328360e-01
6537:-2.7718382218763687e-01
6538:-2.9565279654339544e-01
6539:-3.0817045869775062e-01
6540:-2.5070826231439880e-01
6541:-2.6601630614802896e-01
6542:-2.8402737893510199e-01
6543:-2.9631965678754313e-01
6544:-3.4386523878954262e-01
6545:-3.5438021515639673e-01
6546:-3.6565614300490218e-01
6547:-3.7242758773723744e-01
6548:-3.3064259198049845e-01
6549:-3.4105572302951043e-01
6550:-3.5233312133113504e-01
6551:-3.5922715157111429e-01
6552:-3.1425645236184196e-01
6553:-3.2456409689513599e-01
6554:-3.3585793549459092e-01
6555:-3.4289158445047996e-01
6556:-3.0232950672741754e-01
6557:-3.1255701207276493e-01
6558:-3.2386014333922758e-01
6559:-3.3098338023424001e-01
6560:-3.7537632888886113e-01
6561:-3.7973423402365813e-01
6562:-3.8318418878990679e-01
6563:-3.8416850914648881e-01
6564:-3.6228935176852439e-01
6565:-3.6694107700482914e-01
6566:-3.7090408065632663e-01
6567:-3.7235620045064849e-01
6568:-3.4607553623028703e-01
6569:-3.5103683471995278e-01
6570:-3.5554360060589124e-01
6571:-3.5750337186659109e-01
6572:-3.3424264046217012e-01
6573:-3.3939188374860568e-01
6574:-3.4423431565219298e-01
6575:-3.4652051849621807e-01
6576:-3.8412617634430518e-01
6577:-3.8309612003323135e-01
6578:-3.7994074750928436e-01
6579:-3.7616448941183783e-01
6580:-3.7258134746530630e-01
6581:-3.7207078927414700e-01
6582:-3.6964128748538266e-01
6583:-3.6647327018304865e-01
6584:-3.5802608889739251e-01
6585:-3.5811705685825523e-01
6586:-3.5656151444317885e-01
6587:-3.5413673959922976e-01
6588:-3.4724159421290252e-01
6589:-3.4774786967443766e-01
6590:-3.4681046688606115e-01
6591:-3.4491066050335989e-01
6592:-3.7368843942409252e-01
6593:-3.6834018416036279e-01
6594:-3.6007103301798643e-01
6595:-3.5279308581592411e-01
6596:-3.6434366326957102e-01
6597:-3.5967582532787173e-01
6598:-3.5233029219008705e-01
6599:-3.4576830356397675e-01
6600:-3.5242920515741732e-01
6601:-3.4857339873729137e-01
6602:-3.4230887872958454e-01
6603:-3.3658101527430040e-01
6604:-3.4349764767007207e-01
6605:-3.4019968791463184e-01
6606:-3.3467167255920982e-01
6607:-3.2951763655646754e-01
6608:-3.4860266672226170e-01
6609:-3.4028502736972821e-01
6610:-3.2859663855718513e-01
6611:-3.1902566827568302e-01
6612:-3.4195590185929092e-01
6613:-3.3432943010716187e-01
6614:-3.2351810606171449e-01
6615:-3.1461221909966658e-01
6616:-3.3321190108212057e-01
6617:-3.2641462450928538e-01
6618:-3.1668429673067860e-01
6619:-3.0860994246157131e-01
6620:-3.2645857501844777e-01
6621:-3.2025289443936988e-01
6622:-3.1130734530853965e-01
6623:-3.0383820759720215e-01
6624:-3.1372420962683728e-01
6625:-3.0354528347367221e-01
6626:-2.8987170968835113e-01
6627:-2.7911950869716123e-01
6628:-3.0966578337370065e-01
6629:-3.0014716353339971e-01
6630:-2.8731035915594061e-01
6631:-2.7716992825274411e-01
6632:-3.0410770837534590e-01
6633:-2.9540487976001989e-01
6634:-2.8358819423403581e-01
6635:-2.7419079703941929e-01
6636:-2.9965712582086390e-01
6637:-2.9153864383146949e-01
6638:-2.8044875881061171e-01
6639:-2.7158420034114567e-01
6640:-2.7330663531967864e-01
6641:-2.6233803423182311e-01
6642:-2.4794085924737286e-01
6643:-2.3685392035317809e-01
6644:-2.7166924341008025e-01
6645:-2.6125674346138894e-01
6646:-2.4753426897019815e-01
6647:-2.3693280689877516e-01
6648:-2.6907104967616269e-01
6649:-2.5934838199803828e-01
6650:-2.4648081871610147e-01
6651:-2.3650287776140913e-01
6652:-2.6674090792996863e-01
6653:-2.5752588148104222e-01
6654:-2.4529618163687392e-01
6655:-2.3578543480234440e-01
6656:-2.3093591573132416e-01
6657:-2.1990122291537362e-01
6658:-2.0567020593553290e-01
6659:-1.9489998115496079e-01
6660:-2.3126435194291806e-01
6661:-2.2067885838224854e-01
6662:-2.0699138217370883e-01
6663:-1.9660099044519025e-01
6664:-2.3115581126373444e-01
6665:-2.2114435762254095e-01
6666:-2.0814581797624798e-01
6667:-1.9823636976483103e-01
6668:-2.3067837950092179e-01
6669:-2.2109345334464320e-01
6670:-2.0860593938784425e-01
6671:-1.9905580941902978e-01
6672:-1.8921461935711995e-01
6673:-1.7869746595298586e-01
6674:-1.6528406251101541e-01
6675:-1.5524143850858924e-01
6676:-1.9110381341074181e-01
6677:-1.8091385847279123e-01
6678:-1.6788115492320954e-01
6679:-1.5809898873491782e-01
6680:-1.9297872170325858e-01
6681:-1.8321138894934186e-01
6682:-1.7068067777164095e-01
6683:-1.6124753244358994e-01
6684:-1.9397909184843731e-01
6685:-1.8453482965683274e-01
6686:-1.7239311190765963e-01
6687:-1.6323238139422255e-01
6688:-1.4997676074557773e-01
6689:-1.4030153093690148e-01
6690:-1.2808497621796056e-01
6691:-1.1903217344196829e-01
6692:-1.5296324542999157e-01
6693:-1.4351237197020994e-01
6694:-1.3155289126823791e-01
6695:-1.2266870577382556e-01
6696:-1.5628562701646789e-01
6697:-1.4713628065848136e-01
6698:-1.3552174561719352e-01
6699:-1.2686520239599225e-01
6700:-1.5840618138633150e-01
6701:-1.4949199858624873e-01
6702:-1.3814755095819445e-01
6703:-1.2967157279998995e-01
6704:-1.1431864956341921e-01
6705:-1.0570014559115423e-01
6706:-9.4898703731704864e-02
6707:-8.6955250349409985e-02
6708:-1.1803474802351031e-01
6709:-1.0954838517438804e-01
6710:-9.8888405797587287e-02
6711:-9.1031770375461979e-02
6712:-1.2233986843010099e-01
6713:-1.1403771543135123e-01
6714:-1.0358193919159335e-01
6715:-9.5855539329838035e-02
6716:-1.2523374759253095e-01
6717:-1.1708239449789137e-01
6718:-1.0679767127987722e-01
6719:-9.9182747873536203e-02
6720:-8.2840453879383963e-02
6721:-7.5353769333365461e-02
6722:-6.6043297169125603e-02
6723:-5.9252613805552648e-02
6724:-8.6956282043836611e-02
6725:-7.9531946753100560e-02
6726:-7.0280617091093456e-02
6727:-6.3518181224103104e-02
6728:-9.1840587388167735e-02
6729:-8.4513997911807942e-02
6730:-7.5359871163688835e-02
6731:-6.8649319071576703e-02
6732:-9.5220278863119040e-02
6733:-8.7979625182197249e-02
6734:-7.8914178472259219e-02
6735:-7.2254652507893466e-02
6736:-5.5754877271923832e-02
6737:-4.9421347207412390e-02
6738:-4.1603551071626305e-02
6739:-3.5947327128818950e-02
6740:-6.0029521146423459e-02
6741:-5.3703728371341311e-02
6742:-4.5879257797795420e-02
6743:-4.0206070762880457e-02
6744:-6.5180630486366853e-02
6745:-5.8880901798959120e-02
6746:-5.1069502867308797e-02
6747:-4.5391103145580231e-02
6748:-6.8807561911057247e-02
6749:-6.2539989726025938e-02
6750:-5.4754773493206718e-02
6751:-4.9084594882016157e-02
6752:-3.3050471258347383e-02
6753:-2.7835249836556494e-02
6754:-2.1458252810751727e-02
6755:-1.6892608426372569e-02
6756:-3.7296338650715757e-02
6757:-3.2051095498710873e-02
6758:-2.5623796013139303e-02
6759:-2.1011186768664685e-02
6760:-4.2473491776479119e-02
6761:-3.7205107997330157e-02
6762:-3.0731890900775449e-02
6763:-2.6072459090308614e-02
6764:-4.6167277705339238e-02
6765:-4.0892644079238691e-02
6766:-3.4398656765162280e-02
6767:-2.9714163901969428e-02
6768:-1.4571951663164037e-02
6769:-1.0425149174935052e-02
6770:-5.4168275349586034e-03
6771:-1.8813311009837576e-03
6772:-1.8662618845135825e-02
6773:-1.4459238031608011e-02
6774:-9.3695307176265355e-03
6775:-5.7662671473226170e-03
6776:-2.3695032802528462e-02
6777:-1.9431920116724503e-02
6778:-1.4254072191588044e-02
6779:-1.0575802595171838e-02
6780:-2.7320363141865200e-02
6781:-2.3022127348074108e-02
6782:-1.7790238388481368e-02
6783:-1.4064413293332037e-02
6784:-1.0307967549649670e-04
6785:3.0386514983973684e-03
6786:6.7600167450038101e-03
6787:9.3271114522707286e-03
6788:-3.9501498731556017e-03
6789:-7.3479901174251891e-04
6790:3.0874653195107227e-03
6791:5.7355579205524984e-03
6792:-8.7172216493689916e-03
6793:-5.4182845412910586e-03
6794:-1.4796273895175357e-03
6795:1.2631296911864045e-03
6796:-1.2178391348910796e-02
6797:-8.8246077734763818e-03
6798:-4.8081449120437785e-03
6799:-2.0011725653288222e-03
6800:1.0595524636045777e-02
6801:1.2793128962806976e-02
6802:1.5306822501222110e-02
6803:1.6966100758466513e-02
6804:7.0483949664205065e-03
6805:9.3312630595687070e-03
6806:1.1959745386715927e-02
6807:1.3709628820248844e-02
6808:2.6282620712848011e-03
6809:5.0120426114376457e-03
6810:7.7774245977226403e-03
6811:9.6361707080246505e-03
6812:-6.0028364990643559e-04
6813:1.8529571944425679e-03
6814:4.7134725845010342e-03
6815:6.6485590530489845e-03
6816:1.7756848197965924e-02
6817:1.9069654098956876e-02
6818:2.0450970630787789e-02
6819:2.1258622217357862e-02
6820:1.4549560631816994e-02
6821:1.5956285602831063e-02
6822:1.7463392501393372e-02
6823:1.8370019015719316e-02
6824:1.0535484742539137e-02
6825:1.2056140799272990e-02
6826:1.3716838211309404e-02
6827:1.4745017125663010e-02
6828:7.5897568204963423e-03
6829:9.1911820525983120e-03
6830:1.0961509641337935e-02
6831:1.2076969881835162e-02
6832:2.1601167951089479e-02
6833:2.2084138312854669e-02
6834:2.2404443428085657e-02
6835:2.2415071853944729e-02
6836:1.8766250601267114e-02
6837:1.9351975984389792e-02
6838:1.9810457907027089e-02
6839:1.9930248065910747e-02
6840:1.5207408586404843e-02
6841:1.5920121601744875e-02
6842:1.6550045606022138e-02
6843:1.6805785237048562e-02
6844:1.2587034914269327e-02
6845:1.3391533456126408e-02
6846:1.4145911126072665e-02
6847:1.4500739428089677e-02
6848:2.2338549938460420e-02
6849:2.2046834693225898e-02
6850:2.1379394006719930e-02
6851:2.0650432819810646e-02
6852:1.9913117076018207e-02
6853:1.9735767870073320e-02
6854:1.9223614604701719e-02
6855:1.8618534045244366e-02
6856:1.6862793242416432e-02
6857:1.6828498775546080e-02
6858:1.6511108814106685e-02
6859:1.6061761995112236e-02
6860:1.4611920339486099e-02
6861:1.4682365673549771e-02
6862:1.4507949533214949e-02
6863:1.4173182379640369e-02
6864:2.0186033494301016e-02
6865:1.9180238577716936e-02
6866:1.7608760522697789e-02
6867:1.6208268191725127e-02
6868:1.8221987491081764e-02
6869:1.7347973798746027e-02
6870:1.5957671076486081e-02
6871:1.4703401764726317e-02
6872:1.5750627393462214e-02
6873:1.5042631366740696e-02
6874:1.3880797912246858e-02
6875:1.2811071402543299e-02
6876:1.3924968233190903e-02
6877:1.3339367947883827e-02
6878:1.2346132938969384e-02
6879:1.1412695743927932e-02
6880:1.5393829608922984e-02
6881:1.3749556695612550e-02
6882:1.1382562596708666e-02
6883:9.4017953337546586e-03
6884:1.3969655981495264e-02
6885:1.2483496325582627e-02
6886:1.0336636052529677e-02
6887:8.5355885362393431e-03
6888:1.2179207182838898e-02
6889:1.0892673471476266e-02
6890:9.0236899909259729e-03
6891:7.4494410341548944e-03
6892:1.0856102637408086e-02
6893:9.7170385158809151e-03
6894:8.0532670400498899e-03
6895:6.6464442369619818e-03
6896:8.2890038697078748e-03
6897:6.1099086243563867e-03
6898:3.0964773655663917e-03
6899:6.6085908552389371e-04
6900:7.5226831813883181e-03
6901:5.5406532420103956e-03
6902:2.8041345922860052e-03
6903:5.9643051799460295e-04
6904:6.5625537317884090e-03
6905:4.8289767070268802e-03
6906:2.4412186612189223e-03
6907:5.2028228157608250e-04
6908:5.8525543142210800e-03
6909:4.3021931107468762e-03
6910:2.1713342333711345e-03
6911:4.6141073500921727e-04
6912:-6.3560328881046638e-03
6913:-2.9869826760848945e-02
6914:-6.0241288252980363e-02
6915:-8.3242023967092904e-02
6916:-6.0937048415969051e-03
6917:-2.8579353458260008e-02
6918:-5.7676066466555168e-02
6919:-7.9731179903195185e-02
6920:-5.7071322542947877e-03
6921:-2.7004765433269563e-02
6922:-5.4550633441160193e-02
6923:-7.5410662890345884e-02
6924:-5.4196040858087114e-03
6925:-2.5872458719760912e-02
6926:-5.2285755212579825e-02
6927:-7.2265245284517429e-02
6928:-9.5375312953740563e-02
6929:-1.1765870416779875e-01
6930:-1.4568750225268562e-01
6931:-1.6632798705672613e-01
6932:-9.1366305295301792e-02
6933:-1.1273313227542089e-01
6934:-1.3961442751502509e-01
6935:-1.5942210150358338e-01
6936:-8.6407404447091010e-02
6937:-1.0661799926944615e-01
6938:-1.3208694307943109e-01
6939:-1.5089056233579476e-01
6940:-8.2793622640474157e-02
6941:-1.0216574693457975e-01
6942:-1.2662496517383012e-01
6943:-1.4471682928006091e-01
6944:-1.7700834106334670e-01
6945:-1.9628795970498922e-01
6946:-2.1987855261710218e-01
6947:-2.3672574929709733e-01
6948:-1.6967862935120825e-01
6949:-1.8821315842142200e-01
6950:-2.1093643076432020e-01
6951:-2.2720307238506868e-01
6952:-1.6064138813405909e-01
6953:-1.7828697716037908e-01
6954:-1.9997457857385859e-01
6955:-2.1554789666261290e-01
6956:-1.5410969870790800e-01
6957:-1.7112474923807242e-01
6958:-1.9207528868536392e-01
6959:-2.0715358146598251e-01
6960:-2.4525106279898834e-01
6961:-2.6030354487069829e-01
6962:-2.7806294897642986e-01
6963:-2.9022681375712772e-01
6964:-2.3545029647207003e-01
6965:-2.5004614283746196e-01
6966:-2.6734126626986010e-01
6967:-2.7925237395991376e-01
6968:-2.2346280362890408e-01
6969:-2.3750527292354850e-01
6970:-2.5421632282265033e-01
6971:-2.6578578766595767e-01
6972:-2.1483063991573151e-01
6973:-2.2847423008383150e-01
6974:-2.4475553269226166e-01
6975:-2.5606328366843212e-01
6976:-2.9619127232879622e-01
6977:-3.0636960224322363e-01
6978:-3.1767107637595027e-01
6979:-3.2483476329572242e-01
6980:-2.8511921897500903e-01
6981:-2.9517983111125301e-01
6982:-3.0644504465645128e-01
6983:-3.1366130875577414e-01
6984:-2.7150865134770091e-01
6985:-2.8137659637142964e-01
6986:-2.9253671526098418e-01
6987:-2.9977792721431851e-01
6988:-2.6167051248913992e-01
6989:-2.7137282427996157e-01
6990:-2.8241840152774111e-01
6991:-2.8964907527905615e-01
6992:-3.2812836346584667e-01
6993:-3.3336281763464187e-01
6994:-3.3836077951303739e-01
6995:-3.4080396257931755e-01
6996:-3.1700819340731229e-01
6997:-3.2238275053873650e-01
6998:-3.2764678561644878e-01
6999:-3.3036309156537091e-01
7000:-3.0317299461806052e-01
7001:-3.0869307479427827e-01
7002:-3.1425508245063771e-01
7003:-3.1728437663012754e-01
7004:-2.9306537281251371e-01
7005:-2.9866858219364828e-01
7006:-3.0441969794168788e-01
7007:-3.0765306568118145e-01
7008:-3.4162310995064110e-01
7009:-3.4233785126178784e-01
7010:-3.4171191875797835e-01
7011:-3.4007377956322432e-01
7012:-3.3135352256046535e-01
7013:-3.3242969956665136e-01
7014:-3.3234016936922073e-01
7015:-3.3115175250889428e-01
7016:-3.1847138857520813e-01
7017:-3.1995820977581363e-01
7018:-3.2047553980539134e-01
7019:-3.1979932444265574e-01
7020:-3.0896843686235498e-01
7021:-3.1072248994808022e-01
7022:-3.1163788843209966e-01
7023:-3.1130437407424622e-01
7024:-3.3880566745686524e-01
7025:-3.3578069553019763e-01
7026:-3.3061453445151429e-01
7027:-3.2574704251335629e-01
7028:-3.3013312995763672e-01
7029:-3.2758431617492362e-01
7030:-3.2306024730065774e-01
7031:-3.1870731712940015e-01
7032:-3.1906788847381778e-01
7033:-3.1707918708815275e-01
7034:-3.1332816969677496e-01
7035:-3.0960152567586363e-01
7036:-3.1076872255923021e-01
7037:-3.0916948682524359e-01
7038:-3.0596481153122423e-01
7039:-3.0268186042205930e-01
7040:-3.2284534647920360e-01
7041:-3.1694259589981494e-01
7042:-3.0840042026383119e-01
7043:-3.0124063708791110e-01
7044:-3.1608932325555406e-01
7045:-3.1072916975457482e-01
7046:-3.0290377490639275e-01
7047:-2.9629128257042764e-01
7048:-3.0732883071708322e-01
7049:-3.0262245349552996e-01
7050:-2.9565273129490821e-01
7051:-2.8969300314186519e-01
7052:-3.0065251219864586e-01
7053:-2.9640345511354294e-01
7054:-2.9003047812002442e-01
7055:-2.8452919726452086e-01
7056:-2.9722234532156228e-01
7057:-2.8939917708510804e-01
7058:-2.7867757703352514e-01
7059:-2.7008597867140144e-01
7060:-2.9256093624646567e-01
7061:-2.8526465031151998e-01
7062:-2.7520844891059693e-01
7063:-2.6711495774780364e-01
7064:-2.8630781997621069e-01
7065:-2.7965191943665874e-01
7066:-2.7041811929342474e-01
7067:-2.6294628080998705e-01
7068:-2.8138898275752910e-01
7069:-2.7519312956366082e-01
7070:-2.6655700034548280e-01
7071:-2.5953839850490656e-01
7072:-2.6538595828044659e-01
7073:-2.5643566509961935e-01
7074:-2.4453980340750628e-01
7075:-2.3527292012638593e-01
7076:-2.6267743581260644e-01
7077:-2.5421018238007892e-01
7078:-2.4292009254623520e-01
7079:-2.3409431023014804e-01
7080:-2.5883684705206311e-01
7081:-2.5096958474645059e-01
7082:-2.4042736849759025e-01
7083:-2.3214596618396718e-01
7084:-2.5566750737533894e-01
7085:-2.4823462488746725e-01
7086:-2.3823311346701173e-01
7087:-2.3034749105435123e-01
7088:-2.3029048883122258e-01
7089:-2.2092680835323891e-01
7090:-2.0870529553219155e-01
7091:-1.9934401158557713e-01
7092:-2.2933730146867140e-01
7093:-2.2037662274186345e-01
7094:-2.0864491108561781e-01
7095:-1.9963468577472346e-01
7096:-2.2766828629531868e-01
7097:-2.1921235112115098e-01
7098:-2.0810279852586519e-01
7099:-1.9954289875633674e-01
7100:-2.2607455112936739e-01
7101:-2.1799196540968324e-01
7102:-2.0734712869621391e-01
7103:-1.9912508525199207e-01
7104:-1.9436333734145750e-01
7105:-1.8509150805120131e-01
7106:-1.7315830657163697e-01
7107:-1.6414360156753716e-01
7108:-1.9483337091231065e-01
7109:-1.8588283827017604e-01
7110:-1.7433697118346478e-01
7111:-1.6559319216432850e-01
7112:-1.9497235224014653e-01
7113:-1.8643389349322931e-01
7114:-1.7538350746578885e-01
7115:-1.6698696590814158e-01
7116:-1.9472757262730245e-01
7117:-1.8649760292605927e-01
7118:-1.7581860349333484e-01
7119:-1.6768406936483823e-01
7120:-1.5938995556478031e-01
7121:-1.5060164840465121e-01
7122:-1.3940266608748161e-01
7123:-1.3102512998437571e-01
7124:-1.6097430429045664e-01
7125:-1.5242146373412091e-01
7126:-1.4149781327105360e-01
7127:-1.3330881204530751e-01
7128:-1.6254164806344906e-01
7129:-1.5429522854813449e-01
7130:-1.4373525455641220e-01
7131:-1.3579847732493486e-01
7132:-1.6337078737050259e-01
7133:-1.5535946569809525e-01
7134:-1.4508148602978319e-01
7135:-1.3734172116594143e-01
7136:-1.2663558698971922e-01
7137:-1.1856806516888060e-01
7138:-1.0837930850350620e-01
7139:-1.0082738478032451e-01
7140:-1.2901237756309852e-01
7141:-1.2110659081483879e-01
7142:-1.1110322585518480e-01
7143:-1.0367351989466124e-01
7144:-1.3162737123006740e-01
7145:-1.2393943189090220e-01
7146:-1.1418664789005652e-01
7147:-1.0692364183103031e-01
7148:-1.3326874846910483e-01
7149:-1.2575168987895716e-01
7150:-1.1619670683108513e-01
7151:-1.0906692505985209e-01
7152:-9.6894685554914622e-02
7153:-8.9703206535218086e-02
7154:-8.0689653112465481e-02
7155:-7.4061207657689976e-02
7156:-9.9798905522343426e-02
7157:-9.2704605450261962e-02
7158:-8.3796113876232328e-02
7159:-7.7232626295162601e-02
7160:-1.0312912130838812e-01
7161:-9.6171056837133159e-02
7162:-8.7414081184345571e-02
7163:-8.0947450498770265e-02
7164:-1.0533723322411560e-01
7165:-9.8490877765536278e-02
7166:-8.9860648559448114e-02
7167:-8.3476789014994765e-02
7168:-7.0627853202869392e-02
7169:-6.4381658072213771e-02
7170:-5.6615873220998224e-02
7171:-5.0954116139864995e-02
7172:-7.3828748097091362e-02
7173:-6.7629394954828642e-02
7174:-5.9908446352563094e-02
7175:-5.4268709495832901e-02
7176:-7.7588642380912190e-02
7177:-7.1462484138693216e-02
7178:-6.3815346567196007e-02
7179:-5.8216016192806704e-02
7180:-8.0157076642505723e-02
7181:-7.4095456983291272e-02
7182:-6.6515926219514382e-02
7183:-6.0956258709340815e-02
7184:-4.8039022960323925e-02
7185:-4.2764857161106534e-02
7186:-3.6264684414280157e-02
7187:-3.1570583700375028e-02
7188:-5.1361076298240348e-02
7189:-4.6094116761487815e-02
7190:-3.9590850638661405e-02
7191:-3.4885350538777074e-02
7192:-5.5324410860392213e-02
7193:-5.0078968636160369e-02
7194:-4.3587853840347558e-02
7195:-3.8879955524734888e-02
7196:-5.8081713114677705e-02
7197:-5.2861889071114533e-02
7198:-4.6392107957459496e-02
7199:-4.1691499838404054e-02
7200:-2.9170068325567993e-02
7201:-2.4856827426095362e-02
7202:-1.9600799793036285e-02
7203:-1.5853025484862806e-02
7204:-3.2475766624332457e-02
7205:-2.8140785351342373e-02
7206:-2.2847427883676542e-02
7207:-1.9064303393656740e-02
7208:-3.6465132108625724e-02
7209:-3.2113800927614337e-02
7210:-2.6786788803047853e-02
7211:-2.2968704597849013e-02
7212:-3.9277442274256932e-02
7213:-3.4922349751586909e-02
7214:-2.9580672254182538e-02
7215:-2.5744165092610617e-02
7216:-1.3954115951931266e-02
7217:-1.0574259572276458e-02
7218:-6.5202833608964204e-03
7219:-3.6820132507908495e-03
7220:-1.7144243252273587e-02
7221:-1.3721088468482915e-02
7222:-9.6039186296212348e-03
7223:-6.7122988093411915e-03
7224:-2.1026900474394764e-02
7225:-1.7558117832943646e-02
7226:-1.3372377059600904e-02
7227:-1.0421488745276927e-02
7228:-2.3790122811330298e-02
7229:-2.0294574804832908e-02
7230:-1.6066713648897779e-02
7231:-1.3078134126039514e-02
7232:-2.2635955649033799e-03
7233:2.2388222023049227e-04
7234:3.1316512660192618e-03
7235:5.1049291606574234e-03
7236:-5.2637945808650848e-03
7237:-2.7171590410898427e-03
7238:2.7298350873507596e-04
7239:2.3133418705412216e-03
7240:-8.9391076497275495e-03
7241:-6.3250634658642124e-03
7242:-3.2396194726623168e-03
7243:-1.1206696508302006e-03
7244:-1.1573800384427436e-02
7245:-8.9154133339916803e-03
7246:-5.7661135221477406e-03
7247:-3.5937239559407741e-03
7248:6.0671736909031640e-03
7249:7.7093308434261392e-03
7250:9.5352043907306026e-03
7251:1.0695066975617963e-02
7252:3.3127141205623739e-03
7253:5.0269615818647716e-03
7254:6.9515870671742336e-03
7255:8.1907171142625995e-03
7256:-7.7489561641226490e-05
7257:1.7222978707111731e-03
7258:3.7650039133396347e-03
7259:5.0995871724537657e-03
7260:-2.5205132333551783e-03
7261:-6.6168728159334358e-04
7262:1.4632745929265213e-03
7263:2.8649092058361933e-03
7264:1.1229442785155027e-02
7265:1.2080850221082001e-02
7266:1.2899030898202725e-02
7267:1.3304805048301165e-02
7268:8.7686047927862769e-03
7269:9.7041754797477005e-03
7270:1.0637210700790838e-02
7271:1.1134963861320710e-02
7272:5.7301007658673037e-03
7273:6.7678626831089500e-03
7274:7.8410855556442019e-03
7275:8.4516177006981486e-03
7276:3.5325783633217149e-03
7277:4.6427986941714955e-03
7278:5.8159782899194212e-03
7279:6.5073113161280387e-03
7280:1.3443887748859892e-02
7281:1.3568350827001519e-02
7282:1.3467796668763592e-02
7283:1.3192308592542255e-02
7284:1.1324507764527295e-02
7285:1.1546784402140025e-02
7286:1.1580194981255865e-02
7287:1.1412377106866347e-02
7288:8.7031975965252729e-03
7289:9.0459581083126659e-03
7290:9.2448065034715261e-03
7291:9.2102563115466808e-03
7292:6.8034600562424576e-03
7293:7.2329619572894556e-03
7294:7.5512460270092075e-03
7295:7.6131410672618397e-03
7296:1.2976673499831648e-02
7297:1.2454479756078727e-02
7298:1.1548640451775531e-02
7299:1.0685886428548190e-02
7300:1.1255965772343080e-02
7301:1.0849096803901174e-02
7302:1.0102312925640079e-02
7303:9.3682591942100615e-03
7304:9.1272450126409551e-03
7305:8.8634164367134543e-03
7306:8.3140855871619256e-03
7307:7.7399042654978639e-03
7308:7.5833232516549776e-03
7309:7.4232331690071750e-03
7310:7.0172164423755257e-03
7311:6.5591372231483310e-03
7312:1.0168340257423102e-02
7313:9.1057665429268592e-03
7314:7.5484054781765775e-03
7315:6.2283714203034014e-03
7316:8.9218244168089555e-03
7317:7.9985285399330024e-03
7318:6.6348566707171907e-03
7319:5.4727356873546396e-03
7320:7.3818272179350403e-03
7321:6.6315293435801189e-03
7322:5.5082878440859623e-03
7323:4.5420561297497934e-03
7324:6.2652395380934107e-03
7325:5.6405461635175153e-03
7326:4.6917334207159213e-03
7327:3.8675025487377654e-03
7328:5.4826758546385624e-03
7329:4.0272131731080357e-03
7330:2.0293121985005642e-03
7331:4.2851648850545575e-04
7332:4.8147042104004041e-03
7333:3.5317617371371122e-03
7334:1.7753642347665200e-03
7335:3.7262611065066038e-04
7336:3.9927153151131742e-03
7337:2.9234685147263378e-03
7338:1.4657827368681174e-03
7339:3.0768354046645301e-04
7340:3.3969045251681035e-03
7341:2.4823014345162998e-03
7342:1.2404212163150683e-03
7343:2.5878308502710526e-04
7344:-5.2822166587813864e-03
7345:-2.5292862276260784e-02
7346:-5.1114707189752369e-02
7347:-7.0640205479282195e-02
7348:-5.0582533902874451e-03
7349:-2.4249802558559012e-02
7350:-4.9001089859784630e-02
7351:-6.7720019734135425e-02
7352:-4.8119173656008532e-03
7353:-2.2974363949915040e-02
7354:-4.6416230667580521e-02
7355:-6.4166241966115714e-02
7356:-4.6398416835965227e-03
7357:-2.2060137607733347e-02
7358:-4.4570586642996797e-02
7359:-6.1633672284659942e-02
7360:-8.0930316410187345e-02
7361:-9.9877765695846443e-02
7362:-1.2382636830229124e-01
7363:-1.4155707792170305e-01
7364:-7.7590539697834027e-02
7365:-9.5784465631134338e-02
7366:-1.1881485636351768e-01
7367:-1.3588797239849681e-01
7368:-7.3535401718783699e-02
7369:-9.0817701988208488e-02
7370:-1.1271665136699295e-01
7371:-1.2896788316866092e-01
7372:-7.0645713898019394e-02
7373:-8.7271639273515944e-02
7374:-1.0834583788717687e-01
7375:-1.2399411779702746e-01
7376:-1.5076736151624071e-01
7377:-1.6745994218681137e-01
7378:-1.8803216328090802e-01
7379:-2.0285528363530936e-01
7380:-1.4476350114869121e-01
7381:-1.6086424421711409e-01
7382:-1.8074033351189833e-01
7383:-1.9509122152944239e-01
7384:-1.3742247091664681e-01
7385:-1.5277873092972610e-01
7386:-1.7177660107234383e-01
7387:-1.8552698990026953e-01
7388:-1.3213975304147549e-01
7389:-1.4695003511615573e-01
7390:-1.6530257094900930e-01
7391:-1.7860857485884410e-01
7392:-2.1040937020569178e-01
7393:-2.2384672841619782e-01
7394:-2.3990529885363993e-01
7395:-2.5107626101745056e-01
7396:-2.0241642429137477e-01
7397:-2.1546957821966392e-01
7398:-2.3111390532981385e-01
7399:-2.4203198653648464e-01
7400:-1.9255862196039791e-01
7401:-2.0511660090492947e-01
7402:-2.2022477951723676e-01
7403:-2.3081563648311157e-01
7404:-1.8542113520255790e-01
7405:-1.9760633932578991e-01
7406:-2.1230573229661481e-01
7407:-2.2264400476332111e-01
7408:-2.5662226885701550e-01
7409:-2.6623379268256675e-01
7410:-2.7720986253293434e-01
7411:-2.8442587535327829e-01
7412:-2.4746553157635243e-01
7413:-2.5690817921800924e-01
7414:-2.6774845283882465e-01
7415:-2.7492676813558015e-01
7416:-2.3610409113646519e-01
7417:-2.4532554781990215e-01
7418:-2.5597715831128992e-01
7419:-2.6308796029530473e-01
7420:-2.2781956547389190e-01
7421:-2.3686655213362842e-01
7422:-2.4736222103890460e-01
7423:-2.5440762439254350e-01
7424:-2.8784822415851641e-01
7425:-2.9348578053658131e-01
7426:-2.9932330124966339e-01
7427:-3.0265209064780557e-01
7428:-2.7835283288698026e-01
7429:-2.8403790635527087e-01
7430:-2.9001148227556806e-01
7431:-2.9349701098368602e-01
7432:-2.6650536712408207e-01
7433:-2.7222211793481516e-01
7434:-2.7832656745172601e-01
7435:-2.8197748730292144e-01
7436:-2.5780903214013801e-01
7437:-2.6352923167196984e-01
7438:-2.6970227995175694e-01
7439:-2.7345377055626641e-01
7440:-3.0402761801108524e-01
7441:-3.0590748298618575e-01
7442:-3.0701321084076616e-01
7443:-3.0684718599740929e-01
7444:-2.9497304044615091e-01
7445:-2.9706693596193778e-01
7446:-2.9850273325352988e-01
7447:-2.9863058098126027e-01
7448:-2.8356338639798817e-01
7449:-2.8589853464208742e-01
7450:-2.8771668210908252e-01
7451:-2.8818917667751470e-01
7452:-2.7510977503124140e-01
7453:-2.7760387863887059e-01
7454:-2.7968009880248584e-01
7455:-2.8038698369584286e-01
7456:-3.0640881848908225e-01
7457:-3.0500498565825479e-01
7458:-3.0207574403115017e-01
7459:-2.9901563843624374e-01
7460:-2.9836359058999840e-01
7461:-2.9730277294790630e-01
7462:-2.9485536665456491e-01
7463:-2.9218484863202310e-01
7464:-2.8812355076102358e-01
7465:-2.8746350078320304e-01
7466:-2.8557748860482302e-01
7467:-2.8336268600852227e-01
7468:-2.8045816414979302e-01
7469:-2.8006954891755820e-01
7470:-2.7856482076452543e-01
7471:-2.7666280524743730e-01
7472:-2.9710774986408645e-01
7473:-2.9308644737238676e-01
7474:-2.8701158164304830e-01
7475:-2.8174158476616151e-01
7476:-2.9048963306607206e-01
7477:-2.8687022234389625e-01
7478:-2.8132690468686561e-01
7479:-2.7647246435819234e-01
7480:-2.8191789501643372e-01
7481:-2.7877777484710747e-01
7482:-2.7387754520106511e-01
7483:-2.6952978043395381e-01
7484:-2.7539178269281961e-01
7485:-2.7258817550873332e-01
7486:-2.6814439225138215e-01
7487:-2.6415743343931836e-01
7488:-2.7872616527521510e-01
7489:-2.7276603315834125e-01
7490:-2.6443720682629868e-01
7491:-2.5765120152992410e-01
7492:-2.7368192137558706e-01
7493:-2.6814531219919130e-01
7494:-2.6036667032315486e-01
7495:-2.5399645694592154e-01
7496:-2.6701371653662065e-01
7497:-2.6199167220911573e-01
7498:-2.5487897596847220e-01
7499:-2.4901256009617004e-01
7500:-2.6183646813105460e-01
7501:-2.5717904574958128e-01
7502:-2.5053818179752990e-01
7503:-2.4503069890575124e-01
7504:-2.5390223609234314e-01
7505:-2.4669116540288447e-01
7506:-2.3696649724102831e-01
7507:-2.2928501516513611e-01
7508:-2.5046558062751545e-01
7509:-2.4365350608869293e-01
7510:-2.3443093854474817e-01
7511:-2.2712221752178544e-01
7512:-2.4574698046143101e-01
7513:-2.3942458811746362e-01
7514:-2.3082511031134656e-01
7515:-2.2398232482790117e-01
7516:-2.4195546367555065e-01
7517:-2.3598718211664052e-01
7518:-2.2784198996634086e-01
7519:-2.2134012212408111e-01
7520:-2.2511846484279832e-01
7521:-2.1723072807658594e-01
7522:-2.0682922115842650e-01
7523:-1.9878403680896470e-01
7524:-2.2315053071247345e-01
7525:-2.1561909205455485e-01
7526:-2.0566159664451944e-01
7527:-1.9793891123094282e-01
7528:-2.2025469333063430e-01
7529:-2.1316839679387628e-01
7530:-2.0376462410404012e-01
7531:-1.9644476786675258e-01
7532:-2.1779098445034370e-01
7533:-2.1102983431161459e-01
7534:-2.0203092794355873e-01
7535:-1.9500710038699606e-01
7536:-1.9447690801010523e-01
7537:-1.8640813025611688e-01
7538:-1.7592386607299451e-01
7539:-1.6792769890613243e-01
7540:-1.9379673519221841e-01
7541:-1.8602357759812185e-01
7542:-1.7589916216722332e-01
7543:-1.6816045596991180e-01
7544:-1.9250937609252136e-01
7545:-1.8510954203966309e-01
7546:-1.7544413003274567e-01
7547:-1.6803638030599913e-01
7548:-1.9122457259402770e-01
7549:-1.8410248391895229e-01
7550:-1.7478112497461426e-01
7551:-1.6762259248613517e-01
7552:-1.6368462455780000e-01
7553:-1.5579883648325329e-01
7554:-1.4567206703906185e-01
7555:-1.3803815033702072e-01
7556:-1.6404849722233908e-01
7557:-1.5639707572250380e-01
7558:-1.4655255397662131e-01
7559:-1.3911643176004806e-01
7560:-1.6409351113111251e-01
7561:-1.5674421875857367e-01
7562:-1.4726386615937853e-01
7563:-1.4008391251735794e-01
7564:-1.6380719554949627e-01
7565:-1.5668579487816631e-01
7566:-1.4748097204686753e-01
7567:-1.4049607901531283e-01
7568:-1.3401789837001785e-01
7569:-1.2659283991629613e-01
7570:-1.1714499616394432e-01
7571:-1.1008809411386281e-01
7572:-1.3519489241060681e-01
7573:-1.2794303220074649e-01
7574:-1.1869870382100260e-01
7575:-1.1178153528160144e-01
7576:-1.3629083219402915e-01
7577:-1.2926612074475624e-01
7578:-1.2029181978106035e-01
7579:-1.1356207838230430e-01
7580:-1.3680145094508428e-01
7581:-1.2995198633220081e-01
7582:-1.2118788080404146e-01
7583:-1.1460513583660330e-01
7584:-1.0639418871993948e-01
7585:-9.9609901045244129e-02
7586:-9.1050742655764641e-02
7587:-8.4713722924037158e-02
7588:-1.0815664971225428e-01
7589:-1.0149233621730984e-01
7590:-9.3071132438186682e-02
7591:-8.6825647309087539e-02
7592:-1.1003034743331365e-01
7593:-1.0352846140418216e-01
7594:-9.5295279625064289e-02
7595:-8.9175922013740611e-02
7596:-1.1114674861690736e-01
7597:-1.0477319511318661e-01
7598:-9.6689732759912619e-02
7599:-9.0672024517968172e-02
7600:-8.1416273443219889e-02
7601:-7.5391752843817675e-02
7602:-6.7851919986826478e-02
7603:-6.2316372470000825e-02
7604:-8.3572000891358453e-02
7605:-7.7621275074737692e-02
7606:-7.0162044237687016e-02
7607:-6.4676832516951541e-02
7608:-8.5983285427793418e-02
7609:-8.0136790589458079e-02
7610:-7.2794223543796069e-02
7611:-6.7384099870615763e-02
7612:-8.7529102567459521e-02
7613:-8.1768496285187134e-02
7614:-7.4523827173362492e-02
7615:-6.9178050553492867e-02
7616:-5.9452581558010996e-02
7617:-5.4249562677543973e-02
7618:-4.7795245573225856e-02
7619:-4.3101593891876490e-02
7620:-6.1836020187855514e-02
7621:-5.6669718957079493e-02
7622:-5.0251048566694011e-02
7623:-4.5575468398611145e-02
7624:-6.4578402518776862e-02
7625:-5.9469559244500869e-02
7626:-5.3109759247530045e-02
7627:-4.8467261003111960e-02
7628:-6.6402929661711962e-02
7629:-6.1345001249598949e-02
7630:-5.5039380776138680e-02
7631:-5.0429329114014480e-02
7632:-4.0689543448925558e-02
7633:-3.6335403671399098e-02
7634:-3.0989717705123255e-02
7635:-2.7146295145706229e-02
7636:-4.3169852364577627e-02
7637:-3.8822572666728797e-02
7638:-3.3476079143939991e-02
7639:-2.9624856047569526e-02
7640:-4.6075149532861730e-02
7641:-4.1746539207932296e-02
7642:-3.6411823808818980e-02
7643:-3.2560269525149503e-02
7644:-4.8051420574122379e-02
7645:-4.3744425023613975e-02
7646:-3.8428318204578531e-02
7647:-3.4583811369674616e-02
7648:-2.5187277111654732e-02
7649:-2.1680324800347262e-02
7650:-1.7433637820398487e-02
7651:-1.4427645892888525e-02
7652:-2.7659252010457967e-02
7653:-2.4135953861698554e-02
7654:-1.9860322407028806e-02
7655:-1.6826400876650990e-02
7656:-3.0591286661743183e-02
7657:-2.7056265459734004e-02
7658:-2.2755069225620466e-02
7659:-1.9693845564993578e-02
7660:-3.2616089726310485e-02
7661:-2.9079205893302651e-02
7662:-2.4767535776008483e-02
7663:-2.1692275751468676e-02
7664:-1.2912998080663284e-02
7665:-1.0233519200554687e-02
7666:-7.0534010428810155e-03
7667:-4.8549267483576622e-03
7668:-1.5294881985478868e-02
7669:-1.2580436175313245e-02
7670:-9.3484037136801010e-03
7671:-7.1054256726451178e-03
7672:-1.8145123173079907e-02
7673:-1.5393994888176532e-02
7674:-1.2105698989898410e-02
7675:-9.8132668472517247e-03
7676:-2.0134011935325335e-02
7677:-1.7361541555443841e-02
7678:-1.4038801455420470e-02
7679:-1.1714971206863135e-02
7680:-3.7669670203449700e-03
7681:-1.8789881833082918e-03
7682:2.8688803569252414e-04
7683:1.7220898324520105e-03
7684:-5.9921209851453439e-03
7685:-4.0537256482627284e-03
7686:-1.8165082536360326e-03
7687:-3.2236978026544224e-04
7688:-8.6714087751221247e-03
7689:-6.6755565706170831e-03
7690:-4.3558488280102800e-03
7691:-2.7927486288777800e-03
7692:-1.0554637247808718e-02
7693:-8.5210489800519301e-03
7694:-6.1461753194496311e-03
7695:-4.5362889433752437e-03
7696:2.4084314019442599e-03
7697:3.5551763970990882e-03
7698:4.7789404989350805e-03
7699:5.5113013053987078e-03
7700:3.9688607404506516e-04
7701:1.6082084120804942e-03
7702:2.9217651454049184e-03
7703:3.7272104198497460e-03
7704:-2.0347225910603999e-03
7705:-7.4693820874063236e-04
7706:6.7366515541402762e-04
7707:1.5667613721411294e-03
7708:-3.7517511083961920e-03
7709:-2.4113505150392769e-03
7710:-9.1647704577952152e-04
7711:3.7865425009886650e-05
7712:5.8301240827750636e-03
7713:6.3038212814781171e-03
7714:6.6830791648373120e-03
7715:6.7942961285315032e-03
7716:4.0865075123898585e-03
7717:4.6392253685916800e-03
7718:5.1277344599830908e-03
7719:5.3274829828024086e-03
7720:1.9747711689607154e-03
7721:2.6228492858984438e-03
7722:3.2436491625286471e-03
7723:3.5509039595842877e-03
7724:4.8005396919901291e-04
7725:1.1952408155587347e-03
7726:1.9094870891414725e-03
7727:2.2929156501764543e-03
7728:6.7917080112585198e-03
7729:6.6847460186824298e-03
7730:6.3521600427685621e-03
7731:5.9535874649919640e-03
7732:5.3738192209078824e-03
7733:5.3623530571406649e-03
7734:5.1618105061950227e-03
7735:4.8702726625369300e-03
7736:3.6567416868710958e-03
7737:3.7614894947628477e-03
7738:3.7217362496327244e-03
7739:3.5605870371872238e-03
7740:2.4409829725923920e-03
7741:2.6282642619249300e-03
7742:2.7027720478460826e-03
7743:2.6343161393414783e-03
7744:5.6925870439317912e-03
7745:5.1322541399035611e-03
7746:4.2727656431905325e-03
7747:3.5212075941154540e-03
7748:4.6684489997408721e-03
7749:4.2238447885212518e-03
7750:3.5248630768951088e-03
7751:2.9037978842292398e-03
7752:3.4308580795743837e-03
7753:3.1271447201933161e-03
7754:2.6233260824577035e-03
7755:2.1607272616419640e-03
7756:2.5558418144164424e-03
7757:2.3522020720520556e-03
7758:1.9867923595066339e-03
7759:1.6364001950949767e-03
7760:3.0908896977287384e-03
7761:2.2553264166177015e-03
7762:1.1236065078417399e-03
7763:2.3193690074962823e-04
7764:2.5457694249683299e-03
7765:1.8519219540121495e-03
7766:9.1743385728751967e-04
7767:1.8662619578151495e-04
7768:1.8904021828953647e-03
7769:1.3682064467391403e-03
7770:6.7202363190153088e-04
7771:1.3512109898487556e-04
7772:1.4281044874694096e-03
7773:1.0270742321785381e-03
7774:4.9860980369301167e-04
7775:9.7792750246844252e-05
7776:-4.5485310907312747e-03
7777:-2.1594433608616129e-02
7778:-4.3634871269998508e-02
7779:-6.0348592867991005e-02
7780:-4.3748730620174281e-03
7781:-2.0754133371811281e-02
7782:-4.1947461039949847e-02
7783:-5.8025049217803298e-02
7784:-4.1500452943907347e-03
7785:-1.9717965853879374e-02
7786:-3.9864424384828456e-02
7787:-5.5148210961761486e-02
7788:-3.9848413385536376e-03
7789:-1.8965762564952200e-02
7790:-3.8348179081939431e-02
7791:-5.3051399248724977e-02
7792:-6.9177324406292276e-02
7793:-8.5464708341203677e-02
7794:-1.0611217421975190e-01
7795:-1.2144877383622725e-01
7796:-6.6518452707227935e-02
7797:-8.2188951358633466e-02
7798:-1.0206323336242704e-01
7799:-1.1683729488167849e-01
7800:-6.3222220729822157e-02
7801:-7.8125920597285223e-02
7802:-9.7046020083537660e-02
7803:-1.1112788821776778e-01
7804:-6.0819466985889983e-02
7805:-7.5166531340087592e-02
7806:-9.3396577073799655e-02
7807:-1.0697713932780074e-01
7808:-1.2943517430732618e-01
7809:-1.4396430033752061e-01
7810:-1.6198414704901062e-01
7811:-1.7506010853845402e-01
7812:-1.2453661452887453e-01
7813:-1.3855734519494800e-01
7814:-1.5597304189735828e-01
7815:-1.6862999414322455e-01
7816:-1.1847354527441305e-01
7817:-1.3186439694745242e-01
7818:-1.4852614775019291e-01
7819:-1.6065792964115427e-01
7820:-1.1406552350836337e-01
7821:-1.2699523162221651e-01
7822:-1.4310086342366032e-01
7823:-1.5484365080218995e-01
7824:-1.8175868203503379e-01
7825:-1.9374840889613262e-01
7826:-2.0823066789340983e-01
7827:-2.1843276024485309e-01
7828:-1.7512067788267599e-01
7829:-1.8675257526015551e-01
7830:-2.0083381883030121e-01
7831:-2.1078071383838759e-01
7832:-1.6688778912869109e-01
7833:-1.7806927023560415e-01
7834:-1.9164092550625120e-01
7835:-2.0125792855927593e-01
7836:-1.6088021324953522e-01
7837:-1.7172747265287178e-01
7838:-1.8491889899993744e-01
7839:-1.9428686825794969e-01
7840:-2.2354676005117763e-01
7841:-2.3249783060168799e-01
7842:-2.4290567607461050e-01
7843:-2.4991155555756317e-01
7844:-2.1577768840787723e-01
7845:-2.2454445246960922e-01
7846:-2.3477954579399954e-01
7847:-2.4170362131623582e-01
7848:-2.0610095077140825e-01
7849:-2.1462139896471383e-01
7850:-2.2461781599477509e-01
7851:-2.3142129329775082e-01
7852:-1.9901217797422979e-01
7853:-2.0734142868589334e-01
7854:-2.1714663807444459e-01
7855:-2.2384790409520022e-01
7856:-2.5330145745312899e-01
7857:-2.5901694256277530e-01
7858:-2.6521665625322144e-01
7859:-2.6901363619864987e-01
7860:-2.4506736907034724e-01
7861:-2.5076427309674626e-01
7862:-2.5699889902180945e-01
7863:-2.6086772579529183e-01
7864:-2.3474240339423474e-01
7865:-2.4039684499503652e-01
7866:-2.4664844372828260e-01
7867:-2.5058509152086644e-01
7868:-2.2713006317070181e-01
7869:-2.3273842281698290e-01
7870:-2.3898165512756120e-01
7871:-2.4295080098749255e-01
7872:-2.7070264266423538e-01
7873:-2.7327311582898278e-01
7874:-2.7547494473455791e-01
7875:-2.7629616004240548e-01
7876:-2.6261074206921459e-01
7877:-2.6530811719134695e-01
7878:-2.6772175658227604e-01
7879:-2.6873784172264975e-01
7880:-2.5238323069075791e-01
7881:-2.5521456540353965e-01
7882:-2.5785934119821546e-01
7883:-2.5909341964683141e-01
7884:-2.4477964523394044e-01
7885:-2.4769023997121759e-01
7886:-2.5047945769530339e-01
7887:-2.5185499200098954e-01
7888:-2.7643393901104896e-01
7889:-2.7617754943310607e-01
7890:-2.7485975523782735e-01
7891:-2.7311282604289888e-01
7892:-2.6898987240879985e-01
7893:-2.6896244095878324e-01
7894:-2.6797194752799719e-01
7895:-2.6649862818830344e-01
7896:-2.5947516380883251e-01
7897:-2.5971190443653830e-01
7898:-2.5910543651909718e-01
7899:-2.5795612339195578e-01
7900:-2.5232266810074533e-01
7901:-2.5273746343257525e-01
7902:-2.5239398327698398e-01
7903:-2.5146814284400365e-01
7904:-2.7192877548245942e-01
7905:-2.6929463108312035e-01
7906:-2.6508166590230825e-01
7907:-2.6127703603869840e-01
7908:-2.6546848173868476e-01
7909:-2.6313387412098438e-01
7910:-2.5932853041171983e-01
7911:-2.5584609310189255e-01
7912:-2.5710866627184759e-01
7913:-2.5512894987307788e-01
7914:-2.5180656834811482e-01
7915:-2.4870731271106619e-01
7916:-2.5074680486500872e-01
7917:-2.4901197900177030e-01
7918:-2.4602392829265826e-01
7919:-2.4319192733955650e-01
7920:-2.5905439420779813e-01
7921:-2.5458064093334060e-01
7922:-2.4817811171153345e-01
7923:-2.4285312227025690e-01
7924:-2.5379747254899537e-01
7925:-2.4965044057117847e-01
7926:-2.4367482979432320e-01
7927:-2.3867851606026488e-01
7928:-2.4686665511327727e-01
7929:-2.4311328365661497e-01
7930:-2.3765712168185471e-01
7931:-2.3306320023470223e-01
7932:-2.4149737563876528e-01
7933:-2.3802271928055360e-01
7934:-2.3293728018957996e-01
7935:-2.2863162871865444e-01
7936:-2.3987526575525381e-01
7937:-2.3408886474614565e-01
7938:-2.2617773129478902e-01
7939:-2.1985152721027051e-01
7940:-2.3587646338172785e-01
7941:-2.3041811408106272e-01
7942:-2.2292872706166639e-01
7943:-2.1691909643821333e-01
7944:-2.3047676649602145e-01
7945:-2.2542017329238878e-01
7946:-2.1844703578041075e-01
7947:-2.1282578022392923e-01
7948:-2.2619969303820531e-01
7949:-2.2143082584166782e-01
7950:-2.1482804943376943e-01
7951:-2.0948678239443752e-01
7952:-2.1639422185338808e-01
7953:-2.0980039887193908e-01
7954:-2.0101041767182465e-01
7955:-1.9414018291624990e-01
7956:-2.1362746351012529e-01
7957:-2.0733670514922703e-01
7958:-1.9892734013285440e-01
7959:-1.9233833488105717e-01
7960:-2.0973808071634892e-01
7961:-2.0382266679527652e-01
7962:-1.9588847766634737e-01
7963:-1.8965264887535319e-01
7964:-2.0654685989155422e-01
7965:-2.0090494711747026e-01
7966:-1.9331921715069716e-01
7967:-1.8734338242876220e-01
7968:-1.9043736965111113e-01
7969:-1.8346059063733025e-01
7970:-1.7431979552855412e-01
7971:-1.6729221367658095e-01
7972:-1.8878185457615240e-01
7973:-1.8207178064228802e-01
7974:-1.7326239911240690e-01
7975:-1.6647538631397940e-01
7976:-1.8628037398791991e-01
7977:-1.7990596840797862e-01
7978:-1.7151405240260434e-01
7979:-1.6503095407991436e-01
7980:-1.8410684953177595e-01
7981:-1.7797993693208297e-01
7982:-1.6989660657457473e-01
7983:-1.6363925932756754e-01
7984:-1.6354377849637788e-01
7985:-1.5654222984970309e-01
7986:-1.4748282616869565e-01
7987:-1.4060147319171892e-01
7988:-1.6285013937957718e-01
7989:-1.5606989837766741e-01
7990:-1.4728056111162308e-01
7991:-1.4059255833763776e-01
7992:-1.6156186864284772e-01
7993:-1.5506372316821335e-01
7994:-1.4662132651242960e-01
7995:-1.4018337860748142e-01
7996:-1.6028672250677675e-01
7997:-1.5400015427461813e-01
7998:-1.4581961879474753e-01
7999:-1.3957132600066713e-01
8000:-1.3695936934217687e-01
8001:-1.3020372633820429e-01
8002:-1.2155262975908759e-01
8003:-1.1504916928134445e-01
8004:-1.3704885193213628e-01
8005:-1.3046913343137173e-01
8006:-1.2203029339161875e-01
8007:-1.1567614109331764e-01
8008:-1.3676736926151892e-01
8009:-1.3041628241161662e-01
8010:-1.2225415342916451e-01
8011:-1.1609563528627888e-01
8012:-1.3625238709434212e-01
8013:-1.3007543096029164e-01
8014:-1.2212495739957770e-01
8015:-1.1611703678354980e-01
8016:-1.1163040135814180e-01
8017:-1.0532636309396050e-01
8018:-9.7324488824856836e-02
8019:-9.1362650337874843e-02
8020:-1.1233217843904528e-01
8021:-1.0615998639713932e-01
8022:-9.8314010310242075e-02
8023:-9.2459782747752600e-02
8024:-1.1285016030587348e-01
8025:-1.0685266948884052e-01
8026:-9.9215308510592529e-02
8027:-9.3506514411776070e-02
8028:-1.1294780246853489e-01
8029:-1.0708630950346741e-01
8030:-9.9612664441712004e-02
8031:-9.4018886146561204e-02
8032:-8.8247254027842739e-02
8033:-8.2534484183494988e-02
8034:-7.5344840639121419e-02
8035:-7.0035602127834662e-02
8036:-8.9397689534125649e-02
8037:-8.3777866503464832e-02
8038:-7.6695785265297134e-02
8039:-7.1458566215919561e-02
8040:-9.0516916868162114e-02
8041:-8.5024094116352020e-02
8042:-7.8090266779602402e-02
8043:-7.2953517071763396e-02
8044:-9.1086896199929379e-02
8045:-8.5695453819044545e-02
8046:-7.8881009100099472e-02
8047:-7.3826120391567648e-02
8048:-6.7277976704039941e-02
8049:-6.2249464105500467e-02
8050:-5.5975784230404085e-02
8051:-5.1385466929166380e-02
8052:-6.8735682359233885e-02
8053:-6.3766158164578007e-02
8054:-5.7557712918908169e-02
8055:-5.3008704208506230e-02
8056:-7.0279615232008347e-02
8057:-6.5394301221904386e-02
8058:-5.9281057348277634e-02
8059:-5.4794034742315575e-02
8060:-7.1192526746701290e-02
8061:-6.6377211023288557e-02
8062:-6.0344450857034201e-02
8063:-5.5910906389835736e-02
8064:-4.9016466041406234e-02
8065:-4.4723518901614585e-02
8066:-3.9420625386386868e-02
8067:-3.5582372767421648e-02
8068:-5.0658752210650908e-02
8069:-4.6396533902769058e-02
8070:-4.1124099974146115e-02
8071:-3.7301911480851116e-02
8072:-5.2473328544869219e-02
8073:-4.8259445499300321e-02
8074:-4.3037519247563299e-02
8075:-3.9244585687041249e-02
8076:-5.3615838969089565e-02
8077:-4.9445082324700212e-02
8078:-4.4269883866059505e-02
8079:-4.0505607440886937e-02
8080:-3.3616637938196289e-02
8081:-3.0081205705458056e-02
8082:-2.5767110609285201e-02
8083:-2.2686774054064933e-02
8084:-3.5342211585162618e-02
8085:-3.1813858809979223e-02
8086:-2.7500930699409596e-02
8087:-2.4415454701123062e-02
8088:-3.7297207111251500e-02
8089:-3.3786494502200205e-02
8090:-2.9486112497479563e-02
8091:-2.6402374084071405e-02
8092:-3.8571033337442204e-02
8093:-3.5080184280898007e-02
8094:-3.0797716384820362e-02
8095:-2.7721647349490279e-02
8096:-2.1124702531377111e-02
8097:-1.8343231047505636e-02
8098:-1.5005171489552556e-02
8099:-1.2666883116832200e-02
8100:-2.2848568695353139e-02
8101:-2.0054527727156133e-02
8102:-1.6693255050855536e-02
8103:-1.4332003416173885e-02
8104:-2.4833686153435817e-02
8105:-2.2031565088552862e-02
8106:-1.8650699132009872e-02
8107:-1.6267574371152935e-02
8108:-2.6154935613169894e-02
8109:-2.3352872119774826e-02
8110:-1.9965058984836255e-02
8111:-1.7571301329958981e-02
8112:-1.1497894802874066e-02
8113:-9.4464063531084184e-03
8114:-7.0449742598094750e-03
8115:-5.4123043334604352e-03
8116:-1.3148972897751214e-02
8117:-1.1068000027010912e-02
8118:-8.6220506419490781e-03
8119:-6.9506719752210804e-03
8120:-1.5070500404107531e-02
8121:-1.2959055369905832e-02
8122:-1.0465390240355322e-02
8123:-8.7513900774870371e-03
8124:-1.6366716261503204e-02
8125:-1.4237996694987966e-02
8126:-1.1715640608229353e-02
8127:-9.9749635605027708e-03
8128:-4.6147757425823383e-03
8129:-3.2484636381051230e-03
8130:-1.7167773146800757e-03
8131:-7.3190976671462038e-04
8132:-6.1309092883797102e-03
8133:-4.7199837115836961e-03
8134:-3.1244371594865120e-03
8135:-2.0862884747254577e-03
8136:-7.9067945309473676e-03
8137:-6.4454834388957809e-03
8138:-4.7768206353539623e-03
8139:-3.6769908390616307e-03
8140:-9.1145085370560319e-03
8141:-7.6205324810964693e-03
8142:-5.9036134869534162e-03
8143:-4.7625003541458205e-03
8144:-2.7263274708178112e-04
8145:4.7618033758118001e-04
8146:1.2373768826051186e-03
8147:1.6591625558931892e-03
8148:-1.5970807735347205e-03
8149:-7.8923305617652575e-04
8150:5.4631477807854899e-05
8151:5.4412083398311384e-04
8152:-3.1529230137561956e-03
8153:-2.2760322616325974e-03
8154:-1.3349830826801822e-03
8155:-7.6555614624830852e-04
8156:-4.2149236940738528e-03
8157:-3.2912291790201647e-03
8158:-2.2838736142911922e-03
8159:-1.6596163218348561e-03
8160:1.8285196951659175e-03
8161:2.0574288269377839e-03
8162:2.1895914410557812e-03
8163:2.1679192053767463e-03
8164:7.5110694515495666e-04
8165:1.0536316830483483e-03
8166:1.2878030175570228e-03
8167:1.3489282422615857e-03
8168:-5.1403677042675380e-04
8169:-1.2431018436211182e-04
8170:2.3079282327738806e-04
8171:3.9011601720405505e-04
8172:-1.3774630697596583e-03
8173:-9.2768924058731655e-04
8174:-4.8924027146632115e-04
8175:-2.6221093364040660e-04
8176:2.1153140527186776e-03
8177:1.9621463191022135e-03
8178:1.6664564593710616e-03
8179:1.3725141681415903e-03
8180:1.3421060166693647e-03
8181:1.2781869762502288e-03
8182:1.1056033985862572e-03
8183:9.1118895684779561e-04
8184:4.3758968873118938e-04
8185:4.7935124024813284e-04
8186:4.5215898340334967e-04
8187:3.7497478985505601e-04
8188:-1.7730555961205079e-04
8189:-6.2829835046139093e-05
8190:9.6850602170232263e-06
8191:1.2622922900132348e-05
8192:1.1953961393298704e-03
8193:8.5517394373120991e-04
8194:4.1068629391381614e-04
8195:7.7856945968668274e-05
8196:7.8898180296686825e-04
8197:5.5566686848332997e-04
8198:2.5842671639934899e-04
8199:4.4506512437724446e-05
8200:3.1731910466271257e-04
8201:2.0927762860020228e-04
8202:8.3744458756548771e-05
8203:7.8403564203827685e-06
8204:-1.0238218888505429e-06
8205:-2.4008025191450042e-05
8206:-3.3684352227229328e-05
8207:-1.7026968564757707e-05
8208:-3.9010191004624716e-03
8209:-1.8578474425729165e-02
8210:-3.7565557322276164e-02
8211:-5.1969381948303098e-02
8212:-3.7517148757797722e-03
8213:-1.7874854913031531e-02
8214:-3.6143576590581074e-02
8215:-5.0005377383968139e-02
8216:-3.5697309274755626e-03
8217:-1.6999984473533906e-02
8218:-3.4376581618234966e-02
8219:-4.7567263435546299e-02
8220:-3.4375993476549222e-03
8221:-1.6360715592140827e-02
8222:-3.3086751313293632e-02
8223:-4.5787902577660924e-02
8224:-5.9580368205112158e-02
8225:-7.3642194278240564e-02
8226:-9.1518583460388464e-02
8227:-1.0484126612102139e-01
8228:-5.7332318895749065e-02
8229:-7.0876679010220850e-02
8230:-8.8108403528167442e-02
8231:-1.0095926718085503e-01
8232:-5.4542331723639752e-02
8233:-6.7442248761238624e-02
8234:-8.3865825410977535e-02
8235:-9.6122989786877694e-02
8236:-5.2505614049217893e-02
8237:-6.4931965571334085e-02
8238:-8.0758808189392531e-02
8239:-9.2576906227461675e-02
8240:-1.1179668881309704e-01
8241:-1.2448708339151987e-01
8242:-1.4030277883509604e-01
8243:-1.5184223009966394e-01
8244:-1.0767104097423828e-01
8245:-1.1992296909203631e-01
8246:-1.3520707658307468e-01
8247:-1.4637279640060522e-01
8248:-1.0252800031296801e-01
8249:-1.1422846165566365e-01
8250:-1.2884358757058559e-01
8251:-1.3953706579734390e-01
8252:-9.8755280101600493e-02
8253:-1.1004880539977972e-01
8254:-1.2416988083573899e-01
8255:-1.3451301044129788e-01
8256:-1.5777771827616457e-01
8257:-1.6845022396106368e-01
8258:-1.8144251232022335e-01
8259:-1.9067944508516041e-01
8260:-1.5212197399689042e-01
8261:-1.6247134710379851e-01
8262:-1.7509367841229984e-01
8263:-1.8408600294549735e-01
8264:-1.4504961317951470e-01
8265:-1.5498615907602714e-01
8266:-1.6713171801545926e-01
8267:-1.7580611033386925e-01
8268:-1.3984901506699246e-01
8269:-1.4947550373697135e-01
8270:-1.6125941112403719e-01
8271:-1.6969024885796979e-01
8272:-1.9534245813406800e-01
8273:-2.0356954212871042e-01
8274:-2.1327049428255368e-01
8275:-2.1991410676539450e-01
8276:-1.8863232013847717e-01
8277:-1.9666670543874581e-01
8278:-2.0616794511346487e-01
8279:-2.1269810787706034e-01
8280:-1.8019987614731262e-01
8281:-1.8798002775862943e-01
8282:-1.9721238171534330e-01
8283:-2.0358452753480050e-01
8284:-1.7396637833601361e-01
8285:-1.8154885223236045e-01
8286:-1.9056844639629603e-01
8287:-1.9681202353566773e-01
8288:-2.2317338078534441e-01
8289:-2.2875255663186256e-01
8290:-2.3498399886591542e-01
8291:-2.3896377399188937e-01
8292:-2.1591089336510544e-01
8293:-2.2142762026757104e-01
8294:-2.2762504738947667e-01
8295:-2.3161431236697633e-01
8296:-2.0673005599180372e-01
8297:-2.1215105219844838e-01
8298:-2.1828219147261624e-01
8299:-2.2226472495273633e-01
8300:-1.9990119724489822e-01
8301:-2.0523849916261330e-01
8302:-2.1130303891925306e-01
8303:-2.1526669133690976e-01
8304:-2.4080502547119309e-01
8305:-2.4374996054429388e-01
8306:-2.4660534128494527e-01
8307:-2.4804793207290721e-01
8308:-2.3347284692820100e-01
8309:-2.3647056085300786e-01
8310:-2.3943402720810336e-01
8311:-2.4098934356041965e-01
8312:-2.2413489958810057e-01
8313:-2.2718020998240968e-01
8314:-2.3025505279116917e-01
8315:-2.3193284121705024e-01
8316:-2.1713796829848847e-01
8317:-2.2020439783888671e-01
8318:-2.2334291424357994e-01
8319:-2.2509635643698955e-01
8320:-2.4855705269115147e-01
8321:-2.4905869681080153e-01
8322:-2.4884469856728678e-01
8323:-2.4802926053791230e-01
8324:-2.4156891944039263e-01
8325:-2.4221903642274498e-01
8326:-2.4222793511614291e-01
8327:-2.4160375073483595e-01
8328:-2.3259043024112400e-01
8329:-2.3340666300050258e-01
8330:-2.3366843382713792e-01
8331:-2.3326413788582359e-01
8332:-2.2580338106486497e-01
8333:-2.2672654503598058e-01
8334:-2.2715447964229865e-01
8335:-2.2689742852551339e-01
8336:-2.4737022702950712e-01
8337:-2.4575652682718085e-01
8338:-2.4293460794381733e-01
8339:-2.4023638651112883e-01
8340:-2.4105311121821441e-01
8341:-2.3965140432880999e-01
8342:-2.3712246024231712e-01
8343:-2.3466151244794467e-01
8344:-2.3283925872575501e-01
8345:-2.3168603435511467e-01
8346:-2.2950451904048103e-01
8347:-2.2732708911664007e-01
8348:-2.2655779069962079e-01
8349:-2.2557483576178380e-01
8350:-2.2363413145850625e-01
8351:-2.2165452679271364e-01
8352:-2.3861541575655312e-01
8353:-2.3528172626879837e-01
8354:-2.3038448478891493e-01
8355:-2.2622531604956164e-01
8356:-2.3317139192898159e-01
8357:-2.3008844430035100e-01
8358:-2.2552618969160013e-01
8359:-2.2162814941953457e-01
8360:-2.2599377084146932e-01
8361:-2.2321140869839151e-01
8362:-2.1905152622221138e-01
8363:-2.1546839216834709e-01
8364:-2.2043085443146773e-01
8365:-2.1785896608414651e-01
8366:-2.1398195435787334e-01
8367:-2.1062159040375378e-01
8368:-2.2387183528885174e-01
8369:-2.1924916517014145e-01
8370:-2.1283510472344455e-01
8371:-2.0763720181476419e-01
8372:-2.1941475917195269e-01
8373:-2.1505409868372588e-01
8374:-2.0897999406374834e-01
8375:-2.0404146593393663e-01
8376:-2.1342461062473608e-01
8377:-2.0938302806565479e-01
8378:-2.0372600783202527e-01
8379:-1.9910743121160995e-01
8380:-2.0869844421510697e-01
8381:-2.0488509137677460e-01
8382:-1.9952834885963844e-01
8383:-1.9514108277642658e-01
8384:-2.0477327077141835e-01
8385:-1.9927242273127738e-01
8386:-1.9186694935143692e-01
8387:-1.8602578289358640e-01
8388:-2.0131531978404016e-01
8389:-1.9607031379419387e-01
8390:-1.8899196893872464e-01
8391:-1.8339551305983939e-01
8392:-1.9655164068735628e-01
8393:-1.9162309893997517e-01
8394:-1.8495005454890076e-01
8395:-1.7965774351694389e-01
8396:-1.9270863265024527e-01
8397:-1.8800946931234794e-01
8398:-1.8163107693641789e-01
8399:-1.7656092602669010e-01
8400:-1.8285955950562560e-01
8401:-1.7686097146784585e-01
8402:-1.6893810379350388e-01
8403:-1.6279866412645622e-01
8404:-1.8035723348988664e-01
8405:-1.7459287711060173e-01
8406:-1.6696424283025038e-01
8407:-1.6104190879539385e-01
8408:-1.7677898585905635e-01
8409:-1.7130804634460850e-01
8410:-1.6405036767851902e-01
8411:-1.5840321096574994e-01
8412:-1.7379917747400686e-01
8413:-1.6854440349637839e-01
8414:-1.6156153139181559e-01
8415:-1.5611908624940429e-01
8416:-1.5950722806634349e-01
8417:-1.5333188045167784e-01
8418:-1.4528943268900868e-01
8419:-1.3914136936782628e-01
8420:-1.5786324382595396e-01
8421:-1.5189333900643967e-01
8422:-1.4410632289821590e-01
8423:-1.3814403383099702e-01
8424:-1.5536786885649576e-01
8425:-1.4965940202320641e-01
8426:-1.4219829594492805e-01
8427:-1.3647396055632058e-01
8428:-1.5319057604123262e-01
8429:-1.4767732267158731e-01
8430:-1.4046044815748210e-01
8431:-1.3491531583200062e-01
8432:-1.3587377734301467e-01
8433:-1.2978908823838364e-01
8434:-1.2195117452998695e-01
8435:-1.1602374133750802e-01
8436:-1.3497178737388099e-01
8437:-1.2905895928038466e-01
8438:-1.2143171713930183e-01
8439:-1.1565564962056876e-01
8440:-1.3342426389621595e-01
8441:-1.2773334348770568e-01
8442:-1.2037994372869353e-01
8443:-1.1480185847118925e-01
8444:-1.3195829300431774e-01
8445:-1.2643588553208759e-01
8446:-1.1929164180477125e-01
8447:-1.1386554993789225e-01
8448:-1.1289541930217704e-01
8449:-1.0710713565416125e-01
8450:-9.9722001976744357e-02
8451:-9.4190655023856928e-02
8452:-1.1260449827675470e-01
8453:-1.0695454433499564e-01
8454:-9.9737138341028139e-02
8455:-9.4324529897295631e-02
8456:-1.1185201815278795e-01
8457:-1.0638413191814962e-01
8458:-9.9388498315875276e-02
8459:-9.4133815093943959e-02
8460:-1.1099371816578489e-01
8461:-1.0566641130423678e-01
8462:-9.8842881300694962e-02
8463:-9.3711536158757325e-02
8464:-9.1290012607805088e-02
8465:-8.5953910251982124e-02
8466:-7.9205021339734075e-02
8467:-7.4195432832188671e-02
8468:-9.1483687482066839e-02
8469:-8.6253578371455294e-02
8470:-7.9631076246005503e-02
8471:-7.4709454398845146e-02
8472:-9.1372894345012640e-02
8473:-8.6285241145356475e-02
8474:-7.9834108239732554e-02
8475:-7.5032874270669944e-02
8476:-9.1013349667317417e-02
8477:-8.6038074626141645e-02
8478:-7.9723148413299569e-02
8479:-7.5018338790650244e-02
8480:-7.1584284534417078e-02
8481:-6.6808162284095557e-02
8482:-6.0820872259719071e-02
8483:-5.6417859316160092e-02
8484:-7.2142112449958579e-02
8485:-6.7442791408951194e-02
8486:-6.1545230475778513e-02
8487:-5.7203013895944087e-02
8488:-7.2525864387700784e-02
8489:-6.7932895376821026e-02
8490:-6.2160794717327210e-02
8491:-5.7904639350891025e-02
8492:-7.2559901613983957e-02
8493:-6.8052987546250068e-02
8494:-6.2383314401525850e-02
8495:-5.8198209297182522e-02
8496:-5.4137549005017792e-02
8497:-4.9991851492716476e-02
8498:-4.4844320491630160e-02
8499:-4.1097485743599935e-02
8500:-5.4952311534900294e-02
8501:-5.0857344518512912e-02
8502:-4.5766759185730754e-02
8503:-4.2056624503431936e-02
8504:-5.5696276345445994e-02
8505:-5.1674674593664399e-02
8506:-4.6668101396180869e-02
8507:-4.3013498510725071e-02
8508:-5.6025113921598674e-02
8509:-5.2065179736056941e-02
8510:-4.7130324271021533e-02
8511:-4.3524027452497074e-02
8512:-3.9170910241797550e-02
8513:-3.5692861235778722e-02
8514:-3.1422829651818210e-02
8515:-2.8353050195568316e-02
8516:-4.0147204542360128e-02
8517:-3.6697203846484665e-02
8518:-3.2455760291703141e-02
8519:-2.9401805004463637e-02
8520:-4.1130586362863986e-02
8521:-3.7724935313806079e-02
8522:-3.3530931842738594e-02
8523:-3.0505420131129630e-02
8524:-4.1664522273217861e-02
8525:-3.8298686145645515e-02
8526:-3.4148690923844038e-02
8527:-3.1150885503583834e-02
8528:-2.6788557514827834e-02
8529:-2.3988701715413861e-02
8530:-2.0600010194280628e-02
8531:-1.8202740976542599e-02
8532:-2.7843619599235304e-02
8533:-2.5051939275540485e-02
8534:-2.1666872841402333e-02
8535:-1.9267053634365469e-02
8536:-2.8959630698740489e-02
8537:-2.6186459355740772e-02
8538:-2.2816373244293312e-02
8539:-2.0421072016429908e-02
8540:-2.9617760682014369e-02
8541:-2.6864726501312206e-02
8542:-2.3513889676671128e-02
8543:-2.1127987455909734e-02
8544:-1.6995298885291069e-02
8545:-1.4859515487561968e-02
8546:-1.2324644900122634e-02
8547:-1.0571860824595252e-02
8548:-1.8056398325916902e-02
8549:-1.5911371666608613e-02
8550:-1.3358217110836472e-02
8551:-1.1586675403150398e-02
8552:-1.9210392926899519e-02
8553:-1.7061097380894400e-02
8554:-1.4494198203680723e-02
8555:-1.2705898382329843e-02
8556:-1.9920441909736398e-02
8557:-1.7773770526127657e-02
8558:-1.5204001371737842e-02
8559:-1.3408715979754756e-02
8560:-9.7040718848111305e-03
8561:-8.1947881283589170e-03
8562:-6.4549047696246436e-03
8563:-5.2939141962740476e-03
8564:-1.0707229181017217e-02
8565:-9.1731854576854906e-03
8566:-7.3954187682134893e-03
8567:-6.2011493524514487e-03
8568:-1.1815346692278473e-02
8569:-1.0256727845789499e-02
8570:-8.4396835597129339e-03
8571:-7.2098230972966392e-03
8572:-1.2512772006976912e-02
8573:-1.0941190053496719e-02
8574:-9.1017448755306915e-03
8575:-7.8505417283912197e-03
8576:-4.7349478812683688e-03
8577:-3.7884801822107182e-03
8578:-2.7486917828339883e-03
8579:-2.0974993626995965e-03
8580:-5.6229653718011087e-03
8581:-4.6378641395256742e-03
8582:-3.5426937614765172e-03
8583:-2.8452649615894002e-03
8584:-6.6107584337212998e-03
8585:-5.5832271733144041e-03
8586:-4.4264522224054031e-03
8587:-3.6770729186244694e-03
8588:-7.2386505846508799e-03
8589:-6.1846423164377889e-03
8590:-4.9887220064034612e-03
8591:-4.2058700917743117e-03
8592:-1.8002627647557021e-03
8593:-1.3208998409661912e-03
8594:-8.4135480368865501e-04
8595:-5.8093149181032231e-04
8596:-2.5220648104307460e-03
8597:-1.9917192352965269e-03
8598:-1.4413049939937389e-03
8599:-1.1232684887872504e-03
8600:-3.3245475437107051e-03
8601:-2.7365090388158909e-03
8602:-2.1057635676047883e-03
8603:-1.7223608603391474e-03
8604:-3.8343151640477407e-03
8605:-3.2087403960821535e-03
8606:-2.5256066610432645e-03
8607:-2.0995182569693528e-03
8608:-4.7756638364888042e-04
8609:-3.2728821231415623e-04
8610:-2.0581263716309785e-04
8611:-1.6364064844929160e-04
8612:-9.8805745137349639e-04
8613:-7.7612469038828918e-04
8614:-5.7059210124920301e-04
8615:-4.6127499931675794e-04
8616:-1.5510204787707298e-03
8617:-1.2693720152881346e-03
8618:-9.6933474837058217e-04
8619:-7.8497830130180130e-04
8620:-1.9045852574318194e-03
8621:-1.5776139722738884e-03
8622:-1.2166132814021863e-03
8623:-9.8424794667746726e-04
8624:-1.5578107479753846e-04
8625:-1.3734068831009383e-04
8626:-9.0887913789646489e-05
8627:-2.9617795084852524e-05
8628:-4.1669596158576248e-04
8629:-3.2781655471787236e-04
8630:-1.8653940954255528e-04
8631:-5.0395887776525282e-05
8632:-6.9954708519538104e-04
8633:-5.3293150860718691e-04
8634:-2.8836657822606395e-04
8635:-7.1763920243021742e-05
8636:-8.7284436963647757e-04
8637:-6.5738126782512976e-04
8638:-3.4916127551474731e-04
8639:-8.3991680190094600e-05
8640:-3.3690267705421754e-03
8641:-1.6030425403473953e-02
8642:-3.2420859750669093e-02
8643:-4.4868932319558269e-02
8644:-3.2428708689396638e-03
8645:-1.5426387089664479e-02
8646:-3.1202429575214480e-02
8647:-4.3186356673080746e-02
8648:-3.0831329728955464e-03
8649:-1.4666357205667934e-02
8650:-2.9667836037198778e-02
8651:-4.1065631429710286e-02
8652:-2.9644287538433951e-03
8653:-1.4103332130558701e-02
8654:-2.8529960487041754e-02
8655:-3.9492502216212068e-02
8656:-5.1453211925914392e-02
8657:-6.3633448134286397e-02
8658:-7.9149592497604601e-02
8659:-9.0739141788969038e-02
8660:-4.9525784379013053e-02
8661:-6.1254743320982540e-02
8662:-7.6201560835878923e-02
8663:-8.7372191449280517e-02
8664:-4.7095898107856103e-02
8665:-5.8255855182754376e-02
8666:-7.2485324204544302e-02
8667:-8.3127383788904829e-02
8668:-4.5293386329533072e-02
8669:-5.6031627953123150e-02
8670:-6.9729370308503263e-02
8671:-7.9978679731153343e-02
8672:-9.6799705712656850e-02
8673:-1.0788181933382358e-01
8674:-1.2174598732685786e-01
8675:-1.3190633741885252e-01
8676:-9.3216615619234666e-02
8677:-1.0390993769504694e-01
8678:-1.1730004479188648e-01
8679:-1.2712217368557641e-01
8680:-8.8698442352830031e-02
8681:-9.8898026078837048e-02
8682:-1.1168292386735923e-01
8683:-1.2107163034983695e-01
8684:-8.5345980885422446e-02
8685:-9.5176049554812375e-02
8686:-1.0750574582987545e-01
8687:-1.1656737922618350e-01
8688:-1.3714988890539431e-01
8689:-1.4661326164630362e-01
8690:-1.5820559140737903e-01
8691:-1.6650649706158438e-01
8692:-1.3219439573737238e-01
8693:-1.4135499482603103e-01
8694:-1.5259047827334174e-01
8695:-1.6064812010025095e-01
8696:-1.2592396284275501e-01
8697:-1.3469528954180643e-01
8698:-1.4546999600955346e-01
8699:-1.5321135078073791e-01
8700:-1.2125358819236973e-01
8701:-1.2973039167140493e-01
8702:-1.4015512708611616e-01
8703:-1.4765473578173621e-01
8704:-1.7071956786104664e-01
8705:-1.7819554548639516e-01
8706:-1.8709935027481170e-01
8707:-1.9327185999294449e-01
8708:-1.6474258316098456e-01
8709:-1.7201723839599189e-01
8710:-1.8070003116172823e-01
8711:-1.8673499134939253e-01
8712:-1.5715059835127970e-01
8713:-1.6415985075556258e-01
8714:-1.7254723423284954e-01
8715:-1.7839476806477830e-01
8716:-1.5147463683527740e-01
8717:-1.5827838168260980e-01
8718:-1.6643403835456258e-01
8719:-1.7213195400398040e-01
8720:-1.9632938946914202e-01
8721:-2.0161863749362030e-01
8722:-2.0764241247170870e-01
8723:-2.1159142747713733e-01
8724:-1.8973045187714685e-01
8725:-1.9492368192988588e-01
8726:-2.0086182104339831e-01
8727:-2.0477524453490620e-01
8728:-1.8130413304464585e-01
8729:-1.8636097150565256e-01
8730:-1.9216998803231258e-01
8731:-1.9602150067115079e-01
8732:-1.7497150942077572e-01
8733:-1.7991552417481324e-01
8734:-1.8561264842166827e-01
8735:-1.8940523552667154e-01
8736:-2.1346068397495427e-01
8737:-2.1653320143366786e-01
8738:-2.1969827678799486e-01
8739:-2.2148580173285706e-01
8740:-2.0663600058051290e-01
8741:-2.0971050482143214e-01
8742:-2.1291208610287984e-01
8743:-2.1475269851875203e-01
8744:-1.9786219076561870e-01
8745:-2.0092133144606678e-01
8746:-2.0414531977722997e-01
8747:-2.0603480886775896e-01
8748:-1.9122390107913259e-01
8749:-1.9425801830185371e-01
8750:-1.9748067053014134e-01
8751:-1.9939274121020897e-01
8752:-2.2221562132112843e-01
8753:-2.2318885344848927e-01
8754:-2.2369608768246721e-01
8755:-2.2351046278745484e-01
8756:-2.1551932616032721e-01
8757:-2.1657529469645745e-01
8758:-2.1721661068523121e-01
8759:-2.1715356101498684e-01
8760:-2.0683834378483043e-01
8761:-2.0798139015212053e-01
8762:-2.0877015420846892e-01
8763:-2.0884545245037966e-01
8764:-2.0021647527363295e-01
8765:-2.0141102434037125e-01
8766:-2.0229258938742567e-01
8767:-2.0245794610196563e-01
8768:-2.2321258143108264e-01
8769:-2.2231363903324475e-01
8770:-2.2049259967746437e-01
8771:-2.1861167555367544e-01
8772:-2.1692783516105679e-01
8773:-2.1617466859657308e-01
8774:-2.1456240930196213e-01
8775:-2.1285454261242678e-01
8776:-2.0870209846920151e-01
8777:-2.0811657582072765e-01
8778:-2.0674690303328003e-01
8779:-2.0524215363873735e-01
8780:-2.0236897630662165e-01
8781:-2.0189526705537869e-01
8782:-2.0068969043825688e-01
8783:-1.9932419070743204e-01
8784:-2.1744276076182983e-01
8785:-2.1497617687070053e-01
8786:-2.1124128207275469e-01
8787:-2.0799346360935006e-01
8788:-2.1178199122159236e-01
8789:-2.0950156159815822e-01
8790:-2.0601939948608894e-01
8791:-2.0297269973365542e-01
8792:-2.0428348117897813e-01
8793:-2.0222470920837082e-01
8794:-1.9904628740586794e-01
8795:-1.9624297280523159e-01
8796:-1.9844427347930527e-01
8797:-1.9654003632145117e-01
8798:-1.9357537486567897e-01
8799:-1.9094448012030124e-01
8800:-2.0613152798883858e-01
8801:-2.0243436428975556e-01
8802:-1.9723102485575053e-01
8803:-1.9296216171049171e-01
8804:-2.0122042497671222e-01
8805:-1.9773165519635849e-01
8806:-1.9280396011074621e-01
8807:-1.8874832424636351e-01
8808:-1.9462384264969432e-01
8809:-1.9138856739794272e-01
8810:-1.8679732905681148e-01
8811:-1.8300311604874639e-01
8812:-1.8941995906663806e-01
8813:-1.8636527768854033e-01
8814:-1.8201488410778666e-01
8815:-1.7840889890123923e-01
8816:-1.9059288290951626e-01
8817:-1.8601135456697535e-01
8818:-1.7978452411026083e-01
8819:-1.7482911341714075e-01
8820:-1.8649301662672693e-01
8821:-1.8212435441214356e-01
8822:-1.7617295574383379e-01
8823:-1.7142685185411008e-01
8824:-1.8088804630421246e-01
8825:-1.7678254006213112e-01
8826:-1.7117378623770121e-01
8827:-1.6668940777910268e-01
8828:-1.7639525648770102e-01
8829:-1.7248095741079883e-01
8830:-1.6712262094195945e-01
8831:-1.6283038641503950e-01
8832:-1.7212799446730442e-01
8833:-1.6698551376853471e-01
8834:-1.6014582436272265e-01
8835:-1.5481026585019300e-01
8836:-1.6883656793658736e-01
8837:-1.6389958711534902e-01
8838:-1.5732238166077797e-01
8839:-1.5218318299060560e-01
8840:-1.6423808892737463e-01
8841:-1.5955920273945409e-01
8842:-1.5331266895945667e-01
8843:-1.4842180030788715e-01
8844:-1.6048132000169155e-01
8845:-1.5599274638705637e-01
8846:-1.4999098687899912e-01
8847:-1.4528481392957554e-01
8848:-1.5193758922975603e-01
8849:-1.4652651719382964e-01
8850:-1.3943787203497479e-01
8851:-1.3398719374374810e-01
8852:-1.4941325455498256e-01
8853:-1.4419071762157229e-01
8854:-1.3733960255654343e-01
8855:-1.3206454585583333e-01
8856:-1.4578222432853313e-01
8857:-1.4079982583317513e-01
8858:-1.3425296516077623e-01
8859:-1.2920400773254570e-01
8860:-1.4274254487313265e-01
8861:-1.3794008434787949e-01
8862:-1.3162237313902919e-01
8863:-1.2674445830697470e-01
8864:-1.3107916566974803e-01
8865:-1.2564606592462293e-01
8866:-1.1861302896135636e-01
8867:-1.1326797771832087e-01
8868:-1.2924782287573841e-01
8869:-1.2398139467032386e-01
8870:-1.1715638004154236e-01
8871:-1.1196333334977590e-01
8872:-1.2650517996457802e-01
8873:-1.2145443511387985e-01
8874:-1.1489961837650570e-01
8875:-1.0990488985217797e-01
8876:-1.2413504308310201e-01
8877:-1.1924826914595540e-01
8878:-1.1289972420538658e-01
8879:-1.0805713683165925e-01
8880:-1.1043780674103418e-01
8881:-1.0518573016260109e-01
8882:-9.8454641339582732e-02
8883:-9.3389841969985579e-02
8884:-1.0921146849575225e-01
8885:-1.0410118432396799e-01
8886:-9.7545070572907094e-02
8887:-9.2606777583684755e-02
8888:-1.0725554436869122e-01
8889:-1.0233163766984493e-01
8890:-9.6006891293476740e-02
8891:-9.1236855446827164e-02
8892:-1.0548673119830528e-01
8893:-1.0070686297125958e-01
8894:-9.4561876643849629e-02
8895:-8.9923233419691120e-02
8896:-9.0725619050217352e-02
8897:-8.5811361514278373e-02
8898:-7.9570708264534051e-02
8899:-7.4918706601707255e-02
8900:-9.0007304117841136e-02
8901:-8.5209623517096073e-02
8902:-7.9111370945963377e-02
8903:-7.4561029869565365e-02
8904:-8.8723821757469720e-02
8905:-8.4082254201300194e-02
8906:-7.8175685434384176e-02
8907:-7.3763020182483402e-02
8908:-8.7477917807538969e-02
8909:-8.2959027405989913e-02
8910:-7.7203866675770380e-02
8911:-7.2900599853683010e-02
8912:-7.2486948586740402e-02
8913:-6.8027453915481567e-02
8914:-6.2414543857704195e-02
8915:-5.8269086715010798e-02
8916:-7.2180792433759466e-02
8917:-6.7813198712703582e-02
8918:-6.2310941810983657e-02
8919:-5.8243274492157680e-02
8920:-7.1452878341049728e-02
8921:-6.7210936766599699e-02
8922:-6.1861157643309364e-02
8923:-5.7901589739449366e-02
8924:-7.0646405185184072e-02
8925:-6.6505189824027505e-02
8926:-6.1278464870360441e-02
8927:-5.7406758105780414e-02
8928:-5.6115777604557403e-02
8929:-5.2190615697235952e-02
8930:-4.7296540642352475e-02
8931:-4.3717987486580408e-02
8932:-5.6128966010748030e-02
8933:-5.2272627826912332e-02
8934:-4.7459845862532338e-02
8935:-4.3937087145265598e-02
8936:-5.5841799239763054e-02
8937:-5.2082198558924153e-02
8938:-4.7384767637385625e-02
8939:-4.3942098343985762e-02
8940:-5.5391497766750029e-02
8941:-5.1711296457905835e-02
8942:-4.7109331638896593e-02
8943:-4.3733607123475605e-02
8944:-4.1872030967057335e-02
8945:-3.8529443748829918e-02
8946:-3.4405580175278484e-02
8947:-3.1424616479486335e-02
8948:-4.2118571577592183e-02
8949:-3.8823448542963469e-02
8950:-3.4753714834767052e-02
8951:-3.1808308865068427e-02
8952:-4.2163334101960027e-02
8953:-3.8937648506020051e-02
8954:-3.4948493215458135e-02
8955:-3.2057192672887619e-02
8956:-4.1988326200944989e-02
8957:-3.8821589632435788e-02
8958:-3.4901768625467199e-02
8959:-3.2057792450366232e-02
8960:-2.9899355436606129e-02
8961:-2.7159147649408358e-02
8962:-2.3821299932836482e-02
8963:-2.1442491309670294e-02
8964:-3.0299923056260843e-02
8965:-2.7587756564015884e-02
8966:-2.4279453170928222e-02
8967:-2.1917907125239101e-02
8968:-3.0574951459313156e-02
8969:-2.7907110533681230e-02
8970:-2.4647435429964483e-02
8971:-2.2316125457997833e-02
8972:-3.0598718723945834e-02
8973:-2.7970722180653013e-02
8974:-2.4755974649750191e-02
8975:-2.2453704032626087e-02
8976:-2.0237722065239921e-02
8977:-1.8094521102063138e-02
8978:-1.5525920489434002e-02
8979:-1.3728977728607528e-02
8980:-2.0720449510433215e-02
8981:-1.8587706837491818e-02
8982:-1.6026447393966709e-02
8983:-1.4230335185331512e-02
8984:-2.1132313496359044e-02
8985:-1.9020919976913901e-02
8986:-1.6479277174583355e-02
8987:-1.4691920401923872e-02
8988:-2.1283474796779920e-02
8989:-1.9194299904950068e-02
8990:-1.6675308510472917e-02
8991:-1.4900472375953920e-02
8992:-1.2831260633357261e-02
8993:-1.1254840909397091e-02
8994:-9.4061711584046293e-03
8995:-8.1456829546720198e-03
8996:-1.3331387758366378e-02
8997:-1.1749826812360109e-02
8998:-9.8889931812555024e-03
8999:-8.6150367000861795e-03
9000:-1.3795445655418834e-02
9001:-1.2214827218675003e-02
9002:-1.0348113599586234e-02
9003:-9.0642566233728617e-03
9004:-1.4008977483394563e-02
9005:-1.2434864472771602e-02
9006:-1.0571189064586449e-02
9007:-9.2855324196360629e-03
9008:-7.5280739006792514e-03
9009:-6.4620807300110389e-03
9010:-5.2481366537943264e-03
9011:-4.4496762566864443e-03
9012:-7.9888125725353365e-03
9013:-6.9043460227669346e-03
9014:-5.6619274080857577e-03
9015:-4.8383626862032458e-03
9016:-8.4308913849083372e-03
9017:-7.3300953826503845e-03
9018:-6.0608473881486897e-03
9019:-5.2125862146536420e-03
9020:-8.6497845360364433e-03
9021:-7.5423225328589772e-03
9022:-6.2602562387692176e-03
9023:-5.3990955753269029e-03
9024:-4.0691909722931031e-03
9025:-3.4259583478386366e-03
9026:-2.7181259773837825e-03
9027:-2.2718875315814457e-03
9028:-4.4433848894117646e-03
9029:-3.7713898542297347e-03
9030:-3.0231810765617806e-03
9031:-2.5439254629162481e-03
9032:-4.8030536832250640e-03
9033:-4.1019209115832874e-03
9034:-3.3124593683273233e-03
9035:-2.7992817898222630e-03
9036:-4.9816594732350903e-03
9037:-4.2644484841426753e-03
9038:-3.4518669353070831e-03
9039:-2.9194843087569809e-03
9040:-2.0658170895542878e-03
9041:-1.7175326260317923e-03
9042:-1.3280595475589851e-03
9043:-1.0734378438545058e-03
9044:-2.3195972363609174e-03
9045:-1.9365349049033042e-03
9046:-1.5009967982093498e-03
9047:-1.2107100080237475e-03
9048:-2.5561709926536858e-03
9049:-2.1376780695890846e-03
9050:-1.6560708715442263e-03
9051:-1.3308731346000000e-03
9052:-2.6657120877750205e-03
9053:-2.2274312310653073e-03
9054:-1.7209084063509129e-03
9055:-1.3775611084788232e-03
9056:-9.5006305994762609e-04
9057:-7.1233209382805403e-04
9058:-3.7563642129890748e-04
9059:-8.9191179477869612e-05
9060:-1.0682983429517823e-03
9061:-7.9568318699600054e-04
9062:-4.1553533140243932e-04
9063:-9.7592941061506685e-05
9064:-1.1701545423260914e-03
9065:-8.6517739229659794e-04
9066:-4.4735930174597785e-04
9067:-1.0437821921889974e-04
9068:-1.2076485763712853e-03
9069:-8.8760953229051172e-04
9070:-4.5501108337484393e-04
9071:-1.0473591488779412e-04
9072:-2.9024596118441665e-03
9073:-1.3809474983412178e-02
9074:-2.7935774191547590e-02
9075:-3.8670971864012645e-02
9076:-2.7879820875464038e-03
9077:-1.3266725478794872e-02
9078:-2.6838552406884778e-02
9079:-3.7153966651983526e-02
9080:-2.6418379556930912e-03
9081:-1.2573622262398896e-02
9082:-2.5437781144533572e-02
9083:-3.5217194135848180e-02
9084:-2.5321006560435127e-03
9085:-1.2052534473929727e-02
9086:-2.4384769424778636e-02
9087:-3.3761047582999207e-02
9088:-4.4352145592599687e-02
9089:-5.4870378709383751e-02
9090:-6.8290531806486948e-02
9091:-7.8334367863890392e-02
9092:-4.2613995566559371e-02
9093:-5.2725269173850967e-02
9094:-6.5631061165851101e-02
9095:-7.5293675597888785e-02
9096:-4.0394561225592172e-02
9097:-4.9984577354099301e-02
9098:-6.2229903252264379e-02
9099:-7.1402302441179760e-02
9100:-3.8725575028987283e-02
9101:-4.7922333219292443e-02
9102:-5.9668306786197466e-02
9103:-6.8469688797366729e-02
9104:-8.3594823596367926e-02
9105:-9.3230651531057349e-02
9106:-1.0532036495401570e-01
9107:-1.1420923558146023e-01
9108:-8.0355787542682550e-02
9109:-8.9630894151914969e-02
9110:-1.0127444795911267e-01
9111:-1.0984152975042340e-01
9112:-7.6209281292626468e-02
9113:-8.5020246989972459e-02
9114:-9.6088855823244626e-02
9115:-1.0424002090423945e-01
9116:-7.3083561568749900e-02
9117:-8.1543104761896842e-02
9118:-9.2175665454183583e-02
9119:-1.0001038218614208e-01
9120:-1.1880763962445838e-01
9121:-1.2712861991626723e-01
9122:-1.3736773814701100e-01
9123:-1.4473862757506961e-01
9124:-1.1427609258069334e-01
9125:-1.2230558080254461e-01
9126:-1.3219606841043252e-01
9127:-1.3932414269355062e-01
9128:-1.0846217542700232e-01
9129:-1.1611227024356448e-01
9130:-1.2554621640245303e-01
9131:-1.3235431461420669e-01
9132:-1.0407041687424301e-01
9133:-1.1142983050324394e-01
9134:-1.2051195296037184e-01
9135:-1.2707202273672605e-01
9136:-1.4849474952595548e-01
9137:-1.5518818577210108e-01
9138:-1.6321845503233537e-01
9139:-1.6883454789753113e-01
9140:-1.4295957806791326e-01
9141:-1.4944354866140933e-01
9142:-1.5723416634613649e-01
9143:-1.6269251416728175e-01
9144:-1.3583002446183379e-01
9145:-1.4203541788050189e-01
9146:-1.4950443916353842e-01
9147:-1.5474859827775225e-01
9148:-1.3042343088285221e-01
9149:-1.3641104210934540e-01
9150:-1.4362656006567656e-01
9151:-1.4870007566664714e-01
9152:-1.7163557200696294e-01
9153:-1.7651659687772614e-01
9154:-1.8214965264230501e-01
9155:-1.8590691571286752e-01
9156:-1.6541869399618703e-01
9157:-1.7017624269309781e-01
9158:-1.7568123576530284e-01
9159:-1.7936550464955450e-01
9160:-1.5737212671656978e-01
9161:-1.6195829027705844e-01
9162:-1.6728110032699095e-01
9163:-1.7085733279587234e-01
9164:-1.5124109112420914e-01
9165:-1.5568806743325972e-01
9166:-1.6085985637087294e-01
9167:-1.6434370405130966e-01
9168:-1.8771157919333170e-01
9169:-1.9072786373861875e-01
9170:-1.9394355012685499e-01
9171:-1.9586264425322464e-01
9172:-1.8114008482920169e-01
9173:-1.8411543293215943e-01
9174:-1.8730767024971134e-01
9175:-1.8923150265781316e-01
9176:-1.7258543429082032e-01
9177:-1.7549322597023673e-01
9178:-1.7863525876847830e-01
9179:-1.8054931394070553e-01
9180:-1.6603079433166598e-01
9181:-1.6887628426038431e-01
9182:-1.7196528288670840e-01
9183:-1.7386002173700665e-01
9184:-1.9669442169616044e-01
9185:-1.9791126561823910e-01
9186:-1.9883540639914596e-01
9187:-1.9904329217021616e-01
9188:-1.9007370414415845e-01
9189:-1.9132338655547901e-01
9190:-1.9231533405110535e-01
9191:-1.9259358803779419e-01
9192:-1.8139627639395622e-01
9193:-1.8267177399128234e-01
9194:-1.8372938382463228e-01
9195:-1.8408174594714671e-01
9196:-1.7470409327792172e-01
9197:-1.7598681138412450e-01
9198:-1.7707799643231439e-01
9199:-1.7747421995478613e-01
9200:-1.9898030882995499e-01
9201:-1.9856051662455668e-01
9202:-1.9743504186377847e-01
9203:-1.9613827097166334e-01
9204:-1.9257431631329675e-01
9205:-1.9224638731228577e-01
9206:-1.9125938315161836e-01
9207:-1.9008268753261395e-01
9208:-1.8411007845352581e-01
9209:-1.8388465429323150e-01
9210:-1.8305622472537475e-01
9211:-1.8201951595395649e-01
9212:-1.7753216964637683e-01
9213:-1.7737264329794655e-01
9214:-1.7664955708708413e-01
9215:-1.7570785416058604e-01
9216:-1.9529749178188904e-01
9217:-1.9347047146433588e-01
9218:-1.9061327434661679e-01
9219:-1.8806942359067938e-01
9220:-1.8931065685980430e-01
9221:-1.8761979345102570e-01
9222:-1.8495307064954108e-01
9223:-1.8256424152548595e-01
9224:-1.8132833778629834e-01
9225:-1.7979865680205018e-01
9226:-1.7735947927385864e-01
9227:-1.7515744667806374e-01
9228:-1.7507211076522089e-01
9229:-1.7365385478637230e-01
9230:-1.7137377503439438e-01
9231:-1.6930373300941223e-01
9232:-1.8659275725649557e-01
9233:-1.8362963567798632e-01
9234:-1.7940185151103413e-01
9235:-1.7589214139297793e-01
9236:-1.8117307031598703e-01
9237:-1.7837414154247991e-01
9238:-1.7436735608771248e-01
9239:-1.7103193782269188e-01
9240:-1.7386988031599615e-01
9241:-1.7127114085896825e-01
9242:-1.6753593938662403e-01
9243:-1.6441608334195121e-01
9244:-1.6808986868161235e-01
9245:-1.6563445487620029e-01
9246:-1.6209525679303546e-01
9247:-1.5913195522549753e-01
9248:-1.7393055429235915e-01
9249:-1.7011466857484051e-01
9250:-1.6488566732878837e-01
9251:-1.6069292966553969e-01
9252:-1.6916482174515801e-01
9253:-1.6552784498673823e-01
9254:-1.6053457261249862e-01
9255:-1.5652367194233827e-01
9256:-1.6266621286806551e-01
9257:-1.5925188280452504e-01
9258:-1.5455323518605438e-01
9259:-1.5077066797711530e-01
9260:-1.5746752210003812e-01
9261:-1.5421595240916411e-01
9262:-1.4973377705483892e-01
9263:-1.4611988605535078e-01
9264:-1.5839688192145013e-01
9265:-1.5400715932393252e-01
9266:-1.4813293612671249e-01
9267:-1.4352334673742523e-01
9268:-1.5432470959093042e-01
9269:-1.5011647090405258e-01
9270:-1.4447727838029314e-01
9271:-1.4004629373269703e-01
9272:-1.4869403144101684e-01
9273:-1.4471537336932838e-01
9274:-1.3937514546946042e-01
9275:-1.3517245448917736e-01
9276:-1.4413396152098620e-01
9277:-1.4032621663946299e-01
9278:-1.3520972077057897e-01
9279:-1.3117863897030246e-01
9280:-1.4103209916634749e-01
9281:-1.3632420297823691e-01
9282:-1.3012728183532271e-01
9283:-1.2533975918426557e-01
9284:-1.3764959160244519e-01
9285:-1.3311719521125748e-01
9286:-1.2714497226997265e-01
9287:-1.2252602693198471e-01
9288:-1.3289694061616697e-01
9289:-1.2859002358725252e-01
9290:-1.2290756501643191e-01
9291:-1.1850690458024789e-01
9292:-1.2899445616443977e-01
9293:-1.2485789423299920e-01
9294:-1.1939525017828700e-01
9295:-1.1516091409976809e-01
9296:-1.2277766644489647e-01
9297:-1.1797783058945176e-01
9298:-1.1173898665715010e-01
9299:-1.0697759475132262e-01
9300:-1.2005235167655547e-01
9301:-1.1541532601412638e-01
9302:-1.0938263022039857e-01
9303:-1.0477433076940150e-01
9304:-1.1614806157826964e-01
9305:-1.1172320317982876e-01
9306:-1.0596047197833361e-01
9307:-1.0155358428835048e-01
9308:-1.1288984599021053e-01
9309:-1.0862767981697251e-01
9310:-1.0307289180341342e-01
9311:-9.8821787072063239e-02
9312:-1.0444942538689822e-01
9313:-9.9746794941144246e-02
9314:-9.3698504075921507e-02
9315:-8.9130749430348141e-02
9316:-1.0232596574500791e-01
9317:-9.7769519507477115e-02
9318:-9.1904720354505684e-02
9319:-8.7471871123794814e-02
9320:-9.9210511609174462e-02
9321:-9.4847413096067867e-02
9322:-8.9226259920831150e-02
9323:-8.4973317792995010e-02
9324:-9.6560360641138543e-02
9325:-9.2347558522493781e-02
9326:-8.6916551900474134e-02
9327:-8.2804621144600521e-02
9328:-8.6722038158180165e-02
9329:-8.2269596751302743e-02
9330:-7.6596731300916945e-02
9331:-7.2353159628800359e-02
9332:-8.5132964980671397e-02
9333:-8.0807541021855889e-02
9334:-7.5292555326104460e-02
9335:-7.1163934232363349e-02
9336:-8.2727794478179503e-02
9337:-7.8572854766359945e-02
9338:-7.3270841340875303e-02
9339:-6.9298066322348362e-02
9340:-8.0632517519493144e-02
9341:-7.6612020237990811e-02
9342:-7.1478704399222923e-02
9343:-6.7629922586906546e-02
9344:-7.0129580862130406e-02
9345:-6.6043627407193439e-02
9346:-6.0884678800985075e-02
9347:-5.7061563480029616e-02
9348:-6.8999457641685927e-02
9349:-6.5020411919556945e-02
9350:-5.9993030894126345e-02
9351:-5.6264604576815910e-02
9352:-6.7213985045045263e-02
9353:-6.3380796997310446e-02
9354:-5.8533784242385672e-02
9355:-5.4935871800939340e-02
9356:-6.5609990129977369e-02
9357:-6.1893507565700445e-02
9358:-5.7191462700005295e-02
9359:-5.3698973020925821e-02
9360:-5.5071000674354990e-02
9361:-5.1434967075526999e-02
9362:-4.6886375571615367e-02
9363:-4.3548300546166756e-02
9364:-5.4322305749162497e-02
9365:-5.0772845148335716e-02
9366:-4.6329383777506603e-02
9367:-4.3065872336862002e-02
9368:-5.3060361281747022e-02
9369:-4.9631187069104708e-02
9370:-4.5334742040673406e-02
9371:-4.2176240454249878e-02
9372:-5.1877605876674261e-02
9373:-4.8546286092086013e-02
9374:-4.4370099593026492e-02
9375:-4.1298005471259149e-02
9376:-4.1821934998731145e-02
9377:-3.8688645426003650e-02
9378:-3.4808453997426887e-02
9379:-3.1991765020054387e-02
9380:-4.1377115862915134e-02
9381:-3.8310577698553887e-02
9382:-3.4509983793169656e-02
9383:-3.1748527386939611e-02
9384:-4.0540717195810309e-02
9385:-3.7569121612982044e-02
9386:-3.3882679966701343e-02
9387:-3.1201217537066148e-02
9388:-3.9706468883489332e-02
9389:-3.6813649711933377e-02
9390:-3.3222585570274812e-02
9391:-3.0608509249781646e-02
9392:-3.0546141164917280e-02
9393:-2.7941450324929663e-02
9394:-2.4753350367698764e-02
9395:-2.2468629065004311e-02
9396:-3.0330293676421573e-02
9397:-2.7773379760008227e-02
9398:-2.4640562766697915e-02
9399:-2.2392811605283107e-02
9400:-2.9822957212885574e-02
9401:-2.7336334688511984e-02
9402:-2.4286013577093857e-02
9403:-2.2094414158462247e-02
9404:-2.9264132305201519e-02
9405:-2.6837471563289236e-02
9406:-2.3858293974611835e-02
9407:-2.1715762179472901e-02
9408:-2.1306743226400533e-02
9409:-1.9231477759340254e-02
9410:-1.6727243628150756e-02
9411:-1.4961125484636810e-02
9412:-2.1248728766487594e-02
9413:-1.9203571537693198e-02
9414:-1.6732214517435728e-02
9415:-1.4986396293125205e-02
9416:-2.0977760674434940e-02
9417:-1.8979722581733135e-02
9418:-1.6561389632211963e-02
9419:-1.4849747222529661e-02
9420:-2.0623327885692769e-02
9421:-1.8667360827830756e-02
9422:-1.6297359382661875e-02
9423:-1.4617744468506173e-02
9424:-1.4073369358896953e-02
9425:-1.2504755948329236e-02
9426:-1.0645349171598236e-02
9427:-9.3607639709314579e-03
9428:-1.4107744587563696e-02
9429:-1.2553360166833833e-02
9430:-1.0707043654486268e-02
9431:-9.4283454975358193e-03
9432:-1.3987047333236031e-02
9433:-1.2458836761285666e-02
9434:-1.0639457472852731e-02
9435:-9.3759378308738376e-03
9436:-1.3770357953940590e-02
9437:-1.2267962649745986e-02
9438:-1.0476657840183522e-02
9439:-9.2304007555738411e-03
9440:-8.7248294856507366e-03
9441:-7.6158610750055103e-03
9442:-6.3296644293455067e-03
9443:-5.4637257125014016e-03
9444:-8.7941209530445017e-03
9445:-7.6861990092137993e-03
9446:-6.3973303132501278e-03
9447:-5.5263434446710738e-03
9448:-8.7479194977908709e-03
9449:-7.6488174791968615e-03
9450:-6.3661993532512376e-03
9451:-5.4961096008469866e-03
9452:-8.6101161576474725e-03
9453:-7.5233412211898011e-03
9454:-6.2527546903123187e-03
9455:-5.3888945605754046e-03
9456:-5.0432062494606749e-03
9457:-4.3195933643184236e-03
9458:-3.4976262719524369e-03
9459:-2.9573497677575443e-03
9460:-5.1021392045808526e-03
9461:-4.3705270594018410e-03
9462:-3.5363420754428040e-03
9463:-2.9855152645200584e-03
9464:-5.0711008910280025e-03
9465:-4.3366688691359656e-03
9466:-3.4967172997718860e-03
9467:-2.9401187946755409e-03
9468:-4.9662251711756287e-03
9469:-4.2352299120966778e-03
9470:-3.3982838087331796e-03
9471:-2.8430565828341109e-03
9472:-2.6991804432242796e-03
9473:-2.2528863925844393e-03
9474:-1.7366541637733061e-03
9475:-1.3865876133759873e-03
9476:-2.7214189684489488e-03
9477:-2.2646406157746835e-03
9478:-1.7365456523523177e-03
9479:-1.3790848967980807e-03
9480:-2.6726315942270837e-03
9481:-2.2106460575100169e-03
9482:-1.6788419290783584e-03
9483:-1.3213443531483239e-03
9484:-2.5761049147002041e-03
9485:-2.1162168864199520e-03
9486:-1.5899781024991944e-03
9487:-1.2392854532141224e-03
9488:-1.2134342230885520e-03
9489:-8.8870830722043745e-04
9490:-4.5306583699187143e-04
9491:-1.0298682465119537e-04
9492:-1.2027638072512681e-03
9493:-8.7510607401971381e-04
9494:-4.4227270031337653e-04
9495:-9.9824532248371406e-05
9496:-1.1462500088727907e-03
9497:-8.2559392419744504e-04
9498:-4.1226562062932331e-04
9499:-9.3360079513428611e-05
9500:-1.0689347423975220e-03
9501:-7.6137097112145185e-04
9502:-3.7439227764129583e-04
9503:-8.3381427055153969e-05
9504:-2.4743392491848571e-03
9505:-1.1777863188143424e-02
9506:-2.3829674634321760e-02
9507:-3.2993327512084607e-02
9508:-2.3666117884812523e-03
9509:-1.1264687745924658e-02
9510:-2.2792132370382776e-02
9511:-3.1558149244259245e-02
9512:-2.2267153939972183e-03
9513:-1.0597482889057428e-02
9514:-2.1442436921247414e-02
9515:-2.9690798832396025e-02
9516:-2.1195173878718978e-03
9517:-1.0086569286140150e-02
9518:-2.0408535848406489e-02
9519:-2.8260087902184733e-02
9520:-3.7845513595549711e-02
9521:-4.6834475311301436e-02
9522:-5.8316285732395008e-02
9523:-6.6921297051366638e-02
9524:-3.6200253420406427e-02
9525:-4.4800553105293184e-02
9526:-5.5787985835144500e-02
9527:-6.4025159594728778e-02
9528:-3.4059450143815784e-02
9529:-4.2153757152765856e-02
9530:-5.2497034089637289e-02
9531:-6.0254219490800072e-02
9532:-3.2419135596111891e-02
9533:-4.0125516013240575e-02
9534:-4.9974514824030557e-02
9535:-5.7362831528139611e-02
9536:-7.1432965890595349e-02
9537:-7.9706446267629752e-02
9538:-9.0107842423781129e-02
9539:-9.7774429635795537e-02
9540:-6.8345219118635073e-02
9541:-7.6269396026651837e-02
9542:-8.6235948829037998e-02
9543:-9.3585688083800203e-02
9544:-6.4323887884772904e-02
9545:-7.1790642516772793e-02
9546:-8.1186103220226971e-02
9547:-8.8118697094793738e-02
9548:-6.1239794897513050e-02
9549:-6.8353824013110825e-02
9550:-7.7307751596593630e-02
9551:-8.3917142326017949e-02
9552:-1.0174815218664768e-01
9553:-1.0895244453446178e-01
9554:-1.1784615353530187e-01
9555:-1.2427292241045630e-01
9556:-9.7396570396499293e-02
9557:-1.0430786434950207e-01
9558:-1.1284493800619905e-01
9559:-1.1901871679111885e-01
9560:-9.1714901080476474e-02
9561:-9.8239338274334231e-02
9562:-1.0630416588158734e-01
9563:-1.1214167489224942e-01
9564:-8.7346821189611651e-02
9565:-9.3570738704824546e-02
9566:-1.0126768469308681e-01
9567:-1.0684228461098232e-01
9568:-1.2755736380231905e-01
9569:-1.3342731182912412e-01
9570:-1.4050516235675556e-01
9571:-1.4548540568682999e-01
9572:-1.2217578449942176e-01
9573:-1.2782131554900417e-01
9574:-1.3463532429615543e-01
9575:-1.3943575197251434e-01
9576:-1.1512890620764298e-01
9577:-1.2047405775067513e-01
9578:-1.2693257058134894e-01
9579:-1.3148878087926671e-01
9580:-1.0969633287679283e-01
9581:-1.1480511425732279e-01
9582:-1.2098223127373821e-01
9583:-1.2534377514222306e-01
9584:-1.4798107946562741e-01
9585:-1.5235110866389634e-01
9586:-1.5743842485345483e-01
9587:-1.6086970876838338e-01
9588:-1.4184360045124658e-01
9589:-1.4606379972294603e-01
9590:-1.5098496231751504e-01
9591:-1.5431135686443176e-01
9592:-1.3377659821558455e-01
9593:-1.3779058108760800e-01
9594:-1.4248000442013245e-01
9595:-1.4565739017846677e-01
9596:-1.2753539396679872e-01
9597:-1.3138308858905492e-01
9598:-1.3588350100617438e-01
9599:-1.3893747478118929e-01
9600:-1.6253307905479913e-01
9601:-1.6534173521190398e-01
9602:-1.6839746713259915e-01
9603:-1.7027786462010605e-01
9604:-1.5592675237364018e-01
9605:-1.5865961215796917e-01
9606:-1.6164391490947369e-01
9607:-1.6349031632919367e-01
9608:-1.4720348395114136e-01
9609:-1.4982456648719195e-01
9610:-1.5269840419022135e-01
9611:-1.5448695201694471e-01
9612:-1.4042539312691638e-01
9613:-1.4295111867120605e-01
9614:-1.4572736973213252e-01
9615:-1.4746152436528034e-01
9616:-1.7111816352977324e-01
9617:-1.7240045902143958e-01
9618:-1.7350387479489074e-01
9619:-1.7391911919553685e-01
9620:-1.6431971258671943e-01
9621:-1.6559404544108688e-01
9622:-1.6671107114803987e-01
9623:-1.6715484579934392e-01
9624:-1.5529487321556334e-01
9625:-1.5654527083803660e-01
9626:-1.5766247198754466e-01
9627:-1.5813001588696080e-01
9628:-1.4824760368588855e-01
9629:-1.4946961854726651e-01
9630:-1.5057395940981955e-01
9631:-1.5104980090163356e-01
9632:-1.7399054588078774e-01
9633:-1.7386187344708220e-01
9634:-1.7318945334209421e-01
9635:-1.7229421650888782e-01
9636:-1.6724774291433647e-01
9637:-1.6716985335986081e-01
9638:-1.6658338732556380e-01
9639:-1.6576852172519971e-01
9640:-1.5824375442997060e-01
9641:-1.5821878773029888e-01
9642:-1.5772745627517559e-01
9643:-1.5700482180856640e-01
9644:-1.5117423483428996e-01
9645:-1.5118005071958812e-01
9646:-1.5074923467544266e-01
9647:-1.5008814756869931e-01
9648:-1.7168579921746580e-01
9649:-1.7032283962910449e-01
9650:-1.6812243414548875e-01
9651:-1.6611903211157383e-01
9652:-1.6520782651256691e-01
9653:-1.6394224313464176e-01
9654:-1.6188355660236464e-01
9655:-1.5999961420814465e-01
9656:-1.5649984876428621e-01
9657:-1.5534960113826474e-01
9658:-1.5346157222686035e-01
9659:-1.5172326683049747e-01
9660:-1.4962116994093211e-01
9661:-1.4855088781455117e-01
9662:-1.4678339845933128e-01
9663:-1.4514934463167231e-01
9664:-1.6494256626501552e-01
9665:-1.6256019352831655e-01
9666:-1.5912140810154646e-01
9667:-1.5623863748404548e-01
9668:-1.5889047118484501e-01
9669:-1.5664003124766812e-01
9670:-1.5338345966874223e-01
9671:-1.5064744241166478e-01
9672:-1.5069673134604769e-01
9673:-1.4860906378854430e-01
9674:-1.4557899480155839e-01
9675:-1.4302666858473845e-01
9676:-1.4418235118576775e-01
9677:-1.4221272817334107e-01
9678:-1.3934830634707115e-01
9679:-1.3693134753567371e-01
9680:-1.5461824973674154e-01
9681:-1.5145079277623744e-01
9682:-1.4708091895893727e-01
9683:-1.4355488359466825e-01
9684:-1.4910753629703424e-01
9685:-1.4609424666030352e-01
9686:-1.4193107659708845e-01
9687:-1.3856734843642041e-01
9688:-1.4158794885828005e-01
9689:-1.3876940435928964e-01
9690:-1.3486898901016417e-01
9691:-1.3171268178523837e-01
9692:-1.3556755356547195e-01
9693:-1.3289389197164214e-01
9694:-1.2919015457321292e-01
9695:-1.2618989769976502e-01
9696:-1.4161633559605452e-01
9697:-1.3789807347857769e-01
9698:-1.3289909138928302e-01
9699:-1.2895839195342437e-01
9700:-1.3671651548929026e-01
9701:-1.3316422758793356e-01
9702:-1.2838379426500082e-01
9703:-1.2461163180916411e-01
9704:-1.2997428713890602e-01
9705:-1.2663533961324205e-01
9706:-1.2213698213939594e-01
9707:-1.1858325003155663e-01
9708:-1.2453633959820155e-01
9709:-1.2135882259700928e-01
9710:-1.1707482813926726e-01
9711:-1.1368780925647051e-01
9712:-1.2682238694451292e-01
9713:-1.2277585105067142e-01
9714:-1.1742970852149005e-01
9715:-1.1328379745496726e-01
9716:-1.2256562699177423e-01
9717:-1.1868762727372628e-01
9718:-1.1356025903200410e-01
9719:-1.0958087571242198e-01
9720:-1.1665421986701555e-01
9721:-1.1299595507686647e-01
9722:-1.0815507747836099e-01
9723:-1.0439463671549555e-01
9724:-1.1184831755356348e-01
9725:-1.0835874447073771e-01
9726:-1.0373869957693753e-01
9727:-1.0014763478457293e-01
9728:-1.1105949473671635e-01
9729:-1.0688417826828878e-01
9730:-1.0144069709706097e-01
9731:-9.7273186200536321e-02
9732:-1.0744480056676596e-01
9733:-1.0343358141222730e-01
9734:-9.8200885205545291e-02
9735:-9.4192048168676087e-02
9736:-1.0237483859334338e-01
9737:-9.8580359057657704e-02
9738:-9.3626999501406252e-02
9739:-8.9829171762234025e-02
9740:-9.8217985432587640e-02
9741:-9.4591904355497747e-02
9742:-8.9856299012662705e-02
9743:-8.6223525314393396e-02
9744:-9.5055638845603085e-02
9745:-9.0923744620852592e-02
9746:-8.5595371010159849e-02
9747:-8.1559770051808783e-02
9748:-9.2057924793609275e-02
9749:-8.8080133173082137e-02
9750:-8.2947769108329197e-02
9751:-7.9058329079133058e-02
9752:-8.7806255808859437e-02
9753:-8.4034413915513306e-02
9754:-7.9164984406866853e-02
9755:-7.5472313673945787e-02
9756:-8.4287801487347727e-02
9757:-8.0677808981337487e-02
9758:-7.6015700701553252e-02
9759:-7.2478671789080337e-02
9760:-7.9427488231176735e-02
9761:-7.5480042724414373e-02
9762:-7.0438634735335931e-02
9763:-6.6657582007482036e-02
9764:-7.7002430288037410e-02
9765:-7.3195313074146590e-02
9766:-6.8330855658419801e-02
9767:-6.4680515996793669e-02
9768:-7.3519480044955343e-02
9769:-6.9902100714711188e-02
9770:-6.5277666321672784e-02
9771:-6.1805237293235581e-02
9772:-7.0607524661897375e-02
9773:-6.7140816372482218e-02
9774:-6.2707559551214001e-02
9775:-5.9377288291693552e-02
9776:-6.4672749909300789e-02
9777:-6.1020237392521340e-02
9778:-5.6397879709295280e-02
9779:-5.2963520213698705e-02
9780:-6.2763540158735004e-02
9781:-5.9234914584462089e-02
9782:-5.4767306040324412e-02
9783:-5.1446154851607195e-02
9784:-5.9980840842048265e-02
9785:-5.6621649758555458e-02
9786:-5.2366466826343376e-02
9787:-4.9201306266866196e-02
9788:-5.7627030837050702e-02
9789:-5.4403815302160409e-02
9790:-5.0319657442107479e-02
9791:-4.7280495573635915e-02
9792:-5.1172074020128480e-02
9793:-4.7894941908823679e-02
9794:-4.3785562126864595e-02
9795:-4.0761633627202212e-02
9796:-4.9713092411155069e-02
9797:-4.6541879035953311e-02
9798:-4.2563448340425115e-02
9799:-3.9634222752143580e-02
9800:-4.7548896158884441e-02
9801:-4.4524344308203768e-02
9802:-4.0727917705727562e-02
9803:-3.7930868752134146e-02
9804:-4.5693373324071945e-02
9805:-4.2787791487836180e-02
9806:-3.9139499170546085e-02
9807:-3.6450426453795849e-02
9808:-3.9194675325408615e-02
9809:-3.6345981331132884e-02
9810:-3.2808559602952925e-02
9811:-3.0232562084914410e-02
9812:-3.8115699004103172e-02
9813:-3.5354159782743907e-02
9814:-3.1923090310833978e-02
9815:-2.9422908062384689e-02
9816:-3.6480149666314056e-02
9817:-3.3840989058114238e-02
9818:-3.0559982720451757e-02
9819:-2.8167354997811055e-02
9820:-3.5055244114259226e-02
9821:-3.2516575952259277e-02
9822:-2.9359297467601839e-02
9823:-2.7055745851576146e-02
9824:-2.8907399967910752e-02
9825:-2.6514861864435819e-02
9826:-2.3576410238611799e-02
9827:-2.1462165503262437e-02
9828:-2.8136121083809942e-02
9829:-2.5811935920043320e-02
9830:-2.2955482136503131e-02
9831:-2.0898540137307981e-02
9832:-2.6935221477280964e-02
9833:-2.4708755002411105e-02
9834:-2.1970284811223550e-02
9835:-1.9996426138894012e-02
9836:-2.5869021305588460e-02
9837:-2.3724000755256699e-02
9838:-2.1084388591189305e-02
9839:-1.9180577920826149e-02
9840:-2.0383769730820830e-02
9841:-1.8452330767994914e-02
9842:-1.6110804522832058e-02
9843:-1.4450316926676102e-02
9844:-1.9848718500278664e-02
9845:-1.7967454093415602e-02
9846:-1.5684692154602817e-02
9847:-1.4064116199800081e-02
9848:-1.8988277944825289e-02
9849:-1.7180629547406748e-02
9850:-1.4984986604570165e-02
9851:-1.3424338104059429e-02
9852:-1.8207729943976486e-02
9853:-1.6462728438539340e-02
9854:-1.4341809715280670e-02
9855:-1.2833050778385207e-02
9856:-1.3612179860342489e-02
9857:-1.2125566758020914e-02
9858:-1.0351828106075463e-02
9859:-9.1167375357288638e-03
9860:-1.3245452496181599e-02
9861:-1.1792374947659008e-02
9862:-1.0056614258998342e-02
9863:-8.8462475997532711e-03
9864:-1.2635209294898765e-02
9865:-1.1233515420056480e-02
9866:-9.5570364144672085e-03
9867:-8.3862211889062909e-03
9868:-1.2069683337355251e-02
9869:-1.0713135432366067e-02
9870:-9.0894203068525130e-03
9871:-7.9543931886240614e-03
9872:-8.5016122624899174e-03
9873:-7.4233424359801542e-03
9874:-6.1616750661172559e-03
9875:-5.3030454530052177e-03
9876:-8.2427879917752345e-03
9877:-7.1841646251774652e-03
9878:-5.9439719052096288e-03
9879:-5.0987313951257164e-03
9880:-7.8018125958474746e-03
9881:-6.7759104151830420e-03
9882:-5.5727829475215179e-03
9883:-4.7517858763744814e-03
9884:-7.3874538745168873e-03
9885:-6.3919110177112952e-03
9886:-5.2238771041948628e-03
9887:-4.4264243423562024e-03
9888:-4.8826385190059536e-03
9889:-4.1553890915341516e-03
9890:-3.3225650217267098e-03
9891:-2.7700216413706464e-03
9892:-4.6844545849845723e-03
9893:-3.9677502762117314e-03
9894:-3.1472212740792458e-03
9895:-2.6031967323478502e-03
9896:-4.3490603602838263e-03
9897:-3.6526995819757286e-03
9898:-2.8566654282681041e-03
9899:-2.3301454231900781e-03
9900:-4.0351393975662127e-03
9901:-3.3591281043687743e-03
9902:-2.5878998456000286e-03
9903:-2.0792982025947745e-03
9904:-2.5044069337477322e-03
9905:-2.0476695016543194e-03
9906:-1.5271856495262599e-03
9907:-1.1823734352987400e-03
9908:-2.3419481614662778e-03
9909:-1.8946749084071850e-03
9910:-1.3897878697617368e-03
9911:-1.0598307790632617e-03
9912:-2.0779769407634910e-03
9913:-1.6494568587010557e-03
9914:-1.1734421693835181e-03
9915:-8.6956154947978657e-04
9916:-1.8364515224626053e-03
9917:-1.4267167368739128e-03
9918:-9.7858409188866661e-04
9919:-6.9912323430736058e-04
9920:-1.0158022152799236e-03
9921:-7.1777031110084307e-04
9922:-3.4863043285021097e-04
9923:-7.5784516384875240e-05
9924:-9.0245429121872363e-04
9925:-6.2657392402551892e-04
9926:-2.9717563130439331e-04
9927:-6.3792025320981980e-05
9928:-7.2783358440244755e-04
9929:-4.8817629457057594e-04
9930:-2.2122809189524179e-04
9931:-4.8317141069167054e-05
9932:-5.7177725584417797e-04
9933:-3.6458720559788793e-04
9934:-1.5216216973845868e-04
9935:-3.1149338477723561e-05
9936:-2.0622153534410504e-03
9937:-9.8138780237569737e-03
9938:-1.9856647886821531e-02
9939:-2.7496297527759998e-02
9940:-1.9535080724653441e-03
9941:-9.2975086753279337e-03
9942:-1.8811678679738746e-02
9943:-2.6049962993903490e-02
9944:-1.8091124287366934e-03
9945:-8.6125935472595450e-03
9946:-1.7425702346648215e-02
9947:-2.4131406680877907e-02
9948:-1.6963880940010334e-03
9949:-8.0778258421643993e-03
9950:-1.6343496979952438e-02
9951:-2.2633201282399738e-02
9952:-3.1543409092074218e-02
9953:-3.9042583708970187e-02
9954:-4.8627411353704596e-02
9955:-5.5818388661256761e-02
9956:-2.9884977887008869e-02
9957:-3.6991332510318803e-02
9958:-4.6074995187567760e-02
9959:-5.2891386812685667e-02
9960:-2.7684846888699703e-02
9961:-3.4269292047818201e-02
9962:-4.2686431452814158e-02
9963:-4.9004289491373858e-02
9964:-2.5966622156918411e-02
9965:-3.2142960575082341e-02
9966:-4.0038437783531576e-02
9967:-4.5965863987036913e-02
9968:-5.9592163952759680e-02
9969:-6.6517103596729521e-02
9970:-7.5233973142870766e-02
9971:-8.1669620243931929e-02
9972:-5.6469232909288097e-02
9973:-6.3034967120438462e-02
9974:-7.1301102339397723e-02
9975:-7.7406029343312435e-02
9976:-5.2321288623687019e-02
9977:-5.8408519163568345e-02
9978:-6.6073491011991586e-02
9979:-7.1736609442295304e-02
9980:-4.9078518768856737e-02
9981:-5.4790686748523700e-02
9982:-6.1983905119634516e-02
9983:-6.7299786556940494e-02
9984:-8.5009718812021670e-02
9985:-9.1071818444073735e-02
9986:-9.8570310284550627e-02
9987:-1.0400275315970858e-01
9988:-8.0575455741788482e-02
9989:-8.6328856044897540e-02
9990:-9.3447982080810774e-02
9991:-9.8608091672295173e-02
9992:-7.4677723745364327e-02
9993:-8.0017420909472475e-02
9994:-8.6626711921210506e-02
9995:-9.1419778850978295e-02
9996:-7.0061228678192616e-02
9997:-7.5074837661149391e-02
9998:-8.1281287284961687e-02
9999:-8.5783625736572999e-02
10000:-1.0678465309956647e-01
10001:-1.1176512284817214e-01
10002:-1.1778895483218686e-01
10003:-1.2204402498094363e-01
10004:-1.0125156831554362e-01
10005:-1.0598547824721959e-01
10006:-1.1171397872224700e-01
10007:-1.1576325460635742e-01
10008:-9.3876328258501840e-02
10009:-9.8276587957815367e-02
10010:-1.0360400400380515e-01
10011:-1.0737259607828321e-01
10012:-8.8091866569746324e-02
10013:-9.2226909661123166e-02
10014:-9.7234474184111117e-02
10015:-1.0077837136093493e-01
10016:-1.2418286160279715e-01
10017:-1.2793898838939544e-01
10018:-1.3233463155969050e-01
10019:-1.3531960111792501e-01
10020:-1.1779981785812643e-01
10021:-1.2137800911214422e-01
10022:-1.2556900592327366e-01
10023:-1.2841828499216570e-01
10024:-1.0926920126512894e-01
10025:-1.1260297720135065e-01
10026:-1.1651097736176093e-01
10027:-1.1917101058840425e-01
10028:-1.0256260379788726e-01
10029:-1.0569950182109786e-01
10030:-1.0937824254408378e-01
10031:-1.1188386686941840e-01
10032:-1.3677474803124481e-01
10033:-1.3924628634501990e-01
10034:-1.4196606541691181e-01
10035:-1.4366777874073786e-01
10036:-1.2980862628321871e-01
10037:-1.3217231215175756e-01
10038:-1.3477816389273228e-01
10039:-1.3641297569188410e-01
10040:-1.2047032775792800e-01
10041:-1.2268130328137675e-01
10042:-1.2512317010935414e-01
10043:-1.2665916733327567e-01
10044:-1.1310848165360800e-01
10045:-1.1519330267836161e-01
10046:-1.1749790890680645e-01
10047:-1.1894953493422622e-01
10048:-1.4444037489234945e-01
10049:-1.4564383515018695e-01
10050:-1.4673690163381287e-01
10051:-1.4721380590276628e-01
10052:-1.3715708969126739e-01
10053:-1.3831987866161777e-01
10054:-1.3938441102765767e-01
10055:-1.3985787348153705e-01
10056:-1.2736006420262483e-01
10057:-1.2845869533186216e-01
10058:-1.2947212814655307e-01
10059:-1.2993097805904594e-01
10060:-1.1961279345543542e-01
10061:-1.2065401738349725e-01
10062:-1.2161806349114569e-01
10063:-1.2205831458313170e-01
10064:-1.4734215867164355e-01
10065:-1.4736109715898116e-01
10066:-1.4695840358850415e-01
10067:-1.4632709790001233e-01
10068:-1.3999077038262780e-01
10069:-1.4002929764812999e-01
10070:-1.3967326350783058e-01
10071:-1.3909349003796515e-01
10072:-1.3006461112379034e-01
10073:-1.3011945254778309e-01
10074:-1.2981318623340724e-01
10075:-1.2929281077945717e-01
10076:-1.2218873826067941e-01
10077:-1.2224939765738214e-01
10078:-1.2197330085053742e-01
10079:-1.2149287313608913e-01
10080:-1.4587882091386067e-01
10081:-1.4484838755808502e-01
10082:-1.4314177606724460e-01
10083:-1.4156087169305656e-01
10084:-1.3867809931824038e-01
10085:-1.3771854952432805e-01
10086:-1.3612159541029448e-01
10087:-1.3463730662547260e-01
10088:-1.2891638032061736e-01
10089:-1.2804240910570980e-01
10090:-1.2658055006037400e-01
10091:-1.2521702198172374e-01
10092:-1.2114351290735209e-01
10093:-1.2033030149939371e-01
10094:-1.1896651414030626e-01
10095:-1.1769200845879085e-01
10096:-1.4062438024319071e-01
10097:-1.3871549976983932e-01
10098:-1.3593683271656593e-01
10099:-1.3359033145320556e-01
10100:-1.3375653536037166e-01
10101:-1.3195913803034950e-01
10102:-1.2933878456301690e-01
10103:-1.2712296889379732e-01
10104:-1.2440643316321613e-01
10105:-1.2275045060483654e-01
10106:-1.2033265670131521e-01
10107:-1.1828518226385601e-01
10108:-1.1693357101438266e-01
10109:-1.1538341112297672e-01
10110:-1.1311847256105687e-01
10111:-1.1119885164618487e-01
10112:-1.3226566480233370e-01
10113:-1.2966789173309368e-01
10114:-1.2606757165949498e-01
10115:-1.2314963132089696e-01
10116:-1.2587106640763837e-01
10117:-1.2341475184987538e-01
10118:-1.2000782232458282e-01
10119:-1.1724426051310161e-01
10120:-1.1712735639225150e-01
10121:-1.1485455695369799e-01
10122:-1.1169969656326768e-01
10123:-1.0913821973282317e-01
10124:-1.1011272579052460e-01
10125:-1.0798026306536491e-01
10126:-1.0501906139368722e-01
10127:-1.0261349740782978e-01
10128:-1.2154090623991798e-01
10129:-1.1844886797008027e-01
10130:-1.1427871635640133e-01
10131:-1.1098049271710635e-01
10132:-1.1571977040057366e-01
10133:-1.1278866427824916e-01
10134:-1.0883345299948695e-01
10135:-1.0570329782566251e-01
10136:-1.0772429498619174e-01
10137:-1.0500504099320407e-01
10138:-1.0133389191905355e-01
10139:-9.8426608410916563e-02
10140:-1.0128510178833283e-01
10141:-9.8730165769839492e-02
10142:-9.5280124324507567e-02
10143:-9.2546843886621946e-02
10144:-1.0918878279405410e-01
10145:-1.0578939338656944e-01
10146:-1.0128769634693853e-01
10147:-9.7787600236184130e-02
10148:-1.0400216232632715e-01
10149:-1.0077395447287101e-01
10150:-9.6497338286120143e-02
10151:-9.3170580210803433e-02
10152:-9.6845820842621069e-02
10153:-9.3845494614657021e-02
10154:-8.9869343544986852e-02
10155:-8.6774606573488941e-02
10156:-9.1060181855182637e-02
10157:-8.8238402649183562e-02
10158:-8.4498288479939926e-02
10159:-8.1586289548494728e-02
10160:-9.5906431816600246e-02
10161:-9.2371041568523674e-02
10162:-8.7752962795847156e-02
10163:-8.4209469978771490e-02
10164:-9.1381906894147047e-02
10165:-8.8019785178457821e-02
10166:-8.3626699293542550e-02
10167:-8.0254448875715506e-02
10168:-8.5109965744924257e-02
10169:-8.1980638068961914e-02
10170:-7.7890664074132532e-02
10171:-7.4749690351740145e-02
10172:-8.0019501291246228e-02
10173:-7.7074143977460319e-02
10174:-7.3224280178702930e-02
10175:-7.0266908722665861e-02
10176:-8.2320980608828545e-02
10177:-7.8798788070707809e-02
10178:-7.4249369205140275e-02
10179:-7.0797097224165745e-02
10180:-7.8456662714706235e-02
10181:-7.5103247063807305e-02
10182:-7.0770789250297186e-02
10183:-6.7481958792778532e-02
10184:-7.3074594855080915e-02
10185:-6.9949802629992258e-02
10186:-6.5911871492950927e-02
10187:-6.2845401914202126e-02
10188:-6.8689342131019654e-02
10189:-6.5746523118766026e-02
10190:-6.1943484343494504e-02
10191:-5.9054709476815084e-02
10192:-6.8970486382896407e-02
10193:-6.5586025203030709e-02
10194:-6.1257324769821125e-02
10195:-5.8004955175805069e-02
10196:-6.5741322261495247e-02
10197:-6.2515813961057015e-02
10198:-5.8389524922530932e-02
10199:-5.5288219290934214e-02
10200:-6.1221907543978694e-02
10201:-5.8213306191808922e-02
10202:-5.4363847541671055e-02
10203:-5.1469600001459732e-02
10204:-5.7524953731699545e-02
10205:-5.4690152840671490e-02
10206:-5.1062935863912827e-02
10207:-4.8335226541365552e-02
10208:-5.6295380993511619e-02
10209:-5.3146874736922006e-02
10210:-4.9156859586685843e-02
10211:-4.6187186679564889e-02
10212:-5.3657623156562598e-02
10213:-5.0654290619508012e-02
10214:-4.6847487693016159e-02
10215:-4.4013264349793156e-02
10216:-4.9947410117980644e-02
10217:-4.7143603141725499e-02
10218:-4.3589114144736783e-02
10219:-4.0941828545604200e-02
10220:-4.6900333627528386e-02
10221:-4.4257384067303972e-02
10222:-4.0906674842395019e-02
10223:-3.8410655341363675e-02
10224:-4.4636116855073960e-02
10225:-4.1796313879884535e-02
10226:-3.8230090696277662e-02
10227:-3.5600970632057867e-02
10228:-4.2532547440689746e-02
10229:-3.9821250431692573e-02
10230:-3.6415641039607954e-02
10231:-3.3904071571318091e-02
10232:-3.9558353771566204e-02
10233:-3.7024941110588877e-02
10234:-3.3842171913100065e-02
10235:-3.1494090141999394e-02
10236:-3.7105970962515077e-02
10237:-3.4716870395161345e-02
10238:-3.1715234924858206e-02
10239:-2.9500312508356524e-02
10240:-3.4236672764432236e-02
10241:-3.1753971154658882e-02
10242:-2.8665759471657115e-02
10243:-2.6412057687772869e-02
10244:-3.2600408282285998e-02
10245:-3.0227714812770898e-02
10246:-2.7275522781164893e-02
10247:-2.5120207535143633e-02
10248:-3.0274897163506467e-02
10249:-2.8055693534063512e-02
10250:-2.5293760785037544e-02
10251:-2.3276453341860088e-02
10252:-2.8350015892873285e-02
10253:-2.6256168363866864e-02
10254:-2.3649954891978509e-02
10255:-2.1745872095362693e-02
10256:-2.5250791581370988e-02
10257:-2.3151515808746994e-02
10258:-2.0567595398044040e-02
10259:-1.8703384235892705e-02
10260:-2.4009267262037597e-02
10261:-2.2000561188145636e-02
10262:-1.9527190240651728e-02
10263:-1.7741817603449828e-02
10264:-2.2236250809828422e-02
10265:-2.0355102863567797e-02
10266:-1.8037937105085489e-02
10267:-1.6364373726296566e-02
10268:-2.0763805169032985e-02
10269:-1.8987661482476714e-02
10270:-1.6799421873077494e-02
10271:-1.5218416237967660e-02
10272:-1.7750544291534640e-02
10273:-1.6041139485438123e-02
10274:-1.3962858604161492e-02
10275:-1.2483855778515225e-02
10276:-1.6828898329030343e-02
10277:-1.5190661914021601e-02
10278:-1.3197922350802317e-02
10279:-1.1778865604541900e-02
10280:-1.5508222989487624e-02
10281:-1.3971445616759151e-02
10282:-1.2101177124179735e-02
10283:-1.0768384512008129e-02
10284:-1.4409361115423720e-02
10285:-1.2956925155983658e-02
10286:-1.1188812581757027e-02
10287:-9.9282656693768390e-03
10288:-1.1735317599873861e-02
10289:-1.0404854781247985e-02
10290:-8.8118261923750621e-03
10291:-7.6977826333884617e-03
10292:-1.1060297790455947e-02
10293:-9.7827143494361498e-03
10294:-8.2522154546035755e-03
10295:-7.1811968250473524e-03
10296:-1.0093112535588736e-02
10297:-8.8921881399948600e-03
10298:-7.4528697889278345e-03
10299:-6.4450256829063340e-03
10300:-9.2893637826308578e-03
10301:-8.1529998615916671e-03
10302:-6.7907914097654854e-03
10303:-5.8366324949355574e-03
10304:-7.1411516140847606e-03
10305:-6.1636176025539327e-03
10306:-5.0165843773137628e-03
10307:-4.2333718389958681e-03
10308:-6.6458022904523359e-03
10309:-5.7055047917672370e-03
10310:-4.6021654180583398e-03
10311:-3.8488119418566666e-03
10312:-5.9409749992167683e-03
10313:-5.0558513314502961e-03
10314:-4.0176829442641832e-03
10315:-3.3092314562263177e-03
10316:-5.3593128016913632e-03
10317:-4.5213661924369715e-03
10318:-3.5391680330496495e-03
10319:-2.8694875644541674e-03
10320:-3.8490614210781914e-03
10321:-3.1854967031599009e-03
10322:-2.4294938572268919e-03
10323:-1.9319175250148838e-03
10324:-3.4792112421621838e-03
10325:-2.8419423790228488e-03
10326:-2.1181234744558257e-03
10327:-1.6438202734243581e-03
10328:-2.9618836195152614e-03
10329:-2.3644103175034566e-03
10330:-1.6891890792529512e-03
10331:-1.2498572790936718e-03
10332:-2.5414262709921301e-03
10333:-1.9783959760581158e-03
10334:-1.3450419651161321e-03
10335:-9.3562754378306401e-04
10336:-1.6948050186558021e-03
10337:-1.2964898943570819e-03
10338:-8.6500722608374590e-04
10339:-5.9990613733403172e-04
10340:-1.4187743193889038e-03
10341:-1.0441963840567929e-03
10342:-6.4669561744830492e-04
10343:-4.1043846503431434e-04
10344:-1.0428333676722093e-03
10345:-7.0309458522598174e-04
10346:-3.5418183516479134e-04
10347:-1.5822092201039846e-04
10348:-7.4391086432385855e-04
10349:-4.3326200144345507e-04
10350:-1.2387888972345914e-04
10351:4.0063451003124365e-05
10352:-4.8093721887895589e-04
10353:-2.9242152734474292e-04
10354:-1.1093983978735411e-04
10355:-1.9124121553479662e-05
10356:-3.0813559452263443e-04
10357:-1.5640290686796198e-04
10358:-3.5293495450507900e-05
10359:-1.4561719604143457e-07
10360:-7.8885179753773973e-05
10361:2.2713465587185295e-05
10362:6.2328181745634659e-05
10363:2.1330938951190342e-05
10364:1.0139869471815461e-04
10365:1.6400620011394117e-04
10366:1.4059015216826048e-04
10367:4.0791844180833991e-05
10368:-1.6355145972488340e-03
10369:-7.7887637905396691e-03
10370:-1.5758461459653945e-02
10371:-2.1823236554618895e-02
10372:-1.5188228575185965e-03
10373:-7.2340035666657934e-03
10374:-1.4635474289052890e-02
10375:-2.0268439409634183e-02
10376:-1.3611231863001976e-03
10377:-6.4836578368989792e-03
10378:-1.3116264653929965e-02
10379:-1.8164948872324421e-02
10380:-1.2356765366891714e-03
10381:-5.8868668291226726e-03
10382:-1.1907821813202338e-02
10383:-1.6491644207582881e-02
10384:-2.5037676038162909e-02
10385:-3.0993227945769516e-02
10386:-3.8606332128428879e-02
10387:-4.4322337641531387e-02
10388:-2.3254477743081436e-02
10389:-2.8786120815363050e-02
10390:-3.5856878815067515e-02
10391:-4.1166653231608070e-02
10392:-2.0841957858469394e-02
10393:-2.5799927750738336e-02
10394:-3.2136414882106411e-02
10395:-3.6895912521078156e-02
10396:-1.8922783716679537e-02
10397:-2.3424252772214323e-02
10398:-2.9176240032864963e-02
10399:-3.3497510003893505e-02
10400:-4.7324318340268852e-02
10401:-5.2833275576451379e-02
10402:-5.9770706219494804e-02
10403:-6.4898133714970732e-02
10404:-4.3955914850431328e-02
10405:-4.9074103220093229e-02
10406:-5.5519311392735853e-02
10407:-6.0283855980822885e-02
10408:-3.9396902320105162e-02
10409:-4.3985178647053230e-02
10410:-4.9762279989930346e-02
10411:-5.4033887423167011e-02
10412:-3.5768842445395299e-02
10413:-3.9934719947987349e-02
10414:-4.5178862182322858e-02
10415:-4.9056999511737177e-02
10416:-6.7561987399024220e-02
10417:-7.2398321842589847e-02
10418:-7.8385470360111148e-02
10419:-8.2729322172759814e-02
10420:-6.2759721312498282e-02
10421:-6.7254410151974864e-02
10422:-7.2818593549634089e-02
10423:-7.6856502347062997e-02
10424:-5.6254276154954597e-02
10425:-6.0284411195896746e-02
10426:-6.5272907525321416e-02
10427:-6.8893927014944109e-02
10428:-5.1073391124809853e-02
10429:-5.4732404269797363e-02
10430:-5.9260604807209370e-02
10431:-6.2547959368017436e-02
10432:-8.4956638738437423e-02
10433:-8.8946804056849627e-02
10434:-9.3779307645122781e-02
10435:-9.7199945185483860e-02
10436:-7.8927496094890998e-02
10437:-8.2637551230663228e-02
10438:-8.7131091189198970e-02
10439:-9.0312672809904848e-02
10440:-7.0751718550218209e-02
10441:-7.4079316676871620e-02
10442:-7.8109196699905389e-02
10443:-8.0963117630738629e-02
10444:-6.4234976557137308e-02
10445:-6.7255948547333799e-02
10446:-7.0913552812181160e-02
10447:-7.3503967663259298e-02
10448:-9.8922426499463964e-02
10449:-1.0195093582845235e-01
10450:-1.0550305229580940e-01
10451:-1.0792305172689523e-01
10452:-9.1915245683056146e-02
10453:-9.4733023439230304e-02
10454:-9.8038412949626189e-02
10455:-1.0029111205025991e-01
10456:-8.2401096013966793e-02
10457:-8.4929164363409221e-02
10458:-8.7894437031170281e-02
10459:-8.9915725674863015e-02
10460:-7.4809423244338411e-02
10461:-7.7103939621723447e-02
10462:-7.9794415282995662e-02
10463:-8.1628219653184439e-02
10464:-1.0910610723053417e-01
10465:-1.1112048973251762e-01
10466:-1.1334790836847611e-01
10467:-1.1475158850638052e-01
10468:-1.0139278356666127e-01
10469:-1.0326889124490052e-01
10470:-1.0534407673646318e-01
10471:-1.0665256391343518e-01
10472:-9.0904516293738510e-02
10473:-9.2588264799169595e-02
10474:-9.4450485144372973e-02
10475:-9.5624755231910663e-02
10476:-8.2525352859123782e-02
10477:-8.4052537819130940e-02
10478:-8.5740654260072408e-02
10479:-8.6804526618188729e-02
10480:-1.1539324033150504e-01
10481:-1.1640106616412207e-01
10482:-1.1733534848461243e-01
10483:-1.1776322314929387e-01
10484:-1.0725104925226601e-01
10485:-1.0819162291173987e-01
10486:-1.0906473394092989e-01
10487:-1.0946579711812197e-01
10488:-9.6161938323681306e-02
10489:-9.7006147500214246e-02
10490:-9.7789609137387573e-02
10491:-9.8149196066919603e-02
10492:-8.7291007514406466e-02
10493:-8.8054976164191209e-02
10494:-8.8762543594073692e-02
10495:-8.9085687517033690e-02
10496:-1.1789068967980325e-01
10497:-1.1795225728590385e-01
10498:-1.1768965752391281e-01
10499:-1.1722874195293363e-01
10500:-1.0958597464597736e-01
10501:-1.0964633548931667e-01
10502:-1.0940595831284108e-01
10503:-1.0897980169670965e-01
10504:-9.8256766617860730e-02
10505:-9.8310480852042040e-02
10506:-9.8093931080754065e-02
10507:-9.7710265687992015e-02
10508:-8.9181412181854963e-02
10509:-8.9226529485003425e-02
10510:-8.9024837656887679e-02
10511:-8.8672014737511434e-02
10512:-1.1689293012130132e-01
10513:-1.1611060621434734e-01
10514:-1.1479745052303227e-01
10515:-1.1356938172360438e-01
10516:-1.0866861070648667e-01
10517:-1.0794312943619974e-01
10518:-1.0672426185127033e-01
10519:-1.0558330994687433e-01
10520:-9.7430065177162323e-02
10521:-9.6777414642385984e-02
10522:-9.5681318314497887e-02
10523:-9.4654909240669910e-02
10524:-8.8414961003800210e-02
10525:-8.7817612798259656e-02
10526:-8.6816097837958253e-02
10527:-8.5878684119826326e-02
10528:-1.1283829093918794e-01
10529:-1.1134386826612637e-01
10530:-1.0915986154786232e-01
10531:-1.0730820391202713e-01
10532:-1.0490370320231768e-01
10533:-1.0351453146919255e-01
10534:-1.0148391330456256e-01
10535:-9.9761439316655473e-02
10536:-9.4043303236336265e-02
10537:-9.2793700907215934e-02
10538:-9.0967470685457713e-02
10539:-8.9417793426210146e-02
10540:-8.5320119538187952e-02
10541:-8.4179763379196970e-02
10542:-8.2514194931215035e-02
10543:-8.1100803513552006e-02
10544:-1.0626027368757131e-01
10545:-1.0420273264729181e-01
10546:-1.0134522805779277e-01
10547:-9.9023372774834070e-02
10548:-9.8786231328572754e-02
10549:-9.6871590609911379e-02
10550:-9.4212322856795885e-02
10551:-9.2050790053924234e-02
10552:-8.8540073418187246e-02
10553:-8.6817440357600001e-02
10554:-8.4425308507422775e-02
10555:-8.2480318469195138e-02
10556:-8.0300120431867447e-02
10557:-7.8729508302960258e-02
10558:-7.6549387168973193e-02
10559:-7.4776577568854127e-02
10560:-9.7740972985452729e-02
10561:-9.5274543263440301e-02
10562:-9.1943843865263095e-02
10563:-8.9304646267914331e-02
10564:-9.0856575508871745e-02
10565:-8.8560003641040497e-02
10566:-8.5458657145902089e-02
10567:-8.3000494997257035e-02
10568:-8.1405364822593404e-02
10569:-7.9338798910175215e-02
10570:-7.6548573549847967e-02
10571:-7.4336389280466222e-02
10572:-7.3796549977120485e-02
10573:-7.1913257384229434e-02
10574:-6.9371320704203654e-02
10575:-6.7355715246689860e-02
10576:-8.7868930104122153e-02
10577:-8.5143897803618501e-02
10578:-8.1531891565373896e-02
10579:-7.8719230191482706e-02
10580:-8.1662886911174654e-02
10581:-7.9124332161520414e-02
10582:-7.5759559796072587e-02
10583:-7.3138819179621367e-02
10584:-7.3132221536616776e-02
10585:-7.0847593359048819e-02
10586:-6.7820002846613187e-02
10587:-6.5461356217191610e-02
10588:-6.6258284886673180e-02
10589:-6.4176959808294187e-02
10590:-6.1419666157949006e-02
10591:-5.9271344913211781e-02
10592:-7.7205690078815517e-02
10593:-7.4360541561082488e-02
10594:-7.0641643395694287e-02
10595:-6.7784538981228437e-02
10596:-7.1728221786628521e-02
10597:-6.9076919653147495e-02
10598:-6.5611584964385655e-02
10599:-6.2948771213155494e-02
10600:-6.4191450252222781e-02
10601:-6.1805274865840101e-02
10602:-5.8687123174601168e-02
10603:-5.6290620187518056e-02
10604:-5.8114409948695017e-02
10605:-5.5941256892056125e-02
10606:-5.3102317157152953e-02
10607:-5.0920182315148423e-02
10608:-6.6260274179470058e-02
10609:-6.3416986029491848e-02
10610:-5.9742576088220582e-02
10611:-5.6951225679158737e-02
10612:-6.1527848030069242e-02
10613:-5.8877647430599062e-02
10614:-5.5452992297155952e-02
10615:-5.2850963016047435e-02
10616:-5.5011446045872207e-02
10617:-5.2626293893283459e-02
10618:-4.9544838328411528e-02
10619:-4.7203218752945662e-02
10620:-4.9755178439868132e-02
10621:-4.7583634868325175e-02
10622:-4.4779003347271758e-02
10623:-4.2647589727302627e-02
10624:-5.5472905386112117e-02
10625:-5.2733542120335014e-02
10626:-4.9228495116468818e-02
10627:-4.6592430732076723e-02
10628:-5.1472646236711050e-02
10629:-4.8918921120217243e-02
10630:-4.5651671049341230e-02
10631:-4.3194112428090431e-02
10632:-4.5962538715165015e-02
10633:-4.3664450180199328e-02
10634:-4.0724936040678582e-02
10635:-3.8513610211379695e-02
10636:-4.1518063440627889e-02
10637:-3.9426516123602061e-02
10638:-3.6751978453986200e-02
10639:-3.4739876280290530e-02
10640:-4.5205609445172407e-02
10641:-4.2651298644455216e-02
10642:-3.9412998565061287e-02
10643:-3.7000513579022065e-02
10644:-4.1900969460518786e-02
10645:-3.9519475295405858e-02
10646:-3.6500499214493783e-02
10647:-3.4251124093932682e-02
10648:-3.7349765117385726e-02
10649:-3.5206939807927294e-02
10650:-3.2491133408967171e-02
10651:-3.0467428652455827e-02
10652:-3.3680695935770270e-02
10653:-3.1731160402831048e-02
10654:-2.9261053533495004e-02
10655:-2.7420369869975977e-02
10656:-3.5739373580235684e-02
10657:-3.3430085212875583e-02
10658:-3.0528735144914804e-02
10659:-2.8387620857323582e-02
10660:-3.3075052255416307e-02
10661:-3.0921754288309646e-02
10662:-2.8216548367493186e-02
10663:-2.6219905878597807e-02
10664:-2.9409123884725358e-02
10665:-2.7471893145979889e-02
10666:-2.5038609239295039e-02
10667:-2.3242447935165878e-02
10668:-2.6457620493076990e-02
10669:-2.4695781592232392e-02
10670:-2.2483385817178625e-02
10671:-2.0850208753491445e-02
10672:-2.7275542348526031e-02
10673:-2.5251284970869828e-02
10674:-2.2731623983609704e-02
10675:-2.0890560652110955e-02
10676:-2.5182677635239813e-02
10677:-2.3294788197680195e-02
10678:-2.0944887419527564e-02
10679:-1.9227552770174100e-02
10680:-2.2309161098055971e-02
10681:-2.0610768353889867e-02
10682:-1.8497026459420970e-02
10683:-1.6952027860341327e-02
10684:-2.0001471048602202e-02
10685:-1.8457303975903235e-02
10686:-1.6535933472806675e-02
10687:-1.5131455532513053e-02
10688:-1.9940883330547925e-02
10689:-1.8223294266236319e-02
10690:-1.6107053518448166e-02
10691:-1.4577821085193614e-02
10692:-1.8341513589291494e-02
10693:-1.6739044417396900e-02
10694:-1.4764505577478007e-02
10695:-1.3337294921307979e-02
10696:-1.6154706321126353e-02
10697:-1.4712850863134183e-02
10698:-1.2936271244737478e-02
10699:-1.1651804989678681e-02
10700:-1.4406524598852243e-02
10701:-1.3095806881351202e-02
10702:-1.1481027073584636e-02
10703:-1.0313375750982682e-02
10704:-1.3795140611014828e-02
10705:-1.2389990230089538e-02
10706:-1.0679257608683950e-02
10707:-9.4593793525567411e-03
10708:-1.2606635070579323e-02
10709:-1.1294827857956623e-02
10710:-9.6975217105941536e-03
10711:-8.5581640720554832e-03
10712:-1.0994013328343800e-02
10713:-9.8130861882965836e-03
10714:-8.3750750707265922e-03
10715:-7.3490081072067120e-03
10716:-9.7152704234632972e-03
10717:-8.6416256256647665e-03
10718:-7.3343418121206115e-03
10719:-6.4013727270193109e-03
10720:-8.8409842814487424e-03
10721:-7.7410675825687926e-03
10722:-6.4224785851966998e-03
10723:-5.4987589099514461e-03
10724:-7.9804177294312568e-03
10725:-6.9528026176887614e-03
10726:-5.7208520679374883e-03
10727:-4.8576842770083313e-03
10728:-6.8285291268251943e-03
10729:-5.9028596657603764e-03
10730:-4.7932355655380251e-03
10731:-4.0157041313408281e-03
10732:-5.9279986631573392e-03
10733:-5.0862303723702438e-03
10734:-4.0773709670327710e-03
10735:-3.3704590882008521e-03
10736:-5.0366212657688729e-03
10737:-4.2255009150654567e-03
10738:-3.2751907662882363e-03
10739:-2.6276508272301330e-03
10740:-4.4257820634713138e-03
10741:-3.6681133589931340e-03
10742:-2.7813671092735016e-03
10743:-2.1779646768203859e-03
10744:-3.6266137890237286e-03
10745:-2.9446297019221968e-03
10746:-2.1478247543267309e-03
10747:-1.6067863456214651e-03
10748:-3.0166993386782658e-03
10749:-2.3971323060198550e-03
10750:-1.6743675453299439e-03
10751:-1.1845285053194061e-03
10752:-2.3106196349723064e-03
10753:-1.7672525888745949e-03
10754:-1.1577008509185299e-03
10755:-7.6520079209675923e-04
10756:-1.8829122542255781e-03
10757:-1.3786078031909374e-03
10758:-8.1611662530677606e-04
10759:-4.5691163254371760e-04
10760:-1.3427353396541196e-03
10761:-8.9330247128535612e-04
10762:-3.9651407372738812e-04
10763:-8.3543834873655841e-05
10764:-9.4586455648738041e-04
10765:-5.4120590525477631e-04
10766:-9.7757132735148196e-05
10767:1.7784287516628500e-04
10768:-5.8209351114463703e-04
10769:-2.8761895049066009e-04
10770:1.7961060603111266e-07
10771:1.4693707110713207e-04
10772:-2.9069561505625153e-04
10773:-2.7627731375416042e-05
10774:2.1906838175771035e-04
10775:3.3381741158609797e-04
10776:5.9313714646606255e-05
10777:2.7966212635269287e-04
10778:4.7222207329281475e-04
10779:5.4639125245059875e-04
10780:3.0189035670185043e-04
10781:4.8845466058931343e-04
10782:6.3972803290951398e-04
10783:6.8432097288142872e-04
10784:1.9870875889234989e-04
10785:2.4068548103195689e-04
10786:1.8399142509174815e-04
10787:5.3142529802739318e-05
10788:3.6804798323675523e-04
10789:3.7259815834377117e-04
10790:2.5612529077549158e-04
10791:6.9770723847705182e-05
10792:5.5902149725049158e-04
10793:5.1900089041109331e-04
10794:3.3375797075403110e-04
10795:8.4792546103841412e-05
10796:6.8179962033392298e-04
10797:6.1237012805770267e-04
10798:3.8491645027512791e-04
10799:9.9248233248125020e-05
10800:-1.1670168687877771e-03
10801:-5.5604324728534315e-03
10802:-1.1246810910134037e-02
10803:-1.5576320239346599e-02
10804:-1.0334781066832855e-03
10805:-4.9260036462302568e-03
10806:-9.9621857351968324e-03
10807:-1.3797431913489469e-02
10808:-8.4950322447259116e-04
10809:-4.0524563203203313e-03
10810:-8.1934608445213171e-03
10811:-1.1348176581661649e-02
10812:-7.0076853381112719e-04
10813:-3.3462403420321360e-03
10814:-6.7635618623680541e-03
10815:-9.3681342250202197e-03
10816:-1.7872945761914748e-02
10817:-2.2124642993464956e-02
10818:-2.7556767093726158e-02
10819:-3.1638166358484071e-02
10820:-1.5832611028187598e-02
10821:-1.9598799434754042e-02
10822:-2.4409122307409447e-02
10823:-2.8024222715952864e-02
10824:-1.3023365180748798e-02
10825:-1.6120976164976476e-02
10826:-2.0074972763702421e-02
10827:-2.3047928783123728e-02
10828:-1.0752306759228322e-02
10829:-1.3309399275408971e-02
10830:-1.6571057279893317e-02
10831:-1.9024869464276478e-02
10832:-3.3783768620002839e-02
10833:-3.7718329234402222e-02
10834:-4.2670494860269574e-02
10835:-4.6333005311892279e-02
10836:-2.9925419647529202e-02
10837:-3.3410308693650449e-02
10838:-3.7794840302526299e-02
10839:-4.1038117019267885e-02
10840:-2.4612583271839652e-02
10841:-2.7478285603408991e-02
10842:-3.1081184689174649e-02
10843:-3.3747156874379236e-02
10844:-2.0317469775404488e-02
10845:-2.2682653087262153e-02
10846:-2.5653741329419937e-02
10847:-2.7853073731557793e-02
10848:-4.8237584203622605e-02
10849:-5.1693126792333260e-02
10850:-5.5968844614081047e-02
10851:-5.9073072607794271e-02
10852:-4.2725289856637712e-02
10853:-4.5785147665317695e-02
10854:-4.9569763915497125e-02
10855:-5.2317736412152677e-02
10856:-3.5134938499784100e-02
10857:-3.7649821120466269e-02
10858:-4.0757940692518910e-02
10859:-4.3015138708321535e-02
10860:-2.8998854052471688e-02
10861:-3.1073203927566330e-02
10862:-3.3634464169203647e-02
10863:-3.5494964267112891e-02
10864:-6.0666322496199430e-02
10865:-6.3518856531815993e-02
10866:-6.6971808173518180e-02
10867:-6.9417247833106280e-02
10868:-5.3728557069033414e-02
10869:-5.6253368241353088e-02
10870:-5.9308100092722728e-02
10871:-6.1471413450359134e-02
10872:-4.4174651579514973e-02
10873:-4.6248021917540377e-02
10874:-4.8754236052545648e-02
10875:-5.0528966053440198e-02
10876:-3.6451364261520534e-02
10877:-3.8159908813787412e-02
10878:-4.0222920806025707e-02
10879:-4.1683734274727928e-02
10880:-7.0649749698016615e-02
10881:-7.2815612543420505e-02
10882:-7.5354541572967379e-02
10883:-7.7084804869427218e-02
10884:-6.2561933952291829e-02
10885:-6.4477389323553472e-02
10886:-6.6721308517730699e-02
10887:-6.8249981468720508e-02
10888:-5.1423938643057908e-02
10889:-5.2994531929561231e-02
10890:-5.4832215545614731e-02
10891:-5.6083351361378111e-02
10892:-4.2420755714556745e-02
10893:-4.3712842119694874e-02
10894:-4.5222571157388661e-02
10895:-4.6249758975472441e-02
10896:-7.7931261594626378e-02
10897:-7.9371781274405626e-02
10898:-8.0963310851084103e-02
10899:-8.1965753788681969e-02
10900:-6.8997763779025931e-02
10901:-7.0269534528466251e-02
10902:-7.1672992190341317e-02
10903:-7.2555807686362453e-02
10904:-5.6695313347272673e-02
10905:-5.7734898951240538e-02
10906:-5.8879758911769012e-02
10907:-5.9598221605204331e-02
10908:-4.6752172687905290e-02
10909:-4.7604597973465522e-02
10910:-4.8541235668415998e-02
10911:-4.9127551012334889e-02
10912:-8.2423946031050493e-02
10913:-8.3143001196016211e-02
10914:-8.3807756712942161e-02
10915:-8.4109994605549687e-02
10916:-7.2958903825295587e-02
10917:-7.3590495610573098e-02
10918:-7.4171909078316361e-02
10919:-7.4433474727482601e-02
10920:-5.9925675974344284e-02
10921:-6.0437343873120254e-02
10922:-6.0904841809081844e-02
10923:-6.1111177768707385e-02
10924:-4.9394263234285765e-02
10925:-4.9809817721058289e-02
10926:-5.0186450316151647e-02
10927:-5.0349176599444191e-02
10928:-8.4198729724880267e-02
10929:-8.4238222317853453e-02
10930:-8.4043529410628620e-02
10931:-8.3706772532345347e-02
10932:-7.4508626583126333e-02
10933:-7.4537261992591905e-02
10934:-7.4356396686436455e-02
10935:-7.4051115167002149e-02
10936:-6.1168084752111836e-02
10937:-6.1182763630377411e-02
10938:-6.1022461003521225e-02
10939:-6.0761819490149763e-02
10940:-5.0391923241400238e-02
10941:-5.0396516403524362e-02
10942:-5.0254553641366384e-02
10943:-5.0031406054495436e-02
10944:-8.3461974276034259e-02
10945:-8.2894174133233231e-02
10946:-8.1943587483755256e-02
10947:-8.1054308359664665e-02
10948:-7.3830292729749780e-02
10949:-7.3320281714407520e-02
10950:-7.2469273231236531e-02
10951:-7.1674088489499230e-02
10952:-6.0574741023311750e-02
10953:-6.0145782614071379e-02
10954:-5.9434024770168022e-02
10955:-5.8770181279993068e-02
10956:-4.9872381522354771e-02
10957:-4.9510472125963621e-02
10958:-4.8913410143389686e-02
10959:-4.8357464630355819e-02
10960:-8.0524490587932637e-02
10961:-7.9443454188275739e-02
10962:-7.7865323332757350e-02
10963:-7.6526236535765263e-02
10964:-7.1200459659778753e-02
10965:-7.0235395258303246e-02
10966:-6.8828238034662440e-02
10967:-6.7634445715012162e-02
10968:-5.8374917162038166e-02
10969:-5.7571540657790937e-02
10970:-5.6402632408911989e-02
10971:-5.5411186815334725e-02
10972:-4.8026499255052722e-02
10973:-4.7355688843340495e-02
10974:-4.6381924900643773e-02
10975:-4.5556064351701078e-02
10976:-7.5767597556081145e-02
10977:-7.4280035292527039e-02
10978:-7.2215877363793674e-02
10979:-7.0537333170955951e-02
10980:-6.6958014795165915e-02
10981:-6.5632845369410331e-02
10982:-6.3795448359183937e-02
10983:-6.2301237435992383e-02
10984:-5.4849197644674670e-02
10985:-5.3750044585854369e-02
10986:-5.2228160618671110e-02
10987:-5.0990360659446690e-02
10988:-4.5087671768843561e-02
10989:-4.4173297134459430e-02
10990:-4.2909236197541320e-02
10991:-4.1880876299860988e-02
10992:-6.9609302294651676e-02
10993:-6.7826458590339769e-02
10994:-6.5420717840054529e-02
10995:-6.3513025373373402e-02
10996:-6.1474884978260105e-02
10997:-5.9888492621335193e-02
10998:-5.7749151496096399e-02
10999:-5.6052547176867022e-02
11000:-5.0305422993661426e-02
11001:-4.8992253927300354e-02
11002:-4.7223390025832625e-02
11003:-4.5820288535287128e-02
11004:-4.1311420232160119e-02
11005:-4.0221335707024859e-02
11006:-3.8754881134676761e-02
11007:-3.7591276459898668e-02
11008:-6.2474216956314457e-02
11009:-6.0504601761402564e-02
11010:-5.7895920695087748e-02
11011:-5.5863298141854770e-02
11012:-5.5128407683062021e-02
11013:-5.3377306161428183e-02
11014:-5.1059322812259805e-02
11015:-4.9253012090023363e-02
11016:-4.5055560907151279e-02
11017:-4.3608196690023228e-02
11018:-4.1694215555382358e-02
11019:-4.0202370570692779e-02
11020:-3.6956595272928806e-02
11021:-3.5756968320312110e-02
11022:-3.4172415539506201e-02
11023:-3.2936925187382407e-02
11024:-5.4768526086073584e-02
11025:-5.2712628565637784e-02
11026:-5.0027453540111608e-02
11027:-4.7963430114622375e-02
11028:-4.8279832075566673e-02
11029:-4.6453299590000177e-02
11030:-4.4068918287327064e-02
11031:-4.2235943179953883e-02
11032:-3.9398127304030493e-02
11033:-3.7890252115370678e-02
11034:-3.5923715545730470e-02
11035:-3.4411642659193581e-02
11036:-3.2270378624655302e-02
11037:-3.1022199333643693e-02
11038:-2.9396113794006345e-02
11039:-2.8145432320555573e-02
11040:-4.6861350914747156e-02
11041:-4.4807571635582286e-02
11042:-4.2155616902190531e-02
11043:-4.0140179934101891e-02
11044:-4.1256953191862109e-02
11045:-3.9433526845214124e-02
11046:-3.7080196254076291e-02
11047:-3.5291586344253785e-02
11048:-3.3603585197735750e-02
11049:-3.2099997600514053e-02
11050:-3.0161206239567730e-02
11051:-2.8687402720817400e-02
11052:-2.7476578998242046e-02
11053:-2.6233410546859411e-02
11054:-2.4632050440601422e-02
11055:-2.3414427648604835e-02
11056:-3.9071993757229924e-02
11057:-3.7094451832292312e-02
11058:-3.4566225803552411e-02
11059:-3.2664168961452675e-02
11060:-3.4343364398097112e-02
11061:-3.2588781216235957e-02
11062:-3.0346684974469532e-02
11063:-2.8659824763559619e-02
11064:-2.7905653235386938e-02
11065:-2.6460430274805852e-02
11066:-2.4615270587500009e-02
11067:-2.3226881472100686e-02
11068:-2.2768125493288521e-02
11069:-2.1574564811685959e-02
11070:-2.0052222394377605e-02
11071:-1.8906500662044363e-02
11072:-3.1662816831238304e-02
11073:-2.9820099643321874e-02
11074:-2.7485819901001199e-02
11075:-2.5746347770950768e-02
11076:-2.7771552610646590e-02
11077:-2.6137699380572418e-02
11078:-2.4068982137469420e-02
11079:-2.2527380577217666e-02
11080:-2.2495423435790966e-02
11081:-2.1151162052270474e-02
11082:-1.9450558869014922e-02
11083:-1.8183178585164751e-02
11084:-1.8302511587784155e-02
11085:-1.7193599488530494e-02
11086:-1.5792068952198656e-02
11087:-1.4747415265880059e-02
11088:-2.4836452891978594e-02
11089:-2.3171649401684521e-02
11090:-2.1081503551117584e-02
11091:-1.9538566181395021e-02
11092:-2.1720813826939491e-02
11093:-2.0245704463355163e-02
11094:-1.8394539222431946e-02
11095:-1.7028008750756111e-02
11096:-1.7519791509091803e-02
11097:-1.6307504891335894e-02
11098:-1.4787396581486048e-02
11099:-1.3665210250960484e-02
11100:-1.4200300256451479e-02
11101:-1.3201408475496772e-02
11102:-1.1950034210961837e-02
11103:-1.1026152181519974e-02
11104:-1.8736654664106202e-02
11105:-1.7277925963901458e-02
11106:-1.5463172767717965e-02
11107:-1.4136613990895192e-02
11108:-1.6317638252222492e-02
11109:-1.5025933225140436e-02
11110:-1.3419612527224640e-02
11111:-1.2245395626285318e-02
11112:-1.3081626382235494e-02
11113:-1.2021230502429751e-02
11114:-1.0703535258308201e-02
11115:-9.7402651757434993e-03
11116:-1.0545452535491615e-02
11117:-9.6727293397583167e-03
11118:-8.5891636172461486e-03
11119:-7.7969857776652189e-03
11120:-1.3451838449192000e-02
11121:-1.2213886911327743e-02
11122:-1.0688936468720867e-02
11123:-9.5861818936375850e-03
11124:-1.1639135898413724e-02
11125:-1.0543474407965976e-02
11126:-9.1942129222416600e-03
11127:-8.2184225485596191e-03
11128:-9.2427276217524959e-03
11129:-8.3441029842736165e-03
11130:-7.2381639747627147e-03
11131:-6.4382678113237756e-03
11132:-7.3876236209190907e-03
11133:-6.6487954681349673e-03
11134:-5.7402029252937260e-03
11135:-5.0829931815083006e-03
11136:-9.0212515315447207e-03
11137:-8.0072575548056340e-03
11138:-6.7727007221183421e-03
11139:-5.8915572740089722e-03
11140:-7.7184127614739221e-03
11141:-6.8211656923681321e-03
11142:-5.7289784906181312e-03
11143:-4.9493164209915971e-03
11144:-6.0282230921848623e-03
11145:-5.2927748817135920e-03
11146:-4.3979248948658048e-03
11147:-3.7589546180494212e-03
11148:-4.7459425127606763e-03
11149:-4.1417718540331999e-03
11150:-3.4070334944693911e-03
11151:-2.8822193038278618e-03
11152:-5.4444172791547011e-03
11153:-4.6493863115022738e-03
11154:-3.6966774734006405e-03
11155:-3.0291346363859081e-03
11156:-4.5535565319423472e-03
11157:-3.8500598455551032e-03
11158:-3.0073064497586574e-03
11159:-2.4168396223919926e-03
11160:-3.4344380575708367e-03
11161:-2.8578438393170162e-03
11162:-2.1674733541038101e-03
11163:-1.6837631052957296e-03
11164:-2.6155105366857056e-03
11165:-2.1418630265292267e-03
11166:-1.5750464323303706e-03
11167:-1.1778349113749198e-03
11168:-2.6950756311839496e-03
11169:-2.1102845070918885e-03
11170:-1.4286941417491412e-03
11171:-9.6725286162431090e-04
11172:-2.1213380899228313e-03
11173:-1.6045056685018919e-03
11174:-1.0031101154732674e-03
11175:-5.9671847920392393e-04
11176:-1.4416328720082130e-03
11177:-1.0186538958301642e-03
11178:-5.2745888821444597e-04
11179:-1.9617901406433812e-04
11180:-9.7891720399719711e-04
11181:-6.3176064489315871e-04
11182:-2.2917175967837564e-04
11183:4.2124461578301438e-05
11184:-7.4263790031913141e-04
11185:-3.6269719290931318e-04
11186:5.1410395734420586e-05
11187:3.0652460094107709e-04
11188:-3.9922481183544831e-04
11189:-6.6752155781986825e-05
11190:2.9158207911936105e-04
11191:5.0828047529003504e-04
11192:-3.5452421132167589e-05
11193:2.3329615429010890e-04
11194:5.1820721872460084e-04
11195:6.8566019258335252e-04
11196:1.7367671531133338e-04
11197:3.9243807321321771e-04
11198:6.2109560625575784e-04
11199:7.5205116867891188e-04
11200:4.2029300641655497e-04
11201:5.8864740966974819e-04
11202:7.1826628112549599e-04
11203:7.4787761228100984e-04
11204:6.0300296994120412e-04
11205:7.3829069082379537e-04
11206:8.2976207638866390e-04
11207:8.3371428181797796e-04
11208:7.5652381175657401e-04
11209:8.5156536667021262e-04
11210:8.9848598215065743e-04
11211:8.7349913246309889e-04
11212:8.0573724531652713e-04
11213:8.7256392054376245e-04
11214:8.8933023948331385e-04
11215:8.4521487019159451e-04
11216:7.3792050655304624e-04
11217:6.5495982859868304e-04
11218:4.0977153119172897e-04
11219:1.0970973299857938e-04
11220:8.1129895394393655e-04
11221:7.0740408447181151e-04
11222:4.3885388003394812e-04
11223:1.2307740094627857e-04
11224:8.3743678028260860e-04
11225:7.1460631658959721e-04
11226:4.3527060199885888e-04
11227:1.2199247184230363e-04
11228:8.0034352307367695e-04
11229:6.6905106425177538e-04
11230:3.9672091971069848e-04
11231:1.0362797575272405e-04
11232:-6.1861049884318336e-04
11233:-2.9560317384548234e-03
11234:-5.9734855764321552e-03
11235:-8.2740980727620157e-03
11236:-4.5744529670660363e-04
11237:-2.1902295162773994e-03
11238:-4.4228455685093766e-03
11239:-6.1269460695453646e-03
11240:-2.3270393556959720e-04
11241:-1.1215915500909315e-03
11242:-2.2588415856104648e-03
11243:-3.1305849171108118e-03
11244:-4.8956220306911450e-05
11245:-2.4727781698339262e-04
11246:-4.8822395940607144e-04
11247:-6.7900262836497328e-04
11248:-9.4974876153649315e-03
11249:-1.1755943284223176e-02
11250:-1.4635083237652920e-02
11251:-1.6802083164804488e-02
11252:-7.0348524118650944e-03
11253:-8.7073954113364334e-03
11254:-1.0836167744668768e-02
11255:-1.2440633370346864e-02
11256:-3.5983737912485599e-03
11257:-4.4536852778830800e-03
11258:-5.5361195208547135e-03
11259:-6.3563745704804395e-03
11260:-7.8679692758108180e-04
11261:-9.7377774984666393e-04
11262:-1.2007470327463140e-03
11263:-1.3800152143541369e-03
11264:-1.7944391082689942e-02
11265:-2.0033082696558163e-02
11266:-2.2655175151321857e-02
11267:-2.4596765266363799e-02
11268:-1.3288200774767318e-02
11269:-1.4834721201671855e-02
11270:-1.6772642030049419e-02
11271:-1.8209139904141726e-02
11272:-6.7931260358487901e-03
11273:-7.5841082020582486e-03
11274:-8.5690191860081869e-03
11275:-9.3023798472860759e-03
11276:-1.4810384354328526e-03
11277:-1.6547159902126577e-03
11278:-1.8613345531040542e-03
11279:-2.0208142481714484e-03
11280:-2.5608885298315013e-02
11281:-2.7439932717561333e-02
11282:-2.9699196730769952e-02
11283:-3.1340659891812929e-02
11284:-1.8959411602659227e-02
11285:-2.0313978291723277e-02
11286:-2.1982137086848232e-02
11287:-2.3195125421722546e-02
11288:-9.6883195120789616e-03
11289:-1.0380281908578844e-02
11290:-1.1227148212726664e-02
11291:-1.1845359093818678e-02
11292:-2.1095446998663750e-03
11293:-2.2612667550824125e-03
11294:-2.4390731877132962e-03
11295:-2.5731910684996390e-03
11296:-3.2184926856793243e-02
11297:-3.3692088162924863e-02
11298:-3.5510507055430213e-02
11299:-3.6798121194218436e-02
11300:-2.3820132407321504e-02
11301:-2.4933687815713357e-02
11302:-2.6274411308156869e-02
11303:-2.7224081228633935e-02
11304:-1.2166206851318152e-02
11305:-1.2734138488112083e-02
11306:-1.3413506682804008e-02
11307:-1.3896026028131100e-02
11308:-2.6466419559128002e-03
11309:-2.7710980147455343e-03
11310:-2.9136171975022839e-03
11311:-3.0175263556847811e-03
11312:-3.7448012192773460e-02
11313:-3.8586503994468599e-02
11314:-3.9915450170034353e-02
11315:-4.0819259396932241e-02
11316:-2.7704092074352225e-02
11317:-2.8543376831289099e-02
11318:-2.9520677476773945e-02
11319:-3.0184929442738213e-02
11320:-1.4141495347904062e-02
11321:-1.4568264822729170e-02
11322:-1.5061923950699429e-02
11323:-1.5397657427906717e-02
11324:-3.0731437477473232e-03
11325:-3.1664653329268677e-03
11326:-3.2701298240518433e-03
11327:-3.3417369474659534e-03
11328:-4.1261349410448435e-02
11329:-4.2010776825131317e-02
11330:-4.2832957685370543e-02
11331:-4.3346746389097295e-02
11332:-3.0510058875959856e-02
11333:-3.1060125119822597e-02
11334:-3.1661485344875083e-02
11335:-3.2035985113213969e-02
11336:-1.5562765091945754e-02
11337:-1.5840826159668132e-02
11338:-1.6142507306802927e-02
11339:-1.6329401371441385e-02
11340:-3.3784931634320866e-03
11341:-3.4389956191740001e-03
11342:-3.5022928323152160e-03
11343:-3.5411240395569702e-03
11344:-4.3580168353831689e-02
11345:-4.3943152879852974e-02
11346:-4.4270327590636045e-02
11347:-4.4409566362821444e-02
11348:-3.2205741591607134e-02
11349:-3.2468768130021544e-02
11350:-3.2703203706094579e-02
11351:-3.2799734063340497e-02
11352:-1.6414014247833671e-02
11353:-1.6544660236347621e-02
11354:-1.6659217470385883e-02
11355:-1.6703602576824402e-02
11356:-3.5590413593794296e-03
11357:-3.5870655438954967e-03
11358:-3.6111572444289903e-03
11359:-3.6188245421098744e-03
11360:-4.4444825055716175e-02
11361:-4.4444504189182117e-02
11362:-4.4313580552887068e-02
11363:-4.4111870155609183e-02
11364:-3.2822119948113140e-02
11365:-3.2815609098626061e-02
11366:-3.2710904634268130e-02
11367:-3.2554774249131037e-02
11368:-1.6712030943188776e-02
11369:-1.6704452791262672e-02
11370:-1.6646282967259764e-02
11371:-1.6561400993871447e-02
11372:-3.6190284033859126e-03
11373:-3.6166043013174409e-03
11374:-3.6044085566335031e-03
11375:-3.5838818835891417e-03
11376:-4.3968737434234122e-02
11377:-4.3644628223290523e-02
11378:-4.3111957852210211e-02
11379:-4.2616432859326113e-02
11380:-3.2444701109672347e-02
11381:-3.2198293387624324e-02
11382:-3.1796562573052918e-02
11383:-3.1423069953157905e-02
11384:-1.6501531861453981e-02
11385:-1.6371178234745484e-02
11386:-1.6162024859058835e-02
11387:-1.5966247263613679e-02
11388:-3.5683140405308924e-03
11389:-3.5389381717854389e-03
11390:-3.4951077332568284e-03
11391:-3.4505629012986424e-03
11392:-4.2321429866149632e-02
11393:-4.1724699124076121e-02
11394:-4.0859865759606408e-02
11395:-4.0126350131418125e-02
11396:-3.1200460125609158e-02
11397:-3.0752470875508042e-02
11398:-3.0105686300673840e-02
11399:-2.9556572150595182e-02
11400:-1.5848551315864441e-02
11401:-1.5615298141361636e-02
11402:-1.5281871197742195e-02
11403:-1.4996802753576035e-02
11404:-3.4217582295879971e-03
11405:-3.3698126221307382e-03
11406:-3.2998555499424639e-03
11407:-3.2360588690853588e-03
11408:-3.9710126891451744e-02
11409:-3.8898704089192299e-02
11410:-3.7778219574338585e-02
11411:-3.6866440706716637e-02
11412:-2.9244383905945658e-02
11413:-2.8638037330658832e-02
11414:-2.7803121356145204e-02
11415:-2.7122899486294288e-02
11416:-1.4833281980998149e-02
11417:-1.4519487022283551e-02
11418:-1.4090997395607959e-02
11419:-1.3739632190427717e-02
11420:-3.1968902329086247e-03
11421:-3.1273953266463812e-03
11422:-3.0375415244558593e-03
11423:-2.9596291861396823e-03
11424:-3.6361248342363678e-02
11425:-3.5395278739856657e-02
11426:-3.4097013843128979e-02
11427:-3.3066561015496300e-02
11428:-2.6745240206252421e-02
11429:-2.6025388908184982e-02
11430:-2.5060285886689182e-02
11431:-2.4293331523331903e-02
11432:-1.3542855913021181e-02
11433:-1.3171662028830616e-02
11434:-1.2677751135758046e-02
11435:-1.2282907843192933e-02
11436:-2.9130745396009363e-03
11437:-2.8311100233511508e-03
11438:-2.7274728708478533e-03
11439:-2.6404049339685842e-03
11440:-3.2504163404386908e-02
11441:-3.1442208988038546e-02
11442:-3.0040676147262090e-02
11443:-2.8947571386754675e-02
11444:-2.3873891564483673e-02
11445:-2.3084070583180915e-02
11446:-2.2044021442542944e-02
11447:-2.1231920449827624e-02
11448:-1.2065165832608192e-02
11449:-1.1658969112813854e-02
11450:-1.1127860051100539e-02
11451:-1.0710895491869536e-02
11452:-2.5893436359559247e-03
11453:-2.4999043936823366e-03
11454:-2.3885082637192900e-03
11455:-2.2970091669051091e-03
11456:-2.8357492218165449e-02
11457:-2.7253506625505367e-02
11458:-2.5816403894290466e-02
11459:-2.4710778964788425e-02
11460:-2.0792672769005288e-02
11461:-1.9972961638092843e-02
11462:-1.8908156182731777e-02
11463:-1.8088088307223311e-02
11464:-1.0483564684435568e-02
11465:-1.0062937145356896e-02
11466:-9.5201859192433121e-03
11467:-9.1000985704655073e-03
11468:-2.2440896392581034e-03
11469:-2.1516640923997048e-03
11470:-2.0377732224976411e-03
11471:-1.9459184437462477e-03
11472:-2.4119160463429226e-02
11473:-2.3020455079523706e-02
11474:-2.1606231177471583e-02
11475:-2.0530648307290136e-02
11476:-1.7648443244390764e-02
11477:-1.6833871418064181e-02
11478:-1.5787469161767476e-02
11479:-1.4990881494371030e-02
11480:-8.8731717629178686e-03
11481:-8.4560305295659569e-03
11482:-7.9235805456105372e-03
11483:-7.5164129882246871e-03
11484:-1.8934341487997608e-03
11485:-1.8019913196321775e-03
11486:-1.6902982078781700e-03
11487:-1.6016029307902809e-03
11488:-1.9959432888224403e-02
11489:-1.8905360217582139e-02
11490:-1.7561897403707876e-02
11491:-1.6550605714294245e-02
11492:-1.4567083730818792e-02
11493:-1.3786740834701078e-02
11494:-1.2794068836353298e-02
11495:-1.2046222080791607e-02
11496:-7.2982304545780819e-03
11497:-6.8994052387438328e-03
11498:-6.3951351351551828e-03
11499:-6.0136929481862276e-03
11500:-1.5514553789305347e-03
11501:-1.4642010836584134e-03
11502:-1.3583788891794164e-03
11503:-1.2755509490555614e-03
11504:-1.6017217073799536e-02
11505:-1.5038632198692840e-02
11506:-1.3802671572007902e-02
11507:-1.2881289476162348e-02
11508:-1.1651128736286492e-02
11509:-1.0927723507155720e-02
11510:-1.0015733222604600e-02
11511:-9.3353937994065349e-03
11512:-5.8108097865707357e-03
11513:-5.4418244383263427e-03
11514:-4.9793289007818943e-03
11515:-4.6330683291828361e-03
11516:-1.2292101210969542e-03
11517:-1.1486827206680409e-03
11518:-1.0516506329162831e-03
11519:-9.7672771243281797e-04
11520:-1.2398516200824562e-02
11521:-1.1517691910651440e-02
11522:-1.0414968319095223e-02
11523:-9.6007541092930290e-03
11524:-8.9783754460612108e-03
11525:-8.3282070279398299e-03
11526:-7.5156887925902898e-03
11527:-6.9154299281151089e-03
11528:-4.4502160617904043e-03
11529:-4.1192644196420616e-03
11530:-3.7079351461066857e-03
11531:-3.4031275592998197e-03
11532:-9.3523048440469756e-04
11533:-8.6317004886013395e-04
11534:-7.7685413381960037e-04
11535:-7.1113078519484223e-04
11536:-9.1769441164633002e-03
11537:-8.4079776537964116e-03
11538:-7.4538241034687912e-03
11539:-6.7561970855128219e-03
11540:-6.6025582097620538e-03
11541:-6.0358330639088383e-03
11542:-5.3337667561245954e-03
11543:-4.8202093901521526e-03
11544:-3.2433375936592418e-03
11545:-2.9554865710345870e-03
11546:-2.6006794914527603e-03
11547:-2.3404446027208300e-03
11548:-6.7512425187702492e-04
11549:-6.1262089481765587e-04
11550:-5.3814743815829903e-04
11551:-4.8222240259611002e-04
11552:-6.3955580983962200e-03
11553:-5.7450231451586977e-03
11554:-4.9454667315410126e-03
11555:-4.3670947445406559e-03
11556:-4.5543889326140376e-03
11557:-4.0756203950285449e-03
11558:-3.4880763155632211e-03
11559:-3.0629198278775095e-03
11560:-2.2050385679382172e-03
11561:-1.9623753133472372e-03
11562:-1.6659813975263814e-03
11563:-1.4510235749989192e-03
11564:-4.5193496632911463e-04
11565:-3.9945266273296959e-04
11566:-3.3732735996498952e-04
11567:-2.9131052464221588e-04
11568:-4.0703769278929453e-03
11569:-3.5387385867913313e-03
11570:-2.8924556215107582e-03
11571:-2.4307056864481280e-03
11572:-2.8445586147374763e-03
11573:-2.4537826340746438e-03
11574:-1.9792403981643879e-03
11575:-1.6399488721943708e-03
11576:-1.3400889351901603e-03
11577:-1.1423415112767773e-03
11578:-9.0307627519104036e-04
11579:-7.3160359982447573e-04
11580:-2.6665106727225089e-04
11581:-2.2386701753722153e-04
11582:-1.7345909954168031e-04
11583:-1.3675626185785176e-04
11584:-2.1959320112525530e-03
11585:-1.7791473040618959e-03
11586:-1.2805510329823894e-03
11587:-9.3107421526103008e-04
11588:-1.4672077222380132e-03
11589:-1.1608996711737676e-03
11590:-7.9483817903996435e-04
11591:-5.3804408679018713e-04
11592:-6.4392377460885972e-04
11593:-4.8914874810797261e-04
11594:-3.0484600837316067e-04
11595:-1.7503551451785465e-04
11596:-1.1743012185549858e-04
11597:-8.4447251965093226e-05
11598:-4.6186348040272208e-05
11599:-1.8299021422084767e-05
11600:-7.5599045267187785e-04
11601:-4.5059397004006710e-04
11602:-9.6660804698388828e-05
11603:1.4183320469392065e-04
11604:-4.0919978246835406e-04
11605:-1.8471177478978748e-04
11606:7.5121597721112529e-05
11607:2.5025972185184497e-04
11608:-1.0946655959733544e-04
11609:4.4580463922804374e-06
11610:1.3587949665473071e-04
11611:2.2457860159991245e-04
11612:-3.4578915389146926e-06
11613:2.1891403474438661e-05
11614:5.0453255480792554e-05
11615:6.9828047507208206e-05
11616:2.5749451613501774e-04
11617:4.4925694729104062e-04
11618:6.4809531066171468e-04
11619:7.6025390065787935e-04
11620:3.3525467807917289e-04
11621:4.7526681334379418e-04
11622:6.1835058768500064e-04
11623:6.9717094387795517e-04
11624:2.6772257515282968e-04
11625:3.3766993261994315e-04
11626:4.0781285485281166e-04
11627:4.4652979683011625e-04
11628:7.9358687155954392e-05
11629:9.3353472721508299e-05
11630:1.0692225945635402e-04
11631:1.1700990515407895e-04
11632:8.0532730299400499e-04
11633:8.5831228528004814e-04
11634:8.6074151921596270e-04
11635:8.0776583768987255e-04
11636:7.2789252616137711e-04
11637:7.5968576740580347e-04
11638:7.4437414622341154e-04
11639:6.8426539557039901e-04
11640:4.6193885830162845e-04
11641:4.7591622017993624e-04
11642:4.5763247596699739e-04
11643:4.0985770398199907e-04
11644:1.2302779115318626e-04
11645:1.3083596828298376e-04
11646:1.2666330379874013e-04
11647:1.0639908077066474e-04
11648:7.5893806314858956e-04
11649:6.2571536010121143e-04
11650:3.6324264572054100e-04
11651:8.7879710406904354e-05
11652:6.3409578221117289e-04
11653:5.1150979956239779e-04
11654:2.8924219736310767e-04
11655:6.3655132877901010e-05
11656:3.7179381328374800e-04
11657:2.9187168671267411e-04
11658:1.5889998246439193e-04
11659:2.0433533777854859e-05
11660:8.9122247917255699e-05
11661:6.2881375629335670e-05
11662:1.9176136870773535e-05
11663:-4.5796418016815891e-05
11664:-1.4259931804217851e+00
11665:-1.0938290825781585e+00
11666:-7.5358258399009925e-01
11667:-5.7456577864887581e-01
11668:-5.0412517130429144e+00
11669:-2.1251242888166773e+00
11670:-6.0252796786907525e-01
11671:-3.9386063201456106e-01
11672:-7.1372752900204484e+00
11673:-3.8500592523935890e+00
11674:-2.0412388280880571e+00
11675:-1.6242194596665018e+00
11676:-5.9045349156282469e+00
11677:-5.0374962105675465e+00
11678:-4.2126986549642433e+00
11679:-3.5453027871006322e+00
11680:-5.0504693937223988e-01
11681:-3.5135680693696320e-01
11682:-1.5006781615538767e-01
11683:-3.5137056275820915e-02
11684:-4.6093834218286406e-01
11685:-4.7716447842369547e-01
11686:-3.0394900652033091e-01
11687:-8.7368095906494900e-02
11688:-1.5611923428201617e+00
11689:-1.3123137103176186e+00
11690:-7.4188075496092454e-01
11691:-1.7090760375597031e-01
11692:-3.1343566247780812e+00
11693:-2.3195732275241436e+00
11694:-1.1897802310913157e+00
11695:-2.7367825392362993e-01
11696:-4.5510424921944850e+00
11697:-5.5153905317331482e+00
11698:-5.4268995267575662e+00
11699:-4.6018156334072202e+00
11700:-1.6849894531184229e+00
11701:-5.2130512244082912e+00
11702:-6.2622362098293181e+00
11703:-5.3392460971358986e+00
11704:4.5364379015826206e-01
11705:-2.5430931391421221e+00
11706:-3.4891315271451786e+00
11707:-2.8519764949249051e+00
11708:6.6362773132069475e-01
11709:1.0133257254155028e+00
11710:1.2721770547079740e+00
11711:1.2980027997413570e+00
11712:-3.9645149578125167e+00
11713:-2.8070301323345435e+00
11714:-1.3887213355912624e+00
11715:-3.3017961382622285e-01
11716:-4.4592397052555892e+00
11717:-2.9915162615901871e+00
11718:-1.4220408979251435e+00
11719:-3.6090557625373026e-01
11720:-2.2348566860135359e+00
11721:-1.3663017442841372e+00
11722:-6.3626224959707134e-01
11723:-1.7553105097353364e-01
11724:1.2360275156404854e+00
11725:8.7884808582401652e-01
11726:3.0102652528300655e-01
11727:2.6577122835984911e-02
