label=Stress xy
num_items=16288

0:6.8573477034811758e-02
1:-5.7429055557054812e-02
2:2.5561025464350745e-01
3:2.4696368519857020e-01
4:3.3181415058061503e-01
5:8.3659293776496599e-02
6:3.5832398435677565e-01
7:6.8788569571400759e-01
8:5.7579710783082112e-02
9:3.0205809434582931e-01
10:7.1411966217546363e-01
11:1.0114928399225656e+00
12:-3.0398069601254529e-01
13:3.6948909443577549e-01
14:8.8127153158734572e-01
15:1.0105974426135522e+00
16:-3.7001798455494568e-02
17:-1.1178769980086749e+00
18:-2.3976086695928331e+00
19:-2.1601968840536938e+00
20:7.8511411733349878e-01
21:5.2440593203652641e-01
22:-1.6391682249161865e-01
23:-4.2225499677153838e-01
24:1.1336083187176904e+00
25:1.2307934016482858e+00
26:1.1272159802153479e+00
27:9.0691128426032253e-01
28:1.0058568339882172e+00
29:1.0819474956918660e+00
30:1.2351628255808371e+00
31:1.2446383462499258e+00
32:-1.2615107421759717e+00
33:1.9500615154005632e+00
34:7.7978167752337999e+00
35:1.2320788112976743e+01
36:-2.8975782802098582e-01
37:7.1601798911478276e-01
38:2.9541717436680863e+00
39:4.8240849087204367e+00
40:7.5614776890319479e-01
41:5.2061696018208603e-01
42:3.1237092025111002e-01
43:2.1448730956494247e-01
44:1.1637643340062296e+00
45:7.9612613482934103e-01
46:3.7212238704354271e-02
47:-6.1771431585515524e-01
48:1.4380505806615204e+01
49:1.7354812522352535e+01
50:1.9360508002425124e+01
51:1.9335095714092684e+01
52:5.7252845453526868e+00
53:7.3653285124548411e+00
54:9.2364552961730766e+00
55:1.0257763223499756e+01
56:1.9249981967043223e-01
57:3.9446078524474670e-01
58:1.0021760710684136e+00
59:1.5692747419114184e+00
60:-9.4891010294035760e-01
61:-1.4808143114945409e+00
62:-2.0075759540788987e+00
63:-2.2963458075280023e+00
64:1.8712057995088447e+01
65:1.6239799428880680e+01
66:1.1376481812932386e+01
67:7.2874438224289282e+00
68:1.0540388132885619e+01
69:9.7386432412762733e+00
70:6.6921828743208112e+00
71:3.5582814092587571e+00
72:1.8232797173464128e+00
73:1.6314761711871546e+00
74:4.0460724494790218e-01
75:-8.6213367663642615e-01
76:-2.4165073811044588e+00
77:-2.6145489028440334e+00
78:-2.7168564636317565e+00
79:-2.5726027032975582e+00
80:5.2669264018581075e+00
81:2.2554149913445931e+00
82:-3.2272320838968371e-01
83:-1.4897016377290446e+00
84:1.8732876614384486e+00
85:-3.7202422267525931e-01
86:-1.7137379354949578e+00
87:-1.8777020184864477e+00
88:-1.4961948414028410e+00
89:-2.0513793194303318e+00
90:-1.7957611674506739e+00
91:-1.1904140040864521e+00
92:-2.3847820000440003e+00
93:-1.8233537228798011e+00
94:-8.9573385271540185e-01
95:-2.3409299065593245e-01
96:-1.8985681766427394e+00
97:-2.4322986683908554e+00
98:-2.7592260077953608e+00
99:-2.7872454720110844e+00
100:-1.7792361518733320e+00
101:-1.5852170880397880e+00
102:-1.3585110168259729e+00
103:-1.1954164044797029e+00
104:-8.3472433905761201e-01
105:-3.3784653986462015e-01
106:7.5831543948555510e-03
107:1.0153618203732361e-01
108:4.0367836802969868e-02
109:3.6196116901813769e-01
110:4.7562336381833176e-01
111:3.9867487742986646e-01
112:-2.7426959491055691e+00
113:-2.5816550514532617e+00
114:-2.2188850525187132e+00
115:-1.8189651329525798e+00
116:-1.1117667560914002e+00
117:-9.9165178704849388e-01
118:-8.6715933573327875e-01
119:-7.5220391774505713e-01
120:1.0973065825100840e-01
121:7.5525266232384106e-02
122:-9.7214523266265420e-03
123:-5.5814447225413594e-02
124:3.2372029298758187e-01
125:1.9421145888658381e-01
126:8.1102465195482282e-02
127:5.7649923940516594e-02
128:-1.5605104708039488e+00
129:-1.0045376196008873e+00
130:-2.7974454947161143e-01
131:1.4615837579724575e-01
132:-6.6877352523417144e-01
133:-4.4391498876623059e-01
134:-1.0500357099185843e-01
135:1.0270910354587665e-01
136:-5.8746308095356921e-02
137:-2.6162923137700803e-02
138:4.6736101000525214e-02
139:8.6585725743743291e-02
140:7.0828247730466934e-02
141:9.5359002262653647e-02
142:1.0709410720128738e-01
143:9.2040124693853476e-02
144:2.8839998095983616e-01
145:3.8853897670680271e-01
146:3.0415396240997905e-01
147:1.7679404367643700e-01
148:1.6892455004797136e-01
149:2.0391585160416692e-01
150:1.3987852386210767e-01
151:6.6076605751757347e-02
152:9.0975117822475693e-02
153:7.4330618776677751e-02
154:2.8339469966880703e-02
155:-5.2658965927966381e-03
156:7.4047216457818310e-02
157:4.0082159995788916e-02
158:2.8333007698394578e-03
159:-1.7209423604582583e-02
160:1.1738109411798400e-01
161:4.1689246350527676e-02
162:-4.0440838763156559e-03
163:-1.4393288068698492e-02
164:3.5588184533262499e-02
165:1.9329061622021524e-03
166:-9.8829850691549148e-03
167:-6.5948283586440438e-03
168:-1.6612255473670085e-02
169:-2.4394171113350769e-02
170:-1.6658747289934377e-02
171:-4.5567375624755886e-03
172:-2.3874684762495123e-02
173:-2.7694182287286383e-02
174:-1.9753909694216507e-02
175:-7.7515403155362875e-03
176:-1.5934802964606285e-02
177:-1.5458268859522933e-02
178:-1.1060128514310014e-02
179:-7.3282165172459590e-03
180:-4.1239522489371913e-03
181:-3.8722897926878020e-04
182:3.3898405999555677e-03
183:6.0082103671292774e-03
184:1.6928991407312156e-03
185:9.6012914217654555e-03
186:1.4464433257849298e-02
187:1.6296602658401958e-02
188:-6.9971207107641289e-04
189:8.8968757948161975e-03
190:1.5385583372407178e-02
191:1.7560246782023437e-02
192:-5.9914437448523629e-03
193:-5.3044721103792866e-03
194:-6.3935873913180457e-03
195:-7.2376480515227706e-03
196:7.4339628647767577e-03
197:9.5755322505563789e-03
198:1.1265112753307379e-02
199:1.1797724029400757e-02
200:1.7286268892926289e-02
201:1.9505802031417548e-02
202:2.2298694306992640e-02
203:2.3619526523157224e-02
204:1.8314570960896628e-02
205:1.9966440022791961e-02
206:2.2100266271180963e-02
207:2.3141907202110519e-02
208:-7.2232767074073495e-03
209:-5.9755471501001557e-03
210:-3.1068247816055322e-03
211:-1.0532658836938413e-03
212:1.1876188519612321e-02
213:1.2310882458489736e-02
214:1.3316464600094204e-02
215:1.4177002949617455e-02
216:2.3844169559539639e-02
217:2.3870402945071947e-02
218:2.3613110756309483e-02
219:2.3520976939584579e-02
220:2.3330364739967743e-02
221:2.3248135004658891e-02
222:2.2743552394371862e-02
223:2.2411856296112316e-02
224:-3.4468522716218198e-04
225:5.5677257257835927e-05
226:-5.5995015004979228e-04
227:-1.2619191491736069e-03
228:1.4578838755236178e-02
229:1.4962316619976738e-02
230:1.4958638454135784e-02
231:1.4821470313336421e-02
232:2.3595135805146814e-02
233:2.3806381414528989e-02
234:2.4133817549791329e-02
235:2.4384386802809140e-02
236:2.2355964015829913e-02
237:2.2421044449136330e-02
238:2.2708617616061754e-02
239:2.2986689241047752e-02
240:-1.5228413600366184e-03
241:-1.6751564227010381e-03
242:-1.4900961018394440e-03
243:-1.3146125688477187e-03
244:1.4781075847930574e-02
245:1.4884860544132515e-02
246:1.5274658122482092e-02
247:1.5663212062781345e-02
248:2.4509442132609995e-02
249:2.4788125370998774e-02
250:2.5266510633215829e-02
251:2.5734676899596295e-02
252:2.3127539424369167e-02
253:2.3392115171593637e-02
254:2.3787521178868447e-02
255:2.4169245025697297e-02
256:-1.2878313550941239e-03
257:-1.3947461771320988e-03
258:-1.6626292689102405e-03
259:-1.8008516472312207e-03
260:1.5869262336419887e-02
261:1.6217930873319027e-02
262:1.6646581351884470e-02
263:1.7003283818121887e-02
264:2.6023453124379554e-02
265:2.6619699272881863e-02
266:2.7454766171661912e-02
267:2.8096160890956748e-02
268:2.4412993786021242e-02
269:2.4948338746326210e-02
270:2.5730389657066234e-02
271:2.6329552128756512e-02
272:-1.8008109033388095e-03
273:-1.6489243625754707e-03
274:-1.2979353473972907e-03
275:-1.0445888334021554e-03
276:1.7219161661103054e-02
277:1.7700698215999875e-02
278:1.8451675379624471e-02
279:1.9092084678741010e-02
280:2.8427590236226687e-02
281:2.9065303809479266e-02
282:2.9994035278412056e-02
283:3.0833444513212908e-02
284:2.6630549346016139e-02
285:2.7182049108638504e-02
286:2.7963762349828811e-02
287:2.8687216689311800e-02
288:-9.5573602236460301e-04
289:-9.1076108619501906e-04
290:-1.0525138411311718e-03
291:-1.2770948750705946e-03
292:1.9444121922743002e-02
293:2.0053907391606375e-02
294:2.0721571454036334e-02
295:2.1121189566963246e-02
296:3.1335882425200627e-02
297:3.2271250911816228e-02
298:3.3386704246640850e-02
299:3.4099698874318747e-02
300:2.9134110905115539e-02
301:2.9985745854475245e-02
302:3.1010722448232095e-02
303:3.1647757961778433e-02
304:-1.4246159655889590e-03
305:-1.7043854832662375e-03
306:-2.0353817572683966e-03
307:-2.2334554798372685e-03
308:2.1299912373023113e-02
309:2.1748801282917087e-02
310:2.2632332966882274e-02
311:2.3573595830927330e-02
312:3.4429239484719529e-02
313:3.5279977306119328e-02
314:3.6983135221846701e-02
315:3.8806679120357360e-02
316:3.1929515352022472e-02
317:3.2703772267955442e-02
318:3.4377846323837398e-02
319:3.6269543076480622e-02
320:-2.3143235952740536e-03
321:-2.4743127036626253e-03
322:-2.6702960814231585e-03
323:-2.7715576224882099e-03
324:2.4157594697173657e-02
325:2.5035864969417627e-02
326:2.5733529306447893e-02
327:2.5978543710134038e-02
328:3.9937567636381441e-02
329:4.1588716287986646e-02
330:4.2628706310716850e-02
331:4.2544473986102560e-02
332:3.7473501187947372e-02
333:3.9199190080516394e-02
334:4.0037811770646026e-02
335:3.9431350602408669e-02
336:-2.7876717141001278e-03
337:-2.6240336893974029e-03
338:-2.2170373360209054e-03
339:-1.9556184854209136e-03
340:2.6073108515544927e-02
341:2.7040032706946739e-02
342:2.9742093435457383e-02
343:3.2650097730399640e-02
344:4.2282750781638595e-02
345:4.3208791162435554e-02
346:4.7472701828685397e-02
347:5.2986547946223823e-02
348:3.8739680412441864e-02
349:3.8977894796483538e-02
350:4.3016453159348565e-02
351:4.9202732679577380e-02
352:-1.9122899381507038e-03
353:-2.3759905572870478e-03
354:-4.0770588876166735e-03
355:-6.1834152003963265e-03
356:3.4311352962124841e-02
357:3.5877226443674810e-02
358:3.5386813727042027e-02
359:3.3883256097365227e-02
360:5.6467796693100751e-02
361:6.0160818670581574e-02
362:5.9437973617099273e-02
363:5.5412440993554114e-02
364:5.3387955882159915e-02
365:5.8003299040615637e-02
366:5.6586719045410148e-02
367:4.9739811924032692e-02
368:-7.5424503161716557e-03
369:-9.6031113210011815e-03
370:-9.7785759217175854e-03
371:-6.7004560988480500e-03
372:3.3136774972597288e-02
373:3.5369599843169709e-02
374:4.4092211597070129e-02
375:5.3329879290446858e-02
376:5.2747799555065138e-02
377:5.4865914290599990e-02
378:7.0150514052557664e-02
379:8.8553544500787423e-02
380:4.4654255907273309e-02
381:4.3252590769497896e-02
382:5.8291890969184648e-02
383:8.1480022380089626e-02
384:-3.5831744067531843e-03
385:3.6737164506895873e-03
386:1.1550939785655533e-02
387:1.2576871735988076e-02
388:5.8285297988001195e-02
389:6.2327950469683022e-02
390:5.8737975973810704e-02
391:5.1517068296476148e-02
392:9.9110386808539216e-02
393:1.0742075827224701e-01
394:9.8629533509032627e-02
395:8.2001995246716183e-02
396:9.6565102462432953e-02
397:1.1213647815262560e-01
398:1.0742489083097825e-01
399:8.8017386982971332e-02
400:1.0257918088957247e-02
401:2.3624840216409601e-03
402:-5.2347983318970217e-03
403:-3.7659135836034559e-04
404:4.7087697632023730e-02
405:4.3734536970810464e-02
406:5.0666677573989641e-02
407:6.5054994431772428e-02
408:7.1987183424204154e-02
409:6.5516857056631225e-02
410:7.9020079304426463e-02
411:1.0147309419155814e-01
412:7.4234454211769191e-02
413:6.2124575919851967e-02
414:7.2698704498385322e-02
415:9.6644510730330133e-02
416:8.4869575405144265e-03
417:3.6710188383731433e-02
418:9.3763238660863682e-02
419:1.5101686259659058e-01
420:7.5649767286992159e-02
421:9.4061366671693541e-02
422:1.1525373583931087e-01
423:1.3075187988940690e-01
424:1.1565915946055146e-01
425:1.3450219205238204e-01
426:1.4546676314480705e-01
427:1.4711117605932308e-01
428:1.1297328210419100e-01
429:1.3701446298282835e-01
430:1.5683470728987706e-01
431:1.6691021083101829e-01
432:-4.5210992782862436e-01
433:3.3587755753503618e-01
434:8.5617767967899061e-01
435:9.1406696028949652e-01
436:-5.5639904606651680e-01
437:1.9311332982060883e-01
438:6.5417277356177594e-01
439:6.9976548944442873e-01
440:-3.9548253707893138e-01
441:-7.4868675372380372e-02
442:1.8710721123284837e-01
443:3.8399603865634196e-01
444:-9.0150922402890979e-02
445:-2.8749624982095678e-01
446:-2.5489524840476108e-01
447:1.1057174533385533e-01
448:8.5757930755600775e-01
449:8.9890763964314357e-01
450:1.1110870809662849e+00
451:1.2128098028179231e+00
452:6.5850700731608924e-01
453:7.3828901199272501e-01
454:9.8759151911530219e-01
455:1.0848248551014967e+00
456:5.2065583710049945e-01
457:7.9564308292041652e-01
458:9.9058814681927387e-01
459:8.3804607918203133e-01
460:4.3864873056518688e-01
461:9.0074613086396582e-01
462:9.9825076245591637e-01
463:5.7625106955339545e-01
464:1.1861038851309684e+00
465:8.8978695252440188e-01
466:1.5595552883334973e-01
467:-5.3346554824050885e-01
468:1.0413435455699562e+00
469:7.5145995634704887e-01
470:9.2164949037967001e-02
471:-5.1079939578159905e-01
472:6.1138734794021232e-01
473:1.5160508494225614e-01
474:-3.7139302128363511e-01
475:-6.3052399647755097e-01
476:1.7117491985795291e-01
477:-4.2900073809792699e-01
478:-7.3729340772416274e-01
479:-5.5918601569409887e-01
480:-9.0889494041348107e-01
481:-1.6617164199780707e+00
482:-2.6461534537448439e+00
483:-3.3027101612073748e+00
484:-8.4685364733924684e-01
485:-1.7043079994608026e+00
486:-3.0611830342969570e+00
487:-4.0445923403998387e+00
488:-7.2001900092646853e-01
489:-1.1976940977773847e+00
490:-2.2489372623818755e+00
491:-3.1315027143267318e+00
492:-3.3442153146070264e-01
493:-2.0445709559279315e-01
494:-5.8200444450807898e-01
495:-1.1603463184432596e+00
496:-3.5763963973947082e+00
497:-3.7366711284125733e+00
498:-3.3055981468502829e+00
499:-2.5713732572803054e+00
500:-4.4489160587298882e+00
501:-4.5004301496918977e+00
502:-3.4399772081195508e+00
503:-2.0923892778004798e+00
504:-3.5202717478945664e+00
505:-3.5272738329150077e+00
506:-2.4274227997901030e+00
507:-1.1264525732569124e+00
508:-1.5009938489576944e+00
509:-1.6731592025662727e+00
510:-1.1378024761724690e+00
511:-3.9013392512622341e-01
512:-2.0742986546558209e+00
513:-1.1808274533704346e+00
514:-2.2449996755950347e-01
515:2.6576514733086415e-01
516:-1.3068926691225196e+00
517:-1.7797607056957038e-01
518:6.2646200454742706e-01
519:8.1699666321258413e-01
520:-4.1223596902585441e-01
521:4.9371352567774474e-01
522:9.3509157357268857e-01
523:8.8705644701681619e-01
524:3.5670283048559577e-02
525:5.3218245181629253e-01
526:6.9188650372056659e-01
527:5.9858551139843774e-01
528:4.1894310847817134e-01
529:5.4546244436063918e-01
530:4.7590145042665882e-01
531:3.0775683849621621e-01
532:7.9913757085713411e-01
533:6.7217896760038565e-01
534:3.9505388836980199e-01
535:1.4314743147952325e-01
536:7.8380777636359256e-01
537:5.7285050012815653e-01
538:2.8851913246403482e-01
539:6.9326361996665531e-02
540:5.2258114765389740e-01
541:4.0527545242477231e-01
542:2.7132719083596618e-01
543:1.4638877953202226e-01
544:2.0110411908641684e-01
545:5.6244515431404150e-02
546:-1.5242641242500351e-02
547:1.4275247649523285e-02
548:1.3737733978068118e-02
549:-1.2754288780672335e-01
550:-1.3499054554693599e-01
551:-4.2368178376724672e-02
552:-4.1380823642704956e-02
553:-1.5764739379091849e-01
554:-1.5184659384210145e-01
555:-6.2785759061189148e-02
556:6.5164004055997579e-02
557:-4.6362517706210152e-02
558:-9.8974586611281890e-02
559:-7.0958558552478221e-02
560:5.4311795060763203e-02
561:1.0629025629146602e-01
562:1.2064659489903501e-01
563:9.6239278191228392e-02
564:2.6123801180213721e-02
565:1.0580355591775077e-01
566:1.2131561615415824e-01
567:8.7368047429271387e-02
568:-1.8019331830977534e-04
569:7.0791163564960444e-02
570:8.2091494961469946e-02
571:5.0951610211929892e-02
572:-3.5926938831925839e-02
573:1.0163611979362847e-02
574:2.7425639996303819e-02
575:1.4767182745932948e-02
576:7.3634805798476602e-02
577:3.6976676051630415e-02
578:3.2400093640811197e-03
579:-1.3581840762736585e-02
580:6.1019687241563286e-02
581:2.4429564598102419e-02
582:-9.6966964753756680e-04
583:-1.0651403565405589e-02
584:2.8276639605480706e-02
585:2.2585388429016058e-04
586:-1.2659632210092291e-02
587:-1.2954397934448390e-02
588:2.0233423060403675e-03
589:-1.3256482792018085e-02
590:-1.7690321162721460e-02
591:-1.4153524048967057e-02
592:-1.9749775208910903e-02
593:-2.4719611192772415e-02
594:-2.0181035347957239e-02
595:-1.0416471279585369e-02
596:-1.4444180268437785e-02
597:-1.8761818417500471e-02
598:-1.8105059885075422e-02
599:-1.2373425422721939e-02
600:-1.2347676821211077e-02
601:-1.2241740551829741e-02
602:-1.2225333624546034e-02
603:-1.0379793328519994e-02
604:-1.1458120397471350e-02
605:-8.5382719575870427e-03
606:-7.6790634788213913e-03
607:-7.5966177752785184e-03
608:-3.9057102378406449e-03
609:5.6461497703800970e-03
610:1.3000684055222873e-02
611:1.5745828239949678e-02
612:-7.5832440425735396e-03
613:4.4119016685951166e-04
614:7.9366515366203934e-03
615:1.1219026829950924e-02
616:-8.2747048913866875e-03
617:-3.8723574812334852e-03
618:1.3851904111798496e-03
619:4.1460679346719638e-03
620:-7.2528018126772681e-03
621:-5.8628753008641930e-03
622:-3.4529151645365658e-03
623:-1.9315533100488431e-03
624:1.6543118251900659e-02
625:1.7900026817016225e-02
626:1.9325914924366069e-02
627:1.9912925050020937e-02
628:1.2093152256579609e-02
629:1.3043492978479704e-02
630:1.3405123354871469e-02
631:1.3264863716530495e-02
632:4.9249997109833349e-03
633:5.4654045753084433e-03
634:5.0328737821955282e-03
635:4.3515114185822216e-03
636:-1.4692172742962497e-03
637:-1.3034239957371567e-03
638:-1.9815260196144394e-03
639:-2.7540179584549132e-03
640:1.9983494256873395e-02
641:1.9830695457070065e-02
642:1.9378001849317830e-02
643:1.9083155543370249e-02
644:1.3120396208427251e-02
645:1.2815502064433573e-02
646:1.2427543093233283e-02
647:1.2201254693060045e-02
648:4.0201146234522603e-03
649:3.5445359728989048e-03
650:3.1425476317989104e-03
651:2.9417659087317451e-03
652:-3.1252496727967728e-03
653:-3.6606585723857779e-03
654:-4.1150678449115618e-03
655:-4.3431828877559366e-03
656:1.9014681508217324e-02
657:1.9025167723789312e-02
658:1.9215577716795339e-02
659:1.9421826898403778e-02
660:1.2124474332197864e-02
661:1.2061490660333764e-02
662:1.2097809780131545e-02
663:1.2180953700380184e-02
664:2.8557832237195158e-03
665:2.7366406429745276e-03
666:2.6564510617614256e-03
667:2.6425482053340737e-03
668:-4.4413241692177708e-03
669:-4.5822574453992237e-03
670:-4.6900437106279155e-03
671:-4.7251685882067091e-03
672:1.9531069497524069e-02
673:1.9734112474424876e-02
674:2.0033955779461151e-02
675:2.0324203142076600e-02
676:1.2233377556236817e-02
677:1.2328384413682076e-02
678:1.2464277850948131e-02
679:1.2597262685122030e-02
680:2.6472678126757939e-03
681:2.6476679007027908e-03
682:2.6316196731487693e-03
683:2.6123058634526940e-03
684:-4.7322465582699492e-03
685:-4.7610948539006832e-03
686:-4.8384086057144168e-03
687:-4.9298594839773764e-03
688:2.0511513913430368e-02
689:2.0938916953472768e-02
690:2.1583135257525320e-02
691:2.2082881479433287e-02
692:1.2686794868689009e-02
693:1.2929545166882796e-02
694:1.3350149661399219e-02
695:1.3704834793020216e-02
696:2.6054396064347559e-03
697:2.6702332928956415e-03
698:2.8962584096982806e-03
699:3.1539946151633988e-03
700:-4.9854730878238444e-03
701:-5.0129869403066326e-03
702:-4.8808037781390414e-03
703:-4.6518576629948948e-03
704:2.2333243420304436e-02
705:2.2776240328163624e-02
706:2.3385011096657259e-02
707:2.3950863350613340e-02
708:1.3888208632496336e-02
709:1.4173048804433125e-02
710:1.4488664272733086e-02
711:1.4752071280769637e-02
712:3.3068635926897091e-03
713:3.4955541393660305e-03
714:3.5606881861356830e-03
715:3.5065515304986694e-03
716:-4.4946685956540906e-03
717:-4.3069053979659950e-03
718:-4.3075311679064967e-03
719:-4.4958930566242079e-03
720:2.4306295361189258e-02
721:2.5001271838423610e-02
722:2.5851252336167869e-02
723:2.6371033052940675e-02
724:1.4921113674241329e-02
725:1.5318705295741157e-02
726:1.5905752528417874e-02
727:1.6321068604875887e-02
728:3.4620804524092431e-03
729:3.5374917891940996e-03
730:3.9192963431997239e-03
731:4.3672390327548207e-03
732:-4.6465762889574928e-03
733:-4.7401947965759915e-03
734:-4.4589657699895370e-03
735:-3.9589474377717780e-03
736:2.6592200532660797e-02
737:2.7217344439739492e-02
738:2.8643840233056626e-02
739:3.0328039991337544e-02
740:1.6511446088707533e-02
741:1.6953428135181053e-02
742:1.7879252967357952e-02
743:1.8997865949888906e-02
744:4.6329643713828384e-03
745:5.0233513610476793e-03
746:5.4086835509884901e-03
747:5.7208523214483048e-03
748:-3.6185093028526755e-03
749:-3.1831306665034555e-03
750:-3.0330346684384214e-03
751:-3.1904295855743085e-03
752:3.1425089480348702e-02
753:3.2997145978507447e-02
754:3.3634108592033488e-02
755:3.2777074247732373e-02
756:1.9751948415430525e-02
757:2.0892285891324899e-02
758:2.1327659897672459e-02
759:2.0486671794779192e-02
760:5.9294635298558157e-03
761:6.4012654115193773e-03
762:6.8062054200145865e-03
763:6.6116613184323651e-03
764:-3.3335017766992119e-03
765:-3.3341510920512928e-03
766:-2.9443416123438419e-03
767:-2.5453207132300191e-03
768:3.1887211094647518e-02
769:3.1622307742009560e-02
770:3.4994181335199014e-02
771:4.0893097111670607e-02
772:1.9605904245206158e-02
773:1.8894719040180599e-02
774:2.0971350474073218e-02
775:2.5602340257031828e-02
776:6.2618537214378335e-03
777:5.8579446093712448e-03
778:6.7458540795673066e-03
779:9.2261700112020902e-03
780:-2.3596343270197847e-03
781:-2.0681100887264469e-03
782:-1.3563928104508643e-03
783:-1.4537218570639764e-04
784:4.5072341603273586e-02
785:4.9832534218586036e-02
786:4.8153085146051947e-02
787:4.0075219359603759e-02
788:2.9138037342088391e-02
789:3.3488519115713961e-02
790:3.2054616437524323e-02
791:2.3888543268695928e-02
792:1.1284037411748439e-02
793:1.4233128696888104e-02
794:1.3899598980506378e-02
795:8.6567823586369119e-03
796:8.2422333003659930e-04
797:2.4722695241149277e-03
798:2.8785813666537276e-03
799:6.9246496896006708e-04
800:3.3791571180526281e-02
801:2.9806375107511291e-02
802:4.2689548302295315e-02
803:6.6763933299606393e-02
804:1.7149437180235323e-02
805:1.0954711286066312e-02
806:2.0550998935914725e-02
807:4.4004274918316780e-02
808:3.9893478412875490e-03
809:-3.1468928668451613e-04
810:8.1189769068282132e-03
811:2.8741505478169904e-02
812:-1.4169702496841393e-03
813:-1.7275023541397519e-03
814:8.8104985000626492e-03
815:2.7748313086736365e-02
816:8.3625297448581312e-02
817:1.0348228638816963e-01
818:1.0356274734359631e-01
819:8.5052506512788922e-02
820:6.1870118189692132e-02
821:8.5953796052628956e-02
822:9.2695948931975247e-02
823:7.7037340240018085e-02
824:4.4842495371561944e-02
825:6.8165701293688305e-02
826:7.7804550291124944e-02
827:6.5736144454597745e-02
828:4.1679459238524362e-02
829:6.1545977557763511e-02
830:6.9243998106690116e-02
831:5.8321665913837945e-02
832:7.0229728333506450e-02
833:5.5208017230321593e-02
834:6.2202893200921448e-02
835:8.5104823193278972e-02
836:6.2064681732643297e-02
837:4.4687489793489944e-02
838:4.7478947386930301e-02
839:6.8734087545031033e-02
840:5.2578896468312639e-02
841:3.6643095605594631e-02
842:3.8990835594156108e-02
843:5.9851657589781511e-02
844:4.6771831434994152e-02
845:3.3484673860922569e-02
846:3.8294891168046769e-02
847:6.0488346608266109e-02
848:1.0192464793366124e-01
849:1.2883019959541794e-01
850:1.5559039275174572e-01
851:1.7293207696680121e-01
852:8.5978914042430271e-02
853:1.1668291935873634e-01
854:1.5329415077734423e-01
855:1.8099290421521683e-01
856:7.7454776265818356e-02
857:1.1130745174326775e-01
858:1.5603234726642878e-01
859:1.9201091860770600e-01
860:7.8742070294124930e-02
861:1.1496237416379880e-01
862:1.6463995737896298e-01
863:2.0524138644428666e-01
864:1.2222721007496640e-01
865:-3.8893210383707083e-01
866:-4.9969271619001765e-01
867:-4.5686146723492714e-02
868:5.5775757275109028e-01
869:-5.7447106682196125e-01
870:-9.5386243108137581e-01
871:-3.1352688230353487e-01
872:1.0609728079484273e+00
873:-7.6721987419840876e-01
874:-1.4067536561840979e+00
875:-5.2391405333763252e-01
876:1.2758972108022615e+00
877:-8.3376968695439246e-01
878:-1.5259381042618079e+00
879:-5.0318250298061307e-01
880:3.8623155416610638e-01
881:9.4428201662191624e-01
882:9.8288059089157764e-01
883:4.2377833915366642e-01
884:3.2832516816809471e-01
885:1.1147126028255265e+00
886:1.1272592804869810e+00
887:3.7253846303513072e-01
888:3.6645838135331904e-01
889:1.4674859032026106e+00
890:1.5677518768867202e+00
891:6.8001466324168036e-01
892:5.0130912279401496e-01
893:1.7688273386145394e+00
894:1.9699467220686608e+00
895:1.0699534061678755e+00
896:-6.5239665516456380e-02
897:-7.1194765163045459e-01
898:-8.5745329851536856e-01
899:-4.0140907661124736e-01
900:-2.5066109443275630e-01
901:-1.0052035246643778e+00
902:-9.8980226597043319e-01
903:-1.9715587269329990e-01
904:-6.3325301576019954e-02
905:-9.8764464067064184e-01
906:-1.0433329584126776e+00
907:-1.7787284960097313e-01
908:2.8831877584671972e-01
909:-7.5833267738180177e-01
910:-1.0323175150529489e+00
911:-3.4285571507481077e-01
912:1.8404688771644310e-02
913:5.4221964113096544e-01
914:6.1073972725613623e-01
915:2.1768122295877984e-01
916:4.7096467227393551e-01
917:1.5277656155036841e+00
918:2.2343721792777602e+00
919:2.1194892021457532e+00
920:5.7959179175919118e-01
921:1.9047983433916871e+00
922:3.0133123839229565e+00
923:3.1075949725660688e+00
924:3.3176377928139789e-01
925:1.5764747369132222e+00
926:2.6886479116273896e+00
927:2.8236707137263979e+00
928:-1.1324547953346420e-01
929:-4.6595730279897840e-01
930:-4.1116464122586610e-01
931:-8.0781848908146367e-02
932:1.8079282799267073e+00
933:1.1876315708498804e+00
934:5.2786305818216239e-01
935:2.5372038404233926e-01
936:2.8261037132117122e+00
937:2.0326080201228716e+00
938:8.8455156728126161e-01
939:2.2213682554547659e-01
940:2.5609498372951145e+00
941:1.7509270781948651e+00
942:5.3939003145125208e-01
943:-1.4035685581702331e-01
944:1.4975879417102533e-01
945:4.0269552676095693e-01
946:4.4881012563200878e-01
947:3.8191470224937446e-01
948:2.1272399417608240e-01
949:1.5080459865215273e-01
950:9.0702802237729988e-02
951:9.2536306039693775e-02
952:2.7776948464859803e-02
953:-1.5846539745445234e-01
954:-1.6346954687499085e-01
955:-5.5088062063286120e-02
956:-3.1349774007586434e-01
957:-3.9848852124283096e-01
958:-2.3045335139070669e-01
959:-3.1477512419982215e-02
960:3.4618141921323786e-01
961:3.1904922662064089e-01
962:2.9932175643741632e-01
963:2.3396290772832179e-01
964:1.2042170146067056e-01
965:2.1767123363940483e-01
966:3.3793238680611898e-01
967:3.3792960046051934e-01
968:2.1640888472329180e-02
969:1.7559998862499004e-01
970:3.2043773381596480e-01
971:3.1918879755126872e-01
972:5.7598838678845583e-02
973:1.7963929395269010e-01
974:2.3567660938592622e-01
975:1.8234498861125750e-01
976:1.6678715833878247e-01
977:4.5162471925075158e-02
978:-6.2872159178728904e-02
979:-8.2465809433739018e-02
980:2.8311268939087092e-01
981:1.4160664429273970e-01
982:-3.9379983615040970e-02
983:-1.1635598989830802e-01
984:2.6167351209186024e-01
985:1.1187000727664806e-01
986:-8.1136244530799637e-02
987:-1.6275785419167874e-01
988:1.1772507224249480e-01
989:-1.2191621621080423e-02
990:-1.4518785577480373e-01
991:-1.8086829609589258e-01
992:-6.6152534324237025e-02
993:-3.4107534380561154e-02
994:-7.0350802173957299e-03
995:-3.6496887347857495e-03
996:-1.2054210189019959e-01
997:-9.9919437698718208e-02
998:-5.2912779793256051e-02
999:-2.4921067025839162e-02
1000:-1.6612304771057754e-01
1001:-1.3710863796891920e-01
1002:-7.1571192099257969e-02
1003:-2.9003900609998010e-02
1004:-1.6745336461126042e-01
1005:-1.2235683894552754e-01
1006:-5.5551300027234012e-02
1007:-1.8085755233443326e-02
1008:-8.8255821893320416e-03
1009:-1.5563503386407745e-02
1010:-1.6632514932864585e-02
1011:-1.3133106821695592e-02
1012:-1.9006437479000299e-02
1013:-1.3649346600823092e-02
1014:-1.1220412084531317e-02
1015:-9.6585864725464241e-03
1016:-1.6918594307268279e-02
1017:-5.3946123674036024e-03
1018:-3.1577031824291720e-03
1019:-5.5619528206523466e-03
1020:-8.2459617626272977e-03
1021:2.3594743280396782e-04
1022:-5.5950348730284146e-04
1023:-5.5405809641115205e-03
1024:-1.0405836452531032e-02
1025:-7.1503854055797707e-03
1026:-6.0250195702151515e-03
1027:-6.4409289023216959e-03
1028:-8.1394400409829388e-03
1029:-6.2008333367685126e-03
1030:-5.8309806686982464e-03
1031:-6.9922478519075766e-03
1032:-6.6576062983755126e-03
1033:-8.2979682666634545e-03
1034:-1.0317833310522365e-02
1035:-1.2209750870042755e-02
1036:-8.3097477413992971e-03
1037:-1.2452463536891060e-02
1038:-1.6287485332675017e-02
1039:-1.8546327381995520e-02
1040:-6.7467104100325899e-03
1041:-6.7217730160169589e-03
1042:-5.9528065424453488e-03
1043:-5.3145843619645840e-03
1044:-8.0029523435932639e-03
1045:-9.5911793010142465e-03
1046:-1.0960881654932529e-02
1047:-1.1574884433931835e-02
1048:-1.3439469630980305e-02
1049:-1.5668912821927953e-02
1050:-1.8130335361078061e-02
1051:-1.9510296712059977e-02
1052:-1.9665949041603931e-02
1053:-2.1695158608770561e-02
1054:-2.4028711424753171e-02
1055:-2.5417624057634900e-02
1056:-5.1192279294128501e-03
1057:-5.2087063122340906e-03
1058:-5.9252237953614489e-03
1059:-6.6407556854748816e-03
1060:-1.1794080527764811e-02
1061:-1.2288903543281398e-02
1062:-1.3071906268842604e-02
1063:-1.3700825393687685e-02
1064:-2.0031412002002341e-02
1065:-2.0843142604254211e-02
1066:-2.1710080419248087e-02
1067:-2.2300924952332803e-02
1068:-2.5978082127992588e-02
1069:-2.6847537419705695e-02
1070:-2.7755447852043976e-02
1071:-2.8364751247882878e-02
1072:-6.9921619051776110e-03
1073:-7.5239266636625019e-03
1074:-8.0105973085657419e-03
1075:-8.2676236050436506e-03
1076:-1.4021491877542154e-02
1077:-1.4549202197697546e-02
1078:-1.5091802741546657e-02
1079:-1.5401156824914108e-02
1080:-2.2609574457963508e-02
1081:-2.3150573283368159e-02
1082:-2.3756327485067966e-02
1083:-2.4128274281259462e-02
1084:-2.8682701316719347e-02
1085:-2.9244936296469033e-02
1086:-2.9891925214499449e-02
1087:-3.0311227212646678e-02
1088:-8.3756049322919503e-03
1089:-8.5242654051599382e-03
1090:-8.6291019028226310e-03
1091:-8.6586292324166668e-03
1092:-1.5529608388613111e-02
1093:-1.5704655076881985e-02
1094:-1.5831474451458383e-02
1095:-1.5876937412967602e-02
1096:-2.4289474791842375e-02
1097:-2.4531741527294225e-02
1098:-2.4760399710798884e-02
1099:-2.4895212569028793e-02
1100:-3.0505248182599715e-02
1101:-3.0829760988932916e-02
1102:-3.1198963819229673e-02
1103:-3.1459054191612719e-02
1104:-8.6636047853198232e-03
1105:-8.6934362563158701e-03
1106:-8.7850618974358186e-03
1107:-8.9002780998082443e-03
1108:-1.5892722412192143e-02
1109:-1.5950631062007888e-02
1110:-1.6097419516400341e-02
1111:-1.6271862772743714e-02
1112:-2.4962725517480695e-02
1113:-2.5124691180405511e-02
1114:-2.5419257764380219e-02
1115:-2.5714729003168076e-02
1116:-3.1597121903267363e-02
1117:-3.1894827883317975e-02
1118:-3.2367374937727351e-02
1119:-3.2794973280949061e-02
1120:-8.9737043328078098e-03
1121:-9.0380332032592384e-03
1122:-8.9451367650471170e-03
1123:-8.7263917587474607e-03
1124:-1.6383686909006313e-02
1125:-1.6530331205626556e-02
1126:-1.6547938104987576e-02
1127:-1.6400797099725542e-02
1128:-2.5893859461853599e-02
1129:-2.6180600050681329e-02
1130:-2.6410322902632344e-02
1131:-2.6448657378624667e-02
1132:-3.3041913218578536e-02
1133:-3.3460523811276170e-02
1134:-3.3890610086367678e-02
1135:-3.4120325494303237e-02
1136:-8.5642309218380876e-03
1137:-8.3600733160034916e-03
1138:-8.3511935729785620e-03
1139:-8.5627257534020788e-03
1140:-1.6267259249847715e-02
1141:-1.6096627463567114e-02
1142:-1.6120589293372237e-02
1143:-1.6375858305828536e-02
1144:-2.6420224683477656e-02
1145:-2.6424522043149830e-02
1146:-2.6631709296223088e-02
1147:-2.6998377904822856e-02
1148:-3.4210343920452260e-02
1149:-3.4435825680386681e-02
1150:-3.4902529175826737e-02
1151:-3.5427279396126131e-02
1152:-8.7415910232395873e-03
1153:-8.8929416120895020e-03
1154:-8.6640696821219630e-03
1155:-8.1616194666389238e-03
1156:-1.6593141066134545e-02
1157:-1.6851831524083514e-02
1158:-1.6796425498378922e-02
1159:-1.6418548571081982e-02
1160:-2.7270591113139814e-02
1161:-2.7697400484882971e-02
1162:-2.7988457398661657e-02
1163:-2.7959027237351795e-02
1164:-3.5767625339333808e-02
1165:-3.6360398162835005e-02
1166:-3.6970075359121155e-02
1167:-3.7274818777626194e-02
1168:-7.7997803840312695e-03
1169:-7.3347489844470901e-03
1170:-7.2265910635486742e-03
1171:-7.5241950287746216e-03
1172:-1.6108671935173197e-02
1173:-1.5697910482823801e-02
1174:-1.5643087591866840e-02
1175:-1.6033554250611180e-02
1176:-2.7851258234576272e-02
1177:-2.7700961375572482e-02
1178:-2.7758784893586113e-02
1179:-2.8095542672491081e-02
1180:-3.7372782359728296e-02
1181:-3.7521885355203115e-02
1182:-3.7757350022342956e-02
1183:-3.8053879519008689e-02
1184:-7.7884510347728288e-03
1185:-7.9878060015310254e-03
1186:-7.6537358921912706e-03
1187:-7.0268631484859921e-03
1188:-1.6385398227935465e-02
1189:-1.6801548110741721e-02
1190:-1.6672163787719636e-02
1191:-1.5977641433527093e-02
1192:-2.8392219680185286e-02
1193:-2.8873014962402209e-02
1194:-2.9105135950290979e-02
1195:-2.8809220097840198e-02
1196:-3.8274642027017372e-02
1197:-3.8726886478758334e-02
1198:-3.9217123922271141e-02
1199:-3.9370704067174245e-02
1200:-6.6010079464813047e-03
1201:-5.8687024335666365e-03
1202:-4.9174859771581592e-03
1203:-4.0287408679347686e-03
1204:-1.5388687058014775e-02
1205:-1.4185211975150521e-02
1206:-1.2697259027636196e-02
1207:-1.1815543968118793e-02
1208:-2.8427303639120410e-02
1209:-2.7246303837433324e-02
1210:-2.5212237155389280e-02
1211:-2.3671261950052598e-02
1212:-3.9304479296082183e-02
1213:-3.8485484692488074e-02
1214:-3.6339138607328028e-02
1215:-3.4212540275718580e-02
1216:-3.4572219964749554e-03
1217:-2.4267120381085958e-03
1218:-1.8542022063090344e-03
1219:-2.6080116782672270e-03
1220:-1.1488210508355502e-02
1221:-1.0995734323533124e-02
1222:-1.0308682239799860e-02
1223:-9.5167283136472353e-03
1224:-2.2992819558641884e-02
1225:-2.2229658843069881e-02
1226:-2.1468592389285359e-02
1227:-2.0310884494049813e-02
1228:-3.3060388010328484e-02
1229:-3.1651098364349442e-02
1230:-3.0670459032262481e-02
1231:-2.9852769358195152e-02
1232:-3.3767599368198322e-03
1233:-1.1163297318824374e-03
1234:1.1618300487351333e-02
1235:3.0379880714133244e-02
1236:-8.7408363912834432e-03
1237:-3.1695050732592506e-03
1238:1.2891531604019717e-02
1239:3.1956094119123653e-02
1240:-1.9060106992096575e-02
1241:-1.1928255337070197e-02
1242:6.4156772002746838e-03
1243:2.6405278701120208e-02
1244:-2.8937190136176346e-02
1245:-2.2114764304626066e-02
1246:-3.4938185320071112e-03
1247:1.7160817268212305e-02
1248:4.3339499058222951e-02
1249:6.1028593760152725e-02
1250:6.6503773868310620e-02
1251:5.5300149198971707e-02
1252:4.3917833583740469e-02
1253:5.9015920471783972e-02
1254:6.1649567886080663e-02
1255:5.0176804862690251e-02
1256:3.8288337318087146e-02
1257:5.2616787375573799e-02
1258:5.4332131551032524e-02
1259:4.3325590402299829e-02
1260:2.9517518859739279e-02
1261:4.4618766612275679e-02
1262:4.7256360682865192e-02
1263:3.7087804499136984e-02
1264:4.4321795226541748e-02
1265:3.2416926251549551e-02
1266:3.9119859680008619e-02
1267:6.2584769597108694e-02
1268:4.0083826637159641e-02
1269:3.0287121418366165e-02
1270:3.9767644778929009e-02
1271:6.4930434703397863e-02
1272:3.4156447096618726e-02
1273:2.6256788260095632e-02
1274:3.7809652517712442e-02
1275:6.3829181283057729e-02
1276:2.8455188456826982e-02
1277:2.1454434658287762e-02
1278:3.3694762295560406e-02
1279:5.9672650324384000e-02
1280:8.1420212554138713e-02
1281:1.1919087948750302e-01
1282:1.7165817583244272e-01
1283:2.1472526521463586e-01
1284:8.4458628885464015e-02
1285:1.2430909144840062e-01
1286:1.8087194440372015e-01
1287:2.2774955178812342e-01
1288:8.3511720283419147e-02
1289:1.2442326438237657e-01
1290:1.8384942415106409e-01
1291:2.3374427699326675e-01
1292:7.9115428882779698e-02
1293:1.1987201033281317e-01
1294:1.7973431688355221e-01
1295:2.3036398716595066e-01
1296:1.2945580596405069e+00
1297:-8.2626437733788527e-01
1298:-1.4756535058762517e+00
1299:-4.1355399563784134e-01
1300:1.1640913416265133e+00
1301:-7.1475250935966517e-01
1302:-1.2274341713461423e+00
1303:-2.4557612496100212e-01
1304:8.0141952390105675e-01
1305:-4.4655236745066307e-01
1306:-7.6214901590615602e-01
1307:-1.2110289661890505e-01
1308:4.9303085199031704e-01
1309:-2.1306085595953433e-01
1310:-4.3205467733150948e-01
1311:-1.5545799063752822e-01
1312:6.0466504305294977e-01
1313:1.9031424511185762e+00
1314:2.1481771532045779e+00
1315:1.2730373091276810e+00
1316:6.6190982006014654e-01
1317:1.8247881501922560e+00
1318:2.0632467286863014e+00
1319:1.2998639869724840e+00
1320:4.5283524082294097e-01
1321:1.1670610610738690e+00
1322:1.2673798122777191e+00
1323:7.4429099837333257e-01
1324:9.9291205491803869e-02
1325:3.7665273867598192e-01
1326:3.2559908098039037e-01
1327:2.6302608488478828e-02
1328:4.9579879431918317e-01
1329:-5.9677443095483307e-01
1330:-1.0161292464208906e+00
1331:-4.7707346215626245e-01
1332:6.1123522498610172e-01
1333:-4.0599310691409257e-01
1334:-9.1391911771397427e-01
1335:-5.6621950351666439e-01
1336:2.9209719516836197e-01
1337:-3.5975157898550369e-01
1338:-6.4727275000548856e-01
1339:-3.6909866525178658e-01
1340:-1.9296110049812890e-01
1341:-4.3027856090620042e-01
1342:-3.5978123903693016e-01
1343:-3.1479660957431155e-02
1344:1.1352401118389829e-01
1345:1.2341896100673053e+00
1346:2.2546989613874331e+00
1347:2.3703672063121126e+00
1348:-1.1141959014767039e-01
1349:7.7320823764171565e-01
1350:1.5702996665828957e+00
1351:1.6093605708947498e+00
1352:-4.2779099366028930e-02
1353:5.4393643372048672e-01
1354:9.7975989173652822e-01
1355:8.7005248131265045e-01
1356:2.2148782838889397e-01
1357:5.7575877195437575e-01
1358:6.8740541160858504e-01
1359:4.4756358374000121e-01
1360:2.1135064325215587e+00
1361:1.3276709481602635e+00
1362:1.7683521374241240e-01
1363:-4.2773633901733960e-01
1364:1.3531045525924352e+00
1365:6.2852898808136437e-01
1366:-3.5598752434652947e-01
1367:-7.9201632752452777e-01
1368:6.1121212962838867e-01
1369:1.2736947395248893e-02
1370:-6.6607027292809162e-01
1371:-8.6194651934919053e-01
1372:2.0041088943918925e-01
1373:-2.4360919316876101e-01
1374:-6.1029232665555422e-01
1375:-6.1394132535176826e-01
1376:-5.4900606692947851e-01
1377:-5.2491023470651499e-01
1378:-2.3179492489431805e-01
1379:1.4049683398751631e-02
1380:-8.1725497370858025e-01
1381:-6.2798787727054417e-01
1382:-1.8780604520795788e-01
1383:8.5680268792109007e-02
1384:-7.8860875211393167e-01
1385:-4.9931863717134661e-01
1386:-6.4200061752610629e-02
1387:1.3247227095333231e-01
1388:-4.9388027251835459e-01
1389:-2.2534680826828599e-01
1390:5.9699065456090508e-02
1391:1.2718141512636238e-01
1392:1.0084722957491654e-01
1393:1.8282623387380792e-01
1394:1.6237053075757257e-01
1395:7.0811840777260632e-02
1396:1.4915187861442294e-01
1397:1.5298227775557044e-01
1398:2.5580817498562877e-02
1399:-1.0132754030430492e-01
1400:1.4058468631142793e-01
1401:6.1007985948350635e-02
1402:-1.1357214177115899e-01
1403:-2.1709748807774254e-01
1404:8.6032801752619195e-02
1405:-2.7837082793323833e-02
1406:-1.6560661549370345e-01
1407:-2.1000208751843380e-01
1408:4.1115250632368268e-03
1409:-1.0285618640321308e-01
1410:-1.8094049524681444e-01
1411:-1.7851264657509250e-01
1412:-1.5686377462269926e-01
1413:-2.1169324912744616e-01
1414:-2.0213524370574754e-01
1415:-1.4979877995984667e-01
1416:-2.3768710452614902e-01
1417:-2.2625490318782446e-01
1418:-1.5342391297202851e-01
1419:-8.4927223811489955e-02
1420:-1.9878376054411034e-01
1421:-1.5312865361906186e-01
1422:-7.9045413849614776e-02
1423:-3.2885108112225184e-02
1424:-1.5289286696148585e-01
1425:-9.9040691304237094e-02
1426:-3.7961069083553706e-02
1427:-9.1691469947073872e-03
1428:-1.1262552367640853e-01
1429:-5.6108833790833389e-02
1430:-1.1942831985814133e-02
1431:1.1118614814412580e-03
1432:-5.3745649567192896e-02
1433:-1.5716552466708278e-02
1434:2.3538955991869227e-03
1435:9.2559745917128856e-04
1436:-1.8109557898951911e-02
1437:-3.9099462969721058e-03
1438:-2.7359585772677997e-03
1439:-8.3113303806602399e-03
1440:-2.8780799338612340e-03
1441:1.4560080564485173e-03
1442:-1.6096152479178323e-03
1443:-7.3420619293156457e-03
1444:1.7148940304947235e-03
1445:-2.9365773352110460e-04
1446:-6.1962047735623135e-03
1447:-1.2152388670994961e-02
1448:-2.3904304118144370e-03
1449:-8.1449347359332687e-03
1450:-1.4559663815433336e-02
1451:-1.9133197289473158e-02
1452:-1.1512940024309713e-02
1453:-1.6279564492520052e-02
1454:-2.0752334326634508e-02
1455:-2.3538442941710161e-02
1456:-1.0560429231924909e-02
1457:-1.5460004496186123e-02
1458:-1.9924750487614745e-02
1459:-2.2306438621891252e-02
1460:-1.5449393655446196e-02
1461:-2.0615862270069125e-02
1462:-2.5419721865369487e-02
1463:-2.7877534339771675e-02
1464:-2.1561686928363182e-02
1465:-2.5585203876483716e-02
1466:-2.9708372684717779e-02
1467:-3.2050993192874473e-02
1468:-2.4996700817635643e-02
1469:-2.7675375811424357e-02
1470:-3.0912277059775943e-02
1471:-3.3088855009971226e-02
1472:-2.3349829021183044e-02
1473:-2.5170950761412403e-02
1474:-2.7223278029673354e-02
1475:-2.8457855996715131e-02
1476:-2.8849920934094081e-02
1477:-3.0430918809619522e-02
1478:-3.2108148340504745e-02
1479:-3.3120315729536116e-02
1480:-3.3031784629341386e-02
1481:-3.4553640990955280e-02
1482:-3.6064153994716928e-02
1483:-3.6965447170419517e-02
1484:-3.4105651352773089e-02
1485:-3.5689701470990272e-02
1486:-3.7247903766556539e-02
1487:-3.8178783609341363e-02
1488:-2.8976137744556187e-02
1489:-2.9811836332965354e-02
1490:-3.0728870292208547e-02
1491:-3.1360662293190136e-02
1492:-3.3574341964501868e-02
1493:-3.4362028951487489e-02
1494:-3.5302689757262008e-02
1495:-3.5976060094021482e-02
1496:-3.7390960988671666e-02
1497:-3.8175264785266241e-02
1498:-3.9169855831339868e-02
1499:-3.9896441628572858e-02
1500:-3.8623152617940457e-02
1501:-3.9450325506012414e-02
1502:-4.0506938543120360e-02
1503:-4.1278043321401670e-02
1504:-3.1688654311356937e-02
1505:-3.2265025742109203e-02
1506:-3.2932236657983116e-02
1507:-3.3377973390867517e-02
1508:-3.6322249645566941e-02
1509:-3.6928195758861332e-02
1510:-3.7643021399374775e-02
1511:-3.8146866616323584e-02
1512:-4.0266387275158057e-02
1513:-4.0921497259670134e-02
1514:-4.1723664078681770e-02
1515:-4.2321719716508749e-02
1516:-4.1669279538746669e-02
1517:-4.2374828663538616e-02
1518:-4.3266660432591107e-02
1519:-4.3951575400874056e-02
1520:-3.3592959675617089e-02
1521:-3.3972739477104316e-02
1522:-3.4438343573664841e-02
1523:-3.4784181756516645e-02
1524:-3.8404973360493970e-02
1525:-3.8891038843836198e-02
1526:-3.9533907602081655e-02
1527:-4.0034734462138566e-02
1528:-4.2642458348940711e-02
1529:-4.3268303557303288e-02
1530:-4.4128277907051462e-02
1531:-4.4814299594513739e-02
1532:-4.4324879229567841e-02
1533:-4.5058886971742110e-02
1534:-4.6076574645066551e-02
1535:-4.6894649812462018e-02
1536:-3.4970095481928781e-02
1537:-3.5358865265121844e-02
1538:-3.5948506955696742e-02
1539:-3.6460798236067037e-02
1540:-4.0306822335876534e-02
1541:-4.0859681395887568e-02
1542:-4.1663155196023940e-02
1543:-4.2334893809547428e-02
1544:-4.5189050026638103e-02
1545:-4.5934337190285564e-02
1546:-4.6988140718668782e-02
1547:-4.7852063981015852e-02
1548:-4.7342591505392391e-02
1549:-4.8219234893450022e-02
1550:-4.9436344828315867e-02
1551:-5.0424843411739868e-02
1552:-3.6750080381859916e-02
1553:-3.7247035896911238e-02
1554:-3.7792221172163971e-02
1555:-3.8133293721174896e-02
1556:-4.2706340309961642e-02
1557:-4.3355671461481379e-02
1558:-4.4115336668407723e-02
1559:-4.4650111356223939e-02
1560:-4.8326473087932684e-02
1561:-4.9174127805139495e-02
1562:-5.0207939448992121e-02
1563:-5.0968928071683683e-02
1564:-5.0967760769427599e-02
1565:-5.1958540209311552e-02
1566:-5.3198271799511428e-02
1567:-5.4121077934665557e-02
1568:-3.8294103825387206e-02
1569:-3.8660237028202593e-02
1570:-3.9304621935644324e-02
1571:-3.9944316294905378e-02
1572:-4.4928906201095964e-02
1573:-4.5528353315926126e-02
1574:-4.6471587762285375e-02
1575:-4.7312526500477889e-02
1576:-5.1374769961842620e-02
1577:-5.2214577349498498e-02
1578:-5.3461444054531577e-02
1579:-5.4516585464854890e-02
1580:-5.4610936674948478e-02
1581:-5.5595861522585006e-02
1582:-5.7013484638158793e-02
1583:-5.8192139088274052e-02
1584:-4.0335064287216366e-02
1585:-4.1031595445306372e-02
1586:-4.1815603964025921e-02
1587:-4.2297163706299261e-02
1588:-4.7795685442335339e-02
1589:-4.8674086956296735e-02
1590:-4.9742064293322681e-02
1591:-5.0497422273122296e-02
1592:-5.5105197149907630e-02
1593:-5.6185750191734517e-02
1594:-5.7545103232102775e-02
1595:-5.8558681953729784e-02
1596:-5.8846220588524970e-02
1597:-6.0054109389832432e-02
1598:-6.1589855328964736e-02
1599:-6.2747153188550023e-02
1600:-4.2505385771802393e-02
1601:-4.2831795277011649e-02
1602:-4.3207206989968647e-02
1603:-4.3521643241319206e-02
1604:-5.0873787785175074e-02
1605:-5.1488044568769556e-02
1606:-5.2136954982776408e-02
1607:-5.2552021263272922e-02
1608:-5.9087535643131288e-02
1609:-5.9985308478515152e-02
1610:-6.0967176887245983e-02
1611:-6.1585598854297874e-02
1612:-6.3355884273729193e-02
1613:-6.4409973927136543e-02
1614:-6.5602831084672741e-02
1615:-6.6383076829788765e-02
1616:-4.3719298934039738e-02
1617:-4.4157658711989158e-02
1618:-4.4753037151734669e-02
1619:-4.5125006217250289e-02
1620:-5.2760100743935362e-02
1621:-5.3227927857885139e-02
1622:-5.3975101493987480e-02
1623:-5.4620009390941443e-02
1624:-6.1876815234762531e-02
1625:-6.2463022144162286e-02
1626:-6.3351305321210472e-02
1627:-6.4148400043349124e-02
1628:-6.6757144209807537e-02
1629:-6.7461292849834723e-02
1630:-6.8437880447483557e-02
1631:-6.9265850445708710e-02
1632:-4.5228613405893556e-02
1633:-4.4669085907733073e-02
1634:-4.2612727687314556e-02
1635:-4.0272433689689816e-02
1636:-5.4937320033051594e-02
1637:-5.4744536081159832e-02
1638:-5.2901584854578181e-02
1639:-5.0369271664000743e-02
1640:-6.4578563259643992e-02
1641:-6.4639540426688055e-02
1642:-6.3067267962962470e-02
1643:-6.0566887272841541e-02
1644:-6.9707350474919022e-02
1645:-6.9842785937845639e-02
1646:-6.8435998662949124e-02
1647:-6.6069143517448525e-02
1648:-3.8891954740853038e-02
1649:-3.7090229064606420e-02
1650:-3.5886249480854109e-02
1651:-3.5271928191103814e-02
1652:-4.8729073535752190e-02
1653:-4.6422414588233443e-02
1654:-4.4867035319368337e-02
1655:-4.4481531862280953e-02
1656:-5.8846248871137270e-02
1657:-5.6289525518142591e-02
1658:-5.4485163401127933e-02
1659:-5.4203108932158114e-02
1660:-6.4404955550423665e-02
1661:-6.1876890677099221e-02
1662:-6.0053565033154933e-02
1663:-5.9811545286325499e-02
1664:-3.4625188764845279e-02
1665:-2.8276373470476537e-02
1666:-9.9371937279280950e-03
1667:1.0948490122360332e-02
1668:-4.4186051649693865e-02
1669:-3.8450035222702995e-02
1670:-2.0353250778927655e-02
1671:1.1104070663973543e-03
1672:-5.4115158522967201e-02
1673:-4.8641120846149397e-02
1674:-3.0210862111938581e-02
1675:-7.6625473217970209e-03
1676:-5.9780598836899984e-02
1677:-5.4240572960426565e-02
1678:-3.5182194115940105e-02
1679:-1.1596274622707079e-02
1680:2.3625844190007378e-02
1681:3.9403574322801012e-02
1682:4.2891883323639392e-02
1683:3.3247641037075788e-02
1684:1.4428206710254503e-02
1685:3.1364251745872040e-02
1686:3.5919999013371166e-02
1687:2.6558913482615000e-02
1688:6.5597251029225791e-03
1689:2.4752074994990322e-02
1690:2.9665012820960922e-02
1691:1.9419417092788539e-02
1692:3.3661244261374273e-03
1693:2.2383226896934089e-02
1694:2.6991718004122339e-02
1695:1.5380091528350126e-02
1696:2.4822348112121459e-02
1697:1.8113296243781208e-02
1698:3.0488433639871575e-02
1699:5.6317835363923090e-02
1700:1.8065173822370093e-02
1701:1.1261721497284702e-02
1702:2.3563024267469437e-02
1703:4.9262298722041645e-02
1704:1.0060441729803526e-02
1705:2.0627260076431539e-03
1706:1.3743761452109008e-02
1707:3.9541886109525533e-02
1708:4.9386912063563698e-03
1709:-4.5572032783188585e-03
1710:6.3483673508848782e-03
1711:3.2345641961886523e-02
1712:7.5585577680652133e-02
1713:1.1604060988582823e-01
1714:1.7560853226515394e-01
1715:2.2608927210338536e-01
1716:6.8404000135115370e-02
1717:1.0854167066404263e-01
1718:1.6755078138370988e-01
1719:2.1749581455482297e-01
1720:5.8868605884886654e-02
1721:9.9071523422522595e-02
1722:1.5749947709924056e-01
1723:2.0647889026868724e-01
1724:5.1989185619142508e-02
1725:9.2485492260308388e-02
1726:1.5054740472570330e-01
1727:1.9865420121936544e-01
1728:3.5269242422026936e-01
1729:-9.8722959890425427e-02
1730:-3.0148444160009297e-01
1731:-2.2713658957215185e-01
1732:1.5241016153280698e-01
1733:7.9390582423844128e-02
1734:-9.0111191965979484e-02
1735:-3.0074578372620087e-01
1736:3.9166120706220975e-03
1737:2.3915656394137730e-01
1738:1.3820295022128495e-01
1739:-2.4493745022524901e-01
1740:-3.2417684134010104e-02
1741:3.0557125481148834e-01
1742:2.7874460230082843e-01
1743:-8.8921665908107100e-02
1744:-1.3777129423776113e-01
1745:-8.7200810447240359e-02
1746:-2.1638183316998397e-01
1747:-3.9398494903982390e-01
1748:-4.4547666587117479e-01
1749:-7.0698064274340089e-01
1750:-9.2285950113284243e-01
1751:-9.0740926130488764e-01
1752:-5.4030565938646347e-01
1753:-9.7915868349895996e-01
1754:-1.1906904361688724e+00
1755:-1.0044530871913679e+00
1756:-3.8596850043231196e-01
1757:-7.9301717010211970e-01
1758:-9.1977977524080445e-01
1759:-6.6955560182907048e-01
1760:-4.8567392467746584e-01
1761:-4.8284870807762076e-01
1762:-1.8555077009142551e-01
1763:1.9055119587303124e-01
1764:-8.0936977980097191e-01
1765:-4.6644201234248972e-01
1766:1.2446875810570897e-01
1767:5.3367631875276056e-01
1768:-7.6789841098272016e-01
1769:-2.2332604620519780e-01
1770:4.6720213377141340e-01
1771:8.0923222927521743e-01
1772:-4.1209647779232389e-01
1773:1.0328889343866486e-01
1774:6.6578828839385162e-01
1775:8.8966647486142902e-01
1776:4.0898836808136418e-01
1777:6.3683410167707399e-01
1778:5.6688304340531426e-01
1779:2.6118746647945462e-01
1780:6.8343186862306560e-01
1781:7.1302040937922295e-01
1782:3.9450548514575290e-01
1783:2.2944433368877682e-02
1784:8.7208811072914716e-01
1785:7.4276501090740665e-01
1786:2.9954472125123799e-01
1787:-5.4158948871316580e-02
1788:8.9968126535273418e-01
1789:7.3800820129635647e-01
1790:3.4893025273234979e-01
1791:7.0478629045326854e-02
1792:2.9630198841043245e-02
1793:-3.0902711643951353e-01
1794:-4.8684122058292745e-01
1795:-3.9155616049427278e-01
1796:-1.6743166564746992e-01
1797:-3.3767282802913628e-01
1798:-2.5823872859506436e-01
1799:-5.5554205806961958e-02
1800:-1.8413646394457353e-01
1801:-2.2461362311933425e-01
1802:-2.4683517896703651e-02
1803:1.7386404358626772e-01
1804:-2.2107213596647187e-02
1805:-4.7725212914030424e-02
1806:8.4071358923398537e-02
1807:1.9127258970028377e-01
1808:-2.5970115712725567e-01
1809:-3.6539583923434364e-02
1810:1.2536336104215587e-01
1811:1.0882472116564462e-01
1812:6.8878497914593717e-02
1813:1.9668110775510658e-01
1814:1.7676751183208847e-01
1815:6.0916004873356355e-02
1816:2.4846726402355238e-01
1817:2.6623470002862698e-01
1818:1.3431727497432036e-01
1819:6.3371937607289335e-04
1820:2.1438091964007969e-01
1821:1.8043235641551778e-01
1822:6.0444194705815385e-02
1823:-2.0095001365883741e-02
1824:4.4074055501656953e-02
1825:-7.2919403317969658e-02
1826:-1.6735364144374038e-01
1827:-1.7153621308049596e-01
1828:-1.9052622715530848e-02
1829:-1.1436511751546380e-01
1830:-1.3458440383988240e-01
1831:-8.8943738855773835e-02
1832:-5.4793118929772157e-02
1833:-9.2449395272892199e-02
1834:-5.1249789117747323e-02
1835:8.3289475948165187e-03
1836:-3.8809719129495789e-02
1837:-3.2255203476247531e-02
1838:1.8741373201208680e-02
1839:5.6813008179640079e-02
1840:-1.4542159673823987e-01
1841:-9.1870427130897658e-02
1842:-3.4625958954877384e-02
1843:-1.0330087556897334e-02
1844:-5.1033695887650499e-02
1845:-1.1788678310367950e-03
1846:2.1198381307955868e-02
1847:1.3130089010243727e-02
1848:3.6607133345894625e-02
1849:5.9309221507592658e-02
1850:4.4398322830017364e-02
1851:1.5992499111743594e-02
1852:6.6798664656938692e-02
1853:6.3988939537332520e-02
1854:3.4495795113553017e-02
1855:6.6823167470950419e-03
1856:-6.5905495369814526e-03
1857:-5.8005017429543808e-03
1858:-1.0688280824848293e-02
1859:-1.5583119817262512e-02
1860:2.9227597860806780e-03
1861:-1.2022177361912020e-02
1862:-2.2349872135191764e-02
1863:-2.5046648304261159e-02
1864:4.3099202714635596e-04
1865:-1.8824088615503866e-02
1866:-2.8233261636129839e-02
1867:-2.8378466916796141e-02
1868:-5.5180180720881518e-03
1869:-1.9597460738654322e-02
1870:-2.5410738059492479e-02
1871:-2.4875368050131744e-02
1872:-1.7627815795402520e-02
1873:-2.0566937782443735e-02
1874:-2.3331595465534212e-02
1875:-2.5112858050519684e-02
1876:-2.5270932445338661e-02
1877:-2.5515734552855027e-02
1878:-2.5970057237663297e-02
1879:-2.6540390847692781e-02
1880:-2.7509915988650137e-02
1881:-2.6347358346898105e-02
1882:-2.5835398336743625e-02
1883:-2.6063708606582605e-02
1884:-2.4226745231015350e-02
1885:-2.3595388787686480e-02
1886:-2.3772660706065915e-02
1887:-2.4478956487080029e-02
1888:-2.6090423439110933e-02
1889:-2.8105168978471335e-02
1890:-3.0900838308355574e-02
1891:-3.2990119816686383e-02
1892:-2.6972610219782488e-02
1893:-2.8241553397626254e-02
1894:-3.0544097477082515e-02
1895:-3.2529878569801343e-02
1896:-2.6374812760271888e-02
1897:-2.7472969661553329e-02
1898:-2.9639610727583466e-02
1899:-3.1565642813317078e-02
1900:-2.5008357759296881e-02
1901:-2.6371225628637016e-02
1902:-2.8648031507974771e-02
1903:-3.0537571292033938e-02
1904:-3.4022173083641881e-02
1905:-3.5649443459277438e-02
1906:-3.7269376019481319e-02
1907:-3.8246349178497015e-02
1908:-3.3572169561046653e-02
1909:-3.5248631122312260e-02
1910:-3.6961144838012959e-02
1911:-3.8016359876980259e-02
1912:-3.2586939297657706e-02
1913:-3.4266159643189319e-02
1914:-3.6046320552830725e-02
1915:-3.7179697321280132e-02
1916:-3.1518260526634236e-02
1917:-3.3159955053503103e-02
1918:-3.4958989894228028e-02
1919:-3.6138395861019412e-02
1920:-3.8713230804508968e-02
1921:-3.9577513097345016e-02
1922:-4.0674106800889266e-02
1923:-4.1470967872389797e-02
1924:-3.8522913383075008e-02
1925:-3.9450899976552947e-02
1926:-4.0613298064398833e-02
1927:-4.1451633022165472e-02
1928:-3.7729635372106059e-02
1929:-3.8724966464032833e-02
1930:-3.9951757537749925e-02
1931:-4.0827789129315166e-02
1932:-3.6717013032996536e-02
1933:-3.7754340352519199e-02
1934:-3.9015297396169969e-02
1935:-3.9907107137937756e-02
1936:-4.1875184970273871e-02
1937:-4.2612677760646603e-02
1938:-4.3560209563821041e-02
1939:-4.4296067621660024e-02
1940:-4.1877045562560077e-02
1941:-4.2669875566357644e-02
1942:-4.3717799932226589e-02
1943:-4.4546814604904797e-02
1944:-4.1272508816972579e-02
1945:-4.2125761322227097e-02
1946:-4.3296893427450821e-02
1947:-4.4246694593701355e-02
1948:-4.0359544605937804e-02
1949:-4.1250430609126483e-02
1950:-4.2514179278721267e-02
1951:-4.3561980716707652e-02
1952:-4.4698656456927457e-02
1953:-4.5490522289046133e-02
1954:-4.6590009014487073e-02
1955:-4.7476306865165741e-02
1956:-4.5003058290574452e-02
1957:-4.5900497131378358e-02
1958:-4.7150137708912944e-02
1959:-4.8163987867863627e-02
1960:-4.4773651692219002e-02
1961:-4.5802970525054519e-02
1962:-4.7228055010459090e-02
1963:-4.8385826166203287e-02
1964:-4.4147460395159585e-02
1965:-4.5274051857168943e-02
1966:-4.6804698827299270e-02
1967:-4.8034579968038262e-02
1968:-4.7962198402077189e-02
1969:-4.8903887227273325e-02
1970:-5.0196448963088204e-02
1971:-5.1239910836587611e-02
1972:-4.8721857410697164e-02
1973:-4.9784404192759549e-02
1974:-5.1206341211466527e-02
1975:-5.2331206006789553e-02
1976:-4.9024726921430603e-02
1977:-5.0228856521886606e-02
1978:-5.1806042133453155e-02
1979:-5.3022772432999209e-02
1980:-4.8711676854914066e-02
1981:-4.9997431955869955e-02
1982:-5.1690923514593819e-02
1983:-5.2993424697948044e-02
1984:-5.1813068762421241e-02
1985:-5.2873064823802295e-02
1986:-5.4219138378540178e-02
1987:-5.5225871976509883e-02
1988:-5.2944284653299485e-02
1989:-5.4100519487563128e-02
1990:-5.5606921443836228e-02
1991:-5.6751239566032993e-02
1992:-5.3675427984861107e-02
1993:-5.4915828987476996e-02
1994:-5.6557628662202743e-02
1995:-5.7825607109468304e-02
1996:-5.3686883488457057e-02
1997:-5.4986934360507812e-02
1998:-5.6685346627981248e-02
1999:-5.7992822765843222e-02
2000:-5.5757977593543756e-02
2001:-5.6810358760067937e-02
2002:-5.8300520332398575e-02
2003:-5.9531191233295505e-02
2004:-5.7357389424723050e-02
2005:-5.8533481903365332e-02
2006:-6.0163166383170416e-02
2007:-6.1494297030903818e-02
2008:-5.8504188732666648e-02
2009:-5.9817900611662776e-02
2010:-6.1628595616356134e-02
2011:-6.3099868779993490e-02
2012:-5.8695641677960937e-02
2013:-6.0076800539110263e-02
2014:-6.2010917880130745e-02
2015:-6.3594087730987431e-02
2016:-6.0214240100593217e-02
2017:-6.1480698976091284e-02
2018:-6.3098395524222362e-02
2019:-6.4320139981968547e-02
2020:-6.2231658594227975e-02
2021:-6.3603295144795333e-02
2022:-6.5363587122556313e-02
2023:-6.6697839106069454e-02
2024:-6.3911965919902933e-02
2025:-6.5416301608068689e-02
2026:-6.7342472250188634e-02
2027:-6.8806922418303482e-02
2028:-6.4467862679279495e-02
2029:-6.6072416859400990e-02
2030:-6.8110275940628365e-02
2031:-6.9659830653343163e-02
2032:-6.4963132716827396e-02
2033:-6.6083114025841938e-02
2034:-6.7366577019886340e-02
2035:-6.8220786169178163e-02
2036:-6.7401776480963627e-02
2037:-6.8639002304256652e-02
2038:-7.0076886839643429e-02
2039:-7.1046355847636550e-02
2040:-6.9584164975855345e-02
2041:-7.0968462940586105e-02
2042:-7.2595793742502843e-02
2043:-7.3688586477969872e-02
2044:-7.0487033948290215e-02
2045:-7.1981094256931666e-02
2046:-7.3755940335438738e-02
2047:-7.4938637666640370e-02
2048:-6.8635233305644458e-02
2049:-6.9400289345050450e-02
2050:-7.0421953444678442e-02
2051:-7.1256462707292662e-02
2052:-7.1518725098064895e-02
2053:-7.2364798598438154e-02
2054:-7.3434620744711909e-02
2055:-7.4262793749704195e-02
2056:-7.4211894768456008e-02
2057:-7.5105858212157248e-02
2058:-7.6155235874387578e-02
2059:-7.6917298293566930e-02
2060:-7.5492614070620079e-02
2061:-7.6390393920768421e-02
2062:-7.7356462810115934e-02
2063:-7.8006254691552188e-02
2064:-7.1693286721563235e-02
2065:-7.1843159944855114e-02
2066:-7.0501415448913210e-02
2067:-6.8212882350786944e-02
2068:-7.4684940864209889e-02
2069:-7.4851977117979682e-02
2070:-7.3626153034407518e-02
2071:-7.1490848580312460e-02
2072:-7.7295254704292424e-02
2073:-7.7453539379158262e-02
2074:-7.6375928898685233e-02
2075:-7.4472724206664939e-02
2076:-7.8317796833418704e-02
2077:-7.8429327662262710e-02
2078:-7.7462743623516503e-02
2079:-7.5777888668321150e-02
2080:-6.6596178005011678e-02
2081:-6.4131355836727702e-02
2082:-6.2358995796064152e-02
2083:-6.2156835066537436e-02
2084:-6.9972486064604170e-02
2085:-6.7658512675591642e-02
2086:-6.6038829801727636e-02
2087:-6.5952963902183637e-02
2088:-7.3113139642471570e-02
2089:-7.1064424092749240e-02
2090:-6.9731792042222393e-02
2091:-6.9844543728563066e-02
2092:-7.4576296873478651e-02
2093:-7.2795838851335740e-02
2094:-7.1739520615790947e-02
2095:-7.2011039041926198e-02
2096:-6.2148058801747071e-02
2097:-5.6525797618160678e-02
2098:-3.7044999167261804e-02
2099:-1.2851090753730277e-02
2100:-6.6002230833205541e-02
2101:-6.0232922128619935e-02
2102:-3.9938960926914610e-02
2103:-1.4582827081861760e-02
2104:-6.9981282960316846e-02
2105:-6.4014821181458612e-02
2106:-4.2626276845903442e-02
2107:-1.5732599228746747e-02
2108:-7.2201939750326419e-02
2109:-6.6049166584412095e-02
2110:-4.3779174386548686e-02
2111:-1.5696328260552228e-02
2112:2.5196399943260158e-03
2113:2.1945128439433047e-02
2114:2.6254569772588811e-02
2115:1.3755784825357461e-02
2116:1.5603750511921359e-03
2117:2.1716597893146117e-02
2118:2.5321009510775025e-02
2119:1.0974818945010630e-02
2120:1.4180095761867594e-03
2121:2.2452864656547646e-02
2122:2.4882487488199798e-02
2123:7.8073689717391608e-03
2124:2.2177037771407412e-03
2125:2.3861918201111040e-02
2126:2.5208363382882071e-02
2127:5.8235935828261313e-03
2128:2.6425252124024690e-03
2129:-7.7866928609006368e-03
2130:2.6281179310987620e-03
2131:2.8748942384614055e-02
2132:-1.5178070305703107e-03
2133:-1.3889878705396961e-02
2134:-4.5464486660247898e-03
2135:2.1789450544003133e-02
2136:-6.6932377798934817e-03
2137:-2.1948154066881775e-02
2138:-1.4297628675839287e-02
2139:1.2262656911429025e-02
2140:-1.0357053058179619e-02
2141:-2.8064365160728640e-02
2142:-2.1932247401036872e-02
2143:4.7411334554084139e-03
2144:4.8594925325792265e-02
2145:8.9297357963885368e-02
2146:1.4718959882540800e-01
2147:1.9481929933038872e-01
2148:4.2044702957783266e-02
2149:8.3215878860401521e-02
2150:1.4098588350982749e-01
2151:1.8798340942196748e-01
2152:3.3093147039208709e-02
2153:7.5056690437936696e-02
2154:1.3319984594856815e-01
2155:1.8010489714433939e-01
2156:2.6031389932452638e-02
2157:6.8756877300301306e-02
2158:1.2770359902064207e-01
2159:1.7525058947328148e-01
2160:-2.6885486818325761e-02
2161:3.2086169095640116e-01
2162:3.3882645289988428e-01
2163:2.6470077084177743e-02
2164:2.2038308362089386e-02
2165:3.1413253136271713e-01
2166:3.7654805274460929e-01
2167:1.8176107178050555e-01
2168:1.1739814424164441e-01
2169:2.5975868222311876e-01
2170:3.1468357675028363e-01
2171:2.5349495373889946e-01
2172:1.7423494005197251e-01
2173:2.0524317810161460e-01
2174:2.2550459381467469e-01
2175:2.2162217168687690e-01
2176:-2.3490012324802773e-01
2177:-5.7227788133723623e-01
2178:-6.3122331476382376e-01
2179:-3.7197738385858375e-01
2180:7.6043029979772280e-03
2181:-1.8529217492974093e-01
2182:-1.4343207287884654e-01
2183:9.1006540881678130e-02
2184:1.9144665845301514e-01
2185:1.5511535279073105e-01
2186:2.5253830650549808e-01
2187:4.0007395416597230e-01
2188:2.1429530071909195e-01
2189:2.3409813294967780e-01
2190:3.0623814269077865e-01
2191:3.6995897815800211e-01
2192:-1.3263179675361644e-01
2193:3.0762423665457195e-01
2194:7.4088031463272519e-01
2195:8.8711171092088414e-01
2196:2.7221912446142665e-01
2197:5.5625973837642406e-01
2198:7.7376471204336017e-01
2199:8.1287653228495182e-01
2200:4.8868329711638303e-01
2201:5.9346394449554540e-01
2202:6.2835169182846751e-01
2203:6.0889412856358105e-01
2204:3.9759661051384659e-01
2205:4.1648879435816172e-01
2206:4.0397605524575197e-01
2207:3.9489872321577846e-01
2208:8.7756005560404871e-01
2209:7.3158305840953342e-01
2210:4.1773275006894367e-01
2211:1.9311753595926170e-01
2212:7.8699813621236836e-01
2213:6.8502553023899881e-01
2214:4.9653781519666734e-01
2215:3.4908198260547213e-01
2216:5.9175105586550392e-01
2217:5.5237913772177050e-01
2218:4.7460908767689219e-01
2219:3.8340895712081235e-01
2220:3.9771195048834573e-01
2221:3.9797677444343044e-01
2222:3.6383471667651707e-01
2223:2.9291253222542651e-01
2224:1.1328407070462738e-01
2225:6.4371438102628159e-02
2226:1.1153004493512980e-01
2227:1.5004965318433855e-01
2228:2.8186995639360407e-01
2229:1.9106517036639070e-01
2230:1.1759912061544185e-01
2231:7.1752848506025049e-02
2232:3.2143239692077691e-01
2233:2.0307383728484094e-01
2234:6.7997391000300791e-02
2235:-3.5651273997969087e-03
2236:2.3569008805812300e-01
2237:1.2680292544446889e-01
2238:1.2650596087406547e-02
2239:-3.1843007049261227e-02
2240:1.4736980181367670e-01
2241:1.0335955092461770e-01
2242:2.1328255789596139e-02
2243:-1.5702929132293056e-02
2244:4.4936868933082158e-02
2245:6.1659045194848855e-03
2246:-1.0369716101749525e-02
2247:9.7074473537661944e-03
2248:-2.5073856467184023e-02
2249:-3.1600128095681877e-02
2250:6.2119639529182721e-03
2251:5.1954536170161152e-02
2252:-3.4672211636210197e-02
2253:-1.5118482917678080e-02
2254:3.4491911438544000e-02
2255:7.1356035584381874e-02
2256:-1.4252615429336750e-02
2257:8.8481219176559447e-03
2258:5.0117307218143246e-02
2259:6.8638238947650240e-02
2260:3.2248549682554771e-02
2261:6.6126242691986331e-02
2262:8.3802954617467854e-02
2263:7.3816049410360268e-02
2264:7.5576794520084756e-02
2265:9.7185809626757463e-02
2266:8.7127186461693290e-02
2267:5.9445865305070941e-02
2268:8.4431416393147690e-02
2269:8.9613174475848809e-02
2270:6.8559668083464406e-02
2271:4.1259001430813826e-02
2272:6.7916349016643035e-02
2273:5.3766782014397552e-02
2274:2.3284532902668610e-02
2275:7.9387428226898365e-04
2276:6.0076998513462231e-02
2277:3.4229075828921297e-02
2278:6.8826055122341457e-03
2279:-6.2379438687772491e-03
2280:4.1147965796298619e-02
2281:1.4741844689650318e-02
2282:-3.9901406497183873e-03
2283:-8.6017204242968930e-03
2284:2.6224887221064325e-02
2285:6.2654202965460098e-03
2286:-5.5505189466644291e-03
2287:-6.9264508169548699e-03
2288:-7.9144606230163988e-03
2289:-1.7655313993161420e-02
2290:-2.1543601563760433e-02
2291:-2.1335305380552717e-02
2292:-9.7761241523366977e-03
2293:-1.3405020567599495e-02
2294:-1.4990285335349561e-02
2295:-1.5597324866797336e-02
2296:-8.5243399967668346e-03
2297:-8.2735093136244112e-03
2298:-8.9447802203844219e-03
2299:-1.0551485614470130e-02
2300:-6.0776875724459769e-03
2301:-5.2875073290728691e-03
2302:-6.2848380859829760e-03
2303:-8.4298787155783431e-03
2304:-2.1157903127343811e-02
2305:-2.1314669339051982e-02
2306:-2.2270064891991705e-02
2307:-2.3406639826879069e-02
2308:-1.6211766014067489e-02
2309:-1.7655369754598964e-02
2310:-1.9849661289716606e-02
2311:-2.1648662637493554e-02
2312:-1.1847813420893381e-02
2313:-1.4359431263401947e-02
2314:-1.7548306959755618e-02
2315:-1.9854184459866676e-02
2316:-9.9696231753785107e-03
2317:-1.2832298074769526e-02
2318:-1.6317123358843697e-02
2319:-1.8752537239896887e-02
2320:-2.4111869405677500e-02
2321:-2.5681013517045100e-02
2322:-2.8036979935348229e-02
2323:-2.9896891698207955e-02
2324:-2.2617118820056903e-02
2325:-2.4486620595583982e-02
2326:-2.6940187508256316e-02
2327:-2.8737043730696278e-02
2328:-2.1015408532147676e-02
2329:-2.3093448113824869e-02
2330:-2.5589237427143342e-02
2331:-2.7312647467914109e-02
2332:-1.9956290262869925e-02
2333:-2.2072895773487575e-02
2334:-2.4560046671049777e-02
2335:-2.6251826660517667e-02
2336:-3.0848540856822652e-02
2337:-3.2459300277035148e-02
2338:-3.4259498012494949e-02
2339:-3.5460022568763364e-02
2340:-2.9635942723168746e-02
2341:-3.1188457543299852e-02
2342:-3.2986571305370846e-02
2343:-3.4225121520147839e-02
2344:-2.8158984653287044e-02
2345:-2.9653809229295839e-02
2346:-3.1455215228359250e-02
2347:-3.2744845335214524e-02
2348:-2.7079501502011438e-02
2349:-2.8558131098056074e-02
2350:-3.0378148263058128e-02
2351:-3.1711657776569348e-02
2352:-3.6052984963977984e-02
2353:-3.7110397783305840e-02
2354:-3.8385159797484206e-02
2355:-3.9280980225144618e-02
2356:-3.4846015772485743e-02
2357:-3.5944483257816927e-02
2358:-3.7249290667727156e-02
2359:-3.8153265422166772e-02
2360:-3.3405011684054277e-02
2361:-3.4567338665592529e-02
2362:-3.5928911616364523e-02
2363:-3.6855029956167781e-02
2364:-3.2404422462296308e-02
2365:-3.3625681556844193e-02
2366:-3.5050779335747163e-02
2367:-3.6010637792959689e-02
2368:-3.9734975140307729e-02
2369:-4.0643125815450966e-02
2370:-4.1957011107337523e-02
2371:-4.3061020393140893e-02
2372:-3.8609104784884184e-02
2373:-3.9548551329202125e-02
2374:-4.0960786761869587e-02
2375:-4.2180803565791278e-02
2376:-3.7317156233808428e-02
2377:-3.8300343755649446e-02
2378:-3.9842938130791178e-02
2379:-4.1220794236408453e-02
2380:-3.6485467728919599e-02
2381:-3.7508406425529398e-02
2382:-3.9146116851535268e-02
2383:-4.0636170002951208e-02
2384:-4.3680584604598525e-02
2385:-4.4858456166328255e-02
2386:-4.6431862664552896e-02
2387:-4.7680539466722377e-02
2388:-4.2872670634882308e-02
2389:-4.4154508882086337e-02
2390:-4.5794861555034455e-02
2391:-4.7045928088479488e-02
2392:-4.2013544618854946e-02
2393:-4.3438866302438796e-02
2394:-4.5154526266623175e-02
2395:-4.6371896528976268e-02
2396:-4.1501574761273662e-02
2397:-4.3034250506575389e-02
2398:-4.4808773112595734e-02
2399:-4.5996622205519012e-02
2400:-4.8365184954629457e-02
2401:-4.9679939976337101e-02
2402:-5.1435894477756018e-02
2403:-5.2797308972070765e-02
2404:-4.7719147870824437e-02
2405:-4.9050587004901829e-02
2406:-5.0907348210329842e-02
2407:-5.2398697327075625e-02
2408:-4.6998870951630523e-02
2409:-4.8293906247723450e-02
2410:-5.0229095271123333e-02
2411:-5.1882275600888837e-02
2412:-4.6581678902619800e-02
2413:-4.7820653988395648e-02
2414:-4.9759189818046404e-02
2415:-5.1489447908750041e-02
2416:-5.3522529655839250e-02
2417:-5.4861948318559423e-02
2418:-5.6578799998157993e-02
2419:-5.7885322527395665e-02
2420:-5.3205600751467116e-02
2421:-5.4653679993770229e-02
2422:-5.6424167836221208e-02
2423:-5.7716593054434599e-02
2424:-5.2807063022063956e-02
2425:-5.4430379224792790e-02
2426:-5.6317571973741244e-02
2427:-5.7613861605420154e-02
2428:-5.2483205104137495e-02
2429:-5.4230724755875211e-02
2430:-5.6244428008509949e-02
2431:-5.7598411100185321e-02
2432:-5.8586513639636954e-02
2433:-5.9984135262888594e-02
2434:-6.1973310492932969e-02
2435:-6.3616170871521535e-02
2436:-5.8397709112719756e-02
2437:-5.9793438129064000e-02
2438:-6.1850566382873451e-02
2439:-6.3588645962462068e-02
2440:-5.8271008736272396e-02
2441:-5.9648066532643783e-02
2442:-6.1744827743599372e-02
2443:-6.3559394879891762e-02
2444:-5.8270006984651783e-02
2445:-5.9664237431746509e-02
2446:-6.1775394132520187e-02
2447:-6.3601191805640181e-02
2448:-6.4524527668507928e-02
2449:-6.6182356526089170e-02
2450:-6.8274001734407827e-02
2451:-6.9862347926194029e-02
2452:-6.4557514412920541e-02
2453:-6.6306840986215393e-02
2454:-6.8479321224584708e-02
2455:-7.0111962819358456e-02
2456:-6.4581762584260433e-02
2457:-6.6406416196842163e-02
2458:-6.8619432941083830e-02
2459:-7.0240208512855368e-02
2460:-6.4630671468327447e-02
2461:-6.6455065576934744e-02
2462:-6.8627105172349268e-02
2463:-7.0175472802097641e-02
2464:-7.0712753885181487e-02
2465:-7.2262698263412667e-02
2466:-7.4117793267227935e-02
2467:-7.5350588402205598e-02
2468:-7.0984720454741232e-02
2469:-7.2598515704968461e-02
2470:-7.4563838719292536e-02
2471:-7.5882342498047747e-02
2472:-7.1094619653433694e-02
2473:-7.2702272376365756e-02
2474:-7.4728700158922370e-02
2475:-7.6150036288510123e-02
2476:-7.0976610934561993e-02
2477:-7.2509607523996933e-02
2478:-7.4525068528714378e-02
2479:-7.6028291698099951e-02
2480:-7.5921212792705653e-02
2481:-7.6814299963104696e-02
2482:-7.7714490436277747e-02
2483:-7.8280757165162126e-02
2484:-7.6490768319476363e-02
2485:-7.7394606636429455e-02
2486:-7.8198413934828598e-02
2487:-7.8621463998401891e-02
2488:-7.6828983125544370e-02
2489:-7.7805553497413360e-02
2490:-7.8568983672775483e-02
2491:-7.8857559905933655e-02
2492:-7.6784670622559489e-02
2493:-7.7875391976754624e-02
2494:-7.8690164757626885e-02
2495:-7.8928246240689989e-02
2496:-7.8543095794113615e-02
2497:-7.8613541760255659e-02
2498:-7.7707681391039882e-02
2499:-7.6158850943493894e-02
2500:-7.8794690784485311e-02
2501:-7.8805349083068063e-02
2502:-7.8056366514474104e-02
2503:-7.6805614230684244e-02
2504:-7.8933650613986037e-02
2505:-7.8910323710987815e-02
2506:-7.8431863345811315e-02
2507:-7.7614202109704905e-02
2508:-7.8950429038583333e-02
2509:-7.8934352790665407e-02
2510:-7.8688531199670411e-02
2511:-7.8198540006760187e-02
2512:-7.5057906034154534e-02
2513:-7.3445658846285525e-02
2514:-7.2550565053509972e-02
2515:-7.2898666725458833e-02
2516:-7.5916591888002122e-02
2517:-7.4636567772272219e-02
2518:-7.4019626737496153e-02
2519:-7.4468540670296526e-02
2520:-7.7017727142870265e-02
2521:-7.6163836295099624e-02
2522:-7.5849637422334387e-02
2523:-7.6370773441011189e-02
2524:-7.7813070601334175e-02
2525:-7.7249058109545216e-02
2526:-7.7118538718576990e-02
2527:-7.7677254245759123e-02
2528:-7.3106993104908757e-02
2529:-6.6833519132415461e-02
2530:-4.4075250611072633e-02
2531:-1.5357655681171390e-02
2532:-7.4682788556127297e-02
2533:-6.8150878608353560e-02
2534:-4.4471550217690739e-02
2535:-1.4583768752336827e-02
2536:-7.6565281725605644e-02
2537:-6.9676230200696174e-02
2538:-4.4824071939699284e-02
2539:-1.3463545097217203e-02
2540:-7.7859396454598093e-02
2541:-7.0718774389941799e-02
2542:-4.5019527301701043e-02
2543:-1.2579659671495543e-02
2544:2.9573007434104898e-03
2545:2.4901791615073037e-02
2546:2.5612571200640744e-02
2547:4.9315661415566207e-03
2548:4.4651140330888251e-03
2549:2.6933686446371848e-02
2550:2.6399594982552368e-02
2551:3.2526088999373500e-03
2552:6.5067706895354264e-03
2553:2.9598643999571878e-02
2554:2.7395442858399888e-02
2555:1.0375376958220756e-03
2556:8.0702492029169366e-03
2557:3.1607806143499319e-02
2558:2.8134223404993865e-02
2559:-6.2761211151347927e-04
2560:-1.2185767419108807e-02
2561:-3.1272034233241611e-02
2562:-2.6016343188935299e-02
2563:6.9767808293489102e-04
2564:-1.5635087999905001e-02
2565:-3.7305927860387667e-02
2566:-3.3643623793761297e-02
2567:-6.7859151128716686e-03
2568:-2.0137114951269734e-02
2569:-4.5093927934679791e-02
2570:-4.3335702079657056e-02
2571:-1.6130578226465610e-02
2572:-2.3504379033255293e-02
2573:-5.0863860393098169e-02
2574:-5.0395129862712343e-02
2575:-2.2795968349724444e-02
2576:2.2238041084880630e-02
2577:6.5429902466373452e-02
2578:1.2500967540719124e-01
2579:1.7317372036736400e-01
2580:1.5268722902766331e-02
2581:5.9451050140672777e-02
2582:1.2038219305024463e-01
2583:1.6979120062659520e-01
2584:6.6835907693666725e-03
2585:5.2314305063546562e-02
2586:1.1507086448417467e-01
2587:1.6593082835868114e-01
2588:6.6113337758708882e-04
2589:4.7455632748706719e-02
2590:1.1146246704871660e-01
2591:1.6306635105026857e-01
2592:1.8642278288889907e-01
2593:1.7792881954607503e-01
2594:1.7702886371668011e-01
2595:1.8060971132347015e-01
2596:1.6855147906756471e-01
2597:1.2935127140449634e-01
2598:1.0736018770352705e-01
2599:1.1071302958619551e-01
2600:9.5994208981576901e-02
2601:7.3318928738441758e-02
2602:5.3601915325540768e-02
2603:4.6797800199386258e-02
2604:3.1287642341241075e-02
2605:3.9004660158127431e-02
2606:3.3767003005559959e-02
2607:2.1787582164125026e-02
2608:1.8374038132716111e-01
2609:2.0188112967242630e-01
2610:2.3695247320683613e-01
2611:2.5852488165005377e-01
2612:1.1775796821121133e-01
2613:1.1896452895564472e-01
2614:9.8212194633109207e-02
2615:7.0542714168213630e-02
2616:4.4892846143782701e-02
2617:2.2482279854613815e-02
2618:-3.0280096372666754e-02
2619:-7.1733047536601216e-02
2620:1.3073278506085235e-02
2621:-1.4917326829563017e-02
2622:-5.9517240118559953e-02
2623:-8.4388759293521146e-02
2624:2.6394929600473538e-01
2625:2.6350289767645257e-01
2626:2.6021109778966411e-01
2627:2.7201547550747596e-01
2628:5.4385353615642749e-02
2629:4.2434091634542793e-02
2630:6.3275160192979976e-02
2631:1.0367626849583073e-01
2632:-8.7991783797782594e-02
2633:-8.8008643353057928e-02
2634:-4.3016482477895655e-02
2635:8.8736139438654830e-03
2636:-8.9187121844070572e-02
2637:-7.3698856440628888e-02
2638:-2.3433620740483149e-02
2639:2.0091862117033430e-02
2640:2.8665171215125479e-01
2641:3.0142383907501280e-01
2642:2.7673012215697973e-01
2643:2.1229222461685870e-01
2644:1.3098850546943924e-01
2645:1.5960191883705224e-01
2646:1.4513364022940406e-01
2647:9.3742447020274233e-02
2648:3.6296811351206243e-02
2649:6.2541455260345449e-02
2650:5.1319680021725184e-02
2651:1.5780779105992397e-02
2652:3.9001014809235186e-02
2653:5.2956378012855063e-02
2654:3.7240222422532707e-02
2655:8.9280202319155545e-03
2656:1.6041704187221684e-01
2657:6.8945817276545668e-02
2658:-1.4108241816079671e-02
2659:-3.4594576513215361e-02
2660:5.3987857488995893e-02
2661:-5.5308580532518825e-03
2662:-4.0555348387907877e-02
2663:-2.9888357313253996e-02
2664:-8.8212846264739651e-03
2665:-3.7496575087024239e-02
2666:-3.8247777530628101e-02
2667:-1.3658752164883180e-02
2668:-8.0523166668148207e-03
2669:-2.5226527856829335e-02
2670:-2.0061014547255628e-02
2671:7.0159122840244561e-04
2672:-2.6811603757572813e-02
2673:1.7495683293600758e-03
2674:4.6322657940518513e-02
2675:7.1879309317317036e-02
2676:-1.0906075620522364e-02
2677:2.3762176672221216e-02
2678:5.5901300340753121e-02
2679:6.5142819675736569e-02
2680:6.3014499567790126e-03
2681:3.5097968145239682e-02
2682:5.2476508915639049e-02
2683:5.1365158010711634e-02
2684:1.5612058445863020e-02
2685:3.5803731954952088e-02
2686:4.6087779125555298e-02
2687:4.3667564392472796e-02
2688:7.8248282614679809e-02
2689:7.6199315136711562e-02
2690:5.4836266758675596e-02
2691:3.1920187525683402e-02
2692:6.3387874914589803e-02
2693:5.3998541546789014e-02
2694:3.5390655992250518e-02
2695:2.0072254627656921e-02
2696:4.6363067558278050e-02
2697:3.6080125492247532e-02
2698:2.3204367304052828e-02
2699:1.4526720396622887e-02
2700:3.9589307710161260e-02
2701:3.1821948837492668e-02
2702:2.2520173046708496e-02
2703:1.6112152415538428e-02
2704:2.0007747895895905e-02
2705:4.4345560255377933e-03
2706:-4.5133973095360493e-03
2707:-5.3725724378513237e-03
2708:1.2798406334148919e-02
2709:3.4147895081870251e-03
2710:-1.9616653994369774e-03
2711:-2.5874166746681828e-03
2712:1.0602553020353758e-02
2713:5.3353968918816927e-03
2714:1.7275366346701914e-03
2715:5.4212134737366912e-04
2716:1.3020449315691855e-02
2717:8.4816359424511219e-03
2718:4.5610952068149595e-03
2719:2.5161744800626619e-03
2720:-4.6597157351556768e-03
2721:-4.1886829966571804e-03
2722:-5.5402253044689658e-03
2723:-7.8486740237443519e-03
2724:-2.3046082497627501e-03
2725:-2.5949484770724242e-03
2726:-4.6216677986844305e-03
2727:-7.1604296961264198e-03
2728:1.4388530410380885e-04
2729:-1.2036645899162926e-03
2730:-4.0360353985897952e-03
2731:-6.7680560404829865e-03
2732:1.5654519227361577e-03
2733:-5.6180559649314315e-04
2734:-3.9037427196365231e-03
2735:-6.7042001459096364e-03
2736:-9.4233479696953643e-03
2737:-1.2318842312744754e-02
2738:-1.5809375230438037e-02
2739:-1.8231126011306286e-02
2740:-8.7516690210619787e-03
2741:-1.1626105334400587e-02
2742:-1.5035179648090740e-02
2743:-1.7368300560869410e-02
2744:-8.3273535884454009e-03
2745:-1.1087049142070923e-02
2746:-1.4291785107739473e-02
2747:-1.6438321203842025e-02
2748:-8.2126051051299755e-03
2749:-1.0847894497018147e-02
2750:-1.3861810279293525e-02
2751:-1.5843312701349206e-02
2752:-1.9424688306756734e-02
2753:-2.1525455295192692e-02
2754:-2.3999665888350535e-02
2755:-2.5687381761431410e-02
2756:-1.8511244548664298e-02
2757:-2.0538018125129554e-02
2758:-2.2961857083967377e-02
2759:-2.4646358528458385e-02
2760:-1.7477392605405779e-02
2761:-1.9351083476536614e-02
2762:-2.1671836468946173e-02
2763:-2.3355883697069632e-02
2764:-1.6790946864990809e-02
2765:-1.8528708592948750e-02
2766:-2.0757892848219949e-02
2767:-2.2444369406794635e-02
2768:-2.6514990668947112e-02
2769:-2.7998646802312139e-02
2770:-2.9837706463742179e-02
2771:-3.1197390544261031e-02
2772:-2.5484080911693328e-02
2773:-2.6996300308368436e-02
2774:-2.8890036884116083e-02
2775:-3.0306113484571354e-02
2776:-2.4220609040012220e-02
2777:-2.5799859680763128e-02
2778:-2.7800305716623733e-02
2779:-2.9307756610049581e-02
2780:-2.3336441358341724e-02
2781:-2.4984387043717648e-02
2782:-2.7092156374594622e-02
2783:-2.8686362429624038e-02
2784:-3.1908424687807274e-02
2785:-3.3164854985462990e-02
2786:-3.4632153898908218e-02
2787:-3.5617890920201546e-02
2788:-3.1052233445197114e-02
2789:-3.2375387090839980e-02
2790:-3.3925079148003433e-02
2791:-3.4966064729429709e-02
2792:-3.0104038157535113e-02
2793:-3.1516197962797386e-02
2794:-3.3170800035583953e-02
2795:-3.4283812850119395e-02
2796:-2.9527289342283200e-02
2797:-3.1010985420288850e-02
2798:-3.2738327241079133e-02
2799:-3.3895967489746860e-02
2800:-3.6103648044491468e-02
2801:-3.7151171546427414e-02
2802:-3.8835990040278316e-02
2803:-4.0378317279289935e-02
2804:-3.5477647387101977e-02
2805:-3.6575629785919439e-02
2806:-3.8337937836772432e-02
2807:-3.9954008189290312e-02
2808:-3.4830795653843588e-02
2809:-3.5988127477110325e-02
2810:-3.7813012664524144e-02
2811:-3.9465037989768609e-02
2812:-3.4463825545578239e-02
2813:-3.5648097724465505e-02
2814:-3.7475794867619483e-02
2815:-3.9098821551369449e-02
2816:-4.1277526635776746e-02
2817:-4.2862953309751851e-02
2818:-4.4671240980060381e-02
2819:-4.5849223551556184e-02
2820:-4.0897979072471183e-02
2821:-4.2554392526319082e-02
2822:-4.4413788543523923e-02
2823:-4.5588777539062209e-02
2824:-4.0424198314663984e-02
2825:-4.2110137498760740e-02
2826:-4.4012933679026166e-02
2827:-4.5225959528703445e-02
2828:-4.0031730941319496e-02
2829:-4.1687702702262672e-02
2830:-4.3610319351369151e-02
2831:-4.4895631921024179e-02
2832:-4.6415228813597414e-02
2833:-4.7620544856431121e-02
2834:-4.9537974868946351e-02
2835:-5.1281394367677730e-02
2836:-4.6136564204611860e-02
2837:-4.7302577345697511e-02
2838:-4.9179170395498413e-02
2839:-5.0913130032102571e-02
2840:-4.5795060771903498e-02
2841:-4.6985862300603469e-02
2842:-4.8859794178650544e-02
2843:-5.0563391817398842e-02
2844:-4.5524232489565317e-02
2845:-4.6814621079371121e-02
2846:-4.8766619901949138e-02
2847:-5.0474172274028145e-02
2848:-5.2295435763857083e-02
2849:-5.4094223868306660e-02
2850:-5.6187200775264463e-02
2851:-5.7601427387609191e-02
2852:-5.1934850391486091e-02
2853:-5.3787109940218070e-02
2854:-5.6015677827782787e-02
2855:-5.7571683850568156e-02
2856:-5.1561939280627654e-02
2857:-5.3419246319454723e-02
2858:-5.5760650509547482e-02
2859:-5.7482933212645936e-02
2860:-5.1453133835018511e-02
2861:-5.3284164696124590e-02
2862:-5.5633769723403961e-02
2863:-5.7404978440638334e-02
2864:-5.8301293968655570e-02
2865:-5.9728867013943629e-02
2866:-6.1849149886123299e-02
2867:-6.3661668355309828e-02
2868:-5.8353254327255334e-02
2869:-5.9882791719485892e-02
2870:-6.2033822303463181e-02
2871:-6.3801787107373067e-02
2872:-5.8374799258808903e-02
2873:-6.0044839156266801e-02
2874:-6.2237278307724235e-02
2875:-6.3938152336042386e-02
2876:-5.8337820072723652e-02
2877:-6.0058290070682835e-02
2878:-6.2258195630013544e-02
2879:-6.3925039092518759e-02
2880:-6.4679016399726605e-02
2881:-6.6476181368461881e-02
2882:-6.8595496875703807e-02
2883:-7.0081570011994693e-02
2884:-6.4776214828452208e-02
2885:-6.6489441409645023e-02
2886:-6.8482260381839591e-02
2887:-6.9842691954156683e-02
2888:-6.4848083678696655e-02
2889:-6.6443777637873153e-02
2890:-6.8282800300802984e-02
2891:-6.9507322610286956e-02
2892:-6.4805861770746903e-02
2893:-6.6354115258262236e-02
2894:-6.8138735494595384e-02
2895:-6.9315864822929618e-02
2896:-7.0840852912650285e-02
2897:-7.2311730270966892e-02
2898:-7.4306092210696728e-02
2899:-7.5858566554891829e-02
2900:-7.0523577686904662e-02
2901:-7.1889992119375315e-02
2902:-7.3877956355251170e-02
2903:-7.5555619986499983e-02
2904:-7.0108369393339892e-02
2905:-7.1388693761482644e-02
2906:-7.3431780291503712e-02
2907:-7.5304257050561110e-02
2908:-6.9888793600342433e-02
2909:-7.1156024727257655e-02
2910:-7.3276628482906031e-02
2911:-7.5287627370326640e-02
2912:-7.6666724189636326e-02
2913:-7.7841744801665114e-02
2914:-7.8714400089665931e-02
2915:-7.8944172892644812e-02
2916:-7.6478303418848412e-02
2917:-7.7827224635138595e-02
2918:-7.8795734596131969e-02
2919:-7.8977482532853249e-02
2920:-7.6381932553442319e-02
2921:-7.7937596735506362e-02
2922:-7.8952021931745289e-02
2923:-7.8977922188940133e-02
2924:-7.6462202129415707e-02
2925:-7.8118800900790208e-02
2926:-7.9070979180626069e-02
2927:-7.8891713289719820e-02
2928:-7.8944540463000562e-02
2929:-7.8940162254751936e-02
2930:-7.8816188915239282e-02
2931:-7.8487287632714745e-02
2932:-7.8912571286797059e-02
2933:-7.8876834754268738e-02
2934:-7.8912497004230198e-02
2935:-7.8847076294145876e-02
2936:-7.8769197705249178e-02
2937:-7.8576542010692030e-02
2938:-7.8691714826755368e-02
2939:-7.8919267625634837e-02
2940:-7.8525043841286044e-02
2941:-7.8125647488532485e-02
2942:-7.8220951563707342e-02
2943:-7.8659096395767403e-02
2944:-7.8202683597928410e-02
2945:-7.7774005704241672e-02
2946:-7.7729174417897534e-02
2947:-7.8313439005855884e-02
2948:-7.8741339124237170e-02
2949:-7.8585310117693666e-02
2950:-7.8778535654329837e-02
2951:-7.9486471609953951e-02
2952:-7.9047279485484498e-02
2953:-7.9317644187519729e-02
2954:-7.9996174449742885e-02
2955:-8.1008583956108965e-02
2956:-7.8982941008166288e-02
2957:-7.9654461383366404e-02
2958:-8.0841104762229790e-02
2959:-8.2179828208409703e-02
2960:-7.8498145653777912e-02
2961:-7.1242709801978277e-02
2962:-4.5117347919121711e-02
2963:-1.2120247782649680e-02
2964:-7.9713713557766894e-02
2965:-7.2284365518531568e-02
2966:-4.5371651291627485e-02
2967:-1.1324489040114532e-02
2968:-8.1352845929779871e-02
2969:-7.3748754119860552e-02
2970:-4.5790415512053907e-02
2971:-1.0333297822733867e-02
2972:-8.2646121154980920e-02
2973:-7.4920866512220546e-02
2974:-4.6115096180859023e-02
2975:-9.5249595586548094e-03
2976:8.8835568555570687e-03
2977:3.2652397440904722e-02
2978:2.8517207898216778e-02
2979:-1.4921477202862973e-03
2980:1.0345553764066899e-02
2981:3.4555647504939516e-02
2982:2.9198096979445445e-02
2983:-3.1283834122365350e-03
2984:1.2224368673016317e-02
2985:3.7031540237702158e-02
2986:3.0083980401792641e-02
2987:-5.2773152493320093e-03
2988:1.3737066366843218e-02
2989:3.9021889145953469e-02
2990:3.0832136023509513e-02
2991:-6.9094861334727713e-03
2992:-2.5249972704274933e-02
2993:-5.3838387431978614e-02
2994:-5.3991789323128508e-02
2995:-2.6138691397720359e-02
2996:-2.8524261745427309e-02
2997:-5.9402456368388951e-02
2998:-6.0707038408545112e-02
2999:-3.2347377792977264e-02
3000:-3.2822221955365841e-02
3001:-6.6726308627309272e-02
3002:-6.9564915285106693e-02
3003:-4.0506927817107338e-02
3004:-3.6142105191715575e-02
3005:-7.2443571113687488e-02
3006:-7.6520793831558714e-02
3007:-4.6908829073409791e-02
3008:-2.3199887504213625e-03
3009:4.5095957969309090e-02
3010:1.0966740835377992e-01
3011:1.6148159913162000e-01
3012:-7.8234535091004104e-03
3013:4.0792087816863574e-02
3014:1.0639778945644542e-01
3015:1.5850818791862123e-01
3016:-1.5008950502465014e-02
3017:3.5294706225245054e-02
3018:1.0239380117093276e-01
3019:1.5494267484305296e-01
3020:-2.0619986317504849e-02
3021:3.1117201386276407e-02
3022:9.9613735264083375e-02
3023:1.5271151508357483e-01
3024:2.3250520039499287e-03
3025:2.5075759791320828e-02
3026:2.8952526776779546e-02
3027:1.7710171751771746e-02
3028:-3.4490934510384326e-02
3029:1.2964325024625302e-02
3030:3.2921591326441006e-02
3031:2.3589105042127228e-02
3032:-5.7229088245442442e-02
3033:1.6124252095436383e-02
3034:5.5443427579871939e-02
3035:4.9322291494372776e-02
3036:-6.4083342902601884e-02
3037:2.3983246847159793e-02
3038:7.7564142397598165e-02
3039:7.5752497218910045e-02
3040:8.1993519305046617e-03
3041:-1.5319485648458529e-02
3042:-4.5114718806243147e-02
3043:-5.5870760250463100e-02
3044:1.2776784098007711e-02
3045:-4.5484966851290186e-03
3046:-1.3825358084170056e-02
3047:-6.0274343566726818e-03
3048:3.6670187484626131e-02
3049:2.1216144274394916e-02
3050:2.1713184056669388e-02
3051:3.7323581695872819e-02
3052:6.2532646910363143e-02
3053:4.5673935189770233e-02
3054:4.3334907081021883e-02
3055:5.4585287917219394e-02
3056:-5.3700642687973574e-02
3057:-3.1955400682496624e-02
3058:1.4770496851365719e-02
3059:4.9153384962412082e-02
3060:4.6197111772087705e-03
3061:3.1992999181802463e-02
3062:6.9701370390541764e-02
3063:8.9438807168978798e-02
3064:5.0419004030473231e-02
3065:7.4814925458962900e-02
3066:9.8598746362204087e-02
3067:1.0514628154349981e-01
3068:6.4146776718434217e-02
3069:7.9800820364161765e-02
3070:9.1448380843748206e-02
3071:9.1265390996323026e-02
3072:6.1953928874224844e-02
3073:6.7579109904403523e-02
3074:4.7570394341285779e-02
3075:2.0456693035173768e-02
3076:9.3476601880504440e-02
3077:8.7717152359646264e-02
3078:6.2471185361528750e-02
3079:3.7284809659489646e-02
3080:1.0297631736343510e-01
3081:9.0667103799428425e-02
3082:6.5134470615964071e-02
3083:4.3930189344924229e-02
3084:8.7337611873992721e-02
3085:7.5080733704519440e-02
3086:5.4096205142586277e-02
3087:3.7978134391514810e-02
3088:5.2905000315293617e-03
3089:-1.0704562186261000e-02
3090:-8.4979502340583653e-03
3091:7.2657321105566554e-03
3092:2.4500482119176093e-02
3093:9.7177061970448557e-03
3094:7.3279570088411869e-03
3095:1.6105375744002070e-02
3096:3.3916807084234918e-02
3097:2.1674365761192180e-02
3098:1.7668665172610610e-02
3099:2.2367532144865934e-02
3100:3.0641013666814775e-02
3101:2.2067032459149826e-02
3102:2.0183305706424483e-02
3103:2.4633898028277604e-02
3104:1.8932427263081395e-02
3105:3.5045173870594498e-02
3106:4.3767979490046176e-02
3107:4.2290809498638005e-02
3108:2.3425770791366696e-02
3109:3.4218200100806048e-02
3110:4.1072074836984739e-02
3111:4.0859226743655816e-02
3112:2.6934080141978029e-02
3113:3.4125046117196398e-02
3114:3.9193361100961728e-02
3115:3.9215786914210016e-02
3116:2.8504670990197538e-02
3117:3.4323137447753012e-02
3118:3.7906685068886677e-02
3119:3.7252373015867923e-02
3120:3.9185519793335441e-02
3121:3.2831744144487814e-02
3122:2.4493495040838916e-02
3123:1.8302580780003151e-02
3124:3.8951732365989492e-02
3125:3.4290287382100153e-02
3126:2.7076649196760585e-02
3127:2.1173992899702135e-02
3128:3.7780035690744583e-02
3129:3.3932524925246205e-02
3130:2.7586686239318012e-02
3131:2.2263811232025848e-02
3132:3.5681992996891017e-02
3133:3.1924406318227551e-02
3134:2.6172460921202186e-02
3135:2.1510652577097573e-02
3136:1.5189253868500566e-02
3137:1.0429149745941059e-02
3138:5.9673894904795684e-03
3139:3.4017874613726509e-03
3140:1.8082232448237624e-02
3141:1.3097741051854357e-02
3142:7.9489845221022998e-03
3143:4.6869279508246729e-03
3144:1.9453616549757271e-02
3145:1.4700820945840869e-02
3146:9.3678273422116778e-03
3147:5.7322027283167685e-03
3148:1.9066250947970254e-02
3149:1.4799566862097231e-02
3150:9.7563206764172388e-03
3151:6.1619245252130059e-03
3152:2.1707256764919359e-03
3153:-3.3045528874987927e-04
3154:-3.8887265009780684e-03
3155:-6.6993948551395347e-03
3156:3.0764522381237845e-03
3157:7.9103721555800764e-05
3158:-3.7468363791669621e-03
3159:-6.5525316912092273e-03
3160:3.8925827475036969e-03
3161:6.0785696975618479e-04
3162:-3.3426091377846802e-03
3163:-6.1125521893971918e-03
3164:4.3089815392294293e-03
3165:1.0175736422565189e-03
3166:-2.9047814813852445e-03
3167:-5.6371726211312759e-03
3168:-8.1764860573438521e-03
3169:-1.0742760674285140e-02
3170:-1.3656218589286421e-02
3171:-1.5552620051620990e-02
3172:-7.9798101659031093e-03
3173:-1.0437158802301510e-02
3174:-1.3193321384880148e-02
3175:-1.4960909431864657e-02
3176:-7.4937158898665613e-03
3177:-9.8516461286406679e-03
3178:-1.2471676625517401e-02
3179:-1.4142924289047150e-02
3180:-6.9960345750572066e-03
3181:-9.3089352634978979e-03
3182:-1.1881060588327184e-02
3183:-1.3540327408984960e-02
3184:-1.6453151293510066e-02
3185:-1.8120806067643387e-02
3186:-2.0303550694142108e-02
3187:-2.1993398304691637e-02
3188:-1.5792748423490068e-02
3189:-1.7365929657706520e-02
3190:-1.9502351059334410e-02
3191:-2.1217957565960923e-02
3192:-1.4931421891864707e-02
3193:-1.6461941182561547e-02
3194:-1.8611813468127233e-02
3195:-2.0380251727756406e-02
3196:-1.4335761573754381e-02
3197:-1.5897420361972989e-02
3198:-1.8101956037459881e-02
3199:-1.9904736844785553e-02
3200:-2.2901549444965450e-02
3201:-2.4590739398739642e-02
3202:-2.6763992541682078e-02
3203:-2.8411092026684091e-02
3204:-2.2160993843355362e-02
3205:-2.3932125257544283e-02
3206:-2.6232030441708111e-02
3207:-2.7984064865594720e-02
3208:-2.1363006144595208e-02
3209:-2.3221538486941782e-02
3210:-2.5660098294855403e-02
3211:-2.7537976394688048e-02
3212:-2.0898751316115665e-02
3213:-2.2783047033603284e-02
3214:-2.5277621538925578e-02
3215:-2.7223944309277749e-02
3216:-2.9278889297278714e-02
3217:-3.0802778283222931e-02
3218:-3.2565216624683722e-02
3219:-3.3740290998151054e-02
3220:-2.8907373151094561e-02
3221:-3.0516030012008005e-02
3222:-3.2353047920681936e-02
3223:-3.3562932038386707e-02
3224:-2.8534148192586702e-02
3225:-3.0266995722447374e-02
3226:-3.2238872212822532e-02
3227:-3.3533446181678715e-02
3228:-2.8267530719918832e-02
3229:-3.0100513284550646e-02
3230:-3.2220573900010430e-02
3231:-3.3640214215370737e-02
3232:-3.4315003474095121e-02
3233:-3.5503222677503901e-02
3234:-3.7312013589956422e-02
3235:-3.8896911824269131e-02
3236:-3.4149235305670454e-02
3237:-3.5334656969533661e-02
3238:-3.7080467055938142e-02
3239:-3.8563516369091881e-02
3240:-3.4156970648508651e-02
3241:-3.5361954481658846e-02
3242:-3.7020588534499674e-02
3243:-3.8344157874555168e-02
3244:-3.4330811456349801e-02
3245:-3.5607040743793471e-02
3246:-3.7238519709778241e-02
3247:-3.8447685240952198e-02
3248:-3.9801402364323245e-02
3249:-4.1422537147602946e-02
3250:-4.3353452870871459e-02
3251:-4.4696054719620168e-02
3252:-3.9396932458502232e-02
3253:-4.0936837765933078e-02
3254:-4.2896738884669862e-02
3255:-4.4379235033909697e-02
3256:-3.9065523905289577e-02
3257:-4.0481574091744243e-02
3258:-4.2486997663679069e-02
3259:-4.4171666483727771e-02
3260:-3.9080987146058004e-02
3261:-4.0396927451769704e-02
3262:-4.2422308963586335e-02
3263:-4.4236533251416750e-02
3264:-4.5373914767424084e-02
3265:-4.6751321731868536e-02
3266:-4.8783632851046858e-02
3267:-5.0514238111716570e-02
3268:-4.5172331663173686e-02
3269:-4.6747375988144289e-02
3270:-4.8962444822144596e-02
3271:-5.0758182075139179e-02
3272:-4.5126368921334106e-02
3273:-4.6963995861708366e-02
3274:-4.9406345733735604e-02
3275:-5.1282313222181963e-02
3276:-4.5294431385168712e-02
3277:-4.7284380334607537e-02
3278:-4.9832034143355276e-02
3279:-5.1725917133865346e-02
3280:-5.1489121816104523e-02
3281:-5.3302070142911863e-02
3282:-5.5621594552658818e-02
3283:-5.7373487507812855e-02
3284:-5.1737413355746595e-02
3285:-5.3525151354509630e-02
3286:-5.5763103674849046e-02
3287:-5.7425699715469583e-02
3288:-5.2270748745447640e-02
3289:-5.4037060924537431e-02
3290:-5.6176233248238006e-02
3291:-5.7708681192119526e-02
3292:-5.2706170553263904e-02
3293:-5.4457125943504700e-02
3294:-5.6571335522368420e-02
3295:-5.8070103872148317e-02
3296:-5.8299549364672618e-02
3297:-6.0008606734545597e-02
3298:-6.2196593514963372e-02
3299:-6.3858347306492383e-02
3300:-5.8299451458889366e-02
3301:-5.9933112717267693e-02
3302:-6.2076574754206686e-02
3303:-6.3748423124533452e-02
3304:-5.8497593744189523e-02
3305:-6.0012526512810353e-02
3306:-6.2098416050946251e-02
3307:-6.3804130972487300e-02
3308:-5.8834311270331154e-02
3309:-6.0317373787155106e-02
3310:-6.2398557162751514e-02
3311:-6.4131175583550762e-02
3312:-6.4738506438437732e-02
3313:-6.6290170940962276e-02
3314:-6.8082998731214053e-02
3315:-6.9264133605077466e-02
3316:-6.4649156771968697e-02
3317:-6.6243279168181249e-02
3318:-6.8088855861310818e-02
3319:-6.9303685947336990e-02
3320:-6.4748254923866363e-02
3321:-6.6413812673390152e-02
3322:-6.8325543461506585e-02
3323:-6.9574655552402567e-02
3324:-6.5098714325284718e-02
3325:-6.6785121111533688e-02
3326:-6.8682359526462594e-02
3327:-6.9899719608424532e-02
3328:-6.9837806814123687e-02
3329:-7.1119843851558465e-02
3330:-7.3288961956254783e-02
3331:-7.5358920885123734e-02
3332:-6.9892650080314242e-02
3333:-7.1216133465797818e-02
3334:-7.3461111987367628e-02
3335:-7.5599202960528897e-02
3336:-7.0178424499257444e-02
3337:-7.1539055601390802e-02
3338:-7.3833583264517208e-02
3339:-7.5991228671586808e-02
3340:-7.0483980515470668e-02
3341:-7.1824694690591481e-02
3342:-7.4105791931661405e-02
3343:-7.6239963999136670e-02
3344:-7.6569414783114520e-02
3345:-7.8247015997713151e-02
3346:-7.9121792718867115e-02
3347:-7.8800520801066587e-02
3348:-7.6843197746761530e-02
3349:-7.8500212455202723e-02
3350:-7.9171797250500969e-02
3351:-7.8562673189870466e-02
3352:-7.7229572899332896e-02
3353:-7.8778425145069747e-02
3354:-7.9124772590929773e-02
3355:-7.8144464338295416e-02
3356:-7.7452124283267879e-02
3357:-7.8888113986671241e-02
3358:-7.8983287877450722e-02
3359:-7.7757230174092723e-02
3360:-7.8333391195101881e-02
3361:-7.7796994668230993e-02
3362:-7.7861450651839872e-02
3363:-7.8414360061335939e-02
3364:-7.7905788590964892e-02
3365:-7.7123105734890257e-02
3366:-7.7152289393554577e-02
3367:-7.7929623670805526e-02
3368:-7.7263710464788332e-02
3369:-7.6220900903353400e-02
3370:-7.6274490680598009e-02
3371:-7.7356674832718422e-02
3372:-7.6741929357380209e-02
3373:-7.5572660186202248e-02
3374:-7.5712472587044000e-02
3375:-7.7032286498924574e-02
3376:-7.8852106781327105e-02
3377:-7.9765247468870953e-02
3378:-8.1264258490850491e-02
3379:-8.2800684667540286e-02
3380:-7.8578045617527820e-02
3381:-7.9916247802553186e-02
3382:-8.1943695795366478e-02
3383:-8.3814147481012166e-02
3384:-7.8260539874616203e-02
3385:-8.0062155242768024e-02
3386:-8.2611158801742995e-02
3387:-8.4806145812700240e-02
3388:-7.8109123703863345e-02
3389:-8.0178965278167202e-02
3390:-8.2973926080266935e-02
3391:-8.5310973122964109e-02
3392:-8.3338144902585315e-02
3393:-7.5545683359571930e-02
3394:-4.6266738751681344e-02
3395:-9.0513449579690455e-03
3396:-8.4475212670885869e-02
3397:-7.6561474799729634e-02
3398:-4.6427074927266061e-02
3399:-8.0644097202453510e-03
3400:-8.5593043274826336e-02
3401:-7.7523704271344723e-02
3402:-4.6367822372479585e-02
3403:-6.6063160958789767e-03
3404:-8.6155671338278922e-02
3405:-7.7959584124863660e-02
3406:-4.6107069905685090e-02
3407:-5.3791204443818267e-03
3408:1.4596113422407818e-02
3409:4.0142439693770272e-02
3410:3.1275392655246891e-02
3411:-7.7646209598590879e-03
3412:1.6297204178224702e-02
3413:4.2321205607960745e-02
3414:3.2171685876124533e-02
3415:-9.3100137567609913e-03
3416:1.8639887374631656e-02
3417:4.5231155426499692e-02
3418:3.3400444514428529e-02
3419:-1.1224696987045663e-02
3420:2.0487085612146263e-02
3421:4.7446763155300713e-02
3422:3.4330844922244579e-02
3423:-1.2633277528023975e-02
3424:-3.7918208615193238e-02
3425:-7.5534721921148587e-02
3426:-8.0300923353200090e-02
3427:-5.0389946163836193e-02
3428:-4.1192559495004000e-02
3429:-8.1262440954669987e-02
3430:-8.7294419851426885e-02
3431:-5.6818718271091799e-02
3432:-4.5324001345489515e-02
3433:-8.8505293051338793e-02
3434:-9.6101449518561310e-02
3435:-6.4899903426672040e-02
3436:-4.8372421729298072e-02
3437:-9.3830246592691888e-02
3438:-1.0254349903287578e-01
3439:-7.0810839619680668e-02
3440:-2.3664976103054087e-02
3441:2.8892811067298903e-02
3442:9.8258184316996053e-02
3443:1.5177493136266110e-01
3444:-2.9284952860225203e-02
3445:2.4813557577005912e-02
3446:9.5941731844751507e-02
3447:1.5052697193481640e-01
3448:-3.6354902321219719e-02
3449:1.9731647391045708e-02
3450:9.3465977826375904e-02
3451:1.5011344142332408e-01
3452:-4.1540952994241716e-02
3453:1.6052193649576458e-02
3454:9.2087985106352840e-02
3455:1.5093449002558737e-01
3456:-6.6642894450054849e-02
3457:2.7293802356873818e-02
3458:8.8282522114388542e-02
3459:8.9719690422160783e-02
3460:-7.1480893471197543e-02
3461:2.9171087173372835e-02
3462:1.0075485422597760e-01
3463:1.0844182210114713e-01
3464:-7.7675622885710602e-02
3465:2.6377602991719318e-02
3466:1.0581487696547903e-01
3467:1.2014135098107470e-01
3468:-8.2112797549254657e-02
3469:2.3449263729152146e-02
3470:1.0541746869450515e-01
3471:1.2232827586206689e-01
3472:7.6788803012455525e-02
3473:5.8887789491390112e-02
3474:5.2515487318622628e-02
3475:5.8725919333232492e-02
3476:9.7219312142368508e-02
3477:7.9248304052141311e-02
3478:6.6813688417957193e-02
3479:6.4141635546141010e-02
3480:1.1194082691388255e-01
3481:9.5883269943640811e-02
3482:7.8554626243002232e-02
3483:6.6909731049398027e-02
3484:1.1566802391752408e-01
3485:1.0061643485375285e-01
3486:8.0800511628530261e-02
3487:6.4675020165027242e-02
3488:6.4983030255552007e-02
3489:7.4335364519116542e-02
3490:7.9222533558145888e-02
3491:7.6343790910781389e-02
3492:6.4405607562892819e-02
3493:6.3111710417450548e-02
3494:5.7871281410297161e-02
3495:5.1993398121443206e-02
3496:6.0913617328358670e-02
3497:4.9700843890384518e-02
3498:3.7187492105212737e-02
3499:3.1167852522208918e-02
3500:5.5652986950501637e-02
3501:4.0677577248649358e-02
3502:2.7416500835509977e-02
3503:2.3801923058889077e-02
3504:7.2229724640844470e-02
3505:6.1335952188637979e-02
3506:4.4217007312549864e-02
3507:3.1638783179343606e-02
3508:4.8430102616906362e-02
3509:4.0857355828164348e-02
3510:3.0485276867956854e-02
3511:2.3386915203944595e-02
3512:2.9624881237044570e-02
3513:2.6985831126612118e-02
3514:2.3425361763580701e-02
3515:2.0659905518541265e-02
3516:2.4424167846167209e-02
3517:2.5466779723116804e-02
3518:2.5275277679086362e-02
3519:2.3732813406618574e-02
3520:2.6075722078481470e-02
3521:2.0195220449578444e-02
3522:2.0447473422416384e-02
3523:2.5395362215095578e-02
3524:2.0387772323418978e-02
3525:1.8233408662270727e-02
3526:2.1126011747996973e-02
3527:2.6325435972191655e-02
3528:1.9318315476383095e-02
3529:1.9105558211805759e-02
3530:2.2474748527154701e-02
3531:2.6627443339858670e-02
3532:2.2501384665623084e-02
3533:2.1811194613089117e-02
3534:2.3635652814881614e-02
3535:2.6219457882792216e-02
3536:2.9123484812986707e-02
3537:3.4343895928647138e-02
3538:3.6953179606209648e-02
3539:3.5744308163283750e-02
3540:2.9579299583501820e-02
3541:3.3583621600547633e-02
3542:3.4660939588408886e-02
3543:3.2814052285087054e-02
3544:2.8921261432135269e-02
3545:3.1330324546102302e-02
3546:3.1180984351452699e-02
3547:2.9293599213663726e-02
3548:2.7666336096772597e-02
3549:2.9030848884465194e-02
3550:2.8563566831886770e-02
3551:2.7114040663095623e-02
3552:3.4044213384564911e-02
3553:3.0317480514930169e-02
3554:2.4963862834547275e-02
3555:2.0732997957927300e-02
3556:3.1094771124893568e-02
3557:2.7684631332083969e-02
3558:2.3126866286086824e-02
3559:1.9576486318463190e-02
3560:2.7913003773317194e-02
3561:2.5267688327678308e-02
3562:2.1685592686096204e-02
3563:1.8722058527290853e-02
3564:2.6148928465487623e-02
3565:2.4177591716084735e-02
3566:2.1182783489400701e-02
3567:1.8447773669936857e-02
3568:1.8514469194824978e-02
3569:1.4573514045260388e-02
3570:9.7882324843237365e-03
3571:6.2992267644897317e-03
3572:1.7677838108160409e-02
3573:1.4202671391307630e-02
3574:9.8145020976379352e-03
3575:6.5200866917769799e-03
3576:1.7042467447552178e-02
3577:1.3895426791541380e-02
3578:9.8378169074931302e-03
3579:6.7595101420715887e-03
3580:1.6819203851956569e-02
3581:1.3763656281901970e-02
3582:9.8497254925166613e-03
3583:6.9060403080926647e-03
3584:4.4812758729432462e-03
3585:1.2397563119188498e-03
3586:-2.6403831305285854e-03
3587:-5.3535324567601525e-03
3588:4.7821479089058417e-03
3589:1.6543456853016234e-03
3590:-2.1423575648747183e-03
3591:-4.8346093906744009e-03
3592:5.1320829213872968e-03
3593:2.1631588679576685e-03
3594:-1.5300401313691366e-03
3595:-4.2213925359240569e-03
3596:5.3580894040163004e-03
3597:2.5047425932250909e-03
3598:-1.1189667105573635e-03
3599:-3.8243804775538849e-03
3600:-6.7051541861465778e-03
3601:-9.0058094899238689e-03
3602:-1.1574834489676358e-02
3603:-1.3251933190000563e-02
3604:-6.1877450968582338e-03
3605:-8.5048778944995084e-03
3606:-1.1130358050349303e-02
3607:-1.2886965264155852e-02
3608:-5.6009099863879776e-03
3609:-8.0048601164091418e-03
3610:-1.0803701901421200e-02
3611:-1.2729364865495651e-02
3612:-5.2365948733453967e-03
3613:-7.7422811615958202e-03
3614:-1.0725409182772209e-02
3615:-1.2807248374779151e-02
3616:-1.4066310252830196e-02
3617:-1.5666189417655439e-02
3618:-1.7909064316348020e-02
3619:-1.9719906003688184e-02
3620:-1.3756794032424417e-02
3621:-1.5438482139227178e-02
3622:-1.7721550897780238e-02
3623:-1.9500068555916412e-02
3624:-1.3694695467539654e-02
3625:-1.5486186933933502e-02
3626:-1.7770698620368969e-02
3627:-1.9451372173937789e-02
3628:-1.3850395637099158e-02
3629:-1.5718625076956396e-02
3630:-1.7984867069480305e-02
3631:-1.9587866921233224e-02
3632:-2.0708150311175375e-02
3633:-2.2583455779789010e-02
3634:-2.5081726709449387e-02
3635:-2.7049320591419897e-02
3636:-2.0448402688454992e-02
3637:-2.2264189631442329e-02
3638:-2.4733594327601943e-02
3639:-2.6722266786380001e-02
3640:-2.0320383342368100e-02
3641:-2.2025481741741459e-02
3642:-2.4435283098697653e-02
3643:-2.6435701668066976e-02
3644:-2.0404102416090683e-02
3645:-2.2045796005618304e-02
3646:-2.4434902530612000e-02
3647:-2.6449579555341170e-02
3648:-2.8112722977451758e-02
3649:-2.9999130778477639e-02
3650:-3.2218323835991200e-02
3651:-3.3734410054330602e-02
3652:-2.7814427416409455e-02
3653:-2.9796962147976568e-02
3654:-3.2223997066032628e-02
3655:-3.3960718110644203e-02
3656:-2.7553481897640383e-02
3657:-2.9642062557094201e-02
3658:-3.2328638652783889e-02
3659:-3.4359683260102546e-02
3660:-2.7581533952873476e-02
3661:-2.9726491578500325e-02
3662:-3.2555430883321052e-02
3663:-3.4754027439371227e-02
3664:-3.4480631315200704e-02
3665:-3.5825940175158749e-02
3666:-3.7469711628059385e-02
3667:-3.8628864694461487e-02
3668:-3.4840050872900784e-02
3669:-3.6363048067507321e-02
3670:-3.8076588529851768e-02
3671:-3.9165165614606090e-02
3672:-3.5422826467218123e-02
3673:-3.7206059265850300e-02
3674:-3.9064198389848204e-02
3675:-4.0113448885161898e-02
3676:-3.5924710185863545e-02
3677:-3.7870528617660854e-02
3678:-3.9847086496870694e-02
3679:-4.0913968235685008e-02
3680:-3.9218049423214600e-02
3681:-4.0480886292081415e-02
3682:-4.2504928972520339e-02
3683:-4.4367220620170768e-02
3684:-3.9679140320752558e-02
3685:-4.0842280561302249e-02
3686:-4.2836672036369566e-02
3687:-4.4749468560354132e-02
3688:-4.0559494411408881e-02
3689:-4.1622342290793847e-02
3690:-4.3563095777894086e-02
3691:-4.5494034145321965e-02
3692:-4.1345654957403791e-02
3693:-4.2383135820828477e-02
3694:-4.4307540904426054e-02
3695:-4.6242634132706170e-02
3696:-4.5464371434651589e-02
3697:-4.7503542660596837e-02
3698:-5.0066366403277919e-02
3699:-5.1942854508901341e-02
3700:-4.5893844672240787e-02
3701:-4.7980260013140180e-02
3702:-5.0517544476605593e-02
3703:-5.2317295903015856e-02
3704:-4.6664989875363758e-02
3705:-4.8759094986595107e-02
3706:-5.1205387632653657e-02
3707:-5.2855123223291216e-02
3708:-4.7421184683562538e-02
3709:-4.9507433368388774e-02
3710:-5.1878455573610698e-02
3711:-5.3406648104961339e-02
3712:-5.2907735872107106e-02
3713:-5.4647229326961283e-02
3714:-5.6776973588160216e-02
3715:-5.8302336300545432e-02
3716:-5.3228083167762265e-02
3717:-5.4916249184825683e-02
3718:-5.7085194116881621e-02
3719:-5.8715065486456629e-02
3720:-5.3663035114859654e-02
3721:-5.5230852486595330e-02
3722:-5.7422575612846208e-02
3723:-5.9220171767763993e-02
3724:-5.4127391522899422e-02
3725:-5.5571182077041197e-02
3726:-5.7723631853017890e-02
3727:-5.9611061391744408e-02
3728:-5.9082913296325444e-02
3729:-6.0591831032018539e-02
3730:-6.2696514383947355e-02
3731:-6.4440038644720407e-02
3732:-5.9572349665623185e-02
3733:-6.1202977351260922e-02
3734:-6.3404652471941353e-02
3735:-6.5169692478834182e-02
3736:-6.0216735278611003e-02
3737:-6.2073855884699020e-02
3738:-6.4452556837715613e-02
3739:-6.6240706231859112e-02
3740:-6.0700239652720554e-02
3741:-6.2715626632864993e-02
3742:-6.5219169663732923e-02
3743:-6.7012519632696679e-02
3744:-6.5410248657888748e-02
3745:-6.7082711594463093e-02
3746:-6.8930978976036270e-02
3747:-7.0095845461770695e-02
3748:-6.6130479454223581e-02
3749:-6.7738943470819005e-02
3750:-6.9429454690039846e-02
3751:-7.0433342987009304e-02
3752:-6.7168373264468187e-02
3753:-6.8647038462043009e-02
3754:-7.0063772258265739e-02
3755:-7.0800174160693286e-02
3756:-6.7904220067419210e-02
3757:-6.9270602685567020e-02
3758:-7.0478437989881765e-02
3759:-7.1024373158700541e-02
3760:-7.0650566811750359e-02
3761:-7.1952270762716597e-02
3762:-7.4203047388651230e-02
3763:-7.6315340879524685e-02
3764:-7.0895985114266244e-02
3765:-7.2063391272853564e-02
3766:-7.4202195154383629e-02
3767:-7.6256455523464578e-02
3768:-7.1110135480355163e-02
3769:-7.2038283066252498e-02
3770:-7.3957236398860232e-02
3771:-7.5901402409801019e-02
3772:-7.1228577331902285e-02
3773:-7.1977054547359767e-02
3774:-7.3705066433621902e-02
3775:-7.5537974304113104e-02
3776:-7.7510886840164495e-02
3777:-7.8887000077581163e-02
3778:-7.8862810592097835e-02
3779:-7.7531072568111842e-02
3780:-7.7422637109165610e-02
3781:-7.8710059977850827e-02
3782:-7.8523699588441742e-02
3783:-7.7056688713410884e-02
3784:-7.7023812206764436e-02
3785:-7.8219655583501468e-02
3786:-7.7902275377975241e-02
3787:-7.6339388669034766e-02
3788:-7.6613464267144438e-02
3789:-7.7733371130629225e-02
3790:-7.7333947585054005e-02
3791:-7.5717122532453288e-02
3792:-7.6462931267684678e-02
3793:-7.5259404897616594e-02
3794:-7.5472664561980027e-02
3795:-7.6920002001084037e-02
3796:-7.5925045230865768e-02
3797:-7.4708726808378506e-02
3798:-7.5101532415223646e-02
3799:-7.6808566731722913e-02
3800:-7.5167805839420204e-02
3801:-7.3995544833640597e-02
3802:-7.4681360967372323e-02
3803:-7.6776893036000049e-02
3804:-7.4523012768363539e-02
3805:-7.3396196369832981e-02
3806:-7.4332289258874584e-02
3807:-7.6768900121897687e-02
3808:-7.8080011167250510e-02
3809:-8.0261020084539419e-02
3810:-8.3130850608210682e-02
3811:-8.5501947071505213e-02
3812:-7.8133936605049012e-02
3813:-8.0539060329449408e-02
3814:-8.3549476443232532e-02
3815:-8.5953751432137779e-02
3816:-7.8351954272320043e-02
3817:-8.1118791665100998e-02
3818:-8.4371013047458851e-02
3819:-8.6800559664576962e-02
3820:-7.8570772100058320e-02
3821:-8.1689348165731299e-02
3822:-8.5205017144463838e-02
3823:-8.7669893977302141e-02
3824:-8.6360345051123097e-02
3825:-7.8088699223005431e-02
3826:-4.5893508634148178e-02
3827:-4.6922647460162304e-03
3828:-8.6807320826672488e-02
3829:-7.8334189797705442e-02
3830:-4.5436797615940022e-02
3831:-3.3332007587369376e-03
3832:-8.7605890959845722e-02
3833:-7.8754950075589483e-02
3834:-4.4769713666932096e-02
3835:-1.3808672397868213e-03
3836:-8.8422304143627367e-02
3837:-7.9204082394080208e-02
3838:-4.4223522395942134e-02
3839:2.8944778641371195e-04
3840:2.1479319126767291e-02
3841:4.8607141313197252e-02
3842:3.4810736939645107e-02
3843:-1.3365063066648976e-02
3844:2.3404927845159743e-02
3845:5.0842508388526358e-02
3846:3.5786318741675226e-02
3847:-1.4626838516606646e-02
3848:2.6134630135980972e-02
3849:5.4025049860554689e-02
3850:3.7358116850063690e-02
3851:-1.5962989716092425e-02
3852:2.8469353216134172e-02
3853:5.6790700142120294e-02
3854:3.8912437214711881e-02
3855:-1.6678512082148881e-02
3856:-4.9949690283368653e-02
3857:-9.6573352323899964e-02
3858:-1.0585038077292569e-01
3859:-7.3846476862702695e-02
3860:-5.2770948153210241e-02
3861:-1.0154540835744302e-01
3862:-1.1184885288290747e-01
3863:-7.9308813398311015e-02
3864:-5.6138028429035827e-02
3865:-1.0770602426360722e-01
3866:-1.1927819952893216e-01
3867:-8.5904234026050338e-02
3868:-5.8447560238581955e-02
3869:-1.1219161907847519e-01
3870:-1.2466804029807720e-01
3871:-9.0485505423206603e-02
3872:-4.4209920787725572e-02
3873:1.4187244768265529e-02
3874:9.1579958687707075e-02
3875:1.5183583743300971e-01
3876:-4.8960003047506140e-02
3877:1.1063778040566489e-02
3878:9.1209951030787717e-02
3879:1.5421649483561900e-01
3880:-5.4517126592456798e-02
3881:7.8153939093937898e-03
3882:9.1510944941425212e-02
3883:1.5763554943314764e-01
3884:-5.8173494468699072e-02
3885:6.0066092107186071e-03
3886:9.1975015361700482e-02
3887:1.5955807100064479e-01
3888:-8.4325779746011534e-02
3889:2.2544330900362997e-02
3890:1.0506083342145492e-01
3891:1.2216975795605159e-01
3892:-8.8565854913559075e-02
3893:2.2038525553394177e-02
3894:1.0623501582001249e-01
3895:1.2328305450928717e-01
3896:-9.4253219929221518e-02
3897:2.2887526915698269e-02
3898:1.1071941410270215e-01
3899:1.2769541559450276e-01
3900:-9.8634385382517717e-02
3901:2.4050783159024487e-02
3902:1.1555730732234262e-01
3903:1.3289038252633831e-01
3904:1.1568948887281805e-01
3905:1.0046929857027090e-01
3906:7.9464949473959698e-02
3907:6.1863013886447216e-02
3908:1.1659275943616453e-01
3909:1.0042729295634430e-01
3910:7.7301488013757566e-02
3911:5.7662792755789685e-02
3912:1.2026395901684227e-01
3913:1.0239764718475435e-01
3914:7.6846732329521938e-02
3915:5.5411393463602590e-02
3916:1.2492215847872969e-01
3917:1.0590049361369969e-01
3918:7.8862092729447678e-02
3919:5.6369173914508443e-02
3920:5.1978544298225508e-02
3921:3.6470168572028679e-02
3922:2.4420057213493745e-02
3923:2.2752234238928744e-02
3924:4.6718623024471467e-02
3925:3.0788440857515705e-02
3926:2.0796437661164274e-02
3927:2.1981174166223305e-02
3928:4.3653639853003266e-02
3929:2.7388575201573305e-02
3930:1.8857119853573714e-02
3931:2.2028870990533262e-02
3932:4.4115438445856019e-02
3933:2.7349176698495126e-02
3934:1.8880322836483974e-02
3935:2.2473941046113614e-02
3936:2.4594544138953848e-02
3937:2.7370800368614643e-02
3938:2.8256208976098731e-02
3939:2.6698406340375777e-02
3940:2.5519434087118230e-02
3941:3.0624440907125457e-02
3942:3.2801947824110674e-02
3943:3.1029393761328187e-02
3944:2.6717710865727558e-02
3945:3.3336646285328224e-02
3946:3.6195809166877001e-02
3947:3.4062927682737693e-02
3948:2.7451255956810087e-02
3949:3.4408798373433330e-02
3950:3.7288443434329147e-02
3951:3.4881620619341837e-02
3952:2.5189944858387825e-02
3953:2.3697290871591125e-02
3954:2.4207139752069669e-02
3955:2.5808664500488476e-02
3956:2.9031829448545161e-02
3957:2.6245954783108063e-02
3958:2.4774170175338613e-02
3959:2.4990521943062619e-02
3960:3.1603960041149494e-02
3961:2.7725918910421993e-02
3962:2.4742172974832603e-02
3963:2.4020319777845973e-02
3964:3.2191111810602517e-02
3965:2.7869600486034974e-02
3966:2.4405380456740396e-02
3967:2.3471649464799946e-02
3968:2.6821140531729175e-02
3969:2.7750750092274706e-02
3970:2.7326823711242895e-02
3971:2.6218912594108638e-02
3972:2.5431899848470465e-02
3973:2.5841855019106606e-02
3974:2.5585486779006673e-02
3975:2.4998174598017817e-02
3976:2.4128869382735802e-02
3977:2.4298271989262009e-02
3978:2.4269993089648969e-02
3979:2.4071316857888742e-02
3980:2.3543120703832819e-02
3981:2.3721675609996461e-02
3982:2.3786968707904303e-02
3983:2.3669520148307501e-02
3984:2.5487350818430773e-02
3985:2.3847016495721931e-02
3986:2.1077498527022651e-02
3987:1.8393631448952365e-02
3988:2.4594426665644868e-02
3989:2.3408131303939230e-02
3990:2.0935947941989160e-02
3991:1.8312963590855026e-02
3992:2.3884963735703073e-02
3993:2.3000290813296968e-02
3994:2.0740250292993687e-02
3995:1.8182717552523101e-02
3996:2.3515511096766153e-02
3997:2.2688906066429176e-02
3998:2.0510835448819386e-02
3999:1.8025946831783567e-02
4000:1.6763650427786464e-02
4001:1.3719068758986278e-02
4002:9.8540499026963258e-03
4003:6.9702079670507511e-03
4004:1.6678426808592522e-02
4005:1.3646946925576581e-02
4006:9.8503772320476541e-03
4007:7.0514235232487180e-03
4008:1.6563230860926259e-02
4009:1.3567522316641321e-02
4010:9.8352513261682865e-03
4011:7.0947852603446609e-03
4012:1.6448804534948288e-02
4013:1.3516187045862353e-02
4014:9.8294770286218025e-03
4015:7.0960976092281801e-03
4016:5.4595098977942950e-03
4017:2.6608945235813801e-03
4018:-9.3082327668611413e-04
4019:-3.6462992825701071e-03
4020:5.5935664397612503e-03
4021:2.8735719228486730e-03
4022:-6.6774043861852616e-04
4023:-3.3893034010548957e-03
4024:5.6692720242474031e-03
4025:2.9974379780559317e-03
4026:-5.0635457328752529e-04
4027:-3.2165585881153372e-03
4028:5.6654241288581130e-03
4029:2.9836151381698842e-03
4030:-5.2211474321572828e-04
4031:-3.2175069892261738e-03
4032:-5.0775200188759783e-03
4033:-7.6429978209032979e-03
4034:-1.0731902088600273e-02
4035:-1.2898081485090860e-02
4036:-4.8415062959802956e-03
4037:-7.4841712204046836e-03
4038:-1.0724227161162945e-02
4039:-1.3021810035417932e-02
4040:-4.6692887944103749e-03
4041:-7.3418952724019831e-03
4042:-1.0675956177636588e-02
4043:-1.3082626769373580e-02
4044:-4.6550952134572334e-03
4045:-7.3026958792616553e-03
4046:-1.0630900915601760e-02
4047:-1.3068937434265073e-02
4048:-1.3980454711963786e-02
4049:-1.5885505372784717e-02
4050:-1.8144333891087858e-02
4051:-1.9719270250947864e-02
4052:-1.4170788180828149e-02
4053:-1.6159089683610562e-02
4054:-1.8466058021035719e-02
4055:-2.0057675485041351e-02
4056:-1.4300205596264545e-02
4057:-1.6416836233580680e-02
4058:-1.8893636918708566e-02
4059:-2.0623966370024577e-02
4060:-1.4320763628109112e-02
4061:-1.6538595156709163e-02
4062:-1.9203267980880675e-02
4063:-2.1104525684608213e-02
4064:-2.0519656307741534e-02
4065:-2.2149599535816411e-02
4066:-2.4548435042077821e-02
4067:-2.6577101586904572e-02
4068:-2.0868138712784475e-02
4069:-2.2530523014521797e-02
4070:-2.4981262196517307e-02
4071:-2.7039892585667372e-02
4072:-2.1511943671783010e-02
4073:-2.3300790703977847e-02
4074:-2.5866567051951748e-02
4075:-2.7968364667507465e-02
4076:-2.2086178145320042e-02
4077:-2.4014300784122353e-02
4078:-2.6689610831354058e-02
4079:-2.8826908832601236e-02
4080:-2.7715568912849035e-02
4081:-2.9878744367839181e-02
4082:-3.2749685427968099e-02
4083:-3.4998526510265755e-02
4084:-2.8186582483063220e-02
4085:-3.0363490256566723e-02
4086:-3.3256987479417098e-02
4087:-3.5530993661536843e-02
4088:-2.9121169702666601e-02
4089:-3.1295130520403773e-02
4090:-3.4158243962764602e-02
4091:-3.6386634909135677e-02
4092:-2.9984466993747603e-02
4093:-3.2157619639016068e-02
4094:-3.4995977602138524e-02
4095:-3.7179862051248340e-02
4096:-3.6202519073408997e-02
4097:-3.8204448687183312e-02
4098:-4.0236867050890697e-02
4099:-4.1332531068154058e-02
4100:-3.6752659736479447e-02
4101:-3.8800352811142802e-02
4102:-4.0920614259150917e-02
4103:-4.2107680090772183e-02
4104:-3.7578403623958215e-02
4105:-3.9613647162598485e-02
4106:-4.1826966440739397e-02
4107:-4.3180854114162177e-02
4108:-3.8339453656195503e-02
4109:-4.0350026850708251e-02
4110:-4.2628540171029627e-02
4111:-4.4122495070831366e-02
4112:-4.1774560954362230e-02
4113:-4.2826083208473871e-02
4114:-4.4762262634821609e-02
4115:-4.6704315320466719e-02
4116:-4.2605958952214557e-02
4117:-4.3746446751225243e-02
4118:-4.5758995105009082e-02
4119:-4.7728467974857691e-02
4120:-4.3800452193064450e-02
4121:-4.5140675691293909e-02
4122:-4.7324648793360610e-02
4123:-4.9342442727929869e-02
4124:-4.4848822111878829e-02
4125:-4.6368301762611489e-02
4126:-4.8704319418483626e-02
4127:-5.0754042093773773e-02
4128:-4.7886375836726079e-02
4129:-4.9970932373039435e-02
4130:-5.2310323850389043e-02
4131:-5.3780930364929896e-02
4132:-4.8914265850242222e-02
4133:-5.0989345939224745e-02
4134:-5.3273338180691569e-02
4135:-5.4657611313195277e-02
4136:-5.0522358869847669e-02
4137:-5.2565044520945875e-02
4138:-5.4781164847698599e-02
4139:-5.6101167791778032e-02
4140:-5.1917258429010009e-02
4141:-5.3915791771313927e-02
4142:-5.6084023888325112e-02
4143:-5.7396966630794237e-02
4144:-5.4457783385003830e-02
4145:-5.5828992250090581e-02
4146:-5.7933061899692773e-02
4147:-5.9837367813376598e-02
4148:-5.5271834408566603e-02
4149:-5.6535525396839668e-02
4150:-5.8550343061239574e-02
4151:-6.0446535758567690e-02
4152:-5.6679359371385400e-02
4153:-5.7879235649796516e-02
4154:-5.9815900982936585e-02
4155:-6.1652806275872565e-02
4156:-5.7986914249045132e-02
4157:-5.9207982860335823e-02
4158:-6.1135660145237691e-02
4159:-6.2911349703679897e-02
4160:-6.0957793440288961e-02
4161:-6.3030976466687566e-02
4162:-6.5579904131623581e-02
4163:-6.7367283831585939e-02
4164:-6.1587353678345690e-02
4165:-6.3692188769324684e-02
4166:-6.6237477173038753e-02
4167:-6.7968632836704360e-02
4168:-6.2760032435135310e-02
4169:-6.4777078762080373e-02
4170:-6.7162849754969112e-02
4171:-6.8744612651905804e-02
4172:-6.3959710388867053e-02
4173:-6.5833414983155328e-02
4174:-6.8004201668762393e-02
4175:-6.9430005675792938e-02
4176:-6.8237170938249853e-02
4177:-6.9545891401548460e-02
4178:-7.0659681586070236e-02
4179:-7.1128065070442351e-02
4180:-6.8786256707026233e-02
4181:-6.9994144293907795e-02
4182:-7.0987972125421600e-02
4183:-7.1380970541311678e-02
4184:-6.9477990738713039e-02
4185:-7.0568298621257505e-02
4186:-7.1487831507864141e-02
4187:-7.1874904978088683e-02
4188:-7.0093796854646534e-02
4189:-7.1104538074399995e-02
4190:-7.2000575165578756e-02
4191:-7.2408783117405534e-02
4192:-7.1291420691015892e-02
4193:-7.1962366496628349e-02
4194:-7.3591662320684204e-02
4195:-7.5355429093141260e-02
4196:-7.1510022876283302e-02
4197:-7.2090552242795730e-02
4198:-7.3554293156455369e-02
4199:-7.5165550662193104e-02
4200:-7.2010910684527779e-02
4201:-7.2534241101420732e-02
4202:-7.3785915453242742e-02
4203:-7.5146635432001813e-02
4204:-7.2559026698912635e-02
4205:-7.3038542700481837e-02
4206:-7.4096608308423587e-02
4207:-7.5220087556897561e-02
4208:-7.6397984885339928e-02
4209:-7.7466721766185243e-02
4210:-7.7014747017752475e-02
4211:-7.5361810492359030e-02
4212:-7.6122429269148584e-02
4213:-7.7047532589248097e-02
4214:-7.6434715650042589e-02
4215:-7.4667680206043766e-02
4216:-7.5947455861972032e-02
4217:-7.6600650837607684e-02
4218:-7.5676164582163821e-02
4219:-7.3693581209838016e-02
4220:-7.5871162203165143e-02
4221:-7.6263956286684392e-02
4222:-7.5048813302630704e-02
4223:-7.2877393883203023e-02
4224:-7.4150479973768529e-02
4225:-7.3040714467001042e-02
4226:-7.4112203486956310e-02
4227:-7.6745561393702019e-02
4228:-7.3400840293174771e-02
4229:-7.2291893819405720e-02
4230:-7.3596960305908066e-02
4231:-7.6593662283627212e-02
4232:-7.2324725834932810e-02
4233:-7.1178691903593966e-02
4234:-7.2759058114700986e-02
4235:-7.6208830272607553e-02
4236:-7.1424292370019640e-02
4237:-7.0244341552334832e-02
4238:-7.2027229179837463e-02
4239:-7.5806016523195019e-02
4240:-7.8682072118850394e-02
4241:-8.2017049427147604e-02
4242:-8.5706225034176770e-02
4243:-8.8203245820504234e-02
4244:-7.8780694905161597e-02
4245:-8.2507531267120612e-02
4246:-8.6500300094321372e-02
4247:-8.9055968027994550e-02
4248:-7.8706237687812541e-02
4249:-8.2879566765128171e-02
4250:-8.7157609913392511e-02
4251:-8.9726604409074762e-02
4252:-7.8522881158893984e-02
4253:-8.2968176844564812e-02
4254:-8.7333747882852836e-02
4255:-8.9814343624037132e-02
4256:-8.8927344687180013e-02
4257:-7.9492787698279319e-02
4258:-4.3923126407190254e-02
4259:1.2494835256269183e-03
4260:-8.9736242193327070e-02
4261:-7.9921957755044376e-02
4262:-4.3271606513691094e-02
4263:3.1495303012320959e-03
4264:-9.0337472789654358e-02
4265:-8.0064085360988912e-02
4266:-4.2114440813710678e-02
4267:5.8543538614039964e-03
4268:-9.0332669641188718e-02
4269:-7.9708753923691311e-02
4270:-4.0879294647152245e-02
4271:8.1390822623021563e-03
4272:2.9817317950898099e-02
4273:5.8409565234565704e-02
4274:3.9893006496706469e-02
4275:-1.6935894227333190e-02
4276:3.2465982241251246e-02
4277:6.1595495254537586e-02
4278:4.1880871275646957e-02
4279:-1.7309769016659860e-02
4280:3.6120017028618272e-02
4281:6.5916873283204003e-02
4282:4.4603705639177448e-02
4283:-1.7709931487909527e-02
4284:3.9056836534290117e-02
4285:6.9265386424401165e-02
4286:4.6669623890303401e-02
4287:-1.8041878381326672e-02
4288:-5.9578887182334839e-02
4289:-1.1450686695853973e-01
4290:-1.2743668204509609e-01
4291:-9.2746202724601767e-02
4292:-6.1626100425766620e-02
4293:-1.1880041091853169e-01
4294:-1.3253606992151351e-01
4295:-9.6808657777843463e-02
4296:-6.4239774658583271e-02
4297:-1.2436798787042436e-01
4298:-1.3913424612814534e-01
4299:-1.0202381040672290e-01
4300:-6.6262305842779784e-02
4301:-1.2865412470510099e-01
4302:-1.4425574539346864e-01
4303:-1.0617442771445265e-01
4304:-5.9884893135453178e-02
4305:5.2818807292668501e-03
4306:9.2179920352175440e-02
4307:1.6005642577107321e-01
4308:-6.2868920446772447e-02
4309:4.0519324734840977e-03
4310:9.2236568055795443e-02
4311:1.6013021327640667e-01
4312:-6.6670283694397300e-02
4313:2.4426100709764140e-03
4314:9.2131172573498413e-02
4315:1.6004904210549212e-01
4316:-6.9800891803265375e-02
4317:1.0244833563928957e-03
4318:9.2384456545297089e-02
4319:1.6121636327419994e-01
4320:-1.0094253602509093e-01
4321:2.4666833459990083e-02
4322:1.1835649901434014e-01
4323:1.3612088787286197e-01
4324:-1.0513971179420017e-01
4325:2.5803811585475664e-02
4326:1.2354389889768906e-01
4327:1.4217671741318541e-01
4328:-1.1050606986027442e-01
4329:2.7245986251662527e-02
4330:1.3018185527284171e-01
4331:1.4996428799633313e-01
4332:-1.1469211565784621e-01
4333:2.8291876773152449e-02
4334:1.3522596701846035e-01
4335:1.5590173129525525e-01
4336:1.2798095985682656e-01
4337:1.0852751677031283e-01
4338:8.0846451215009510e-02
4339:5.7803141313017337e-02
4340:1.3376944976542732e-01
4341:1.1358947884397187e-01
4342:8.4754525880494369e-02
4343:6.0667569812029642e-02
4344:1.4124417793602120e-01
4345:1.2017383106527653e-01
4346:8.9873819105858746e-02
4347:6.4427293289806190e-02
4348:1.4694882613689966e-01
4349:1.2521115563050506e-01
4350:9.3810141518351348e-02
4351:6.7338221296265030e-02
4352:4.5244351415761525e-02
4353:2.8023452749260953e-02
4354:1.9216325082703590e-02
4355:2.2741408611143897e-02
4356:4.7512233766516830e-02
4357:2.9391234699844518e-02
4358:1.9907885210038261e-02
4359:2.3303085191971683e-02
4360:5.0485779878723512e-02
4361:3.1193399232348748e-02
4362:2.0872389364015281e-02
4363:2.4162292593107027e-02
4364:5.2802521809300160e-02
4365:3.2628252111657562e-02
4366:2.1685667310819640e-02
4367:2.4909350329427062e-02
4368:2.7740495501474897e-02
4369:3.4706299152431078e-02
4370:3.7505323921976218e-02
4371:3.4968203703336073e-02
4372:2.8355714217857358e-02
4373:3.5352605912044442e-02
4374:3.7994206095752450e-02
4375:3.5184928606625594e-02
4376:2.9326779940128122e-02
4377:3.6413935073194535e-02
4378:3.8849442258478827e-02
4379:3.5634813025984098e-02
4380:3.0166244950275752e-02
4381:3.7326952805501010e-02
4382:3.9593386860898611e-02
4383:3.6047060673619936e-02
4384:3.2188678686522115e-02
4385:2.7738983745808958e-02
4386:2.4197544990584227e-02
4387:2.3271997143703028e-02
4388:3.2216200923610015e-02
4389:2.7495443934155036e-02
4390:2.3790054299754424e-02
4391:2.2875326855616791e-02
4392:3.2376676579173314e-02
4393:2.7224353662437584e-02
4394:2.3218658474347047e-02
4395:2.2268198223410050e-02
4396:3.2551714062912580e-02
4397:2.7034824328204955e-02
4398:2.2749631039250328e-02
4399:2.1733546740128704e-02
4400:2.3368106063031219e-02
4401:2.3576016215233409e-02
4402:2.3639952948708919e-02
4403:2.3495523397632126e-02
4404:2.3016360444316694e-02
4405:2.3266009404298675e-02
4406:2.3290369830335153e-02
4407:2.3055831949668520e-02
4408:2.2448146586441065e-02
4409:2.2722296744291121e-02
4410:2.2663897963635334e-02
4411:2.2289910379330393e-02
4412:2.1924510220890467e-02
4413:2.2196649075612664e-02
4414:2.2075035234654986e-02
4415:2.1612120974190373e-02
4416:2.3321295159381951e-02
4417:2.2481492521889902e-02
4418:2.0335483743548575e-02
4419:1.7906864469574457e-02
4420:2.2820967052469110e-02
4421:2.1930670732788961e-02
4422:1.9846172319170411e-02
4423:1.7548944122538358e-02
4424:2.1964212530210411e-02
4425:2.0993456430205358e-02
4426:1.8985486441758796e-02
4427:1.6867637491581416e-02
4428:2.1230636372880793e-02
4429:2.0211852379075263e-02
4430:1.8251375903205320e-02
4431:1.6239558128917392e-02
4432:1.6367348381516482e-02
4433:1.3487049690830828e-02
4434:9.8279131587042431e-03
4435:7.0860429580241304e-03
4436:1.6100482563399021e-02
4437:1.3343293901810546e-02
4438:9.7412678831420747e-03
4439:6.9709927738986896e-03
4440:1.5544841975754823e-02
4441:1.2951186602281131e-02
4442:9.4140147218810671e-03
4443:6.5976037375243086e-03
4444:1.4989059368656941e-02
4445:1.2482372081057180e-02
4446:8.9692228060506210e-03
4447:6.1230729557157238e-03
4448:5.6418312678968166e-03
4449:2.9374357217823912e-03
4450:-5.8211914929588271e-04
4451:-3.2703427739804122e-03
4452:5.4909494953906714e-03
4453:2.7315857404951465e-03
4454:-8.2218862077146381e-04
4455:-3.5048802398655980e-03
4456:5.0683223633097175e-03
4457:2.2414212748043932e-03
4458:-1.3522457718959410e-03
4459:-4.0421847760287724e-03
4460:4.5691270413775161e-03
4461:1.7168594207137304e-03
4462:-1.8873477223032827e-03
4463:-4.5919943395186878e-03
4464:-4.6965092961077891e-03
4465:-7.3176726154919941e-03
4466:-1.0618381695242981e-02
4467:-1.3054549192516302e-02
4468:-4.9165506579831276e-03
4469:-7.5025465137020823e-03
4470:-1.0761854310679575e-02
4471:-1.3185925411554601e-02
4472:-5.4538175396735659e-03
4473:-8.0399445512001674e-03
4474:-1.1298396650986390e-02
4475:-1.3718774653940826e-02
4476:-6.0206703274063153e-03
4477:-8.6515181217126872e-03
4478:-1.1970532750915747e-02
4479:-1.4419376617566952e-02
4480:-1.4316836449404942e-02
4481:-1.6584616063290140e-02
4482:-1.9359466102507585e-02
4483:-2.1364851203668794e-02
4484:-1.4455097103865298e-02
4485:-1.6787041457707357e-02
4486:-1.9729165597291171e-02
4487:-2.1906320484752745e-02
4488:-1.4986748328875204e-02
4489:-1.7360606833028650e-02
4490:-2.0444084939968434e-02
4491:-2.2787621876268212e-02
4492:-1.5692090086282338e-02
4493:-1.8085129644037419e-02
4494:-2.1228901266902647e-02
4495:-2.3653307187636148e-02
4496:-2.2403124961463874e-02
4497:-2.4412899506201704e-02
4498:-2.7149420540277025e-02
4499:-2.9306265662315287e-02
4500:-2.3042623448086965e-02
4501:-2.5196258491578305e-02
4502:-2.8043512726598847e-02
4503:-3.0237176420506780e-02
4504:-2.4027103017950510e-02
4505:-2.6337868373799377e-02
4506:-2.9312732698126592e-02
4507:-3.1551444714283637e-02
4508:-2.4948234727263936e-02
4509:-2.7348105385738321e-02
4510:-3.0400800506292021e-02
4511:-3.2668841588642202e-02
4512:-3.0467352495291585e-02
4513:-3.2645374723243407e-02
4514:-3.5482649050551963e-02
4515:-3.7654348118509713e-02
4516:-3.1405442699430554e-02
4517:-3.3597744868894844e-02
4518:-3.6451549240483612e-02
4519:-3.8626565724567644e-02
4520:-3.2728857201782008e-02
4521:-3.4944569027266698e-02
4522:-3.7844530823561186e-02
4523:-4.0063682338643471e-02
4524:-3.3852255566154892e-02
4525:-3.6086209386610724e-02
4526:-3.9031857622840754e-02
4527:-4.1305620837880856e-02
4528:-3.8802963074407337e-02
4529:-4.0807467030614129e-02
4530:-4.3122141521294413e-02
4531:-4.4687610911085168e-02
4532:-3.9772837324981131e-02
4533:-4.1793436939581187e-02
4534:-4.4189057024802227e-02
4535:-4.5875348122438216e-02
4536:-4.1236352352018689e-02
4537:-4.3324994489588785e-02
4538:-4.5851871484213012e-02
4539:-4.7674473362438782e-02
4540:-4.2515083822601892e-02
4541:-4.4684320393879401e-02
4542:-4.7329819663917999e-02
4543:-4.9245655324711854e-02
4544:-4.5468347148159872e-02
4545:-4.7079867480305411e-02
4546:-4.9491909380473119e-02
4547:-5.1551476170230509e-02
4548:-4.6741597821168920e-02
4549:-4.8488500508863996e-02
4550:-5.0993499735229299e-02
4551:-5.3040756678777716e-02
4552:-4.8623397505392546e-02
4553:-5.0479902160309724e-02
4554:-5.3018087568346368e-02
4555:-5.4999936324104527e-02
4556:-5.0240620527057030e-02
4557:-5.2140050219696532e-02
4558:-5.4651478587427228e-02
4559:-5.6558572510328357e-02
4560:-5.2700225070244008e-02
4561:-5.4667828290699487e-02
4562:-5.6813505816602723e-02
4563:-5.8139553457025490e-02
4564:-5.4151422864853874e-02
4565:-5.6059053953550091e-02
4566:-5.8189692454085250e-02
4567:-5.9576508950543818e-02
4568:-5.6047117265367270e-02
4569:-5.7882528025191442e-02
4570:-6.0045545516444518e-02
4571:-6.1566997280719037e-02
4572:-5.7553681178578404e-02
4573:-5.9345136987778345e-02
4574:-6.1567186049103086e-02
4575:-6.3218824453409289e-02
4576:-5.8750732702013142e-02
4577:-6.0009994559389136e-02
4578:-6.1955228463482059e-02
4579:-6.3698422545949887e-02
4580:-6.0248864381146676e-02
4581:-6.1604286841046872e-02
4582:-6.3588124131483917e-02
4583:-6.5261958805119619e-02
4584:-6.2347209481375683e-02
4585:-6.3852076083119005e-02
4586:-6.5876879710050615e-02
4587:-6.7440748005760956e-02
4588:-6.4091639784395055e-02
4589:-6.5712235751581416e-02
4590:-6.7749823709398971e-02
4591:-6.9214187336103336e-02
4592:-6.4707856036732028e-02
4593:-6.6486816679837385e-02
4594:-6.8521250850668181e-02
4595:-6.9856412081186023e-02
4596:-6.6192440515344952e-02
4597:-6.7794839774604307e-02
4598:-6.9593826348299234e-02
4599:-7.0781322269823657e-02
4600:-6.8260153216963174e-02
4601:-6.9638999097878615e-02
4602:-7.1164913703914298e-02
4603:-7.2185756188141478e-02
4604:-6.9944519049578407e-02
4605:-7.1155390036750463e-02
4606:-7.2481672187284477e-02
4607:-7.3371293665392273e-02
4608:-7.0484143291455845e-02
4609:-7.1456273847131130e-02
4610:-7.2341707015897427e-02
4611:-7.2755783743581451e-02
4612:-7.1352637843170114e-02
4613:-7.2257183237053144e-02
4614:-7.3100357531162216e-02
4615:-7.3491879347354155e-02
4616:-7.2690807073642422e-02
4617:-7.3496230778623842e-02
4618:-7.4234432394625377e-02
4619:-7.4544922598302060e-02
4620:-7.3815750387314596e-02
4621:-7.4517890332541109e-02
4622:-7.5135642458019763e-02
4623:-7.5360646902136660e-02
4624:-7.2907246150512015e-02
4625:-7.3349390039765733e-02
4626:-7.4283651036447851e-02
4627:-7.5263679621304938e-02
4628:-7.3624370293218153e-02
4629:-7.3964469094815910e-02
4630:-7.4638827789489534e-02
4631:-7.5335248907992688e-02
4632:-7.4625519620797345e-02
4633:-7.4800440575458260e-02
4634:-7.5124573312752657e-02
4635:-7.5456930136211228e-02
4636:-7.5394975354433943e-02
4637:-7.5446801699424068e-02
4638:-7.5531012416422100e-02
4639:-7.5617614994789265e-02
4640:-7.5825790484115516e-02
4641:-7.6065797240008698e-02
4642:-7.4685707439255747e-02
4643:-7.2413526153770155e-02
4644:-7.5723956115089378e-02
4645:-7.5667826591723331e-02
4646:-7.3972776372579957e-02
4647:-7.1513854598595092e-02
4648:-7.5624512325943916e-02
4649:-7.5184957551246934e-02
4650:-7.3070370469902404e-02
4651:-7.0353876531036946e-02
4652:-7.5634515371110253e-02
4653:-7.4920844438748288e-02
4654:-7.2478523293798419e-02
4655:-6.9537071296323555e-02
4656:-7.0918239476670794e-02
4657:-6.9725062816485439e-02
4658:-7.1617295453475005e-02
4659:-7.5565664293001697e-02
4660:-6.9942741748570514e-02
4661:-6.8726137033321602e-02
4662:-7.0821472544163613e-02
4663:-7.5090578149136000e-02
4664:-6.8673627768514864e-02
4665:-6.7391020095167439e-02
4666:-6.9688340688698627e-02
4667:-7.4331356974897927e-02
4668:-6.7750560526962239e-02
4669:-6.6356631549503359e-02
4670:-6.8706313840776662e-02
4671:-7.3552315391947745e-02
4672:-7.8392576317854568e-02
4673:-8.2955251274103234e-02
4674:-8.7311470406142802e-02
4675:-8.9696110219726233e-02
4676:-7.8128321445578006e-02
4677:-8.2912199537300155e-02
4678:-8.7216900195547176e-02
4679:-8.9351303427293374e-02
4680:-7.7627234913225915e-02
4681:-8.2684824052180861e-02
4682:-8.6892883728939552e-02
4683:-8.8629730081641461e-02
4684:-7.7005425726204321e-02
4685:-8.2234456781247578e-02
4686:-8.6365290849527099e-02
4687:-8.7799618716513525e-02
4688:-9.0141445425182570e-02
4689:-7.9319355459076202e-02
4690:-4.0063924254242760e-02
4691:9.4485678355882147e-03
4692:-8.9604376652316117e-02
4693:-7.8324614264538794e-02
4694:-3.8223090624975080e-02
4695:1.2184941050750324e-02
4696:-8.8567259864838183e-02
4697:-7.6565506635812824e-02
4698:-3.5246972839452342e-02
4699:1.6335357090771128e-02
4700:-8.7487955403554030e-02
4701:-7.4889661099823743e-02
4702:-3.2557560176974254e-02
4703:1.9972801185718626e-02
4704:4.0672931332075751e-02
4705:7.1045501057688282e-02
4706:4.7737149066911823e-02
4707:-1.8246141464091779e-02
4708:4.3941961090504078e-02
4709:7.4551664679674667e-02
4710:4.9853859438286248e-02
4711:-1.8517298015627424e-02
4712:4.8752699546339283e-02
4713:7.9595873443150195e-02
4714:5.2999593754036060e-02
4715:-1.8522928850085031e-02
4716:5.2907215823865754e-02
4717:8.3920817558542166e-02
4718:5.5818129753706966e-02
4719:-1.8174992690816225e-02
4720:-6.7357081490450624e-02
4721:-1.3095018050182899e-01
4722:-1.4703113358244022e-01
4723:-1.0849606694420162e-01
4724:-6.9286582074194039e-02
4725:-1.3513250701863580e-01
4726:-1.5216866041204302e-01
4727:-1.1287204354530075e-01
4728:-7.1460430392591617e-02
4729:-1.4025585685354786e-01
4730:-1.5856623683621071e-01
4731:-1.1831296840605454e-01
4732:-7.2803099655680104e-02
4733:-1.4387684695102618e-01
4734:-1.6311256512831443e-01
4735:-1.2203306226763876e-01
4736:-7.1620664301058859e-02
4737:1.6333834184582586e-04
4738:9.2791483552216447e-02
4739:1.6268525130012818e-01
4740:-7.5106611302554929e-02
4741:-1.3831914794315415e-03
4742:9.4316929282840883e-02
4743:1.6711642705959448e-01
4744:-7.9400273021558165e-02
4745:-2.9465435598753208e-03
4746:9.7476337128005991e-02
4747:1.7493015344296284e-01
4748:-8.2177112552092604e-02
4749:-3.5553240444256618e-03
4750:1.0045732943291875e-01
4751:1.8133217398751664e-01
4752:-1.1699635091471150e-01
4753:2.8819542133496221e-02
4754:1.3791517340764506e-01
4755:1.5907086903403805e-01
4756:-1.2150921622735930e-01
4757:2.9737230542835020e-02
4758:1.4296857283893330e-01
4759:1.6502826286985967e-01
4760:-1.2781453861989495e-01
4761:3.0761303841519216e-02
4762:1.4956093720232799e-01
4763:1.7281557123216210e-01
4764:-1.3300758229043738e-01
4765:3.1386171452264619e-02
4766:1.5460026209351110e-01
4767:1.7879167760351805e-01
4768:1.4998988497096713e-01
4769:1.2789244832995861e-01
4770:9.5908510608508662e-02
4771:6.8899663154070229e-02
4772:1.5568994422155011e-01
4773:1.3289002485176560e-01
4774:9.9795941057695736e-02
4775:7.1784120667940585e-02
4776:1.6311136545511423e-01
4777:1.3934373268027589e-01
4778:1.0476634472411012e-01
4779:7.5448501951342895e-02
4780:1.6878796004147298e-01
4781:1.4424444108441398e-01
4782:1.0850488794537046e-01
4783:7.8185193527439939e-02
4784:5.4054189198563612e-02
4785:3.3419033040304760e-02
4786:2.2147790537309409e-02
4787:2.5330773472633721e-02
4788:5.6365455192170649e-02
4789:3.4873436064194192e-02
4790:2.2978188035575865e-02
4791:2.6065849714670727e-02
4792:5.9293456824210958e-02
4793:3.6694025458757287e-02
4794:2.3971053085450833e-02
4795:2.6903539213961099e-02
4796:6.1471902685884434e-02
4797:3.8029273768890037e-02
4798:2.4663961424880587e-02
4799:2.7460199561871193e-02
4800:3.0631662591600061e-02
4801:3.7823309333371524e-02
4802:3.9993307136880721e-02
4803:3.6268813697316812e-02
4804:3.1435461594753376e-02
4805:3.8668742392495230e-02
4806:4.0656908630402958e-02
4807:3.6611710072589961e-02
4808:3.2340814091909718e-02
4809:3.9602584192764266e-02
4810:4.1352066038541260e-02
4811:3.6908857445243616e-02
4812:3.2937050646358927e-02
4813:4.0205684916279405e-02
4814:4.1768782894455972e-02
4815:3.7027761841779618e-02
4816:3.2647231261317890e-02
4817:2.6932754216449667e-02
4818:2.2487342943636444e-02
4819:2.1423530418613251e-02
4820:3.2764346750526085e-02
4821:2.6693039573842416e-02
4822:2.1950150970970212e-02
4823:2.0788958654162221e-02
4824:3.2783410936183602e-02
4825:2.6268964368376148e-02
4826:2.1149071605187517e-02
4827:1.9857715924250209e-02
4828:3.2695445373683268e-02
4829:2.5851025881037576e-02
4830:2.0451282473698700e-02
4831:1.9066185514882310e-02
4832:2.1612968184495148e-02
4833:2.1877938633577339e-02
4834:2.1730510277241221e-02
4835:2.1237217852034793e-02
4836:2.0969114170877295e-02
4837:2.1221914803941273e-02
4838:2.1054539919667901e-02
4839:2.0543910687502769e-02
4840:2.0021935409156935e-02
4841:2.0269708077978017e-02
4842:2.0124500701614038e-02
4843:1.9648804491617360e-02
4844:1.9221934461478060e-02
4845:1.9479653461043824e-02
4846:1.9379409084702939e-02
4847:1.8955373624342815e-02
4848:2.0837789397961437e-02
4849:1.9805687213030505e-02
4850:1.7864337459112072e-02
4851:1.5887396927686287e-02
4852:2.0135794228735029e-02
4853:1.9104114040508310e-02
4854:1.7191249762065913e-02
4855:1.5249933496148706e-02
4856:1.9263515281477024e-02
4857:1.8266218968639912e-02
4858:1.6383799137529787e-02
4859:1.4459830054382122e-02
4860:1.8600116681993739e-02
4861:1.7640527732116433e-02
4862:1.5782506028431540e-02
4863:1.3873609251711237e-02
4864:1.4658863712375288e-02
4865:1.2174590090099200e-02
4866:8.6619923584094101e-03
4867:5.8066002205026425e-03
4868:1.4042066279902492e-02
4869:1.1583689673702357e-02
4870:8.0870930347427088e-03
4871:5.2402155495598927e-03
4872:1.3261576311199407e-02
4873:1.0836945673013706e-02
4874:7.4007229206241934e-03
4875:4.5962623576753505e-03
4876:1.2687867706295019e-02
4877:1.0311708725925618e-02
4878:6.9534602676908338e-03
4879:4.1850559200828268e-03
4880:4.2484822821146151e-03
4881:1.3976724777215697e-03
4882:-2.2026312758253617e-03
4883:-4.9190995211776563e-03
4884:3.6879978498411520e-03
4885:8.4464960608027792e-04
4886:-2.7721980200722967e-03
4887:-5.5380148254966241e-03
4888:3.0590894797605222e-03
4889:2.0558294592243375e-04
4890:-3.4929871885357516e-03
4891:-6.3634117264428263e-03
4892:2.6477643128234815e-03
4893:-2.5081690628984835e-04
4894:-4.0618857449708050e-03
4895:-7.0270527208076364e-03
4896:-6.3638335373723048e-03
4897:-9.0363540490627000e-03
4898:-1.2413572307781224e-02
4899:-1.4894190379022464e-02
4900:-7.0260249858769969e-03
4901:-9.7934667810388870e-03
4902:-1.3294960353394414e-02
4903:-1.5850366853231802e-02
4904:-7.9181099666358595e-03
4905:-1.0813669192216449e-02
4906:-1.4478663982683888e-02
4907:-1.7150602999578515e-02
4908:-8.6261003057678618e-03
4909:-1.1599825894675245e-02
4910:-1.5371946840089206e-02
4911:-1.8141556835034118e-02
4912:-1.6175333152761418e-02
4913:-1.8580377976103984e-02
4914:-2.1744372647901758e-02
4915:-2.4196130088315226e-02
4916:-1.7158816506298556e-02
4917:-1.9606158604570791e-02
4918:-2.2823845148344003e-02
4919:-2.5327071829713717e-02
4920:-1.8516362767397800e-02
4921:-2.1063876116944082e-02
4922:-2.4402780886636867e-02
4923:-2.6995796653243868e-02
4924:-1.9567524187444289e-02
4925:-2.2229736074731478e-02
4926:-2.5712946071491691e-02
4927:-2.8407360202023724e-02
4928:-2.5511455047362804e-02
4929:-2.7946102015399207e-02
4930:-3.1031617883300892e-02
4931:-3.3312974974638289e-02
4932:-2.6675803199578442e-02
4933:-2.9166664673634858e-02
4934:-3.2307191460424281e-02
4935:-3.4615254644426621e-02
4936:-2.8391654835335470e-02
4937:-3.0956173555312005e-02
4938:-3.4165973628920855e-02
4939:-3.6511392076879909e-02
4940:-2.9851830325102375e-02
4941:-3.2486886915651152e-02
4942:-3.5755517197798348e-02
4943:-3.8129378104842591e-02
4944:-3.4499289341668578e-02
4945:-3.6742873165199752e-02
4946:-3.9715253578823669e-02
4947:-4.2023546274306191e-02
4948:-3.5811046216724339e-02
4949:-3.8084808766942438e-02
4950:-4.1131338702967736e-02
4951:-4.3528784737856832e-02
4952:-3.7724549192698305e-02
4953:-4.0056846226252503e-02
4954:-4.3243224955312264e-02
4955:-4.5802601046355383e-02
4956:-3.9355994820761658e-02
4957:-4.1740970663444690e-02
4958:-4.5059689262320846e-02
4959:-4.7772917934951038e-02
4960:-4.3257139794308466e-02
4961:-4.5477888909875301e-02
4962:-4.8193569460866739e-02
4963:-5.0157744363151173e-02
4964:-4.4822477576581740e-02
4965:-4.7167201800220514e-02
4966:-5.0045951566373099e-02
4967:-5.2119265003414086e-02
4968:-4.7202745262205692e-02
4969:-4.9761837182628728e-02
4970:-5.2916629327522335e-02
4971:-5.5172971558565563e-02
4972:-4.9273687732535799e-02
4973:-5.2033995412355559e-02
4974:-5.5446869246748028e-02
4975:-5.7874993988631780e-02
4976:-5.1173311914057280e-02
4977:-5.3085806249549838e-02
4978:-5.5571075561101323e-02
4979:-5.7434408506349295e-02
4980:-5.3180938355323844e-02
4981:-5.5132321282749461e-02
4982:-5.7587482847472837e-02
4983:-5.9381846523316677e-02
4984:-5.6313229783268914e-02
4985:-5.8354314007157564e-02
4986:-6.0826477148484201e-02
4987:-6.2573014225680651e-02
4988:-5.9090529194978737e-02
4989:-6.1234432187322170e-02
4990:-6.3773339194459613e-02
4991:-6.5527537276176981e-02
4992:-5.8402741242047147e-02
4993:-6.0176136916280439e-02
4994:-6.2438403561347569e-02
4995:-6.4163209293342391e-02
4996:-6.0305509244991194e-02
4997:-6.2045133774092348e-02
4998:-6.4366103565661859e-02
4999:-6.6207000331532276e-02
5000:-6.3457469005980177e-02
5001:-6.5157027725077116e-02
5002:-6.7504738839337011e-02
5003:-6.9428341450417652e-02
5004:-6.6403811324169976e-02
5005:-6.8081496829522373e-02
5006:-7.0401713087275816e-02
5007:-7.2315234871453790e-02
5008:-6.5085079151248212e-02
5009:-6.6762564515312733e-02
5010:-6.8797574963831876e-02
5011:-7.0203970085454329e-02
5012:-6.7208410464970642e-02
5013:-6.8974609113863189e-02
5014:-7.0993688122094334e-02
5015:-7.2292704615450426e-02
5016:-7.0491183696386739e-02
5017:-7.2314439137216330e-02
5018:-7.4281823356255508e-02
5019:-7.5451037141392049e-02
5020:-7.3377743193998590e-02
5021:-7.5178795761394260e-02
5022:-7.7072489308488701e-02
5023:-7.8155148885027489e-02
5024:-7.0886277672092143e-02
5025:-7.2008247031914011e-02
5026:-7.3226082479738913e-02
5027:-7.4036856944253632e-02
5028:-7.2888831323560513e-02
5029:-7.3848297539245600e-02
5030:-7.4852948342221712e-02
5031:-7.5489587702980393e-02
5032:-7.5950933665469719e-02
5033:-7.6727766357620963e-02
5034:-7.7472278508041503e-02
5035:-7.7866725375868681e-02
5036:-7.8600857081290193e-02
5037:-7.9279295930209340e-02
5038:-7.9873642288280269e-02
5039:-8.0106194745301673e-02
5040:-7.4440526770808646e-02
5041:-7.5071457884903312e-02
5042:-7.5609002126445168e-02
5043:-7.5783739081144871e-02
5044:-7.5794742456386260e-02
5045:-7.6248238173374908e-02
5046:-7.6581637755122056e-02
5047:-7.6629014238959195e-02
5048:-7.8021509701021605e-02
5049:-7.8181573869977289e-02
5050:-7.8139150396980675e-02
5051:-7.7924696781163275e-02
5052:-8.0149636082084835e-02
5053:-8.0061872272604903e-02
5054:-7.9647994306303746e-02
5055:-7.9135770313627507e-02
5056:-7.5794599468548884e-02
5057:-7.5788873749720626e-02
5058:-7.5764627799617179e-02
5059:-7.5739961402032083e-02
5060:-7.6582663762228179e-02
5061:-7.6453886019347966e-02
5062:-7.6230080965642821e-02
5063:-7.6022090836511652e-02
5064:-7.7752565883248873e-02
5065:-7.7388216083597111e-02
5066:-7.6861952871596084e-02
5067:-7.6435478710075402e-02
5068:-7.8807736445472162e-02
5069:-7.8169388636497181e-02
5070:-7.7339794380461666e-02
5071:-7.6737502103668087e-02
5072:-7.5687682213621502e-02
5073:-7.4840847588962575e-02
5074:-7.2223431036075092e-02
5075:-6.9148597322177721e-02
5076:-7.5861773962440010e-02
5077:-7.4801626754628897e-02
5078:-7.1881331111344524e-02
5079:-6.8550186774907498e-02
5080:-7.6165020622798105e-02
5081:-7.4883249225509443e-02
5082:-7.1610870995128861e-02
5083:-6.7935502794996688e-02
5084:-7.6395435999667624e-02
5085:-7.4971350681779445e-02
5086:-7.1450097486744441e-02
5087:-6.7500811799254684e-02
5088:-6.7293586196014610e-02
5089:-6.5809430396197507e-02
5090:-6.8134272718531882e-02
5091:-7.3042716752917486e-02
5092:-6.6551795309689757e-02
5093:-6.4849581326308109e-02
5094:-6.7026726054189162e-02
5095:-7.1948917985812585e-02
5096:-6.5724845252070285e-02
5097:-6.3667327693137044e-02
5098:-6.5521620131519701e-02
5099:-7.0337438646094042e-02
5100:-6.5109793734441201e-02
5101:-6.2745964660402373e-02
5102:-6.4315619363132889e-02
5103:-6.9030260349014175e-02
5104:-7.6555773287702467e-02
5105:-8.1851606912813069e-02
5106:-8.5942159347597774e-02
5107:-8.7231294611959970e-02
5108:-7.5513010207077513e-02
5109:-8.0844446558991104e-02
5110:-8.4803578868957022e-02
5111:-8.5827746298363483e-02
5112:-7.3896090506823706e-02
5113:-7.9159889217195564e-02
5114:-8.2858091939001483e-02
5115:-8.3524519418481741e-02
5116:-7.2577497434207633e-02
5117:-7.7767962672833021e-02
5118:-8.1228556079278744e-02
5119:-8.1593063329016891e-02
5120:-8.6796753508815924e-02
5121:-7.3882188992733772e-02
5122:-3.0986233647734906e-02
5123:2.2076862200080948e-02
5124:-8.5182946906114165e-02
5125:-7.1700049296551660e-02
5126:-2.7743881393446905e-02
5127:2.6347628891672897e-02
5128:-8.2618693879146915e-02
5129:-6.8392908650727210e-02
5130:-2.2981465167671498e-02
5131:3.2565551744747227e-02
5132:-8.0473678948483979e-02
5133:-6.5627411055533588e-02
5134:-1.8973333168539559e-02
5135:3.7836825041865169e-02
5136:5.5300907256660245e-02
5137:8.6415791159117308e-02
5138:5.7495174815017071e-02
5139:-1.7843401739103700e-02
5140:6.0137851903341207e-02
5141:9.1457973021060152e-02
5142:6.0961091865569250e-02
5143:-1.6979942161458206e-02
5144:6.7171627167372766e-02
5145:9.8836292405932918e-02
5146:6.6229173598370245e-02
5147:-1.5266133085742265e-02
5148:7.3160445681775280e-02
5149:1.0519531676421792e-01
5150:7.0958885206054007e-02
5151:-1.3384830733596026e-02
5152:-7.3390864889112867e-02
5153:-1.4568929158487917e-01
5154:-1.6537970604957494e-01
5155:-1.2379126650565049e-01
5156:-7.4306039443614885e-02
5157:-1.4895374978983164e-01
5158:-1.6944793598559643e-01
5159:-1.2677270467812837e-01
5160:-7.5030884977333290e-02
5161:-1.5287883540699770e-01
5162:-1.7438640947404463e-01
5163:-1.3009334741282547e-01
5164:-7.5118935801662984e-02
5165:-1.5555029923916552e-01
5166:-1.7785843016651043e-01
5167:-1.3222317238198381e-01
5168:-8.3387729337803390e-02
5169:-3.6072329457733370e-03
5170:1.0213420731378677e-01
5171:1.8453708953655759e-01
5172:-8.5248915185176619e-02
5173:-3.3003665496144211e-03
5174:1.0524954044643896e-01
5175:1.8983206148148629e-01
5176:-8.6956219146663072e-02
5177:-2.1614996167201891e-03
5178:1.0942168247853920e-01
5179:1.9581000003871474e-01
5180:-8.7760256898641947e-02
5181:-7.4335515218884075e-04
5182:1.1288599701780477e-01
5183:2.0014957743811676e-01
5184:-1.3591458741553958e-01
5185:3.1654348264273852e-02
5186:1.5727709584762992e-01
5187:1.8197798995317285e-01
5188:-1.4160566469765254e-01
5189:3.2047493892659096e-02
5190:1.6228417202394108e-01
5191:1.8796116560097093e-01
5192:-1.4933697817199088e-01
5193:3.2429733409070141e-02
5194:1.6881179118619075e-01
5195:1.9578372398444907e-01
5196:-1.5535552354395790e-01
5197:3.2699682856994650e-02
5198:1.7383502470710535e-01
5199:2.0179911663191494e-01
5200:1.7180933326985531e-01
5201:1.4684243628693081e-01
5202:1.1047628253837172e-01
5203:7.9622595353615794e-02
5204:1.7747772202183551e-01
5205:1.5171109188509865e-01
5206:1.1417745055708457e-01
5207:8.2338841049123465e-02
5208:1.8487871020114627e-01
5209:1.5805910157989200e-01
5210:1.1901909534463900e-01
5211:8.5928432472620317e-02
5212:1.9056143399894709e-01
5213:1.6292579752002009e-01
5214:1.2274046751142835e-01
5215:8.8711425891020435e-02
5216:6.2613738712099673e-02
5217:3.8723889902490156e-02
5218:2.5014981797814723e-02
5219:2.7734498359743377e-02
5220:6.4787509120741008e-02
5221:4.0077285431178257e-02
5222:2.5735343082084871e-02
5223:2.8307100879904037e-02
5224:6.7692424327357295e-02
5225:4.1948318455142672e-02
5226:2.6804388318054487e-02
5227:2.9177247022156443e-02
5228:6.9965885489466140e-02
5229:4.3453884899810780e-02
5230:2.7711866976450936e-02
5231:2.9928333485397085e-02
5232:3.3229316221590324e-02
5233:4.0497116580962757e-02
5234:4.1957816785019912e-02
5235:3.7057358947826281e-02
5236:3.3828468051962553e-02
5237:4.1076752336210373e-02
5238:4.2319932772009412e-02
5239:3.7104736892152830e-02
5240:3.4719923402702031e-02
5241:4.1908913686025805e-02
5242:4.2821778376478027e-02
5243:3.7170339164747747e-02
5244:3.5478252920491650e-02
5245:4.2599228675949667e-02
5246:4.3230074025800591e-02
5247:3.7231720823796610e-02
5248:3.2614840001437440e-02
5249:2.5595534812405254e-02
5250:2.0050003893261739e-02
5251:1.8619427329343224e-02
5252:3.2450197829870436e-02
5253:2.5100059716036544e-02
5254:1.9286282796100260e-02
5255:1.7776201701799794e-02
5256:3.2232553618448206e-02
5257:2.4450035937406425e-02
5258:1.8295853185508550e-02
5259:1.6686539255765721e-02
5260:3.2075969366459622e-02
5261:2.3966287934982122e-02
5262:1.7557938915996794e-02
5263:1.5870291461867480e-02
5264:1.8773752414039700e-02
5265:1.9042565941763845e-02
5266:1.8972236769018647e-02
5267:1.8577827762921894e-02
5268:1.7929885880443381e-02
5269:1.8216937345870002e-02
5270:1.8188403444948931e-02
5271:1.7832312274561127e-02
5272:1.6837392631443279e-02
5273:1.7132997710654095e-02
5274:1.7121739214952109e-02
5275:1.6778861795217662e-02
5276:1.6012807084619936e-02
5277:1.6296518034159466e-02
5278:1.6265931503895281e-02
5279:1.5905606261014841e-02
5280:1.8238495322515359e-02
5281:1.7297933888830115e-02
5282:1.5453741410805995e-02
5283:1.3558698132919352e-02
5284:1.7512326405764660e-02
5285:1.6589492257774285e-02
5286:1.4747892208868503e-02
5287:1.2857039804020649e-02
5288:1.6463376289961921e-02
5289:1.5526067988874667e-02
5290:1.3631309614880368e-02
5291:1.1686884200786906e-02
5292:1.5579067106538244e-02
5293:1.4602152139776137e-02
5294:1.2618299127116055e-02
5295:1.0579563943558802e-02
5296:1.2385378963051655e-02
5297:1.0046093778927730e-02
5298:6.7363032119624041e-03
5299:3.9801795696434005e-03
5300:1.1692255329874904e-02
5301:9.3802964557887086e-03
5302:6.0926104925118438e-03
5303:3.3101219011697877e-03
5304:1.0492648140654466e-02
5305:8.1177955626085159e-03
5306:4.7211132078508571e-03
5307:1.8248348638911136e-03
5308:9.3264294817667036e-03
5309:6.8254620439934478e-03
5310:3.2529293913199338e-03
5311:2.3140748591460200e-04
5312:2.4334221318894492e-03
5313:-5.0732915928815997e-04
5314:-4.3931152444323905e-03
5315:-7.4061536010284097e-03
5316:1.7258025016836773e-03
5317:-1.2998216647352088e-03
5318:-5.2846299707747756e-03
5319:-8.3340062594571447e-03
5320:1.6938754293118049e-04
5321:-2.9551634305317633e-03
5322:-6.9856446461820905e-03
5323:-1.0002301559233442e-02
5324:-1.4800045844471708e-03
5325:-4.6559585194829479e-03
5326:-8.6684315301238449e-03
5327:-1.1630828995781908e-02
5328:-9.0210619342118784e-03
5329:-1.2021682892463623e-02
5330:-1.5839240507366809e-02
5331:-1.8662714929390256e-02
5332:-9.9481909649194490e-03
5333:-1.2961612338964163e-02
5334:-1.6851849399386793e-02
5335:-1.9789213936203816e-02
5336:-1.1578737211610924e-02
5337:-1.4569838881893648e-02
5338:-1.8550481605182932e-02
5339:-2.1654711045996498e-02
5340:-1.3174348959782929e-02
5341:-1.6152366224433414e-02
5342:-2.0215453626224383e-02
5343:-2.3453006302052670e-02
5344:-2.0126662366421116e-02
5345:-2.2864506445319791e-02
5346:-2.6446127878987310e-02
5347:-2.9210425851825785e-02
5348:-2.1337013418557527e-02
5349:-2.4240570823640176e-02
5350:-2.8037151954023547e-02
5351:-3.0956033617413951e-02
5352:-2.3324802626481442e-02
5353:-2.6466228463149034e-02
5354:-3.0568356726232846e-02
5355:-3.3708476217292865e-02
5356:-2.5215255474033731e-02
5357:-2.8532782281127191e-02
5358:-3.2858351212402173e-02
5359:-3.6159891535812221e-02
5360:-3.0688118893304171e-02
5361:-3.3370043152684443e-02
5362:-3.6674687122103040e-02
5363:-3.9063145345568158e-02
5364:-3.2508680534245597e-02
5365:-3.5298651863281544e-02
5366:-3.8687911855341796e-02
5367:-4.1108473280345691e-02
5368:-3.5370397555158070e-02
5369:-3.8326929050252208e-02
5370:-4.1864579889606533e-02
5371:-4.4356239193867476e-02
5372:-3.7902460531013184e-02
5373:-4.0993233788399537e-02
5374:-4.4676753279326631e-02
5375:-4.7262950257106105e-02
5376:-4.0295843636921562e-02
5377:-4.2709193429440961e-02
5378:-4.6103649366823304e-02
5379:-4.8906073849949369e-02
5380:-4.2351976842884366e-02
5381:-4.4814756961470095e-02
5382:-4.8338449002811534e-02
5383:-5.1289123504562627e-02
5384:-4.5627987854480613e-02
5385:-4.8169415884407048e-02
5386:-5.1846907959702440e-02
5387:-5.4947414675045686e-02
5388:-4.8581247345479694e-02
5389:-5.1214814100659221e-02
5390:-5.5012804359250787e-02
5391:-5.8195150229677431e-02
5392:-5.0465235134053862e-02
5393:-5.3342054913475323e-02
5394:-5.6904431977825506e-02
5395:-5.9432661886746431e-02
5396:-5.2943444007060789e-02
5397:-5.6005236379511089e-02
5398:-5.9800409809512386e-02
5399:-6.2485222735603967e-02
5400:-5.6689744316018052e-02
5401:-5.9912533405476233e-02
5402:-6.3903960344121255e-02
5403:-6.6726765351723047e-02
5404:-5.9974242783243786e-02
5405:-6.3255152300383879e-02
5406:-6.7315168587100113e-02
5407:-7.0197458610506872e-02
5408:-6.0692735035484197e-02
5409:-6.2903162160147200e-02
5410:-6.5499094646160938e-02
5411:-6.7277244004662951e-02
5412:-6.3816907306263035e-02
5413:-6.6146118427524853e-02
5414:-6.8874039513520197e-02
5415:-7.0740992730875848e-02
5416:-6.8127724100214351e-02
5417:-7.0592261036803994e-02
5418:-7.3516730948749720e-02
5419:-7.5555970541434661e-02
5420:-7.1636332279786247e-02
5421:-7.4187810414455449e-02
5422:-7.7261696633015908e-02
5423:-7.9447464573397242e-02
5424:-6.8159819361046953e-02
5425:-6.9832779647064483e-02
5426:-7.2121622705715052e-02
5427:-7.3999620598069707e-02
5428:-7.1666118247906654e-02
5429:-7.3377164216782392e-02
5430:-7.5632913932049128e-02
5431:-7.7427888889250646e-02
5432:-7.6578790745939956e-02
5433:-7.8417170524899452e-02
5434:-8.0701642542238369e-02
5435:-8.2400584049431638e-02
5436:-8.0558604855082400e-02
5437:-8.2534046373797326e-02
5438:-8.4904247969747770e-02
5439:-8.6572240256517219e-02
5440:-7.5041431327511107e-02
5441:-7.6801596617003781e-02
5442:-7.8640063613394304e-02
5443:-7.9681048540718419e-02
5444:-7.8408316208047460e-02
5445:-8.0051493454879233e-02
5446:-8.1746128930316964e-02
5447:-8.2689599959320015e-02
5448:-8.3287928990760637e-02
5449:-8.4744538131034802e-02
5450:-8.6199747489148382e-02
5451:-8.6975061839884696e-02
5452:-8.7404059442145410e-02
5453:-8.8730585409771509e-02
5454:-8.9989775573036099e-02
5455:-9.0607559337254534e-02
5456:-8.0105747501976937e-02
5457:-8.0749584186517190e-02
5458:-8.1288834265992038e-02
5459:-8.1452782254654077e-02
5460:-8.3068678215612660e-02
5461:-8.3635706801832119e-02
5462:-8.4065086034362274e-02
5463:-8.4112843649934141e-02
5464:-8.7272981348359174e-02
5465:-8.7692571648936762e-02
5466:-8.7927811293916164e-02
5467:-8.7817387222388923e-02
5468:-9.0822115260419264e-02
5469:-9.1079524739902731e-02
5470:-9.1102910483160895e-02
5471:-9.0842194926863823e-02
5472:-8.1444421556863766e-02
5473:-8.1225043394225607e-02
5474:-8.0587339345023934e-02
5475:-7.9878528249416769e-02
5476:-8.4022230149242552e-02
5477:-8.3580562825215421e-02
5478:-8.2537896037809769e-02
5479:-8.1452731473724865e-02
5480:-8.7633200473375195e-02
5481:-8.6936775493399135e-02
5482:-8.5410275205974037e-02
5483:-8.3853551619087516e-02
5484:-9.0582783637961989e-02
5485:-8.9702064752322758e-02
5486:-8.7840665764316164e-02
5487:-8.5956277639840886e-02
5488:-7.9442330551128981e-02
5489:-7.8617893590425897e-02
5490:-7.7593198962826571e-02
5491:-7.6887778613954891e-02
5492:-8.0802670157021403e-02
5493:-7.9619142798327144e-02
5494:-7.8225930380293809e-02
5495:-7.7318727818267000e-02
5496:-8.2927695958535746e-02
5497:-8.1296163289901441e-02
5498:-7.9449623985936121e-02
5499:-7.8268743407795646e-02
5500:-8.4836883834583821e-02
5501:-8.2901198293292414e-02
5502:-8.0745330624869230e-02
5503:-7.9349356379581487e-02
5504:-7.6508264552196156e-02
5505:-7.5010503104473408e-02
5506:-7.1355110434490318e-02
5507:-6.7251752920919491e-02
5508:-7.6857020484367447e-02
5509:-7.5169671684702857e-02
5510:-7.1159207287050497e-02
5511:-6.6681231991243248e-02
5512:-7.7671952237939476e-02
5513:-7.5618894775303425e-02
5514:-7.0908528854411276e-02
5515:-6.5745634661074151e-02
5516:-7.8625619245489539e-02
5517:-7.6195027875113383e-02
5518:-7.0753955213108163e-02
5519:-6.4902519501399469e-02
5520:-6.4757446691132842e-02
5521:-6.2223158966784091e-02
5522:-6.3647081593467436e-02
5523:-6.8324713668351536e-02
5524:-6.3953194384425871e-02
5525:-6.1062353535648053e-02
5526:-6.2233796392189455e-02
5527:-6.6900590201337387e-02
5528:-6.2619744748695569e-02
5529:-5.9159960171104274e-02
5530:-5.9989305730235233e-02
5531:-6.4703824512695476e-02
5532:-6.1391920517852486e-02
5533:-5.7391884355878879e-02
5534:-5.7899095310812512e-02
5535:-6.2645308906575242e-02
5536:-7.1878447215466074e-02
5537:-7.7043513774379319e-02
5538:-8.0375740771592638e-02
5539:-8.0566144512762602e-02
5540:-7.0507599987183034e-02
5541:-7.5681863300723393e-02
5542:-7.8809252866306509e-02
5543:-7.8679947685130550e-02
5544:-6.8428810772406007e-02
5545:-7.3677691826523936e-02
5546:-7.6571544155141044e-02
5547:-7.6031614054760124e-02
5548:-6.6466073886213325e-02
5549:-7.1770558663473719e-02
5550:-7.4469930197744644e-02
5551:-7.3606490015971054e-02
5552:-7.9322411651178981e-02
5553:-6.4115154692784129e-02
5554:-1.6735505449139692e-02
5555:4.0816612049542685e-02
5556:-7.7201790517112914e-02
5557:-6.1302924792771524e-02
5558:-1.2500295106710491e-02
5559:4.6541080808997909e-02
5560:-7.4249725087203997e-02
5561:-5.7451281744006169e-02
5562:-6.7546470538692683e-03
5563:5.4325984811758481e-02
5564:-7.1592837486962616e-02
5565:-5.4125629452063811e-02
5566:-2.0130295096087787e-03
5567:6.0624228813386936e-02
5568:7.6564951448830354e-02
5569:1.0884948426664091e-01
5570:7.3751452654337177e-02
5571:-1.2153022754822712e-02
5572:8.3157104147866590e-02
5573:1.1601226022091855e-01
5574:7.9341217743399542e-02
5575:-9.5413749565736207e-03
5576:9.2154842709655807e-02
5577:1.2586905475414556e-01
5578:8.7169369526865811e-02
5579:-5.7078718582431985e-03
5580:9.9392881617056089e-02
5581:1.3377345437867802e-01
5582:9.3473442874081270e-02
5583:-2.5667542789093215e-03
5584:-7.4974128229976136e-02
5585:-1.5683522170574335e-01
5586:-1.7959258898470698e-01
5587:-1.3322076806472249e-01
5588:-7.4457666572701253e-02
5589:-1.5908085558715673e-01
5590:-1.8271198407791345e-01
5591:-1.3491945288210108e-01
5592:-7.3462187310423324e-02
5593:-1.6183248588055171e-01
5594:-1.8664375276053785e-01
5595:-1.3690278376850235e-01
5596:-7.2575493258471388e-02
5597:-1.6392131814757036e-01
5598:-1.8965310108488237e-01
5599:-1.3832978377215399e-01
5600:-8.8027759745902240e-02
5601:1.9641229101088491e-04
5602:1.1488169081462171e-01
5603:2.0252274620058372e-01
5604:-8.8314845073825823e-02
5605:2.2416045680382444e-03
5606:1.1896435640858680e-01
5607:2.0733422564693485e-01
5608:-8.8361900193214132e-02
5609:5.4238547149755099e-03
5610:1.2505846963652931e-01
5611:2.1458968959863170e-01
5612:-8.8220736576144543e-02
5613:8.2316250258636613e-03
5614:1.3041289665807379e-01
5615:2.2113162307306819e-01
5616:-1.5855326675147530e-01
5617:3.2858288305956523e-02
5618:1.7652604055222967e-01
5619:2.0501370288181478e-01
5620:-1.6451740992766531e-01
5621:3.3188196944562647e-02
5622:1.8159895011691679e-01
5623:2.1105782606559570e-01
5624:-1.7229586991751605e-01
5625:3.3638555691651154e-02
5626:1.8824449422059117e-01
5627:2.1896061373727446e-01
5628:-1.7831764809549286e-01
5629:3.3960257520512814e-02
5630:1.9334243032182663e-01
5631:2.2502568730342651e-01
5632:1.9359492529831632e-01
5633:1.6552047913189769e-01
5634:1.2472629568764224e-01
5635:9.0202769262801907e-02
5636:1.9929160603357893e-01
5637:1.7038239022760307e-01
5638:1.2843678976443887e-01
5639:9.2981930773990654e-02
5640:2.0673015627991503e-01
5641:1.7671455950646411e-01
5642:1.3325126952442884e-01
5643:9.6572706967473734e-02
5644:2.1243488350587295e-01
5645:1.8156352644958812e-01
5646:1.3692926668118019e-01
5647:9.9307033429298489e-02
5648:7.1189880662526406e-02
5649:4.4275380394665116e-02
5650:2.8219029940026476e-02
5651:3.0350784832071782e-02
5652:7.3466156748926231e-02
5653:4.5791422476538238e-02
5654:2.9136392472851779e-02
5655:3.1104002767101548e-02
5656:7.6396387046740233e-02
5657:4.7716828169005632e-02
5658:3.0262210973211953e-02
5659:3.2008207918223230e-02
5660:7.8620776009814625e-02
5661:4.9161385109595758e-02
5662:3.1081937609859500e-02
5663:3.2655476097728571e-02
5664:3.5901870497801622e-02
5665:4.2980396717519978e-02
5666:4.3453793936239417e-02
5667:3.7268263071996148e-02
5668:3.6656269271062067e-02
5669:4.3658390786133115e-02
5670:4.3841420668886744e-02
5671:3.7300236984680359e-02
5672:3.7562897374456353e-02
5673:4.4475190893763755e-02
5674:4.4286233331242063e-02
5675:3.7261310753193305e-02
5676:3.8214656856349463e-02
5677:4.5066180088417319e-02
5678:4.4591101820280934e-02
5679:3.7170177453064529e-02
5680:3.1996824851912763e-02
5681:2.3713946862856827e-02
5682:1.7169310506047118e-02
5683:1.5435431902114953e-02
5684:3.1803462199084018e-02
5685:2.3164951026252548e-02
5686:1.6307745202800764e-02
5687:1.4443203843237159e-02
5688:3.1444954562751336e-02
5689:2.2265496904473613e-02
5690:1.4873742201875590e-02
5691:1.2749440582806418e-02
5692:3.1082349489686873e-02
5693:2.1419973213902928e-02
5694:1.3517710482076608e-02
5695:1.1129598036688747e-02
5696:1.5569289040216226e-02
5697:1.5837790584722070e-02
5698:1.5785080635045849e-02
5699:1.5407185698237385e-02
5700:1.4541348247864299e-02
5701:1.4759013646820321e-02
5702:1.4658867630080952e-02
5703:1.4255918738269421e-02
5704:1.2764841843720754e-02
5705:1.2877706457575378e-02
5706:1.2710902121787479e-02
5707:1.2294553323128293e-02
5708:1.1057860546982368e-02
5709:1.1066707410609132e-02
5710:1.0848292849329543e-02
5711:1.0435466607938223e-02
5712:1.5070831942662273e-02
5713:1.4064455100033166e-02
5714:1.2017320935738271e-02
5715:9.9100786915398316e-03
5716:1.3908002865160184e-02
5717:1.2859939466394922e-02
5718:1.0714072337825998e-02
5719:8.4967443909704527e-03
5720:1.1946222383203579e-02
5721:1.0874568634772498e-02
5722:8.6501311102483176e-03
5723:6.3393277246238016e-03
5724:1.0096502588019219e-02
5725:9.0285743422019085e-03
5726:6.7829217680750115e-03
5727:4.4414699963876338e-03
5728:8.6131241284756015e-03
5729:6.0208764040400285e-03
5730:2.3309228065907682e-03
5731:-7.6190686252836700e-04
5732:7.1292876180390546e-03
5733:4.3959767978097057e-03
5734:5.3188436740688480e-04
5735:-2.6638526425502018e-03
5736:4.9123410152581010e-03
5737:2.0699773798195176e-03
5738:-1.9207183769091515e-03
5739:-5.1955130589963388e-03
5740:2.9956144153908226e-03
5741:1.2718858664424661e-04
5742:-3.8911532408885730e-03
5743:-7.1960956601468257e-03
5744:-2.4989352119292770e-03
5745:-5.6907705043837391e-03
5746:-9.6823888600455661e-03
5747:-1.2618338897634754e-02
5748:-4.4380079961173794e-03
5749:-7.6670659085113172e-03
5750:-1.1673530700788581e-02
5751:-1.4622192114583600e-02
5752:-7.0049135906127434e-03
5753:-1.0309470141209906e-02
5754:-1.4442026790608043e-02
5755:-1.7512600765732966e-02
5756:-9.0301651200093147e-03
5757:-1.2418632815952008e-02
5758:-1.6716224616429104e-02
5759:-1.9935017181350292e-02
5760:-1.4151332295206097e-02
5761:-1.7134948247955088e-02
5762:-2.1251214480871063e-02
5763:-2.4558283869073574e-02
5764:-1.6170747521813918e-02
5765:-1.9207722978227659e-02
5766:-2.3435043520807483e-02
5767:-2.6852985306448682e-02
5768:-1.9134747938550807e-02
5769:-2.2300246395388999e-02
5770:-2.6677770504842196e-02
5771:-3.0203847557240791e-02
5772:-2.1635983514326197e-02
5773:-2.4919004790305677e-02
5774:-2.9401726494723293e-02
5775:-3.2987369167194296e-02
5776:-2.6365171215031524e-02
5777:-2.9766760800887998e-02
5778:-3.4198012620515944e-02
5779:-3.7575617995605458e-02
5780:-2.8725716085277388e-02
5781:-3.2251769675110550e-02
5782:-3.6843570008731896e-02
5783:-4.0341439706202527e-02
5784:-3.2133811850739311e-02
5785:-3.5771349517096082e-02
5786:-4.0520022527334110e-02
5787:-4.4149415389193043e-02
5788:-3.4946730459445643e-02
5789:-3.8646250917497092e-02
5790:-4.3496373392029261e-02
5791:-4.7224560861750899e-02
5792:-3.9356547440261715e-02
5793:-4.2517581133974927e-02
5794:-4.6291705518461408e-02
5795:-4.8948179506576747e-02
5796:-4.2185967040798571e-02
5797:-4.5480877719590591e-02
5798:-4.9459172007595371e-02
5799:-5.2292599828788901e-02
5800:-4.6070792384462128e-02
5801:-4.9555902716150430e-02
5802:-5.3864818636670593e-02
5803:-5.7001141228009360e-02
5804:-4.9209349785275393e-02
5805:-5.2861640968367124e-02
5806:-5.7468769373932478e-02
5807:-6.0876157893080117e-02
5808:-5.0304478071674014e-02
5809:-5.3004952347607819e-02
5810:-5.6872756323526327e-02
5811:-6.0087982136187816e-02
5812:-5.3748185769336862e-02
5813:-5.6612600271970244e-02
5814:-6.0632584129746835e-02
5815:-6.3906400352403747e-02
5816:-5.8628017464250337e-02
5817:-6.1764447130041818e-02
5818:-6.6021236673806355e-02
5819:-6.9378717736828105e-02
5820:-6.2653859437839798e-02
5821:-6.6026977847504165e-02
5822:-7.0489978309194762e-02
5823:-7.3926397349206474e-02
5824:-6.1875600944601677e-02
5825:-6.5165036330188872e-02
5826:-6.9235632050288348e-02
5827:-7.2136817967584616e-02
5828:-6.5703113941772695e-02
5829:-6.9000379326052394e-02
5830:-7.3094756580261738e-02
5831:-7.6047762775726113e-02
5832:-7.1186117679682012e-02
5833:-7.4498228786857523e-02
5834:-7.8649278334240375e-02
5835:-8.1707514001102571e-02
5836:-7.5749940041359265e-02
5837:-7.9089718732440195e-02
5838:-8.3310559067717782e-02
5839:-8.6475809397468281e-02
5840:-7.3592614881690666e-02
5841:-7.6185687513258993e-02
5842:-7.9334070048695471e-02
5843:-8.1594364738126285e-02
5844:-7.7548749201728967e-02
5845:-8.0241213462405495e-02
5846:-8.3540644839669581e-02
5847:-8.5930770710898802e-02
5848:-8.3294042336450089e-02
5849:-8.6163576780184326e-02
5850:-8.9700422337625596e-02
5851:-9.2261687042320517e-02
5852:-8.8144811321438629e-02
5853:-9.1185646112446048e-02
5854:-9.4947733330506351e-02
5855:-9.7661188541721206e-02
5856:-8.2751185590346610e-02
5857:-8.4806033886045129e-02
5858:-8.7244529100551235e-02
5859:-8.8919635071468162e-02
5860:-8.7160694179160975e-02
5861:-8.9346974436199669e-02
5862:-9.1913319080442799e-02
5863:-9.3624857347852738e-02
5864:-9.3575147798912101e-02
5865:-9.5911584499022401e-02
5866:-9.8639978989613297e-02
5867:-1.0042784815377589e-01
5868:-9.9042972443649263e-02
5869:-1.0149550551724801e-01
5870:-1.0434920630420785e-01
5871:-1.0620757789886363e-01
5872:-8.9734830271553767e-02
5873:-9.1008524520926753e-02
5874:-9.2168984174591642e-02
5875:-9.2696204659277762e-02
5876:-9.4430200573766318e-02
5877:-9.5644949480344785e-02
5878:-9.6668911571877222e-02
5879:-9.7060547636924038e-02
5880:-1.0125018232858535e-01
5881:-1.0244881514292123e-01
5882:-1.0337719623552964e-01
5883:-1.0365674488175178e-01
5884:-1.0705609300131985e-01
5885:-1.0827170654321541e-01
5886:-1.0917134187297158e-01
5887:-1.0940320945114017e-01
5888:-9.2859291826882587e-02
5889:-9.3012827800485143e-02
5890:-9.2898600479699805e-02
5891:-9.2542928783270001e-02
5892:-9.7144386148583672e-02
5893:-9.7135052507302005e-02
5894:-9.6796755231592854e-02
5895:-9.6276591494558181e-02
5896:-1.0367233829421157e-01
5897:-1.0351963115104366e-01
5898:-1.0296834788678871e-01
5899:-1.0226957978434642e-01
5900:-1.0938838409776937e-01
5901:-1.0917151856871593e-01
5902:-1.0851279731453704e-01
5903:-1.0770429158402105e-01
5904:-9.2238701813316712e-02
5905:-9.1258733412979201e-02
5906:-8.9229245476799030e-02
5907:-8.7183631854552329e-02
5908:-9.5889430799540321e-02
5909:-9.4716413645227343e-02
5910:-9.2340799114076569e-02
5911:-8.9947656975991760e-02
5912:-1.0178013078362963e-01
5913:-1.0034441458830023e-01
5914:-9.7452015308202175e-02
5915:-9.4507483212693935e-02
5916:-1.0714188124144580e-01
5917:-1.0549920032464642e-01
5918:-1.0216593384906063e-01
5919:-9.8728975732909424e-02
5920:-8.5969105618192154e-02
5921:-8.3886012941993507e-02
5922:-8.1576385499155649e-02
5923:-8.0061353918019343e-02
5924:-8.8521451191036951e-02
5925:-8.6082932561192566e-02
5926:-8.3373331363830350e-02
5927:-8.1565152127707943e-02
5928:-9.2732623260840821e-02
5929:-8.9654506967586783e-02
5930:-8.6169275629933512e-02
5931:-8.3816385237353422e-02
5932:-9.6634363097628573e-02
5933:-9.2932855322792232e-02
5934:-8.8651899742319878e-02
5935:-8.5745224060437331e-02
5936:-7.9260726221567337e-02
5937:-7.6594706735672091e-02
5938:-7.0697797930528786e-02
5939:-6.4423083215403201e-02
5940:-8.0594968703170539e-02
5941:-7.7458286309892793e-02
5942:-7.0690354160129851e-02
5943:-6.3614368238098101e-02
5944:-8.2565094250505205e-02
5945:-7.8754263880585887e-02
5946:-7.0840537829134798e-02
5947:-6.2734720975891528e-02
5948:-8.4224299463734081e-02
5949:-7.9840352631311187e-02
5950:-7.1039646932259046e-02
5951:-6.2164374706846569e-02
5952:-6.0679328921356607e-02
5953:-5.6351168060633880e-02
5954:-5.6654046894135938e-02
5955:-6.1401393141334387e-02
5956:-5.9428209781594840e-02
5957:-5.4479896800425538e-02
5958:-5.4396633844144213e-02
5959:-5.9138631322704346e-02
5960:-5.7979667835320298e-02
5961:-5.2245415205494812e-02
5962:-5.1690978878953034e-02
5963:-5.6438338666752581e-02
5964:-5.6986894173546375e-02
5965:-5.0683272890708675e-02
5966:-4.9815092756431582e-02
5967:-5.4595075524753706e-02
5968:-6.5266102871431045e-02
5969:-7.0585080287898075e-02
5970:-7.3161303268739736e-02
5971:-7.2114893395961152e-02
5972:-6.3077316844519088e-02
5973:-6.8392234806650742e-02
5974:-7.0663560031101136e-02
5975:-6.9190148349969990e-02
5976:-6.0470337687992252e-02
5977:-6.5734454752834126e-02
5978:-6.7461615891764581e-02
5979:-6.5246773244532902e-02
5980:-5.8706591419655743e-02
5981:-6.3910346994307768e-02
5982:-6.5112332224921965e-02
5983:-6.2180747156437545e-02
5984:-6.9975253439428578e-02
5985:-5.2158271961008619e-02
5986:6.8557669423169082e-04
5987:6.4131094353299653e-02
5988:-6.6760244339388000e-02
5989:-4.8187684047459711e-02
5990:6.1294124227614152e-03
5991:7.1127664468122756e-02
5992:-6.2314700627679930e-02
5993:-4.2520941735462940e-02
5994:1.3975164129626164e-02
5995:8.1111973165369292e-02
5996:-5.8761895741198854e-02
5997:-3.7835799571720896e-02
5998:2.0551721318585615e-02
5999:8.9435542725932612e-02
6000:1.0339021037972858e-01
6001:1.3810545947027741e-01
6002:9.6915983030877950e-02
6003:-8.5222670861810862e-04
6004:1.1130604774640598e-01
6005:1.4661349089994954e-01
6006:1.0366150001555988e-01
6007:2.5601368230657160e-03
6008:1.2250737393768323e-01
6009:1.5855899865380915e-01
6010:1.1319669206755714e-01
6011:7.6443821968755479e-03
6012:1.3179020606089198e-01
6013:1.6842611833867513e-01
6014:1.2120230681401171e-01
6015:1.2233026362666315e-02
6016:-7.2090443747895389e-02
6017:-1.6505640515951087e-01
6018:-1.9127917996884194e-01
6019:-1.3907640329625554e-01
6020:-7.1032956711071543e-02
6021:-1.6708906803140369e-01
6022:-1.9422901303687257e-01
6023:-1.4033439323807664e-01
6024:-6.9069087122956438e-02
6025:-1.6921759806583372e-01
6026:-1.9760899518117117e-01
6027:-1.4156346915082427e-01
6028:-6.6866464832091285e-02
6029:-1.7016532406240090e-01
6030:-1.9961777328297650e-01
6031:-1.4209148380411402e-01
6032:-8.8099079143082890e-02
6033:9.8545788635244266e-03
6034:1.3353701601514001e-01
6035:2.2503215794063633e-01
6036:-8.7695416718115468e-02
6037:1.3175048927586485e-02
6038:1.3990715122111544e-01
6039:2.3313675607764062e-01
6040:-8.6793074070469878e-02
6041:1.7957009276450657e-02
6042:1.4912334964935142e-01
6043:2.4528288040150550e-01
6044:-8.5803865453209505e-02
6045:2.1873675054663144e-02
6046:1.5679865599318810e-01
6047:2.5583476545716127e-01
6048:-1.8156658760771172e-01
6049:3.4112173220886458e-02
6050:1.9605585539969173e-01
6051:2.2825832868743715e-01
6052:-1.8775080558048612e-01
6053:3.4363190881387021e-02
6054:2.0114405694465823e-01
6055:2.3431850045570993e-01
6056:-1.9599309911454690e-01
6057:3.4644447647899521e-02
6058:2.0781413224991763e-01
6059:2.4225822564072672e-01
6060:-2.0244523672652678e-01
6061:3.4841883726037852e-02
6062:2.1298549315581880e-01
6063:2.4841191859217782e-01
6064:2.1547458689112509e-01
6065:1.8414523503027042e-01
6066:1.3888448737190157e-01
6067:1.0075702118863036e-01
6068:2.2116426729347805e-01
6069:1.8895784353604503e-01
6070:1.4249770141270643e-01
6071:1.0340385407787885e-01
6072:2.2860483036988194e-01
6073:1.9521427909649625e-01
6074:1.4712261741774380e-01
6075:1.0670685363157746e-01
6076:2.3436606815671829e-01
6077:2.0003549963153366e-01
6078:1.5062731416323796e-01
6079:1.0913057083884081e-01
6080:7.9797435661186578e-02
6081:4.9918868884507750e-02
6082:3.1502444513922770e-02
6083:3.2983359243017665e-02
6084:8.1921895681815876e-02
6085:5.1241901030053993e-02
6086:3.2177127019997136e-02
6087:3.3471824011764295e-02
6088:8.4508726420758601e-02
6089:5.2732144388353677e-02
6090:3.2779152331617337e-02
6091:3.3810415371125307e-02
6092:8.6343114100231669e-02
6093:5.3667973142469870e-02
6094:3.2993244114586713e-02
6095:3.3812848402098063e-02
6096:3.8545814941042027e-02
6097:4.5366459403790922e-02
6098:4.4735267365113109e-02
6099:3.7091775139114144e-02
6100:3.9032592541610407e-02
6101:4.5773605926846046e-02
6102:4.4818171172798439e-02
6103:3.6741668383045233e-02
6104:3.9359057790040008e-02
6105:4.5960475020884406e-02
6106:4.4525193401302961e-02
6107:3.5857769013812574e-02
6108:3.9351658600741059e-02
6109:4.5829984642923476e-02
6110:4.3992239006367881e-02
6111:3.4854303692319552e-02
6112:3.0848901037824110e-02
6113:2.0905746331932137e-02
6114:1.2700544383681725e-02
6115:1.0153997466273587e-02
6116:3.0206465982303251e-02
6117:1.9753956765692329e-02
6118:1.1026487956167936e-02
6119:8.2196933540018106e-03
6120:2.8942175964964255e-02
6121:1.7870487835395969e-02
6122:8.5684811163521130e-03
6123:5.5030253552584424e-03
6124:2.7647654891252274e-02
6125:1.6134212741336661e-02
6126:6.4686623072992173e-03
6127:3.2611017681538224e-03
6128:1.0030060008860362e-02
6129:9.9780635254764979e-03
6130:9.7324252725401426e-03
6131:9.3248056101889205e-03
6132:8.0129659990022580e-03
6133:7.8594737020779154e-03
6134:7.5560895849202453e-03
6135:7.1434062566456827e-03
6136:5.2194304887916709e-03
6137:4.9592419588135620e-03
6138:4.5689053566877703e-03
6139:4.1245216772577992e-03
6140:2.9388938580037403e-03
6141:2.6132468171134798e-03
6142:2.1502714396148311e-03
6143:1.6702104431166136e-03
6144:8.9930227802754083e-03
6145:7.9327389111222973e-03
6146:5.6873682785121889e-03
6147:3.3425322464141192e-03
6148:6.8162659523592333e-03
6149:5.7551582098254008e-03
6150:3.4910638797891786e-03
6151:1.1231520533995646e-03
6152:3.7897414200311944e-03
6153:2.7021492301144458e-03
6154:3.7462230399155889e-04
6155:-2.0632654650243817e-03
6156:1.3249644062151729e-03
6157:2.0665672304645671e-04
6158:-2.1925377902556847e-03
6159:-4.7131825693282545e-03
6160:1.8951691740872415e-03
6161:-9.6986718993939572e-04
6162:-4.9843828404373446e-03
6163:-8.2998826505164981e-03
6164:-3.3744024304263956e-04
6165:-3.2193018469924735e-03
6166:-7.2591879451040509e-03
6167:-1.0616508789571434e-02
6168:-3.5674839040833956e-03
6169:-6.5278677916169878e-03
6170:-1.0674715441064389e-02
6171:-1.4130867724678310e-02
6172:-6.2714483122774277e-03
6173:-9.3350061292347304e-03
6174:-1.3617080969588817e-02
6175:-1.7178122269859802e-02
6176:-1.0148858072537762e-02
6177:-1.3592173699179578e-02
6178:-1.7995716548917681e-02
6179:-2.1303444533800463e-02
6180:-1.2502475899288571e-02
6181:-1.6055696790627755e-02
6182:-2.0650723862986019e-02
6183:-2.4110763550800034e-02
6184:-1.6080401261375631e-02
6185:-1.9786193897795411e-02
6186:-2.4615866095094047e-02
6187:-2.8252991536722283e-02
6188:-1.9185048596289583e-02
6189:-2.3013106757512978e-02
6190:-2.8017686420022232e-02
6191:-3.1785938295167432e-02
6192:-2.3048240499158885e-02
6193:-2.6392442478566664e-02
6194:-3.0924182055035151e-02
6195:-3.4535756494013643e-02
6196:-2.5928392098435893e-02
6197:-2.9375332587108456e-02
6198:-3.3996660615973971e-02
6199:-3.7665988942613429e-02
6200:-3.0154248518348178e-02
6201:-3.3724215583849165e-02
6202:-3.8470159711786842e-02
6203:-4.2237842982141061e-02
6204:-3.3750980524890964e-02
6205:-3.7419498598364846e-02
6206:-4.2275929653883923e-02
6207:-4.6137799890530816e-02
6208:-3.6508553033503102e-02
6209:-4.0238625430320828e-02
6210:-4.5143580923281981e-02
6211:-4.8928825681180121e-02
6212:-3.9672722487709762e-02
6213:-4.3479029022409715e-02
6214:-4.8508912426920389e-02
6215:-5.2409880040643564e-02
6216:-4.4306943324163205e-02
6217:-4.8250013697578545e-02
6218:-5.3481996473944853e-02
6219:-5.7542822744438386e-02
6220:-4.8267274059290224e-02
6221:-5.2340007179673222e-02
6222:-5.7749838109200306e-02
6223:-6.1932973242283820e-02
6224:-5.0951277668532885e-02
6225:-5.4701452736585290e-02
6226:-5.9479340081280550e-02
6227:-6.3038341136589460e-02
6228:-5.4502701372325234e-02
6229:-5.8425003764642082e-02
6230:-6.3496797157348836e-02
6231:-6.7320806949623405e-02
6232:-5.9720585158571579e-02
6233:-6.3834486429649104e-02
6234:-6.9231224113698406e-02
6235:-7.3365960973853658e-02
6236:-6.4166500205272203e-02
6237:-6.8398085360115518e-02
6238:-7.4002209015142040e-02
6239:-7.8357023493325295e-02
6240:-6.4899026929550893e-02
6241:-6.8403093185961245e-02
6242:-7.2984367382684628e-02
6243:-7.6472503970671471e-02
6244:-6.9330361232037049e-02
6245:-7.3082276529948823e-02
6246:-7.7918312645434307e-02
6247:-8.1551072978658143e-02
6248:-7.5561301619212359e-02
6249:-7.9648565819303963e-02
6250:-8.4885974133936601e-02
6251:-8.8799241453686811e-02
6252:-8.0694783264333436e-02
6253:-8.5056302975188028e-02
6254:-9.0655030901365175e-02
6255:-9.4846869452833327e-02
6256:-7.8311222696670180e-02
6257:-8.1677620888731234e-02
6258:-8.5949674679473315e-02
6259:-8.9181712412260847e-02
6260:-8.3450913930736448e-02
6261:-8.6931220322686728e-02
6262:-9.1373732455715603e-02
6263:-9.4769647270950524e-02
6264:-9.0840451383670653e-02
6265:-9.4593773922629812e-02
6266:-9.9408774555926158e-02
6267:-1.0309924636167575e-01
6268:-9.7037783902074431e-02
6269:-1.0108709890143089e-01
6270:-1.0629752954892194e-01
6271:-1.1027643985212651e-01
6272:-9.0899723589895454e-02
6273:-9.4043488003795042e-02
6274:-9.7942592418027372e-02
6275:-1.0074878880599659e-01
6276:-9.6590590914129401e-02
6277:-9.9936230824011707e-02
6278:-1.0408998483658205e-01
6279:-1.0706491823792537e-01
6280:-1.0507841412469750e-01
6281:-1.0870394716895412e-01
6282:-1.1317607872497283e-01
6283:-1.1635010748173188e-01
6284:-1.1239706637499609e-01
6285:-1.1625171266096487e-01
6286:-1.2095589715554630e-01
6287:-1.2426239003584506e-01
6288:-1.0217176064414039e-01
6289:-1.0469072197688666e-01
6290:-1.0761232385205685e-01
6291:-1.0950926346186872e-01
6292:-1.0856299008393407e-01
6293:-1.1120030401899790e-01
6294:-1.1424003869862215e-01
6295:-1.1620543182971950e-01
6296:-1.1793582794962072e-01
6297:-1.2070742553499630e-01
6298:-1.2387998755121292e-01
6299:-1.2592938413732588e-01
6300:-1.2590438281411209e-01
6301:-1.2875973411501507e-01
6302:-1.3201726888832360e-01
6303:-1.3412994304550252e-01
6304:-1.1037340516820718e-01
6305:-1.1160308770307227e-01
6306:-1.1249665907011461e-01
6307:-1.1271157012549128e-01
6308:-1.1709912006426601e-01
6309:-1.1835834493588816e-01
6310:-1.1923906707929467e-01
6311:-1.1940693584971467e-01
6312:-1.2686469969226025e-01
6313:-1.2817359974962197e-01
6314:-1.2903882882242934e-01
6315:-1.2911510870843884e-01
6316:-1.3510218602770074e-01
6317:-1.3646289844524401e-01
6318:-1.3732405645077972e-01
6319:-1.3731224270276610e-01
6320:-1.1268540476896581e-01
6321:-1.1244499986676380e-01
6322:-1.1174225593631411e-01
6323:-1.1088128214501987e-01
6324:-1.1934364811571214e-01
6325:-1.1901831298726120e-01
6326:-1.1816847347316896e-01
6327:-1.1715962502779251e-01
6328:-1.2897036850098903e-01
6329:-1.2844804952244698e-01
6330:-1.2727021814760775e-01
6331:-1.2596623125513062e-01
6332:-1.3708259656770672e-01
6333:-1.3634892067294360e-01
6334:-1.3482357006541529e-01
6335:-1.3322188506051111e-01
6336:-1.1028073357154566e-01
6337:-1.0852492609000652e-01
6338:-1.0494294221458968e-01
6339:-1.0122337322457106e-01
6340:-1.1646392489298779e-01
6341:-1.1446236475153895e-01
6342:-1.1039754680129683e-01
6343:-1.0616172475908371e-01
6344:-1.2509876988988067e-01
6345:-1.2270795923984344e-01
6346:-1.1797803194462475e-01
6347:-1.1309560996902461e-01
6348:-1.3218991537797037e-01
6349:-1.2945098451082826e-01
6350:-1.2417932706102804e-01
6351:-1.1881148370940696e-01
6352:-9.8943285275212900e-02
6353:-9.4869419179706635e-02
6354:-9.0100689790781632e-02
6355:-8.6853270280637690e-02
6356:-1.0355140014048814e-01
6357:-9.8818786005623882e-02
6358:-9.3184320174889118e-02
6359:-8.9321590655765351e-02
6360:-1.1009074476987284e-01
6361:-1.0458970864486319e-01
6362:-9.7952895207163632e-02
6363:-9.3360845863408426e-02
6364:-1.1552451978650813e-01
6365:-1.0949383787095417e-01
6366:-1.0218131446372067e-01
6367:-9.7089495936165018e-02
6368:-8.5169333720300194e-02
6369:-8.0459043430152755e-02
6370:-7.1180719298778394e-02
6371:-6.1900788487454735e-02
6372:-8.7336639220776294e-02
6373:-8.2012763126222035e-02
6374:-7.1806137217981500e-02
6375:-6.1707944491878650e-02
6376:-9.1005452592728658e-02
6377:-8.4893889375957793e-02
6378:-7.3415960599553534e-02
6379:-6.2124376100904509e-02
6380:-9.4470937378319839e-02
6381:-8.7772058995664676e-02
6382:-7.5280624892037809e-02
6383:-6.2982096572906779e-02
6384:-5.6502050638615797e-02
6385:-4.9904008689721564e-02
6386:-4.8881722062583566e-02
6387:-5.3687853260136191e-02
6388:-5.5847349926386493e-02
6389:-4.8587081902205419e-02
6390:-4.7117072104253664e-02
6391:-5.1863860241470765e-02
6392:-5.5559903672053670e-02
6393:-4.7192232548969641e-02
6394:-4.4777105490993702e-02
6395:-4.9191346197857817e-02
6396:-5.5802114908608834e-02
6397:-4.6397903022458081e-02
6398:-4.2971151092960791e-02
6399:-4.6919986839808824e-02
6400:-5.7844774967011424e-02
6401:-6.3009269175135010e-02
6402:-6.3893668769226086e-02
6403:-6.0528004534591555e-02
6404:-5.6059413787455263e-02
6405:-6.1072973139438734e-02
6406:-6.1275945636845901e-02
6407:-5.7040810750841567e-02
6408:-5.3323956600430968e-02
6409:-5.7955841476173046e-02
6410:-5.7076082137835764e-02
6411:-5.1592459089843105e-02
6412:-5.0907324377223222e-02
6413:-5.5086743545150411e-02
6414:-5.3207185508162044e-02
6415:-4.6664590528429660e-02
6416:-5.6814003186986810e-02
6417:-3.5216492293452688e-02
6418:2.4255671826879377e-02
6419:9.4109827199700222e-02
6420:-5.2748326926230257e-02
6421:-2.9870926042625753e-02
6422:3.1627891442719012e-02
6423:1.0328887014256662e-01
6424:-4.6498306877330996e-02
6425:-2.1919780636585083e-02
6426:4.2194578779553064e-02
6427:1.1618353404833864e-01
6428:-4.0912810508692762e-02
6429:-1.4992426595261754e-02
6430:5.1124377651755197e-02
6431:1.2689122228177238e-01
6432:1.3698730363816042e-01
6433:1.7394935784004684e-01
6434:1.2575070403390612e-01
6435:1.4980598853620453e-02
6436:1.4714403431559897e-01
6437:1.8473568132508889e-01
6438:1.3475787423608798e-01
6439:2.0646791120122229e-02
6440:1.6131003474346442e-01
6441:1.9974204938929471e-01
6442:1.4746794076622596e-01
6443:2.8968365531968989e-02
6444:1.7299650904872840e-01
6445:2.1207585367461979e-01
6446:1.5799102196567685e-01
6447:3.6009469810758470e-02
6448:-6.5376391755915420e-02
6449:-1.7035167024244618e-01
6450:-2.0042713021118219e-01
6451:-1.4220925787458522e-01
6452:-6.2058463058762454e-02
6453:-1.7022070170172618e-01
6454:-2.0162365574976687e-01
6455:-1.4228452081696963e-01
6456:-5.6847538379631031e-02
6457:-1.6929947889334993e-01
6458:-2.0262622550634188e-01
6459:-1.4192928462300669e-01
6460:-5.2287248625667047e-02
6461:-1.6816569063753828e-01
6462:-2.0299416343186233e-01
6463:-1.4111574522778275e-01
6464:-8.5179924971761481e-02
6465:2.4014059293418485e-02
6466:1.6107731458028579e-01
6467:2.6190569160058014e-01
6468:-8.3959773479506145e-02
6469:2.8062183241017398e-02
6470:1.6942212964685963e-01
6471:2.7402299407304054e-01
6472:-8.1933958000790202e-02
6473:3.3880433070054373e-02
6474:1.8116167713022502e-01
6475:2.9096655223708157e-01
6476:-7.9704116801262395e-02
6477:3.9208681062948766e-02
6478:1.9103567091142806e-01
6479:3.0457314196319302e-01
6480:-2.0593261905681012e-01
6481:3.4944275904649373e-02
6482:2.1577222196657730e-01
6483:2.5172936575671051e-01
6484:-2.1258519503912662e-01
6485:3.5099673009205801e-02
6486:2.2104932031602570e-01
6487:2.5804683940712281e-01
6488:-2.2150336287831790e-01
6489:3.5188404656296635e-02
6490:2.2798707432870885e-01
6491:2.6644340325216148e-01
6492:-2.2854239664524567e-01
6493:3.5136241293749801e-02
6494:2.3330935677245984e-01
6495:2.7296918442903373e-01
6496:2.3747235228410388e-01
6497:2.0263004982545502e-01
6498:1.5249372988505755e-01
6499:1.1039149970133101e-01
6500:2.4340633476043289e-01
6501:2.0760946029725660e-01
6502:1.5608282715459348e-01
6503:1.1280510229766766e-01
6504:2.5133863497621756e-01
6505:2.1432967754122245e-01
6506:1.6097339392526014e-01
6507:1.1611119530424498e-01
6508:2.5754355514180705e-01
6509:2.1964700022268510e-01
6510:1.6490031888808182e-01
6511:1.1880567117853144e-01
6512:8.7271964654035430e-02
6513:5.4092608107876632e-02
6514:3.3017602932105553e-02
6515:3.3724115224471524e-02
6516:8.9036383357321155e-02
6517:5.4877542736879781e-02
6518:3.3042471135290089e-02
6519:3.3555433170077371e-02
6520:9.1458589781000452e-02
6521:5.5969795219182196e-02
6522:3.3114554026703685e-02
6523:3.3381914061295918e-02
6524:9.3458669161217048e-02
6525:5.6919743190906862e-02
6526:3.3246085588163957e-02
6527:3.3298962010703523e-02
6528:3.9260486353257941e-02
6529:4.5672586230015043e-02
6530:4.3611924321686500e-02
6531:3.4216812959196242e-02
6532:3.9104783031464752e-02
6533:4.5417421955100325e-02
6534:4.2942489288390784e-02
6535:3.3038777652028749e-02
6536:3.8960743690280381e-02
6537:4.5163141979227911e-02
6538:4.2141771710290717e-02
6539:3.1527593896813880e-02
6540:3.8887214099511173e-02
6541:4.4987948583391446e-02
6542:4.1526634693359724e-02
6543:3.0338704681978988e-02
6544:2.6853724535451720e-02
6545:1.5111560456303718e-02
6546:5.2707096726261763e-03
6547:2.0003296769864321e-03
6548:2.5356247656091617e-02
6549:1.3123515633026451e-02
6550:2.8628208000146408e-03
6551:-5.9210029810496262e-04
6552:2.3383123215878859e-02
6553:1.0395154434930455e-02
6554:-5.9151771209934451e-04
6555:-4.4173439701121848e-03
6556:2.1815418295003077e-02
6557:8.1795676487004636e-03
6558:-3.4757586952729319e-03
6559:-7.6675272809161492e-03
6560:1.6614589939344794e-03
6561:1.3028919365291507e-03
6562:7.9838953608057678e-04
6563:2.9753540493148925e-04
6564:-9.9319233979013066e-04
6565:-1.4585900847011945e-03
6566:-2.0744240832258273e-03
6567:-2.6210198100951893e-03
6568:-4.9584980683981504e-03
6569:-5.6516628320072444e-03
6570:-6.4885612051713542e-03
6571:-7.1256414351642903e-03
6572:-8.3521033555502902e-03
6573:-9.2782169658205370e-03
6574:-1.0346759520690986e-02
6575:-1.1092460853685307e-02
6576:-5.2973252919446843e-05
6577:-1.1879623244474466e-03
6578:-3.6300351773144498e-03
6579:-6.2031964384816011e-03
6580:-2.9788185167205668e-03
6581:-4.1359095606298231e-03
6582:-6.6434369312197705e-03
6583:-9.3051809922370405e-03
6584:-7.5006054649107839e-03
6585:-8.6870803942463073e-03
6586:-1.1262209384433881e-02
6587:-1.4019423678012332e-02
6588:-1.1498615762710889e-02
6589:-1.2727133821735128e-02
6590:-1.5355788645396214e-02
6591:-1.8175199618175909e-02
6592:-7.7967834762244555e-03
6593:-1.0928558641903827e-02
6594:-1.5297768147068454e-02
6595:-1.8921252537412343e-02
6596:-1.0961211709022346e-02
6597:-1.4212284170360525e-02
6598:-1.8723849156958020e-02
6599:-2.2435346924955957e-02
6600:-1.5746143865234860e-02
6601:-1.9130328960714996e-02
6602:-2.3781774365378285e-02
6603:-2.7549825891536824e-02
6604:-1.9947909147373190e-02
6605:-2.3418224696935386e-02
6606:-2.8147116677548163e-02
6607:-3.1920712812352821e-02
6608:-2.0959612813069333e-02
6609:-2.4851784124579269e-02
6610:-2.9947376987247136e-02
6611:-3.3786690999417814e-02
6612:-2.4511152271132743e-02
6613:-2.8478252237950398e-02
6614:-3.3694930316613289e-02
6615:-3.7653502862129443e-02
6616:-2.9632004842452646e-02
6617:-3.3599541592608806e-02
6618:-3.8850858089422353e-02
6619:-4.2908165366012448e-02
6620:-3.3979386992144138e-02
6621:-3.7873213414260573e-02
6622:-4.3041284187760029e-02
6623:-4.7106745879145664e-02
6624:-3.5788286827652886e-02
6625:-3.9515872867196003e-02
6626:-4.4441563367910650e-02
6627:-4.8362005215745331e-02
6628:-3.9729509155533624e-02
6629:-4.3599825309548673e-02
6630:-4.8715438070201719e-02
6631:-5.2785752140320559e-02
6632:-4.5075187433036970e-02
6633:-4.9171891443834000e-02
6634:-5.4642946877545319e-02
6635:-5.8990548713179269e-02
6636:-4.9322509962799348e-02
6637:-5.3599062149485260e-02
6638:-5.9408116782323897e-02
6639:-6.4029390616519882e-02
6640:-5.0527984924788612e-02
6641:-5.4677119980174230e-02
6642:-6.0186688801042200e-02
6643:-6.4432590125864497e-02
6644:-5.5033422272315065e-02
6645:-5.9334359722760827e-02
6646:-6.5024717977463758e-02
6647:-6.9383411294552264e-02
6648:-6.1375080349513750e-02
6649:-6.5901138201362092e-02
6650:-7.1836612529705246e-02
6651:-7.6359251645205212e-02
6652:-6.6545151600701749e-02
6653:-7.1275300688953949e-02
6654:-7.7429018133577998e-02
6655:-8.2115078580562245e-02
6656:-6.6691691885243529e-02
6657:-7.0976156137055726e-02
6658:-7.6679895299041290e-02
6659:-8.1150005171755926e-02
6660:-7.1691910306057177e-02
6661:-7.6089467199702540e-02
6662:-8.2011202018429694e-02
6663:-8.6722717460819027e-02
6664:-7.8752833609844836e-02
6665:-8.3349096261855674e-02
6666:-8.9621151251870798e-02
6667:-9.4676731004558076e-02
6668:-8.4604615852081400e-02
6669:-8.9408548390965653e-02
6670:-9.5994378150949466e-02
6671:-1.0131177675163490e-01
6672:-8.3566115912888234e-02
6673:-8.8082200277578501e-02
6674:-9.3890698044541046e-02
6675:-9.8248565028982410e-02
6676:-8.9296801609480253e-02
6677:-9.4113171756723846e-02
6678:-1.0030912023825468e-01
6679:-1.0496020453348827e-01
6680:-9.7459462724150694e-02
6681:-1.0265922734104442e-01
6682:-1.0933049556102668e-01
6683:-1.1432942060470798e-01
6684:-1.0423750887334979e-01
6685:-1.0969918576188913e-01
6686:-1.1670208843434313e-01
6687:-1.2195189630487568e-01
6688:-1.0053015624594207e-01
6689:-1.0476107194645615e-01
6690:-1.1021413255446236e-01
6691:-1.1436606863098429e-01
6692:-1.0739788813897291e-01
6693:-1.1193910522787945e-01
6694:-1.1780886884136382e-01
6695:-1.2226475481522905e-01
6696:-1.1694834131956117e-01
6697:-1.2183627129366266e-01
6698:-1.2816098349189620e-01
6699:-1.3295502269645815e-01
6700:-1.2470390878111856e-01
6701:-1.2982887016498953e-01
6702:-1.3644094393301637e-01
6703:-1.4144376214546084e-01
6704:-1.1656882529860629e-01
6705:-1.2055094474169174e-01
6706:-1.2537571643050732e-01
6707:-1.2874655616303673e-01
6708:-1.2461616430815074e-01
6709:-1.2883953092216402e-01
6710:-1.3391201319427046e-01
6711:-1.3742931094039923e-01
6712:-1.3547920787994405e-01
6713:-1.4001077655995123e-01
6714:-1.4545185546627554e-01
6715:-1.4922386547915104e-01
6716:-1.4407787318767643e-01
6717:-1.4883230160790883e-01
6718:-1.5458851417626482e-01
6719:-1.5860951272233043e-01
6720:-1.3041499451990235e-01
6721:-1.3330929514316980e-01
6722:-1.3660849324482963e-01
6723:-1.3875671635656697e-01
6724:-1.3916278661464263e-01
6725:-1.4215989108823818e-01
6726:-1.4557563849295571e-01
6727:-1.4781807746705519e-01
6728:-1.5108208161045289e-01
6729:-1.5428718647611694e-01
6730:-1.5794315211692300e-01
6731:-1.6036567362680734e-01
6732:-1.6059860046148308e-01
6733:-1.6402643596765862e-01
6734:-1.6793743375680648e-01
6735:-1.7054023374051114e-01
6736:-1.3975164278076088e-01
6737:-1.4114685949431571e-01
6738:-1.4201168529765570e-01
6739:-1.4195024076431798e-01
6740:-1.4886899586267313e-01
6741:-1.5035179739244811e-01
6742:-1.5125770104983471e-01
6743:-1.5114117143252298e-01
6744:-1.6151551934671826e-01
6745:-1.6316184420393834e-01
6746:-1.6421044187894362e-01
6747:-1.6412956290017350e-01
6748:-1.7178388488122220e-01
6749:-1.7359577668179021e-01
6750:-1.7483858278085357e-01
6751:-1.7489032135687851e-01
6752:-1.4167008611941606e-01
6753:-1.4080885375804392e-01
6754:-1.3907406042396284e-01
6755:-1.3729571752016589e-01
6756:-1.5079325570382301e-01
6757:-1.4975495961656674e-01
6758:-1.4771526372967084e-01
6759:-1.4566372342877376e-01
6760:-1.6376956489349900e-01
6761:-1.6266002960251880e-01
6762:-1.6042366891116558e-01
6763:-1.5813121698156796e-01
6764:-1.7459452457502611e-01
6765:-1.7357097865483001e-01
6766:-1.7133907078411861e-01
6767:-1.6893395474700318e-01
6768:-1.3616781960770227e-01
6769:-1.3322962151826742e-01
6770:-1.2765791056154835e-01
6771:-1.2203101441876719e-01
6772:-1.4437912118110632e-01
6773:-1.4109152522787000e-01
6774:-1.3495682749036522e-01
6775:-1.2882511668671395e-01
6776:-1.5668071669719869e-01
6777:-1.5297196301855126e-01
6778:-1.4608853720547452e-01
6779:-1.3925286794246342e-01
6780:-1.6737167622015417e-01
6781:-1.6334437074038258e-01
6782:-1.5585831529166530e-01
6783:-1.4844329438875442e-01
6784:-1.1859751554450589e-01
6785:-1.1229921974303636e-01
6786:-1.0465234439483354e-01
6787:-9.9311495524978588e-02
6788:-1.2510194358228610e-01
6789:-1.1826955977315273e-01
6790:-1.0994509288791317e-01
6791:-1.0409121291531984e-01
6792:-1.3511896917774321e-01
6793:-1.2751895554116038e-01
6794:-1.1820223468747040e-01
6795:-1.1158530806016916e-01
6796:-1.4396969130286699e-01
6797:-1.3573047155566270e-01
6798:-1.2558010439858511e-01
6799:-1.1831813344784863e-01
6800:-9.6558851260184209e-02
6801:-8.9551075120631748e-02
6802:-7.6505190301012591e-02
6803:-6.3639249990589064e-02
6804:-1.0105976094342171e-01
6805:-9.3416701826097195e-02
6806:-7.9256745045411969e-02
6807:-6.5276168964882891e-02
6808:-1.0813607811919454e-01
6809:-9.9547069653161610e-02
6810:-8.3767066174080348e-02
6811:-6.8211867867137704e-02
6812:-1.1451437954486075e-01
6813:-1.0511571825443271e-01
6814:-8.7955010668423178e-02
6815:-7.1078115006233511e-02
6816:-5.6106350083389038e-02
6817:-4.6087861219600505e-02
6818:-4.2025940525406778e-02
6819:-4.5654672226034074e-02
6820:-5.7058978763145571e-02
6821:-4.5855992774197205e-02
6822:-4.0575189230672472e-02
6823:-4.3589794366947064e-02
6824:-5.9046542266299580e-02
6825:-4.6227594715614849e-02
6826:-3.9318124094174331e-02
6827:-4.1529611187595822e-02
6828:-6.1127512965506149e-02
6829:-4.6991790123700534e-02
6830:-3.8788082559067842e-02
6831:-4.0381413128591594e-02
6832:-4.9530478452783321e-02
6833:-5.3411411862678823e-02
6834:-5.0935010521574529e-02
6835:-4.3785970619191941e-02
6836:-4.7249955816145883e-02
6837:-5.0545652116885699e-02
6838:-4.6870578321651715e-02
6839:-3.8471844200876591e-02
6840:-4.4911361974834363e-02
6841:-4.7414687306492238e-02
6842:-4.2026113600635483e-02
6843:-3.1761797958196468e-02
6844:-4.3554938859899167e-02
6845:-4.5431401565497909e-02
6846:-3.8610456340802062e-02
6847:-2.6726784098312938e-02
6848:-3.7663946325468822e-02
6849:-1.1004203272678639e-02
6850:5.6194524905543629e-02
6851:1.3291673773807886e-01
6852:-3.1573711253870020e-02
6853:-3.3589988738620055e-03
6854:6.6075184552758695e-02
6855:1.4470261167662554e-01
6856:-2.3675624749949917e-02
6857:6.9303566851296634e-03
6858:7.9722086716882870e-02
6859:1.6107007023085523e-01
6860:-1.7588913112604961e-02
6861:1.5136359455053643e-02
6862:9.0841823125529825e-02
6863:1.7444993696505859e-01
6864:1.7954869493726669e-01
6865:2.1897014291936728e-01
6866:1.6387856167756937e-01
6867:3.9970307006072896e-02
6868:1.9235506099395008e-01
6869:2.3240141216414004e-01
6870:1.7528629129076753e-01
6871:4.7614823564382951e-02
6872:2.1011726212922147e-01
6873:2.5095365796516184e-01
6874:1.9097904650777933e-01
6875:5.8179797278022208e-02
6876:2.2461064498733763e-01
6877:2.6604272874293283e-01
6878:2.0375820251216234e-01
6879:6.6928686379924690e-02
6880:-4.9699528087718020e-02
6881:-1.6745899878435799e-01
6882:-2.0305376720035417e-01
6883:-1.4042751167921338e-01
6884:-4.4706736774590868e-02
6885:-1.6600500789316208e-01
6886:-2.0282891507176284e-01
6887:-1.3852873148568623e-01
6888:-3.7697364034306027e-02
6889:-1.6358423646542472e-01
6890:-2.0167355905920081e-01
6891:-1.3483057614487001e-01
6892:-3.1705075682545179e-02
6893:-1.6106316813491534e-01
6894:-1.9995386403860518e-01
6895:-1.3104991871092692e-01
6896:-7.8169420208941062e-02
6897:4.2488817514206370e-02
6898:1.9666084443683718e-01
6899:3.1195545821268661e-01
6900:-7.4530845045626806e-02
6901:4.9451573797344918e-02
6902:2.0768658443084231e-01
6903:3.2581530028182454e-01
6904:-6.8393669940007021e-02
6905:5.9899182230286910e-02
6906:2.2291318113232483e-01
6907:3.4419670783731615e-01
6908:-6.2724676694126749e-02
6909:6.8765267152280832e-02
6910:2.3520201422885120e-01
6911:3.5881893322965613e-01
6912:-2.3237102006475457e-01
6913:3.5059396948022611e-02
6914:2.3613869389834344e-01
6915:2.7646994799555502e-01
6916:-2.3970440621143213e-01
6917:3.4879057599928751e-02
6918:2.4147613888657871e-01
6919:2.8307764871743690e-01
6920:-2.4965210667116466e-01
6921:3.4599986012403050e-02
6922:2.4857519952394444e-01
6923:2.9182800989530833e-01
6924:-2.5765026445713368e-01
6925:3.4365912373629223e-02
6926:2.5418583317994109e-01
6927:2.9868413446111253e-01
6928:2.6088669855223895e-01
6929:2.2253496274503917e-01
6930:1.6705755749022400e-01
6931:1.2030532470864527e-01
6932:2.6719812284949057e-01
6933:2.2799235721764718e-01
6934:1.7114149973201098e-01
6935:1.2314611674630097e-01
6936:2.7552809020421209e-01
6937:2.3515863111209012e-01
6938:1.7647780189027987e-01
6939:1.2683890767860892e-01
6940:2.8201032729694492e-01
6941:2.4067132080757297e-01
6942:1.8053222304828939e-01
6943:1.2961618297067790e-01
6944:9.4585245600293189e-02
6945:5.7477454241120184e-02
6946:3.3348439027213898e-02
6947:3.3266433475705973e-02
6948:9.6716566221498934e-02
6949:5.8511067832555025e-02
6950:3.3462288553175200e-02
6951:3.3056863723110598e-02
6952:9.9470412888183465e-02
6953:5.9789470758580973e-02
6954:3.3444846391907507e-02
6955:3.2512951943771996e-02
6956:1.0152390263821508e-01
6957:6.0697023541739739e-02
6958:3.3321336183162652e-02
6959:3.1942303119872138e-02
6960:3.8847105426220975e-02
6961:4.4875823126174184e-02
6962:4.1165590998554234e-02
6963:2.9663377365475072e-02
6964:3.8579578548407621e-02
6965:4.4399484205585947e-02
6966:4.0153005589015252e-02
6967:2.8034689703330236e-02
6968:3.7893813726459120e-02
6969:4.3313011273424150e-02
6970:3.8210470724247374e-02
6971:2.5191406498537558e-02
6972:3.7185127886722943e-02
6973:4.2220764128610123e-02
6974:3.6330113003713749e-02
6975:2.2505974118947999e-02
6976:2.0933009267836700e-02
6977:6.9357007586241986e-03
6978:-5.1035690704377811e-03
6979:-9.5098615771857554e-03
6980:1.8912564229983754e-02
6981:4.2452718457574460e-03
6982:-8.4819404470245444e-03
6983:-1.3253646138715892e-02
6984:1.5520033717214575e-02
6985:-4.8837667389947858e-05
6986:-1.3632599210892288e-02
6987:-1.8802909512889120e-02
6988:1.2353404369800623e-02
6989:-3.9755446345610531e-03
6990:-1.8221328957927815e-02
6991:-2.3645873277387340e-02
6992:-1.0278984741694829e-02
6993:-1.1344111671477043e-02
6994:-1.2556891717806858e-02
6995:-1.3378414074884555e-02
6996:-1.4159415467569285e-02
6997:-1.5455790650653984e-02
6998:-1.6930840152282342e-02
6999:-1.7915395092326886e-02
7000:-1.9834430451601510e-02
7001:-2.1354107205346196e-02
7002:-2.3125259907302187e-02
7003:-2.4338623847669136e-02
7004:-2.4731552657460038e-02
7005:-2.6353904090321373e-02
7006:-2.8298109264427461e-02
7007:-2.9679084974738919e-02
7008:-1.3811342865899218e-02
7009:-1.5075909165129107e-02
7010:-1.7740566347258357e-02
7011:-2.0592520714677029e-02
7012:-1.8419677497010810e-02
7013:-1.9795898333948542e-02
7014:-2.2584307743415383e-02
7015:-2.5533145431278419e-02
7016:-2.4964323396224161e-02
7017:-2.6557744921904301e-02
7018:-2.9617636271797667e-02
7019:-3.2775706839282916e-02
7020:-3.0407278205600442e-02
7021:-3.2205196731174085e-02
7022:-3.5549699900950617e-02
7023:-3.8936473374839277e-02
7024:-2.2387823577894275e-02
7025:-2.5900526809914764e-02
7026:-3.0664633190377120e-02
7027:-3.4433332266620299e-02
7028:-2.7385680104346142e-02
7029:-3.1002321806576638e-02
7030:-3.5869432019095496e-02
7031:-3.9671186613014026e-02
7032:-3.4741722444216430e-02
7033:-3.8549297040003719e-02
7034:-4.3611614435929549e-02
7035:-4.7516975750214858e-02
7036:-4.1024792574883659e-02
7037:-4.5022173782252213e-02
7038:-5.0260553331592232e-02
7039:-5.4259699786263833e-02
7040:-3.6473214157058162e-02
7041:-4.0307441204585133e-02
7042:-4.5394708752938072e-02
7043:-4.9436276633306721e-02
7044:-4.1705865309686521e-02
7045:-4.5488503721507395e-02
7046:-5.0481161721924142e-02
7047:-5.4479955607066102e-02
7048:-4.9589637032185337e-02
7049:-5.3420705202902402e-02
7050:-5.8443299397473586e-02
7051:-6.2448432390667372e-02
7052:-5.6374395192185719e-02
7053:-6.0309820386898680e-02
7054:-6.5487070709521603e-02
7055:-6.9587866252577624e-02
7056:-5.1665637879628912e-02
7057:-5.6030034427547934e-02
7058:-6.2030748780405813e-02
7059:-6.6814392500722297e-02
7060:-5.6714500707025717e-02
7061:-6.1181034208441135e-02
7062:-6.7445772483372746e-02
7063:-7.2478584348825884e-02
7064:-6.4685656909397204e-02
7065:-6.9201900009233111e-02
7066:-7.5623318580241530e-02
7067:-8.0841936672374534e-02
7068:-7.1856595734869577e-02
7069:-7.6392462886471002e-02
7070:-8.2811996264090998e-02
7071:-8.8054375182389566e-02
7072:-6.9408762262979207e-02
7073:-7.4261087753124747e-02
7074:-8.0549712364088574e-02
7075:-8.5344448649661800e-02
7076:-7.5205700207280388e-02
7077:-8.0290582645537290e-02
7078:-8.6879926241204677e-02
7079:-9.1932193261891448e-02
7080:-8.3690258062011538e-02
7081:-8.9048549725322973e-02
7082:-9.6086674912632258e-02
7083:-1.0155421560190755e-01
7084:-9.0940169133631690e-02
7085:-9.6455266040938931e-02
7086:-1.0384425726616354e-01
7087:-1.0966486280235470e-01
7088:-8.7900440462092486e-02
7089:-9.2838416401664986e-02
7090:-9.9603588859551326e-02
7091:-1.0505104442324939e-01
7092:-9.4641297245536021e-02
7093:-9.9856596288070892e-02
7094:-1.0694173688115174e-01
7095:-1.1259026711173693e-01
7096:-1.0450484068089014e-01
7097:-1.1011809343380438e-01
7098:-1.1759886765959303e-01
7099:-1.2345976504333134e-01
7100:-1.1282007571203131e-01
7101:-1.1875654602312381e-01
7102:-1.2654134477413248e-01
7103:-1.3256305297452206e-01
7104:-1.0804088265402237e-01
7105:-1.1362319969650077e-01
7106:-1.2078999645130990e-01
7107:-1.2617347613866758e-01
7108:-1.1567098682349594e-01
7109:-1.2144519507686453e-01
7110:-1.2892030497553961e-01
7111:-1.3458906881976487e-01
7112:-1.2662802444985130e-01
7113:-1.3261653773121460e-01
7114:-1.4049271461979987e-01
7115:-1.4656500961107427e-01
7116:-1.3580034198217938e-01
7117:-1.4195407054793521e-01
7118:-1.5012894287841869e-01
7119:-1.5649399161659766e-01
7120:-1.2899930626828085e-01
7121:-1.3424850030960245e-01
7122:-1.4099820342430647e-01
7123:-1.4609498405206986e-01
7124:-1.3758230340383296e-01
7125:-1.4311688065590575e-01
7126:-1.5017662294545944e-01
7127:-1.5546911419872672e-01
7128:-1.4980448992942200e-01
7129:-1.5579055655750199e-01
7130:-1.6339273748204750e-01
7131:-1.6905442041438634e-01
7132:-1.5991219152987909e-01
7133:-1.6627258235190459e-01
7134:-1.7441507637276657e-01
7135:-1.8050825545812269e-01
7136:-1.4877839716525618e-01
7137:-1.5364414156250464e-01
7138:-1.5957730195457348e-01
7139:-1.6374969372147954e-01
7140:-1.5824628826284992e-01
7141:-1.6331419196312985e-01
7142:-1.6956579431101973e-01
7143:-1.7401851238514487e-01
7144:-1.7200956608395052e-01
7145:-1.7739459307935518e-01
7146:-1.8404819941553793e-01
7147:-1.8881609930489457e-01
7148:-1.8368881078589608e-01
7149:-1.8941891141723446e-01
7150:-1.9638863886901570e-01
7151:-2.0132633967822677e-01
7152:-1.6582156661096900e-01
7153:-1.6939142128827644e-01
7154:-1.7346384745852228e-01
7155:-1.7617724949815933e-01
7156:-1.7624909916606479e-01
7157:-1.8010137365713869e-01
7158:-1.8451043734249264e-01
7159:-1.8746210300829552e-01
7160:-1.9122204959208380e-01
7161:-1.9542123360702177e-01
7162:-2.0031339698396258e-01
7163:-2.0365431749809337e-01
7164:-2.0381049762808423e-01
7165:-2.0821486175939691e-01
7166:-2.1349280096135609e-01
7167:-2.1720853264760967e-01
7168:-1.7747684443083142e-01
7169:-1.7939210471065112e-01
7170:-1.8077227125470632e-01
7171:-1.8093596929162137e-01
7172:-1.8888353800057361e-01
7173:-1.9102726636072828e-01
7174:-1.9270698754016219e-01
7175:-1.9310144066672413e-01
7176:-2.0528763177837636e-01
7177:-2.0781453078825721e-01
7178:-2.0993913957762403e-01
7179:-2.1061137023703136e-01
7180:-2.1906234899964322e-01
7181:-2.2196350366871945e-01
7182:-2.2444904926695977e-01
7183:-2.2526804703005451e-01
7184:-1.8070237226989735e-01
7185:-1.7977359338844420e-01
7186:-1.7759018535416798e-01
7187:-1.7513974002686125e-01
7188:-1.9298773920327605e-01
7189:-1.9221034298075412e-01
7190:-1.9003877219598250e-01
7191:-1.8742930330612304e-01
7192:-2.1061256917809390e-01
7193:-2.0990815250943207e-01
7194:-2.0755168080790737e-01
7195:-2.0460031197842843e-01
7196:-2.2529059226141648e-01
7197:-2.2450183437503987e-01
7198:-2.2183989609222224e-01
7199:-2.1855265382259251e-01
7200:-1.7351698381688246e-01
7201:-1.6931289669292277e-01
7202:-1.6149104255980978e-01
7203:-1.5375405165812012e-01
7204:-1.8565642065730584e-01
7205:-1.8108085769403692e-01
7206:-1.7262688278732150e-01
7207:-1.6431196728973244e-01
7208:-2.0258212841459913e-01
7209:-1.9749393393873788e-01
7210:-1.8828366213319628e-01
7211:-1.7932411375393756e-01
7212:-2.1633600879221665e-01
7213:-2.1088498064369815e-01
7214:-2.0121015363097897e-01
7215:-1.9188490698972330e-01
7216:-1.4909228857947870e-01
7217:-1.4049877276340569e-01
7218:-1.2988552781689372e-01
7219:-1.2226480152462679e-01
7220:-1.5931745605462055e-01
7221:-1.5009833110511300e-01
7222:-1.3865851471021590e-01
7223:-1.3038081142061547e-01
7224:-1.7396517498160677e-01
7225:-1.6404208004043822e-01
7226:-1.5160619331774594e-01
7227:-1.4246594592829484e-01
7228:-1.8632170202948034e-01
7229:-1.7596597122680460e-01
7230:-1.6281513535359465e-01
7231:-1.5296635238212986e-01
7232:-1.1826328285401749e-01
7233:-1.0840633460609531e-01
7234:-9.0458286471519836e-02
7235:-7.2829843119171192e-02
7236:-1.2600780471843268e-01
7237:-1.1526170360460369e-01
7238:-9.5753422316300990e-02
7239:-7.6629340912839322e-02
7240:-1.3757608373774063e-01
7241:-1.2556955384867058e-01
7242:-1.0384656911358300e-01
7243:-8.2621869540223089e-02
7244:-1.4762314704260085e-01
7245:-1.3452904054289816e-01
7246:-1.1095248068673018e-01
7247:-8.8019044203277691e-02
7248:-6.2435126005029463e-02
7249:-4.7562222682841548e-02
7250:-3.8645503742950220e-02
7251:-3.9904982879301394e-02
7252:-6.5352839942767652e-02
7253:-4.9019924100796169e-02
7254:-3.8678951667661096e-02
7255:-3.9239892847875206e-02
7256:-7.0118875474909234e-02
7257:-5.1748776234771643e-02
7258:-3.9360856786320494e-02
7259:-3.8819294554827327e-02
7260:-7.4535031314842806e-02
7261:-5.4520308208401619e-02
7262:-4.0408152000596699e-02
7263:-3.8840497645401990e-02
7264:-4.2967870486033233e-02
7265:-4.4498959735995200e-02
7266:-3.6866127522893026e-02
7267:-2.4049659978604736e-02
7268:-4.2048559756612362e-02
7269:-4.2811961799753495e-02
7270:-3.3471611163564834e-02
7271:-1.8777980509098902e-02
7272:-4.1167288159009462e-02
7273:-4.0637725793670837e-02
7274:-2.8679203982680791e-02
7275:-1.1309403578246164e-02
7276:-4.0710393237747840e-02
7277:-3.8932211576257779e-02
7278:-2.4658006799611290e-02
7279:-5.0823572513341003e-03
7280:-1.4301590669132157e-02
7281:1.9649477360563106e-02
7282:9.7017745835204339e-02
7283:1.8188629852877611e-01
7284:-7.8344523623338422e-03
7285:2.8459509024314676e-02
7286:1.0896251298373637e-01
7287:1.9623547418943457e-01
7288:1.2649497451911664e-03
7289:4.0661021322790876e-02
7290:1.2528850546876263e-01
7291:2.1584188720813274e-01
7292:8.7787757429591516e-03
7293:5.0578141807171038e-02
7294:1.3843659746447817e-01
7295:2.3168952494835357e-01
7296:2.3265555483947051e-01
7297:2.7441061192594457e-01
7298:2.1087898413678402e-01
7299:7.1890254803719009e-02
7300:2.4819514585242028e-01
7301:2.9069033790499149e-01
7302:2.2498839626403228e-01
7303:8.1993688922846017e-02
7304:2.6950880229935914e-01
7305:3.1331718090209093e-01
7306:2.4513504735996128e-01
7307:9.6923013840524458e-02
7308:2.8683470696896168e-01
7309:3.3197203694295524e-01
7310:2.6213859897041147e-01
7311:1.0984855472443580e-01
7312:-2.8212405993622906e-02
7313:-1.5940543824018916e-01
7314:-1.9870387983379337e-01
7315:-1.2871407669387822e-01
7316:-2.0893996050846259e-02
7317:-1.5566158691586504e-01
7318:-1.9593416041656514e-01
7319:-1.2399529258755583e-01
7320:-9.7321017795816006e-03
7321:-1.4952451284625162e-01
7322:-1.9147417236468781e-01
7323:-1.1702537319431688e-01
7324:1.3745204710439006e-04
7325:-1.4384864058283825e-01
7326:-1.8734723584988242e-01
7327:-1.1086115801596517e-01
7328:-5.9405794735161471e-02
7329:7.3737789490354186e-02
7330:2.4197705876631967e-01
7331:3.6690211869411515e-01
7332:-5.2831878368987818e-02
7333:8.3563921130572177e-02
7334:2.5544190501362779e-01
7335:3.8288356354645608e-01
7336:-4.3296922641106621e-02
7337:9.7793726329175129e-02
7338:2.7488977436238132e-01
7339:4.0547201461580085e-01
7340:-3.4953774466116139e-02
7341:1.1018064435787711e-01
7342:2.9155507619992932e-01
7343:4.2421047120718786e-01
7344:-2.6207242371456474e-01
7345:3.4231213453055347e-02
7346:2.5725148168758716e-01
7347:3.0240596868766656e-01
7348:-2.7072557431402533e-01
7349:3.3840805281685649e-02
7350:2.6307857701733595e-01
7351:3.0952122373485563e-01
7352:-2.8267272228230078e-01
7353:3.3034869953556679e-02
7354:2.7077287184821514e-01
7355:3.1901587694709416e-01
7356:-2.9228902228237141e-01
7357:3.2188521518445347e-02
7358:2.7670482943545488e-01
7359:3.2641270075609835e-01
7360:2.8550872610902911e-01
7361:2.4361555577016503e-01
7362:1.8267217580951020e-01
7363:1.3106882006054574e-01
7364:2.9218725598484474e-01
7365:2.4921217347453464e-01
7366:1.8671699374007172e-01
7367:1.3381171208728149e-01
7368:3.0108782162661796e-01
7369:2.5663714424017614e-01
7370:1.9205930883291703e-01
7371:1.3745542480351661e-01
7372:3.0801358794152134e-01
7373:2.6239315296965959e-01
7374:1.9619599141034144e-01
7375:1.4031274461186702e-01
7376:1.0259109036463701e-01
7377:6.1153685248576076e-02
7378:3.3226396030387288e-02
7379:3.1605427352754019e-02
7380:1.0461374642645285e-01
7381:6.2038757245439231e-02
7382:3.3087706690854889e-02
7383:3.1021960863388400e-02
7384:1.0733803909724841e-01
7385:6.3307073896488569e-02
7386:3.3026887893997103e-02
7387:3.0362611780953227e-02
7388:1.0951946234913605e-01
7389:6.4405186882157989e-02
7390:3.3095054295398989e-02
7391:2.9922147336526865e-02
7392:3.6771351054577087e-02
7393:4.1583394993322226e-02
7394:3.5223873841756861e-02
7395:2.0918388471857091e-02
7396:3.6047639597784148e-02
7397:4.0427221476241511e-02
7398:3.3123506259533697e-02
7399:1.7825789499611101e-02
7400:3.5187378481806551e-02
7401:3.8952683088605056e-02
7402:3.0310645460551861e-02
7403:1.3596954118451897e-02
7404:3.4553586561037894e-02
7405:3.7782743865464284e-02
7406:2.8046301586343438e-02
7407:1.0201076250971953e-02
7408:1.0478565380652805e-02
7409:-6.2954664632648870e-03
7410:-2.0909626355558191e-02
7411:-2.6456272638730568e-02
7412:6.7867728996753090e-03
7413:-1.0918393570752583e-02
7414:-2.6302549444405347e-02
7415:-3.2098744970251655e-02
7416:1.6969065911354774e-03
7417:-1.7362275909157510e-02
7418:-3.3894773487767781e-02
7419:-4.0087234984048876e-02
7420:-2.3838448156246897e-03
7421:-2.2539036187284846e-02
7422:-4.0043539819102143e-02
7423:-4.6614277772202763e-02
7424:-2.7556365189313422e-02
7425:-2.9208421794193015e-02
7426:-3.1221849719619839e-02
7427:-3.2684138695438306e-02
7428:-3.3222709030014369e-02
7429:-3.4922831351839587e-02
7430:-3.7061961556847330e-02
7431:-3.8681778976686065e-02
7432:-4.1264523601030147e-02
7433:-4.3068545590683613e-02
7434:-4.5438505311748797e-02
7435:-4.7332249460879924e-02
7436:-4.7871524056769976e-02
7437:-4.9831884047470333e-02
7438:-5.2492519404852805e-02
7439:-5.4699367620909906e-02
7440:-3.3466830338078908e-02
7441:-3.5382162201357176e-02
7442:-3.8902376698783103e-02
7443:-4.2435621626835916e-02
7444:-3.9573210591978901e-02
7445:-4.1724878118515704e-02
7446:-4.5596041046001345e-02
7447:-4.9414634260757616e-02
7448:-4.8408094404182173e-02
7449:-5.0920239641652390e-02
7450:-5.5242305976858121e-02
7451:-5.9358763465916425e-02
7452:-5.5975536683419307e-02
7453:-5.8822770255727380e-02
7454:-6.3443477763495973e-02
7455:-6.7648566769177673e-02
7456:-4.4602580395237651e-02
7457:-4.8715220466915302e-02
7458:-5.4047793824348427e-02
7459:-5.8089150784856325e-02
7460:-5.1730257112070820e-02
7461:-5.6041003916691527e-02
7462:-6.1489471942345046e-02
7463:-6.5539381748408107e-02
7464:-6.1803255525891949e-02
7465:-6.6246854954078810e-02
7466:-7.1693331541294800e-02
7467:-7.5652613253662473e-02
7468:-7.0083350796214861e-02
7469:-7.4456253078763246e-02
7470:-7.9763008471864433e-02
7471:-8.3619209378049272e-02
7472:-6.0222200836895654e-02
7473:-6.4225866390640970e-02
7474:-6.9530916843891621e-02
7475:-7.3725799820875335e-02
7476:-6.7663957630522437e-02
7477:-7.1741258977517958e-02
7478:-7.7278484508934833e-02
7479:-8.1697248510679651e-02
7480:-7.7719856116904282e-02
7481:-8.1829709552261112e-02
7482:-8.7650400190738539e-02
7483:-9.2410338819238699e-02
7484:-8.5648862060976563e-02
7485:-8.9790158268648043e-02
7486:-9.5827647461580678e-02
7487:-1.0085366276853586e-01
7488:-7.6031754583760269e-02
7489:-8.0587986380879911e-02
7490:-8.6975698234539212e-02
7491:-9.2189024931388086e-02
7492:-8.4116164012621522e-02
7493:-8.8781866948136140e-02
7494:-9.5163251653086936e-02
7495:-1.0032171035155042e-01
7496:-9.5028416891631204e-02
7497:-9.9949689370028308e-02
7498:-1.0646167743369592e-01
7499:-1.1161899297262969e-01
7500:-1.0363351767008513e-01
7501:-1.0880313953524413e-01
7502:-1.1553312331825469e-01
7503:-1.2079507348702155e-01
7504:-9.5071679979172499e-02
7505:-1.0064312626433948e-01
7506:-1.0820930954681797e-01
7507:-1.1422180979634966e-01
7508:-1.0318170057846408e-01
7509:-1.0882024476122905e-01
7510:-1.1667422225332290e-01
7511:-1.2303047391525053e-01
7512:-1.1446518997362665e-01
7513:-1.2017844530684135e-01
7514:-1.2834344368558315e-01
7515:-1.3509485669158885e-01
7516:-1.2368295955441530e-01
7517:-1.2949948270218264e-01
7518:-1.3787903505628554e-01
7519:-1.4487581651679651e-01
7520:-1.1748935211023223e-01
7521:-1.2360325517327653e-01
7522:-1.3155888177752659e-01
7523:-1.3767873542297618e-01
7524:-1.2651075043024643e-01
7525:-1.3298560201694884e-01
7526:-1.4133192231499142e-01
7527:-1.4770181233217045e-01
7528:-1.3883457297816448e-01
7529:-1.4580026533638210e-01
7530:-1.5476074129339085e-01
7531:-1.6156581700345818e-01
7532:-1.4878008026373521e-01
7533:-1.5610020520557227e-01
7534:-1.6557035837326783e-01
7535:-1.7276656924464368e-01
7536:-1.4096194691518829e-01
7537:-1.4721288424382883e-01
7538:-1.5553983351736383e-01
7539:-1.6204026983918771e-01
7540:-1.5110481132216821e-01
7541:-1.5756594355547790e-01
7542:-1.6614210050563552e-01
7543:-1.7281614502084081e-01
7544:-1.6518167025146913e-01
7545:-1.7197198920477277e-01
7546:-1.8084250182635206e-01
7547:-1.8764715051622916e-01
7548:-1.7657790848166391e-01
7549:-1.8366216854779280e-01
7550:-1.9277675284153922e-01
7551:-1.9967294666852523e-01
7552:-1.6553896772146282e-01
7553:-1.7209529767389792e-01
7554:-1.8057074183316132e-01
7555:-1.8696249310148871e-01
7556:-1.7640835461274157e-01
7557:-1.8325683819501301e-01
7558:-1.9234726573020797e-01
7559:-1.9937190999724166e-01
7560:-1.9128891040824966e-01
7561:-1.9839279236567023e-01
7562:-2.0818097572968186e-01
7563:-2.1602455048278044e-01
7564:-2.0333987324215150e-01
7565:-2.1057633580512033e-01
7566:-2.2075759085635815e-01
7567:-2.2909605059962149e-01
7568:-1.9030813013254147e-01
7569:-1.9627728203237124e-01
7570:-2.0342645269917531e-01
7571:-2.0842142617674558e-01
7572:-2.0309404703249351e-01
7573:-2.0961795944921274e-01
7574:-2.1717616097361603e-01
7575:-2.2227041343290899e-01
7576:-2.2026722996056206e-01
7577:-2.2760682558858708e-01
7578:-2.3585294503599558e-01
7579:-2.4119146036146999e-01
7580:-2.3366955498369604e-01
7581:-2.4159676178614059e-01
7582:-2.5049075238823798e-01
7583:-2.5621607600395080e-01
7584:-2.1091855417630481e-01
7585:-2.1539789220856281e-01
7586:-2.2088038074702820e-01
7587:-2.2482626347121007e-01
7588:-2.2476427395868995e-01
7589:-2.2934325921669829e-01
7590:-2.3519300835018817e-01
7591:-2.3959025924574243e-01
7592:-2.4373133615450568e-01
7593:-2.4849760685668243e-01
7594:-2.5483620838876658e-01
7595:-2.5978921633257640e-01
7596:-2.5892197985785087e-01
7597:-2.6399946606652469e-01
7598:-2.7076213729466408e-01
7599:-2.7605625743186413e-01
7600:-2.2682246926929220e-01
7601:-2.2995474338304700e-01
7602:-2.3263343428405081e-01
7603:-2.3349573777031107e-01
7604:-2.4187419773351021e-01
7605:-2.4545851323070675e-01
7606:-2.4849074426264692e-01
7607:-2.4941654411680550e-01
7608:-2.6241952322495121e-01
7609:-2.6653062227830937e-01
7610:-2.6996193667043294e-01
7611:-2.7097080711439347e-01
7612:-2.7887010037943505e-01
7613:-2.8325178834694748e-01
7614:-2.8690020071903738e-01
7615:-2.8799476222994347e-01
7616:-2.3349855212982099e-01
7617:-2.3260966154637616e-01
7618:-2.2973618648452013e-01
7619:-2.2626109666225930e-01
7620:-2.4937598323207236e-01
7621:-2.4834025123783987e-01
7622:-2.4521239231146236e-01
7623:-2.4153958923030827e-01
7624:-2.7090407560823559e-01
7625:-2.6985024278902270e-01
7626:-2.6679957206447175e-01
7627:-2.6326906678353013e-01
7628:-2.8796022242460068e-01
7629:-2.8708325605683832e-01
7630:-2.8448151264380084e-01
7631:-2.8142591689127577e-01
7632:-2.2394671782413980e-01
7633:-2.1833243684479009e-01
7634:-2.0847034104021506e-01
7635:-1.9900669059599793e-01
7636:-2.3913170787921537e-01
7637:-2.3335421819598362e-01
7638:-2.2326866444385626e-01
7639:-2.1359686668476224e-01
7640:-2.6096133333677185e-01
7641:-2.5528727809800961e-01
7642:-2.4510312678770815e-01
7643:-2.3513830846261474e-01
7644:-2.7939500745818291e-01
7645:-2.7406156520487973e-01
7646:-2.6389458576923047e-01
7647:-2.5358536125926318e-01
7648:-1.9336558460363862e-01
7649:-1.8281850493278867e-01
7650:-1.6929269019945831e-01
7651:-1.5903245500615976e-01
7652:-2.0781926373811788e-01
7653:-1.9688540576421265e-01
7654:-1.8254533951719623e-01
7655:-1.7138825997063986e-01
7656:-2.2911439466394073e-01
7657:-2.1751135734908483e-01
7658:-2.0187786786385165e-01
7659:-1.8939955150727458e-01
7660:-2.4724830633929715e-01
7661:-2.3492278222881610e-01
7662:-2.1813071751989832e-01
7663:-2.0462251875507012e-01
7664:-1.5341626323751228e-01
7665:-1.3968512605266545e-01
7666:-1.1506089893722632e-01
7667:-9.1188726904204750e-02
7668:-1.6518625436847997e-01
7669:-1.5014783393259890e-01
7670:-1.2347217135868344e-01
7671:-9.7821067489730629e-02
7672:-1.8237180370330863e-01
7673:-1.6552751214508604e-01
7674:-1.3606949916980299e-01
7675:-1.0803683759857280e-01
7676:-1.9699461114763767e-01
7677:-1.7880102490222882e-01
7678:-1.4718185267260572e-01
7679:-1.1724622218615736e-01
7680:-7.7174031316159200e-02
7681:-5.6262062587214501e-02
7682:-4.1178120328441904e-02
7683:-3.8994144715493888e-02
7684:-8.2817246817004989e-02
7685:-6.0232415561612448e-02
7686:-4.3312268529598130e-02
7687:-3.9925785313207625e-02
7688:-9.1718307859149167e-02
7689:-6.6921461059831835e-02
7690:-4.7566223990420507e-02
7691:-4.2549235161496855e-02
7692:-9.9862766700059447e-02
7693:-7.3291198818645653e-02
7694:-5.2008354142068086e-02
7695:-4.5703640276510631e-02
7696:-4.0560145880706361e-02
7697:-3.8020530572816215e-02
7698:-2.2403509880394919e-02
7699:-1.6004053098913867e-03
7700:-4.0880854863509508e-02
7701:-3.6823871546003382e-02
7702:-1.8533085508001288e-02
7703:4.7386978023747682e-03
7704:-4.2654071564480901e-02
7705:-3.6462924774769714e-02
7706:-1.4324026098374102e-02
7707:1.2611511291435446e-02
7708:-4.5130154881596753e-02
7709:-3.7183840380989451e-02
7710:-1.1755404188889297e-02
7711:1.8425466300798207e-02
7712:1.2958667920204619e-02
7713:5.6057759088630255e-02
7714:1.4569248182346711e-01
7715:2.4047812453079140e-01
7716:2.0719472519852081e-02
7717:6.6532209161502195e-02
7718:1.5991037057499860e-01
7719:2.5785268218309798e-01
7720:3.0755336226424262e-02
7721:8.0779860514949217e-02
7722:1.7990850901098093e-01
7723:2.8245499190390810e-01
7724:3.8528721723690929e-02
7725:9.2373881946098121e-02
7726:1.9657383363284886e-01
7727:3.0294307407603221e-01
7728:2.9648520994381067e-01
7729:3.4245119287166209e-01
7730:2.7180252787971104e-01
7731:1.1727902384449930e-01
7732:3.1558673908915613e-01
7733:3.6314273300883898e-01
7734:2.9077591724751906e-01
7735:1.3184823483706970e-01
7736:3.4258140544513510e-01
7737:3.9217424105592014e-01
7738:3.1719268889797669e-01
7739:1.5223981522400967e-01
7740:3.6494593901205741e-01
7741:4.1601002509192003e-01
7742:3.3879480467555828e-01
7743:1.6915742468576409e-01
7744:5.8622135236460335e-03
7745:-1.4048593089052891e-01
7746:-1.8486795824362678e-01
7747:-1.0720993496085977e-01
7748:1.7135469796821089e-02
7749:-1.3362924481517569e-01
7750:-1.7940993411870360e-01
7751:-9.9333125406356304e-02
7752:3.3166288553598482e-02
7753:-1.2316595819599130e-01
7754:-1.7028489552307213e-01
7755:-8.6870355782930231e-02
7756:4.6802182632472003e-02
7757:-1.1354548817157441e-01
7758:-1.6140736599800704e-01
7759:-7.5535948963387056e-02
7760:-3.0041287171513952e-02
7761:1.1741239794350616e-01
7762:3.0111616606270714e-01
7763:4.3470173739061319e-01
7764:-1.9730592922827129e-02
7765:1.3197766645271281e-01
7766:3.1978940111919030e-01
7767:4.5511930955172358e-01
7768:-4.1698101299626044e-03
7769:1.5275257809558024e-01
7770:3.4588722783837661e-01
7771:4.8446696795470184e-01
7772:9.3097407433577195e-03
7773:1.6991592831540883e-01
7774:3.6762069043221768e-01
7775:5.1028705584946832e-01
7776:-2.9755774682298763e-01
7777:3.1669876150770417e-02
7778:2.7987718819442581e-01
7779:3.3038670967279316e-01
7780:-3.0757323885181304e-01
7781:3.0836431298259193e-02
7782:2.8603137040657189e-01
7783:3.3796777170721987e-01
7784:-3.2069003034635923e-01
7785:3.0180880328876961e-02
7786:2.9458559032509535e-01
7787:3.4826388141668635e-01
7788:-3.3061509673359579e-01
7789:3.0106308134290903e-02
7790:3.0163028351959970e-01
7791:3.5660462932328663e-01
7792:3.1172910035886614e-01
7793:2.6547261956993512e-01
7794:1.9841194940042531e-01
7795:1.4186331086675935e-01
7796:3.1877217279745457e-01
7797:2.7127663591361034e-01
7798:2.0262060735718473e-01
7799:1.4487650127207163e-01
7800:3.2830322837688763e-01
7801:2.7915575516703189e-01
7802:2.0847023782450674e-01
7803:1.4921304179499098e-01
7804:3.3605535532201869e-01
7805:2.8567033808190168e-01
7806:2.1346775754074990e-01
7807:1.5302878669333014e-01
7808:1.1072449896453176e-01
7809:6.5047609226676878e-02
7810:3.3178139457507187e-02
7811:2.9704054607844921e-02
7812:1.1311818317296550e-01
7813:6.6396271793509432e-02
7814:3.3411258794855868e-02
7815:2.9272655834372767e-02
7816:1.1665160551804490e-01
7817:6.8500911393527333e-02
7818:3.3851507432320911e-02
7819:2.8617731246435164e-02
7820:1.1980739823797652e-01
7821:7.0433705391333062e-02
7822:3.4281712976568790e-02
7823:2.8009125902324464e-02
7824:3.4209997371159324e-02
7825:3.7120870889135342e-02
7826:2.6779706138239361e-02
7827:8.3289192896985956e-03
7828:3.3479167261421805e-02
7829:3.5700404948688320e-02
7830:2.4165055519961069e-02
7831:4.5769028578050769e-03
7832:3.2299951965051088e-02
7833:3.3425559367439094e-02
7834:2.0194653949966519e-02
7835:-8.9652219941778845e-04
7836:3.1182547697570579e-02
7837:3.1309463040424167e-02
7838:1.6658125477874854e-02
7839:-5.6145917511703485e-03
7840:-4.6189374901445222e-03
7841:-2.5363806622351243e-02
7842:-4.3412950485483028e-02
7843:-5.0218315243926524e-02
7844:-9.0396596550246875e-03
7845:-3.0884838056826236e-02
7846:-4.9997200083837866e-02
7847:-5.7319491911590449e-02
7848:-1.5370476674991933e-02
7849:-3.8652776909659764e-02
7850:-5.9246187627211164e-02
7851:-6.7401876131103253e-02
7852:-2.0742948160474034e-02
7853:-4.5142140802906405e-02
7854:-6.6955895883807112e-02
7855:-7.5878264233671069e-02
7856:-5.1539394039000486e-02
7857:-5.3625915150026800e-02
7858:-5.6503570454316372e-02
7859:-5.8930553804024094e-02
7860:-5.8818512486457794e-02
7861:-6.1266425863301388e-02
7862:-6.4722849189417508e-02
7863:-6.7684465203413841e-02
7864:-6.9251024241807763e-02
7865:-7.2404267105780656e-02
7866:-7.6895500838374792e-02
7867:-8.0712930373123604e-02
7868:-7.8087171124658100e-02
7869:-8.1943330180293747e-02
7870:-8.7380244919290903e-02
7871:-9.1897058501492906e-02
7872:-6.0342496448059488e-02
7873:-6.3394200735940959e-02
7874:-6.8143704471399502e-02
7875:-7.2321754081706102e-02
7876:-6.9404690225551444e-02
7877:-7.2871031145923984e-02
7878:-7.7778105438539288e-02
7879:-8.1765352713977946e-02
7880:-8.2886833367330964e-02
7881:-8.6894183326532703e-02
7882:-9.1858173111792188e-02
7883:-9.5412251845867282e-02
7884:-9.4408849315141694e-02
7885:-9.8777761601941100e-02
7886:-1.0369044406582492e-01
7887:-1.0685358656887171e-01
7888:-7.4696075819657898e-02
7889:-7.8949967538731861e-02
7890:-8.4131552473037094e-02
7891:-8.7937035799785637e-02
7892:-8.3936189011837983e-02
7893:-8.7865680574853292e-02
7894:-9.2807439938761851e-02
7895:-9.6587365122626917e-02
7896:-9.7214507916407011e-02
7897:-1.0063966145722288e-01
7898:-1.0535124901736206e-01
7899:-1.0925371299292946e-01
7900:-1.0835870014647221e-01
7901:-1.1143268424587674e-01
7902:-1.1610014471797797e-01
7903:-1.2022405882271874e-01
7904:-8.9962302653559090e-02
7905:-9.4139410420510106e-02
7906:-1.0029513624932290e-01
7907:-1.0545313257158691e-01
7908:-9.8656007707402335e-02
7909:-1.0294708942189877e-01
7910:-1.0930011164953263e-01
7911:-1.1464732294985443e-01
7912:-1.1147212043012215e-01
7913:-1.1597949088635821e-01
7914:-1.2250150771255419e-01
7915:-1.2794685143686868e-01
7916:-1.2261843014054884e-01
7917:-1.2732066103338963e-01
7918:-1.3387281462775527e-01
7919:-1.3925361684452284e-01
7920:-1.0831259196699837e-01
7921:-1.1362226763626161e-01
7922:-1.2051375482996263e-01
7923:-1.2588510089178701e-01
7924:-1.1762191253645754e-01
7925:-1.2318255816276680e-01
7926:-1.3045756687695817e-01
7927:-1.3615254033205612e-01
7928:-1.3098612494382317e-01
7929:-1.3681615723007937e-01
7930:-1.4470265651050843e-01
7931:-1.5101490256191832e-01
7932:-1.4226258642188519e-01
7933:-1.4822542012403198e-01
7934:-1.5662297019136492e-01
7935:-1.6352139802421831e-01
7936:-1.2882641059235334e-01
7937:-1.3473227279168928e-01
7938:-1.4322597723793451e-01
7939:-1.5032676497934497e-01
7940:-1.3926859550669043e-01
7941:-1.4543441966074200e-01
7942:-1.5415223190775740e-01
7943:-1.6136733745089735e-01
7944:-1.5448519667649038e-01
7945:-1.6114095929140243e-01
7946:-1.7014220330684318e-01
7947:-1.7733087668415923e-01
7948:-1.6733971089421684e-01
7949:-1.7445472685899846e-01
7950:-1.8363856787127408e-01
7951:-1.9066165173600491e-01
7952:-1.5429874368478513e-01
7953:-1.6178416720382074e-01
7954:-1.7151999129680481e-01
7955:-1.7893233441465531e-01
7956:-1.6539376866776087e-01
7957:-1.7305282745431158e-01
7958:-1.8313843625033574e-01
7959:-1.9088230020424135e-01
7960:-1.8127744627033179e-01
7961:-1.8888155667289963e-01
7962:-1.9912534422702546e-01
7963:-2.0716652706567545e-01
7964:-1.9442936562626029e-01
7965:-2.0177920113679207e-01
7966:-2.1193476327913791e-01
7967:-2.2012585312756491e-01
7968:-1.8285415208682221e-01
7969:-1.9010794770759637e-01
7970:-1.9937255558165434e-01
7971:-2.0633653966676835e-01
7972:-1.9499112965654045e-01
7973:-2.0255983436829958e-01
7974:-2.1216447227869675e-01
7975:-2.1934413556955557e-01
7976:-2.1149082484954013e-01
7977:-2.1947572539921950e-01
7978:-2.2962922741278377e-01
7979:-2.3723611369848996e-01
7980:-2.2460990905781733e-01
7981:-2.3293421788056609e-01
7982:-2.4357763278225505e-01
7983:-2.5158990756676042e-01
7984:-2.1002708300568831e-01
7985:-2.1732604322010582e-01
7986:-2.2765353829395835e-01
7987:-2.3617328023316436e-01
7988:-2.2313684631558478e-01
7989:-2.3061754237669757e-01
7990:-2.4119348621785824e-01
7991:-2.4993920036631731e-01
7992:-2.4125568983691642e-01
7993:-2.4909655756010601e-01
7994:-2.6001226141213934e-01
7995:-2.6892968060655698e-01
7996:-2.5583047193962882e-01
7997:-2.6402432346957744e-01
7998:-2.7525466825258266e-01
7999:-2.8429150722880642e-01
8000:-2.4087245786984562e-01
8001:-2.4906691516848356e-01
8002:-2.5834794112632486e-01
8003:-2.6438260359388693e-01
8004:-2.5478380471098583e-01
8005:-2.6337745557142395e-01
8006:-2.7342172335722326e-01
8007:-2.8020773569084995e-01
8008:-2.7385190280553973e-01
8009:-2.8282221090787441e-01
8010:-2.9386687605079581e-01
8011:-3.0181280019162565e-01
8012:-2.8924426580604989e-01
8013:-2.9844485351933780e-01
8014:-3.1020377254349296e-01
8015:-3.1903841766140234e-01
8016:-2.6725095635871260e-01
8017:-2.7259197039715244e-01
8018:-2.7961378709007056e-01
8019:-2.8504465935526546e-01
8020:-2.8351813637794127e-01
8021:-2.8955682598749427e-01
8022:-2.9718434317786935e-01
8023:-3.0284272150861746e-01
8024:-3.0585786365647410e-01
8025:-3.1306595475585475e-01
8026:-3.2169448794508942e-01
8027:-3.2769341641154520e-01
8028:-3.2366659757714450e-01
8029:-3.3183909447047211e-01
8030:-3.4136475078325579e-01
8031:-3.4774020548461426e-01
8032:-2.8791087184093006e-01
8033:-2.9236646534544369e-01
8034:-2.9608799343382014e-01
8035:-2.9724123321481516e-01
8036:-3.0575194293276553e-01
8037:-3.1026766054751737e-01
8038:-3.1409387933574878e-01
8039:-3.1538566900810050e-01
8040:-3.3064127239608648e-01
8041:-3.3524642607207711e-01
8042:-3.3933126258369228e-01
8043:-3.4097617525741319e-01
8044:-3.5078187118224757e-01
8045:-3.5560607567961772e-01
8046:-3.6014725052106866e-01
8047:-3.6230514214377318e-01
8048:-2.9724925615844133e-01
8049:-2.9654607604512029e-01
8050:-2.9433503364167130e-01
8051:-2.9167206764957548e-01
8052:-3.1550634298614799e-01
8053:-3.1520242663799652e-01
8054:-3.1383867537239257e-01
8055:-3.1201455203295303e-01
8056:-3.4135739675391175e-01
8057:-3.4173754191790184e-01
8058:-3.4158147705946307e-01
8059:-3.4085098794470370e-01
8060:-3.6302373311596470e-01
8061:-3.6408895924331658e-01
8062:-3.6485818232384576e-01
8063:-3.6480892256283654e-01
8064:-2.8986460515487861e-01
8065:-2.8480498137824600e-01
8066:-2.7465976121799218e-01
8067:-2.6409495255286319e-01
8068:-3.1068224358223778e-01
8069:-3.0618117906377440e-01
8070:-2.9602806423735850e-01
8071:-2.8488662986110996e-01
8072:-3.4011266751691882e-01
8073:-3.3627031044706351e-01
8074:-3.2602988450623105e-01
8075:-3.1413634385330180e-01
8076:-3.6439605187569984e-01
8077:-3.6088159587170776e-01
8078:-3.5054461740944620e-01
8079:-3.3824312576329013e-01
8080:-2.5752794000222179e-01
8081:-2.4472594121671648e-01
8082:-2.2727387389255080e-01
8083:-2.1325138188441900e-01
8084:-2.7782820763605648e-01
8085:-2.6411601704940435e-01
8086:-2.4559241489871927e-01
8087:-2.3085510901965056e-01
8088:-3.0647417084309631e-01
8089:-2.9174693870425122e-01
8090:-2.7220227961369509e-01
8091:-2.5688731306405044e-01
8092:-3.3027884006366642e-01
8093:-3.1506487297076768e-01
8094:-2.9502559694059449e-01
8095:-2.7937942551472561e-01
8096:-2.0534465143616787e-01
8097:-1.8648667078345593e-01
8098:-1.5372877634318047e-01
8099:-1.2274344015400601e-01
8100:-2.2258921891817574e-01
8101:-2.0273087262420331e-01
8102:-1.6798879473459719e-01
8103:-1.3499803350141243e-01
8104:-2.4834798988326026e-01
8105:-2.2749968529239717e-01
8106:-1.9041640073111832e-01
8107:-1.5482334961708355e-01
8108:-2.7064678065574427e-01
8109:-2.4909913472583958e-01
8110:-2.1033941856255867e-01
8111:-1.7283491205443841e-01
8112:-1.0475931812289345e-01
8113:-7.7191011263417694e-02
8114:-5.4837919632864211e-02
8115:-4.7825954279997265e-02
8116:-1.1581018777881644e-01
8117:-8.6183175432613751e-02
8118:-6.1533296462567097e-02
8119:-5.2969315116011502e-02
8120:-1.3399561848178779e-01
8121:-1.0141595532753701e-01
8122:-7.3226743997371530e-02
8123:-6.2137818222459631e-02
8124:-1.5077471326229508e-01
8125:-1.1584050829749377e-01
8126:-8.4583808258325024e-02
8127:-7.1157302160393926e-02
8128:-4.6880579036059189e-02
8129:-3.7948404113911198e-02
8130:-1.0623255287074732e-02
8131:2.1466794986819818e-02
8132:-5.1210972353989574e-02
8133:-4.0186270489387846e-02
8134:-8.9528503878264481e-03
8135:2.6985867845393644e-02
8136:-5.9040604775259672e-02
8137:-4.4742418657528885e-02
8138:-7.7212108673270930e-03
8139:3.3689912531094206e-02
8140:-6.6790458290089991e-02
8141:-4.9531882294804222e-02
8142:-7.5561292989635084e-03
8143:3.8345753555520799e-02
8144:4.2734892622604270e-02
8145:9.8833946362103506e-02
8146:2.0595265377953109e-01
8147:3.1443542890621845e-01
8148:5.0568434114712589e-02
8149:1.1104400585765269e-01
8150:2.2373445468781469e-01
8151:3.3627676939643214e-01
8152:6.0482919040328056e-02
8153:1.2689455855050952e-01
8154:2.4711946710562618e-01
8155:3.6535975452076924e-01
8156:6.7709064693249138e-02
8157:1.3883863986642156e-01
8158:2.6517672347881494e-01
8159:3.8830430473185329e-01
8160:3.7743838764706006e-01
8161:4.2925428016068179e-01
8162:3.5081095544609281e-01
8163:1.7870566592907763e-01
8164:4.0124532950324976e-01
8165:4.5475249358911934e-01
8166:3.7441893462704673e-01
8167:1.9786832074702540e-01
8168:4.3323959945279394e-01
8169:4.8975138929308409e-01
8170:4.0784143970614617e-01
8171:2.2566987816428527e-01
8172:4.5882408236879030e-01
8173:5.1841542573251453e-01
8174:4.3595985609359289e-01
8175:2.4942248895266542e-01
8176:5.4650356782447125e-02
8177:-1.0774073568722171e-01
8178:-1.5596015389918794e-01
8179:-6.8895135240276850e-02
8180:7.0621098837451823e-02
8181:-9.5840681321033738e-02
8182:-1.4523374614988196e-01
8183:-5.6213803051467011e-02
8184:9.4070101133598635e-02
8185:-7.8355524193418499e-02
8186:-1.3005054473766542e-01
8187:-3.8437349599170924e-02
8188:1.1419080906751031e-01
8189:-6.3399452255914299e-02
8190:-1.1713758123142362e-01
8191:-2.2932640132070005e-02
8192:1.6970721398351870e-02
8193:1.7944824415714924e-01
8194:3.7995018519075507e-01
8195:5.2558512741585228e-01
8196:3.1542001364951465e-02
8197:1.9797421676298255e-01
8198:4.0476096593909505e-01
8199:5.5659919176877193e-01
8200:5.2183328992626170e-02
8201:2.2476272359241498e-01
8202:4.4015016618745956e-01
8203:5.9854280600945320e-01
8204:7.0564579928775184e-02
8205:2.4860167441612077e-01
8206:4.6929890114422418e-01
8207:6.2910973963077843e-01
8208:-3.3581575755764276e-01
8209:3.0227078713623720e-02
8210:3.0557313999203922e-01
8211:3.6125447580881381e-01
8212:-3.4541184107464218e-01
8213:3.0459672038284955e-02
8214:3.1317421514038646e-01
8215:3.7046863315342748e-01
8216:-3.5720949276686531e-01
8217:3.0929829153734441e-02
8218:3.2351297345921926e-01
8219:3.8346906946557840e-01
8220:-3.6530994408137485e-01
8221:3.1625873764775582e-02
8222:3.3181651357864067e-01
8223:3.9418737679320215e-01
8224:3.4041021165879776e-01
8225:2.8939672072398465e-01
8226:2.1639684259703959e-01
8227:1.5530028181851274e-01
8228:3.4921526613570586e-01
8229:2.9716470436083686e-01
8230:2.2264653307954416e-01
8231:1.6019722916840817e-01
8232:3.6197802873290591e-01
8233:3.0885230208138564e-01
8234:2.3226853903123632e-01
8235:1.6777656368393701e-01
8236:3.7273371753231815e-01
8237:3.1898177027467406e-01
8238:2.4071942165640686e-01
8239:1.7441734532650496e-01
8240:1.2169658056237058e-01
8241:7.1604484003900681e-02
8242:3.4556853975817182e-02
8243:2.7656876280129521e-02
8244:1.2579754970358875e-01
8245:7.4251143699654548e-02
8246:3.5444222155199136e-02
8247:2.7321666969493983e-02
8248:1.3216309202429080e-01
8249:7.8517391900539898e-02
8250:3.7358981184857906e-02
8251:2.7688031570770377e-02
8252:1.3772139578949338e-01
8253:8.2311322458936589e-02
8254:3.9378194225480258e-02
8255:2.8665168286205949e-02
8256:3.0521439660445494e-02
8257:3.0058121587615862e-02
8258:1.4600378028583603e-02
8259:-8.3202795061509370e-03
8260:2.9578090537450741e-02
8261:2.7932405583329482e-02
8262:1.0831735634577882e-02
8263:-1.3418657190648733e-02
8264:2.9181303458611627e-02
8265:2.5948065022787962e-02
8266:6.4490853176534689e-03
8267:-1.9859633458653665e-02
8268:2.9669896589119393e-02
8269:2.5274655202551028e-02
8270:3.7485093990824447e-03
8271:-2.4465251713836476e-02
8272:-2.3801271558655492e-02
8273:-4.8809744190086900e-02
8274:-7.1312417762369740e-02
8275:-8.0691561108682142e-02
8276:-2.9624829073219380e-02
8277:-5.5907090618529422e-02
8278:-7.9876968596479331e-02
8279:-9.0231431245295882e-02
8280:-3.7220250038845125e-02
8281:-6.5558990788847374e-02
8282:-9.1908639481003668e-02
8283:-1.0381273493256386e-01
8284:-4.2938915320576594e-02
8285:-7.3267460467192499e-02
8286:-1.0189494799173936e-01
8287:-1.1523677306996785e-01
8288:-8.3124188381927352e-02
8289:-8.7403968088578740e-02
8290:-9.3374227897769779e-02
8291:-9.8252095893252775e-02
8292:-9.3133235373532880e-02
8293:-9.8232120014857066e-02
8294:-1.0512042315068211e-01
8295:-1.1055118209304940e-01
8296:-1.0742859132821407e-01
8297:-1.1361622661989311e-01
8298:-1.2144072692400772e-01
8299:-1.2723211109071250e-01
8300:-1.1948493295291794e-01
8301:-1.2650906096643516e-01
8302:-1.3478123668029771e-01
8303:-1.4047953140581176e-01
8304:-1.0092477357809426e-01
8305:-1.0545215241518166e-01
8306:-1.1031214004269499e-01
8307:-1.1327183223674042e-01
8308:-1.1345002911838359e-01
8309:-1.1819508147726694e-01
8310:-1.2296481925466353e-01
8311:-1.2561185321911067e-01
8312:-1.3020806557910397e-01
8313:-1.3501287734216544e-01
8314:-1.3972173479646058e-01
8315:-1.4221695743921600e-01
8316:-1.4328766559843470e-01
8317:-1.4790308328904397e-01
8318:-1.5263641918506282e-01
8319:-1.5531714860222740e-01
8320:-1.1463226236330827e-01
8321:-1.1755784239872638e-01
8322:-1.2226394916593912e-01
8323:-1.2655102955040465e-01
8324:-1.2674955082018227e-01
8325:-1.2945614189500976e-01
8326:-1.3426840399058082e-01
8327:-1.3888114670949428e-01
8328:-1.4324684502333959e-01
8329:-1.4587698159125609e-01
8330:-1.5086286906990551e-01
8331:-1.5580892729325363e-01
8332:-1.5648495380671160e-01
8333:-1.5931090214306962e-01
8334:-1.6444664225131958e-01
8335:-1.6946841037880780e-01
8336:-1.2905789967440046e-01
8337:-1.3387056667370686e-01
8338:-1.4040037917407774e-01
8339:-1.4569296948764471e-01
8340:-1.4161538177631322e-01
8341:-1.4667374450230242e-01
8342:-1.5318953841390459e-01
8343:-1.5828686242269477e-01
8344:-1.5877464665714777e-01
8345:-1.6411404700988427e-01
8346:-1.7066003357288950e-01
8347:-1.7553810966571062e-01
8348:-1.7247317463116749e-01
8349:-1.7788304726325932e-01
8350:-1.8446263999024265e-01
8351:-1.8927361151736935e-01
8352:-1.4865356573862773e-01
8353:-1.5464987115972648e-01
8354:-1.6331511093120926e-01
8355:-1.7054939180931408e-01
8356:-1.6111407756141954e-01
8357:-1.6706977281771213e-01
8358:-1.7609468303972481e-01
8359:-1.8387352715619948e-01
8360:-1.7818302706365405e-01
8361:-1.8396015966279888e-01
8362:-1.9313646788673283e-01
8363:-2.0133085396319148e-01
8364:-1.9183954035408293e-01
8365:-1.9746190280322803e-01
8366:-2.0649902795803618e-01
8367:-2.1468972946233589e-01
8368:-1.7457175564086200e-01
8369:-1.8194901566781080e-01
8370:-1.9121005981530767e-01
8371:-1.9809355155498154e-01
8372:-1.8824944058937820e-01
8373:-1.9608241150321482e-01
8374:-2.0546745301264333e-01
8375:-2.1208742556557167e-01
8376:-2.0601802029462141e-01
8377:-2.1428488937071427e-01
8378:-2.2386596450972365e-01
8379:-2.3034353606244307e-01
8380:-2.1942481765316310e-01
8381:-2.2782893485483530e-01
8382:-2.3765312573283259e-01
8383:-2.4435020447371533e-01
8384:-2.0172650024839853e-01
8385:-2.0887320088484093e-01
8386:-2.1892201402293848e-01
8387:-2.2717832794370701e-01
8388:-2.1547081221575082e-01
8389:-2.2226135182631621e-01
8390:-2.3216822079051511e-01
8391:-2.4059849340500242e-01
8392:-2.3356007325244083e-01
8393:-2.4014379970896188e-01
8394:-2.5006235480550804e-01
8395:-2.5873198708639078e-01
8396:-2.4768919400465320e-01
8397:-2.5447983096552201e-01
8398:-2.6460362186578257e-01
8399:-2.7336799609892115e-01
8400:-2.3175234945554257e-01
8401:-2.4027103360773833e-01
8402:-2.5119500805923312e-01
8403:-2.5943735191118705e-01
8404:-2.4536637368457340e-01
8405:-2.5427229267731316e-01
8406:-2.6570395940899727e-01
8407:-2.7433004086196433e-01
8408:-2.6370550295167550e-01
8409:-2.7300447439260506e-01
8410:-2.8493211535660090e-01
8411:-2.9392396653984648e-01
8412:-2.7836935500452092e-01
8413:-2.8773717542424448e-01
8414:-2.9980530150760404e-01
8415:-3.0894868995579389e-01
8416:-2.6380251735626720e-01
8417:-2.7220108553334060e-01
8418:-2.8362370834952721e-01
8419:-2.9273998401538515e-01
8420:-2.7889345786663261e-01
8421:-2.8761048690456925e-01
8422:-2.9932646004994629e-01
8423:-3.0856566330780538e-01
8424:-2.9867398910903092e-01
8425:-3.0767899310061103e-01
8426:-3.1965646116838692e-01
8427:-3.2902488918942130e-01
8428:-3.1379276065741019e-01
8429:-3.2294016552959864e-01
8430:-3.3505948606028546e-01
8431:-3.4453631613514785e-01
8432:-2.9771415615288543e-01
8433:-3.0703041721769636e-01
8434:-3.1913287220508801e-01
8435:-3.2839771018365371e-01
8436:-3.1357642306453004e-01
8437:-3.2308322775602732e-01
8438:-3.3573630056099352e-01
8439:-3.4567938563688827e-01
8440:-3.3409278922118130e-01
8441:-3.4384300380865324e-01
8442:-3.5711815234907746e-01
8443:-3.6777651740806383e-01
8444:-3.4967568419273487e-01
8445:-3.5965743884233459e-01
8446:-3.7342125285434108e-01
8447:-3.8458023712880812e-01
8448:-3.3331180199616711e-01
8449:-3.4197908807209260e-01
8450:-3.5201324204477352e-01
8451:-3.5865087107879234e-01
8452:-3.5104174886352912e-01
8453:-3.6050908445589491e-01
8454:-3.7143342405894147e-01
8455:-3.7860742871867487e-01
8456:-3.7359651216660883e-01
8457:-3.8389478096131213e-01
8458:-3.9580838339885654e-01
8459:-4.0366340496311448e-01
8460:-3.9070075729727832e-01
8461:-4.0152223493799993e-01
8462:-4.1404035643150977e-01
8463:-4.2232009286182770e-01
8464:-3.6178702941096480e-01
8465:-3.6682232433145967e-01
8466:-3.7174724850672636e-01
8467:-3.7429799890583293e-01
8468:-3.8198042772978602e-01
8469:-3.8756426453682213e-01
8470:-3.9346711563973319e-01
8471:-3.9698380538850214e-01
8472:-4.0738430671863690e-01
8473:-4.1383403136943553e-01
8474:-4.2132426166843229e-01
8475:-4.2639865524430925e-01
8476:-4.2627174563133269e-01
8477:-4.3337029040329389e-01
8478:-4.4214024930963547e-01
8479:-4.4849723056938384e-01
8480:-3.7526073518638109e-01
8481:-3.7675982193095509e-01
8482:-3.7800168532100642e-01
8483:-3.7821790811123540e-01
8484:-3.9852812018373868e-01
8485:-4.0098353422878169e-01
8486:-4.0312878715557021e-01
8487:-4.0374975889233899e-01
8488:-4.2886588506840917e-01
8489:-4.3278006024877802e-01
8490:-4.3622111784572937e-01
8491:-4.3738864900932295e-01
8492:-4.5172546089506871e-01
8493:-4.5685420020137929e-01
8494:-4.6144438988047570e-01
8495:-4.6321168751044445e-01
8496:-3.7790333502831724e-01
8497:-3.7447274514140355e-01
8498:-3.6409391537377045e-01
8499:-3.5169068377374002e-01
8500:-4.0354860775364798e-01
8501:-4.0026589686815511e-01
8502:-3.9003444794559067e-01
8503:-3.7776086752220234e-01
8504:-4.3734434643730019e-01
8505:-4.3442958440996854e-01
8506:-4.2487534102860192e-01
8507:-4.1325895079020375e-01
8508:-4.6341625175095807e-01
8509:-4.6106410765216432e-01
8510:-4.5240068801765471e-01
8511:-4.4151576352539873e-01
8512:-3.4366278325130867e-01
8513:-3.2833814343723372e-01
8514:-3.0812925521160056e-01
8515:-2.9229058215742065e-01
8516:-3.6981582464555213e-01
8517:-3.5453508249856525e-01
8518:-3.3407022778180495e-01
8519:-3.1773506285806857e-01
8520:-4.0569091536476787e-01
8521:-3.9083253250500077e-01
8522:-3.7026003974364752e-01
8523:-3.5330841924849599e-01
8524:-4.3432366874810407e-01
8525:-4.1995939616621247e-01
8526:-3.9959839681512022e-01
8527:-3.8249248279859771e-01
8528:-2.8341694586874255e-01
8529:-2.6145705163237132e-01
8530:-2.2181990796132195e-01
8531:-1.8334850428070909e-01
8532:-3.0847488804631595e-01
8533:-2.8557962247914032e-01
8534:-2.4424912886018543e-01
8535:-2.0405365670095005e-01
8536:-3.4352784582285700e-01
8537:-3.1938205296247518e-01
8538:-2.7581936245093563e-01
8539:-2.3337509401288897e-01
8540:-3.7251598095577970e-01
8541:-3.4766956684110034e-01
8542:-3.0245577494639647e-01
8543:-2.5812592201856116e-01
8544:-1.6066559873683675e-01
8545:-1.2448582895467075e-01
8546:-9.1503169808006199e-02
8547:-7.6698359510359013e-02
8548:-1.8028936693537481e-01
8549:-1.4190662694028283e-01
8550:-1.0579198145442244e-01
8551:-8.8439423088424590e-02
8552:-2.0820901146323595e-01
8553:-1.6700193869589328e-01
8554:-1.2694817242318368e-01
8555:-1.0646106073485290e-01
8556:-2.3173824728765405e-01
8557:-1.8818478079314038e-01
8558:-1.4511428357200964e-01
8559:-1.2242061555627654e-01
8560:-7.1568756038566328e-02
8561:-5.2578834638181610e-02
8562:-7.7963153784262537e-03
8563:4.0589199605064526e-02
8564:-8.1888359199102881e-02
8565:-5.9664866918810247e-02
8566:-9.5465851071384923e-03
8567:4.3701231449448381e-02
8568:-9.8182307824418308e-02
8569:-7.1895565967315334e-02
8570:-1.4639026557671599e-02
8571:4.5558706204050038e-02
8572:-1.1298190460483366e-01
8573:-8.3758239324101327e-02
8574:-2.0808988297623621e-02
8575:4.5370225552240975e-02
8576:7.1355928974378632e-02
8577:1.4507689518309852e-01
8578:2.7485830037224934e-01
8579:4.0084347038396917e-01
8580:7.7287998436071745e-02
8581:1.5638664910221964e-01
8582:2.9344603221152576e-01
8583:4.2536143158476980e-01
8584:8.3361754175280800e-02
8585:1.7072514226717295e-01
8586:3.1893420881481077e-01
8587:4.5949009650673961e-01
8588:8.6952378085158252e-02
8589:1.8175975154968629e-01
8590:3.3974560767798573e-01
8591:4.8740754089960353e-01
8592:4.7295120222282327e-01
8593:5.3448149791906863e-01
8594:4.5192627129225438e-01
8595:2.6297575240928306e-01
8596:5.0066964772694567e-01
8597:5.6592428240599923e-01
8598:4.8290232862814664e-01
8599:2.8917404319325490e-01
8600:5.3920600307755107e-01
8601:6.0923984375337459e-01
8602:5.2514276009789895e-01
8603:3.2515280024656873e-01
8604:5.7051874334802521e-01
8605:6.4401848388466909e-01
8606:5.5894167173741405e-01
8607:3.5457581136630967e-01
8608:1.2566859694652091e-01
8609:-5.4869393666830635e-02
8610:-1.0963875755540919e-01
8611:-1.3649160913746738e-02
8612:1.4792703016236800e-01
8613:-3.7721758735149671e-02
8614:-9.3256961363428661e-02
8615:7.0471742302395304e-03
8616:1.7905690442281955e-01
8617:-1.2059821691189410e-02
8618:-6.6738390039283849e-02
8619:3.9912718492612118e-02
8620:2.0529752872295379e-01
8621:1.1106876102208204e-02
8622:-4.2100436026510701e-02
8623:6.8836767622216979e-02
8624:8.1723256109429029e-02
8625:2.6288162830758716e-01
8626:4.8544395363865489e-01
8627:6.4407670574720688e-01
8628:1.0630269202400486e-01
8629:2.9286606582299540e-01
8630:5.1687279620741355e-01
8631:6.7146588542326513e-01
8632:1.4409242246982754e-01
8633:3.3672491795520632e-01
8634:5.6212013974769892e-01
8635:7.1364458434064981e-01
8636:1.7594182361373115e-01
8637:3.7254742100063015e-01
8638:6.0194963387051548e-01
8639:7.5782884093422276e-01
8640:-3.6916888136298298e-01
8641:3.2212856574180951e-02
8642:3.3641729721110780e-01
8643:4.0017262840361328e-01
8644:-3.7591229679694743e-01
8645:3.4143677563372769e-02
8646:3.4583779744313947e-01
8647:4.1205700010602747e-01
8648:-3.8675665589969571e-01
8649:3.7156914775350110e-02
8650:3.5981588863492003e-01
8651:4.2913837587252568e-01
8652:-3.9940564956553531e-01
8653:3.8700814393198772e-02
8654:3.7187049299495434e-01
8655:4.4368907434877619e-01
8656:3.7880705502848078e-01
8657:3.2478352851693987e-01
8658:2.4559095268283088e-01
8659:1.7823432227631109e-01
8660:3.9082575647457990e-01
8661:3.3631055042228214e-01
8662:2.5542876109429202e-01
8663:1.8606267496174200e-01
8664:4.0786540552006034e-01
8665:3.5255279808097811e-01
8666:2.6960507805919587e-01
8667:1.9775954635439483e-01
8668:4.2210087396738549e-01
8669:3.6589571003999471e-01
8670:2.8147099852551094e-01
8671:2.0799709239112030e-01
8672:1.4090322000913544e-01
8673:8.4493724569586190e-02
8674:4.0634047354549035e-02
8675:2.9439876922068814e-02
8676:1.4747239393530842e-01
8677:8.9040507991700227e-02
8678:4.3282814494766335e-02
8679:3.1138692777194905e-02
8680:1.5754590472506166e-01
8681:9.6349302822333172e-02
8682:4.7750789265537164e-02
8683:3.4049093636412224e-02
8684:1.6668843267181679e-01
8685:1.0343645380719339e-01
8686:5.2373278972934909e-02
8687:3.7061424407918188e-02
8688:3.0236206565002338e-02
8689:2.5263249500051016e-02
8690:2.5913174234750798e-03
8691:-2.6774069081338267e-02
8692:3.1553482786935101e-02
8693:2.5464817811062759e-02
8694:4.7962180057753429e-04
8695:-3.1264436907630297e-02
8696:3.3812174947093425e-02
8697:2.5945799589468084e-02
8698:-2.5609698057379813e-03
8699:-3.7858384001702473e-02
8700:3.6064161872095581e-02
8701:2.6367864711256309e-02
8702:-5.3888668911610997e-03
8703:-4.3786907715944033e-02
8704:-4.5939286890590555e-02
8705:-7.7501031550675642e-02
8706:-1.0752358590577941e-01
8707:-1.2172809286985707e-01
8708:-5.1869449217414758e-02
8709:-8.5953705842605227e-02
8710:-1.1876878517231103e-01
8711:-1.3468837236385192e-01
8712:-6.0593403936247771e-02
8713:-9.8284103657252778e-02
8714:-1.3489799764386609e-01
8715:-1.5306141399875786e-01
8716:-6.8332573099884539e-02
8717:-1.0896782820280389e-01
8718:-1.4847164336020088e-01
8719:-1.6820502888288499e-01
8720:-1.2634569780966401e-01
8721:-1.3381689124690643e-01
8722:-1.4222124448150092e-01
8723:-1.4771837966857204e-01
8724:-1.4004725654252989e-01
8725:-1.4842311933097119e-01
8726:-1.5706656869052654e-01
8727:-1.6206748453296391e-01
8728:-1.5938105545088199e-01
8729:-1.6900253874020282e-01
8730:-1.7811538216926021e-01
8731:-1.8255476897836448e-01
8732:-1.7516390908489224e-01
8733:-1.8571705940863825e-01
8734:-1.9543560048673711e-01
8735:-1.9977552407152743e-01
8736:-1.5034135744095292e-01
8737:-1.5475548859992913e-01
8738:-1.5953491422438257e-01
8739:-1.6245313104861844e-01
8740:-1.6423727642768285e-01
8741:-1.6815225755111773e-01
8742:-1.7307005603611911e-01
8743:-1.7665876278364551e-01
8744:-1.8414316963293811e-01
8745:-1.8741223740584942e-01
8746:-1.9256655729491542e-01
8747:-1.9716709829888676e-01
8748:-2.0111432888388117e-01
8749:-2.0410686806811343e-01
8750:-2.0944521858548468e-01
8751:-2.1465030710145730e-01
8752:-1.6379764459184420e-01
8753:-1.6685016513022549e-01
8754:-1.7207498951598291e-01
8755:-1.7704365890730633e-01
8756:-1.7851620047233949e-01
8757:-1.8224974834379593e-01
8758:-1.8774562896973851e-01
8759:-1.9249716775113351e-01
8760:-1.9981060760098765e-01
8761:-2.0461999302395223e-01
8762:-2.1057121083854075e-01
8763:-2.1495710897958753e-01
8764:-2.1776592404554609e-01
8765:-2.2324489878588563e-01
8766:-2.2950929064721357e-01
8767:-2.3367598738306919e-01
8768:-1.7999389806972249e-01
8769:-1.8535320852413456e-01
8770:-1.9194128261946206e-01
8771:-1.9677207494920390e-01
8772:-1.9521600889932320e-01
8773:-2.0028603478581131e-01
8774:-2.0679107853677622e-01
8775:-2.1172483095525524e-01
8776:-2.1726561555328233e-01
8777:-2.2176897919551886e-01
8778:-2.2803714315796164e-01
8779:-2.3315434796891307e-01
8780:-2.3571764477030624e-01
8781:-2.3982411283847657e-01
8782:-2.4588886032934543e-01
8783:-2.5111938416946522e-01
8784:-1.9933786797830130e-01
8785:-2.0489862806830669e-01
8786:-2.1377566313880250e-01
8787:-2.2182719357470435e-01
8788:-2.1437451953329334e-01
8789:-2.1992789786770256e-01
8790:-2.2849648583673945e-01
8791:-2.3614603500991688e-01
8792:-2.3600155236718587e-01
8793:-2.4169435989930863e-01
8794:-2.4994062018869700e-01
8795:-2.5698949375068997e-01
8796:-2.5411440533395763e-01
8797:-2.5995836058748262e-01
8798:-2.6807920800246610e-01
8799:-2.7477158773079813e-01
8800:-2.2649969629962127e-01
8801:-2.3488753824248157e-01
8802:-2.4489169166099461e-01
8803:-2.5186984897275938e-01
8804:-2.4058200149202080e-01
8805:-2.4880427713184683e-01
8806:-2.5918619466407028e-01
8807:-2.6689440133275089e-01
8808:-2.6102094534250425e-01
8809:-2.6888639919343421e-01
8810:-2.7970115750460645e-01
8811:-2.8842501454028785e-01
8812:-2.7853747185919819e-01
8813:-2.8612937644307723e-01
8814:-2.9711227468579843e-01
8815:-3.0637485152618399e-01
8816:-2.5539816117239916e-01
8817:-2.6247212656448765e-01
8818:-2.7277969360053650e-01
8819:-2.8152818058043466e-01
8820:-2.7093677741276490e-01
8821:-2.7872561523235379e-01
8822:-2.8935630810594176e-01
8823:-2.9786605497085211e-01
8824:-2.9320555093741424e-01
8825:-3.0196031565580456e-01
8826:-3.1286027054872190e-01
8827:-3.2081111394751632e-01
8828:-3.1156200051553096e-01
8829:-3.2080891624158137e-01
8830:-3.3172818132012782e-01
8831:-3.3922688101630222e-01
8832:-2.8646820990012078e-01
8833:-2.9574399070899438e-01
8834:-3.0776814387858015e-01
8835:-3.1694094654002758e-01
8836:-3.0252253945844709e-01
8837:-3.1136062917577212e-01
8838:-3.2309176484593533e-01
8839:-3.3226449059592394e-01
8840:-3.2493172421301358e-01
8841:-3.3294358528524931e-01
8842:-3.4409840303460337e-01
8843:-3.5323324161313491e-01
8844:-3.4296616304086025e-01
8845:-3.5039773589894901e-01
8846:-3.6116190429230421e-01
8847:-3.7029642366438936e-01
8848:-3.2182141734984493e-01
8849:-3.3102713497327219e-01
8850:-3.4321782784965432e-01
8851:-3.5276954434411956e-01
8852:-3.3722019280478338e-01
8853:-3.4657977206703988e-01
8854:-3.5900253182901037e-01
8855:-3.6878772172361302e-01
8856:-3.5830621080077490e-01
8857:-3.6794562244882967e-01
8858:-3.8082026096420746e-01
8859:-3.9102891716874755e-01
8860:-3.7547302526199344e-01
8861:-3.8536559726680270e-01
8862:-3.9864057583007317e-01
8863:-4.0919442329617423e-01
8864:-3.5796424357210310e-01
8865:-3.6810104227694063e-01
8866:-3.8215512534023188e-01
8867:-3.9358885727819448e-01
8868:-3.7413659700597507e-01
8869:-3.8463188613266958e-01
8870:-3.9927181867778166e-01
8871:-4.1122719023825055e-01
8872:-3.9663183687763698e-01
8873:-4.0762156303408892e-01
8874:-4.2293551890902625e-01
8875:-4.3543150022839600e-01
8876:-4.1498658708267916e-01
8877:-4.2627621536677951e-01
8878:-4.4188232340622469e-01
8879:-4.5454697709025127e-01
8880:-3.9986640969291165e-01
8881:-4.1094308167559357e-01
8882:-4.2372489637168198e-01
8883:-4.3217233210815353e-01
8884:-4.1779675982628456e-01
8885:-4.2933582009272536e-01
8886:-4.4255592710323871e-01
8887:-4.5123663749473641e-01
8888:-4.4229461719328134e-01
8889:-4.5433160188680694e-01
8890:-4.6808850483201181e-01
8891:-4.7709797729200332e-01
8892:-4.6149167465509172e-01
8893:-4.7375715292990711e-01
8894:-4.8795899660493869e-01
8895:-4.9740409424617626e-01
8896:-4.3621400780579289e-01
8897:-4.4361143683703091e-01
8898:-4.5302853086430378e-01
8899:-4.6005641309112949e-01
8900:-4.5538791442193272e-01
8901:-4.6322433442005390e-01
8902:-4.7370691098292750e-01
8903:-4.8191227115532659e-01
8904:-4.8141073198520612e-01
8905:-4.8978985297960370e-01
8906:-5.0154163395055362e-01
8907:-5.1118417981475572e-01
8908:-5.0197898749983172e-01
8909:-5.1094972817450923e-01
8910:-5.2375225339002396e-01
8911:-5.3448328779500032e-01
8912:-4.6368739134227888e-01
8913:-4.6947964515112467e-01
8914:-4.7476033545028717e-01
8915:-4.7696162255982055e-01
8916:-4.8627700407124763e-01
8917:-4.9335556903425748e-01
8918:-5.0012624644782155e-01
8919:-5.0337103858970766e-01
8920:-5.1647321729712869e-01
8921:-5.2529618899916286e-01
8922:-5.3429742867791707e-01
8923:-5.3921312468504845e-01
8924:-5.4046529629726581e-01
8925:-5.5065725798238552e-01
8926:-5.6149185302046156e-01
8927:-5.6779708867738887e-01
8928:-4.7737958059607682e-01
8929:-4.7546533333597291e-01
8930:-4.6739978513161945e-01
8931:-4.5693684200937651e-01
8932:-5.0432596141256192e-01
8933:-5.0341261560297479e-01
8934:-4.9655681124233697e-01
8935:-4.8686517633512927e-01
8936:-5.4104096380390931e-01
8937:-5.4167488304242539e-01
8938:-5.3659715267623276e-01
8939:-5.2803581033438762e-01
8940:-5.7034377042438655e-01
8941:-5.7226613142371174e-01
8942:-5.6875806006069340e-01
8943:-5.6132295395799459e-01
8944:-4.4993938410440870e-01
8945:-4.3586786482501927e-01
8946:-4.1576661730287612e-01
8947:-3.9878573724413624e-01
8948:-4.8020722245853970e-01
8949:-4.6677405090396051e-01
8950:-4.4756048338534293e-01
8951:-4.3132161822599530e-01
8952:-5.2190144300673746e-01
8953:-5.0961131892131728e-01
8954:-4.9225284559902888e-01
8955:-4.7769863909954391e-01
8956:-5.5577357714109554e-01
8957:-5.4471430513400299e-01
8958:-5.2920917087966324e-01
8959:-5.1622098140996753e-01
8960:-3.8884439819337357e-01
8961:-3.6380550984637627e-01
8962:-3.1776319157629185e-01
8963:-2.7232894122668039e-01
8964:-4.2176820863944670e-01
8965:-3.9681351623277611e-01
8966:-3.4946027829935505e-01
8967:-3.0190667037829544e-01
8968:-4.6907244144660731e-01
8969:-4.4486228646157411e-01
8970:-3.9633191533510087e-01
8971:-3.4624837143298459e-01
8972:-5.0842647905840199e-01
8973:-4.8503855164911752e-01
8974:-4.3604105029236684e-01
8975:-3.8447403695963839e-01
8976:-2.4519612325033352e-01
8977:-2.0027029358207959e-01
8978:-1.5556709870552221e-01
8979:-1.3178073181129660e-01
8980:-2.7328805451520072e-01
8981:-2.2572656820746106e-01
8982:-1.7805121189372258e-01
8983:-1.5234167852663991e-01
8984:-3.1578099620459216e-01
8985:-2.6504199253010441e-01
8986:-2.1387370563758443e-01
8987:-1.8582442353049863e-01
8988:-3.5288184049102939e-01
8989:-3.0022461320155835e-01
8990:-2.4683651298957671e-01
8991:-2.1705570912678054e-01
8992:-1.2179772792680406e-01
8993:-9.1076258899205967e-02
8994:-2.4976437625732362e-02
8995:4.4673405830861768e-02
8996:-1.4139165509106458e-01
8997:-1.0774351073635412e-01
8998:-3.5274042749015945e-02
8999:4.1324519039163385e-02
9000:-1.7359870651501444e-01
9001:-1.3573176888119598e-01
9002:-5.4023539354562132e-02
9003:3.2325712496088059e-02
9004:-2.0374674160079437e-01
9005:-1.6222603419296039e-01
9006:-7.2739497120323501e-02
9007:2.1472733059344669e-02
9008:8.8491945770793917e-02
9009:1.8766842622955660e-01
9010:3.5124288876506676e-01
9011:5.0279066968904595e-01
9012:8.9544133739556303e-02
9013:1.9704284977995454e-01
9014:3.7103817598425087e-01
9015:5.2995430475310490e-01
9016:8.6529172090502399e-02
9017:2.0495920830991607e-01
9018:3.9260848344533844e-01
9019:5.6183787908339078e-01
9020:8.0344175427469453e-02
9021:2.0717784582358661e-01
9022:4.0566320958156898e-01
9023:5.8386518508741481e-01
9024:5.8768058958590175e-01
9025:6.6296539589295622e-01
9026:5.7744384915122693e-01
9027:3.7105126741521210e-01
9028:6.1836990212588305e-01
9029:6.9780442751923577e-01
9030:6.1288275157528116e-01
9031:4.0360461754118704e-01
9032:6.5565908313167154e-01
9033:7.4266591777955304e-01
9034:6.6139131130173923e-01
9035:4.4948961495691359e-01
9036:6.8280527604630392e-01
9037:7.7764186737926366e-01
9038:7.0116271292346311e-01
9039:4.8745370208743022e-01
9040:2.2034734432065312e-01
9041:2.4911130524295087e-02
9042:-2.7505305276751310e-02
9043:8.5135752086419630e-02
9044:2.5048186233165248e-01
9045:5.2344741847222660e-02
9046:-1.6306988745614176e-04
9047:1.1420891705121668e-01
9048:2.9313429052957179e-01
9049:9.0374755554742212e-02
9050:3.5981418520862542e-02
9051:1.5234781922615453e-01
9052:3.2807613035337946e-01
9053:1.2079050149453004e-01
9054:6.5133812017744680e-02
9055:1.8532172361245672e-01
9056:1.9328714106879011e-01
9057:3.9184333886626255e-01
9058:6.2541139121500799e-01
9059:7.8730291781433881e-01
9060:2.2371815922969016e-01
9061:4.2659246046758975e-01
9062:6.7108482204983966e-01
9063:8.4690172279430043e-01
9064:2.6424902261333866e-01
9065:4.7443271868028380e-01
9066:7.3259597225258599e-01
9067:9.2068462305158860e-01
9068:3.0114011213258435e-01
9069:5.1838789347452652e-01
9070:7.8054847027364671e-01
9071:9.6409528055100280e-01
9072:-4.0852134596622902e-01
9073:3.8876362949437984e-02
9074:3.7878100971509188e-01
9075:4.5206879525072968e-01
9076:-4.2958469431795676e-01
9077:3.7737664096067373e-02
9078:3.9270536989805865e-01
9079:4.6960984697398800e-01
9080:-4.5839911319111343e-01
9081:3.6289926466619472e-02
9082:4.1321658988079418e-01
9083:4.9615674775338353e-01
9084:-4.7564092908261224e-01
9085:3.7968290815796918e-02
9086:4.3116833843194752e-01
9087:5.1928633001297808e-01
9088:4.3019116624761905e-01
9089:3.7337175972938585e-01
9090:2.8819217825609733e-01
9091:2.1399065955356028e-01
9092:4.4722321824973627e-01
9093:3.8918813878785441e-01
9094:3.0257107181342396e-01
9095:2.2718299314619955e-01
9096:4.7342068480343452e-01
9097:4.1402311253431251e-01
9098:3.2557272200597792e-01
9099:2.4881675619477375e-01
9100:4.9670178991217634e-01
9101:4.3671435941391096e-01
9102:3.4698578986575324e-01
9103:2.6918158420016486e-01
9104:1.7219263275274535e-01
9105:1.0792670834993649e-01
9106:5.5469972743275614e-02
9107:3.9120282608292832e-02
9108:1.8466224748634069e-01
9109:1.1883165794201463e-01
9110:6.4015648752233256e-02
9111:4.5699627899559281e-02
9112:2.0558868336445152e-01
9113:1.3819994917648978e-01
9114:8.0779574941862303e-02
9115:5.9973650851454015e-02
9116:2.2545396179855393e-01
9117:1.5704208694601837e-01
9118:9.7882968047784458e-02
9119:7.5263767680583599e-02
9120:3.7591306142299691e-02
9121:2.6699600085675537e-02
9122:-7.0291951975836875e-03
9123:-4.7228295997593595e-02
9124:4.3072714911710171e-02
9125:2.9701619284887393e-02
9126:-8.1189520569852104e-03
9127:-5.2076823146261650e-02
9128:5.5812425161899194e-02
9129:3.8883662783097205e-02
9130:-4.9553763214254375e-03
9131:-5.4570302209865293e-02
9132:6.9905375904319514e-02
9133:5.0091718387664685e-02
9134:1.1831263661491701e-03
9135:-5.3335303064535648e-02
9136:-7.2803803088626981e-02
9137:-1.1507030985293648e-01
9138:-1.5608782814210029e-01
9139:-1.7657119252756304e-01
9140:-7.9816127854067567e-02
9141:-1.2555453087674656e-01
9142:-1.6978910306671222e-01
9143:-1.9175441773444787e-01
9144:-8.5620402651324340e-02
9145:-1.3682621423394811e-01
9146:-1.8627805486941332e-01
9147:-2.1059760821790863e-01
9148:-8.7306810582232469e-02
9149:-1.4348611608932380e-01
9150:-1.9789521381394040e-01
9151:-2.2454818544324348e-01
9152:-1.8381152927390551e-01
9153:-1.9482877201192239e-01
9154:-2.0498295326705687e-01
9155:-2.0945655868959218e-01
9156:-1.9946981848371168e-01
9157:-2.1126619907834029e-01
9158:-2.2224716582526013e-01
9159:-2.2714558253046774e-01
9160:-2.1897927939079734e-01
9161:-2.3174246990585276e-01
9162:-2.4368183773461752e-01
9163:-2.4915440264144598e-01
9164:-2.3360327815300122e-01
9165:-2.4719537271749265e-01
9166:-2.5969078340404977e-01
9167:-2.6536033347192722e-01
9168:-2.1078433826714768e-01
9169:-2.1376714017572196e-01
9170:-2.1919030434467893e-01
9171:-2.2457186631974085e-01
9172:-2.2861086097201774e-01
9173:-2.3175301487655625e-01
9174:-2.3724595893809872e-01
9175:-2.4261159774208607e-01
9176:-2.5088142644035094e-01
9177:-2.5428290273826942e-01
9178:-2.5959641814780332e-01
9179:-2.6440016188679377e-01
9180:-2.6715726049769800e-01
9181:-2.7054083179701383e-01
9182:-2.7543055663799110e-01
9183:-2.7952391875177940e-01
9184:-2.2782451062730061e-01
9185:-2.3350919148765914e-01
9186:-2.3988379346349153e-01
9187:-2.4398685101802681e-01
9188:-2.4584315410096624e-01
9189:-2.5148702880902846e-01
9190:-2.5778608413473797e-01
9191:-2.6179248631695318e-01
9192:-2.6719470282778540e-01
9193:-2.7213867695519567e-01
9194:-2.7788018588059998e-01
9195:-2.8177023297219195e-01
9196:-2.8180167601704958e-01
9197:-2.8590929947900734e-01
9198:-2.9099098462072542e-01
9199:-2.9478646819380877e-01
9200:-2.4594085605346255e-01
9201:-2.4990357685826967e-01
9202:-2.5587720936256053e-01
9203:-2.6113968824866191e-01
9204:-2.6367733416436845e-01
9205:-2.6752461931561761e-01
9206:-2.7341749222147349e-01
9207:-2.7870088812684213e-01
9208:-2.8370364865207637e-01
9209:-2.8765529580516913e-01
9210:-2.9365082919095270e-01
9211:-2.9897052266017493e-01
9212:-2.9682470819506768e-01
9213:-3.0100888415758215e-01
9214:-3.0726376495358715e-01
9215:-3.1269359274055936e-01
9216:-2.6419019266156107e-01
9217:-2.7010586790263469e-01
9218:-2.7821426091721424e-01
9219:-2.8479722315508066e-01
9220:-2.8179522856673628e-01
9221:-2.8775917430100895e-01
9222:-2.9581956814403970e-01
9223:-3.0225861225653106e-01
9224:-3.0206270736616342e-01
9225:-3.0795321508459889e-01
9226:-3.1578016179233742e-01
9227:-3.2193834733142046e-01
9228:-3.1579458752048334e-01
9229:-3.2156605214895406e-01
9230:-3.2899458301286266e-01
9231:-3.3468859884601709e-01
9232:-2.8847078223692757e-01
9233:-2.9594728825652805e-01
9234:-3.0692684855061292e-01
9235:-3.1630710117968769e-01
9236:-3.0581618306638431e-01
9237:-3.1309346042234776e-01
9238:-3.2388187773411936e-01
9239:-3.3318033387162888e-01
9240:-3.2531240509489262e-01
9241:-3.3220655302901231e-01
9242:-3.4243477459756377e-01
9243:-3.5126782113137078e-01
9244:-3.3777250773452616e-01
9245:-3.4414228601958347e-01
9246:-3.5374913439533534e-01
9247:-3.6215768204231646e-01
9248:-3.2159280879206842e-01
9249:-3.3093542846130886e-01
9250:-3.4178267617594593e-01
9251:-3.4908547350222385e-01
9252:-3.3844396491288309e-01
9253:-3.4770238037277418e-01
9254:-3.5835645460057514e-01
9255:-3.6546461230421612e-01
9256:-3.5627962178256989e-01
9257:-3.6516956564220687e-01
9258:-3.7558725441298668e-01
9259:-3.8271822307005987e-01
9260:-3.6696696609183510e-01
9261:-3.7560008141006418e-01
9262:-3.8594923464965064e-01
9263:-3.9324029253214715e-01
9264:-3.5268065925727088e-01
9265:-3.5989874694642499e-01
9266:-3.7053392050186174e-01
9267:-3.7969479841083553e-01
9268:-3.6894806643591427e-01
9269:-3.7600795807459414e-01
9270:-3.8656771558994429e-01
9271:-3.9578729355353726e-01
9272:-3.8628066487946366e-01
9273:-3.9343357914207572e-01
9274:-4.0398159297143676e-01
9275:-4.1310257949815726e-01
9276:-3.9695097475647961e-01
9277:-4.0423630211793760e-01
9278:-4.1461946354330614e-01
9279:-4.2335828517555990e-01
9280:-3.8492999116094556e-01
9281:-3.9496125950720967e-01
9282:-4.0844550024762494e-01
9283:-4.1916601320171182e-01
9284:-4.0109734669814912e-01
9285:-4.1130405431785555e-01
9286:-4.2505060726529748e-01
9287:-4.3597433740462482e-01
9288:-4.1833721948077357e-01
9289:-4.2845080418374187e-01
9290:-4.4217226967007817e-01
9291:-4.5313478237337113e-01
9292:-4.2831200745063436e-01
9293:-4.3797740881477865e-01
9294:-4.5131413070941162e-01
9295:-4.6213414746291281e-01
9296:-4.2504193412836849e-01
9297:-4.3643190821456440e-01
9298:-4.5206618774914109e-01
9299:-4.6469050833077979e-01
9300:-4.4194615108244806e-01
9301:-4.5338298796866999e-01
9302:-4.6882038891493627e-01
9303:-4.8111936174643344e-01
9304:-4.5913328925058350e-01
9305:-4.7045586889739827e-01
9306:-4.8539709379357648e-01
9307:-4.9705998341649715e-01
9308:-4.6810206313174108e-01
9309:-4.7930076637198793e-01
9310:-4.9391068622923218e-01
9311:-5.0518199221406856e-01
9312:-4.7160354195409082e-01
9313:-4.8391114901143417e-01
9314:-4.9837546218850504e-01
9315:-5.0816579061763223e-01
9316:-4.8782318858808221e-01
9317:-5.0001467048822290e-01
9318:-5.1493639123916868e-01
9319:-5.2554089600540721e-01
9320:-5.0336448876664908e-01
9321:-5.1519261428049534e-01
9322:-5.3055527292338134e-01
9323:-5.4225129447098175e-01
9324:-5.1124036732673650e-01
9325:-5.2279514107150271e-01
9326:-5.3831274996046430e-01
9327:-5.5060284442235596e-01
9328:-5.1296722795964855e-01
9329:-5.2237855124642285e-01
9330:-5.3582525207109966e-01
9331:-5.4715192729159257e-01
9332:-5.3092404623538292e-01
9333:-5.4143693055617081e-01
9334:-5.5633934642875404e-01
9335:-5.6884689873626304e-01
9336:-5.4847516438756150e-01
9337:-5.6063460937568466e-01
9338:-5.7770478577768769e-01
9339:-5.9186279896581295e-01
9340:-5.5732709842144956e-01
9341:-5.7059791011773020e-01
9342:-5.8932103905169730e-01
9343:-6.0481076389604682e-01
9344:-5.5349935821217267e-01
9345:-5.6442012283148024e-01
9346:-5.7623461287013511e-01
9347:-5.8327184230135809e-01
9348:-5.7585929791652435e-01
9349:-5.8804962080546119e-01
9350:-6.0151112303629717e-01
9351:-6.0976520970601034e-01
9352:-5.9974079542296266e-01
9353:-6.1349161322067658e-01
9354:-6.2889998579434803e-01
9355:-6.3861821341543223e-01
9356:-6.1339025269607694e-01
9357:-6.2837272269120314e-01
9358:-6.4531744259422807e-01
9359:-6.5625911576616969e-01
9360:-5.8619133043805705e-01
9361:-5.8880869763601618e-01
9362:-5.8622563590466437e-01
9363:-5.7953201261889509e-01
9364:-6.1331300146023471e-01
9365:-6.1720074687668969e-01
9366:-6.1650775812640368e-01
9367:-6.1146468284099620e-01
9368:-6.4295929645966421e-01
9369:-6.4856356616978095e-01
9370:-6.5059878863833787e-01
9371:-6.4802248766415271e-01
9372:-6.6130174706248879e-01
9373:-6.6839156754455009e-01
9374:-6.7268505849657934e-01
9375:-6.7206314902123820e-01
9376:-5.7439542245246600e-01
9377:-5.6415104863093657e-01
9378:-5.4975435511160409e-01
9379:-5.3761778560060736e-01
9380:-6.0727931030288529e-01
9381:-5.9882593864729416e-01
9382:-5.8670896560840691e-01
9383:-5.7623688166832832e-01
9384:-6.4527248381118563e-01
9385:-6.3951230312822460e-01
9386:-6.3086222289489180e-01
9387:-6.2301177156928533e-01
9388:-6.7042597353484257e-01
9389:-6.6686656411903011e-01
9390:-6.6134729996616370e-01
9391:-6.5613505000010086e-01
9392:-5.3025166906605670e-01
9393:-5.0732844608005867e-01
9394:-4.5825495237251157e-01
9395:-4.0614616662646547e-01
9396:-5.6969634312489237e-01
9397:-5.4783947385520870e-01
9398:-4.9915794447517503e-01
9399:-4.4660441428218850e-01
9400:-6.1783471411993440e-01
9401:-5.9807704453923971e-01
9402:-5.5105386087285557e-01
9403:-4.9885100212838629e-01
9404:-6.5243480542499666e-01
9405:-6.3509942780216078e-01
9406:-5.9027936653701540e-01
9407:-5.3886927108376892e-01
9408:-3.7412514204497643e-01
9409:-3.2072099860710745e-01
9410:-2.6636083116249964e-01
9411:-2.3567120885716475e-01
9412:-4.1411354630148423e-01
9413:-3.5979816809840304e-01
9414:-3.0405223722434482e-01
9415:-2.7193990338464358e-01
9416:-4.6621861492706579e-01
9417:-4.1144691352753904e-01
9418:-3.5477962130624163e-01
9419:-3.2167008687992610e-01
9420:-5.0632098090618571e-01
9421:-4.5156252599237406e-01
9422:-3.9489236763977048e-01
9423:-3.6191179493939873e-01
9424:-2.2173289727446427e-01
9425:-1.7811795115223941e-01
9426:-8.4286953626264385e-02
9427:1.4202931017079562e-02
9428:-2.5698664457811909e-01
9429:-2.0982446557154549e-01
9430:-1.0823316914989557e-01
9431:-1.6977013518251734e-03
9432:-3.0597509101694059e-01
9433:-2.5529514201268944e-01
9434:-1.4443379304994772e-01
9435:-2.7060011329926470e-02
9436:-3.4628205018576724e-01
9437:-2.9396383545502963e-01
9438:-1.7658509415404794e-01
9439:-5.0332287719556758e-02
9440:7.5568840543856111e-02
9441:2.0691939682074154e-01
9442:4.1145942389079548e-01
9443:5.9498076802953681e-01
9444:6.4549097749058551e-02
9445:2.0517840480867833e-01
9446:4.2252891363085215e-01
9447:6.1703329685557429e-01
9448:4.6241397640795698e-02
9449:2.0093529335070140e-01
9450:4.3777227065944868e-01
9451:6.4793686062997946e-01
9452:2.9139245367954092e-02
9453:1.9633260848264533e-01
9454:4.4999721106421242e-01
9455:6.7260897786361995e-01
9456:6.9707665700079302e-01
9457:7.9682728541676462e-01
9458:7.2342914244424761e-01
9459:5.0858708830824273e-01
9460:7.2539405337577623e-01
9461:8.3422526233375416e-01
9462:7.6553414391080443e-01
9463:5.4773712725719259e-01
9464:7.6460484980184029e-01
9465:8.8446603291297754e-01
9466:8.2045017204004511e-01
9467:5.9892779820028763e-01
9468:7.9534089940713859e-01
9469:9.2283137211217048e-01
9470:8.6227500939811086e-01
9471:6.3972759439438853e-01
9472:3.4727650084745193e-01
9473:1.3728386274295398e-01
9474:8.1647672821663644e-02
9475:2.0552015425816750e-01
9476:3.8262213615095592e-01
9477:1.6882009488094890e-01
9478:1.1736583956232392e-01
9479:2.5242449058213606e-01
9480:4.2983516474226241e-01
9481:2.1466525510162546e-01
9482:1.7476730445947469e-01
9483:3.2830285119539465e-01
9484:4.6949835677379714e-01
9485:2.5672872301843153e-01
9486:2.2795677121918201e-01
9487:3.9425244822469446e-01
9488:3.2465650876236074e-01
9489:5.4623051060955030e-01
9490:8.0657739760869862e-01
9491:9.8039771511366225e-01
9492:3.8001130355085061e-01
9493:6.1056071079021212e-01
9494:8.6398037904987846e-01
9495:1.0156448452015094e+00
9496:4.6813697029468082e-01
9497:7.1171361250401299e-01
9498:9.6179734258581773e-01
9499:1.0973544370991457e+00
9500:5.4152483072768010e-01
9501:7.9579650330769025e-01
9502:1.0586070259476861e+00
9503:1.2086568263747191e+00
9504:-4.8135348582956455e-01
9505:4.0707131365424358e-02
9506:4.4165665843836682e-01
9507:5.3256067948471997e-01
9508:-4.8660515643308550e-01
9509:4.9328153687062483e-02
9510:4.6308684628066810e-01
9511:5.5890596191483499e-01
9512:-4.9502640695465999e-01
9513:6.1757299857814460e-02
9514:4.9402390993830686e-01
9515:5.9710509575026693e-01
9516:-5.1385251977978241e-01
9517:6.6962115829460975e-02
9518:5.1960220472772511e-01
9519:6.3033434882786787e-01
9520:5.1025065521454227e-01
9521:4.5020172987678819e-01
9522:3.5989606043081684e-01
9523:2.8151125957648315e-01
9524:5.3737349881337904e-01
9525:4.7786370729856836e-01
9526:3.8724816347586061e-01
9527:3.0806761660221099e-01
9528:5.7711205025893664e-01
9529:5.1958835028454164e-01
9530:4.3024997266653803e-01
9531:3.5078514965581148e-01
9532:6.1196010373818943e-01
9533:5.5691704755607951e-01
9534:4.6989343471274003e-01
9535:3.9088552777443614e-01
9536:2.3749370468503747e-01
9537:1.6852489448640706e-01
9538:1.0845829404095221e-01
9539:8.4877576390306381e-02
9540:2.6349101332406738e-01
9541:1.9319137753835844e-01
9542:1.3067070145077694e-01
9543:1.0451762673357692e-01
9544:3.0553156080837784e-01
9545:2.3290982048491499e-01
9546:1.6533768534978427e-01
9547:1.3380474123259450e-01
9548:3.4521911449450421e-01
9549:2.7038805834622287e-01
9550:1.9732051537785208e-01
9551:1.5977778109619079e-01
9552:7.8868995325374114e-02
9553:5.7451560847439569e-02
9554:5.6657307090758969e-03
9555:-5.1670566376921578e-02
9556:9.6841720660591074e-02
9557:7.1568836344200040e-02
9558:1.3408038809655897e-02
9559:-4.9741161349087112e-02
9560:1.2273994647012726e-01
9561:9.0227474833196708e-02
9562:2.1343120113216044e-02
9563:-5.0598035970915181e-02
9564:1.4495299281820245e-01
9565:1.0482332876363321e-01
9566:2.5539912921408881e-02
9567:-5.4205333092404225e-02
9568:-8.7332541027540511e-02
9569:-1.4643454880011331e-01
9570:-2.0383546785395046e-01
9571:-2.3195627476500458e-01
9572:-8.8738157774844437e-02
9573:-1.5341490100154567e-01
9574:-2.1634975425719413e-01
9575:-2.4721771282940341e-01
9576:-9.4283552886293018e-02
9577:-1.6633811484837874e-01
9578:-2.3610315024703474e-01
9579:-2.7031522385628493e-01
9580:-1.0177717637147735e-01
9581:-1.7958233752862190e-01
9582:-2.5421451689690083e-01
9583:-2.9068412644654096e-01
9584:-2.4146010053877873e-01
9585:-2.5556681028290906e-01
9586:-2.6829216224657249e-01
9587:-2.7392308751372940e-01
9588:-2.5763627952488000e-01
9589:-2.7292563484421745e-01
9590:-2.8635636079987953e-01
9591:-2.9198045927033023e-01
9592:-2.8195654105980755e-01
9593:-2.9913638105116225e-01
9594:-3.1416637685450527e-01
9595:-3.2016535790972606e-01
9596:-3.0320191283793535e-01
9597:-3.2201272923551416e-01
9598:-3.3884148913928058e-01
9599:-3.4558691426005472e-01
9600:-2.7566109608090428e-01
9601:-2.7889121210174295e-01
9602:-2.8343673275708381e-01
9603:-2.8709879792416654e-01
9604:-2.9355879142194374e-01
9605:-2.9638031920552194e-01
9606:-3.0016731974895938e-01
9607:-3.0303223538606056e-01
9608:-3.2160585204281578e-01
9609:-3.2386614245829204e-01
9610:-3.2649784660862413e-01
9611:-3.2824198343710664e-01
9612:-3.4709984366396923e-01
9613:-3.4906571640787115e-01
9614:-3.5071263164754396e-01
9615:-3.5142093748586956e-01
9616:-2.8908126853147692e-01
9617:-2.9270837532574090e-01
9618:-2.9741010306205723e-01
9619:-3.0115998754715323e-01
9620:-3.0451911583204649e-01
9621:-3.0741559583121425e-01
9622:-3.1167521816513399e-01
9623:-3.1552497236115423e-01
9624:-3.2910158961385938e-01
9625:-3.3124601627342137e-01
9626:-3.3537816783175883e-01
9627:-3.3971328837497777e-01
9628:-3.5171115361363242e-01
9629:-3.5326841899177941e-01
9630:-3.5751151586079288e-01
9631:-3.6244764457988360e-01
9632:-3.0326940895082671e-01
9633:-3.0761921124202446e-01
9634:-3.1407769853209250e-01
9635:-3.1961379939510653e-01
9636:-3.1784053420356045e-01
9637:-3.2257187499619688e-01
9638:-3.2942857707329126e-01
9639:-3.3516817215707351e-01
9640:-3.4244590315247431e-01
9641:-3.4777854775278710e-01
9642:-3.5505281122743532e-01
9643:-3.6091083142987934e-01
9644:-3.6560870851365235e-01
9645:-3.7144794299778999e-01
9646:-3.7885943892821272e-01
9647:-3.8456871777026252e-01
9648:-3.2273879534542388e-01
9649:-3.2843752460320791e-01
9650:-3.3555313033230100e-01
9651:-3.4086185566865568e-01
9652:-3.3834922280728807e-01
9653:-3.4389824206540642e-01
9654:-3.5031027687110977e-01
9655:-3.5471192528346929e-01
9656:-3.6409638425727125e-01
9657:-3.6936132362632124e-01
9658:-3.7477144038237853e-01
9659:-3.7790593076845608e-01
9660:-3.8762707789936157e-01
9661:-3.9254781765074298e-01
9662:-3.9724424802362995e-01
9663:-3.9958360752676653e-01
9664:-3.4370229388470414e-01
9665:-3.4967188151841444e-01
9666:-3.5889426908242883e-01
9667:-3.6711457542374037e-01
9668:-3.5696550454755949e-01
9669:-3.6200984526462926e-01
9670:-3.7045397466642577e-01
9671:-3.7841433579597616e-01
9672:-3.7933310694559763e-01
9673:-3.8308785415340812e-01
9674:-3.9049996924836838e-01
9675:-3.9819173962333287e-01
9676:-4.0050208952046706e-01
9677:-4.0343461349227067e-01
9678:-4.1012608605518958e-01
9679:-4.1756407480124363e-01
9680:-3.7186077474448237e-01
9681:-3.8043256867717429e-01
9682:-3.9081410348163936e-01
9683:-3.9821909145858558e-01
9684:-3.8313532510989895e-01
9685:-3.9172700581646830e-01
9686:-4.0224129813866805e-01
9687:-4.0983496058227714e-01
9688:-4.0294317094046661e-01
9689:-4.1159031284784159e-01
9690:-4.2211151023183735e-01
9691:-4.2966633946719240e-01
9692:-4.2227942590588496e-01
9693:-4.3078000324243687e-01
9694:-4.4090381389880640e-01
9695:-4.4800026133072607e-01
9696:-4.0201392526030177e-01
9697:-4.0934040162401958e-01
9698:-4.1951409184039218e-01
9699:-4.2788989674130529e-01
9700:-4.1374647344141635e-01
9701:-4.2103316240707761e-01
9702:-4.3058116112452183e-01
9703:-4.3803161282202097e-01
9704:-4.3353099070279622e-01
9705:-4.4045830733321584e-01
9706:-4.4894096383948529e-01
9707:-4.5510086108449316e-01
9708:-4.5157117706014371e-01
9709:-4.5791890806573970e-01
9710:-4.6558178614004814e-01
9711:-4.7104479752938466e-01
9712:-4.3258848377280362e-01
9713:-4.4184385274063226e-01
9714:-4.5482185960997451e-01
9715:-4.6550519183718914e-01
9716:-4.4210076922133856e-01
9717:-4.5033867449412213e-01
9718:-4.6240385095665082e-01
9719:-4.7271180906349203e-01
9720:-4.5833417108897945e-01
9721:-4.6516919078208463e-01
9722:-4.7582962874280776e-01
9723:-4.8539525719625981e-01
9724:-4.7387876426060355e-01
9725:-4.7994959696856598e-01
9726:-4.8959888132188861e-01
9727:-4.9838468770308625e-01
9728:-4.7144556649701563e-01
9729:-4.8259354117040948e-01
9730:-4.9711260556898512e-01
9731:-5.0828681455745828e-01
9732:-4.7856112577807847e-01
9733:-4.8960206804667372e-01
9734:-5.0406992447132326e-01
9735:-5.1526560306878588e-01
9736:-4.9096578409509595e-01
9737:-5.0163343380321046e-01
9738:-5.1590625979444638e-01
9739:-5.2718827190823814e-01
9740:-5.0354532041746813e-01
9741:-5.1356093583272944e-01
9742:-5.2726147820455260e-01
9743:-5.3834373824526371e-01
9744:-5.1428309530579330e-01
9745:-5.2574673756891377e-01
9746:-5.4126490621385215e-01
9747:-5.5370370701339244e-01
9748:-5.2128641171530954e-01
9749:-5.3272278257483185e-01
9750:-5.4812389763917146e-01
9751:-5.6048818970808656e-01
9752:-5.3332489242834602e-01
9753:-5.4480939935769301e-01
9754:-5.5991509961804531e-01
9755:-5.7181254295731443e-01
9756:-5.4445536027330776e-01
9757:-5.5585245923769944e-01
9758:-5.7069684799332898e-01
9759:-5.8225579893166379e-01
9760:-5.6057802389281497e-01
9761:-5.7428364585319114e-01
9762:-5.9380374107344536e-01
9763:-6.1001171151694178e-01
9764:-5.6736508561869781e-01
9765:-5.8139780867979596e-01
9766:-6.0193865991849227e-01
9767:-6.1930400581630118e-01
9768:-5.7838962045756770e-01
9769:-5.9220050028855487e-01
9770:-6.1321778838083496e-01
9771:-6.3154363858397100e-01
9772:-5.8860459872978566e-01
9773:-6.0206634662905312e-01
9774:-6.2291799164433359e-01
9775:-6.4143206982093104e-01
9776:-6.1898761943621261e-01
9777:-6.3467156850741913e-01
9778:-6.5251498604188052e-01
9779:-6.6420618804495846e-01
9780:-6.2899609500652176e-01
9781:-6.4604453717693255e-01
9782:-6.6577997432891090e-01
9783:-6.7910342841607241e-01
9784:-6.4195227179750658e-01
9785:-6.6057974967246003e-01
9786:-6.8283436928692909e-01
9787:-6.9846908688078602e-01
9788:-6.5208370783647363e-01
9789:-6.7149941244756139e-01
9790:-6.9538779348740576e-01
9791:-7.1268611945786542e-01
9792:-6.6968995192957392e-01
9793:-6.7766576076753327e-01
9794:-6.8320445084539327e-01
9795:-6.8358867253782074e-01
9796:-6.8554013611462872e-01
9797:-6.9529881997153964e-01
9798:-7.0312917130225172e-01
9799:-7.0525607363127407e-01
9800:-7.0625951064487780e-01
9801:-7.1843570224348530e-01
9802:-7.2922597059169647e-01
9803:-7.3358629156619481e-01
9804:-7.2147593668526511e-01
9805:-7.3545454413367917e-01
9806:-7.4856795298983636e-01
9807:-7.5484857525282056e-01
9808:-6.8250657067065235e-01
9809:-6.8012613261480726e-01
9810:-6.7646967485230936e-01
9811:-6.7296543731102243e-01
9812:-7.0512343436506797e-01
9813:-7.0495893857672320e-01
9814:-7.0514043052046427e-01
9815:-7.0531650696378667e-01
9816:-7.3470284135501041e-01
9817:-7.3766643449589564e-01
9818:-7.4350933455858381e-01
9819:-7.4914896722963464e-01
9820:-7.5710958202949175e-01
9821:-7.6286532841773846e-01
9822:-7.7354020543910607e-01
9823:-7.8364861531124685e-01
9824:-6.7026317578999328e-01
9825:-6.5457404640908934e-01
9826:-6.1125877943088180e-01
9827:-5.6039882386242290e-01
9828:-7.0478875506540162e-01
9829:-6.9262516127409313e-01
9830:-6.5251718111891555e-01
9831:-6.0294768754883077e-01
9832:-7.5182834610722649e-01
9833:-7.4486852252983748e-01
9834:-7.0978929962310400e-01
9835:-6.6283381011792808e-01
9836:-7.8888701312735332e-01
9837:-7.8619645506150471e-01
9838:-7.5575359104197148e-01
9839:-7.1190374260933698e-01
9840:-5.2791862658329458e-01
9841:-4.7325689472065424e-01
9842:-4.1687148005547214e-01
9843:-3.8435717595372587e-01
9844:-5.7076391433145379e-01
9845:-5.1685679342561530e-01
9846:-4.6211052132717723e-01
9847:-4.3141908113494359e-01
9848:-6.3170884361062285e-01
9849:-5.8041628177239935e-01
9850:-5.3024053991299380e-01
9851:-5.0363245123826650e-01
9852:-6.8239644988385628e-01
9853:-6.3474783207796714e-01
9854:-5.9007940939757109e-01
9855:-5.6773218943696424e-01
9856:-3.6903985233101677e-01
9857:-3.1626749246086039e-01
9858:-1.9558875075257592e-01
9859:-6.4333248707448290e-02
9860:-4.1715772908855714e-01
9861:-3.6402615801363347e-01
9862:-2.3730085734510922e-01
9863:-9.6694099618805804e-02
9864:-4.9146971983613325e-01
9865:-4.3868983314390747e-01
9866:-3.0483106580246205e-01
9867:-1.5306962157711304e-01
9868:-5.5755869793149671e-01
9869:-5.0560413988669906e-01
9870:-3.6733265033127516e-01
9871:-2.0862548180810722e-01
9872:1.8733154390321877e-02
9873:1.9316568165304548e-01
9874:4.5627520083603218e-01
9875:6.8547136264830710e-01
9876:-6.9882100913263396e-03
9877:1.8034589929951711e-01
9878:4.5999228630771438e-01
9879:7.0107395105952108e-01
9880:-5.5629093100593045e-02
9881:1.4639673005386192e-01
9882:4.4574430365839007e-01
9883:7.0312283264041220e-01
9884:-1.0650511460011734e-01
9885:1.0473587331913728e-01
9886:4.1857046159465078e-01
9887:6.9071213177005364e-01
9888:8.1122670493999682e-01
9889:9.4253312134394462e-01
9890:8.8423285218434777e-01
9891:6.6235565100265903e-01
9892:8.3264128109484947e-01
9893:9.7264124685499620e-01
9894:9.2213185396173047e-01
9895:7.0446605037570975e-01
9896:8.4390462192978755e-01
9897:9.9982138913937102e-01
9898:9.6583484717226509e-01
9899:7.5661117036086034e-01
9900:8.4097140832292150e-01
9901:1.0136754682788838e+00
9902:9.9613838274575217e-01
9903:7.9289517896133177e-01
9904:4.9251949599591999e-01
9905:2.8231762117385722e-01
9906:2.5929177364601275e-01
9907:4.3039831724986166e-01
9908:5.3663156233121645e-01
9909:3.3118959815372595e-01
9910:3.1457335285382015e-01
9911:4.8882841318171694e-01
9912:5.9165143337482984e-01
9913:3.9110503430871740e-01
9914:3.7974759008444847e-01
9915:5.5649006417384417e-01
9916:6.2841304056700653e-01
9917:4.2998848101515230e-01
9918:4.2614071276986659e-01
9919:6.1315008608877863e-01
9920:5.8001575406954176e-01
9921:8.4001124070911815e-01
9922:1.1176957512827590e+00
9923:1.2889693373291329e+00
9924:6.3937257300289596e-01
9925:9.0809203498378199e-01
9926:1.2167324385985809e+00
9927:1.4305657072687448e+00
9928:7.0810267134219196e-01
9929:9.8615169908698919e-01
9930:1.3187384008541185e+00
9931:1.5559485681478467e+00
9932:7.7174473463890336e-01
9933:1.0575588834313994e+00
9934:1.3775360928363620e+00
9935:1.5776879378789344e+00
9936:-5.3157142819118197e-01
9937:6.6732275133485883e-02
9938:5.3393118249976379e-01
9939:6.4994213030021053e-01
9940:-5.7617773452809584e-01
9941:6.3504062354451538e-02
9942:5.6525871443034670e-01
9943:6.9374445498217929e-01
9944:-6.3210716231392405e-01
9945:6.6086077965162346e-02
9946:6.1726598250351206e-01
9947:7.6415382056745929e-01
9948:-6.5110196316426228e-01
9949:8.4105236990603516e-02
9950:6.6732434090218284e-01
9951:8.2719094005629412e-01
9952:6.3260204589437008e-01
9953:5.7919817824069242e-01
9954:4.9385899437045061e-01
9955:4.1534989095072239e-01
9956:6.7874538367538062e-01
9957:6.2876490081136949e-01
9958:5.4683726787516707e-01
9959:4.6958406617327642e-01
9960:7.5292069113584759e-01
9961:7.0817032046439554e-01
9962:6.3131192205268405e-01
9963:5.5654077867597307e-01
9964:8.1930596728706184e-01
9965:7.7927417172947699e-01
9966:7.0701211978347533e-01
9967:6.3502880789786675e-01
9968:3.6952782590198796e-01
9969:2.9341520801146675e-01
9970:2.1687735219117099e-01
9971:1.7545191660304596e-01
9972:4.2376063140308662e-01
9973:3.4586117882920375e-01
9974:2.6352254762201788e-01
9975:2.1510081616289325e-01
9976:5.1147188705098678e-01
9977:4.3290190007965157e-01
9978:3.4509968460817958e-01
9979:2.8870143265604559e-01
9980:5.9126325741209185e-01
9981:5.1371809657773160e-01
9982:4.2366655658571684e-01
9983:3.6226977439968477e-01
9984:1.5819015857766638e-01
9985:1.1324030764594721e-01
9986:2.7619080121951241e-02
9987:-5.6689169050330217e-02
9988:1.9329234469007242e-01
9989:1.3932746109338318e-01
9990:4.1630144673777368e-02
9991:-5.1776481120145032e-02
9992:2.6131688087812699e-01
9993:1.9611342727996789e-01
9994:8.2608144729221192e-02
9995:-2.3781919447476173e-02
9996:3.3099899075268574e-01
9997:2.5772229848598183e-01
9998:1.3208216677562964e-01
9999:1.4781167557037879e-02
10000:-1.0645891779568707e-01
10001:-1.8742596550533816e-01
10002:-2.6460427919846630e-01
10003:-3.0219516466287677e-01
10004:-1.0616465645954175e-01
10005:-1.9434295911447066e-01
10006:-2.7811388839659690e-01
10007:-3.1881888690439170e-01
10008:-8.5320543305593938e-02
10009:-1.8587423562363042e-01
10010:-2.8257595585848666e-01
10011:-3.2990859284130242e-01
10012:-5.3198339279093350e-02
10013:-1.6573242814425032e-01
10014:-2.7601578328975546e-01
10015:-3.3071296332583894e-01
10016:-3.1515021922105929e-01
10017:-3.3486545698487719e-01
10018:-3.5282424751650548e-01
10019:-3.6013542298363238e-01
10020:-3.3285423370308409e-01
10021:-3.5427380492996419e-01
10022:-3.7379457756343903e-01
10023:-3.8162899233957648e-01
10024:-3.4611837028462522e-01
10025:-3.6992022504000160e-01
10026:-3.8996893252159232e-01
10027:-3.9674029561888746e-01
10028:-3.4935193408871285e-01
10029:-3.7524579407455222e-01
10030:-3.9432407564838517e-01
10031:-3.9846437427683989e-01
10032:-3.6176830502703716e-01
10033:-3.6364962848996102e-01
10034:-3.6472752854751916e-01
10035:-3.6477181332341685e-01
10036:-3.8325602566677908e-01
10037:-3.8464803852947677e-01
10038:-3.8425611758223344e-01
10039:-3.8261989260700940e-01
10040:-3.9745787633108548e-01
10041:-3.9699856103906039e-01
10042:-3.9374998146637946e-01
10043:-3.8936126438375390e-01
10044:-3.9744961029026460e-01
10045:-3.9420602673746535e-01
10046:-3.8796971679596226e-01
10047:-3.8135743942818606e-01
10048:-3.6468424348878592e-01
10049:-3.6584445064871912e-01
10050:-3.7013381790046995e-01
10051:-3.7542865665255115e-01
10052:-3.8150768628637283e-01
10053:-3.8125983853448853e-01
10054:-3.8479396987456121e-01
10055:-3.9026330947745441e-01
10056:-3.8655880637972745e-01
10057:-3.8348787096959686e-01
10058:-3.8439327515051119e-01
10059:-3.8884734981790436e-01
10060:-3.7726997230790732e-01
10061:-3.7166842715557391e-01
10062:-3.6946138373005527e-01
10063:-3.7204397454582655e-01
10064:-3.7884429279308784e-01
10065:-3.8494972978337960e-01
10066:-3.9233846567704206e-01
10067:-3.9784892703787500e-01
10068:-3.9397755276297408e-01
10069:-4.0034654190338287e-01
10070:-4.0747816192813763e-01
10071:-4.1244314226710604e-01
10072:-3.9238790739824586e-01
10073:-3.9836532519293716e-01
10074:-4.0465548295756676e-01
10075:-4.0868656596933023e-01
10076:-3.7486377306411062e-01
10077:-3.7976319380196499e-01
10078:-3.8494233452220061e-01
10079:-3.8818157536903175e-01
10080:-4.0077059960377398e-01
10081:-4.0544401113148215e-01
10082:-4.0980992820344192e-01
10083:-4.1185676998655452e-01
10084:-4.1499656558813597e-01
10085:-4.1907118049635811e-01
10086:-4.2285044464600346e-01
10087:-4.2456800531109606e-01
10088:-4.1064964953424865e-01
10089:-4.1380746116368061e-01
10090:-4.1688283049952946e-01
10091:-4.1847676761220332e-01
10092:-3.8970465153471778e-01
10093:-3.9217792225849823e-01
10094:-3.9477343509980722e-01
10095:-3.9640426768143355e-01
10096:-4.1259903996670955e-01
10097:-4.1522198488439954e-01
10098:-4.2158302548025822e-01
10099:-4.2884151504604878e-01
10100:-4.2516432842679386e-01
10101:-4.2748431013456312e-01
10102:-4.3338677133089282e-01
10103:-4.4025468082304542e-01
10104:-4.1914412705439608e-01
10105:-4.2146114513953636e-01
10106:-4.2696823180929916e-01
10107:-4.3319393303936160e-01
10108:-3.9723688554090558e-01
10109:-3.9971011061618344e-01
10110:-4.0495373176529809e-01
10111:-4.1055000751980597e-01
10112:-4.3348568462504866e-01
10113:-4.4177982773401497e-01
10114:-4.5146830680255601e-01
10115:-4.5810595659675779e-01
10116:-4.4467116234747717e-01
10117:-4.5235242958369604e-01
10118:-4.6084976262041927e-01
10119:-4.6627792834336845e-01
10120:-4.3713769109438549e-01
10121:-4.4370529832706634e-01
10122:-4.5031468791542684e-01
10123:-4.5396636933845586e-01
10124:-4.1400019997267395e-01
10125:-4.1958311139686022e-01
10126:-4.2484766502607030e-01
10127:-4.2742494772924189e-01
10128:-4.6139729260144674e-01
10129:-4.6730666483224620e-01
10130:-4.7458515817675229e-01
10131:-4.7988504279381711e-01
10132:-4.6884680052067562e-01
10133:-4.7371830725865693e-01
10134:-4.8034831508691050e-01
10135:-4.8567929658886189e-01
10136:-4.5550805255074633e-01
10137:-4.5892987237957455e-01
10138:-4.6474217666644646e-01
10139:-4.7027580766070176e-01
10140:-4.2839046640280681e-01
10141:-4.3092839299107139e-01
10142:-4.3604032293457917e-01
10143:-4.4140679067835170e-01
10144:-4.8266652825114265e-01
10145:-4.8855025262052254e-01
10146:-4.9775354341821693e-01
10147:-5.0604570815801053e-01
10148:-4.8862852996560968e-01
10149:-4.9453375453522036e-01
10150:-5.0307279129041793e-01
10151:-5.1032665129119681e-01
10152:-4.7357685901939184e-01
10153:-4.7967099849848127e-01
10154:-4.8733292642429304e-01
10155:-4.9304657527473766e-01
10156:-4.4472875703893106e-01
10157:-4.5057549098924676e-01
10158:-4.5723707323673651e-01
10159:-4.6165288174312313e-01
10160:-5.1089762402790562e-01
10161:-5.2038270134147724e-01
10162:-5.3353374667490305e-01
10163:-5.4432257352223190e-01
10164:-5.1445889213726304e-01
10165:-5.2265785794939357e-01
10166:-5.3436211141943568e-01
10167:-5.4424509672987631e-01
10168:-4.9608102026299145e-01
10169:-5.0228420674149998e-01
10170:-5.1164530436443068e-01
10171:-5.1994544383462582e-01
10172:-4.6382559625468056e-01
10173:-4.6847583100865792e-01
10174:-4.7601013763295580e-01
10175:-4.8305733692961456e-01
10176:-5.5032653001870591e-01
10177:-5.6157394746044142e-01
10178:-5.7628580127686901e-01
10179:-5.8776190651869842e-01
10180:-5.4984940353398559e-01
10181:-5.6055957665910561e-01
10182:-5.7495358597552060e-01
10183:-5.8643746081513748e-01
10184:-5.2479477917952733e-01
10185:-5.3441455274703653e-01
10186:-5.4803610360186772e-01
10187:-5.5940515625632836e-01
10188:-4.8729131865374675e-01
10189:-4.9588857054970936e-01
10190:-5.0845302549334981e-01
10191:-5.1923405432133574e-01
10192:-5.9406128273768266e-01
10193:-6.0737445808056634e-01
10194:-6.2799484530130134e-01
10195:-6.4637886609070627e-01
10196:-5.9279750049549151e-01
10197:-6.0599002596857221e-01
10198:-6.2604435404830394e-01
10199:-6.4379445888608477e-01
10200:-5.6583157375308335e-01
10201:-5.7877023849826958e-01
10202:-5.9770289476499017e-01
10203:-6.1406155330726109e-01
10204:-5.2541133214682367e-01
10205:-5.3769326985865695e-01
10206:-5.5533402807117327e-01
10207:-5.7036951076079900e-01
10208:-6.5700795222039887e-01
10209:-6.7660517832427436e-01
10210:-7.0114190258690723e-01
10211:-7.1920307204438183e-01
10212:-6.5407203530928237e-01
10213:-6.7341475586055988e-01
10214:-6.9845037588092407e-01
10215:-7.1748575165281170e-01
10216:-6.2346836057535993e-01
10217:-6.4162192146133279e-01
10218:-6.6617351535493075e-01
10219:-6.8570922984344018e-01
10220:-5.7897558943246785e-01
10221:-5.9587172832285951e-01
10222:-6.1948513389065940e-01
10223:-6.3896663873014892e-01
10224:-7.2847093408120711e-01
10225:-7.4335154570082340e-01
10226:-7.5774004044310816e-01
10227:-7.6518000598106739e-01
10228:-7.2745726045547932e-01
10229:-7.4381337257634628e-01
10230:-7.6053880342953362e-01
10231:-7.7022254907480403e-01
10232:-6.9626013191098157e-01
10233:-7.1409480111560930e-01
10234:-7.3350965190550255e-01
10235:-7.4587082376305880e-01
10236:-6.4975322243365652e-01
10237:-6.6837531199192879e-01
10238:-6.8936704037840257e-01
10239:-7.0327215230368245e-01
10240:-7.6816208029707644e-01
10241:-7.7558710157771882e-01
10242:-7.8897807062651459e-01
10243:-8.0148364291747476e-01
10244:-7.7460383706681291e-01
10245:-7.8508909386201831e-01
10246:-8.0326807685744184e-01
10247:-8.1999415182604329e-01
10248:-7.5190169858791123e-01
10249:-7.6584909421615532e-01
10250:-7.8946219904958381e-01
10251:-8.1125419612560956e-01
10252:-7.1021973974567509e-01
10253:-7.2613559572779585e-01
10254:-7.5320626785206879e-01
10255:-7.7869237800792201e-01
10256:-8.0806347194607586e-01
10257:-8.0769605064996008e-01
10258:-7.8005071412076399e-01
10259:-7.3836230406067527e-01
10260:-8.2898024099923728e-01
10261:-8.3309978158976228e-01
10262:-8.1146309226587210e-01
10263:-7.7475741306577239e-01
10264:-8.2330423325675495e-01
10265:-8.3365918025690444e-01
10266:-8.2114696552024691e-01
10267:-7.9227325483604150e-01
10268:-7.9317304424374091e-01
10269:-8.0870810388776482e-01
10270:-8.0395831493432646e-01
10271:-7.8166782644763044e-01
10272:-7.1008336287557539e-01
10273:-6.6505385350086632e-01
10274:-6.2405265299381429e-01
10275:-6.0433671066879158e-01
10276:-7.4935012935478407e-01
10277:-7.1016126356532316e-01
10278:-6.7717503388782074e-01
10279:-6.6344137939057135e-01
10280:-7.7136318484494337e-01
10281:-7.4126236360107955e-01
10282:-7.2134192074403336e-01
10283:-7.1848267603422589e-01
10284:-7.6447423020973682e-01
10285:-7.4221772560006438e-01
10286:-7.3472728746434379e-01
10287:-7.4343958620783723e-01
10288:-5.9532964238853603e-01
10289:-5.4405686814008225e-01
10290:-4.0403572824633915e-01
10291:-2.4245651670273122e-01
10292:-6.5732544638702328e-01
10293:-6.0910654195865321e-01
10294:-4.6851034981156003e-01
10295:-3.0341756339150128e-01
10296:-7.1829218460205457e-01
10297:-6.7853817617670809e-01
10298:-5.4255617890646413e-01
10299:-3.7547811514025908e-01
10300:-7.5006863512895072e-01
10301:-7.2092035192433468e-01
10302:-5.9234740508363959e-01
10303:-4.2468941453720227e-01
10304:-1.3842780823198342e-01
10305:7.6952264595845893e-02
10306:3.9861521378217074e-01
10307:6.7988656251799429e-01
10308:-1.9653875199369328e-01
10309:2.6496101034391914e-02
10310:3.6427663308686703e-01
10311:6.6400719680730946e-01
10312:-2.6538264580625948e-01
10313:-3.1794890472792103e-02
10314:3.2826207649340694e-01
10315:6.5118759576791652e-01
10316:-3.1172674783726251e-01
10317:-6.9152105314378667e-02
10318:3.0726263074359361e-01
10319:6.4425606125430701e-01
10320:8.3631600551639917e-01
10321:1.0196551322424052e+00
10322:1.0115137651064443e+00
10323:8.1026718473230352e-01
10324:8.3240857068425422e-01
10325:1.0341089028851085e+00
10326:1.0382926036393079e+00
10327:8.3583437509359049e-01
10328:8.3339887858125383e-01
10329:1.0532106813644797e+00
10330:1.0649732290801246e+00
10331:8.5735191039835446e-01
10332:8.3360578916727224e-01
10333:1.0612278895087921e+00
10334:1.0753040574137682e+00
10335:8.6720243851176115e-01
10336:6.4482485171633297e-01
10337:4.4687040862066096e-01
10338:4.5035928801940628e-01
10339:6.4902996787745981e-01
10340:6.6634821635342423e-01
10341:4.7036761206913702e-01
10342:4.9967817250326474e-01
10343:7.3701889343156135e-01
10344:6.8284224210938227e-01
10345:4.9517076114884401e-01
10346:5.7451639774065166e-01
10347:8.8017179513649346e-01
10348:6.9334296195821732e-01
10349:5.1934822210804810e-01
10350:6.4178353827888746e-01
10351:9.9863765893515533e-01
10352:8.1560406577376510e-01
10353:1.1069570711346273e+00
10354:1.4053712965572576e+00
10355:1.5597382146172185e+00
10356:9.2928182591223729e-01
10357:1.2427302353963083e+00
10358:1.5039510143993391e+00
10359:1.5722162617749387e+00
10360:1.1166707629324819e+00
10361:1.4796311552963779e+00
10362:1.7358405024704062e+00
10363:1.7526172556375090e+00
10364:1.2672527951152748e+00
10365:1.6801901892715294e+00
10366:1.9941393982307190e+00
10367:2.0651868293714424e+00
10368:-6.4628606770776820e-01
10369:1.0227037270865788e-01
10370:6.9766640233786092e-01
10371:8.6326863259747066e-01
10372:-6.1628968179527899e-01
10373:1.4431108590662312e-01
10374:7.5396749345934988e-01
10375:9.2919293845664097e-01
10376:-5.8406686316567769e-01
10377:1.9317951270472827e-01
10378:8.2510957230648396e-01
10379:1.0154804904848909e+00
10380:-6.0775327687280789e-01
10381:2.0768412298986466e-01
10382:8.7838610266760730e-01
10383:1.0865858958335175e+00
10384:8.5735211670814260e-01
10385:8.2023913719300656e-01
10386:7.5091455264785834e-01
10387:6.8089904502165766e-01
10388:9.2789757953603647e-01
10389:8.9875801341146500e-01
10390:8.3879273799146692e-01
10391:7.7540115912312058e-01
10392:1.0210839365387978e+00
10393:1.0058649452610999e+00
10394:9.6594343327664955e-01
10395:9.1861128621933341e-01
10396:1.0971293997688758e+00
10397:1.0936391969002608e+00
10398:1.0747915915587052e+00
10399:1.0466422649538452e+00
10400:6.3815705318256088e-01
10401:5.6178046358710709e-01
10402:4.7120513012412163e-01
10403:4.0744872704898893e-01
10404:7.3595901153535526e-01
10405:6.6324840534044494e-01
10406:5.7115705230458702e-01
10407:5.0056002182978165e-01
10408:8.8745002480808677e-01
10409:8.2394593634585134e-01
10410:7.2886557736087298e-01
10411:6.4314661137303442e-01
10412:1.0259322166470444e+00
10413:9.7427496155912774e-01
10414:8.7652578362544153e-01
10415:7.7367546359058370e-01
10416:3.7416737563507635e-01
10417:2.9658525360407423e-01
10418:1.6419453207860729e-01
10419:4.0579875517923955e-02
10420:4.6149442543709784e-01
10421:3.7129403412687584e-01
10422:2.2015238162444001e-01
10423:8.1047460093617976e-02
10424:5.9131721948287519e-01
10425:4.7307295127760207e-01
10426:2.8187737404685498e-01
10427:1.1275100493055269e-01
10428:7.0728272324012864e-01
10429:5.5702951451199567e-01
10430:3.2081597779333215e-01
10431:1.1916541839714179e-01
10432:-3.1216129414203680e-02
10433:-1.5101406216014221e-01
10434:-2.6975262766236063e-01
10435:-3.2914854221743595e-01
10436:8.6646735122844650e-04
10437:-1.3326394461806443e-01
10438:-2.6688620555828141e-01
10439:-3.3405253712895688e-01
10440:1.7983478385582390e-02
10441:-1.3741484272478613e-01
10442:-2.8801298983128409e-01
10443:-3.6160422885595950e-01
10444:9.3394348084463608e-03
10445:-1.6564712064800424e-01
10446:-3.2754786895925314e-01
10447:-4.0214962234227536e-01
10448:-3.4936646755804585e-01
10449:-3.7651107619538260e-01
10450:-3.9460361238777991e-01
10451:-3.9663654167823259e-01
10452:-3.5691864690472874e-01
10453:-3.8638867659347015e-01
10454:-4.0306862938516924e-01
10455:-4.0124975217041214e-01
10456:-3.8614092368800895e-01
10457:-4.1714735624803539e-01
10458:-4.3244230636354869e-01
10459:-4.2646283842135757e-01
10460:-4.2566899345798548e-01
10461:-4.5539029083324972e-01
10462:-4.6933174873335892e-01
10463:-4.6115552711185631e-01
10464:-3.9426361356647543e-01
10465:-3.8896345452045844e-01
10466:-3.8085841440744433e-01
10467:-3.7314077869846141e-01
10468:-3.9615239294720550e-01
10469:-3.8666162101681900e-01
10470:-3.7499344292734260e-01
10471:-3.6569621287895321e-01
10472:-4.1805930850537537e-01
10473:-4.0309585600386433e-01
10474:-3.8649209207156449e-01
10475:-3.7526780079645061e-01
10476:-4.5082999677453134e-01
10477:-4.3211469306965838e-01
10478:-4.1124876555814505e-01
10479:-3.9780561701045536e-01
10480:-3.6847748723595047e-01
10481:-3.6156882263517398e-01
10482:-3.5744541240547495e-01
10483:-3.5865495363736971e-01
10484:-3.6045687107895269e-01
10485:-3.5206577173463866e-01
10486:-3.4533986896950325e-01
10487:-3.4431793829900553e-01
10488:-3.6964107197829599e-01
10489:-3.6052252419738529e-01
10490:-3.5247055898369367e-01
10491:-3.5002909993194858e-01
10492:-3.9152336403192783e-01
10493:-3.8195585221037853e-01
10494:-3.7430611956235454e-01
10495:-3.7247961152887976e-01
10496:-3.6085555937223690e-01
10497:-3.6485886679271412e-01
10498:-3.6925702616376327e-01
10499:-3.7206928724934546e-01
10500:-3.4534372683413633e-01
10501:-3.4749172448903881e-01
10502:-3.5011884504057372e-01
10503:-3.5198658690763374e-01
10504:-3.5012829856223088e-01
10505:-3.5036781964050351e-01
10506:-3.5045277190851959e-01
10507:-3.5056355730844169e-01
10508:-3.7283996458378754e-01
10509:-3.7272255159175210e-01
10510:-3.7101643238871157e-01
10511:-3.6917841919407596e-01
10512:-3.7338951561358275e-01
10513:-3.7554308789778207e-01
10514:-3.7791543898868712e-01
10515:-3.7958615471762785e-01
10516:-3.5292288590596643e-01
10517:-3.5454660638495156e-01
10518:-3.5665303486948363e-01
10519:-3.5849767206082228e-01
10520:-3.5071249098086965e-01
10521:-3.5138007895342932e-01
10522:-3.5321718048529671e-01
10523:-3.5552535242521666e-01
10524:-3.6825600751315157e-01
10525:-3.6761564065566343e-01
10526:-3.6907854530743328e-01
10527:-3.7194712140369302e-01
10528:-3.8051949833727738e-01
10529:-3.8308552339543933e-01
10530:-3.8815816849331863e-01
10531:-3.9335233481991844e-01
10532:-3.5964472276661164e-01
10533:-3.6233535704961006e-01
10534:-3.6687782874541641e-01
10535:-3.7109275990865520e-01
10536:-3.5708541868431420e-01
10537:-3.6000741118172364e-01
10538:-3.6366570234577023e-01
10539:-3.6634440408985325e-01
10540:-3.7400372924510800e-01
10541:-3.7731983034582012e-01
10542:-3.8038392222027623e-01
10543:-3.8187698380579749e-01
10544:-3.9649120844097174e-01
10545:-4.0153316507353692e-01
10546:-4.0622578927309583e-01
10547:-4.0846779745225220e-01
10548:-3.7352816973194075e-01
10549:-3.7750430330031637e-01
10550:-3.8141773801824580e-01
10551:-3.8351990907932959e-01
10552:-3.6772421591383236e-01
10553:-3.7020928675527859e-01
10554:-3.7328559938936479e-01
10555:-3.7555492687482178e-01
10556:-3.8243873905061154e-01
10557:-3.8371153788409978e-01
10558:-3.8591883673674471e-01
10559:-3.8801720640397780e-01
10560:-4.0928671093382712e-01
10561:-4.1153103750831632e-01
10562:-4.1622517389939989e-01
10563:-4.2126163071480816e-01
10564:-3.8439568935447743e-01
10565:-3.8650601153985775e-01
10566:-3.9046885606404952e-01
10567:-3.9453325438455089e-01
10568:-3.7674534793887510e-01
10569:-3.7898425534392727e-01
10570:-3.8200849395743647e-01
10571:-3.8448707192624831e-01
10572:-3.8925033697633460e-01
10573:-3.9133032699088272e-01
10574:-3.9353359614569500e-01
10575:-3.9486941757741806e-01
10576:-4.2440473930878025e-01
10577:-4.2983075904637752e-01
10578:-4.3575074795038260e-01
10579:-4.3944232745934475e-01
10580:-3.9702792764239386e-01
10581:-4.0118944888482533e-01
10582:-4.0539537135627940e-01
10583:-4.0771388849104279e-01
10584:-3.8585642517866692e-01
10585:-3.8795428164197032e-01
10586:-3.8967992320889555e-01
10587:-3.9025901095032939e-01
10588:-3.9545511790759319e-01
10589:-3.9610919122779903e-01
10590:-3.9608749777456170e-01
10591:-3.9544030295431526e-01
10592:-4.4117951287076862e-01
10593:-4.4506049020250671e-01
10594:-4.5170653388324339e-01
10595:-4.5815358998539690e-01
10596:-4.0870315089752784e-01
10597:-4.1128580886711924e-01
10598:-4.1646227105629663e-01
10599:-4.2194517034332046e-01
10600:-3.9037845698718654e-01
10601:-3.9143925699026377e-01
10602:-3.9484689767252945e-01
10603:-3.9913987197542006e-01
10604:-3.9494528690334402e-01
10605:-3.9486713903255322e-01
10606:-3.9681357845687837e-01
10607:-4.0001483459418652e-01
10608:-4.6209059552508275e-01
10609:-4.7011348648180773e-01
10610:-4.8189612429819290e-01
10611:-4.9206545712248984e-01
10612:-4.2540874447941118e-01
10613:-4.3236353681944922e-01
10614:-4.4234668213865885e-01
10615:-4.5082463036623932e-01
10616:-4.0200607372184904e-01
10617:-4.0750607722424109e-01
10618:-4.1479306889683037e-01
10619:-4.2053608727768321e-01
10620:-4.0230340320607744e-01
10621:-4.0655760291694892e-01
10622:-4.1177516149838422e-01
10623:-4.1550574447202177e-01
10624:-4.9791508549674335e-01
10625:-5.0956123856926372e-01
10626:-5.2631051842263199e-01
10627:-5.4059951867230172e-01
10628:-4.5567517124186130e-01
10629:-4.6550136592395208e-01
10630:-4.8004572653072908e-01
10631:-4.9278692105510541e-01
10632:-4.2370038560044399e-01
10633:-4.3039356263201711e-01
10634:-4.4112785229014667e-01
10635:-4.5127395467225606e-01
10636:-4.1742652713893608e-01
10637:-4.2158401227223902e-01
10638:-4.2881088523016092e-01
10639:-4.3627622086425377e-01
10640:-5.4878707646675728e-01
10641:-5.6498881121100986e-01
10642:-5.8799769346038300e-01
10643:-6.0733723799472950e-01
10644:-5.0020595285696856e-01
10645:-5.1513111793591804e-01
10646:-5.3689392926957613e-01
10647:-5.5567823754269330e-01
10648:-4.5745828193272525e-01
10649:-4.7033512685125428e-01
10650:-4.8983501332218282e-01
10651:-5.0709444320922259e-01
10652:-4.4109327103235657e-01
10653:-4.5169488805891916e-01
10654:-4.6857303169803627e-01
10655:-4.8385055117360110e-01
10656:-6.1818370617316942e-01
10657:-6.3707963051861616e-01
10658:-6.5864490620018912e-01
10659:-6.7308228052895525e-01
10660:-5.6638187433548060e-01
10661:-5.8510368552551539e-01
10662:-6.0661239594238570e-01
10663:-6.2116521086550658e-01
10664:-5.1700740428769421e-01
10665:-5.3397405734116321e-01
10666:-5.5302934153428607e-01
10667:-5.6598177408670891e-01
10668:-4.9262417089945293e-01
10669:-5.0698652456660975e-01
10670:-5.2230348869213616e-01
10671:-5.3272302137944882e-01
10672:-6.8033010186050313e-01
10673:-6.9697763662737333e-01
10674:-7.2562717793784981e-01
10675:-7.5304994600766684e-01
10676:-6.2856141228016116e-01
10677:-6.4609760240523373e-01
10678:-6.7742398691590122e-01
10679:-7.0827802442457433e-01
10680:-5.7279436368904513e-01
10681:-5.9063509117482016e-01
10682:-6.2497677741670732e-01
10683:-6.5987004219290391e-01
10684:-5.3853075907217363e-01
10685:-5.5600648803320663e-01
10686:-5.9232826734094413e-01
10687:-6.2997847847597199e-01
10688:-7.6887910679100846e-01
10689:-7.8729083848427150e-01
10690:-7.8678152984455374e-01
10691:-7.6799170736681932e-01
10692:-7.2644332380549781e-01
10693:-7.4941607958382506e-01
10694:-7.5505712980182160e-01
10695:-7.4115412838961880e-01
10696:-6.8061651231399711e-01
10697:-7.0750879120905696e-01
10698:-7.1672989352730132e-01
10699:-7.0498410210193929e-01
10700:-6.5232763703180219e-01
10701:-6.8050943738959768e-01
10702:-6.8859922411487362e-01
10703:-6.7471243762803879e-01
10704:-7.5274444358254766e-01
10705:-7.3484937596634770e-01
10706:-7.3491298263542681e-01
10707:-7.5117603007421108e-01
10708:-7.2867389352203360e-01
10709:-7.1814736562631742e-01
10710:-7.3329450716945976e-01
10711:-7.6608090016896513e-01
10712:-6.9384830291752708e-01
10713:-6.9064156679732336e-01
10714:-7.2698013209749235e-01
10715:-7.8619905636882015e-01
10716:-6.6251808923359790e-01
10717:-6.6272286516626033e-01
10718:-7.1638701718300113e-01
10719:-7.9992618194618470e-01
10720:-7.6242168054356185e-01
10721:-7.4057219439444311e-01
10722:-6.1726533275509154e-01
10723:-4.4938416282034749e-01
10724:-7.8780397969154914e-01
10725:-7.8283096514717321e-01
10726:-6.7271992758791566e-01
10727:-5.0620090665823636e-01
10728:-8.2546372254504785e-01
10729:-8.5001872526531408e-01
10730:-7.6679117343954928e-01
10731:-6.0921197005238747e-01
10732:-8.5592929801512885e-01
10733:-9.1008181061850402e-01
10734:-8.5768473339497941e-01
10735:-7.1555431447623485e-01
10736:-3.3457683241378577e-01
10737:-8.6900279803607774e-02
10738:2.9731532398800808e-01
10739:6.3955832438130034e-01
10740:-3.8864551736166680e-01
10741:-1.3341618580550241e-01
10742:2.6163476709581712e-01
10743:6.1030647231166335e-01
10744:-4.9169666927139866e-01
10745:-2.3173077682608276e-01
10746:1.7545827012729132e-01
10747:5.3561423100858052e-01
10748:-6.0266414013800174e-01
10749:-3.4355242071284076e-01
10750:7.6904143940467865e-02
10751:4.5722307309391341e-01
10752:8.3091761027370248e-01
10753:1.0602243931972595e+00
10754:1.0753469035578238e+00
10755:8.6999511405662422e-01
10756:8.0366483056808102e-01
10757:1.0347557407119385e+00
10758:1.0527297612095647e+00
10759:8.5385861272347774e-01
10760:7.3484644707842894e-01
10761:9.7091005993780854e-01
10762:9.8424547742521751e-01
10763:7.7498202839542063e-01
10764:6.6943305107857454e-01
10765:9.1568266406201038e-01
10766:9.0939653336231563e-01
10767:6.5856757012480205e-01
10768:6.9919937812765121e-01
10769:5.3544091577640485e-01
10770:6.7927536237748198e-01
10771:1.0578053667067642e+00
10772:6.8904069328682782e-01
10773:5.3917806088151876e-01
10774:7.0602595921886213e-01
10775:1.1061480353816631e+00
10776:6.0318132894912113e-01
10777:4.4722746833693811e-01
10778:6.2653322005495182e-01
10779:1.0562994460705486e+00
10780:4.5682327796087230e-01
10781:2.6683338761717068e-01
10782:4.5984202592264506e-01
10783:9.5126977507899513e-01
10784:1.3395225374734394e+00
10785:1.7811813938827878e+00
10786:2.1527877659401975e+00
10787:2.2946240902921162e+00
10788:1.4015821538110571e+00
10789:1.8871237395928069e+00
10790:2.3576876932240629e+00
10791:2.6103880916279034e+00
10792:1.3762891817610414e+00
10793:1.9231291499434653e+00
10794:2.4652667644774739e+00
10795:2.7306608541697179e+00
10796:1.3218558084229912e+00
10797:1.9437112135352186e+00
10798:2.4721615300754451e+00
10799:2.5837444136645242e+00
10800:-6.4989565254241333e-01
10801:2.0303369406364136e-01
10802:9.0753033922805426e-01
10803:1.1281655183353181e+00
10804:-7.6387174988476092e-01
10805:1.9994849131084300e-01
10806:9.8392599765806843e-01
10807:1.2210383755059824e+00
10808:-8.7364154163571839e-01
10809:2.6599382955624312e-01
10810:1.1386452199478747e+00
10811:1.3627379158528052e+00
10812:-8.3224667449915779e-01
10813:4.1967706997838189e-01
10814:1.3072574903602405e+00
10815:1.4775995233194661e+00
10816:1.1406501574025441e+00
10817:1.1429702805800548e+00
10818:1.1371799899460968e+00
10819:1.1221784399485875e+00
10820:1.2300176119225263e+00
10821:1.2355113382111189e+00
10822:1.2563372693308879e+00
10823:1.2759552029445738e+00
10824:1.3473610525838178e+00
10825:1.3367011941952649e+00
10826:1.3997238177197369e+00
10827:1.4941605354388927e+00
10828:1.4240495001064475e+00
10829:1.3818850747312694e+00
10830:1.4863576000172032e+00
10831:1.6696192103404679e+00
10832:1.1089482558672368e+00
10833:1.0660760096086428e+00
10834:9.6749709348493806e-01
10835:8.5386216960775607e-01
10836:1.2844092090425121e+00
10837:1.2710878034530153e+00
10838:1.1835803341623141e+00
10839:1.0552767837618049e+00
10840:1.5535427066139111e+00
10841:1.6151724529984899e+00
10842:1.5722322732261664e+00
10843:1.4330354422722462e+00
10844:1.7918469121331844e+00
10845:1.9474022237461457e+00
10846:1.9645324528779537e+00
10847:1.8190520784001196e+00
10848:7.7809039890026244e-01
10849:6.0715168042471990e-01
10850:3.4179087623926330e-01
10851:1.1906847002159518e-01
10852:9.6335020923462000e-01
10853:7.5566480277854930e-01
10854:4.3591138312468175e-01
10855:1.7050352570818036e-01
10856:1.3193410525111828e+00
10857:1.0631420478159290e+00
10858:6.7153819426631900e-01
10859:3.4611115330301118e-01
10860:1.6839092669168734e+00
10861:1.3839196792161310e+00
10862:9.3313219162471683e-01
10863:5.5928983350198003e-01
10864:-4.9083633451201176e-04
10865:-1.8772699882868546e-01
10866:-3.5563964130497633e-01
10867:-4.2944034994716118e-01
10868:2.9412708275113691e-02
10869:-1.8845787963337615e-01
10870:-3.7710035932535829e-01
10871:-4.5326980787893811e-01
10872:1.7223122477604935e-01
10873:-9.8917822686178158e-02
10874:-3.3363758988471087e-01
10875:-4.2214602279834057e-01
10876:3.5826384902308472e-01
10877:3.8453200711796823e-02
10878:-2.4479762484869358e-01
10879:-3.5012472994444938e-01
10880:-4.5143723839059641e-01
10881:-4.7923675106816926e-01
10882:-4.9197465582781252e-01
10883:-4.8288264608813808e-01
10884:-4.7249585629916491e-01
10885:-4.9473336012918911e-01
10886:-5.0074551605057549e-01
10887:-4.8672485222561562e-01
10888:-4.3894109190060160e-01
10889:-4.5079083056167280e-01
10890:-4.3803428131611516e-01
10891:-4.0913544837774019e-01
10892:-3.6650975102399014e-01
10893:-3.6853955866467419e-01
10894:-3.3324414665810626e-01
10895:-2.8516839233068231e-01
10896:-4.7178941080053383e-01
10897:-4.5125645522354368e-01
10898:-4.2778890261835611e-01
10899:-4.1258719011319395e-01
10900:-4.7301671430174946e-01
10901:-4.4735007539492100e-01
10902:-4.1693479985478576e-01
10903:-3.9644212070366186e-01
10904:-3.8834745324770348e-01
10905:-3.5107193963717620e-01
10906:-3.0767351656345293e-01
10907:-2.7795228614814516e-01
10908:-2.5519362008804586e-01
10909:-2.0423077788902866e-01
10910:-1.4827609191953092e-01
10911:-1.1133506427058193e-01
10912:-4.0559364362983402e-01
10913:-3.9547212276250526e-01
10914:-3.8833058415006017e-01
10915:-3.8750054973553744e-01
10916:-3.8678265349870800e-01
10917:-3.7326593269356051e-01
10918:-3.6485908567499153e-01
10919:-3.6524749837205783e-01
10920:-2.6343261806132834e-01
10921:-2.4228957972416051e-01
10922:-2.2780647273771104e-01
10923:-2.2708979725731895e-01
10924:-9.3293412151797206e-02
10925:-6.5511300197982097e-02
10926:-4.3443795023032639e-02
10927:-3.8870742569202858e-02
10928:-3.8845814855071742e-01
10929:-3.8871974781461960e-01
10930:-3.8621111157278537e-01
10931:-3.8306813656472782e-01
10932:-3.6742682518599906e-01
10933:-3.6870787209230199e-01
10934:-3.6486377578643253e-01
10935:-3.5894323593275990e-01
10936:-2.2993218499589610e-01
10937:-2.3163636131230325e-01
10938:-2.2577766536019345e-01
10939:-2.1608473859452310e-01
10940:-4.0609881574863144e-02
10941:-4.0692671919416550e-02
10942:-3.2544342790826283e-02
10943:-2.0273811687665452e-02
10944:-3.8133483769814380e-01
10945:-3.7967199115618339e-01
10946:-3.8078510847491093e-01
10947:-3.8401775055336745e-01
10948:-3.5529185416322151e-01
10949:-3.5098344294723754e-01
10950:-3.5076558112354611e-01
10951:-3.5450536140222699e-01
10952:-2.0968881969610501e-01
10953:-2.0121908832570023e-01
10954:-1.9818881659294191e-01
10955:-2.0194653565159015e-01
10956:-1.2074285429844274e-02
10957:-5.5527278807020663e-04
10958:5.1541942877072365e-03
10959:2.0988042348952544e-03
10960:-3.8642246146397435e-01
10961:-3.9007760219805171e-01
10962:-3.9293863530513812e-01
10963:-3.9386648488427362e-01
10964:-3.5762054432056894e-01
10965:-3.6215043405738889e-01
10966:-3.6507104703445387e-01
10967:-3.6528953824835098e-01
10968:-2.0580032159378264e-01
10969:-2.1146574339771981e-01
10970:-2.1493229397401559e-01
10971:-2.1475479129260683e-01
10972:-1.9152119755452375e-03
10973:-8.0064702684323908e-03
10974:-1.1841228613711376e-02
10975:-1.1579060466674113e-02
10976:-3.9402306837336204e-01
10977:-3.9463209952997463e-01
10978:-3.9618454423000710e-01
10979:-3.9791010145407757e-01
10980:-3.6484305406125184e-01
10981:-3.6426827258981798e-01
10982:-3.6420033960833603e-01
10983:-3.6458173958956958e-01
10984:-2.1379172239661373e-01
10985:-2.1186848479121276e-01
10986:-2.0932309714559583e-01
10987:-2.0723752555950312e-01
10988:-1.0375681619353493e-02
10989:-7.6218140555282445e-03
10990:-3.2726887595994026e-03
10991:7.3030087283930119e-04
10992:-3.9897680556028547e-01
10993:-4.0072555813343597e-01
10994:-4.0241191779056612e-01
10995:-4.0325579815889429e-01
10996:-3.6489786256015699e-01
10997:-3.6542929940975089e-01
10998:-3.6592798420658701e-01
10999:-3.6614118796715966e-01
11000:-2.0608304805048291e-01
11001:-2.0447085665405143e-01
11002:-2.0360435400681845e-01
11003:-2.0390166286895067e-01
11004:3.0398865179787284e-03
11005:6.1355451613649258e-03
11006:7.3207253372655750e-03
11007:5.9501971093385312e-03
11008:-4.0353980577557419e-01
11009:-4.0361296016321735e-01
11010:-4.0282350207594569e-01
11011:-4.0158560934690241e-01
11012:-3.6616717145056210e-01
11013:-3.6566104688948081e-01
11014:-3.6384591597246302e-01
11015:-3.6158230504298644e-01
11016:-2.0432113456354323e-01
11017:-2.0408115593597967e-01
11018:-2.0130953114774075e-01
11019:-1.9717802959409877e-01
11020:4.5563639251299838e-03
11021:3.8022327673774923e-03
11022:7.4300471849132969e-03
11023:1.4043127587126190e-02
11024:-4.0077467550260915e-01
11025:-4.0007023749327159e-01
11026:-4.0113588350801865e-01
11027:-4.0362148120750341e-01
11028:-3.6013313500161032e-01
11029:-3.5811194743199498e-01
11030:-3.5726025985716658e-01
11031:-3.5814428329335424e-01
11032:-1.9433340847598546e-01
11033:-1.8968504960666585e-01
11034:-1.8558730535971288e-01
11035:-1.8415998152791624e-01
11036:1.8824146693322854e-02
11037:2.6763338697631242e-02
11038:3.4127491535467951e-02
11039:3.7234544199996951e-02
11040:-4.0551825680401682e-01
11041:-4.0903418967142341e-01
11042:-4.1322433172446704e-01
11043:-4.1606043679351207e-01
11044:-3.5915719085989845e-01
11045:-3.6112802186491394e-01
11046:-3.6347847544475087e-01
11047:-3.6496345484393039e-01
11048:-1.8401260371983655e-01
11049:-1.8390148119694957e-01
11050:-1.8368682320200974e-01
11051:-1.8329704330469623e-01
11052:3.8015133973263594e-02
11053:3.9538427479114450e-02
11054:4.2143493965371627e-02
11055:4.4746980426343674e-02
11056:-4.1744177577790842e-01
11057:-4.2034502254808248e-01
11058:-4.2554960076106535e-01
11059:-4.3127493090035607e-01
11060:-3.6559249833586166e-01
11061:-3.6649438878886703e-01
11062:-3.6796665595467626e-01
11063:-3.7010577990198734e-01
11064:-1.8291873641428158e-01
11065:-1.8132216747456328e-01
11066:-1.7824816180017314e-01
11067:-1.7594299928256163e-01
11068:4.6414843869549742e-02
11069:5.0400937095828706e-02
11070:5.6584953501837440e-02
11071:6.1361408205289562e-02
11072:-4.3514289110745014e-01
11073:-4.4415561974685275e-01
11074:-4.5919655141280485e-01
11075:-4.7307246975915285e-01
11076:-3.7188223205949705e-01
11077:-3.7726144841317166e-01
11078:-3.8798416064334751e-01
11079:-3.9861644086938236e-01
11080:-1.7505192215106008e-01
11081:-1.7542679536522934e-01
11082:-1.7955981559285122e-01
11083:-1.8492709413507732e-01
11084:6.3646728908856101e-02
11085:6.6377861077757561e-02
11086:6.7324813618829416e-02
11087:6.6638407076870979e-02
11088:-4.8103545524348623e-01
11089:-4.9355673572204273e-01
11090:-5.0623040944380604e-01
11091:-5.1483602036807563e-01
11092:-4.0476619372361006e-01
11093:-4.1323609860888788e-01
11094:-4.1984310591619034e-01
11095:-4.2375028606958870e-01
11096:-1.8809622294045933e-01
11097:-1.8979824071910453e-01
11098:-1.8538185267711838e-01
11099:-1.7942244067752891e-01
11100:6.6284992831256981e-02
11101:7.1253568573162854e-02
11102:8.7410466531163550e-02
11103:1.0484250882873991e-01
11104:-5.1990112623615570e-01
11105:-5.3692610210743985e-01
11106:-5.7411133892260036e-01
11107:-6.1307449430542438e-01
11108:-4.2653394232473629e-01
11109:-4.4104723449610828e-01
11110:-4.7816845054716745e-01
11111:-5.1906038937750631e-01
11112:-1.7671086309306216e-01
11113:-1.8389888973319959e-01
11114:-2.1827151415610482e-01
11115:-2.6251496693098769e-01
11116:1.1433122494934381e-01
11117:1.1636428380378883e-01
11118:8.5277737637019888e-02
11119:3.5998442879210786e-02
11120:-6.3614105331446580e-01
11121:-6.6439209398921528e-01
11122:-6.7043891208418882e-01
11123:-6.5393877559462010e-01
11124:-5.4351738663727256e-01
11125:-5.7165131124181701e-01
11126:-5.7224012274301961e-01
11127:-5.4817515075247725e-01
11128:-2.9030474729936312e-01
11129:-3.1943492977296994e-01
11130:-3.0925386894456264e-01
11131:-2.6762532916215181e-01
11132:3.1969995584189793e-03
11133:-2.8936380738810052e-02
11134:-7.0381889428865448e-03
11135:5.6328534716981085e-02
11136:-6.4033958082985520e-01
11137:-6.4141604677570585e-01
11138:-7.0449948580702682e-01
11139:-8.0226483310994967e-01
11140:-5.2999160594460415e-01
11141:-5.2956419873308946e-01
11142:-6.0692473562682614e-01
11143:-7.2870740330378370e-01
11144:-2.3762243558946416e-01
11145:-2.2557412398705209e-01
11146:-3.1107448736573456e-01
11147:-4.5644253188502754e-01
11148:1.0171203496023444e-01
11149:1.3312866585968591e-01
11150:5.2310679908338556e-02
11151:-1.0383351908974948e-01
11152:-8.6824936724046653e-01
11153:-9.4055074001157701e-01
11154:-9.0852084695968738e-01
11155:-7.7842908205587358e-01
11156:-8.1175715905090040e-01
11157:-9.1464852068054292e-01
11158:-9.1949783044483091e-01
11159:-8.1700462970857435e-01
11160:-5.5727181843871343e-01
11161:-6.9129384803333283e-01
11162:-7.4040376545565234e-01
11163:-6.8452649506595797e-01
11164:-2.1442558132368031e-01
11165:-3.6530090282868621e-01
11166:-4.4603535405650646e-01
11167:-4.3530052785031725e-01
11168:-6.7022295223234596e-01
11169:-4.1366265522634971e-01
11170:1.6206394692255394e-02
11171:4.1344119455230133e-01
11172:-7.2318611459393434e-01
11173:-4.8211881586205352e-01
11174:-4.2940839141613070e-02
11175:3.8843153957504251e-01
11176:-6.2172449907190719e-01
11177:-4.2634059371738237e-01
11178:-6.4456076396978291e-04
11179:4.7101026903380433e-01
11180:-4.0664457089707134e-01
11181:-2.6872068736573207e-01
11182:1.2098143069565620e-01
11183:6.1394676783921354e-01
11184:6.3712722453284709e-01
11185:8.9207511256486149e-01
11186:8.6659344966539609e-01
11187:5.7597473934865517e-01
11188:6.3858022509878865e-01
11189:9.1182431943099707e-01
11190:8.3259997243519090e-01
11191:4.3541708747017743e-01
11192:7.6060101514612621e-01
11193:1.0611037063019741e+00
11194:8.9439543586923864e-01
11195:3.2256707229421067e-01
11196:9.3399993571180695e-01
11197:1.2585227885724890e+00
11198:1.0277523229274861e+00
11199:3.1922748501562287e-01
11200:3.4561458869204137e-01
11201:1.2386521118768125e-01
11202:3.3071878354280215e-01
11203:8.7964230057829729e-01
11204:1.2858801655234098e-01
11205:-1.7950889983745319e-01
11206:5.4535129243300388e-02
11207:7.3911921341322984e-01
11208:-1.1145817984080349e-01
11209:-5.8097730525850411e-01
11210:-3.6803114919103597e-01
11211:4.5339786761210715e-01
11212:-2.1775377521038150e-01
11213:-8.4507265305074530e-01
11214:-7.4446390103999394e-01
11215:6.6831210023438101e-02
11216:1.2960354910275294e+00
11217:1.9752286785458106e+00
11218:2.4699043684627147e+00
11219:2.4341472401937962e+00
11220:1.2637677433174159e+00
11221:2.0845469041157689e+00
11222:2.5891652306607087e+00
11223:2.4014823192232075e+00
11224:1.1014866194571922e+00
11225:2.1571410701304266e+00
11226:3.0289703066565745e+00
11227:3.2388722182873875e+00
11228:7.4138805712665834e-01
11229:2.0006243341722012e+00
11230:3.5991911713952782e+00
11231:4.8517393744547173e+00
11232:-7.3903209701955619e-01
11233:5.4653647916157888e-01
11234:1.4140340713175403e+00
11235:1.5400851614595454e+00
11236:-4.2025411996680928e-01
11237:7.7205773693606294e-01
11238:1.5843534029158701e+00
11239:1.6840664278287232e+00
11240:4.0439830251292275e-01
11241:1.0493009352806812e+00
11242:1.6986914893990430e+00
11243:1.8922646437996156e+00
11244:1.4711701898063281e+00
11245:1.2768417204482390e+00
11246:1.6697776836887590e+00
11247:2.0319859172725994e+00
11248:1.4603235758700954e+00
11249:1.3962247721728533e+00
11250:1.5276374037668163e+00
11251:1.7706739824505504e+00
11252:1.5879150063789123e+00
11253:1.5252713833283602e+00
11254:1.7317623870523891e+00
11255:2.0892958317833403e+00
11256:1.8628296725587778e+00
11257:1.9209156734127208e+00
11258:2.2957591571932867e+00
11259:2.8077467803225526e+00
11260:2.1349429653958403e+00
11261:2.3995895002201917e+00
11262:2.9756070453520107e+00
11263:3.6147868235443088e+00
11264:1.9355436045241867e+00
11265:2.1536854458280890e+00
11266:2.2084248380685767e+00
11267:2.0559010188882763e+00
11268:2.3308743199881214e+00
11269:2.6396083839558404e+00
11270:2.6998287389432614e+00
11271:2.4736776459299494e+00
11272:3.1383297753000297e+00
11273:3.5055795426847181e+00
11274:3.4440304022469856e+00
11275:3.0109165824230653e+00
11276:4.0050185103572238e+00
11277:4.3749246904855417e+00
11278:4.1349234418766185e+00
11279:3.4756179124114408e+00
11280:1.9049793740427441e+00
11281:1.5755177892215504e+00
11282:1.0893790177521290e+00
11283:6.8898268482477432e-01
11284:2.2615490856460791e+00
11285:1.8307939996881388e+00
11286:1.2427348557588029e+00
11287:7.8050556153883610e-01
11288:2.6637838294814098e+00
11289:2.0115521201952085e+00
11290:1.1945020570406837e+00
11291:5.8666691949020355e-01
11292:2.9935991684624823e+00
11293:2.1104760029900782e+00
11294:1.0249679053069765e+00
11295:2.1877592158162523e-01
11296:4.7343846107990284e-01
11297:1.2641795904451072e-01
11298:-1.8561269611427172e-01
11299:-3.0177549127073605e-01
11300:5.3579450037677623e-01
11301:1.4218977395672167e-01
11302:-2.0842060659125480e-01
11303:-3.3175119885028226e-01
11304:2.7198299248443358e-01
11305:-2.1070803225172527e-01
11306:-5.9516046480248264e-01
11307:-6.8778438910488204e-01
11308:-2.0016931586385217e-01
11309:-8.0911185788552931e-01
11310:-1.2238830413809203e+00
11311:-1.2520864623327523e+00
11312:-3.1840788051351981e-01
11313:-3.1479054977096521e-01
11314:-2.6507113520463133e-01
11315:-2.0411161932561275e-01
11316:-3.4338195310720954e-01
11317:-3.2591072316292313e-01
11318:-2.5294932185457236e-01
11319:-1.7103882727522904e-01
11320:-6.6744296610793918e-01
11321:-6.0453081827030331e-01
11322:-4.9695237575371859e-01
11323:-3.9547244034649126e-01
11324:-1.1750852411286679e+00
11325:-1.0370608326467718e+00
11326:-8.8686885408888094e-01
11327:-7.7604438376590901e-01
11328:-1.6776042651510267e-01
11329:-1.0746589108287738e-01
11330:-4.3626003668793510e-02
11331:-2.9142972262245271e-03
11332:-1.2276361569923101e-01
11333:-4.1055017896071584e-02
11334:4.6817857096707063e-02
11335:1.0147810637929304e-01
11336:-3.3530544980184529e-01
11337:-2.2165685991662379e-01
11338:-8.2186472172749478e-02
11339:1.0315955397377636e-02
11340:-7.1237021633465558e-01
11341:-5.7460210962208658e-01
11342:-3.7944610364207798e-01
11343:-2.3849894339564442e-01
11344:1.6707289200104565e-02
11345:4.7987968343474158e-02
11346:7.5084756849050513e-02
11347:8.3098801367512021e-02
11348:1.2671035135280798e-01
11349:1.6834957320801727e-01
11350:2.0892024658185759e-01
11351:2.2681144817537541e-01
11352:5.2499363270593992e-02
11353:1.2147124541234029e-01
11354:1.9149453170927819e-01
11355:2.2894455407129319e-01
11356:-1.7242328380276456e-01
11357:-6.6710351261033113e-02
11358:3.8278200559651435e-02
11359:9.5676541118085517e-02
11360:8.2818525379832253e-02
11361:8.4753309204285213e-02
11362:9.4683634234568964e-02
11363:1.0817070656753375e-01
11364:2.3144325683189243e-01
11365:2.4076452545888480e-01
11366:2.5706307972654646e-01
11367:2.7344159230136178e-01
11368:2.4331387000942034e-01
11369:2.6744678762120694e-01
11370:2.9543488827340880e-01
11371:3.1461619804267205e-01
11372:1.1910670227897467e-01
11373:1.5654518434634088e-01
11374:1.9331125234019020e-01
11375:2.1165998656675791e-01
11376:1.1710421109970544e-01
11377:1.3000451357536652e-01
11378:1.3721301784324061e-01
11379:1.3483163529646175e-01
11380:2.8341075403234839e-01
11381:2.9821073943102572e-01
11382:3.0790130203578353e-01
11383:3.0735421257576728e-01
11384:3.2405169319352478e-01
11385:3.3853086428935286e-01
11386:3.5088300904582881e-01
11387:3.5549837585699012e-01
11388:2.1805784078454921e-01
11389:2.2880172207142793e-01
11390:2.4289822314752210e-01
11391:2.5516118436439322e-01
11392:1.3095047174858240e-01
11393:1.2492770125838473e-01
11394:1.2105991496589434e-01
11395:1.2136490997863592e-01
11396:3.0438477962571286e-01
11397:2.9961394588799850e-01
11398:2.9663666876782535e-01
11399:2.9726590509158501e-01
11400:3.5640348743602879e-01
11401:3.5741366409752579e-01
11402:3.5834254902146279e-01
11403:3.5923621114712484e-01
11404:2.6236414417461695e-01
11405:2.7272748325565382e-01
11406:2.7947180587006448e-01
11407:2.7980408792963740e-01
11408:1.2266466526837036e-01
11409:1.2578321260204511e-01
11410:1.3094759830081892e-01
11411:1.3581335308626438e-01
11412:2.9868994904596136e-01
11413:3.0224459049316776e-01
11414:3.0831050826275047e-01
11415:3.1401171835259040e-01
11416:3.5994769245683195e-01
11417:3.6223992406061134e-01
11418:3.6684416972973044e-01
11419:3.7127950479983485e-01
11420:2.7857903354858582e-01
11421:2.7724766688595048e-01
11422:2.7743588935256530e-01
11423:2.7839492102720409e-01
11424:1.3863223225914553e-01
11425:1.4225945794101416e-01
11426:1.4314833074982625e-01
11427:1.4074276407570699e-01
11428:3.1725219061338061e-01
11429:3.2087709013572463e-01
11430:3.2015459691235570e-01
11431:3.1537379697261564e-01
11432:3.7371545662446509e-01
11433:3.7577594791111202e-01
11434:3.7351178454442580e-01
11435:3.6845673003758722e-01
11436:2.7893706945571517e-01
11437:2.7905573169788483e-01
11438:2.7853622095812158e-01
11439:2.7880895824392582e-01
11440:1.3855886738657883e-01
11441:1.3700356132576105e-01
11442:1.4126849669652006e-01
11443:1.4976397682742193e-01
11444:3.1166025386428053e-01
11445:3.0876071990165688e-01
11446:3.1464646605495594e-01
11447:3.2694028158757538e-01
11448:3.6505645358203659e-01
11449:3.6326152722484306e-01
11450:3.7094123947406493e-01
11451:3.8434488915271103e-01
11452:2.7959254215836410e-01
11453:2.8310982310056931e-01
11454:2.9082797209704075e-01
11455:2.9818786330522923e-01
11456:1.5600287152294398e-01
11457:1.6628917657660136e-01
11458:1.7567903165619134e-01
11459:1.7953137829070223e-01
11460:3.3596007378909576e-01
11461:3.5041164146934350e-01
11462:3.6282768949260419e-01
11463:3.6731089737957068e-01
11464:3.9370388332080192e-01
11465:4.0836817840253486e-01
11466:4.2089447491847137e-01
11467:4.2592958888518850e-01
11468:3.0225994400121142e-01
11469:3.0888277313311063e-01
11470:3.1662624735997957e-01
11471:3.2312701951599709e-01
11472:1.8046279012621838e-01
11473:1.8257226122469397e-01
11474:1.8664523059499216e-01
11475:1.9086535547839600e-01
11476:3.6812114139898294e-01
11477:3.7080182929395306e-01
11478:3.7725006851837523e-01
11479:3.8428342667203280e-01
11480:4.2736911780311548e-01
11481:4.3168278448327996e-01
11482:4.4035771514616573e-01
11483:4.4848325381277976e-01
11484:3.2714494398641236e-01
11485:3.3524158683135552e-01
11486:3.4499036296436658e-01
11487:3.5018078380465611e-01
11488:1.9352337291527941e-01
11489:1.9906113468408726e-01
11490:2.0667268802088945e-01
11491:2.1219435308842713e-01
11492:3.8863750310612633e-01
11493:3.9641452100874969e-01
11494:4.0551972161417688e-01
11495:4.1173639216448860e-01
11496:4.5300452004700442e-01
11497:4.6070538404052863e-01
11498:4.7093447879104089e-01
11499:4.8072419323103360e-01
11500:3.5179272603305856e-01
11501:3.5580773439335384e-01
11502:3.6782466605648800e-01
11503:3.8611562116605747e-01
11504:2.1482019666466334e-01
11505:2.1870398448673553e-01
11506:2.2218854208248545e-01
11507:2.2414762141515301e-01
11508:4.1484931704281797e-01
11509:4.2123992459674714e-01
11510:4.3014375036957658e-01
11511:4.3673986953497979e-01
11512:4.8722379700555879e-01
11513:5.0218795888284462e-01
11514:5.2259248145331549e-01
11515:5.3461326614750526e-01
11516:4.0005764643537778e-01
11517:4.2974047568094403e-01
11518:4.6510266530718963e-01
11519:4.8093046761027997e-01
11520:2.2544875037078238e-01
11521:2.3444541748743009e-01
11522:2.5805525934616691e-01
11523:2.8315433473410495e-01
11524:4.4038060917122002e-01
11525:4.5452904936479510e-01
11526:4.8884063130768740e-01
11527:5.2729704140062550e-01
11528:5.3890465546731559e-01
11529:5.5146181753646439e-01
11530:5.8511778757017985e-01
11531:6.3029348603114466e-01
11532:4.8323647593468599e-01
11533:4.8546656319500664e-01
11534:5.0080638103981334e-01
11535:5.3552918879199130e-01
11536:2.9731177501540251e-01
11537:3.0569689050014986e-01
11538:2.7666580820287495e-01
11539:2.2345557127971413e-01
11540:5.5064917124831536e-01
11541:5.7329331526225014e-01
11542:5.5274875314971006e-01
11543:4.9571016838595661e-01
11544:6.6146907353985840e-01
11545:7.0407763620086594e-01
11546:7.1290418483505047e-01
11547:6.7504575486176399e-01
11548:5.6508473547696336e-01
11549:6.2107826962644042e-01
11550:6.7432181780102851e-01
11551:6.8473252840779475e-01
11552:1.8682685243184372e-01
11553:1.5203919994607232e-01
11554:1.8161807531856852e-01
11555:2.6000349154473995e-01
11556:4.5346633157283611e-01
11557:4.1622231003586280e-01
11558:4.6162573937348589e-01
11559:5.6673882660800889e-01
11560:6.4041808315895810e-01
11561:6.1681378802402609e-01
11562:6.7729795902774681e-01
11563:7.8946452374378773e-01
11564:6.7782538720588115e-01
11565:6.8788702299986126e-01
11566:7.4806739516315746e-01
11567:8.2237269259030332e-01
11568:3.1616552662624581e-01
11569:3.6203364467876253e-01
11570:2.8788847104824949e-01
11571:1.2887885901670512e-01
11572:6.4116327808122575e-01
11573:7.0984154906881247e-01
11574:6.4751192277888325e-01
11575:4.9179161069543359e-01
11576:8.6517036095734012e-01
11577:9.3295889038178781e-01
11578:8.8666107654433923e-01
11579:7.7838806119661608e-01
11580:8.6552352224784879e-01
11581:8.9064268134336266e-01
11582:8.6077855670456882e-01
11583:8.4607539261100151e-01
11584:1.4697923543680595e-02
11585:-1.4203238709551921e-01
11586:-2.3762047010157217e-01
11587:-2.5311490120980890e-01
11588:3.8011161295655038e-01
11589:2.3376025570301673e-01
11590:1.4054128878123426e-01
11591:9.6701582326929159e-02
11592:7.0965394090114520e-01
11593:6.4935822008177357e-01
11594:6.3406269469218779e-01
11595:5.8732619747766190e-01
11596:8.5985227992920277e-01
11597:9.4699046098723605e-01
11598:1.0582337161026507e+00
11599:1.0240037480324478e+00
11600:-2.4563198139362308e-01
11601:-1.4510711776853746e-01
11602:2.1682336643747960e-01
11603:7.1668627665091722e-01
11604:7.3931806303750430e-02
11605:1.2358666498872301e-01
11606:4.5398160810110477e-01
11607:9.7077267751173679e-01
11608:5.3425017471809411e-01
11609:5.4211302251170657e-01
11610:8.6354662631869228e-01
11611:1.4085463787862982e+00
11612:9.4284031614372998e-01
11613:9.1858375986506380e-01
11614:1.2426851476667349e+00
11615:1.8097301530577998e+00
11616:1.0518982456529820e+00
11617:1.3895164593423956e+00
11618:1.1293958227063361e+00
11619:3.5505201019466898e-01
11620:1.3298925360397802e+00
11621:1.6747321545916656e+00
11622:1.3490299556866483e+00
11623:4.7921034199007068e-01
11624:1.7895118180378076e+00
11625:2.1026968757785220e+00
11626:1.6539837087137239e+00
11627:7.0135086997769502e-01
11628:2.2001992258221730e+00
11629:2.4545034866224995e+00
11630:1.8713731419147317e+00
11631:8.7287845984927637e-01
11632:-2.3268309790478767e-01
11633:-9.5111325394082091e-01
11634:-9.5585359849222351e-01
11635:-2.1666666408985452e-01
11636:-1.6938664431682451e-01
11637:-9.9100465088831091e-01
11638:-1.1789044983042340e+00
11639:-6.8885317581332772e-01
11640:3.8218793757131789e-02
11641:-7.3031185496728546e-01
11642:-9.4336861798417815e-01
11643:-7.8488245803040502e-01
11644:2.4134638627170893e-01
11645:-3.0654045155857806e-01
11646:-2.2157565108577520e-01
11647:-1.2310271010307341e-01
11648:4.2861468822029658e-01
11649:1.7866458998388863e+00
11650:3.9396516102182009e+00
11651:6.0337253767436039e+00
11652:-2.1841784430442229e-01
11653:1.0501870929979198e+00
11654:3.6915801903376586e+00
11655:6.6881701762157117e+00
11656:-6.5810514622919358e-01
11657:-1.5281698559958146e-01
11658:1.1502608775813838e+00
11659:2.7068661131004021e+00
11660:-2.2993486639348659e-01
11661:-8.5749035971289467e-01
11662:-2.7616801780751219e+00
11663:-5.2857801189633911e+00
11664:-2.3424578717260538e+01
11665:-2.9494646950305206e+01
11666:-1.5963589423788958e+01
11667:4.3758814161184378e-01
11668:-1.3060981816926381e+01
11669:-1.7678730987795685e+01
11670:-1.4920405370859179e+01
11671:-9.6493970702849676e+00
11672:-7.9905585485793358e+00
11673:-9.4137172365639099e+00
11674:-1.3068079357009903e+01
11675:-1.5642872212457529e+01
11676:-8.0142342908504069e+00
11677:-7.5633773374538116e+00
11678:-1.1472640931827442e+01
11679:-1.5270225669612499e+01
11680:8.4173665667798172e+00
11681:1.9555812365163575e+01
11682:2.6562624248983322e+01
11683:2.6252356805606173e+01
11684:-6.7310317233214105e+00
11685:-2.2295271482784189e+00
11686:1.1977746749746678e+00
11687:1.5766129713731187e+00
11688:-1.6496925348258813e+01
11689:-1.7065880512808018e+01
11690:-1.6598187568963375e+01
11691:-1.5986676315981763e+01
11692:-1.6840429536857130e+01
11693:-1.8460891456983898e+01
11694:-1.8750830079299153e+01
11695:-1.8253491666625962e+01
11696:2.4100933931408736e+01
11697:1.7056385261031121e+01
11698:5.2160171609407859e+00
11699:-3.1531470129225925e+00
11700:8.6742341121859201e-01
11701:-2.1016274087315536e+00
11702:-7.5675448224227564e+00
11703:-1.1573841610968598e+01
11704:-1.5769746219443595e+01
11705:-1.5809410485788332e+01
11706:-1.6330943960751188e+01
11707:-1.6711229731290256e+01
11708:-1.7927170185976227e+01
11709:-1.7387809885667927e+01
11710:-1.6664983839520946e+01
11711:-1.5942102414285804e+01
11712:-6.5974700877261903e+00
11713:-1.1185212223560876e+01
11714:-1.6417575588571214e+01
11715:-2.2341516127434314e+01
11716:-1.3246224654853682e+01
11717:-1.5406069047237448e+01
11718:-1.7615382567609355e+01
11719:-1.9974550914329662e+01
11720:-1.6802343445037977e+01
11721:-1.6749709331360425e+01
11722:-1.6425419234903497e+01
11723:-1.6132593356412276e+01
11724:-1.5462920595021645e+01
11725:-1.4521795336190401e+01
11726:-1.3265653788816246e+01
11727:-1.2299251278966800e+01
11728:-2.6871517977782261e+01
11729:-3.7292085011704756e+01
11730:-4.9261144112966662e+01
11731:-5.2600035409235360e+01
11732:-2.1789735668086376e+01
11733:-2.6131425521693494e+01
11734:-3.1594324972470481e+01
11735:-3.3875583332516619e+01
11736:-1.6001616701648871e+01
11737:-1.5871712677722131e+01
11738:-1.6280505040638701e+01
11739:-1.7341709527242454e+01
11740:-1.1779334275555863e+01
11741:-1.0783072500588412e+01
11742:-1.0114496698940885e+01
11743:-1.0685825884931491e+01
11744:-5.1019639255541065e+01
11745:-4.2170247793708562e+01
11746:-2.5657433627800515e+01
11747:-1.4822656458002294e+01
11748:-3.3912649920692132e+01
11749:-3.1686205265464835e+01
11750:-2.6428311745917096e+01
11751:-2.2468240529640632e+01
11752:-1.8255207482076148e+01
11753:-2.0434122665991538e+01
11754:-2.3192263557106479e+01
11755:-2.4397609077661407e+01
11756:-1.1547922353249930e+01
11757:-1.4124329824342897e+01
11758:-1.7944622794815253e+01
11759:-1.9992913661614622e+01
11760:-1.1291549579333019e+01
11761:-9.3238344616661095e+00
11762:-1.2064236447051494e+01
11763:-1.4920119513123545e+01
11764:-2.0923195691052598e+01
11765:-1.9404859059716433e+01
11766:-1.8946246486846839e+01
11767:-1.8706658090272327e+01
11768:-2.4487538825571519e+01
11769:-2.3740469900087959e+01
11770:-2.1709671666838293e+01
11771:-1.9954353475589649e+01
11772:-2.0428500826515304e+01
11773:-2.0052550079729368e+01
11774:-1.8285967437335902e+01
11775:-1.6856551337242049e+01
11776:-1.5769781857084752e+01
11777:-1.5644577296766945e+01
11778:-1.3137857491208832e+01
11779:-1.0311709506026153e+01
11780:-1.8318579935393693e+01
11781:-1.6979112156001985e+01
11782:-1.4539132700699009e+01
11783:-1.2578290315117806e+01
11784:-1.9095619824783217e+01
11785:-1.7292456117623423e+01
11786:-1.4509916360383807e+01
11787:-1.2083434452431170e+01
11788:-1.6281403339090076e+01
11789:-1.4932332606366051e+01
11790:-1.2300545888337723e+01
11791:-9.4550741078841796e+00
11792:-8.7262275608548148e+00
11793:-5.7323162849698335e+00
11794:-2.6119706600214516e+00
11795:-1.5709612028752526e+00
11796:-1.1599721135994656e+01
11797:-9.5551208530389662e+00
11798:-6.6576174354945277e+00
11799:-4.4991766876720156e+00
11800:-1.0718468013902461e+01
11801:-8.4000308120861078e+00
11802:-5.8130579894732621e+00
11803:-4.0623266299947192e+00
11804:-7.6631695783044833e+00
11805:-4.8700404245707301e+00
11806:-2.4882093271993946e+00
11807:-1.5536623649596788e+00
11808:-1.7298122632533406e+00
11809:-3.6069118364576371e+00
11810:-7.7466334297904584e+00
11811:-1.0928577444310319e+01
11812:-3.4942076124794390e+00
11813:-2.7895795939059820e+00
11814:-3.7671725493322996e+00
11815:-5.4308166591529838e+00
11816:-3.1995543901915524e+00
11817:-2.0056843263414175e+00
11818:-1.3550313410917136e+00
11819:-1.5590788073924815e+00
11820:-1.3253170252828337e+00
11821:-9.6965052542862584e-01
11822:-6.3660725319678180e-01
11823:-5.4894181937856401e-01
11824:-1.2242418877149593e+01
11825:-1.3616781008271689e+01
11826:-1.4169154800347135e+01
11827:-1.4477725056367605e+01
11828:-6.4466746430590289e+00
11829:-7.8402171636421185e+00
11830:-8.8896791028467650e+00
11831:-9.4404156424654548e+00
11832:-1.9044271439453075e+00
11833:-2.7325790898367495e+00
11834:-4.0903180668996892e+00
11835:-5.3241719659577047e+00
11836:-5.9266007834653622e-01
11837:-1.0593620540105733e+00
11838:-2.4186495349218342e+00
11839:-3.9941362960107760e+00
11840:-1.4838777995564390e+01
11841:-1.5725143428715866e+01
11842:-1.5820219592741669e+01
11843:-1.3807664483711941e+01
11844:-9.7181503282469315e+00
11845:-9.7578186066432053e+00
11846:-8.1386244660663412e+00
11847:-5.0556852071711669e+00
11848:-5.9815446786941626e+00
11849:-6.0760192092848930e+00
11850:-3.6868724250236866e+00
11851:1.0950501486023680e-01
11852:-4.9321810265748196e+00
11853:-5.4701219945240060e+00
11854:-3.5211203966325848e+00
11855:-2.7749853854703032e-02
11856:-1.1648424424317460e+01
11857:-6.0628242081281840e+00
11858:1.8847584645575135e+00
11859:6.4921403960734025e+00
11860:-2.6700488814160992e+00
11861:1.8311246628958711e+00
11862:6.4132172103007221e+00
11863:7.9981295756670399e+00
11864:2.7204351531681441e+00
11865:6.5582274759017638e+00
11866:8.8878975413070904e+00
11867:8.4880734286982289e+00
11868:2.4099653354315764e+00
11869:5.8660867159745287e+00
11870:7.7725305062793852e+00
11871:7.2780833494324950e+00
11872:7.8612125569388338e+00
11873:8.4850751973473386e+00
11874:6.9576893420280719e+00
11875:5.2415789824236496e+00
11876:7.9428111072488186e+00
11877:7.0428147374695236e+00
11878:5.2162058022651969e+00
11879:3.9407480923130036e+00
11880:7.5410998608922544e+00
11881:5.7976040303849130e+00
11882:4.0242996231849109e+00
11883:3.1760541367526405e+00
11884:6.4047014962338666e+00
11885:4.9109418971960972e+00
11886:3.5000881952152647e+00
11887:2.8210225524267112e+00
11888:4.4922850456548780e+00
11889:3.5480110856218587e+00
11890:2.8149694133082477e+00
11891:2.2830677538887549e+00
11892:3.4787358747867896e+00
11893:2.9720783521534049e+00
11894:2.6826596795878119e+00
11895:2.4728114340318950e+00
11896:2.9416598666530844e+00
11897:2.8984192959178028e+00
11898:3.4199519284594833e+00
11899:4.0874811353219132e+00
11900:2.6097485084652656e+00
11901:2.6666313556875472e+00
11902:3.5562828109847420e+00
11903:4.7634764015152520e+00
11904:1.9143287600129408e+00
11905:1.1329656141173219e+00
11906:1.5687750917396587e-01
11907:-3.8498399392069527e-01
11908:2.2904391603261920e+00
11909:1.8899946524339131e+00
11910:1.5712030694939256e+00
11911:1.7486149255915640e+00
11912:4.4553066690382161e+00
11913:4.6235283924058788e+00
11914:4.0418895947383691e+00
11915:3.2811399836647785e+00
11916:5.5040913636960394e+00
11917:6.0359431683538540e+00
11918:5.0950564242883170e+00
11919:3.3567707451830135e+00
11920:-5.6649734850959332e-01
11921:-8.5837304645399237e-01
11922:-7.1592579959780356e-01
11923:2.1980511501972508e-01
11924:2.0400432301769920e+00
11925:2.4768774042078259e+00
11926:2.6720442603203001e+00
11927:2.4895551027978806e+00
11928:2.8783892973786451e+00
11929:2.6027482999258105e+00
11930:2.8620563357033793e+00
11931:3.1622034058231994e+00
11932:2.2174735614643279e+00
11933:1.0612701460710852e+00
11934:1.3432987426445706e+00
11935:2.5571311345902465e+00
11936:-8.6626683279809438e+00
11937:-7.7145327172347722e+00
11938:-1.0519968516832476e+01
11939:-1.3522667432138363e+01
11940:-9.4302898205232548e+00
11941:-7.8393479634187964e+00
11942:-8.7251434748520520e+00
11943:-1.0240546688043439e+01
11944:-9.2362837529914081e+00
11945:-7.1194152139796829e+00
11946:-6.2351499222682349e+00
11947:-6.3829186660426211e+00
11948:-8.0908343262905031e+00
11949:-5.7584778491060788e+00
11950:-4.0599026244453444e+00
11951:-3.6166368066561776e+00
11952:-1.4793914104434545e+01
11953:-1.6078345080704867e+01
11954:-1.6274532128773398e+01
11955:-1.5899762734736035e+01
11956:-1.0932803773463391e+01
11957:-1.1563617783041151e+01
11958:-1.1567445728948414e+01
11959:-1.1407320982139940e+01
11960:-6.5644633926304792e+00
11961:-6.6818548548461658e+00
11962:-6.6488374928253888e+00
11963:-6.7563670866224710e+00
11964:-3.6142672411167971e+00
11965:-3.6356945440767903e+00
11966:-3.7831631006587689e+00
11967:-4.1170128951247298e+00
11968:-1.5684375501959533e+01
11969:-1.5341032584194782e+01
11970:-1.4763892908571931e+01
11971:-1.4007747140662406e+01
11972:-1.1388084088026375e+01
11973:-1.1400419041574208e+01
11974:-1.1132199627282681e+01
11975:-1.0403917600450898e+01
11976:-6.9243001458381999e+00
11977:-7.1980248177715991e+00
11978:-7.0739174571737218e+00
11979:-6.3120378758477651e+00
11980:-4.3900485856338074e+00
11981:-4.7200508915081638e+00
11982:-4.4920670718991822e+00
11983:-3.6174729661522513e+00
11984:-1.3446075002699025e+01
11985:-1.2309373560036509e+01
11986:-1.0880061721062107e+01
11987:-9.9703888093151125e+00
11988:-9.7633195675374083e+00
11989:-8.4246314680985144e+00
11990:-6.8622512195948904e+00
11991:-6.1342890625289748e+00
11992:-5.6121165321211750e+00
11993:-4.2331406354337133e+00
11994:-2.8349236640013848e+00
11995:-2.4404694126385365e+00
11996:-2.8829273126356116e+00
11997:-1.6286867620222247e+00
11998:-6.5109459994626417e-01
11999:-6.5310330860453936e-01
12000:-9.5802587296609119e+00
12001:-8.9242491590196220e+00
12002:-8.5802291549297927e+00
12003:-9.0549578301614027e+00
12004:-5.9886639926063463e+00
12005:-5.9293288699622027e+00
12006:-6.1347556904157923e+00
12007:-6.4429230428997073e+00
12008:-2.5512461227006762e+00
12009:-2.9563091415238758e+00
12010:-3.4355238928402425e+00
12011:-3.4645070531834099e+00
12012:-9.5883657036716574e-01
12013:-1.5470026527162939e+00
12014:-1.9428999754087948e+00
12015:-1.7168987471733033e+00
12016:-9.6753147727296653e+00
12017:-1.1535076147587890e+01
12018:-1.4312754049795014e+01
12019:-1.5817624041756796e+01
12020:-6.6567304430138936e+00
12021:-7.3286426856485036e+00
12022:-8.4228784653188615e+00
12023:-9.1136164311694454e+00
12024:-3.2995645594508098e+00
12025:-3.0490078590273275e+00
12026:-3.0515709985976529e+00
12027:-3.4131143901979075e+00
12028:-1.3714103023487023e+00
12029:-8.5624836257518999e-01
12030:-7.6659119151391142e-01
12031:-1.3201439351261128e+00
12032:-1.6145420985275599e+01
12033:-1.5859012818937300e+01
12034:-1.4579691756629041e+01
12035:-1.3647924442359194e+01
12036:-9.3255407702052846e+00
12037:-9.2077911702166819e+00
12038:-8.5084738403098061e+00
12039:-8.0007642003607575e+00
12040:-3.7258515928583904e+00
12041:-3.9285582189053883e+00
12042:-3.5087821026123001e+00
12043:-2.8410008342077600e+00
12044:-1.8356991605011563e+00
12045:-2.3771187201500941e+00
12046:-2.1267858354394447e+00
12047:-1.2546562215241257e+00
12048:-1.3336739333045395e+01
12049:-1.2433243004573827e+01
12050:-1.0200297508747536e+01
12051:-7.4474943003949434e+00
12052:-7.8445081724849883e+00
12053:-7.3813651107589386e+00
12054:-5.9892461378977444e+00
12055:-3.9975531567985354e+00
12056:-2.4337225040438444e+00
12057:-1.9042297109457174e+00
12058:-1.3846483257512749e+00
12059:-8.0300933194006108e-01
12060:-6.0839848912443517e-01
12061:1.8404539420154892e-01
12062:4.5675870775186145e-01
12063:2.7813235600843117e-01
12064:-5.6177873011661683e+00
12065:-2.7647089675918748e+00
12066:-4.9336024981112508e-01
12067:9.6500666564214230e-02
12068:-2.5767655244060044e+00
12069:-2.8167782497134097e-01
12070:1.5356787182362750e+00
12071:1.8277418493879316e+00
12072:-3.5241278455786590e-01
12073:5.2127578764064642e-01
12074:1.4092720333499162e+00
12075:1.6754612852730810e+00
12076:1.1629418729402509e-01
12077:-2.2164775762477142e-02
12078:8.9685215097523918e-02
12079:3.2425908449291396e-01
12080:2.8430490871815345e-02
12081:-1.6632537128481514e-01
12082:-3.9174927124929781e-01
12083:-5.2058294013048101e-01
12084:1.5711500256032442e+00
12085:9.2502924315964630e-01
12086:4.3857432526234044e-02
12087:-5.2441283710262254e-01
12088:1.6143393534932493e+00
12089:1.2250361543135806e+00
12090:3.3041212652314855e-01
12091:-5.4232789309342455e-01
12092:4.6903098811407518e-01
12093:5.4415665286655912e-01
12094:1.4614109199855738e-01
12095:-5.9801250196319833e-01
12096:-5.8511878490786573e-01
12097:-1.0172208827558376e+00
12098:-2.2909231378924306e+00
12099:-3.8412866055041879e+00
12100:-7.6002793228403887e-01
12101:-1.2490177712309889e+00
12102:-2.1510344577478544e+00
12103:-3.1630907266725177e+00
12104:-1.0247801819259144e+00
12105:-1.6450186965017066e+00
12106:-1.9298474211983474e+00
12107:-1.8329837445494510e+00
12108:-1.1334196280326470e+00
12109:-1.7960561888334283e+00
12110:-1.7926737657696483e+00
12111:-1.0613651471153851e+00
12112:-4.8056812110733933e+00
12113:-5.5538999501932542e+00
12114:-4.1325703016156625e+00
12115:-1.1679607146932396e+00
12116:-3.8096355376686484e+00
12117:-4.4966275031691518e+00
12118:-4.0537841634446510e+00
12119:-2.5503098579514307e+00
12120:-1.7155254720704034e+00
12121:-1.7331775145946577e+00
12122:-2.1445577003186114e+00
12123:-2.6218597895900744e+00
12124:-4.4974937802431586e-01
12125:1.5592230404750143e-01
12126:-3.0523655848429149e-01
12127:-1.6067573159746109e+00
12128:9.7858274821605762e-01
12129:4.1339794605228857e+00
12130:6.1238801530742508e+00
12131:6.0058443943247459e+00
12132:-1.3526133402787213e+00
12133:6.5119875817280160e-01
12134:2.4650473965637798e+00
12135:3.1389681013483735e+00
12136:-2.8670127102502159e+00
12137:-2.8168261371057000e+00
12138:-1.7922783221040772e+00
12139:-3.9717527047955348e-01
12140:-2.5640104640638524e+00
12141:-3.6298155049457201e+00
12142:-3.3906591924155274e+00
12143:-2.0087008516356137e+00
12144:5.4145926492923850e+00
12145:4.3411808275826624e+00
12146:3.2200275151646278e+00
12147:2.5712170270200496e+00
12148:3.2319394162290478e+00
12149:3.1977285141257683e+00
12150:2.8257970777490145e+00
12151:2.3061102352210932e+00
12152:4.8830473103173672e-01
12153:1.7155791329737793e+00
12154:2.3470734322531648e+00
12155:2.1076019082811652e+00
12156:-9.2190233582442460e-01
12157:6.9376919593814967e-01
12158:1.7469812924915169e+00
12159:1.7434278409496573e+00
12160:2.3161100286036587e+00
12161:2.2983529032772019e+00
12162:3.1753496949710485e+00
12163:4.4789944541327387e+00
12164:1.9772640576834508e+00
12165:1.7413741359585320e+00
12166:2.2849359126624278e+00
12167:3.3590333078465111e+00
12168:1.7609000180711760e+00
12169:1.2796541498009650e+00
12170:1.1613585511665017e+00
12171:1.5144587407010868e+00
12172:1.4803240754040949e+00
12173:9.8828322371982247e-01
12174:5.1715093298497239e-01
12175:3.4704367404235897e-01
12176:5.3134953970117698e+00
12177:5.9692384107394583e+00
12178:4.9847550508290084e+00
12179:2.9885288974943092e+00
12180:4.1036589060795903e+00
12181:4.7277992251457874e+00
12182:3.8630786541147986e+00
12183:1.9717801460591640e+00
12184:1.8403078225828153e+00
12185:2.0915556738349323e+00
12186:1.5544970683959498e+00
12187:4.5406410113784784e-01
12188:3.2994821182937895e-01
12189:2.3592772459657099e-01
12190:-8.9574118490170426e-02
12191:-5.2879179799662290e-01
12192:1.6281271472665884e+00
12193:1.7965304744733315e-01
12194:4.7635066036059714e-01
12195:2.0916338637323086e+00
12196:6.3893542776189249e-01
12197:-8.2078914657912116e-01
12198:-4.9576871861826061e-01
12199:1.3238601900362039e+00
12200:-3.2719337607731247e-01
12201:-1.1550664003550271e+00
12202:-7.9624419983690098e-01
12203:5.6244144790435657e-01
12204:-8.1688907005244871e-01
12205:-1.0531107370886270e+00
12206:-6.7733335926959670e-01
12207:1.3649368804884299e-01
12208:-7.1397399958824144e+00
12209:-4.7494627097431286e+00
12210:-2.8007835496827425e+00
12211:-2.2016612169494016e+00
12212:-5.4126304490721395e+00
12213:-3.0144778182943726e+00
12214:-8.2272557508215061e-01
12215:-7.0150635289339958e-02
12216:-3.2303642121693228e+00
12217:-1.2907133376886741e+00
12218:6.7568847648623520e-01
12219:1.4604070170924397e+00
12220:-1.4029691955805743e+00
12221:-4.6001253445534368e-01
12222:7.8662160450734520e-01
12223:1.5399855519016457e+00
12224:-2.1744289024335250e+00
12225:-2.2490838933165076e+00
12226:-2.5664949407774635e+00
12227:-3.0313078180242492e+00
12228:-3.0245135253388868e-02
12229:-2.1157451917209155e-01
12230:-7.9970883839721385e-01
12231:-1.4707333043184372e+00
12232:1.5587109871666798e+00
12233:1.3997323878914252e+00
12234:6.9374273981432222e-01
12235:-1.3207711396106428e-01
12236:1.8051140994744848e+00
12237:1.9256539990863228e+00
12238:1.4097209954657466e+00
12239:5.7116294192402717e-01
12240:-3.3498157306088165e+00
12241:-3.6646962625909123e+00
12242:-3.3078879873769571e+00
12243:-2.3358339837255979e+00
12244:-1.8637981827953016e+00
12245:-2.1460718068874236e+00
12246:-1.5330796770705897e+00
12247:-3.2673750331580959e-01
12248:-6.0921537771819279e-01
12249:-9.2020980691167464e-01
12250:-1.5137024303987676e-01
12251:1.2475044410398148e+00
12252:2.9308997391095808e-02
12253:-4.2312009430929876e-01
12254:1.5817551889658124e-01
12255:1.4259500426540899e+00
12256:-1.5792860042518198e+00
12257:-4.3258553364787528e-01
12258:2.2596816175438611e-01
12259:-4.3295091956347828e-02
12260:5.2137467301218410e-01
12261:1.5855643488713207e+00
12262:1.7929402475963387e+00
12263:1.0828919563756632e+00
12264:2.1948313884268722e+00
12265:3.2970503967903637e+00
12266:3.3392410166233804e+00
12267:2.4284023632601763e+00
12268:2.3180261179724648e+00
12269:3.4439477482637688e+00
12270:3.7426935038995319e+00
12271:3.1622070859851346e+00
12272:-4.6199390944469260e-01
12273:-1.1114974061023846e+00
12274:-1.3935539399325967e+00
12275:-1.0355986835012454e+00
12276:4.5316063463296613e-01
12277:-3.6684889553168804e-01
12278:-5.7185077501480108e-01
12279:-7.9561212611397703e-02
12280:1.6939660144518360e+00
12281:7.3904159641294087e-01
12282:4.0155757760016147e-01
12283:7.4966340200454884e-01
12284:2.6259566190354411e+00
12285:1.8331608256076783e+00
12286:1.2964582937034863e+00
12287:1.2224536695940962e+00
12288:-6.3644950960385238e-01
12289:-1.1962198896124766e-01
12290:-1.8216205030061522e-01
12291:-9.2625706049103107e-01
12292:3.7164035441722093e-01
12293:8.8930353632092529e-01
12294:7.2398788383008184e-01
12295:-9.5992596319345785e-02
12296:1.0953330361206157e+00
12297:1.5031082507429698e+00
12298:1.4824581461302773e+00
12299:1.0680420893420093e+00
12300:1.2792824421997779e+00
12301:1.3766133462970593e+00
12302:1.5099793713862848e+00
12303:1.6724944285353183e+00
12304:-1.5555853295800122e+00
12305:-2.2900856454392469e+00
12306:-2.1974639170007437e+00
12307:-1.3319672481264968e+00
12308:-7.4964332599487016e-01
12309:-1.6216720196017762e+00
12310:-1.8762981059481791e+00
12311:-1.3689548356599222e+00
12312:7.3122472038649977e-01
12313:2.0695067974589601e-01
12314:-2.2273823224675621e-01
12315:-3.7790655952768271e-01
12316:1.7915517542880517e+00
12317:1.9728290539131077e+00
12318:1.9475395657346299e+00
12319:1.5881234915756834e+00
12320:-6.3973628830819684e-01
12321:2.6473002624847658e-01
12322:6.0424252517777810e-01
12323:3.1333796999982211e-01
12324:-8.7580716911601930e-01
12325:-1.3277924294913665e-01
12326:3.1450311664345998e-01
12327:2.2164335068997967e-01
12328:-4.0347283622980273e-01
12329:-3.3173746805463455e-01
12330:-3.0449413989569230e-02
12331:3.3223868041107463e-01
12332:1.2577910394758405e+00
12333:7.5964116028046158e-01
12334:5.8101414586485534e-01
12335:9.3833813158977342e-01
12336:9.5017299966533922e-03
12337:-4.5112626906209707e-01
12338:-6.9850911170860852e-01
12339:-5.6105707054468101e-01
12340:1.6494752607861186e-02
12341:-4.6030996843540911e-01
12342:-9.7940593777475549e-01
12343:-1.0819369320370644e+00
12344:5.4469495328178708e-01
12345:6.6749765732214394e-01
12346:4.4453732569356325e-01
12347:1.7907545453719054e-01
12348:1.3124922954805383e+00
12349:1.8625533175242799e+00
12350:2.1693930517677225e+00
12351:2.0854033711000945e+00
12352:-3.7009886063517461e-01
12353:-7.7169531770493099e-02
12354:-9.9985088882936016e-02
12355:-6.2218797558276961e-01
12356:-9.7535780884377754e-01
12357:-6.0238813812670855e-01
12358:-2.0347285094064360e-01
12359:-3.1822062429055337e-01
12360:7.5740839527237078e-02
12361:1.8405516992791099e-01
12362:5.9657579204031619e-01
12363:7.9471068387757093e-01
12364:1.9465862690234073e+00
12365:1.8443454721505381e+00
12366:1.9623427255915005e+00
12367:2.1297327008707714e+00
12368:-1.0997359258989807e+00
12369:-1.7394771760151053e+00
12370:-1.7302675551034965e+00
12371:-8.9281578002848216e-01
12372:-6.0487951880969903e-01
12373:-1.1240078949419179e+00
12374:-1.2928551920354028e+00
12375:-7.0150372453775200e-01
12376:7.6474521281323482e-01
12377:4.5352714768977198e-01
12378:-7.7441452301255834e-02
12379:-2.5262573422672391e-01
12380:2.1974333066039726e+00
12381:2.0184150490409474e+00
12382:1.3166065149842920e+00
12383:5.8463837373377214e-01
12384:-1.5935924241323121e-01
12385:7.0463126927470809e-01
12386:4.9439125600646694e-01
12387:-7.8981877519164811e-01
12388:-8.0533723742303248e-02
12389:8.7496804547262541e-01
12390:1.2585640570577774e+00
12391:6.4060152475386956e-01
12392:-1.6900607410528520e-01
12393:3.3539245542269797e-01
12394:1.3327849208269666e+00
12395:2.0563006313492900e+00
12396:2.0796990735326196e-01
12397:1.3600611661107043e-01
12398:1.1761562420908369e+00
12399:2.6338039712864658e+00
12400:-1.8267959615380809e+00
12401:-3.1364677657678142e+00
12402:-3.2997396609869081e+00
12403:-2.2170666447449148e+00
12404:-3.6064100202327254e-02
12405:-1.1233260709758459e+00
12406:-1.8443744594123754e+00
12407:-1.7197576547568461e+00
12408:2.3212680767505298e+00
12409:2.2306134761181751e+00
12410:1.1424942040871340e+00
12411:-2.1183101936640553e-01
12412:3.5169940888520101e+00
12413:4.1699939877491516e+00
12414:3.0405983260698317e+00
12415:8.6386937745850412e-01
12416:-1.2629666055401869e+00
12417:2.0577411384777125e-01
12418:1.2511457801622086e+00
12419:1.3606285658221120e+00
12420:-1.3999032833393783e+00
12421:-8.0267371589791814e-01
12422:-2.0488527342297574e-01
12423:4.9671441516929350e-02
12424:-1.0194010571305594e+00
12425:-2.0586903278605213e+00
12426:-2.4687920710648159e+00
12427:-2.1585876680444271e+00
12428:-6.2660132466386498e-01
12429:-2.6951870692610762e+00
12430:-3.8107443097955818e+00
12431:-3.5567839717262237e+00
12432:1.1870753857222043e+00
12433:7.9473701023880017e-01
12434:2.8757681461019108e-01
12435:-4.4280213861189223e-02
12436:9.6252893299949530e-02
12437:4.3185777314220006e-02
12438:-2.4685892861574019e-01
12439:-5.9596152789804546e-01
12440:-1.8264132653537091e+00
12441:-1.3579101280977899e+00
12442:-1.1017427706434177e+00
12443:-1.1401788031773765e+00
12444:-3.0988282504085638e+00
12445:-2.3653977425848316e+00
12446:-1.7572584876725346e+00
12447:-1.5176209185259093e+00
12448:-1.8765174499088638e-01
12449:-4.2336970699337778e-01
12450:-6.9384718365749187e-01
12451:-8.9099799219193165e-01
12452:-8.0701486201233574e-01
12453:-1.1033528898953164e+00
12454:-1.2613003320855722e+00
12455:-1.2029034699762196e+00
12456:-1.2231840899342352e+00
12457:-1.3111795578104359e+00
12458:-1.2524472195138430e+00
12459:-1.0708241776184757e+00
12460:-1.4500722831170152e+00
12461:-1.2847865040304145e+00
12462:-9.9067939902643731e-01
12463:-7.2947059855956831e-01
12464:-9.8805320962884147e-01
12465:-9.8900584153971083e-01
12466:-6.1383370035328566e-01
12467:-5.0569159848135932e-02
12468:-1.1105853860327530e+00
12469:-8.9356619740448451e-01
12470:-5.7575553173963745e-01
12471:-3.3881983807816468e-01
12472:-9.3072108097845851e-01
12473:-7.0237194532983005e-01
12474:-5.3047724037081367e-01
12475:-5.2654550410620593e-01
12476:-5.8913388462979421e-01
12477:-4.1004583092579205e-01
12478:-3.6271382271883845e-01
12479:-4.7310030065107206e-01
12480:-2.8720927318601708e-01
12481:-2.0149031127282144e-01
12482:4.2717674895326857e-01
12483:1.1705631357216275e+00
12484:2.1971790245207283e+00
12485:1.7635605375938890e-01
12486:-6.5632315021038856e-01
12487:9.9909335861006018e-02
12488:5.1656755371230458e+00
12489:6.8109285275407749e-01
12490:-2.0268185422204339e+00
12491:-1.4588471845556119e+00
12492:6.2139755106391021e+00
12493:1.2374485160708857e+00
12494:-2.3153295880792064e+00
12495:-2.3032923783641714e+00
12496:1.5977630816899568e+00
12497:2.0043303474952512e+00
12498:1.7178588370596353e+00
12499:9.1291462321850469e-01
12500:9.3116519496892225e-01
12501:2.0542911231769443e+00
12502:2.3723890274210961e+00
12503:1.7069309409550224e+00
12504:-2.6776920029617701e-01
12505:1.6216329252807791e+00
12506:2.8041160461930494e+00
12507:2.5692636157896565e+00
12508:-1.3010521524482823e+00
12509:5.6805700011344828e-01
12510:2.2316563419584687e+00
12511:2.6094051537722929e+00
12512:3.3192689513810830e-01
12513:-2.5852575840603648e-01
12514:6.3289757102077029e-02
12515:1.1042092971722350e+00
12516:1.0676270776103398e+00
12517:1.5448786207504703e-01
12518:-2.6943667346034006e-01
12519:2.4641952555277836e-02
12520:2.0312294707960690e+00
12521:8.8325093550690548e-01
12522:-5.8780049276866220e-01
12523:-1.5531316489736084e+00
12524:2.4191279100286911e+00
12525:1.5157198111372507e+00
12526:-4.1544096784008994e-01
12527:-2.2354682793164331e+00
12528:1.8841862190572374e+00
12529:2.9789869662624260e+00
12530:3.5555232092485562e+00
12531:3.3739848977208107e+00
12532:3.9390890328045380e-01
12533:1.1990031223221433e+00
12534:2.3263909281465702e+00
12535:3.1762331304395484e+00
12536:-1.9385797599773291e+00
12537:-1.8602402388459516e+00
12538:-2.5742163159694492e-01
12539:1.9601409409424086e+00
12540:-3.1947702739789778e+00
12541:-3.8118994732211275e+00
12542:-2.2639556221537749e+00
12543:5.5040077407496357e-01
12544:3.0840270739064519e+00
12545:2.5339927222519005e+00
12546:1.8936059403506746e+00
12547:1.4766102967388155e+00
12548:3.5801925045583967e+00
12549:3.8411509396410639e+00
12550:3.2475900246672058e+00
12551:2.1850548712614044e+00
12552:3.3646770558233388e+00
12553:4.9510169976858851e+00
12554:4.8477508451330564e+00
12555:3.2647454088611774e+00
12556:2.4670061997920856e+00
12557:4.8632556312972897e+00
12558:5.3806300997983616e+00
12559:3.9087278454820247e+00
12560:1.2894086612396858e+00
12561:1.1054317917947620e+00
12562:1.2831582251767251e+00
12563:1.8012949250089756e+00
12564:1.4752353940815515e+00
12565:6.4234777947140254e-01
12566:7.4311744597021512e-01
12567:1.7787321913076179e+00
12568:2.0192442460842783e+00
12569:4.8394789779385738e-01
12570:3.5677330968431720e-01
12571:1.6865865141901997e+00
12572:2.6000079662008710e+00
12573:9.6873025298735715e-01
12574:7.3886110860492737e-01
12575:1.9401667899436039e+00
12576:2.2141113459310815e+00
12577:2.9172896648778721e+00
12578:3.3697986170086334e+00
12579:3.1323552588207568e+00
12580:2.6497947773815302e+00
12581:4.2113717019937305e+00
12582:5.6159214347373396e+00
12583:5.8948259167722279e+00
12584:2.8502752382278720e+00
12585:4.9782641133166372e+00
12586:7.2007046663728058e+00
12587:8.2489811798688706e+00
12588:2.9989969488393626e+00
12589:4.9025323909339305e+00
12590:7.0289719226927847e+00
12591:8.3694916661146959e+00
12592:2.7579978028204701e+00
12593:2.0335255752263648e+00
12594:1.4442327340246450e+00
12595:1.5334265656742527e+00
12596:5.6852115163309946e+00
12597:4.8884157063280949e+00
12598:3.5943421684597134e+00
12599:2.8285369543333405e+00
12600:8.4949401028105740e+00
12601:8.1382780002570296e+00
12602:6.4340254162620836e+00
12603:4.5415615483473291e+00
12604:8.9434044544384736e+00
12605:9.1796908442874123e+00
12606:7.8359421945875356e+00
12607:5.6435212804092716e+00
12608:1.8255097038899633e+00
12609:2.4287098623423753e+00
12610:3.0375057308892504e+00
12611:3.1944706964354790e+00
12612:2.6276118910593351e+00
12613:2.7633480259013359e+00
12614:3.5202180623330541e+00
12615:4.1532895680762065e+00
12616:3.4873406729407281e+00
12617:2.4472312842002615e+00
12618:2.6614186107791680e+00
12619:3.6105995455125894e+00
12620:4.1763262336089086e+00
12621:2.3246438039387396e+00
12622:1.7240836518236800e+00
12623:2.4295538905217176e+00
12624:3.1342597502228688e+00
12625:3.0014099487943238e+00
12626:2.9086751012196377e+00
12627:2.9544152280625808e+00
12628:4.3901545004886913e+00
12629:4.4980202432881704e+00
12630:4.2871243192875843e+00
12631:4.1478366743758919e+00
12632:4.2319735476268576e+00
12633:4.8500427294784592e+00
12634:4.8691730504734094e+00
12635:4.6670608963033819e+00
12636:3.0971069384673497e+00
12637:3.8959594267231963e+00
12638:4.1680618787163057e+00
12639:4.0727837540822236e+00
12640:3.0169374520839183e+00
12641:2.8841650643118459e+00
12642:2.1816663675686838e+00
12643:1.2646363640767300e+00
12644:4.1487415606413913e+00
12645:4.0200268809194721e+00
12646:3.3320221003744224e+00
12647:2.2284657553298661e+00
12648:4.5877902081311479e+00
12649:4.4070170977649852e+00
12650:3.7392335593934751e+00
12651:2.5926795699486429e+00
12652:3.9969971048693975e+00
12653:3.8136221227721117e+00
12654:3.1639065708004543e+00
12655:2.0626109873411966e+00
12656:6.9644205937417647e-01
12657:2.9810250298543323e-01
12658:1.1305462209594686e+00
12659:2.6912739771986867e+00
12660:1.4404875714981380e+00
12661:5.4909541939849837e-01
12662:8.0443631147012051e-01
12663:2.1421520836199854e+00
12664:1.7164545428124351e+00
12665:3.9956116007529757e-01
12666:-2.4111242111746947e-01
12667:3.2272581053183563e-01
12668:1.2117242443866274e+00
12669:-2.8464849282266036e-01
12670:-1.5502720478931793e+00
12671:-1.6721038115750049e+00
12672:3.7341139331359510e+00
12673:4.6162254903525186e+00
12674:3.5452747022533844e+00
12675:1.1897379468229794e+00
12676:3.1861091947455962e+00
12677:4.1974925991606007e+00
12678:3.4102641902217692e+00
12679:1.2629444055889247e+00
12680:9.9678076289431827e-01
12681:1.8110627649399602e+00
12682:1.6483099640991439e+00
12683:4.9892761615545433e-01
12684:-1.3808048513989772e+00
12685:-8.0694067652506751e-01
12686:-3.9147600552463357e-01
12687:-5.4746489885799177e-01
12688:-4.7540910074173226e-01
12689:-2.8274721520443924e+00
12690:-4.1744407113181836e+00
12691:-3.9825888205408817e+00
12692:-3.2367068092207918e-01
12693:-2.6207063911918542e+00
12694:-4.0383282396348594e+00
12695:-3.9723423648041702e+00
12696:-4.4653178817275935e-01
12697:-1.8790776254024488e+00
12698:-2.8499234995379443e+00
12699:-2.8826681642597944e+00
12700:-8.3694389812877334e-01
12701:-1.3464979369851386e+00
12702:-1.7368046799384143e+00
12703:-1.7230747509882092e+00
12704:-3.5173654567846238e+00
12705:-2.7475806928221451e+00
12706:-2.0549517937670410e+00
12707:-1.7186854418982327e+00
12708:-3.5852753134833861e+00
12709:-2.9143007588208674e+00
12710:-2.2547566040736835e+00
12711:-1.8801059106435161e+00
12712:-2.6657477985488613e+00
12713:-2.2518442441448001e+00
12714:-1.8029094551580882e+00
12715:-1.5416234965150111e+00
12716:-1.5867847027137076e+00
12717:-1.2892792026666500e+00
12718:-9.4737638209832287e-01
12719:-7.9602803375387110e-01
12720:-1.5879514185120991e+00
12721:-1.2976011736220212e+00
12722:-8.5704162592669175e-01
12723:-5.2022576857569969e-01
12724:-1.7089851562879796e+00
12725:-1.3100625908750034e+00
12726:-6.8930084714750339e-01
12727:-2.0780865671603752e-01
12728:-1.4262090131982872e+00
12729:-1.1024050853616847e+00
12730:-4.9026376974971864e-01
12731:7.6372456074424472e-02
12732:-7.6580275853882829e-01
12733:-6.2849937976234649e-01
12734:-2.3791782299073658e-01
12735:2.3637592745760316e-01
12736:-3.5963374682483473e-01
12737:-1.8277446367923719e-01
12738:-1.9148565658658270e-01
12739:-3.6240121360677352e-01
12740:2.2372657418799236e-02
12741:2.6052902850166709e-01
12742:2.1725176785167263e-01
12743:-3.8902841928032728e-02
12744:3.8521567913972449e-01
12745:7.3241178156440667e-01
12746:7.3550167677307055e-01
12747:4.4280782368665234e-01
12748:5.3825907468845979e-01
12749:9.0827373804259603e-01
12750:9.6891781829770074e-01
12751:7.1319700017564269e-01
12752:6.0267491269172764e+00
12753:1.6393425467642460e+00
12754:-1.9704777111440388e+00
12755:-2.4696527883543720e+00
12756:4.2606302179531585e+00
12757:2.4666302928204384e+00
12758:-3.4075313680006725e-01
12759:-2.0050847138801409e+00
12760:3.8815864947751472e-01
12761:3.0896248009644665e+00
12762:2.4451717296033819e+00
12763:-4.8512360879373762e-01
12764:-2.6779678605435846e+00
12765:2.6908885078287827e+00
12766:3.9171381147290605e+00
12767:7.7554374356210509e-01
12768:-1.8331746016738453e+00
12769:-3.3948154246681733e-01
12770:1.4314232077449807e+00
12771:2.2554275305231251e+00
12772:-2.4774047382714670e+00
12773:-2.3867622467426255e+00
12774:-8.9915484949594171e-01
12775:8.0322459220797759e-01
12776:-2.5571684915364741e+00
12777:-4.7854810451067626e+00
12778:-4.3488950245497371e+00
12779:-1.8225480565361942e+00
12780:-2.0368129083252642e+00
12781:-5.6072773916006398e+00
12782:-6.2100288790024250e+00
12783:-3.6270034727457694e+00
12784:2.3847316249452768e+00
12785:1.8494165044004800e+00
12786:-7.4471491198208714e-02
12787:-2.2010425052099278e+00
12788:1.7128696226409121e+00
12789:2.3083411821202309e+00
12790:1.0508490108862962e+00
12791:-1.1571875203685995e+00
12792:7.2402978531641654e-02
12793:2.4006854142407104e+00
12794:2.7991853991042221e+00
12795:1.2759516683822651e+00
12796:-1.3390266904713557e+00
12797:1.9662376905292167e+00
12798:3.7515317453431645e+00
12799:3.1526299145427568e+00
12800:-3.4071422197658405e+00
12801:-4.3967112631175400e+00
12802:-3.0908082105440191e+00
12803:-2.6003154086207980e-01
12804:-2.5950807561425351e+00
12805:-4.1100795728975905e+00
12806:-3.5558352686840156e+00
12807:-1.3003592503729340e+00
12808:-3.8883061727817012e-02
12809:-1.7954652636007014e+00
12810:-2.3750153973825365e+00
12811:-1.5208123581268833e+00
12812:2.2060722399004731e+00
12813:6.6003730237320846e-01
12814:-5.3742373750437400e-01
12815:-7.5921300735690811e-01
12816:1.7379772588861875e+00
12817:4.3601731967496375e+00
12818:5.2529716983203070e+00
12819:4.0867469664076053e+00
12820:4.2282105417337412e-01
12821:2.8842604603734880e+00
12822:4.2341742066299499e+00
12823:3.8508360291159698e+00
12824:-6.5955437051191579e-01
12825:8.0736570219090387e-01
12826:2.1817668859201436e+00
12827:2.7689397759576955e+00
12828:-6.2597533094490621e-01
12829:-1.5678773682728570e-01
12830:7.7635075116850027e-01
12831:1.6894095789698178e+00
12832:2.9316611386474527e+00
12833:1.4955833035439390e+00
12834:1.2808554398410803e+00
12835:2.2717846402704156e+00
12836:3.2175738373791534e+00
12837:2.4589731880702157e+00
12838:2.3931737050016761e+00
12839:2.8961691026253100e+00
12840:2.9202502928918714e+00
12841:3.1864849793333900e+00
12842:3.3943098419226598e+00
12843:3.2987028681205319e+00
12844:2.2173905822510918e+00
12845:2.9796741255528540e+00
12846:3.3372901214699700e+00
12847:3.0094492160393025e+00
12848:3.1341284440392956e+00
12849:4.6319612702207840e+00
12850:6.3617987774358769e+00
12851:7.6600689257712657e+00
12852:3.2917614727158897e+00
12853:3.8822815464463281e+00
12854:4.6820643491727720e+00
12855:5.6771073621499033e+00
12856:3.1182882836325159e+00
12857:2.6575832397499584e+00
12858:2.3398747423793815e+00
12859:2.7541779039000565e+00
12860:2.6055240588030602e+00
12861:1.7670794321373606e+00
12862:9.8618401145691048e-01
12863:9.8051065434289275e-01
12864:8.3447168155615028e+00
12865:8.9354392195062111e+00
12866:8.0828039549982833e+00
12867:6.0811464993835669e+00
12868:6.4076957503003253e+00
12869:7.4708952153352604e+00
12870:7.6465767485403502e+00
12871:6.4465324657907095e+00
12872:3.3113684458615396e+00
12873:4.5565412787976065e+00
12874:5.8293445474494643e+00
12875:5.9636262705153653e+00
12876:1.2832798449681082e+00
12877:2.2982109528838621e+00
12878:3.8875558034113342e+00
12879:4.7962977474236999e+00
12880:4.5924822978991582e+00
12881:2.4989975514408878e+00
12882:1.3954430441211494e+00
12883:1.7457454790887854e+00
12884:5.2850103403095963e+00
12885:3.2837814331670017e+00
12886:1.5233438531332291e+00
12887:1.0470054397980644e+00
12888:5.5933024816952406e+00
12889:4.3877744190567300e+00
12890:2.3631644087371280e+00
12891:8.8039433845952697e-01
12892:5.0069167993632293e+00
12893:4.5601435989723678e+00
12894:2.7512302726095577e+00
12895:8.5085180721885789e-01
12896:2.2862210271627612e+00
12897:3.0049905618880439e+00
12898:3.3633618178660605e+00
12899:3.3707605350166663e+00
12900:1.1303579282344443e+00
12901:1.3341152101387908e+00
12902:1.5596690794778421e+00
12903:1.6985010935178464e+00
12904:2.3907713742484688e-01
12905:-5.3000899749686936e-01
12906:-8.3409010407963224e-01
12907:-6.8268769048106315e-01
12908:-1.8942902001563219e-01
12909:-1.5599187994149402e+00
12910:-2.3055639923221238e+00
12911:-2.2693533088847406e+00
12912:3.3317059922097569e+00
12913:3.1789781668048729e+00
12914:2.5473283446502792e+00
12915:1.4880028800423806e+00
12916:1.7564218808281742e+00
12917:1.7446871824020842e+00
12918:1.3064651148147977e+00
12919:4.9441127246940075e-01
12920:-5.2084681865424076e-01
12921:-3.1238051468817712e-01
12922:-3.0624832699923227e-01
12923:-5.3612183853734974e-01
12924:-2.1042763417359280e+00
12925:-1.8113101529151707e+00
12926:-1.4445155093262922e+00
12927:-1.1121866179384343e+00
12928:6.7396291894902660e-01
12929:-8.5891730749166484e-01
12930:-2.3731538411167938e+00
12931:-2.8074285629989428e+00
12932:-1.4183342567982565e-01
12933:-1.5097661849447799e+00
12934:-3.1930787999317558e+00
12935:-4.0488034986894226e+00
12936:-7.5947600344046928e-01
12937:-1.4784270956366583e+00
12938:-2.7620122792227102e+00
12939:-3.7713828633503357e+00
12940:-9.1865836664285316e-01
12941:-8.5258182206341315e-01
12942:-1.3593265482881249e+00
12943:-2.1478256396957827e+00
12944:-2.7009233488817004e+00
12945:-2.2375536497792550e+00
12946:-1.5249556812108267e+00
12947:-1.1845876380601621e+00
12948:-4.2439057065159638e+00
12949:-4.0469142519435071e+00
12950:-3.0725990924346496e+00
12951:-2.1281425829009386e+00
12952:-4.2214804432541753e+00
12953:-4.4157107939755074e+00
12954:-3.6216934292852252e+00
12955:-2.4996686997217918e+00
12956:-2.6563505209180107e+00
12957:-3.1188157648428496e+00
12958:-2.7666072713401015e+00
12959:-1.8936226528302778e+00
12960:-1.1484705511324029e+00
12961:-1.1882469390759676e+00
12962:-1.2441639354503076e+00
12963:-1.1436259826893671e+00
12964:-1.6645801434059995e+00
12965:-1.0511841157451129e+00
12966:-5.7153520618682252e-01
12967:-2.6274375177429382e-01
12968:-1.8242924688007349e+00
12969:-8.1687672859933047e-01
12970:8.1230477647167385e-02
12971:6.0089834005466525e-01
12972:-1.2765414794703167e+00
12973:-2.8721840072014021e-01
12974:6.4646005142994423e-01
12975:1.1447385773343919e+00
12976:-1.0035705903014984e+00
12977:-6.9115656213991872e-01
12978:-3.4115740138628903e-01
12979:-2.3146482557924447e-01
12980:-6.7496410736204410e-02
12981:3.1988889515977931e-01
12982:6.8802773623118885e-01
12983:7.1630043514588837e-01
12984:8.5890956047363320e-01
12985:1.2701273758739740e+00
12986:1.5314312702898039e+00
12987:1.4130997733101127e+00
12988:1.3472668615795338e+00
12989:1.5782456041705886e+00
12990:1.5648713766203939e+00
12991:1.3009540146486045e+00
12992:-2.5106109433412532e-01
12993:-2.4557163271695265e-01
12994:-4.8344550593423179e-02
12995:3.0641231051461126e-01
12996:6.1073423665031712e-01
12997:3.9899775505815788e-01
12998:2.6608907683865479e-01
12999:3.8359260205687473e-01
13000:1.2187649850976430e+00
13001:8.3491246825097165e-01
13002:4.5664008801244926e-01
13003:3.5990528225305912e-01
13004:1.0776044219484604e+00
13005:7.0026130021532440e-01
13006:3.6523035955239025e-01
13007:2.6017831079822767e-01
13008:5.6772867760017931e-01
13009:9.0812905249280573e-01
13010:9.9349056519819634e-01
13011:7.8092986494324923e-01
13012:5.4144454444098389e-01
13013:7.7820310790734970e-01
13014:8.7811766394273572e-01
13015:7.5916227495337485e-01
13016:3.9676782964837243e-01
13017:4.8647408352814159e-01
13018:5.6234777647836809e-01
13019:5.4570287891031133e-01
13020:2.6211381062514677e-01
13021:2.8915875368818472e-01
13022:3.2803292613021623e-01
13023:3.3916081598485570e-01
13024:-3.9948652353566931e+00
13025:2.0336752076256528e+00
13026:4.1168676542491793e+00
13027:1.2824741754687128e+00
13028:-5.3505847583977664e+00
13029:3.3704597563947197e-01
13030:3.2728368611439027e+00
13031:1.5370826337937014e+00
13032:-5.4581001853333930e+00
13033:-2.0354186225523292e+00
13034:8.1259872659369092e-01
13035:8.3100919726372702e-01
13036:-4.8239926602836753e+00
13037:-3.3775530942216414e+00
13038:-1.1801722600180002e+00
13039:-1.4714645219270459e-01
13040:-1.5758209518735418e+00
13041:-5.4571903980552063e+00
13042:-6.5845643773468856e+00
13043:-4.2548389757724969e+00
13044:-7.6236214194910601e-01
13045:-4.2498982159984697e+00
13046:-5.8426714127247044e+00
13047:-4.2614638603422401e+00
13048:-8.8751549523739856e-02
13049:-1.9048655420551619e+00
13050:-3.2360614489370416e+00
13051:-2.7254129697969920e+00
13052:-5.3922223365973194e-02
13053:-4.1625275322081667e-01
13054:-1.1045362781565748e+00
13055:-1.1501058228590166e+00
13056:-1.9812580852445862e+00
13057:1.5526016960908315e+00
13058:3.9512394961077577e+00
13059:3.9025277498384479e+00
13060:-2.3974646464363230e+00
13061:8.7099962640163875e-01
13062:3.7402768110279747e+00
13063:4.4454357228125625e+00
13064:-1.7639412537862935e+00
13065:3.2152872879352562e-01
13066:2.7397290095874376e+00
13067:3.8170481752317151e+00
13068:-8.3581846846417263e-01
13069:1.8634025885274794e-01
13070:1.7576947219209866e+00
13071:2.6650769854719414e+00
13072:3.2226952078940121e+00
13073:1.9314624799172377e+00
13074:5.9792119888103723e-01
13075:-4.5066305219049516e-02
13076:4.2202039043517452e+00
13077:3.4683735308733890e+00
13078:2.2178141605235426e+00
13079:1.2251902147864004e+00
13080:3.9841329380150654e+00
13081:3.8368816236913625e+00
13082:3.0739772538156664e+00
13083:2.2726912972351458e+00
13084:2.9149661498406663e+00
13085:3.0041213195735708e+00
13086:2.6707904339621531e+00
13087:2.3049708574283647e+00
13088:-2.2326730197466843e-01
13089:-2.4709563036804497e-01
13090:2.9949846509044853e-01
13091:1.1366161326033286e+00
13092:7.4329105748595770e-01
13093:1.5374792411120861e-01
13094:4.4866376261138756e-02
13095:4.7009626748460909e-01
13096:1.8374659032736784e+00
13097:1.1609626101639696e+00
13098:5.5498714495392587e-01
13099:2.8318423944214088e-01
13100:2.1324141156731478e+00
13101:1.7995497621513321e+00
13102:1.2254989538103740e+00
13103:5.8746194199840862e-01
13104:1.6995127671827324e+00
13105:2.5120261162760817e+00
13106:2.8980543455433394e+00
13107:2.5868615367957966e+00
13108:8.5371662747047117e-01
13109:1.4290992372662239e+00
13110:1.7515064884558151e+00
13111:1.6220073566725148e+00
13112:1.9899135316423402e-01
13113:1.1569092004557861e-01
13114:1.6183728597064548e-01
13115:3.2982247163108858e-01
13116:1.6961412054954156e-01
13117:-4.3918092878774900e-01
13118:-7.3113629026916860e-01
13119:-4.9082814364288713e-01
13120:2.1975179383820156e+00
13121:1.3970394077964339e+00
13122:5.8210888443360442e-01
13123:3.9371835056829624e-01
13124:1.4127354929640767e+00
13125:8.9512224647638028e-01
13126:1.2574093823681110e-01
13127:-4.2811951515103330e-01
13128:4.5224207870144534e-01
13129:4.1641629919863132e-01
13130:-2.5838386550315279e-01
13131:-1.2919212428101459e+00
13132:-2.1042040095422826e-01
13133:-2.3262453188766862e-02
13134:-6.9812762180315047e-01
13135:-2.0289201677518101e+00
13136:5.2749175511059332e-01
13137:1.2751836661201725e+00
13138:2.7597520548575831e+00
13139:3.8687858611956307e+00
13140:-6.5514767630032689e-01
13141:-5.4447227377787755e-01
13142:4.6458539346851313e-01
13143:1.6599056197730835e+00
13144:-1.9905639570092843e+00
13145:-2.7881549773394303e+00
13146:-2.6868885458671081e+00
13147:-1.7608396989713901e+00
13148:-3.0050351640479649e+00
13149:-4.3962640535833168e+00
13150:-5.0107726808826163e+00
13151:-4.4375859073012318e+00
13152:4.2970822159726438e+00
13153:4.2050884951319425e+00
13154:2.6471858328542797e+00
13155:7.3290402333961813e-01
13156:2.3275907590298646e+00
13157:2.7540652979461568e+00
13158:1.8190095688009063e+00
13159:2.3144471191306443e-01
13160:-1.0286018473979508e+00
13161:-1.5993657389046975e-01
13162:-1.0782191492827822e-01
13163:-8.0138943675446184e-01
13164:-3.7742211407304707e+00
13165:-2.6936671202066282e+00
13166:-1.8519029225430739e+00
13167:-1.7037003198678755e+00
13168:-3.9197436637853861e-01
13169:-1.9227398476812723e+00
13170:-2.8426790451819270e+00
13171:-2.9075172730007655e+00
13172:-8.0121920041121686e-01
13173:-2.2770470539286154e+00
13174:-3.3052527918423045e+00
13175:-3.5549092760041918e+00
13176:-1.3733332012216093e+00
13177:-2.2777885839696363e+00
13178:-3.0880171156815059e+00
13179:-3.4892926055112556e+00
13180:-1.8040844660353654e+00
13181:-2.0793524183207994e+00
13182:-2.5256927532661577e+00
13183:-2.9082070750281330e+00
13184:-2.7818407495306494e+00
13185:-2.5014896407827933e+00
13186:-1.9711009277423761e+00
13187:-1.3275233174721428e+00
13188:-3.5456313149839445e+00
13189:-3.3598747509860738e+00
13190:-2.6312800051708440e+00
13191:-1.5461698374650337e+00
13192:-3.6337230339798290e+00
13193:-3.5879670711210041e+00
13194:-2.7424126578261356e+00
13195:-1.3804752812259944e+00
13196:-3.0988265631217935e+00
13197:-3.0684398706470279e+00
13198:-2.1876832906340664e+00
13199:-8.6260361624118831e-01
13200:-8.9329188689941308e-01
13201:-3.3866654647915495e-01
13202:-2.9757987068570030e-01
13203:-8.6040730080131966e-01
13204:-7.6850539393604267e-01
13205:4.8395415631239352e-01
13206:1.3332549441335653e+00
13207:1.1535507941416863e+00
13208:-4.0562291783768106e-01
13209:1.2151200478443034e+00
13210:2.4950733233250824e+00
13211:2.5813561642733314e+00
13212:4.1200163296596495e-02
13213:1.4670245012104173e+00
13214:2.5145725685137359e+00
13215:2.5584065799275741e+00
13216:-1.3512148667087802e+00
13217:-1.9299220892473259e+00
13218:-1.8785925394201692e+00
13219:-1.2325513654522287e+00
13220:7.3795453367920594e-01
13221:6.5519750566470941e-02
13222:-2.8097407890098225e-01
13223:9.8572434710194178e-03
13224:2.2716842862620381e+00
13225:1.6387794014156780e+00
13226:1.0845001770079066e+00
13227:1.0816624275379294e+00
13228:2.3000698672337969e+00
13229:1.7646292763522184e+00
13230:1.2370182413385122e+00
13231:1.1145354525724041e+00
13232:-7.0193631688332003e-01
13233:1.8459512780772741e-01
13234:1.0197697871205322e+00
13235:1.4015378953635484e+00
13236:3.7881941659618490e-01
13237:1.0130333023966449e+00
13238:1.5188967854393780e+00
13239:1.5632192853535025e+00
13240:1.2664174838832969e+00
13241:1.5384391365158383e+00
13242:1.5300017115360411e+00
13243:1.1354027936056348e+00
13244:1.1731110709638970e+00
13245:1.1883229157862261e+00
13246:8.9707460318108789e-01
13247:3.8843521314973739e-01
13248:1.5097195154195866e+00
13249:1.5394224518711186e+00
13250:1.3009083082528556e+00
13251:9.6117485682573223e-01
13252:1.4443327294884709e+00
13253:1.0909277244950897e+00
13254:5.5198516512549756e-01
13255:2.1172228421668690e-01
13256:7.7356186369277069e-01
13257:1.2882950120760289e-01
13258:-4.4294418729780310e-01
13259:-5.5454521679624269e-01
13260:2.1915369221153509e-02
13261:-5.0503557606810612e-01
13262:-7.7363293726120430e-01
13263:-6.2985030503576100e-01
13264:7.4876570553376520e-01
13265:4.4417184707844842e-01
13266:2.3539724306609958e-01
13267:1.9716297163123153e-01
13268:9.5048951731196943e-02
13269:1.5610594868949048e-02
13270:8.6074644014784235e-02
13271:1.8431465167399314e-01
13272:-4.7348314504475075e-01
13273:-2.3092370029147974e-01
13274:1.1880235152820483e-01
13275:3.1799215817238929e-01
13276:-4.3400761403322985e-01
13277:-7.6301136187229140e-02
13278:2.8125684424415065e-01
13279:4.3465522701749476e-01
13280:2.1006070783054323e-01
13281:2.3290362585153077e-01
13282:2.4678508133920296e-01
13283:2.4428682710230615e-01
13284:2.2531996175254876e-01
13285:2.4673840317147352e-01
13286:1.9297932450407906e-01
13287:1.1711155692806362e-01
13288:3.7274429805481801e-01
13289:3.7352663588937257e-01
13290:2.2120926010014402e-01
13291:2.7047262979517504e-02
13292:4.6339253425389104e-01
13293:4.2459682651290093e-01
13294:2.2637419244222406e-01
13295:-1.0052111894380661e-02
13296:-4.4026871134869658e+00
13297:-3.7476590794351710e+00
13298:-1.9872692483031629e+00
13299:-6.9038003469948450e-01
13300:-3.6378786596490857e+00
13301:-3.6864321774680970e+00
13302:-2.5688311399154342e+00
13303:-1.2308357036141113e+00
13304:-2.6366615884330766e+00
13305:-2.5510241931407114e+00
13306:-1.9623246426805954e+00
13307:-1.1059024587454740e+00
13308:-1.7832525728091504e+00
13309:-1.2693842557424833e+00
13310:-9.4984672985202556e-01
13311:-5.7400319266966471e-01
13312:-2.3216670538065806e-01
13313:2.2472266018086742e-02
13314:-2.5324524798095710e-01
13315:-4.1731694865187086e-01
13316:-4.9490425040138453e-01
13317:3.5905512583731314e-01
13318:6.2510324801996453e-01
13319:4.3069068958540274e-01
13320:-5.1973157430552630e-01
13321:3.7482038092773834e-01
13322:9.7666613403171276e-01
13323:9.4487864585863868e-01
13324:-2.2901692407054305e-01
13325:4.8859734556687129e-01
13326:1.2088696114469506e+00
13327:1.3349785001677164e+00
13328:-3.4066672142284909e-01
13329:2.0311366315832829e-01
13330:1.2537806199699928e+00
13331:1.9304826295906248e+00
13332:2.7573043809101366e-01
13333:2.4222985170008307e-01
13334:5.2663778260744465e-01
13335:7.8470526359543069e-01
13336:7.5587019020642887e-01
13337:4.1532768204600501e-01
13338:9.0356428158057847e-02
13339:-4.9819368503818545e-02
13340:1.1930050556028575e+00
13341:7.7887439259467039e-01
13342:2.1631579137173865e-01
13343:-4.9464403191824047e-02
13344:2.1379234038869992e+00
13345:2.2423550111617665e+00
13346:2.0979593599384221e+00
13347:2.0045425805627834e+00
13348:8.7742207670388128e-01
13349:9.7147768404869439e-01
13350:1.1620753782692486e+00
13351:1.5510954197754985e+00
13352:-7.6979397292142066e-02
13353:5.2054413273069804e-02
13354:6.6235983752965411e-01
13355:1.5315427346450476e+00
13356:-7.6274840994956142e-02
13357:1.9740263226103080e-01
13358:1.1060184092035195e+00
13359:2.1372077417527806e+00
13360:2.0155611208032012e+00
13361:1.9739188720636809e+00
13362:1.5864191630431002e+00
13363:8.8697800041045993e-01
13364:1.8773571514603575e+00
13365:2.3318063676543188e+00
13366:2.2946679688142511e+00
13367:1.5748258435441989e+00
13368:2.1265462563509270e+00
13369:2.9587188346737925e+00
13370:3.1649353354464917e+00
13371:2.4625536043320868e+00
13372:2.7548155901534654e+00
13373:3.5407866110252058e+00
13374:3.6313275645839438e+00
13375:2.8922183400839447e+00
13376:3.5625238927452169e-01
13377:-4.7134744323503547e-01
13378:-9.8312461032540344e-01
13379:-8.1853478537162594e-01
13380:9.2134287156442329e-01
13381:-2.0494900603080188e-01
13382:-1.1401482378960071e+00
13383:-1.2646244463375076e+00
13384:1.7629930787976922e+00
13385:4.2782611408306281e-01
13386:-9.8848567084454586e-01
13387:-1.6092628084222425e+00
13388:2.2096126946199979e+00
13389:8.3854420823526032e-01
13390:-8.0693093801189419e-01
13391:-1.7588441005554856e+00
13392:-5.3789555938102429e-01
13393:-3.4924331633261657e-01
13394:-1.0702098297764326e+00
13395:-2.5026650260248724e+00
13396:-1.1064847418165589e+00
13397:-1.0562566982958232e+00
13398:-1.8184112101738521e+00
13399:-3.2151427039348461e+00
13400:-1.7373366866116817e+00
13401:-2.0062219384837081e+00
13402:-2.7217251529481863e+00
13403:-3.7427657097790075e+00
13404:-2.1085963853161642e+00
13405:-2.6202238132574891e+00
13406:-3.2339131088145820e+00
13407:-3.8339289627837374e+00
13408:-3.5653097184317271e+00
13409:-5.1770019574359756e+00
13410:-6.1091479062284044e+00
13411:-5.7285714388896354e+00
13412:-4.2548485211961378e+00
13413:-5.9592023814422461e+00
13414:-7.2069372816928610e+00
13415:-7.1281806988864647e+00
13416:-4.4854679045457146e+00
13417:-5.7991932283539782e+00
13418:-6.9273307702845557e+00
13419:-7.0484865851712524e+00
13420:-4.2394131808067188e+00
13421:-4.9909573060797516e+00
13422:-5.6746923420447972e+00
13423:-5.7588794372382628e+00
13424:-5.1228517333540129e+00
13425:-3.9644461830429329e+00
13426:-2.7337939420070438e+00
13427:-2.1533687389871483e+00
13428:-6.6658943897571152e+00
13429:-5.5134190629129893e+00
13430:-3.8449826528649100e+00
13431:-2.6909062583338055e+00
13432:-6.7775723197318252e+00
13433:-5.8505931945279546e+00
13434:-4.1608245215151944e+00
13435:-2.7545718343071632e+00
13436:-5.5907422743469724e+00
13437:-4.9293954672256408e+00
13438:-3.5870261760584805e+00
13439:-2.3520509169420949e+00
13440:-2.0084560386721004e+00
13441:-1.9442235297389519e+00
13442:-2.1542406141465316e+00
13443:-2.4620301845429373e+00
13444:-2.1968620152934131e+00
13445:-1.6109669859852700e+00
13446:-1.3908277636983035e+00
13447:-1.5143507558633720e+00
13448:-2.0510353536742221e+00
13449:-1.0644883919915245e+00
13450:-3.9027164032545897e-01
13451:-2.6906119232854692e-01
13452:-1.6778234140663288e+00
13453:-6.2068587824666854e-01
13454:2.5328992262985039e-01
13455:4.8672045820240728e-01
13456:-2.6327562887594782e+00
13457:-2.5569807363764343e+00
13458:-1.6778726151857712e+00
13459:-4.7661477402188118e-01
13460:-1.6254849179812350e+00
13461:-1.5235235689234032e+00
13462:-8.6079104140251117e-01
13463:-8.7870269203344370e-02
13464:-3.0987539690175897e-01
13465:-3.4391920571498130e-01
13466:-3.3838014363021091e-01
13467:-3.6826404759651132e-01
13468:4.4653184777220001e-01
13469:1.4917539753229031e-01
13470:-5.4378290874510926e-01
13471:-1.2087918896663359e+00
13472:2.9961678613035203e-01
13473:1.4430455634673363e+00
13474:2.1709554225321162e+00
13475:2.1114965287341367e+00
13476:3.5870441750939813e-01
13477:9.1887641082678084e-01
13478:1.1442441276959661e+00
13479:1.0242422950106722e+00
13480:-4.1552047043825147e-01
13481:-5.2857335456931021e-01
13482:-6.0664500613983474e-01
13483:-5.1615056662090986e-01
13484:-1.5673376896297411e+00
13485:-1.9709262764126694e+00
13486:-1.9407600780947121e+00
13487:-1.5131337563079035e+00
13488:1.8721806701829595e+00
13489:1.4084217530161323e+00
13490:9.4451783293230163e-01
13491:7.8001585923768224e-01
13492:8.8973572933262091e-01
13493:6.2882354423611797e-01
13494:2.8134873651398579e-01
13495:-1.3516097379915597e-03
13496:-4.0042131144386878e-01
13497:-2.9181175829996958e-01
13498:-4.6994002055403178e-01
13499:-9.0096956607656675e-01
13500:-1.1722604596073680e+00
13501:-7.5725618386994531e-01
13502:-7.6453089353842618e-01
13503:-1.2077972589511221e+00
13504:7.6991533363092746e-01
13505:6.6542328301965636e-01
13506:3.1813155689759937e-01
13507:-1.0256618043770650e-01
13508:-1.6011051789799086e-01
13509:-4.4289100565648670e-01
13510:-6.9065356195752137e-01
13511:-7.1059733177322859e-01
13512:-1.2271884921777414e+00
13513:-1.6150985580129609e+00
13514:-1.4890354070941294e+00
13515:-8.1096091008166593e-01
13516:-1.5716688753936312e+00
13517:-1.9053019765118329e+00
13518:-1.4644068869217401e+00
13519:-3.9216110148716388e-01
13520:-3.6409036184180321e-01
13521:-6.5891292195829243e-01
13522:-6.5195177932601800e-01
13523:-3.8952279173714871e-01
13524:-6.3946309043547234e-01
13525:-3.7896968782748874e-01
13526:5.4689308800623282e-02
13527:3.2535925014001527e-01
13528:-2.4372263142531608e-01
13529:6.9043343083250075e-01
13530:1.3738511325904577e+00
13531:1.3332022259393561e+00
13532:4.1422834314804557e-01
13533:1.5846397703161192e+00
13534:2.1637609774837254e+00
13535:1.7798246320494857e+00
13536:-1.8179005577644669e-01
13537:1.3623411168137370e-01
13538:3.8358816367735177e-01
13539:4.5619892157877218e-01
13540:4.0965511420462081e-01
13541:4.5355817490532135e-01
13542:3.7518827194129001e-01
13543:2.8719983269953347e-01
13544:1.0885582144386978e+00
13545:5.8614048282481535e-01
13546:3.7559564102224531e-02
13547:-2.0226212498931564e-01
13548:1.2869890111265938e+00
13549:4.3014950224455173e-01
13550:-3.4648147789362749e-01
13551:-6.0885409831766013e-01
13552:4.5671811805291740e-01
13553:3.9139892674997667e-01
13554:1.9400060574595332e-01
13555:-2.7540597491700205e-02
13556:2.5022896406440115e-01
13557:1.7538776892647301e-01
13558:5.3511876231143750e-02
13559:-6.3421250836275159e-02
13560:-2.4383454238515703e-01
13561:-2.5702809239285418e-01
13562:-1.9379290150539039e-01
13563:-1.0433136042892197e-01
13564:-6.1922241622473040e-01
13565:-5.4925953195026322e-01
13566:-3.4259964340798432e-01
13567:-1.1898884842876538e-01
13568:-1.2904741464588108e+00
13569:-5.9054297676608947e-01
13570:-3.9238366944598402e-01
13571:-2.1378425077077495e-01
13572:-6.8166924725109157e-01
13573:5.7438173402190922e-02
13574:1.8746967331826989e-01
13575:3.2452406378477988e-01
13576:-5.9076004714027630e-01
13577:-1.5884194809849608e-01
13578:3.0527134061119587e-01
13579:9.2701202957900153e-01
13580:-1.1081067415084158e+00
13581:-8.6271618992606613e-01
13582:2.8806339034421430e-01
13583:1.5496069343612708e+00
13584:4.1334304303866552e-02
13585:7.0182362776449847e-01
13586:1.4793351813462843e+00
13587:1.6649117248294447e+00
13588:5.8834844173665013e-01
13589:1.3089272835890335e+00
13590:2.1774583626249973e+00
13591:2.3842599425564379e+00
13592:1.4291886073307085e+00
13593:2.3727489924152776e+00
13594:3.2141604185314847e+00
13595:3.2859201076761564e+00
13596:2.2658815783268702e+00
13597:3.2881884497929743e+00
13598:3.8886119467015892e+00
13599:3.7617027387752500e+00
13600:1.5352396083730970e+00
13601:1.0886700945189363e+00
13602:4.6379788982113324e-01
13603:2.1389018053832964e-01
13604:2.2348455265039626e+00
13605:1.7405788654221592e+00
13606:1.1285158614977895e+00
13607:1.0198504314431767e+00
13608:3.0666841550801900e+00
13609:2.5759529283072062e+00
13610:2.1902739376085196e+00
13611:2.3685714504619528e+00
13612:3.5029220689377034e+00
13613:3.1089612959876165e+00
13614:3.0079972003541164e+00
13615:3.3700228902451150e+00
13616:2.3811238697151041e-01
13617:6.4490461838530666e-01
13618:1.6844180640687179e+00
13619:2.6908751986730501e+00
13620:1.1775707854548605e+00
13621:1.7734449306840623e+00
13622:2.7827287617474226e+00
13623:3.4489863837544665e+00
13624:2.6884427932563022e+00
13625:3.3256727768576209e+00
13626:3.8265733133160862e+00
13627:3.6801931053074006e+00
13628:3.7247626948834802e+00
13629:4.1748050291030578e+00
13630:4.0373420736899970e+00
13631:3.2085858770308442e+00
13632:3.2301138077722240e+00
13633:3.8354228553750960e+00
13634:3.7286554767686200e+00
13635:2.9410194440425097e+00
13636:3.6809686322171338e+00
13637:3.7603195885934997e+00
13638:3.2527618334220598e+00
13639:2.4859336703420780e+00
13640:3.3555828928894496e+00
13641:2.6097201621088999e+00
13642:1.6388861252786131e+00
13643:1.0676454866877030e+00
13644:2.4948499501660693e+00
13645:1.2183250578646951e+00
13646:1.8254423397470701e-02
13647:-3.5155635436839872e-01
13648:2.2829824715733182e+00
13649:9.4362117133385959e-01
13650:-7.4037056291160575e-01
13651:-1.8064707138210259e+00
13652:1.9712791574470909e+00
13653:8.9268810301081436e-01
13654:-5.9793307764631298e-01
13655:-1.6938557757270454e+00
13656:8.5768357444034138e-01
13657:4.0235046347026809e-01
13658:-3.8929841747577848e-01
13659:-1.1664687232933981e+00
13660:-3.2041799424268452e-01
13661:-2.0935439690008734e-01
13662:-2.2003471896006083e-01
13663:-5.0247956507897906e-01
13664:-2.2465886106446411e+00
13665:-2.8550069853938949e+00
13666:-3.3970135334494391e+00
13667:-3.7654495817611262e+00
13668:-2.2209497232474802e+00
13669:-2.9363027683898109e+00
13670:-3.3943241387530847e+00
13671:-3.4631869606578269e+00
13672:-1.6308166686437557e+00
13673:-2.3144314171333455e+00
13674:-2.7418994740859990e+00
13675:-2.6801911997797165e+00
13676:-7.8047754023464166e-01
13677:-1.2962919048908246e+00
13678:-1.7374166998476839e+00
13679:-1.7512727144923055e+00
13680:-3.9842362569070020e+00
13681:-4.3922260387127681e+00
13682:-4.7482632506870823e+00
13683:-4.7458001422325724e+00
13684:-3.4286798767426907e+00
13685:-3.3406380221178522e+00
13686:-3.1781290156266699e+00
13687:-2.9978000499006798e+00
13688:-2.5088548487385784e+00
13689:-2.1034186328238675e+00
13690:-1.5530919723605161e+00
13691:-1.2097874619204918e+00
13692:-1.6099254431519079e+00
13693:-1.2088602243642308e+00
13694:-6.1893020265707377e-01
13695:-2.6327933623379102e-01
13696:-4.6079505583717557e+00
13697:-4.1004110334016826e+00
13698:-3.0456234036968057e+00
13699:-2.0159150534718306e+00
13700:-2.8765307583594901e+00
13701:-2.5898037945792614e+00
13702:-2.0517615133838119e+00
13703:-1.4721551879556218e+00
13704:-1.0834630556715357e+00
13705:-9.7782205674167022e-01
13706:-9.7186795003114446e-01
13707:-9.5381293582312732e-01
13708:-1.5214100928174262e-01
13709:-1.3588951052610573e-01
13710:-3.8151561087970515e-01
13711:-6.7184034255417946e-01
13712:-1.4199987692564384e+00
13713:-4.1291479385594421e-01
13714:4.9148654085087418e-01
13715:7.3227408016306939e-01
13716:-1.0944984698823128e+00
13717:-3.4540841407736445e-01
13718:4.2304542432423786e-01
13719:6.0994724242289400e-01
13720:-9.0288472921252994e-01
13721:-6.8969392561434595e-01
13722:-4.2738703762550312e-01
13723:-4.6425749373861624e-01
13724:-8.2999170655461829e-01
13725:-1.0716040256837001e+00
13726:-1.3754945344359899e+00
13727:-1.6948510009750131e+00
13728:6.6051516741940808e-01
13729:1.7106135932934627e-01
13730:-9.0565688756345708e-01
13731:-1.8424700808602104e+00
13732:4.9317059701382782e-01
13733:-1.8176355009866293e-01
13734:-1.5556482988270888e+00
13735:-2.6238895822283452e+00
13736:-6.3441684206816040e-01
13737:-1.2365593312496190e+00
13738:-2.2070043224778542e+00
13739:-2.7660945210338324e+00
13740:-1.9151839270533633e+00
13741:-2.2743921439711796e+00
13742:-2.4549407448298743e+00
13743:-2.2393648624865716e+00
13744:-2.2985040508551764e+00
13745:-2.7253071448664832e+00
13746:-2.5107009882236504e+00
13747:-1.8751253268791404e+00
13748:-3.0769243340644850e+00
13749:-3.3745213509749692e+00
13750:-2.8875141361366397e+00
13751:-2.0815242892492347e+00
13752:-2.9017201205122984e+00
13753:-2.7803349101833326e+00
13754:-2.1464829830233181e+00
13755:-1.5348252635960757e+00
13756:-1.9746404976743288e+00
13757:-1.4435213364202171e+00
13758:-8.7685240005217446e-01
13759:-6.6377380665439545e-01
13760:-1.4297760256560186e+00
13761:-8.7474506004491615e-01
13762:-7.7553126653499871e-01
13763:-1.1603618992413058e+00
13764:-1.5881492478564527e+00
13765:-9.5299740177439674e-01
13766:-6.9679186776466095e-01
13767:-8.7319480143996131e-01
13768:-1.2367094694110325e+00
13769:-8.2891758609756361e-01
13770:-5.1112232907330124e-01
13771:-3.4646673794375432e-01
13772:-6.5194141312445686e-01
13773:-6.0825370528515410e-01
13774:-3.8300183270771715e-01
13775:-1.1314872417945768e-02
13776:-1.4902113892921616e+00
13777:-1.7373847595507570e+00
13778:-1.1722639927329548e+00
13779:-2.7923476379084964e-02
13780:-1.0543082029047035e+00
13781:-1.0834528135490049e+00
13782:-4.3434930608395722e-01
13783:5.7385414237555565e-01
13784:-2.5645089035407825e-01
13785:2.4827479117998295e-02
13786:5.7727365823948273e-01
13787:1.0939390779527940e+00
13788:2.6632797087126614e-01
13789:7.3922192758514438e-01
13790:1.1551363839105311e+00
13791:1.2624168458559730e+00
13792:7.9695816485588666e-01
13793:1.9232936469385822e+00
13794:2.3351563104688364e+00
13795:1.7862558555376453e+00
13796:1.2483610823254219e+00
13797:2.0725510928129069e+00
13798:2.1544509894879527e+00
13799:1.4706153574768928e+00
13800:1.3713928612929795e+00
13801:1.5987729769143011e+00
13802:1.3252821441907419e+00
13803:7.3734289389314900e-01
13804:1.2300676196344089e+00
13805:1.0388668684396585e+00
13806:6.1171260075624900e-01
13807:2.1022974662167335e-01
13808:1.2090762277189866e+00
13809:2.5649769587474519e-01
13810:-5.4317883153239388e-01
13811:-7.7283664178142319e-01
13812:8.8020498365636457e-01
13813:-3.5277849799406402e-02
13814:-7.2365259967233775e-01
13815:-8.6155446449933248e-01
13816:3.2686959977930330e-01
13817:-2.6296242803938269e-01
13818:-6.3624159968462579e-01
13819:-6.4603443697119411e-01
13820:-5.0738273779821919e-03
13821:-2.8147194230794897e-01
13822:-4.0292134835827126e-01
13823:-3.4504170518208832e-01
13824:-7.5674155746534089e-01
13825:-6.4008186729570038e-01
13826:-3.7912150296986336e-01
13827:-1.1700144272970651e-01
13828:-8.0621631265208682e-01
13829:-6.3918265349992187e-01
13830:-3.5203668275874261e-01
13831:-9.5174084222874281e-02
13832:-5.6855782129881038e-01
13833:-4.0606961987655121e-01
13834:-1.9765749875953759e-01
13835:-4.9588926070746837e-02
13836:-2.7463788521848015e-01
13837:-1.5769779934424275e-01
13838:-5.5512720694104456e-02
13839:-1.9008768549765298e-02
13840:-1.5979177201180368e+00
13841:-1.3028614767297377e+00
13842:3.8477113904718196e-01
13843:2.0110268447797952e+00
13844:-2.5162509915384095e+00
13845:-1.5437739789332539e+00
13846:1.0680615712594750e+00
13847:2.9826814147942331e+00
13848:-3.4924394387099467e+00
13849:-8.7407609578004763e-01
13850:2.4992125118104753e+00
13851:4.0442684557224435e+00
13852:-3.8536748202705033e+00
13853:1.0685726228396644e-01
13854:3.4893486807635590e+00
13855:4.3020367623549971e+00
13856:2.7968375820917246e+00
13857:3.7592092930264287e+00
13858:4.1301966827853001e+00
13859:3.8848238975892468e+00
13860:3.6688350897635562e+00
13861:4.2902412040737126e+00
13862:4.2417250671775424e+00
13863:3.9080408748284801e+00
13864:4.2626979199037072e+00
13865:4.1857062823568869e+00
13866:3.7502296436041176e+00
13867:3.5523175195276697e+00
13868:4.0560468117052650e+00
13869:3.4644647436968943e+00
13870:2.9571424778997124e+00
13871:3.0056960021616450e+00
13872:3.6292495343780664e+00
13873:3.3338371892361525e+00
13874:3.3993971141952120e+00
13875:3.8032950444010241e+00
13876:3.7368245994538580e+00
13877:3.6608724975189952e+00
13878:3.9078669484334356e+00
13879:4.2132119936632719e+00
13880:3.5949283342138805e+00
13881:3.8129843443616838e+00
13882:4.0724154476440964e+00
13883:4.0299273390161829e+00
13884:3.2292585844110997e+00
13885:3.6200137470907539e+00
13886:3.7742581440941647e+00
13887:3.4369386938444135e+00
13888:4.1179483029040291e+00
13889:4.3751076604054244e+00
13890:3.8581403317420118e+00
13891:2.7278522560935690e+00
13892:4.3552744660492930e+00
13893:4.2084244186464179e+00
13894:3.1972100432993558e+00
13895:1.8496841589991218e+00
13896:3.8581389248763815e+00
13897:3.2249205991125613e+00
13898:1.9850535925560182e+00
13899:8.8935049858300552e-01
13900:3.0559551427449692e+00
13901:2.1823022750457959e+00
13902:1.0332820084485439e+00
13903:3.6694100094612941e-01
13904:1.8757355793517170e+00
13905:4.2656900217560512e-01
13906:-8.2283255730673954e-01
13907:-1.0962567001388381e+00
13908:9.7045843335602799e-01
13909:-4.6866621754424520e-01
13910:-1.6578987961556613e+00
13911:-1.8894363986609628e+00
13912:3.0960353419643694e-01
13913:-6.0014198199723123e-01
13914:-1.3975216770608769e+00
13915:-1.6997021551176901e+00
13916:1.4443109318667419e-01
13917:-1.1965329565745667e-01
13918:-3.8839017918759577e-01
13919:-7.1129150755604087e-01
13920:-9.6536692737005236e-01
13921:-5.7717141287811558e-01
13922:-1.3977660536077147e-01
13923:-9.2626351597770717e-02
13924:-1.7399321775856289e+00
13925:-1.1804855066839330e+00
13926:-2.7903929520814702e-01
13927:2.5649832161624325e-01
13928:-1.7431183094132603e+00
13929:-1.5394412487871669e+00
13930:-8.4679399886218065e-01
13931:-1.1839635626528364e-01
13932:-9.6113849554815423e-01
13933:-1.3393401726886704e+00
13934:-1.4095876763711954e+00
13935:-9.6980229766449699e-01
13936:-2.2634805751372242e-01
13937:-5.9937382227143354e-01
13938:-1.0452145453830710e+00
13939:-1.1454833528023936e+00
13940:4.0503080200551589e-01
13941:4.1301036251968781e-01
13942:1.6644033808813163e-01
13943:1.8284244411842784e-02
13944:2.9027139613234743e-01
13945:8.5687110390115528e-01
13946:1.2363027126307888e+00
13947:1.3204024932880489e+00
13948:-5.2819896781845233e-01
13949:3.9379964312522431e-01
13950:1.4654037117152083e+00
13951:1.9651948142875915e+00
13952:-1.0598018614554754e+00
13953:-7.4173805176574081e-01
13954:-2.2804317711556299e-01
13955:7.9697467520695217e-02
13956:1.8948500937686956e-02
13957:1.4440020527295730e-01
13958:3.8585114201632803e-01
13959:4.9476517898639649e-01
13960:1.3121636613505909e+00
13961:1.2233075178365598e+00
13962:9.7301954218723208e-01
13963:6.8446478116462361e-01
13964:2.0546890469306320e+00
13965:1.8883965033995467e+00
13966:1.2446903661391562e+00
13967:6.2228688231821783e-01
13968:1.6595439724912622e-01
13969:1.4359544001021510e-01
13970:-1.6736927384026201e-01
13971:-5.4875059302207974e-01
13972:4.8996202098925368e-01
13973:3.8692684279448514e-01
13974:8.6023617868909122e-02
13975:-2.6534259588211123e-01
13976:5.0839423639436243e-01
13977:2.9876860078982242e-01
13978:1.9485580985057355e-01
13979:1.5463014651473098e-01
13980:3.1609935536061290e-01
13981:5.5371654921718715e-02
13982:1.8788501078159231e-01
13983:4.8081211311386923e-01
13984:-7.8109953304895308e-01
13985:-1.2406535660955644e+00
13986:-1.8710926835573527e+00
13987:-2.3672337653581348e+00
13988:-5.0179114721275875e-01
13989:-1.1477555515993745e+00
13990:-2.2258600644814606e+00
13991:-3.0661319167658441e+00
13992:9.9077430833404950e-02
13993:-4.2547260261014402e-01
13994:-1.7177456240722713e+00
13995:-2.9156612966751818e+00
13996:6.2648095556912731e-01
13997:3.7452713414933658e-01
13998:-8.1539867833231106e-01
13999:-2.1468267573522546e+00
14000:-2.6185286558980843e+00
14001:-2.8066374552063458e+00
14002:-2.4638155978889897e+00
14003:-1.7689603057380094e+00
14004:-3.4420530721581470e+00
14005:-3.5106763686974638e+00
14006:-2.5130335591889450e+00
14007:-1.1491469729122830e+00
14008:-3.5080845035921575e+00
14009:-3.7461123054984600e+00
14010:-2.5696960684997947e+00
14011:-8.7088686762552492e-01
14012:-2.8840691882275142e+00
14013:-3.4074554363630507e+00
14014:-2.5479376338962871e+00
14015:-9.9921784812085501e-01
14016:-1.2741495627443324e+00
14017:-5.3744353716944504e-01
14018:-7.2462157753430220e-02
14019:-1.2621779397797425e-01
14020:-3.1603746490960799e-01
14021:7.2757574986977513e-01
14022:1.0514570171353026e+00
14023:6.1365218356931828e-01
14024:1.6621459826174190e-01
14025:1.3963218503946122e+00
14026:1.6263409588054472e+00
14027:9.4319579069465853e-01
14028:1.6592750522427156e-03
14029:1.1907132964040130e+00
14030:1.3969432227740970e+00
14031:7.0967632837592831e-01
14032:-2.8841700904026568e-01
14033:-4.7387843830874726e-01
14034:-3.4644681674448247e-01
14035:8.7613063254228046e-02
14036:2.0039598602771863e-01
14037:-3.1786595153682379e-01
14038:-3.4644980581123103e-01
14039:1.5042123497544524e-01
14040:3.7009059304949393e-01
14041:-3.5203726486865322e-01
14042:-4.7024562626026789e-01
14043:5.7006015794378508e-02
14044:1.3801105710804734e-01
14045:-5.6177923886635239e-01
14046:-6.3709165299168635e-01
14047:-9.1613959089704725e-02
14048:4.3511793727866754e-01
14049:9.7560616667778144e-01
14050:1.3283158142623341e+00
14051:1.2709095238890020e+00
14052:5.7841217135705991e-01
14053:1.1964971590743052e+00
14054:1.4788764070348142e+00
14055:1.2402333750803443e+00
14056:5.2191725291656488e-01
14057:1.1729420087964355e+00
14058:1.4299369018458934e+00
14059:1.1348805343904360e+00
14060:3.7141708645227939e-01
14061:1.0118463306702588e+00
14062:1.2682478682364953e+00
14063:1.0038171429574962e+00
14064:1.1174242812240127e+00
14065:7.7549173806697813e-01
14066:3.2346722969154024e-01
14067:2.8071727471918575e-02
14068:9.5532262848188976e-01
14069:4.6160379827829329e-01
14070:1.7018807030979490e-02
14071:-1.2742297010183171e-01
14072:8.1462522997548414e-01
14073:3.0469555240732527e-01
14074:-6.6820242264870558e-02
14075:-9.7463065576976551e-02
14076:7.1549073147204423e-01
14077:2.7079761261901419e-01
14078:-2.3320967544496224e-02
14079:-1.1807896074313703e-02
14080:-9.3933205159067959e-02
14081:-2.2894241958068712e-01
14082:-2.5015618558028285e-01
14083:-1.7749581180838930e-01
14084:-1.2812162359932350e-01
14085:-8.6566586707396961e-02
14086:2.6281291760423351e-03
14087:7.3508577183588941e-02
14088:-2.4889383675973296e-02
14089:1.1064119404847098e-01
14090:2.3194612940495124e-01
14091:2.6550173389887938e-01
14092:7.3851898634927540e-02
14093:2.1455089571256297e-01
14094:3.1142745857215787e-01
14095:3.0853859210478052e-01
14096:-1.1910003848854656e-01
14097:-3.6263423121876560e-02
14098:7.0549715659329985e-03
14099:-9.7297438525068471e-03
14100:1.0407468807640351e-01
14101:1.2443543409955854e-01
14102:7.8271912655009115e-02
14103:-9.4806940747700630e-03
14104:2.5832858273683773e-01
14105:2.1119490598018861e-01
14106:9.2650089260424617e-02
14107:-3.6856317332798712e-02
14108:2.7832558707216648e-01
14109:1.9793320795283603e-01
14110:5.7821002488840957e-02
14111:-7.2353906586917774e-02
14112:-3.8238974850856460e+00
14113:6.7330550739729034e-01
14114:3.7867795345985327e+00
14115:4.1135280143552091e+00
14116:-3.4326304931091682e+00
14117:1.1818440264029046e+00
14118:3.5207559815178384e+00
14119:3.1785302396669985e+00
14120:-2.4847791867967408e+00
14121:8.6791257263426391e-01
14122:1.9425264243372660e+00
14123:1.2122764774544008e+00
14124:-1.7019159779281734e+00
14125:7.5921238067958779e-02
14126:2.3852378944798597e-01
14127:-4.8757201255573401e-01
14128:3.6434184055512011e+00
14129:2.8627221518211829e+00
14130:2.4230796855998249e+00
14131:2.6275339210302788e+00
14132:2.4976553521877141e+00
14133:1.6145505080152500e+00
14134:1.3650730096105648e+00
14135:1.7609269351268688e+00
14136:5.8766103064290631e-01
14137:-7.3333603442334541e-02
14138:-4.5319591291630414e-02
14139:4.2043961682991859e-01
14140:-9.2885121087957323e-01
14141:-1.3059360219227549e+00
14142:-1.1119452222050730e+00
14143:-6.8489927784311488e-01
14144:2.9290661890698346e+00
14145:3.3714340305520638e+00
14146:3.4505875985517509e+00
14147:2.9955768389157167e+00
14148:2.1240994462226834e+00
14149:2.5819730601357231e+00
14150:2.5823394529505093e+00
14151:2.0745297659482276e+00
14152:7.4132957842171354e-01
14153:1.1096906828078241e+00
14154:1.1036063592142376e+00
14155:7.6042998797607764e-01
14156:-4.3868687781682147e-01
14157:-1.7068916807144680e-01
14158:-1.4145329082779950e-01
14159:-2.7833972788004951e-01
14160:2.5482877404479747e+00
14161:1.6283894331891982e+00
14162:6.0429523485509073e-01
14163:1.9011746990154307e-01
14164:1.6263188730450260e+00
14165:7.9187980783914014e-01
14166:4.6292245775029744e-02
14167:-3.3725528050784714e-02
14168:4.7808457212448802e-01
14169:-3.8087388121134458e-03
14170:-3.2902510889544795e-01
14171:-2.0183881370826717e-01
14172:-3.7820577471614258e-01
14173:-4.9826759139359117e-01
14174:-4.8256985473994046e-01
14175:-3.2137692943186946e-01
14176:1.5753582588942150e-01
14177:2.5866317853027415e-01
14178:3.2832104655774375e-01
14179:3.8793271700740477e-02
14180:1.5162277734245105e-01
14181:6.9127680420174620e-01
14182:1.2464712203188713e+00
14183:1.1421388220111193e+00
14184:3.5073499080372578e-02
14185:6.6477180227027044e-01
14186:1.4431165300171311e+00
14187:1.6744918321223898e+00
14188:-1.7727383877863717e-01
14189:1.9685608131074575e-01
14190:7.9726563480510215e-01
14191:1.2640324335036992e+00
14192:-3.0669050585826024e-01
14193:-1.0428849025364104e+00
14194:-1.6840294222177028e+00
14195:-1.5520586720103680e+00
14196:7.8968127166545021e-01
14197:-2.2741946688176806e-01
14198:-1.5225807775364120e+00
14199:-1.8914404799394222e+00
14200:1.5713530746044180e+00
14201:9.3931743202226226e-01
14202:-1.8783596298246316e-01
14203:-7.9518892821790488e-01
14204:1.4821049737138328e+00
14205:1.6503275560938435e+00
14206:1.4664356786397650e+00
14207:1.1092026189663509e+00
14208:-1.1673273569956519e+00
14209:-1.1981259011277465e-01
14210:1.3481075788844745e+00
14211:2.1319254197721755e+00
14212:-1.7023905981031335e+00
14213:-7.3646815967425516e-01
14214:9.8766352121078882e-01
14215:2.0486984538125772e+00
14216:-8.8225441751581934e-01
14217:-4.7968492400116425e-01
14218:6.3235402576681421e-01
14219:1.4606808244890774e+00
14220:8.8213532952544571e-01
14221:6.3707338306930716e-01
14222:6.5775102447853162e-01
14223:8.7847920021676806e-01
14224:2.3080055829006092e+00
14225:2.1426121956426782e+00
14226:1.3193702093468738e+00
14227:5.4352291760496574e-01
14228:2.3414560656503234e+00
14229:2.2556201263668245e+00
14230:1.3779301931165864e+00
14231:5.5045307432420454e-01
14232:1.7506853202106032e+00
14233:1.8364770607739647e+00
14234:1.3799861547563539e+00
14235:9.0677466740909718e-01
14236:1.0441703464620866e+00
14237:1.2839859558842122e+00
14238:1.4472054782807020e+00
14239:1.4763186561169965e+00
14240:1.8603197907130248e-01
14241:-7.7648425186955417e-02
14242:1.9098043243654544e-01
14243:6.5442588009324532e-01
14244:1.9249690584331650e-01
14245:-2.4390420235255554e-02
14246:3.6919358760169552e-01
14247:9.5532544904545824e-01
14248:7.0835794183164824e-01
14249:6.1924546462346619e-01
14250:9.2046896707958703e-01
14251:1.3244136433403986e+00
14252:1.4663837511186837e+00
14253:1.4629179967370045e+00
14254:1.5069686357252099e+00
14255:1.5838648864676166e+00
14256:9.0136803246201880e-01
14257:8.1802120863740002e-01
14258:-2.4388085550893149e-01
14259:-1.5865636471307747e+00
14260:1.2735370476581147e+00
14261:1.3596930480115288e+00
14262:5.0729615848878806e-01
14263:-7.6293918135975758e-01
14264:1.5406040995298289e+00
14265:1.5928893633546619e+00
14266:9.2225117411146806e-01
14267:-1.3840917639175349e-01
14268:1.6314946737509581e+00
14269:1.5375225889738426e+00
14270:9.5178965249867264e-01
14271:9.1231696447034841e-02
14272:-2.3790766171087574e+00
14273:-3.0797193576258222e+00
14274:-2.5135366174787155e+00
14275:-1.1678491142680940e+00
14276:-1.5745924855333970e+00
14277:-2.4770114738378699e+00
14278:-2.3745435351646993e+00
14279:-1.4171464189743901e+00
14280:-8.5404256286369407e-01
14281:-1.7981171248738332e+00
14282:-2.0889673910675608e+00
14283:-1.5737117594756285e+00
14284:-5.0173729213256046e-01
14285:-1.3657714236409442e+00
14286:-1.8138918014566672e+00
14287:-1.5592430172261025e+00
14288:-2.4702550064392048e-01
14289:8.6186732039040936e-01
14290:1.0703250844831074e+00
14291:4.3821827657481066e-01
14292:-6.7557316098654241e-01
14293:2.4452715743346731e-01
14294:4.4786078642159188e-01
14295:-6.0500669370133965e-02
14296:-1.0725778520089111e+00
14297:-4.1055876359478272e-01
14298:-2.0893215261767437e-01
14299:-5.3491108691165268e-01
14300:-1.2193382290208292e+00
14301:-7.2423498623464311e-01
14302:-4.9989600478770052e-01
14303:-6.7827793732597597e-01
14304:-9.4137641011606113e-02
14305:-7.2561357246046820e-01
14306:-7.3966658735927437e-01
14307:-1.8073011986916659e-01
14308:-5.0185723506900737e-01
14309:-9.9662303140857111e-01
14310:-9.2386431971189276e-01
14311:-3.7795777946855375e-01
14312:-8.4297894130329631e-01
14313:-1.1743143244110585e+00
14314:-1.0697137870384441e+00
14315:-6.2249267987170265e-01
14316:-8.8451728909471705e-01
14317:-1.1172289176679477e+00
14318:-1.0543699531101058e+00
14319:-7.3635836318457182e-01
14320:2.7542533051240559e-01
14321:9.0069270731084172e-01
14322:1.1537247666703558e+00
14323:9.1326802215552483e-01
14324:4.3903463420964170e-02
14325:6.1881851917818953e-01
14326:8.6631470352970474e-01
14327:6.8484115243052646e-01
14328:-2.8605430116094949e-01
14329:1.8141538999840437e-01
14330:4.1736061716765516e-01
14331:3.2743359029199914e-01
14332:-4.8840204649794755e-01
14333:-1.2692967703315969e-01
14334:9.1822772773355141e-02
14335:6.7630143317682939e-02
14336:6.4969400935979837e-01
14337:2.4926631729651688e-01
14338:-3.8821957648610328e-03
14339:1.9937722677726741e-02
14340:4.7668398551602476e-01
14341:1.6703426825867548e-01
14342:-1.5169870028689376e-02
14343:1.8551037870649021e-02
14344:1.9918620388715377e-01
14345:8.7300418633409951e-03
14346:-9.9915026658338776e-02
14347:-7.5494623856874263e-02
14348:-5.2337579469888436e-03
14349:-1.2004007700011422e-01
14350:-1.9493977879445479e-01
14351:-1.9110688255674882e-01
14352:1.0410619024136171e-01
14353:2.3560853062295872e-01
14354:3.1377304806559358e-01
14355:2.9484867081323496e-01
14356:9.1423314337717596e-02
14357:1.9723916046768963e-01
14358:2.4449040022425012e-01
14359:2.0895709993576680e-01
14360:-2.9100278881551880e-02
14361:3.3012809172874080e-02
14362:4.8794632241167750e-02
14363:1.2487598396658060e-02
14364:-1.6922259239586851e-01
14365:-1.4260570258616051e-01
14366:-1.4431156155317423e-01
14367:-1.7105307782904397e-01
14368:2.5673697698390829e-01
14369:1.6765489002831119e-01
14370:2.7920396048861082e-02
14371:-9.4069538518855980e-02
14372:1.6607434969432586e-01
14373:7.8062484708031760e-02
14374:-4.2376458227907511e-02
14375:-1.3772268013764433e-01
14376:-2.1838120038355717e-02
14377:-8.3617890923321406e-02
14378:-1.5345440630746407e-01
14379:-1.9933989674533628e-01
14380:-1.9238071897825140e-01
14381:-2.2380857993755451e-01
14382:-2.4536713952996517e-01
14383:-2.4865005969804599e-01
14384:-1.3817969474972314e+00
14385:-4.6623002963631544e-01
14386:-6.7896683579491013e-01
14387:-1.3274668951172452e+00
14388:-1.0981971328909490e+00
14389:-1.2966711935125197e+00
14390:-1.9500235071800143e+00
14391:-2.4969039699336251e+00
14392:-1.2320778926300349e+00
14393:-2.0023404717171189e+00
14394:-2.7995341359320260e+00
14395:-3.2799051177928611e+00
14396:-1.5524120650746522e+00
14397:-2.2974809112676904e+00
14398:-2.9771054798604530e+00
14399:-3.4123268217169871e+00
14400:-1.6639735656843653e+00
14401:-1.9074948151623150e+00
14402:-1.6657913636958757e+00
14403:-1.2757428087927141e+00
14404:-2.7247073645122200e+00
14405:-2.8584513051646803e+00
14406:-2.6223920790676889e+00
14407:-2.2949600352337565e+00
14408:-3.4901608885776283e+00
14409:-3.6915792082258587e+00
14410:-3.6384732223999841e+00
14411:-3.4311757788354953e+00
14412:-3.6452285474879931e+00
14413:-3.9840867523691168e+00
14414:-4.1905442069605607e+00
14415:-4.1531219083249811e+00
14416:-1.0662449973257944e+00
14417:-8.4318440097018676e-01
14418:-7.8857048063946678e-01
14419:-8.1836682570733899e-01
14420:-2.1223589717485525e+00
14421:-1.9314963860963659e+00
14422:-1.8210559305146545e+00
14423:-1.7169405740673658e+00
14424:-3.2899893342705626e+00
14425:-3.0929759924669713e+00
14426:-2.8953825109981874e+00
14427:-2.7042052040772404e+00
14428:-4.0657278618878037e+00
14429:-3.8796309029993474e+00
14430:-3.6106011306905077e+00
14431:-3.3798934427870591e+00
14432:-8.2558705676809729e-01
14433:-7.5596771521286565e-01
14434:-5.6997448853799237e-01
14435:-4.2314967714903978e-01
14436:-1.6174924716623138e+00
14437:-1.3302929419180525e+00
14438:-9.5832074887098584e-01
14439:-8.5144512735174560e-01
14440:-2.5628350666909601e+00
14441:-2.2236570290644622e+00
14442:-1.8562608176168662e+00
14443:-1.8241646578110422e+00
14444:-3.2464550292405603e+00
14445:-2.9905977948178948e+00
14446:-2.7709670988729513e+00
14447:-2.7979886378189698e+00
14448:-3.6000746115011723e-01
14449:-2.1017055568851964e-01
14450:1.8639087357851059e-01
14451:7.5518686566035620e-01
14452:-9.0201347886628869e-01
14453:-1.0592226885386227e+00
14454:-9.4790741874863682e-01
14455:-2.6176547478027257e-01
14456:-1.9421002531425953e+00
14457:-2.2267722621670414e+00
14458:-2.2009862691096092e+00
14459:-1.4546790704626911e+00
14460:-2.9031477054912762e+00
14461:-3.0722771985668071e+00
14462:-2.8853635936260540e+00
14463:-2.1567081648982405e+00
14464:1.1703490311940588e+00
14465:1.9004333467276959e+00
14466:2.4643682294340823e+00
14467:2.3893082425444403e+00
14468:4.0248146410760349e-01
14469:1.8670574708704211e+00
14470:3.4465583453953870e+00
14471:3.8013400369223938e+00
14472:-6.9757710540271722e-01
14473:1.0144291238988099e+00
14474:2.9416315614381969e+00
14475:3.4858344086072224e+00
14476:-1.5019247455211340e+00
14477:-1.4447214679942241e-01
14478:1.2836977602794628e+00
14479:1.6620892101651776e+00
14480:2.1256411687170456e+00
14481:1.5028875145917278e+00
14482:7.9430954523376218e-01
14483:5.8735499438364736e-01
14484:3.5335342120116628e+00
14485:2.5036293781823225e+00
14486:9.5233230652722956e-01
14487:2.6223344739258653e-01
14488:3.2660812162098125e+00
14489:2.2572303467661250e+00
14490:7.0648729933703291e-01
14491:8.4485397190741565e-02
14492:1.5010100822526657e+00
14493:8.8467538409744229e-01
14494:9.6424360902709921e-02
14495:-1.3602029248154252e-02
14496:6.6030478988458552e-01
14497:9.9265588049588915e-01
14498:1.5514308564095227e+00
14499:1.8804095242554215e+00
14500:2.4779500073474151e-01
14501:7.2583316277167542e-01
14502:1.7619253219020705e+00
14503:2.4055103782186706e+00
14504:1.4984531149723307e-01
14505:7.6617100493124035e-01
14506:1.8791276043625122e+00
14507:2.4498498649735247e+00
14508:2.1936259095747962e-01
14509:8.6180782987922466e-01
14510:1.6438107419914092e+00
14511:1.8686644518308657e+00
14512:1.9666154478780038e+00
14513:1.9765433172898115e+00
14514:1.8255774102896705e+00
14515:1.6949034992511818e+00
14516:2.5648134497711799e+00
14517:2.5245596731721647e+00
14518:2.0937664081668710e+00
14519:1.7142577410090964e+00
14520:2.5155758454930348e+00
14521:2.3132441806549586e+00
14522:1.7439611636156940e+00
14523:1.3325768018607973e+00
14524:1.7769943426917396e+00
14525:1.4558147212521242e+00
14526:9.8604232824093585e-01
14527:7.4688508980388268e-01
14528:1.6444970168647206e+00
14529:1.4611868355806725e+00
14530:9.1310775569220859e-01
14531:1.6184139708825063e-01
14532:1.5590850136991876e+00
14533:1.3006938228795968e+00
14534:8.5609080103176527e-01
14535:2.9701414755115618e-01
14536:1.1907975366692400e+00
14537:9.9899778069339384e-01
14538:7.2713555703736577e-01
14539:3.7390613446826393e-01
14540:6.9996743341387579e-01
14541:6.3685783648662209e-01
14542:4.8684787422453213e-01
14543:2.4411379096784960e-01
14544:-3.6013227379387158e-01
14545:-1.1582388771105572e+00
14546:-1.6463165749608890e+00
14547:-1.4977460385034345e+00
14548:-1.0208096930246129e-01
14549:-7.7197934732794948e-01
14550:-1.2985319047024777e+00
14551:-1.3168556176265156e+00
14552:1.0620396580284343e-01
14553:-3.9388521218709804e-01
14554:-8.8671856315729902e-01
14555:-1.0346736530457035e+00
14556:5.3817485104114021e-02
14557:-3.0940310402222782e-01
14558:-6.9343813121338838e-01
14559:-8.4974353084501508e-01
14560:-1.2297572096503391e+00
14561:-8.0561473250546867e-01
14562:-5.6003607336259731e-01
14563:-6.6208236063064496e-01
14564:-1.1714759419298773e+00
14565:-8.7962179368324045e-01
14566:-6.1931408752339956e-01
14567:-5.9991128103128921e-01
14568:-1.0075505294527392e+00
14569:-8.6876835270810160e-01
14570:-6.4541346763544172e-01
14571:-5.3500101750274187e-01
14572:-8.6642140939095147e-01
14573:-8.1195483094505561e-01
14574:-6.5812439298890890e-01
14575:-5.4433388338953881e-01
14576:-8.1819461828397477e-01
14577:-1.0112182464801907e+00
14578:-9.9077579392879234e-01
14579:-7.5365871843560917e-01
14580:-6.6890901222273624e-01
14581:-7.8190220497248553e-01
14582:-8.1008274584375162e-01
14583:-6.9561345634799665e-01
14584:-5.2167889800940070e-01
14585:-5.3875378309014732e-01
14586:-5.6921043228742796e-01
14587:-5.4289617845520599e-01
14588:-5.0452841665528458e-01
14589:-4.7303657863578946e-01
14590:-4.6962292453164373e-01
14591:-4.5488247205217036e-01
14592:-5.5646448038201601e-01
14593:-2.5521094033780151e-01
14594:-5.0074460122203346e-02
14595:-4.6736298839631873e-02
14596:-5.8060692473004594e-01
14597:-3.8614854450993769e-01
14598:-2.2876302509622484e-01
14599:-2.0678706330630309e-01
14600:-4.9860224575581086e-01
14601:-4.1436854819398478e-01
14602:-3.4586430493704640e-01
14603:-3.5219203283582357e-01
14604:-4.3318503115929569e-01
14605:-4.0182683036223704e-01
14606:-4.0559616556018147e-01
14607:-4.5851951151083709e-01
14608:-9.6478453741672507e-02
14609:-1.8227971014679864e-01
14610:-2.4965240892872242e-01
14611:-2.5995843487986398e-01
14612:-2.3348410292432678e-01
14613:-2.9207253191801319e-01
14614:-3.5900115584960263e-01
14615:-3.9205014223942525e-01
14616:-3.8173230245775375e-01
14617:-4.4503554138585205e-01
14618:-5.2235935714296122e-01
14619:-5.6748592450837321e-01
14620:-5.0642104401892907e-01
14621:-5.8923191292129429e-01
14622:-6.6804145970205420e-01
14623:-7.0091937254407544e-01
14624:-2.5082580041622815e-01
14625:-2.4159805111979304e-01
14626:-2.5007842911700684e-01
14627:-2.6995035723910882e-01
14628:-4.0094745835164830e-01
14629:-4.1495886330986914e-01
14630:-4.2918584566606038e-01
14631:-4.3510850448310828e-01
14632:-5.8391602015066046e-01
14633:-6.0363873045592187e-01
14634:-6.0750218998033567e-01
14635:-5.9265462112610923e-01
14636:-7.0772955206250476e-01
14637:-7.0861192980473575e-01
14638:-6.8796868165544844e-01
14639:-6.5511554341843281e-01
14640:-2.8364472110642652e-01
14641:-2.9812293613942698e-01
14642:-2.9386836331852562e-01
14643:-2.7495324793300524e-01
14644:-4.3542459624695951e-01
14645:-4.2132987373390590e-01
14646:-3.7487131205259849e-01
14647:-3.2012090678848809e-01
14648:-5.7793716217133873e-01
14649:-5.3432078444456810e-01
14650:-4.4726730472617310e-01
14651:-3.5913892538447306e-01
14652:-6.3132744744439384e-01
14653:-5.7225828923387911e-01
14654:-4.6676919904641806e-01
14655:-3.6451825929181891e-01
14656:-1.7248816639719289e+00
14657:-2.3751123310985762e+00
14658:-2.9534907471785936e+00
14659:-3.3534401010908845e+00
14660:-1.8195742708066613e+00
14661:-2.3684754810843409e+00
14662:-2.7928125504650163e+00
14663:-3.0740518504873515e+00
14664:-1.5090159096827742e+00
14665:-2.0235168595250093e+00
14666:-2.3238948632053473e+00
14667:-2.4103420126160002e+00
14668:-9.9265105939186149e-01
14669:-1.4745021317892244e+00
14670:-1.7251618924566954e+00
14671:-1.6870384754867964e+00
14672:-3.5910920782607278e+00
14673:-4.0039502386824664e+00
14674:-4.3769186539397404e+00
14675:-4.4672127040968510e+00
14676:-3.2588279707842411e+00
14677:-3.6913436387815386e+00
14678:-4.2770673925663978e+00
14679:-4.6159999002096503e+00
14680:-2.4546855919372117e+00
14681:-2.7234471253708006e+00
14682:-3.3540438879307395e+00
14683:-3.9487935821787352e+00
14684:-1.6166871316167273e+00
14685:-1.6709880346640207e+00
14686:-2.1558988035946460e+00
14687:-2.8387949420149852e+00
14688:-4.4309513296444667e+00
14689:-4.2749564879053290e+00
14690:-3.9762279340576576e+00
14691:-3.7273271893392241e+00
14692:-4.7200823316529252e+00
14693:-4.7307844821342702e+00
14694:-4.5080654969678946e+00
14695:-4.2696881593533389e+00
14696:-4.2646191536801252e+00
14697:-4.6412810640147164e+00
14698:-4.7626634822509510e+00
14699:-4.6547318008677356e+00
14700:-3.2939370053535058e+00
14701:-4.0011795341168828e+00
14702:-4.5391473983678763e+00
14703:-4.6289121299128855e+00
14704:-3.6030404506502687e+00
14705:-3.4147987702676121e+00
14706:-3.3001926816020624e+00
14707:-3.3470760775295214e+00
14708:-4.1542720126502202e+00
14709:-4.0360530248783553e+00
14710:-4.0184991594396138e+00
14711:-4.0499133834067145e+00
14712:-4.5571103029786757e+00
14713:-4.4401743751131164e+00
14714:-4.3570219317354617e+00
14715:-4.2698703944696845e+00
14716:-4.5648257376730488e+00
14717:-4.4078871578990819e+00
14718:-4.1587508716825798e+00
14719:-3.9255887864402474e+00
14720:-3.4201736311831699e+00
14721:-3.4578634757063873e+00
14722:-3.1212068967379816e+00
14723:-2.4339324096871726e+00
14724:-4.0563375697775443e+00
14725:-3.8853277385680589e+00
14726:-3.3484591883919830e+00
14727:-2.7647860415995202e+00
14728:-4.1859117428054322e+00
14729:-3.8473365921308074e+00
14730:-3.2330355715284833e+00
14731:-2.8098847293337430e+00
14732:-3.7784894979030725e+00
14733:-3.3936513698195290e+00
14734:-2.8348863338424679e+00
14735:-2.5143903439805255e+00
14736:-1.8955705206164133e+00
14737:-9.0351031052291553e-01
14738:2.5982701002883194e-02
14739:2.3248957419234362e-01
14740:-2.4271180289784020e+00
14741:-2.0027832892241699e+00
14742:-1.7907594665877287e+00
14743:-1.7832167909504970e+00
14744:-2.6607389399972470e+00
14745:-2.6451081415390463e+00
14746:-2.8193042461563675e+00
14747:-2.7971247633019245e+00
14748:-2.4277648580329978e+00
14749:-2.4484921315030337e+00
14750:-2.5222313008467490e+00
14751:-2.3360490398848355e+00
14752:1.1811972471012420e-01
14753:-1.7021180133508262e-01
14754:-3.4164800872738549e-01
14755:-7.5567326566224807e-02
14756:-1.7889331119963838e+00
14757:-1.5560363965979489e+00
14758:-8.5172150687953496e-01
14759:-1.1890051144947375e-01
14760:-2.6384036879911683e+00
14761:-1.9817825739710659e+00
14762:-7.8217723168817177e-01
14763:7.2453629996578964e-02
14764:-2.0739442061767921e+00
14765:-1.3253914706832579e+00
14766:-2.0699555609143866e-01
14767:4.5384455910433763e-01
14768:2.5411148432300568e-01
14769:8.5671197390106901e-01
14770:1.3440761336849292e+00
14771:1.3253811782638865e+00
14772:2.8890198488030933e-01
14773:7.4754836588672657e-01
14774:7.7215437665834630e-01
14775:4.3476661949544143e-01
14776:4.0227568853994650e-01
14777:6.0076106288110109e-01
14778:2.6937115557582081e-01
14779:-2.0418314903065432e-01
14780:6.4789004207900025e-01
14781:6.6930106012110580e-01
14782:2.7149607414443350e-01
14783:-1.4074670019202409e-01
14784:1.1475907409314434e+00
14785:7.9762925215897662e-01
14786:4.5862010741116416e-01
14787:3.6227551025093263e-01
14788:1.7019920291615784e-01
14789:-1.6420211455632064e-01
14790:-2.7704379775311594e-01
14791:-1.6725624985196533e-01
14792:-4.5572668933839477e-01
14793:-6.8719735754452893e-01
14794:-6.1388437038509813e-01
14795:-3.9295570529529139e-01
14796:-3.2928217318899766e-01
14797:-4.8276047505069941e-01
14798:-3.9070215729118180e-01
14799:-2.0515162659398326e-01
14800:3.8078443222301706e-01
14801:3.9253478382367563e-01
14802:2.9006383658003981e-01
14803:8.6967692822499804e-02
14804:-6.3523476205808699e-02
14805:3.9929418146090079e-02
14806:-1.0386381974781887e-02
14807:-1.6582222887450773e-01
14808:-2.5964329331013897e-01
14809:-1.3009606449053385e-01
14810:-1.6054162749420026e-01
14811:-2.7981337845836551e-01
14812:-1.0184836056304991e-01
14813:-4.2474521557201942e-03
14814:-3.1349819031563003e-02
14815:-1.2398271355154766e-01
14816:-6.9834594320785925e-02
14817:-3.5715918133150176e-01
14818:-6.5277059597335263e-01
14819:-7.7873084446614282e-01
14820:-2.7806402098167893e-01
14821:-4.5358512143014734e-01
14822:-6.0022318176810796e-01
14823:-6.5319468853453111e-01
14824:-3.5676696417557602e-01
14825:-4.4479161348177637e-01
14826:-4.6938369243823425e-01
14827:-4.5057702601788013e-01
14828:-1.8207710901697224e-01
14829:-2.4352985892466017e-01
14830:-2.5218743342912442e-01
14831:-2.3392895757294266e-01
14832:-7.9986682797155717e-01
14833:-7.7475740887248767e-01
14834:-6.7019540703459213e-01
14835:-5.7958980853793796e-01
14836:-6.6232041758381799e-01
14837:-6.6213865166530006e-01
14838:-6.4065330477393134e-01
14839:-6.1607417693282152e-01
14840:-4.3829314306440498e-01
14841:-4.4944727954158348e-01
14842:-5.1567450638331613e-01
14843:-5.8603636831932537e-01
14844:-2.2642924559105898e-01
14845:-2.6095832444664141e-01
14846:-3.8076087882802306e-01
14847:-5.0402077932871248e-01
14848:-5.4081973157103247e-01
14849:-4.9677658071482000e-01
14850:-4.6779543630313214e-01
14851:-4.4176420337438921e-01
14852:-6.0219054224145196e-01
14853:-5.7155224028351281e-01
14854:-5.2071912440259194e-01
14855:-4.7262823600681031e-01
14856:-6.2247354920600695e-01
14857:-6.4880598851099125e-01
14858:-6.1462224552945866e-01
14859:-5.5529472278814807e-01
14860:-5.7027359574016911e-01
14861:-6.3980648599000400e-01
14862:-6.4001240917658397e-01
14863:-5.9569568521148997e-01
14864:-4.2134235665741521e-01
14865:-4.0574324275163576e-01
14866:-4.4460228961933485e-01
14867:-5.2555805772766928e-01
14868:-4.4627838454636160e-01
14869:-4.4215879878251119e-01
14870:-5.2484998777690095e-01
14871:-6.4617188584423080e-01
14872:-5.2118247842587984e-01
14873:-5.1722560001774864e-01
14874:-6.2011672776706706e-01
14875:-7.6150675003764579e-01
14876:-5.6705695734968575e-01
14877:-5.6805412915164377e-01
14878:-6.6574344839433808e-01
14879:-7.9339405826790832e-01
14880:-5.8560906450638417e-01
14881:-6.7926274072384640e-01
14882:-7.5210461130736816e-01
14883:-7.6892212604644916e-01
14884:-7.2492881392802733e-01
14885:-8.3261516410785807e-01
14886:-8.8622750930556360e-01
14887:-8.6538602265199438e-01
14888:-8.4882938754829007e-01
14889:-9.5539729201788548e-01
14890:-9.7541084268680867e-01
14891:-9.0770781228645570e-01
14892:-8.7006565210661846e-01
14893:-9.5651625786974626e-01
14894:-9.5051904555212019e-01
14895:-8.6233121847113148e-01
14896:-7.6457221662799790e-01
14897:-7.4650763581590640e-01
14898:-7.0672774635065960e-01
14899:-6.6386266377561720e-01
14900:-8.3541502400006917e-01
14901:-7.7589359798729929e-01
14902:-6.9871222401189692e-01
14903:-6.4035654136676046e-01
14904:-8.4738326806347819e-01
14905:-7.4088690694769743e-01
14906:-6.2604788757232199e-01
14907:-5.5698540192940071e-01
14908:-7.9098402909626120e-01
14909:-6.6876851273410054e-01
14910:-5.4414106282266772e-01
14911:-4.7568916113952819e-01
14912:-6.3642073669489585e-01
14913:-5.7214790707585317e-01
14914:-4.6177079704189483e-01
14915:-3.5630411346650259e-01
14916:-6.0914100659296955e-01
14917:-5.4066973297218368e-01
14918:-4.2805645418054189e-01
14919:-3.2221319412439120e-01
14920:-5.2602512719335326e-01
14921:-4.6051496605815218e-01
14922:-3.5469465873362627e-01
14923:-2.5617394645250868e-01
14924:-4.4765057527525282e-01
14925:-3.8823785265069988e-01
14926:-2.9173710843767903e-01
14927:-2.0234685270697933e-01
14928:-6.4834580330999358e-01
14929:-1.0840835347279523e+00
14930:-1.3149295444416236e+00
14931:-1.2333057878223863e+00
14932:-8.6633648714810621e-02
14933:-3.2709362876538556e-01
14934:-4.6297093403156053e-01
14935:-3.4955087078554098e-01
14936:4.9554001774832651e-01
14937:6.5159108870537386e-01
14938:7.4278262806025463e-01
14939:8.3964161254082381e-01
14940:8.8171450430117293e-01
14941:1.3799233259775108e+00
14942:1.6990842648273090e+00
14943:1.7674261105777826e+00
14944:-1.1139703236400682e+00
14945:-1.0450763082804218e+00
14946:-1.3999401850447826e+00
14947:-2.0822783672293039e+00
14948:-2.0271987366979388e-01
14949:-2.3705317238921851e-02
14950:-2.2512582896984284e-01
14951:-8.7872244084041484e-01
14952:9.2638475018392930e-01
14953:1.0324892257626277e+00
14954:8.2296585360694541e-01
14955:2.1408403946117674e-01
14956:1.7636404420231233e+00
14957:1.6867938141262782e+00
14958:1.3246579712377922e+00
14959:7.3832195472669371e-01
14960:-2.5916678665867834e+00
14961:-3.4694902675612171e+00
14962:-4.2597224375907681e+00
14963:-4.4815365616518275e+00
14964:-1.4304762376661628e+00
14965:-2.4803240238057604e+00
14966:-3.5546773307140849e+00
14967:-3.9387486638017535e+00
14968:-3.0198338986087941e-01
14969:-1.2982295897106033e+00
14970:-2.3368823256884768e+00
14971:-2.7209541503368264e+00
14972:3.0202833102748422e-01
14973:-4.6538338806269491e-01
14974:-1.1801689814984322e+00
14975:-1.3999091375992794e+00
14976:-4.4431926195288218e+00
14977:-4.2589075333143231e+00
14978:-3.8986148853336684e+00
14979:-3.5826139632771241e+00
14980:-3.9393802383864736e+00
14981:-3.7440641680426401e+00
14982:-3.2884271968914760e+00
14983:-2.9074382334439477e+00
14984:-2.7323250000150110e+00
14985:-2.5879514219368391e+00
14986:-2.2491273567304946e+00
14987:-1.9854525521072310e+00
14988:-1.3834688731865252e+00
14989:-1.3198422281665454e+00
14990:-1.2496542340247232e+00
14991:-1.2304548483038227e+00
14992:-3.4100901996798312e+00
14993:-3.0304550134683241e+00
14994:-2.5272134968180779e+00
14995:-2.2365042375334805e+00
14996:-2.7238331763097841e+00
14997:-2.3828658789955712e+00
14998:-1.9681385212239257e+00
14999:-1.7042176972195069e+00
15000:-1.8704877573198107e+00
15001:-1.6489764347455702e+00
15002:-1.3371906830460902e+00
15003:-1.0843188466720632e+00
15004:-1.2333167542479473e+00
15005:-1.1662092522885588e+00
15006:-9.5042909521461050e-01
15007:-7.1783562830288961e-01
15008:-2.1450470918757238e+00
15009:-2.0872775319143200e+00
15010:-1.9953168699415111e+00
15011:-1.7025608059337443e+00
15012:-1.5910404685810922e+00
15013:-1.4064505767952529e+00
15014:-1.0994173459815961e+00
15015:-7.1111576239118257e-01
15016:-9.4624709548054087e-01
15017:-6.8589225442355373e-01
15018:-3.1230411869580649e-01
15019:2.8834693552871427e-02
15020:-5.8104781122163518e-01
15021:-3.4125671578441225e-01
15022:-4.4901934995608642e-02
15023:1.9088079433191429e-01
15024:-1.4129295040600691e+00
15025:-7.1048373620970273e-01
15026:2.2745842769034935e-01
15027:7.2724052688690566e-01
15028:-4.2670981599510738e-01
15029:1.4278052376111011e-01
15030:7.8937751153612956e-01
15031:1.0857307220464405e+00
15032:2.3522666168551834e-01
15033:6.1108167620041121e-01
15034:1.0167487336565102e+00
15035:1.2186504565898979e+00
15036:3.2516214458931053e-01
15037:5.8328913061686471e-01
15038:8.9932559698539949e-01
15039:1.0988922010762798e+00
15040:8.4985032589127951e-01
15041:8.1638588414094448e-01
15042:4.5813228080065810e-01
15043:1.1456396963634691e-01
15044:1.1398477294447504e+00
15045:1.0859954758297938e+00
15046:8.3193430220117082e-01
15047:5.9322948768178008e-01
15048:1.2753337575208803e+00
15049:1.2905980337960279e+00
15050:1.1778896511329344e+00
15051:1.0288315205744487e+00
15052:1.1808063507195816e+00
15053:1.2579111587723240e+00
15054:1.2288574404312642e+00
15055:1.1304704322352206e+00
15056:-3.9340258013419241e-02
15057:-1.7432014992415051e-01
15058:-1.2479013493527567e-01
15059:5.4113203864311040e-03
15060:4.8060034868524582e-01
15061:3.5394202812996090e-01
15062:3.2216502079503090e-01
15063:3.6355629544475804e-01
15064:9.4091255890035563e-01
15065:8.1353048540627160e-01
15066:7.2405309252372640e-01
15067:7.0840700541932311e-01
15068:1.0608419348719496e+00
15069:9.5851947317687691e-01
15070:8.8969158929411640e-01
15071:8.8426926820479068e-01
15072:8.0516341626707622e-02
15073:1.5239447735618691e-01
15074:1.3095410606803592e-01
15075:5.6405327523181378e-02
15076:3.9628597566808460e-01
15077:4.3235754490031547e-01
15078:4.2790094045916965e-01
15079:3.9049721339379251e-01
15080:7.1590635426962346e-01
15081:7.3405422577693147e-01
15082:7.5015008419195095e-01
15083:7.4718522415533772e-01
15084:8.9612992049108087e-01
15085:9.1914116521740308e-01
15086:9.3674374446187814e-01
15087:9.3310614453251572e-01
15088:7.4031868851992429e-03
15089:-5.2810444995999448e-02
15090:-8.4168443271061336e-02
15091:-9.3703415762421249e-02
15092:3.6107801303625392e-01
15093:3.0492792753058301e-01
15094:2.2394157200232340e-01
15095:1.4769474843344430e-01
15096:7.3664513491437511e-01
15097:6.8374889488465607e-01
15098:5.4816156807293459e-01
15099:3.9445988332499704e-01
15100:9.2178734086084935e-01
15101:8.6159676013745568e-01
15102:7.0448156188323940e-01
15103:5.2556996371122144e-01
15104:-1.0201482702169828e-01
15105:-1.6118041256905685e-01
15106:-3.0463032322580541e-01
15107:-4.4173937537133456e-01
15108:9.9099427760774156e-02
15109:-1.4870043303663597e-02
15110:-1.8971702325201290e-01
15111:-3.2581512097183962e-01
15112:2.9727486417737076e-01
15113:1.2471973908591241e-01
15114:-6.1866238344882654e-02
15115:-1.6499166048287386e-01
15116:4.1317506724592251e-01
15117:2.2853327582780178e-01
15118:5.6748224806432143e-02
15119:-1.6829022560113416e-02
15120:-5.1465094145451862e-01
15121:-5.9835452044542126e-01
15122:-6.2024989754295867e-01
15123:-5.9444693739593413e-01
15124:-3.9237775186780627e-01
15125:-4.7949898664998780e-01
15126:-5.3720941582418757e-01
15127:-5.5934810197711415e-01
15128:-2.0415397374265185e-01
15129:-2.7217107594535306e-01
15130:-3.6971714955999857e-01
15131:-4.6404820772280830e-01
15132:-3.7030605501299857e-02
15133:-9.3667891647155499e-02
15134:-2.2097973017623185e-01
15135:-3.6425619372378826e-01
15136:-5.7561935523825825e-01
15137:-5.8523094169162559e-01
15138:-6.7522526806444128e-01
15139:-7.8451947314065940e-01
15140:-5.7036017832281893e-01
15141:-6.0948124299950712e-01
15142:-6.8404739858835795e-01
15143:-7.4473266323533494e-01
15144:-5.2281645621271822e-01
15145:-6.1181994534027262e-01
15146:-6.6857251869528844e-01
15147:-6.5798913274705917e-01
15148:-4.5412835092527321e-01
15149:-5.7588825206497529e-01
15150:-6.2265055118205825e-01
15151:-5.6800549812583201e-01
15152:-8.4823631208796968e-01
15153:-9.1612288828559618e-01
15154:-8.9781798687879522e-01
15155:-8.0779135445282779e-01
15156:-7.7278877503524135e-01
15157:-7.9098734582449237e-01
15158:-7.4618510524862480e-01
15159:-6.6284932421875553e-01
15160:-6.3240885589241158e-01
15161:-5.7610041286815061e-01
15162:-4.9535920452040660e-01
15163:-4.3032494815306443e-01
15164:-5.0905902737684050e-01
15165:-4.0587844799385892e-01
15166:-3.0295141495133265e-01
15167:-2.5185604844066983e-01
15168:-7.3754878757867781e-01
15169:-6.1806997884847970e-01
15170:-4.9765641706411873e-01
15171:-4.3288020180171621e-01
15172:-6.0417736159452140e-01
15173:-5.0523955735492720e-01
15174:-4.0588546030560024e-01
15175:-3.5266879922233640e-01
15176:-3.9566657714705139e-01
15177:-3.3843319979892522e-01
15178:-2.8006428985387333e-01
15179:-2.4735602424974479e-01
15180:-2.3474375424477170e-01
15181:-2.0874619806286090e-01
15182:-1.8251060334593683e-01
15183:-1.6691549664588795e-01
15184:-4.0691692647650968e-01
15185:-3.5128774938327989e-01
15186:-2.6031921356614407e-01
15187:-1.7642800522793206e-01
15188:-3.3134524214116906e-01
15189:-2.8451483601031863e-01
15190:-2.0681918590803297e-01
15191:-1.3538465405941208e-01
15192:-2.3336322954683805e-01
15193:-2.0128560672351334e-01
15194:-1.4619557300887318e-01
15195:-9.4457880582601711e-02
15196:-1.5948500119045209e-01
15197:-1.4104733408196107e-01
15198:-1.0634365322420065e-01
15199:-7.1018907265720521e-02
15200:1.0753947713034337e+00
15201:1.7467663299701530e+00
15202:2.1942949612348333e+00
15203:2.2477575311489706e+00
15204:1.2828243918966389e+00
15205:2.1892956059956448e+00
15206:2.8127880194437398e+00
15207:2.8414074336290112e+00
15208:1.2010881958931918e+00
15209:2.2178898568584748e+00
15210:2.9273944277810782e+00
15211:2.9343224736436446e+00
15212:8.4872932448375027e-01
15213:1.7924016233168929e+00
15214:2.4600344849562816e+00
15215:2.4682089254392308e+00
15216:2.1885405121934065e+00
15217:1.9851082149907990e+00
15218:1.5034299735792302e+00
15219:9.2589413285980871e-01
15220:2.7010526576051275e+00
15221:2.3206655711870994e+00
15222:1.6913475239893592e+00
15223:1.1593106362476175e+00
15224:2.7436863354723191e+00
15225:2.2768806860759607e+00
15226:1.6302577153592022e+00
15227:1.2121097597556405e+00
15228:2.2886998252479507e+00
15229:1.8720971826861896e+00
15230:1.3384303664301380e+00
15231:1.0323980297079263e+00
15232:5.4685047462699132e-01
15233:-4.3888492446576055e-02
15234:-4.9830361316941740e-01
15235:-5.8141958316570030e-01
15236:8.8472329341293388e-01
15237:5.8776160596033578e-01
15238:5.5630930254378275e-01
15239:7.0652799489616991e-01
15240:1.0550090531780114e+00
15241:1.0228051997832623e+00
15242:1.3400750600072311e+00
15243:1.6995703854361410e+00
15244:9.3887942848537653e-01
15245:9.9822544494471621e-01
15246:1.4050561801447055e+00
15247:1.8379338564191667e+00
15248:-5.3924682048402883e-01
15249:-5.3036172074842847e-01
15250:-6.5526787758256821e-01
15251:-8.1120139364548605e-01
15252:8.0557236704664481e-01
15253:7.6732967941613672e-01
15254:3.8183627345651355e-01
15255:-3.4680935578457459e-02
15256:1.8719002041030415e+00
15257:1.8802827118755538e+00
15258:1.4071069434368539e+00
15259:8.3735166950390660e-01
15260:2.0592426314473786e+00
15261:2.1803114539657193e+00
15262:1.8387223051725201e+00
15263:1.3087718690466419e+00
15264:-8.9583382804143608e-01
15265:-9.3188417950357083e-01
15266:-7.8125133764103005e-01
15267:-5.7416433783997545e-01
15268:-2.5177189423981777e-01
15269:-4.7401917005401745e-01
15270:-4.7334868023824955e-01
15271:-3.4209238421946275e-01
15272:5.1805254961053315e-01
15273:1.1170144185405842e-01
15274:-9.2309357188185434e-02
15275:-8.0053473579669937e-02
15276:9.7614619915261358e-01
15277:4.9778339430021368e-01
15278:1.6722679274897898e-01
15279:1.0553752139152978e-01
15280:-4.5103003264428482e-01
15281:-2.5101052482694192e-01
15282:-2.4479127370936587e-02
15283:1.5438526556221802e-01
15284:-2.5486949973269868e-01
15285:-1.2381771137164574e-01
15286:1.7101788342835465e-02
15287:1.4108395288259937e-01
15288:-3.9576823812997493e-02
15289:3.6796162513573587e-02
15290:1.4848781521251767e-01
15291:2.6214020917217246e-01
15292:1.2784380718771646e-01
15293:2.0262872623115719e-01
15294:3.3148314779000365e-01
15295:4.3633092961903608e-01
15296:2.6060703816322367e-01
15297:4.8138346543605287e-01
15298:7.7627219472585862e-01
15299:9.7691930322203868e-01
15300:2.2317545319734891e-01
15301:3.9634120136063550e-01
15302:6.2398391401154074e-01
15303:7.7112800425225314e-01
15304:3.3508781854265568e-01
15305:4.4677582391392257e-01
15306:5.2854522855052999e-01
15307:5.3881366722965418e-01
15308:4.8610952004849933e-01
15309:5.1475812962187972e-01
15310:4.4972450748563308e-01
15311:3.5264563760349421e-01
15312:1.0642366821628246e+00
15313:1.1560572075685989e+00
15314:1.1543411440986628e+00
15315:1.0830831068756284e+00
15316:8.3130070858083949e-01
15317:9.0076170751967943e-01
15318:9.2527699162478594e-01
15319:9.1125256184002978e-01
15320:5.2758398420850960e-01
15321:5.2458215685039922e-01
15322:5.6422116648183729e-01
15323:6.2598917368690832e-01
15324:2.9708363689080286e-01
15325:2.5813588610694066e-01
15326:3.2062867373893023e-01
15327:4.2975766277054150e-01
15328:1.0299934033618892e+00
15329:9.6006627702949687e-01
15330:9.3114706352573218e-01
15331:9.5045182613728263e-01
15332:8.9918620256706228e-01
15333:9.0401999702736968e-01
15334:9.5936962523405600e-01
15335:1.0289488303771654e+00
15336:6.6919378914276861e-01
15337:7.6295177693703686e-01
15338:9.0193803250417393e-01
15339:1.0149873604459341e+00
15340:5.0083118027815188e-01
15341:6.2755209394361045e-01
15342:7.7903934473951031e-01
15343:8.8862326874294018e-01
15344:9.7197632268627787e-01
15345:1.0019100032677537e+00
15346:1.0115254834909890e+00
15347:9.9392284882983850e-01
15348:1.0703483360090349e+00
15349:1.1136277813077458e+00
15350:1.0997326480211893e+00
15351:1.0401020987193748e+00
15352:1.0728489606967904e+00
15353:1.1253121587604582e+00
15354:1.0810414282473799e+00
15355:9.6771765502818896e-01
15356:9.4313851530086301e-01
15357:9.9062576791734402e-01
15358:9.3748799526544235e-01
15359:8.1070625488169934e-01
15360:9.7427451271615162e-01
15361:9.0460357869422103e-01
15362:7.4633118877914606e-01
15363:5.7308706368733719e-01
15364:9.9328741442499868e-01
15365:8.9365293537413615e-01
15366:7.3994554092284881e-01
15367:6.0054354404187160e-01
15368:8.8456439795330077e-01
15369:7.4650586914872585e-01
15370:6.0931795150378310e-01
15371:5.3295048730792682e-01
15372:7.1760268214352718e-01
15373:5.7258666805072622e-01
15374:4.5614930944949483e-01
15375:4.2140514782895017e-01
15376:4.6544395936962807e-01
15377:2.9190257123899743e-01
15378:1.3618695275313569e-01
15379:7.3823699594497250e-02
15380:5.1962832940846027e-01
15381:3.9038818401856046e-01
15382:2.7311476977619686e-01
15383:2.2227352853586133e-01
15384:5.0076927418139217e-01
15385:4.4601564056928944e-01
15386:3.8089348051633160e-01
15387:3.3331384406290782e-01
15388:4.1979286061439808e-01
15389:4.1092544624016336e-01
15390:3.7648920335578479e-01
15391:3.2921141782554053e-01
15392:5.8131997942100784e-02
15393:4.7225382172495691e-04
15394:-1.4296777340314859e-01
15395:-3.0530957780112850e-01
15396:2.0577340993475160e-01
15397:1.3974479272870369e-01
15398:-1.9687548266930366e-02
15399:-1.9185508794036271e-01
15400:3.0657791934873513e-01
15401:2.2893754187088580e-01
15402:7.9274141831135708e-02
15403:-6.2926104360590943e-02
15404:2.9564770927378148e-01
15405:2.1822339477229608e-01
15406:9.8996045174543981e-02
15407:2.4799716612974778e-03
15408:-4.0584573326757589e-01
15409:-5.3841444194077848e-01
15410:-5.8131879251886664e-01
15411:-5.1176577813153690e-01
15412:-2.9496090281581572e-01
15413:-4.2699087858162726e-01
15414:-4.6224236239605621e-01
15415:-3.8457130819421909e-01
15416:-1.4251469478645584e-01
15417:-2.4126447841699605e-01
15418:-2.6385013527294721e-01
15419:-2.0383650475501811e-01
15420:-4.6587653561594090e-02
15421:-1.0463667119492992e-01
15422:-1.1578235694282252e-01
15423:-8.2000377778729538e-02
15424:-4.4173601042194061e-01
15425:-3.2275255907704475e-01
15426:-2.1249712440207216e-01
15427:-1.6717194244726044e-01
15428:-3.1050308920993275e-01
15429:-1.8877036137377518e-01
15430:-8.5599081080661485e-02
15431:-5.4281912974632945e-02
15432:-1.4899638471306820e-01
15433:-6.4292681076675462e-02
15434:-3.2306439568544746e-03
15435:4.4812878811518915e-03
15436:-5.3148803910781951e-02
15437:-1.6082066896047884e-02
15438:-2.7729970278162377e-03
15439:-1.4094947271412825e-02
15440:-1.5708937568350911e-01
15441:-1.4417970116919809e-01
15442:-1.3254285023692353e-01
15443:-1.2562510011045575e-01
15444:-5.4446261418027886e-02
15445:-5.9356238990046287e-02
15446:-6.6620341247841192e-02
15447:-7.0672798819546370e-02
15448:-4.2424689812521933e-03
15449:-2.0553116592278178e-02
15450:-3.6396899345275395e-02
15451:-4.4108671485252327e-02
15452:-2.5383988145898383e-02
15453:-4.1145204161170221e-02
15454:-5.1242008279500748e-02
15455:-5.3789140511645669e-02
15456:-1.2191046257186097e-01
15457:-1.1124550479093505e-01
15458:-8.7771461509444579e-02
15459:-6.0954563335466096e-02
15460:-7.1699962936293826e-02
15461:-7.1051373317866831e-02
15462:-6.2272961276745274e-02
15463:-4.6841523463110296e-02
15464:-4.6660410117173728e-02
15465:-4.9476767607873388e-02
15466:-4.6607516333437252e-02
15467:-3.6762033623049514e-02
15468:-5.4108733377998638e-02
15469:-5.2717356050964365e-02
15470:-4.5193065048166878e-02
15471:-3.3518899273538703e-02
15472:5.6808023305008049e-01
15473:1.4175788496647852e+00
15474:2.0282877234398669e+00
15475:2.0472926875855295e+00
15476:1.5444444680296679e-01
15477:7.8518310941339298e-01
15478:1.2650224059295445e+00
15479:1.3129159451981962e+00
15480:-1.4592901731662636e-01
15481:1.9849268807550410e-01
15482:4.9615514058850713e-01
15483:5.7272268819007977e-01
15484:-2.2796318062065182e-01
15485:-4.3069084012106358e-02
15486:1.2894844612800324e-01
15487:1.9787325677568540e-01
15488:1.8932110899323251e+00
15489:1.5437546438737462e+00
15490:1.1071254958952452e+00
15491:8.6083991327235243e-01
15492:1.2198183547736643e+00
15493:1.0073403832532521e+00
15494:7.3926864561757022e-01
15495:5.7847686008655985e-01
15496:5.5511349365383189e-01
15497:4.9732902376978605e-01
15498:3.9923866422245613e-01
15499:3.1277858411061216e-01
15500:2.1149963295208543e-01
15501:2.2412900511191092e-01
15502:2.1258860715553274e-01
15503:1.7413156798163351e-01
15504:7.8708876286829088e-01
15505:8.5101906677160399e-01
15506:1.2416778086420770e+00
15507:1.6829093614690118e+00
15508:5.2396960805478399e-01
15509:5.6717653660536005e-01
15510:8.8970378174960563e-01
15511:1.3093950373745533e+00
15512:2.6853461689089519e-01
15513:2.6919694122914101e-01
15514:4.7646620865655043e-01
15515:8.1636503635325031e-01
15516:1.4374637652905525e-01
15517:1.2829296489661587e-01
15518:2.5317541689433704e-01
15519:5.0481843734079501e-01
15520:1.9271102350989178e+00
15521:2.1315830388921446e+00
15522:1.9236109073526604e+00
15523:1.4670109817994910e+00
15524:1.5717901933936971e+00
15525:1.8859032459396037e+00
15526:1.8848189736344099e+00
15527:1.5596225235819814e+00
15528:1.0570157824546562e+00
15529:1.4115933242268033e+00
15530:1.5612416209598992e+00
15531:1.3663430146063920e+00
15532:6.9825998235852571e-01
15533:1.0107159399135244e+00
15534:1.1867408761160383e+00
15535:1.0579059563524058e+00
15536:1.1499932670916282e+00
15537:6.6164690503879953e-01
15538:2.8597592585679971e-01
15539:2.0252837458112366e-01
15540:1.2820164847874393e+00
15541:8.1457303696930450e-01
15542:4.2745508023315659e-01
15543:3.6021014221342651e-01
15544:1.1463608556536142e+00
15545:7.5874107920720812e-01
15546:4.5968417455942434e-01
15547:4.8170366003069121e-01
15548:8.8379236432149144e-01
15549:5.8160085671947193e-01
15550:3.8769133802300576e-01
15551:4.8419022302034881e-01
15552:2.2743957376515855e-01
15553:3.1949394865363945e-01
15554:4.6256046010246227e-01
15555:5.4676884283168115e-01
15556:4.1514749218639457e-01
15557:5.5583943534945035e-01
15558:6.9855076744525835e-01
15559:7.0085422112713402e-01
15560:5.9723701035604781e-01
15561:8.0344361108393758e-01
15562:9.0781341497112678e-01
15563:7.7427267849920900e-01
15564:6.3494603398548388e-01
15565:8.6688876228620204e-01
15566:9.3338702066995072e-01
15567:7.2878742799881480e-01
15568:5.6829377482088217e-01
15569:5.3011526659241248e-01
15570:3.8022589913340094e-01
15571:2.4191657805772568e-01
15572:6.4471721078062583e-01
15573:4.7098684261427060e-01
15574:2.0999253808039683e-01
15575:6.3074241456283542e-02
15576:6.1167819125407352e-01
15577:2.9628327536965621e-01
15578:-7.0928003491764280e-03
15579:-7.4774900769072838e-02
15580:5.2073346513143948e-01
15581:1.6986457179903183e-01
15582:-9.1411119229654086e-02
15583:-7.8852930445625163e-02
15584:1.7855630697062957e-01
15585:1.4354693970756496e-01
15586:2.2912889882892415e-01
15587:3.5539501402279028e-01
15588:2.6519163753119052e-02
15589:4.5935883334711859e-02
15590:1.8057817901007994e-01
15591:3.1173310530371356e-01
15592:-3.4620500055369284e-02
15593:9.0327031663114801e-02
15594:2.6811438456471220e-01
15595:3.6184455150402761e-01
15596:1.2153846585422715e-02
15597:1.8881617082866306e-01
15598:3.5618689905237294e-01
15599:3.9948861759211135e-01
15600:4.3117888477124844e-01
15601:5.5461670197606316e-01
15602:6.8613737752280068e-01
15603:7.7587997250394047e-01
15604:3.7474322222890821e-01
15605:4.5744264406409268e-01
15606:5.1632670964369365e-01
15607:5.4471543595413785e-01
15608:3.8239846393649618e-01
15609:3.7795644804240136e-01
15610:3.1679004997240434e-01
15611:2.4938095573938945e-01
15612:3.8418414699583386e-01
15613:3.1786382051486900e-01
15614:1.8224539931317021e-01
15615:5.5174065017849258e-02
15616:8.2076169155876522e-01
15617:8.5975897500173426e-01
15618:8.1049313019923463e-01
15619:6.9347059885277640e-01
15620:5.5880879027347263e-01
15621:5.6694123488199455e-01
15622:5.2784870549991247e-01
15623:4.5116312826297844e-01
15624:2.1338772542988313e-01
15625:1.6502715165520998e-01
15626:1.3235342839664066e-01
15627:1.2132864695451079e-01
15628:-1.4389012664089956e-02
15629:-1.0675900381435671e-01
15630:-1.4829719844505512e-01
15631:-1.2311601715989955e-01
15632:6.0649974546367624e-01
15633:4.7190681794578471e-01
15634:3.6957016010800176e-01
15635:3.4875403670274080e-01
15636:3.9400839732271853e-01
15637:3.0440677555955004e-01
15638:2.3768799820813771e-01
15639:2.2977920288884249e-01
15640:1.1748376605208340e-01
15641:1.0812066815703644e-01
15642:9.5169816054533007e-02
15643:8.8599065788989795e-02
15644:-9.2890034969996163e-02
15645:-4.8402541626429381e-02
15646:-2.4655203567837042e-02
15647:-3.4016819675355726e-02
15648:3.5609012911496601e-01
15649:3.6086420703479405e-01
15650:3.3635321719185207e-01
15651:2.9033842572330715e-01
15652:2.4009931752890651e-01
15653:2.4849421226129959e-01
15654:2.2582463015138896e-01
15655:1.7904101726653535e-01
15656:8.6689210270436204e-02
15657:7.3561031316033601e-02
15658:3.2666399853010085e-02
15659:-1.8975166848261751e-02
15660:-4.8577194318380708e-02
15661:-8.3955432015461573e-02
15662:-1.4329661370002852e-01
15663:-1.9840722217446496e-01
15664:2.5574015947026019e-01
15665:1.8403734449018178e-01
15666:8.8052368746240964e-02
15667:2.0073282792580451e-02
15668:1.4399936071277225e-01
15669:8.3879630866751528e-02
15670:2.7190551196627503e-02
15671:5.3744718198186249e-03
15672:-5.2678879912132159e-02
15673:-9.8744846935636052e-02
15674:-1.1665983594416250e-01
15675:-9.5818811843660881e-02
15676:-2.2962701537443000e-01
15677:-2.6603779254318477e-01
15678:-2.6417837270528710e-01
15679:-2.2437614852261825e-01
15680:-1.1179985160905606e-02
15681:-4.5834364453581869e-02
15682:-5.1017547670220403e-02
15683:-3.3174855348217368e-02
15684:2.3954498339376108e-03
15685:3.7122636680929025e-03
15686:5.4448728793209484e-03
15687:-3.5857049276712570e-03
15688:-7.3481315905285963e-02
15689:-4.1731626058133346e-02
15690:-3.6465856548440943e-02
15691:-6.8939065426679713e-02
15692:-1.9156938909708413e-01
15693:-1.4782808084493651e-01
15694:-1.3938004563863349e-01
15695:-1.7514723690703721e-01
15696:-1.9816758510203314e-02
15697:-1.0825797099749179e-02
15698:-2.4306041296855284e-02
15699:-4.4157694612112261e-02
15700:-1.4975053295992771e-02
15701:-4.6045187735790021e-02
15702:-8.8534080200728504e-02
15703:-1.0793605059993659e-01
15704:-1.0004390369511328e-01
15705:-1.5325627192119226e-01
15706:-1.9127954528380806e-01
15707:-1.8313290007613905e-01
15708:-2.0816346472914468e-01
15709:-2.5217345633404015e-01
15710:-2.5805856204319200e-01
15711:-2.1667636032233270e-01
15712:-5.4847845028105136e-02
15713:-6.6465046458344237e-02
15714:-6.9060357469038436e-02
15715:-6.6329574017409604e-02
15716:-1.0983530399894510e-01
15717:-1.0427063544541677e-01
15718:-8.8812346453350399e-02
15719:-7.7722897147230227e-02
15720:-1.6338185856449114e-01
15721:-1.2498037957119000e-01
15722:-8.5047483838803103e-02
15723:-6.8220183608901780e-02
15724:-1.7873179921130256e-01
15725:-1.1653040884985283e-01
15726:-6.3914492895416342e-02
15727:-4.7839407779271856e-02
15728:-6.4495276946533620e-02
15729:-5.8989826986584122e-02
15730:-4.6603862716239119e-02
15731:-3.2506656727967799e-02
15732:-7.3709508885502484e-02
15733:-6.4067217259752784e-02
15734:-4.6666648640301747e-02
15735:-3.0347184709353856e-02
15736:-6.5059994034848273e-02
15737:-5.7201277213804573e-02
15738:-4.1882746836709846e-02
15739:-2.7729063205073234e-02
15740:-4.7547476445427311e-02
15741:-4.5310550351850741e-02
15742:-3.6857174945960421e-02
15743:-2.7439925808136645e-02
15744:-2.3235615507188020e-01
15745:-9.6462971811500764e-02
15746:1.9407123799605727e-02
15747:6.7756361164783049e-02
15748:-2.5517004609896460e-01
15749:-1.6940210678804199e-01
15750:-1.2928662039093103e-01
15751:-1.2935969257088206e-01
15752:-3.6731329234181309e-01
15753:-2.7487837025419359e-01
15754:-2.5215285469324389e-01
15755:-2.9395654904838270e-01
15756:-5.5507060533135744e-01
15757:-4.0059791077101464e-01
15758:-3.0603973311033406e-01
15759:-3.3113264501758499e-01
15760:8.2203235020505888e-02
15761:1.0756667267123898e-01
15762:1.2640762505769282e-01
15763:1.1713204715136642e-01
15764:-1.3200717824140895e-01
15765:-1.1200011691301294e-01
15766:-5.0442315168687822e-02
15767:7.4506240483896381e-03
15768:-3.2883618962074290e-01
15769:-3.4524643258402177e-01
15770:-2.6657658244575588e-01
15771:-1.3879473385539307e-01
15772:-3.7755730286184241e-01
15773:-4.2396408745486458e-01
15774:-3.7437320507959682e-01
15775:-2.4450693032215348e-01
15776:1.0187077176095392e-01
15777:9.2507366084709317e-02
15778:1.8328048851664674e-01
15779:3.8176923551158376e-01
15780:3.6071512819580306e-02
15781:6.8854153907099619e-02
15782:1.2719164029354257e-01
15783:2.3620869739197328e-01
15784:-5.4348910333293143e-02
15785:5.3152725321033559e-02
15786:1.2242872265451403e-01
15787:1.6119528929117044e-01
15788:-1.4629811055357553e-01
15789:-2.3950895867439108e-03
15790:1.0578745538096652e-01
15791:1.4490253502969389e-01
15792:5.4045526437346059e-01
15793:8.0697786182079623e-01
15794:9.6838426892217988e-01
15795:8.6414860815449801e-01
15796:3.2838061355777975e-01
15797:4.9824099635316754e-01
15798:6.1334671583963751e-01
15799:5.4505514946847489e-01
15800:1.8783572938585674e-01
15801:2.4363649167313348e-01
15802:2.7295317043687051e-01
15803:2.1586140738009241e-01
15804:1.5502611678948150e-01
15805:1.5461942974731363e-01
15806:1.0250371037458678e-01
15807:1.1508996735921977e-02
15808:7.1514279324955599e-01
15809:4.6288872528722580e-01
15810:3.2502363069767559e-01
15811:4.4812369635641297e-01
15812:4.4084956218536897e-01
15813:2.7211482007960847e-01
15814:2.0673210764764030e-01
15815:3.3522413989689914e-01
15816:1.4987489823849007e-01
15817:5.5680364924724106e-02
15818:3.8267025383919837e-02
15819:1.2859266780882062e-01
15820:-5.3490119321400895e-02
15821:-1.2584755250367308e-01
15822:-1.2081946798555812e-01
15823:-5.4062476104673587e-02
15824:6.0463808775119043e-01
15825:8.3313865894449701e-01
15826:8.8257953106998377e-01
15827:6.6838728817777338e-01
15828:4.7256423300023681e-01
15829:6.6062617743500462e-01
15830:6.8535956215846394e-01
15831:4.9899050651320925e-01
15832:2.1271198458696380e-01
15833:3.1380127012169279e-01
15834:3.0553904009618160e-01
15835:1.8976156849112763e-01
15836:-4.7338587467494917e-03
15837:3.1817576325962924e-02
15838:-1.6315079738666177e-02
15839:-9.9508002376813842e-02
15840:4.6071080141623139e-01
15841:1.2938458267024563e-01
15842:-8.6760745030701428e-02
15843:-4.1175115839599041e-02
15844:3.2812436214531066e-01
15845:7.4949753201046618e-02
15846:-5.9334123579950292e-02
15847:6.4874591626044907e-03
15848:9.5241592714568654e-02
15849:-2.9250025119404024e-02
15850:-7.3219531306314534e-02
15851:-2.4153631301372300e-02
15852:-1.4940469862118200e-01
15853:-1.9694623639614389e-01
15854:-1.8439839468237545e-01
15855:-1.4127771426529701e-01
15856:6.1593919686202592e-02
15857:2.3896015167624318e-01
15858:3.7886384644863247e-01
15859:3.9284040628359251e-01
15860:9.8575236549241108e-02
15861:2.3764052539541888e-01
15862:3.1882421177153930e-01
15863:3.0034160126855503e-01
15864:2.5015211836960899e-02
15865:8.8694652156770762e-02
15866:1.1014484197009584e-01
15867:8.7368185966156864e-02
15868:-1.1443019407955549e-01
15869:-8.2682150895282164e-02
15870:-7.2868917145052670e-02
15871:-8.1188619840693796e-02
15872:3.6297469944345057e-01
15873:2.7547199871629519e-01
15874:1.1753827086426274e-01
15875:-2.8895855763771863e-02
15876:2.6248428989651523e-01
15877:1.6844104334848281e-01
15878:7.1068744979546914e-03
15879:-1.4594313402805403e-01
15880:6.3705307564234828e-02
15881:7.1652727314208133e-04
15882:-1.1866264865325098e-01
15883:-2.3961081562660441e-01
15884:-8.9626846420883630e-02
15885:-1.2401025590444030e-01
15886:-2.0236735257135757e-01
15887:-2.8314508828571094e-01
15888:-1.1094101537064262e-01
15889:-2.2296291812280136e-01
15890:-2.7524342594713030e-01
15891:-2.4179730155557771e-01
15892:-2.3482775239153519e-01
15893:-3.5954019804895260e-01
15894:-4.2017975663477386e-01
15895:-3.8118664058485358e-01
15896:-3.1193929265219233e-01
15897:-4.1093168593751206e-01
15898:-4.5167875584381045e-01
15899:-4.1001570257624836e-01
15900:-3.2984809913319746e-01
15901:-3.8367551748554923e-01
15902:-3.8385633015814774e-01
15903:-3.3433848145808637e-01
15904:-2.0063682829716920e-01
15905:-1.3704397272698465e-01
15906:-9.8790858460986772e-02
15907:-1.0920258702897231e-01
15908:-3.3187724847589789e-01
15909:-2.5488096548593708e-01
15910:-2.0988047517242653e-01
15911:-2.2733757546073338e-01
15912:-3.6416597604940842e-01
15913:-2.9921709452575324e-01
15914:-2.7571299555403622e-01
15915:-3.1019545283521555e-01
15916:-2.9458577599217201e-01
15917:-2.4970706827996428e-01
15918:-2.5565155841116355e-01
15919:-3.0517571390938758e-01
15920:-1.2926399173906292e-01
15921:-1.7452765135775961e-01
15922:-2.4180687267269918e-01
15923:-2.9745269693448345e-01
15924:-2.5588176980569349e-01
15925:-3.1318280273872584e-01
15926:-3.8435767612240229e-01
15927:-4.3266537017221562e-01
15928:-3.4647387793012063e-01
15929:-4.0808502189136464e-01
15930:-4.6645522054028199e-01
15931:-4.9355750242342800e-01
15932:-3.4399490207400163e-01
15933:-4.0049142539830529e-01
15934:-4.3918587685568550e-01
15935:-4.4658333669198252e-01
15936:-3.2667333571680657e-01
15937:-3.5814689095046554e-01
15938:-3.4905908588352391e-01
15939:-3.0386571003651536e-01
15940:-4.5438560893762375e-01
15941:-4.7274583923184238e-01
15942:-4.5105278282876632e-01
15943:-4.0053805435473139e-01
15944:-5.0127896419290174e-01
15945:-4.9880290909302466e-01
15946:-4.6287541948992617e-01
15947:-4.1159441894109028e-01
15948:-4.4392972270685144e-01
15949:-4.2732980452997488e-01
15950:-3.8382660932677287e-01
15951:-3.3462957977781382e-01
15952:-2.6853966171492960e-01
15953:-2.2177092205602650e-01
15954:-2.0983054902296591e-01
15955:-2.4049026095324655e-01
15956:-3.6403392402712592e-01
15957:-3.1502375376198427e-01
15958:-2.9502223646286124e-01
15959:-3.1157481481714905e-01
15960:-3.7785584132205297e-01
15961:-3.3085037251033084e-01
15962:-3.0262102756895654e-01
15963:-3.0210192661856333e-01
15964:-3.0432280091634406e-01
15965:-2.6174608532117427e-01
15966:-2.3410053246424564e-01
15967:-2.3009018273017096e-01
15968:-2.6895568324784036e-01
15969:-2.9864662793110341e-01
15970:-2.7992551487751810e-01
15971:-2.2040866576813242e-01
15972:-3.2870567199675771e-01
15973:-3.3331387788602562e-01
15974:-2.8308259537952685e-01
15975:-2.0748521191005301e-01
15976:-3.0630659370748403e-01
15977:-2.9204459973994296e-01
15978:-2.3379872158252199e-01
15979:-1.6783227864687070e-01
15980:-2.3159165883657998e-01
15981:-2.1984864808122787e-01
15982:-1.7928031022543708e-01
15983:-1.3571544083204828e-01
15984:-1.7468549342904008e-01
15985:-1.0384603819935312e-01
15986:-4.8970369805072744e-02
15987:-3.5369314191171702e-02
15988:-1.5790197032862688e-01
15989:-8.5547228319498222e-02
15990:-3.5066600827544141e-02
15991:-2.6134696800827167e-02
15992:-1.2911131785603733e-01
15993:-7.5015329628823901e-02
15994:-3.9952717350131596e-02
15995:-3.5069323945338217e-02
15996:-1.1087350165327824e-01
15997:-7.6190137747031414e-02
15998:-5.2939880805744237e-02
15999:-4.8139850370324803e-02
16000:-3.7075293437001472e-02
16001:-3.8684333770840858e-02
16002:-3.4954859613798468e-02
16003:-2.8612084107809656e-02
16004:-2.9859581903756732e-02
16005:-3.5408658059805941e-02
16006:-3.6933415265323094e-02
16007:-3.4208801596544776e-02
16008:-3.8163956596396362e-02
16009:-4.3180882973579721e-02
16010:-4.6178022106918383e-02
16011:-4.5898067493745108e-02
16012:-4.8820116313259929e-02
16013:-5.0661444434651412e-02
16014:-5.3294645447517601e-02
16015:-5.5583606929440241e-02
16016:-6.9243329010870425e-01
16017:-4.8341891234137524e-01
16018:-3.1811982600605038e-01
16019:-3.1162110483224259e-01
16020:-7.5868337000619457e-01
16021:-4.4750844824302782e-01
16022:-2.0466702336712750e-01
16023:-1.7297941187175192e-01
16024:-8.4158953643873130e-02
16025:1.6751458380822518e-01
16026:2.1746834283479896e-01
16027:1.3041219888241143e-01
16028:1.3178834320324626e+00
16029:1.1992571125075135e+00
16030:7.2609732893306433e-01
16031:3.7408523428732177e-01
16032:-3.5483059528182070e-01
16033:-4.1231699777161612e-01
16034:-3.9483914518521751e-01
16035:-2.9144332390957411e-01
16036:-2.1250419539870236e-01
16037:-2.7944245316206900e-01
16038:-3.0980437821909756e-01
16039:-2.7333525693981658e-01
16040:6.8440894295779112e-02
16041:9.9657575675508852e-03
16042:9.4993137390257665e-03
16043:2.1508481293486793e-02
16044:2.6180911723408307e-01
16045:2.3015637958426330e-01
16046:3.7879128212335322e-01
16047:4.9860558394349314e-01
16048:-2.0386000754963562e-01
16049:-5.8977716459594751e-02
16050:7.5575346043121355e-02
16051:1.3786581593448197e-01
16052:-2.2961375292518793e-01
16053:-1.2676505216985362e-01
16054:2.4518722504899081e-02
16055:1.3771952513234420e-01
16056:2.1866373964791658e-02
16057:4.2693952472260918e-02
16058:1.1572875776595740e-01
16059:2.0515188609880847e-01
16060:5.2685154624054820e-01
16061:5.1548409455418687e-01
16062:4.2658974974086861e-01
16063:3.4253085116340043e-01
16064:1.5572493587346153e-01
16065:1.4323288343026117e-01
16066:4.5259442985783473e-02
16067:-8.1664929035168574e-02
16068:1.8806856164081531e-01
16069:1.8865348777315680e-01
16070:3.6052376445810712e-02
16071:-1.5797177306158547e-01
16072:2.5746015299811142e-01
16073:2.5518002400661033e-01
16074:8.6215128611630817e-02
16075:-1.2314865055191643e-01
16076:3.0114500622643536e-01
16077:2.0162060224640010e-01
16078:4.9082389717021113e-02
16079:-6.0767105367085371e-02
16080:-1.5934196264552650e-01
16081:-2.3515821862642372e-01
16082:-2.1801365070681986e-01
16083:-1.5062710621506731e-01
16084:-2.7007476527782065e-01
16085:-3.7389485148006613e-01
16086:-3.4582293269368952e-01
16087:-2.6053148330012355e-01
16088:-2.4222399209564097e-01
16089:-3.5141501748873333e-01
16090:-3.1720828882324670e-01
16091:-2.1967081806403471e-01
16092:-1.0750031204065821e-01
16093:-1.3371776697579998e-01
16094:-8.3677404085796048e-02
16095:-1.9434843589452511e-02
16096:-1.0961841914614705e-01
16097:-9.7416427622610366e-02
16098:-1.7366591796022554e-01
16099:-2.5919066785247891e-01
16100:-2.1460397928597319e-01
16101:-2.1047688144742810e-01
16102:-3.1056057179321567e-01
16103:-4.0547535864447615e-01
16104:-1.6516964735399572e-01
16105:-1.4074148672170941e-01
16106:-2.0914752410619528e-01
16107:-2.7870369291916103e-01
16108:1.1534451940411155e-02
16109:3.6385008377777507e-02
16110:3.8198862902111559e-02
16111:5.0677424856074384e-02
16112:-2.9981167362123246e-01
16113:-3.2534736867888631e-01
16114:-2.8697083612801766e-01
16115:-2.3354378133548073e-01
16116:-4.4275040363958423e-01
16117:-4.4865914583704181e-01
16118:-3.7286040377339441e-01
16119:-2.9345537935166149e-01
16120:-3.0262626969136114e-01
16121:-2.8169823882820244e-01
16122:-1.7782195102913789e-01
16123:-9.2037662508839990e-02
16124:7.1815669199849247e-02
16125:1.4705393571810624e-01
16126:2.5474512448816300e-01
16127:2.9032534313672564e-01
16128:-2.0591809643036388e-01
16129:-1.7065354028139923e-01
16130:-1.5164824619179854e-01
16131:-1.5116142965385354e-01
16132:-2.5634869335604937e-01
16133:-2.1369196495879600e-01
16134:-1.9892267876979089e-01
16135:-2.0647977955146421e-01
16136:-6.0415495259778809e-02
16137:-5.3573250759817892e-02
16138:-1.0726552845119092e-01
16139:-1.5722901632273084e-01
16140:2.7672576830112261e-01
16141:1.8674023801708270e-01
16142:2.5559168587814700e-02
16143:-5.8616448720521054e-02
16144:-1.5481851624201695e-01
16145:-1.7996975751508851e-01
16146:-2.4061112284239886e-01
16147:-2.9890216045180851e-01
16148:-2.1376897268280279e-01
16149:-2.3202883539423150e-01
16150:-2.5953343708022364e-01
16151:-2.7849694182647727e-01
16152:-1.7493514996295154e-01
16153:-1.7433325752614118e-01
16154:-1.3771227449618892e-01
16155:-1.1141363361091154e-01
16156:-6.8383579104501865e-02
16157:-1.6699226500090900e-02
16158:1.0134835890223025e-01
16159:1.5441173661100557e-01
16160:-3.2958350654794955e-01
16161:-3.5387635914894344e-01
16162:-3.2580534427348323e-01
16163:-2.6917848872642380e-01
16164:-2.8551851739034190e-01
16165:-2.7755372768526410e-01
16166:-2.3312826048897742e-01
16167:-1.8238196103744111e-01
16168:-1.0646212917132261e-01
16169:-1.1658068490268346e-01
16170:-1.4201080495869622e-01
16171:-1.4816707006665381e-01
16172:1.4756005575574713e-01
16173:6.7207327872357753e-02
16174:-8.9402751978495787e-02
16175:-1.7884332143940856e-01
16176:-2.3232182664039450e-01
16177:-1.9846016380538090e-01
16178:-2.2026393571757513e-01
16179:-2.7606524674258176e-01
16180:-1.5402106493968792e-01
16181:-1.3151192193066980e-01
16182:-1.5482875751769815e-01
16183:-2.0039957852826321e-01
16184:-1.4101678899089212e-01
16185:-1.2026884270070499e-01
16186:-9.5660357194935819e-02
16187:-9.0800814156641305e-02
16188:-1.9568034272929163e-01
16189:-1.6885369119735014e-01
16190:-7.8396348279941505e-02
16191:-1.7580388389273012e-02
16192:-3.1431694325176535e-01
16193:-3.6502699725139082e-01
16194:-3.9163593161078925e-01
16195:-3.8982839254670920e-01
16196:-2.2941130469193571e-01
16197:-2.6608950655338615e-01
16198:-2.8352752152523891e-01
16199:-2.8210321669634836e-01
16200:-9.6158584802627178e-02
16201:-1.1390896988989410e-01
16202:-1.4542573303525602e-01
16203:-1.7167420654949800e-01
16204:-2.8155116676183934e-03
16205:-1.3197956832876872e-02
16206:-7.3921653576040011e-02
16207:-1.3261439771788472e-01
16208:-3.8329961109568317e-01
16209:-3.6190766601520263e-01
16210:-3.1660455650337366e-01
16211:-2.6909428515100675e-01
16212:-2.7830326134616040e-01
16213:-2.6293933321456797e-01
16214:-2.2654797960983597e-01
16215:-1.8673751492180654e-01
16216:-1.8466070040582974e-01
16217:-1.9773540219568833e-01
16218:-1.9313335963580891e-01
16219:-1.7505750532396533e-01
16220:-1.6106602845659129e-01
16221:-2.0091129233332161e-01
16222:-2.2998344112959790e-01
16223:-2.3867863624610766e-01
16224:-2.4056997266720581e-01
16225:-2.0120576059798551e-01
16226:-1.7776994236675925e-01
16227:-1.7757566049128617e-01
16228:-1.6258198281137770e-01
16229:-1.3100957662847768e-01
16230:-1.1766922386342414e-01
16231:-1.2599050209562077e-01
16232:-1.6175274173628101e-01
16233:-1.4575635380329827e-01
16234:-1.4319978150137641e-01
16235:-1.5303128327322743e-01
16236:-2.3991483418728252e-01
16237:-2.4111055586982352e-01
16238:-2.3915627555978280e-01
16239:-2.3293669563334016e-01
16240:-1.8165551979798580e-01
16241:-1.7837836072273422e-01
16242:-1.5381627349558699e-01
16243:-1.2389175324214807e-01
16244:-1.3522468436470111e-01
16245:-1.4414483347163548e-01
16246:-1.3775897182301911e-01
16247:-1.2082338560515114e-01
16248:-1.6099477775470816e-01
16249:-1.6674955858440857e-01
16250:-1.5616045044587862e-01
16251:-1.3671046663260869e-01
16252:-2.2711796162159012e-01
16253:-2.0805732087319379e-01
16254:-1.7327817654077893e-01
16255:-1.4511417319289627e-01
16256:-1.0591651227635689e-01
16257:-7.9834230304672446e-02
16258:-6.0313732935599891e-02
16259:-5.4034536039266404e-02
16260:-1.0855163191133725e-01
16261:-8.8651233348091177e-02
16262:-6.9518472569564435e-02
16263:-5.9057134860921519e-02
16264:-1.2352762828494446e-01
16265:-1.0191651017567059e-01
16266:-7.9316638338962797e-02
16267:-6.4307443581455598e-02
16268:-1.3149032075682779e-01
16269:-1.1161611312512666e-01
16270:-9.2090787788514136e-02
16271:-7.7342445997138715e-02
16272:-5.2946690446357879e-02
16273:-5.2638856480728684e-02
16274:-5.5385258546865428e-02
16275:-6.0053128350652067e-02
16276:-5.4762440693173882e-02
16277:-5.0624352821399266e-02
16278:-5.3963103397364785e-02
16279:-6.3849523899051588e-02
16280:-5.6717332954760120e-02
16281:-4.6175157360690756e-02
16282:-4.2738791966734302e-02
16283:-5.0178529482667066e-02
16284:-6.8257161149086865e-02
16285:-4.9825600379081264e-02
16286:-2.7994600184105090e-02
16287:-1.7112855718827272e-02
