x	y	stress_yy
 4.330127e+00	 2.500000e+00	 1.151473e+00
 4.330127e+00	 2.500000e+00	-5.946716e+14
 4.330127e+00	 2.500000e+00	-6.072769e+14
 4.330127e+00	 2.500000e+00	 1.151473e+00
 4.330127e+00	 2.500000e+00	-1.689758e+15
 4.330127e+00	 2.500000e+00	 1.151473e+00
 4.338787e+00	 2.505000e+00	 1.701027e+01
 4.337787e+00	 2.506732e+00	 1.627321e+01
 4.336787e+00	 2.508464e+00	 1.547086e+01
 4.335787e+00	 2.510196e+00	 1.460324e+01
 4.334787e+00	 2.511928e+00	 1.367034e+01
 4.333787e+00	 2.513660e+00	 1.267216e+01
 4.364768e+00	 2.520000e+00	 8.517872e+00
 4.360768e+00	 2.526928e+00	 8.145379e+00
 4.356768e+00	 2.533856e+00	 7.740885e+00
 4.352768e+00	 2.540785e+00	 7.304388e+00
 4.348768e+00	 2.547713e+00	 6.835889e+00
 4.344768e+00	 2.554641e+00	 6.335388e+00
 4.408069e+00	 2.545000e+00	 5.702857e+00
 4.399069e+00	 2.560588e+00	 5.446282e+00
 4.390069e+00	 2.576177e+00	 5.169915e+00
 4.381069e+00	 2.591765e+00	 4.873755e+00
 4.372069e+00	 2.607354e+00	 4.557802e+00
 4.363069e+00	 2.622942e+00	 4.222057e+00
 4.468691e+00	 2.580000e+00	 4.298116e+00
 4.452691e+00	 2.607713e+00	 4.098480e+00
 4.436691e+00	 2.635426e+00	 3.885365e+00
 4.420691e+00	 2.663138e+00	 3.658771e+00
 4.404691e+00	 2.690851e+00	 3.418699e+00
 4.388691e+00	 2.718564e+00	 3.165148e+00
 4.546633e+00	 2.625000e+00	 3.455979e+00
 4.521633e+00	 2.668301e+00	 3.290208e+00
 4.496633e+00	 2.711603e+00	 3.114814e+00
 4.471633e+00	 2.754904e+00	 2.929795e+00
 4.446633e+00	 2.798205e+00	 2.735153e+00
 4.421633e+00	 2.841506e+00	 2.530887e+00
 4.546633e+00	 2.625000e+00	 3.455979e+00
 4.521633e+00	 2.668301e+00	 3.290208e+00
 4.496633e+00	 2.711603e+00	 3.114814e+00
 4.471633e+00	 2.754904e+00	 2.929795e+00
 4.446633e+00	 2.798205e+00	 2.735153e+00
 4.421633e+00	 2.841506e+00	 2.530887e+00
 4.641896e+00	 2.680000e+00	 2.915348e+00
 4.605896e+00	 2.742354e+00	 2.779393e+00
 4.569896e+00	 2.804708e+00	 2.638359e+00
 4.533896e+00	 2.867061e+00	 2.492246e+00
 4.497896e+00	 2.929415e+00	 2.341054e+00
 4.461896e+00	 2.991769e+00	 2.184783e+00
 4.754479e+00	 2.745000e+00	 2.534401e+00
 4.705479e+00	 2.829870e+00	 2.417678e+00
 4.656479e+00	 2.914741e+00	 2.297942e+00
 4.607479e+00	 2.999611e+00	 2.175194e+00
 4.558479e+00	 3.084482e+00	 2.049433e+00
 4.509479e+00	 3.169352e+00	 1.920660e+00
 4.884383e+00	 2.820000e+00	 2.251397e+00
 4.820383e+00	 2.930851e+00	 2.147995e+00
 4.756383e+00	 3.041703e+00	 2.042484e+00
 4.692383e+00	 3.152554e+00	 1.934864e+00
 4.628383e+00	 3.263405e+00	 1.825135e+00
 4.564383e+00	 3.374256e+00	 1.713298e+00
 5.031608e+00	 2.905000e+00	 2.032746e+00
 4.950608e+00	 3.045296e+00	 1.939076e+00
 4.869608e+00	 3.185592e+00	 1.843617e+00
 4.788608e+00	 3.325888e+00	 1.746368e+00
 4.707608e+00	 3.466184e+00	 1.647330e+00
 4.626608e+00	 3.606481e+00	 1.546501e+00
 5.196152e+00	 3.000000e+00	 1.858608e+00
 5.096152e+00	 3.173205e+00	 1.772355e+00
 4.996152e+00	 3.346410e+00	 1.684325e+00
 4.896152e+00	 3.519615e+00	 1.594518e+00
 4.796152e+00	 3.692820e+00	 1.502933e+00
 4.696152e+00	 3.866025e+00	 1.409570e+00
 4.330127e+00	 2.500000e+00	 1.151473e+00
 4.330127e+00	 2.500000e+00	-3.482323e+15
 4.330127e+00	 2.500000e+00	-8.660605e+14
 4.330127e+00	 2.500000e+00	 1.151473e+00
 4.330127e+00	 2.500000e+00	-3.711557e+15
 4.330127e+00	 2.500000e+00	 1.151473e+00
 4.333787e+00	 2.513660e+00	 1.160827e+01
 4.332055e+00	 2.512660e+00	 1.197656e+01
 4.330323e+00	 2.511660e+00	 1.133438e+01
 4.328591e+00	 2.510660e+00	 9.681741e+00
 4.326859e+00	 2.509660e+00	 7.018637e+00
 4.325127e+00	 2.508660e+00	 3.345069e+00
 4.344768e+00	 2.554641e+00	 5.811729e+00
 4.337840e+00	 2.550641e+00	 5.993335e+00
 4.330912e+00	 2.546641e+00	 5.668995e+00
 4.323983e+00	 2.542641e+00	 4.838708e+00
 4.317055e+00	 2.538641e+00	 3.502476e+00
 4.310127e+00	 2.534641e+00	 1.660296e+00
 4.363069e+00	 2.622942e+00	 3.900650e+00
 4.347481e+00	 2.613942e+00	 4.011694e+00
 4.331892e+00	 2.604942e+00	 3.787693e+00
 4.316304e+00	 2.595942e+00	 3.228648e+00
 4.300715e+00	 2.586942e+00	 2.334558e+00
 4.285127e+00	 2.577942e+00	 1.105423e+00
 4.388691e+00	 2.718564e+00	 2.949025e+00
 4.360978e+00	 2.702564e+00	 3.023263e+00
 4.333265e+00	 2.686564e+00	 2.848418e+00
 4.305553e+00	 2.670564e+00	 2.424490e+00
 4.277840e+00	 2.654564e+00	 1.751480e+00
 4.250127e+00	 2.638564e+00	 8.293867e-01
 4.421633e+00	 2.841506e+00	 2.379265e+00
 4.378332e+00	 2.816506e+00	 2.430965e+00
 4.335031e+00	 2.791506e+00	 2.285322e+00
 4.291730e+00	 2.766506e+00	 1.942336e+00
 4.248428e+00	 2.741506e+00	 1.402007e+00
 4.205127e+00	 2.716506e+00	 6.643361e-01
 4.421633e+00	 2.841506e+00	 2.379265e+00
 4.378332e+00	 2.816506e+00	 2.430965e+00
 4.335031e+00	 2.791506e+00	 2.285322e+00
 4.291730e+00	 2.766506e+00	 1.942336e+00
 4.248428e+00	 2.741506e+00	 1.402007e+00
 4.205127e+00	 2.716506e+00	 6.643361e-01
 4.461896e+00	 2.991769e+00	 2.029505e+00
 4.399542e+00	 2.955769e+00	 2.062499e+00
 4.337189e+00	 2.919769e+00	 1.931708e+00
 4.274835e+00	 2.883769e+00	 1.637131e+00
 4.212481e+00	 2.847769e+00	 1.178768e+00
 4.150127e+00	 2.811769e+00	 5.566196e-01
 4.509479e+00	 3.169352e+00	 1.782263e+00
 4.424609e+00	 3.120352e+00	 1.805947e+00
 4.339738e+00	 3.071352e+00	 1.690460e+00
 4.254868e+00	 3.022352e+00	 1.435800e+00
 4.169998e+00	 2.973352e+00	 1.041969e+00
 4.085127e+00	 2.924352e+00	 5.089663e-01
 4.564383e+00	 3.374256e+00	 1.598223e+00
 4.453532e+00	 3.310256e+00	 1.617164e+00
 4.342681e+00	 3.246256e+00	 1.515745e+00
 4.231830e+00	 3.182256e+00	 1.293965e+00
 4.120978e+00	 3.118256e+00	 9.518250e-01
 4.010127e+00	 3.054256e+00	 4.893247e-01
 4.626608e+00	 3.606481e+00	 1.455882e+00
 4.486311e+00	 3.525481e+00	 1.472485e+00
 4.346015e+00	 3.444481e+00	 1.383565e+00
 4.205719e+00	 3.363481e+00	 1.189120e+00
 4.065423e+00	 3.282481e+00	 8.891516e-01
 3.925127e+00	 3.201481e+00	 4.836589e-01
 4.696152e+00	 3.866025e+00	 1.342495e+00
 4.522947e+00	 3.766025e+00	 1.358102e+00
 4.349742e+00	 3.666025e+00	 1.280180e+00
 4.176537e+00	 3.566025e+00	 1.108730e+00
 4.003332e+00	 3.466025e+00	 8.437508e-01
 3.830127e+00	 3.366025e+00	 4.852433e-01
 4.330127e+00	 2.500000e+00	 1.151473e+00
 4.330127e+00	 2.500000e+00	-6.633402e+15
 4.330127e+00	 2.500000e+00	-6.916405e+14
 4.330127e+00	 2.500000e+00	 1.151473e+00
 4.330127e+00	 2.500000e+00	-6.455644e+15
 4.330127e+00	 2.500000e+00	 1.151473e+00
 4.325127e+00	 2.508660e+00	 3.885395e+00
 4.323395e+00	 2.507660e+00	 1.900330e+00
 4.321663e+00	 2.506660e+00	 4.127193e-01
 4.319931e+00	 2.505660e+00	-5.774379e-01
 4.318199e+00	 2.504660e+00	-1.070141e+00
 4.316467e+00	 2.503660e+00	-1.065391e+00
 4.310127e+00	 2.534641e+00	 1.948649e+00
 4.303199e+00	 2.530641e+00	 9.437051e-01
 4.296271e+00	 2.526641e+00	 1.966196e-01
 4.289342e+00	 2.522641e+00	-2.926078e-01
 4.282414e+00	 2.518641e+00	-5.239769e-01
 4.275486e+00	 2.514641e+00	-4.974879e-01
 4.285127e+00	 2.577942e+00	 1.333904e+00
 4.269539e+00	 2.568942e+00	 6.654647e-01
 4.253950e+00	 2.559942e+00	 1.709057e-01
 4.238362e+00	 2.550942e+00	-1.497730e-01
 4.222773e+00	 2.541942e+00	-2.965715e-01
 4.207185e+00	 2.532942e+00	-2.694897e-01
 4.250127e+00	 2.638564e+00	 1.032454e+00
 4.222414e+00	 2.622564e+00	 5.341386e-01
 4.194701e+00	 2.606564e+00	 1.669433e-01
 4.166989e+00	 2.590564e+00	-6.913247e-02
 4.139276e+00	 2.574564e+00	-1.740886e-01
 4.111563e+00	 2.558564e+00	-1.479252e-01
 4.205127e+00	 2.716506e+00	 8.536020e-01
 4.161826e+00	 2.691506e+00	 4.579902e-01
 4.118524e+00	 2.666506e+00	 1.675938e-01
 4.075223e+00	 2.641506e+00	-1.758717e-02
 4.031922e+00	 2.616506e+00	-9.755276e-02
 3.988621e+00	 2.591506e+00	-7.230294e-02
 4.205127e+00	 2.716506e+00	 8.536020e-01
 4.161826e+00	 2.691506e+00	 4.579902e-01
 4.118524e+00	 2.666506e+00	 1.675938e-01
 4.075223e+00	 2.641506e+00	-1.758717e-02
 4.031922e+00	 2.616506e+00	-9.755276e-02
 3.988621e+00	 2.591506e+00	-7.230294e-02
 4.150127e+00	 2.811769e+00	 7.230164e-01
 4.087773e+00	 2.775769e+00	 3.879668e-01
 4.025419e+00	 2.739769e+00	 1.414783e-01
 3.963066e+00	 2.703769e+00	-1.644901e-02
 3.900712e+00	 2.667769e+00	-8.581523e-02
 3.838358e+00	 2.631769e+00	-6.662031e-02
 4.085127e+00	 2.924352e+00	 6.418484e-01
 4.000257e+00	 2.875352e+00	 3.489145e-01
 3.915386e+00	 2.826352e+00	 1.321522e-01
 3.830516e+00	 2.777352e+00	-8.438234e-03
 3.745645e+00	 2.728352e+00	-7.285695e-02
 3.660775e+00	 2.679352e+00	-6.110392e-02
 4.010127e+00	 3.054256e+00	 5.876756e-01
 3.899276e+00	 2.990256e+00	 3.257183e-01
 3.788425e+00	 2.926256e+00	 1.303689e-01
 3.677573e+00	 2.862256e+00	 1.627199e-03
 3.566722e+00	 2.798256e+00	-6.050671e-02
 3.455871e+00	 2.734256e+00	-5.603283e-02
 3.925127e+00	 3.201481e+00	 5.495847e-01
 3.784831e+00	 3.120481e+00	 3.113701e-01
 3.644535e+00	 3.039481e+00	 1.321610e-01
 3.504239e+00	 2.958481e+00	 1.195740e-02
 3.363943e+00	 2.877481e+00	-4.924076e-02
 3.223646e+00	 2.796481e+00	-5.143346e-02
 3.830127e+00	 3.366025e+00	 5.217214e-01
 3.656922e+00	 3.266025e+00	 3.022877e-01
 3.483717e+00	 3.166025e+00	 1.356715e-01
 3.310512e+00	 3.066025e+00	 2.187288e-02
 3.137307e+00	 2.966025e+00	-3.910818e-02
 2.964102e+00	 2.866025e+00	-4.727169e-02
 4.330127e+00	 2.500000e+00	 1.151473e+00
 4.330127e+00	 2.500000e+00	-8.942932e+15
 4.330127e+00	 2.500000e+00	-3.893614e+14
 4.330127e+00	 2.500000e+00	 1.151473e+00
 4.330127e+00	 2.500000e+00	-5.712968e+15
 4.330127e+00	 2.500000e+00	 1.151473e+00
 4.316467e+00	 2.503660e+00	-7.058505e-01
 4.317467e+00	 2.501928e+00	-7.945676e-01
 4.318467e+00	 2.500196e+00	-1.045943e+00
 4.319467e+00	 2.498464e+00	-1.459978e+00
 4.320467e+00	 2.496732e+00	-2.036671e+00
 4.321467e+00	 2.495000e+00	-2.776024e+00
 4.275486e+00	 2.514641e+00	-3.647605e-01
 4.279486e+00	 2.507713e+00	-4.082174e-01
 4.283486e+00	 2.500785e+00	-5.334646e-01
 4.287486e+00	 2.493856e+00	-7.405021e-01
 4.291486e+00	 2.486928e+00	-1.029330e+00
 4.295486e+00	 2.480000e+00	-1.399948e+00
 4.207185e+00	 2.532942e+00	-2.819347e-01
 4.216185e+00	 2.517354e+00	-3.063009e-01
 4.225185e+00	 2.501765e+00	-3.850527e-01
 4.234185e+00	 2.486177e+00	-5.181901e-01
 4.243185e+00	 2.470588e+00	-7.057131e-01
 4.252185e+00	 2.455000e+00	-9.476218e-01
 4.111563e+00	 2.558564e+00	-2.460003e-01
 4.127563e+00	 2.530851e+00	-2.600960e-01
 4.143563e+00	 2.503138e+00	-3.147911e-01
 4.159563e+00	 2.475426e+00	-4.100856e-01
 4.175563e+00	 2.447713e+00	-5.459794e-01
 4.191563e+00	 2.420000e+00	-7.224727e-01
 3.988621e+00	 2.591506e+00	-2.259302e-01
 4.013621e+00	 2.548205e+00	-2.336522e-01
 4.038621e+00	 2.504904e+00	-2.736754e-01
 4.063621e+00	 2.461603e+00	-3.459997e-01
 4.088621e+00	 2.418301e+00	-4.506252e-01
 4.113621e+00	 2.375000e+00	-5.875518e-01
 3.988621e+00	 2.591506e+00	-2.259302e-01
 4.013621e+00	 2.548205e+00	-2.336522e-01
 4.038621e+00	 2.504904e+00	-2.736754e-01
 4.063621e+00	 2.461603e+00	-3.459997e-01
 4.088621e+00	 2.418301e+00	-4.506252e-01
 4.113621e+00	 2.375000e+00	-5.875518e-01
 3.838358e+00	 2.631769e+00	-1.701591e-01
 3.874358e+00	 2.569415e+00	-1.724434e-01
 3.910358e+00	 2.507061e+00	-2.050147e-01
 3.946358e+00	 2.444708e+00	-2.678728e-01
 3.982358e+00	 2.382354e+00	-3.610178e-01
 4.018358e+00	 2.320000e+00	-4.844497e-01
 3.660775e+00	 2.679352e+00	-1.095753e-01
 3.709775e+00	 2.594482e+00	-1.194629e-01
 3.758775e+00	 2.509611e+00	-1.560339e-01
 3.807775e+00	 2.424741e+00	-2.192885e-01
 3.856775e+00	 2.339870e+00	-3.092264e-01
 3.905775e+00	 2.255000e+00	-4.258479e-01
 3.455871e+00	 2.734256e+00	-5.265453e-02
 3.519871e+00	 2.623405e+00	-7.453325e-02
 3.583871e+00	 2.512554e+00	-1.192100e-01
 3.647871e+00	 2.401703e+00	-1.866847e-01
 3.711871e+00	 2.290851e+00	-2.769573e-01
 3.775871e+00	 2.180000e+00	-3.900280e-01
 3.223646e+00	 2.796481e+00	-1.476215e-03
 3.304646e+00	 2.656184e+00	-3.641050e-02
 3.385646e+00	 2.515888e+00	-9.042081e-02
 3.466646e+00	 2.375592e+00	-1.635072e-01
 3.547646e+00	 2.235296e+00	-2.556695e-01
 3.628646e+00	 2.095000e+00	-3.669080e-01
 2.964102e+00	 2.866025e+00	 4.388706e-02
 3.064102e+00	 2.692820e+00	-3.839530e-03
 3.164102e+00	 2.519615e+00	-6.722491e-02
 3.264102e+00	 2.346410e+00	-1.462691e-01
 3.364102e+00	 2.173205e+00	-2.409720e-01
 3.464102e+00	 2.000000e+00	-3.513338e-01
 4.330127e+00	 2.500000e+00	 1.151473e+00
 4.330127e+00	 2.500000e+00	 6.577999e+15
 4.330127e+00	 2.500000e+00	-9.372709e+13
 4.330127e+00	 2.500000e+00	 1.151473e+00
 4.330127e+00	 2.500000e+00	 4.337208e+15
 4.330127e+00	 2.500000e+00	 1.151473e+00
 4.321467e+00	 2.495000e+00	 2.001551e+00
 4.322467e+00	 2.493268e+00	 5.079035e+00
 4.323467e+00	 2.491536e+00	 7.411370e+00
 4.324467e+00	 2.489804e+00	 8.998558e+00
 4.325467e+00	 2.488072e+00	 9.840597e+00
 4.326467e+00	 2.486340e+00	 9.937487e+00
 4.295486e+00	 2.480000e+00	 9.701577e-01
 4.299486e+00	 2.473072e+00	 2.510555e+00
 4.303486e+00	 2.466144e+00	 3.677748e+00
 4.307486e+00	 2.459215e+00	 4.471737e+00
 4.311486e+00	 2.452287e+00	 4.892521e+00
 4.315486e+00	 2.445359e+00	 4.940100e+00
 4.252185e+00	 2.455000e+00	 6.079903e-01
 4.261185e+00	 2.439412e+00	 1.640725e+00
 4.270185e+00	 2.423823e+00	 2.423286e+00
 4.279185e+00	 2.408235e+00	 2.955673e+00
 4.288185e+00	 2.392646e+00	 3.237887e+00
 4.297185e+00	 2.377058e+00	 3.269927e+00
 4.191563e+00	 2.420000e+00	 4.236417e-01
 4.207563e+00	 2.392287e+00	 1.203399e+00
 4.223563e+00	 2.364574e+00	 1.794320e+00
 4.239563e+00	 2.336862e+00	 2.196404e+00
 4.255563e+00	 2.309149e+00	 2.409652e+00
 4.271563e+00	 2.281436e+00	 2.434063e+00
 4.113621e+00	 2.375000e+00	 3.121437e-01
 4.138621e+00	 2.331699e+00	 9.403658e-01
 4.163621e+00	 2.288397e+00	 1.416496e+00
 4.188621e+00	 2.245096e+00	 1.740534e+00
 4.213621e+00	 2.201795e+00	 1.912481e+00
 4.238621e+00	 2.158494e+00	 1.932335e+00
 4.113621e+00	 2.375000e+00	 3.121437e-01
 4.138621e+00	 2.331699e+00	 9.403658e-01
 4.163621e+00	 2.288397e+00	 1.416496e+00
 4.188621e+00	 2.245096e+00	 1.740534e+00
 4.213621e+00	 2.201795e+00	 1.912481e+00
 4.238621e+00	 2.158494e+00	 1.932335e+00
 4.018358e+00	 2.320000e+00	 2.098547e-01
 4.054358e+00	 2.257646e+00	 7.458827e-01
 4.090358e+00	 2.195292e+00	 1.156277e+00
 4.126358e+00	 2.132939e+00	 1.441037e+00
 4.162358e+00	 2.070585e+00	 1.600163e+00
 4.198358e+00	 2.008231e+00	 1.633656e+00
 3.905775e+00	 2.255000e+00	 1.563119e-01
 3.954775e+00	 2.170130e+00	 6.224452e-01
 4.003775e+00	 2.085259e+00	 9.806145e-01
 4.052775e+00	 2.000389e+00	 1.230820e+00
 4.101775e+00	 1.915518e+00	 1.373061e+00
 4.150775e+00	 1.830648e+00	 1.407338e+00
 3.775871e+00	 2.180000e+00	 1.269252e-01
 3.839871e+00	 2.069149e+00	 5.384159e-01
 3.903871e+00	 1.958297e+00	 8.545224e-01
 3.967871e+00	 1.847446e+00	 1.075245e+00
 4.031871e+00	 1.736595e+00	 1.200583e+00
 4.095871e+00	 1.625744e+00	 1.230536e+00
 3.628646e+00	 2.095000e+00	 1.105301e-01
 3.709646e+00	 1.954704e+00	 4.781969e-01
 3.790646e+00	 1.814408e+00	 7.598638e-01
 3.871646e+00	 1.674112e+00	 9.555310e-01
 3.952646e+00	 1.533816e+00	 1.065198e+00
 4.033646e+00	 1.393519e+00	 1.088866e+00
 3.464102e+00	 2.000000e+00	 1.015489e-01
 3.564102e+00	 1.826795e+00	 4.333174e-01
 3.664102e+00	 1.653590e+00	 6.863405e-01
 3.764102e+00	 1.480385e+00	 8.606183e-01
 3.864102e+00	 1.307180e+00	 9.561508e-01
 3.964102e+00	 1.133975e+00	 9.729379e-01
 4.330127e+00	 2.500000e+00	 1.151473e+00
 4.330127e+00	 2.500000e+00	 4.874632e+15
 4.330127e+00	 2.500000e+00	-1.567686e+14
 4.330127e+00	 2.500000e+00	 1.151473e+00
 4.330127e+00	 2.500000e+00	 2.314145e+15
 4.330127e+00	 2.500000e+00	 1.151473e+00
 4.326467e+00	 2.486340e+00	 9.805144e+00
 4.328199e+00	 2.487340e+00	 1.224767e+01
 4.329931e+00	 2.488340e+00	 1.432816e+01
 4.331663e+00	 2.489340e+00	 1.604662e+01
 4.333395e+00	 2.490340e+00	 1.740305e+01
 4.335127e+00	 2.491340e+00	 1.839744e+01
 4.315486e+00	 2.445359e+00	 4.886904e+00
 4.322414e+00	 2.449359e+00	 6.099492e+00
 4.329342e+00	 2.453359e+00	 7.139338e+00
 4.336271e+00	 2.457359e+00	 8.006441e+00
 4.343199e+00	 2.461359e+00	 8.700802e+00
 4.350127e+00	 2.465359e+00	 9.222421e+00
 4.297185e+00	 2.377058e+00	 3.268653e+00
 4.312773e+00	 2.386058e+00	 4.069250e+00
 4.328362e+00	 2.395058e+00	 4.756350e+00
 4.343950e+00	 2.404058e+00	 5.329952e+00
 4.359539e+00	 2.413058e+00	 5.790056e+00
 4.375127e+00	 2.422058e+00	 6.136663e+00
 4.271563e+00	 2.281436e+00	 2.463539e+00
 4.299276e+00	 2.297436e+00	 3.057727e+00
 4.326989e+00	 2.313436e+00	 3.567316e+00
 4.354701e+00	 2.329436e+00	 3.992308e+00
 4.382414e+00	 2.345436e+00	 4.332702e+00
 4.410127e+00	 2.361436e+00	 4.588498e+00
 4.238621e+00	 2.158494e+00	 1.981795e+00
 4.281922e+00	 2.183494e+00	 2.451971e+00
 4.325223e+00	 2.208494e+00	 2.854657e+00
 4.368524e+00	 2.233494e+00	 3.189853e+00
 4.411826e+00	 2.258494e+00	 3.457559e+00
 4.455127e+00	 2.283494e+00	 3.657774e+00
 4.238621e+00	 2.158494e+00	 1.981795e+00
 4.281922e+00	 2.183494e+00	 2.451971e+00
 4.325223e+00	 2.208494e+00	 2.854657e+00
 4.368524e+00	 2.233494e+00	 3.189853e+00
 4.411826e+00	 2.258494e+00	 3.457559e+00
 4.455127e+00	 2.283494e+00	 3.657774e+00
 4.198358e+00	 2.008231e+00	 1.664255e+00
 4.260712e+00	 2.044231e+00	 2.063035e+00
 4.323066e+00	 2.080231e+00	 2.404463e+00
 4.385419e+00	 2.116231e+00	 2.688540e+00
 4.447773e+00	 2.152231e+00	 2.915264e+00
 4.510127e+00	 2.188231e+00	 3.084637e+00
 4.150775e+00	 1.830648e+00	 1.423540e+00
 4.235645e+00	 1.879648e+00	 1.775159e+00
 4.320516e+00	 1.928648e+00	 2.077333e+00
 4.405386e+00	 1.977648e+00	 2.330063e+00
 4.490257e+00	 2.026648e+00	 2.533349e+00
 4.575127e+00	 2.075648e+00	 2.687190e+00
 4.095871e+00	 1.625744e+00	 1.235434e+00
 4.206722e+00	 1.689744e+00	 1.553756e+00
 4.317573e+00	 1.753744e+00	 1.828926e+00
 4.428425e+00	 1.817744e+00	 2.060945e+00
 4.539276e+00	 1.881744e+00	 2.249812e+00
 4.650127e+00	 1.945744e+00	 2.395528e+00
 4.033646e+00	 1.393519e+00	 1.084672e+00
 4.173943e+00	 1.474519e+00	 1.378305e+00
 4.314239e+00	 1.555519e+00	 1.633894e+00
 4.454535e+00	 1.636519e+00	 1.851437e+00
 4.594831e+00	 1.717519e+00	 2.030935e+00
 4.735127e+00	 1.798519e+00	 2.172388e+00
 3.964102e+00	 1.133975e+00	 9.612817e-01
 4.137307e+00	 1.233975e+00	 1.235908e+00
 4.310512e+00	 1.333975e+00	 1.476704e+00
 4.483717e+00	 1.433975e+00	 1.683672e+00
 4.656922e+00	 1.533975e+00	 1.856810e+00
 4.830127e+00	 1.633975e+00	 1.996119e+00
 4.330127e+00	 2.500000e+00	 1.151473e+00
 4.330127e+00	 2.500000e+00	 2.150986e+15
 4.330127e+00	 2.500000e+00	-1.048641e+14
 4.330127e+00	 2.500000e+00	 1.151473e+00
 4.330127e+00	 2.500000e+00	 1.195740e+15
 4.330127e+00	 2.500000e+00	 1.151473e+00
 4.335127e+00	 2.491340e+00	 1.591737e+01
 4.336859e+00	 2.492340e+00	 1.625880e+01
 4.338591e+00	 2.493340e+00	 1.581369e+01
 4.340323e+00	 2.494340e+00	 1.458204e+01
 4.342055e+00	 2.495340e+00	 1.256386e+01
 4.343787e+00	 2.496340e+00	 9.759135e+00
 4.350127e+00	 2.465359e+00	 7.968123e+00
 4.357055e+00	 2.469359e+00	 8.146145e+00
 4.363983e+00	 2.473359e+00	 7.931007e+00
 4.370912e+00	 2.477359e+00	 7.322707e+00
 4.377840e+00	 2.481359e+00	 6.321247e+00
 4.384768e+00	 2.485359e+00	 4.926626e+00
 4.375127e+00	 2.422058e+00	 5.301227e+00
 4.390715e+00	 2.431058e+00	 5.433627e+00
 4.406304e+00	 2.440058e+00	 5.306696e+00
 4.421892e+00	 2.449058e+00	 4.920434e+00
 4.437481e+00	 2.458058e+00	 4.274839e+00
 4.453069e+00	 2.467058e+00	 3.369913e+00
 4.410127e+00	 2.361436e+00	 3.964417e+00
 4.437840e+00	 2.377436e+00	 4.075627e+00
 4.465553e+00	 2.393436e+00	 3.994925e+00
 4.493265e+00	 2.409436e+00	 3.722313e+00
 4.520978e+00	 2.425436e+00	 3.257790e+00
 4.548691e+00	 2.441436e+00	 2.601356e+00
 4.455127e+00	 2.283494e+00	 3.161123e+00
 4.498428e+00	 2.308494e+00	 3.260099e+00
 4.541730e+00	 2.333494e+00	 3.207778e+00
 4.585031e+00	 2.358494e+00	 3.004160e+00
 4.628332e+00	 2.383494e+00	 2.649244e+00
 4.671633e+00	 2.408494e+00	 2.143030e+00
 4.455127e+00	 2.283494e+00	 3.161123e+00
 4.498428e+00	 2.308494e+00	 3.260099e+00
 4.541730e+00	 2.333494e+00	 3.207778e+00
 4.585031e+00	 2.358494e+00	 3.004160e+00
 4.628332e+00	 2.383494e+00	 2.649244e+00
 4.671633e+00	 2.408494e+00	 2.143030e+00
 4.510127e+00	 2.188231e+00	 2.682628e+00
 4.572481e+00	 2.224231e+00	 2.756971e+00
 4.634835e+00	 2.260231e+00	 2.712002e+00
 4.697189e+00	 2.296231e+00	 2.547720e+00
 4.759542e+00	 2.332231e+00	 2.264126e+00
 4.821896e+00	 2.368231e+00	 1.861220e+00
 4.575127e+00	 2.075648e+00	 2.364456e+00
 4.659998e+00	 2.124648e+00	 2.416538e+00
 4.744868e+00	 2.173648e+00	 2.369220e+00
 4.829738e+00	 2.222648e+00	 2.222501e+00
 4.914609e+00	 2.271648e+00	 1.976382e+00
 4.999479e+00	 2.320648e+00	 1.630862e+00
 4.650127e+00	 1.945744e+00	 2.138635e+00
 4.760978e+00	 2.009744e+00	 2.171437e+00
 4.871830e+00	 2.073744e+00	 2.118166e+00
 4.982681e+00	 2.137744e+00	 1.978820e+00
 5.093532e+00	 2.201744e+00	 1.753401e+00
 5.204383e+00	 2.265744e+00	 1.441909e+00
 4.735127e+00	 1.798519e+00	 1.970488e+00
 4.875423e+00	 1.879519e+00	 1.986730e+00
 5.015719e+00	 1.960519e+00	 1.926309e+00
 5.156015e+00	 2.041519e+00	 1.789224e+00
 5.296311e+00	 2.122519e+00	 1.575476e+00
 5.436608e+00	 2.203519e+00	 1.285065e+00
 4.830127e+00	 1.633975e+00	 1.840597e+00
 5.003332e+00	 1.733975e+00	 1.842572e+00
 5.176537e+00	 1.833975e+00	 1.774807e+00
 5.349742e+00	 1.933975e+00	 1.637303e+00
 5.522947e+00	 2.033975e+00	 1.430060e+00
 5.696152e+00	 2.133975e+00	 1.153077e+00
 4.330127e+00	 2.500000e+00	 1.151473e+00
 4.330127e+00	 2.500000e+00	 1.277426e+15
 4.330127e+00	 2.500000e+00	-2.201997e+14
 4.330127e+00	 2.500000e+00	 1.151473e+00
 4.330127e+00	 2.500000e+00	 3.284174e+14
 4.330127e+00	 2.500000e+00	 1.151473e+00
 4.343787e+00	 2.496340e+00	 9.891283e+00
 4.342787e+00	 2.498072e+00	 1.191123e+01
 4.341787e+00	 2.499804e+00	 1.331573e+01
 4.340787e+00	 2.501536e+00	 1.410480e+01
 4.339787e+00	 2.503268e+00	 1.427843e+01
 4.338787e+00	 2.505000e+00	 1.383663e+01
 4.384768e+00	 2.485359e+00	 5.017495e+00
 4.380768e+00	 2.492287e+00	 6.009648e+00
 4.376768e+00	 2.499215e+00	 6.697775e+00
 4.372768e+00	 2.506144e+00	 7.081877e+00
 4.368768e+00	 2.513072e+00	 7.161952e+00
 4.364768e+00	 2.520000e+00	 6.938002e+00
 4.453069e+00	 2.467058e+00	 3.445328e+00
 4.444069e+00	 2.482646e+00	 4.085293e+00
 4.435069e+00	 2.498235e+00	 4.525504e+00
 4.426069e+00	 2.513823e+00	 4.765961e+00
 4.417069e+00	 2.529412e+00	 4.806664e+00
 4.408069e+00	 2.545000e+00	 4.647614e+00
 4.548691e+00	 2.441436e+00	 2.668727e+00
 4.532691e+00	 2.469149e+00	 3.130830e+00
 4.516691e+00	 2.496862e+00	 3.445404e+00
 4.500691e+00	 2.524574e+00	 3.612447e+00
 4.484691e+00	 2.552287e+00	 3.631960e+00
 4.468691e+00	 2.580000e+00	 3.503943e+00
 4.671633e+00	 2.408494e+00	 2.205473e+00
 4.646633e+00	 2.451795e+00	 2.560326e+00
 4.621633e+00	 2.495096e+00	 2.799009e+00
 4.596633e+00	 2.538397e+00	 2.921525e+00
 4.571633e+00	 2.581699e+00	 2.927872e+00
 4.546633e+00	 2.625000e+00	 2.818051e+00
 4.671633e+00	 2.408494e+00	 2.205473e+00
 4.646633e+00	 2.451795e+00	 2.560326e+00
 4.621633e+00	 2.495096e+00	 2.799009e+00
 4.596633e+00	 2.538397e+00	 2.921525e+00
 4.571633e+00	 2.581699e+00	 2.927872e+00
 4.546633e+00	 2.625000e+00	 2.818051e+00
 4.821896e+00	 2.368231e+00	 1.865768e+00
 4.785896e+00	 2.430585e+00	 2.157531e+00
 4.749896e+00	 2.492939e+00	 2.355944e+00
 4.713896e+00	 2.555292e+00	 2.461006e+00
 4.677896e+00	 2.617646e+00	 2.472718e+00
 4.641896e+00	 2.680000e+00	 2.391079e+00
 4.999479e+00	 2.320648e+00	 1.628836e+00
 4.950479e+00	 2.405518e+00	 1.880102e+00
 4.901479e+00	 2.490389e+00	 2.053158e+00
 4.852479e+00	 2.575259e+00	 2.148004e+00
 4.803479e+00	 2.660130e+00	 2.164640e+00
 4.754479e+00	 2.745000e+00	 2.103066e+00
 5.204383e+00	 2.265744e+00	 1.453971e+00
 5.140383e+00	 2.376595e+00	 1.677392e+00
 5.076383e+00	 2.487446e+00	 1.833324e+00
 5.012383e+00	 2.598297e+00	 1.921768e+00
 4.948383e+00	 2.709149e+00	 1.942723e+00
 4.884383e+00	 2.820000e+00	 1.896189e+00
 5.436608e+00	 2.203519e+00	 1.319356e+00
 5.355608e+00	 2.343816e+00	 1.522650e+00
 5.274608e+00	 2.484112e+00	 1.666416e+00
 5.193608e+00	 2.624408e+00	 1.750656e+00
 5.112608e+00	 2.764704e+00	 1.775368e+00
 5.031608e+00	 2.905000e+00	 1.740554e+00
 5.696152e+00	 2.133975e+00	 1.212253e+00
 5.596152e+00	 2.307180e+00	 1.400440e+00
 5.496152e+00	 2.480385e+00	 1.535231e+00
 5.396152e+00	 2.653590e+00	 1.616626e+00
 5.296152e+00	 2.826795e+00	 1.644625e+00
 5.196152e+00	 3.000000e+00	 1.619229e+00
-4.330127e+00	-2.500000e+00	 1.151473e+00
-4.330127e+00	-2.500000e+00	 6.577999e+15
-4.330127e+00	-2.500000e+00	-9.372709e+13
-4.330127e+00	-2.500000e+00	 1.151473e+00
-4.330127e+00	-2.500000e+00	 4.337208e+15
-4.330127e+00	-2.500000e+00	 1.151473e+00
-4.321467e+00	-2.495000e+00	 2.001551e+00
-4.322467e+00	-2.493268e+00	 5.079035e+00
-4.323467e+00	-2.491536e+00	 7.411370e+00
-4.324467e+00	-2.489804e+00	 8.998558e+00
-4.325467e+00	-2.488072e+00	 9.840597e+00
-4.326467e+00	-2.486340e+00	 9.937487e+00
-4.295486e+00	-2.480000e+00	 9.701577e-01
-4.299486e+00	-2.473072e+00	 2.510555e+00
-4.303486e+00	-2.466144e+00	 3.677748e+00
-4.307486e+00	-2.459215e+00	 4.471737e+00
-4.311486e+00	-2.452287e+00	 4.892521e+00
-4.315486e+00	-2.445359e+00	 4.940100e+00
-4.252185e+00	-2.455000e+00	 6.079903e-01
-4.261185e+00	-2.439412e+00	 1.640725e+00
-4.270185e+00	-2.423823e+00	 2.423286e+00
-4.279185e+00	-2.408235e+00	 2.955673e+00
-4.288185e+00	-2.392646e+00	 3.237887e+00
-4.297185e+00	-2.377058e+00	 3.269927e+00
-4.191563e+00	-2.420000e+00	 4.236417e-01
-4.207563e+00	-2.392287e+00	 1.203399e+00
-4.223563e+00	-2.364574e+00	 1.794320e+00
-4.239563e+00	-2.336862e+00	 2.196404e+00
-4.255563e+00	-2.309149e+00	 2.409652e+00
-4.271563e+00	-2.281436e+00	 2.434063e+00
-4.113621e+00	-2.375000e+00	 3.121437e-01
-4.138621e+00	-2.331699e+00	 9.403658e-01
-4.163621e+00	-2.288397e+00	 1.416496e+00
-4.188621e+00	-2.245096e+00	 1.740534e+00
-4.213621e+00	-2.201795e+00	 1.912481e+00
-4.238621e+00	-2.158494e+00	 1.932335e+00
-4.113621e+00	-2.375000e+00	 3.121437e-01
-4.138621e+00	-2.331699e+00	 9.403658e-01
-4.163621e+00	-2.288397e+00	 1.416496e+00
-4.188621e+00	-2.245096e+00	 1.740534e+00
-4.213621e+00	-2.201795e+00	 1.912481e+00
-4.238621e+00	-2.158494e+00	 1.932335e+00
-4.018358e+00	-2.320000e+00	 2.098547e-01
-4.054358e+00	-2.257646e+00	 7.458827e-01
-4.090358e+00	-2.195292e+00	 1.156277e+00
-4.126358e+00	-2.132939e+00	 1.441037e+00
-4.162358e+00	-2.070585e+00	 1.600163e+00
-4.198358e+00	-2.008231e+00	 1.633656e+00
-3.905775e+00	-2.255000e+00	 1.563119e-01
-3.954775e+00	-2.170130e+00	 6.224452e-01
-4.003775e+00	-2.085259e+00	 9.806145e-01
-4.052775e+00	-2.000389e+00	 1.230820e+00
-4.101775e+00	-1.915518e+00	 1.373061e+00
-4.150775e+00	-1.830648e+00	 1.407338e+00
-3.775871e+00	-2.180000e+00	 1.269252e-01
-3.839871e+00	-2.069149e+00	 5.384159e-01
-3.903871e+00	-1.958297e+00	 8.545224e-01
-3.967871e+00	-1.847446e+00	 1.075245e+00
-4.031871e+00	-1.736595e+00	 1.200583e+00
-4.095871e+00	-1.625744e+00	 1.230536e+00
-3.628646e+00	-2.095000e+00	 1.105301e-01
-3.709646e+00	-1.954704e+00	 4.781969e-01
-3.790646e+00	-1.814408e+00	 7.598638e-01
-3.871646e+00	-1.674112e+00	 9.555310e-01
-3.952646e+00	-1.533816e+00	 1.065198e+00
-4.033646e+00	-1.393519e+00	 1.088866e+00
-3.464102e+00	-2.000000e+00	 1.015489e-01
-3.564102e+00	-1.826795e+00	 4.333174e-01
-3.664102e+00	-1.653590e+00	 6.863405e-01
-3.764102e+00	-1.480385e+00	 8.606183e-01
-3.864102e+00	-1.307180e+00	 9.561508e-01
-3.964102e+00	-1.133975e+00	 9.729379e-01
-4.330127e+00	-2.500000e+00	 1.151473e+00
-4.330127e+00	-2.500000e+00	 4.874632e+15
-4.330127e+00	-2.500000e+00	-1.567686e+14
-4.330127e+00	-2.500000e+00	 1.151473e+00
-4.330127e+00	-2.500000e+00	 2.314145e+15
-4.330127e+00	-2.500000e+00	 1.151473e+00
-4.326467e+00	-2.486340e+00	 9.805144e+00
-4.328199e+00	-2.487340e+00	 1.224767e+01
-4.329931e+00	-2.488340e+00	 1.432816e+01
-4.331663e+00	-2.489340e+00	 1.604662e+01
-4.333395e+00	-2.490340e+00	 1.740305e+01
-4.335127e+00	-2.491340e+00	 1.839744e+01
-4.315486e+00	-2.445359e+00	 4.886904e+00
-4.322414e+00	-2.449359e+00	 6.099492e+00
-4.329342e+00	-2.453359e+00	 7.139338e+00
-4.336271e+00	-2.457359e+00	 8.006441e+00
-4.343199e+00	-2.461359e+00	 8.700802e+00
-4.350127e+00	-2.465359e+00	 9.222421e+00
-4.297185e+00	-2.377058e+00	 3.268653e+00
-4.312773e+00	-2.386058e+00	 4.069250e+00
-4.328362e+00	-2.395058e+00	 4.756350e+00
-4.343950e+00	-2.404058e+00	 5.329952e+00
-4.359539e+00	-2.413058e+00	 5.790056e+00
-4.375127e+00	-2.422058e+00	 6.136663e+00
-4.271563e+00	-2.281436e+00	 2.463539e+00
-4.299276e+00	-2.297436e+00	 3.057727e+00
-4.326989e+00	-2.313436e+00	 3.567316e+00
-4.354701e+00	-2.329436e+00	 3.992308e+00
-4.382414e+00	-2.345436e+00	 4.332702e+00
-4.410127e+00	-2.361436e+00	 4.588498e+00
-4.238621e+00	-2.158494e+00	 1.981795e+00
-4.281922e+00	-2.183494e+00	 2.451971e+00
-4.325223e+00	-2.208494e+00	 2.854657e+00
-4.368524e+00	-2.233494e+00	 3.189853e+00
-4.411826e+00	-2.258494e+00	 3.457559e+00
-4.455127e+00	-2.283494e+00	 3.657774e+00
-4.238621e+00	-2.158494e+00	 1.981795e+00
-4.281922e+00	-2.183494e+00	 2.451971e+00
-4.325223e+00	-2.208494e+00	 2.854657e+00
-4.368524e+00	-2.233494e+00	 3.189853e+00
-4.411826e+00	-2.258494e+00	 3.457559e+00
-4.455127e+00	-2.283494e+00	 3.657774e+00
-4.198358e+00	-2.008231e+00	 1.664255e+00
-4.260712e+00	-2.044231e+00	 2.063035e+00
-4.323066e+00	-2.080231e+00	 2.404463e+00
-4.385419e+00	-2.116231e+00	 2.688540e+00
-4.447773e+00	-2.152231e+00	 2.915264e+00
-4.510127e+00	-2.188231e+00	 3.084637e+00
-4.150775e+00	-1.830648e+00	 1.423540e+00
-4.235645e+00	-1.879648e+00	 1.775159e+00
-4.320516e+00	-1.928648e+00	 2.077333e+00
-4.405386e+00	-1.977648e+00	 2.330063e+00
-4.490257e+00	-2.026648e+00	 2.533349e+00
-4.575127e+00	-2.075648e+00	 2.687190e+00
-4.095871e+00	-1.625744e+00	 1.235434e+00
-4.206722e+00	-1.689744e+00	 1.553756e+00
-4.317573e+00	-1.753744e+00	 1.828926e+00
-4.428425e+00	-1.817744e+00	 2.060945e+00
-4.539276e+00	-1.881744e+00	 2.249812e+00
-4.650127e+00	-1.945744e+00	 2.395528e+00
-4.033646e+00	-1.393519e+00	 1.084672e+00
-4.173943e+00	-1.474519e+00	 1.378305e+00
-4.314239e+00	-1.555519e+00	 1.633894e+00
-4.454535e+00	-1.636519e+00	 1.851437e+00
-4.594831e+00	-1.717519e+00	 2.030935e+00
-4.735127e+00	-1.798519e+00	 2.172388e+00
-3.964102e+00	-1.133975e+00	 9.612817e-01
-4.137307e+00	-1.233975e+00	 1.235908e+00
-4.310512e+00	-1.333975e+00	 1.476704e+00
-4.483717e+00	-1.433975e+00	 1.683672e+00
-4.656922e+00	-1.533975e+00	 1.856810e+00
-4.830127e+00	-1.633975e+00	 1.996119e+00
-4.330127e+00	-2.500000e+00	 1.151473e+00
-4.330127e+00	-2.500000e+00	 2.150986e+15
-4.330127e+00	-2.500000e+00	-1.048641e+14
-4.330127e+00	-2.500000e+00	 1.151473e+00
-4.330127e+00	-2.500000e+00	 1.195740e+15
-4.330127e+00	-2.500000e+00	 1.151473e+00
-4.335127e+00	-2.491340e+00	 1.591737e+01
-4.336859e+00	-2.492340e+00	 1.625880e+01
-4.338591e+00	-2.493340e+00	 1.581369e+01
-4.340323e+00	-2.494340e+00	 1.458204e+01
-4.342055e+00	-2.495340e+00	 1.256386e+01
-4.343787e+00	-2.496340e+00	 9.759135e+00
-4.350127e+00	-2.465359e+00	 7.968123e+00
-4.357055e+00	-2.469359e+00	 8.146145e+00
-4.363983e+00	-2.473359e+00	 7.931007e+00
-4.370912e+00	-2.477359e+00	 7.322707e+00
-4.377840e+00	-2.481359e+00	 6.321247e+00
-4.384768e+00	-2.485359e+00	 4.926626e+00
-4.375127e+00	-2.422058e+00	 5.301227e+00
-4.390715e+00	-2.431058e+00	 5.433627e+00
-4.406304e+00	-2.440058e+00	 5.306696e+00
-4.421892e+00	-2.449058e+00	 4.920434e+00
-4.437481e+00	-2.458058e+00	 4.274839e+00
-4.453069e+00	-2.467058e+00	 3.369913e+00
-4.410127e+00	-2.361436e+00	 3.964417e+00
-4.437840e+00	-2.377436e+00	 4.075627e+00
-4.465553e+00	-2.393436e+00	 3.994925e+00
-4.493265e+00	-2.409436e+00	 3.722313e+00
-4.520978e+00	-2.425436e+00	 3.257790e+00
-4.548691e+00	-2.441436e+00	 2.601356e+00
-4.455127e+00	-2.283494e+00	 3.161123e+00
-4.498428e+00	-2.308494e+00	 3.260099e+00
-4.541730e+00	-2.333494e+00	 3.207778e+00
-4.585031e+00	-2.358494e+00	 3.004160e+00
-4.628332e+00	-2.383494e+00	 2.649244e+00
-4.671633e+00	-2.408494e+00	 2.143030e+00
-4.455127e+00	-2.283494e+00	 3.161123e+00
-4.498428e+00	-2.308494e+00	 3.260099e+00
-4.541730e+00	-2.333494e+00	 3.207778e+00
-4.585031e+00	-2.358494e+00	 3.004160e+00
-4.628332e+00	-2.383494e+00	 2.649244e+00
-4.671633e+00	-2.408494e+00	 2.143030e+00
-4.510127e+00	-2.188231e+00	 2.682628e+00
-4.572481e+00	-2.224231e+00	 2.756971e+00
-4.634835e+00	-2.260231e+00	 2.712002e+00
-4.697189e+00	-2.296231e+00	 2.547720e+00
-4.759542e+00	-2.332231e+00	 2.264126e+00
-4.821896e+00	-2.368231e+00	 1.861220e+00
-4.575127e+00	-2.075648e+00	 2.364456e+00
-4.659998e+00	-2.124648e+00	 2.416538e+00
-4.744868e+00	-2.173648e+00	 2.369220e+00
-4.829738e+00	-2.222648e+00	 2.222501e+00
-4.914609e+00	-2.271648e+00	 1.976382e+00
-4.999479e+00	-2.320648e+00	 1.630862e+00
-4.650127e+00	-1.945744e+00	 2.138635e+00
-4.760978e+00	-2.009744e+00	 2.171437e+00
-4.871830e+00	-2.073744e+00	 2.118166e+00
-4.982681e+00	-2.137744e+00	 1.978820e+00
-5.093532e+00	-2.201744e+00	 1.753401e+00
-5.204383e+00	-2.265744e+00	 1.441909e+00
-4.735127e+00	-1.798519e+00	 1.970488e+00
-4.875423e+00	-1.879519e+00	 1.986730e+00
-5.015719e+00	-1.960519e+00	 1.926309e+00
-5.156015e+00	-2.041519e+00	 1.789224e+00
-5.296311e+00	-2.122519e+00	 1.575476e+00
-5.436608e+00	-2.203519e+00	 1.285065e+00
-4.830127e+00	-1.633975e+00	 1.840597e+00
-5.003332e+00	-1.733975e+00	 1.842572e+00
-5.176537e+00	-1.833975e+00	 1.774807e+00
-5.349742e+00	-1.933975e+00	 1.637303e+00
-5.522947e+00	-2.033975e+00	 1.430060e+00
-5.696152e+00	-2.133975e+00	 1.153077e+00
-4.330127e+00	-2.500000e+00	 1.151473e+00
-4.330127e+00	-2.500000e+00	 1.277426e+15
-4.330127e+00	-2.500000e+00	-2.201997e+14
-4.330127e+00	-2.500000e+00	 1.151473e+00
-4.330127e+00	-2.500000e+00	 3.284174e+14
-4.330127e+00	-2.500000e+00	 1.151473e+00
-4.343787e+00	-2.496340e+00	 9.891283e+00
-4.342787e+00	-2.498072e+00	 1.191123e+01
-4.341787e+00	-2.499804e+00	 1.331573e+01
-4.340787e+00	-2.501536e+00	 1.410480e+01
-4.339787e+00	-2.503268e+00	 1.427843e+01
-4.338787e+00	-2.505000e+00	 1.383663e+01
-4.384768e+00	-2.485359e+00	 5.017495e+00
-4.380768e+00	-2.492287e+00	 6.009648e+00
-4.376768e+00	-2.499215e+00	 6.697775e+00
-4.372768e+00	-2.506144e+00	 7.081877e+00
-4.368768e+00	-2.513072e+00	 7.161952e+00
-4.364768e+00	-2.520000e+00	 6.938002e+00
-4.453069e+00	-2.467058e+00	 3.445328e+00
-4.444069e+00	-2.482646e+00	 4.085293e+00
-4.435069e+00	-2.498235e+00	 4.525504e+00
-4.426069e+00	-2.513823e+00	 4.765961e+00
-4.417069e+00	-2.529412e+00	 4.806664e+00
-4.408069e+00	-2.545000e+00	 4.647614e+00
-4.548691e+00	-2.441436e+00	 2.668727e+00
-4.532691e+00	-2.469149e+00	 3.130830e+00
-4.516691e+00	-2.496862e+00	 3.445404e+00
-4.500691e+00	-2.524574e+00	 3.612447e+00
-4.484691e+00	-2.552287e+00	 3.631960e+00
-4.468691e+00	-2.580000e+00	 3.503943e+00
-4.671633e+00	-2.408494e+00	 2.205473e+00
-4.646633e+00	-2.451795e+00	 2.560326e+00
-4.621633e+00	-2.495096e+00	 2.799009e+00
-4.596633e+00	-2.538397e+00	 2.921525e+00
-4.571633e+00	-2.581699e+00	 2.927872e+00
-4.546633e+00	-2.625000e+00	 2.818051e+00
-4.671633e+00	-2.408494e+00	 2.205473e+00
-4.646633e+00	-2.451795e+00	 2.560326e+00
-4.621633e+00	-2.495096e+00	 2.799009e+00
-4.596633e+00	-2.538397e+00	 2.921525e+00
-4.571633e+00	-2.581699e+00	 2.927872e+00
-4.546633e+00	-2.625000e+00	 2.818051e+00
-4.821896e+00	-2.368231e+00	 1.865768e+00
-4.785896e+00	-2.430585e+00	 2.157531e+00
-4.749896e+00	-2.492939e+00	 2.355944e+00
-4.713896e+00	-2.555292e+00	 2.461006e+00
-4.677896e+00	-2.617646e+00	 2.472718e+00
-4.641896e+00	-2.680000e+00	 2.391079e+00
-4.999479e+00	-2.320648e+00	 1.628836e+00
-4.950479e+00	-2.405518e+00	 1.880102e+00
-4.901479e+00	-2.490389e+00	 2.053158e+00
-4.852479e+00	-2.575259e+00	 2.148004e+00
-4.803479e+00	-2.660130e+00	 2.164640e+00
-4.754479e+00	-2.745000e+00	 2.103066e+00
-5.204383e+00	-2.265744e+00	 1.453971e+00
-5.140383e+00	-2.376595e+00	 1.677392e+00
-5.076383e+00	-2.487446e+00	 1.833324e+00
-5.012383e+00	-2.598297e+00	 1.921768e+00
-4.948383e+00	-2.709149e+00	 1.942723e+00
-4.884383e+00	-2.820000e+00	 1.896189e+00
-5.436608e+00	-2.203519e+00	 1.319356e+00
-5.355608e+00	-2.343816e+00	 1.522650e+00
-5.274608e+00	-2.484112e+00	 1.666416e+00
-5.193608e+00	-2.624408e+00	 1.750656e+00
-5.112608e+00	-2.764704e+00	 1.775368e+00
-5.031608e+00	-2.905000e+00	 1.740554e+00
-5.696152e+00	-2.133975e+00	 1.212253e+00
-5.596152e+00	-2.307180e+00	 1.400440e+00
-5.496152e+00	-2.480385e+00	 1.535231e+00
-5.396152e+00	-2.653590e+00	 1.616626e+00
-5.296152e+00	-2.826795e+00	 1.644625e+00
-5.196152e+00	-3.000000e+00	 1.619229e+00
-4.330127e+00	-2.500000e+00	 1.151473e+00
-4.330127e+00	-2.500000e+00	-5.946716e+14
-4.330127e+00	-2.500000e+00	-6.072769e+14
-4.330127e+00	-2.500000e+00	 1.151473e+00
-4.330127e+00	-2.500000e+00	-1.689758e+15
-4.330127e+00	-2.500000e+00	 1.151473e+00
-4.338787e+00	-2.505000e+00	 1.701027e+01
-4.337787e+00	-2.506732e+00	 1.627321e+01
-4.336787e+00	-2.508464e+00	 1.547086e+01
-4.335787e+00	-2.510196e+00	 1.460324e+01
-4.334787e+00	-2.511928e+00	 1.367034e+01
-4.333787e+00	-2.513660e+00	 1.267216e+01
-4.364768e+00	-2.520000e+00	 8.517872e+00
-4.360768e+00	-2.526928e+00	 8.145379e+00
-4.356768e+00	-2.533856e+00	 7.740885e+00
-4.352768e+00	-2.540785e+00	 7.304388e+00
-4.348768e+00	-2.547713e+00	 6.835889e+00
-4.344768e+00	-2.554641e+00	 6.335388e+00
-4.408069e+00	-2.545000e+00	 5.702857e+00
-4.399069e+00	-2.560588e+00	 5.446282e+00
-4.390069e+00	-2.576177e+00	 5.169915e+00
-4.381069e+00	-2.591765e+00	 4.873755e+00
-4.372069e+00	-2.607354e+00	 4.557802e+00
-4.363069e+00	-2.622942e+00	 4.222057e+00
-4.468691e+00	-2.580000e+00	 4.298116e+00
-4.452691e+00	-2.607713e+00	 4.098480e+00
-4.436691e+00	-2.635426e+00	 3.885365e+00
-4.420691e+00	-2.663138e+00	 3.658771e+00
-4.404691e+00	-2.690851e+00	 3.418699e+00
-4.388691e+00	-2.718564e+00	 3.165148e+00
-4.546633e+00	-2.625000e+00	 3.455979e+00
-4.521633e+00	-2.668301e+00	 3.290208e+00
-4.496633e+00	-2.711603e+00	 3.114814e+00
-4.471633e+00	-2.754904e+00	 2.929795e+00
-4.446633e+00	-2.798205e+00	 2.735153e+00
-4.421633e+00	-2.841506e+00	 2.530887e+00
-4.546633e+00	-2.625000e+00	 3.455979e+00
-4.521633e+00	-2.668301e+00	 3.290208e+00
-4.496633e+00	-2.711603e+00	 3.114814e+00
-4.471633e+00	-2.754904e+00	 2.929795e+00
-4.446633e+00	-2.798205e+00	 2.735153e+00
-4.421633e+00	-2.841506e+00	 2.530887e+00
-4.641896e+00	-2.680000e+00	 2.915348e+00
-4.605896e+00	-2.742354e+00	 2.779393e+00
-4.569896e+00	-2.804708e+00	 2.638359e+00
-4.533896e+00	-2.867061e+00	 2.492246e+00
-4.497896e+00	-2.929415e+00	 2.341054e+00
-4.461896e+00	-2.991769e+00	 2.184783e+00
-4.754479e+00	-2.745000e+00	 2.534401e+00
-4.705479e+00	-2.829870e+00	 2.417678e+00
-4.656479e+00	-2.914741e+00	 2.297942e+00
-4.607479e+00	-2.999611e+00	 2.175194e+00
-4.558479e+00	-3.084482e+00	 2.049433e+00
-4.509479e+00	-3.169352e+00	 1.920660e+00
-4.884383e+00	-2.820000e+00	 2.251397e+00
-4.820383e+00	-2.930851e+00	 2.147995e+00
-4.756383e+00	-3.041703e+00	 2.042484e+00
-4.692383e+00	-3.152554e+00	 1.934864e+00
-4.628383e+00	-3.263405e+00	 1.825135e+00
-4.564383e+00	-3.374256e+00	 1.713298e+00
-5.031608e+00	-2.905000e+00	 2.032746e+00
-4.950608e+00	-3.045296e+00	 1.939076e+00
-4.869608e+00	-3.185592e+00	 1.843617e+00
-4.788608e+00	-3.325888e+00	 1.746368e+00
-4.707608e+00	-3.466184e+00	 1.647330e+00
-4.626608e+00	-3.606481e+00	 1.546501e+00
-5.196152e+00	-3.000000e+00	 1.858608e+00
-5.096152e+00	-3.173205e+00	 1.772355e+00
-4.996152e+00	-3.346410e+00	 1.684325e+00
-4.896152e+00	-3.519615e+00	 1.594518e+00
-4.796152e+00	-3.692820e+00	 1.502933e+00
-4.696152e+00	-3.866025e+00	 1.409570e+00
-4.330127e+00	-2.500000e+00	 1.151473e+00
-4.330127e+00	-2.500000e+00	-3.482323e+15
-4.330127e+00	-2.500000e+00	-8.660605e+14
-4.330127e+00	-2.500000e+00	 1.151473e+00
-4.330127e+00	-2.500000e+00	-3.711557e+15
-4.330127e+00	-2.500000e+00	 1.151473e+00
-4.333787e+00	-2.513660e+00	 1.160827e+01
-4.332055e+00	-2.512660e+00	 1.197656e+01
-4.330323e+00	-2.511660e+00	 1.133438e+01
-4.328591e+00	-2.510660e+00	 9.681741e+00
-4.326859e+00	-2.509660e+00	 7.018637e+00
-4.325127e+00	-2.508660e+00	 3.345069e+00
-4.344768e+00	-2.554641e+00	 5.811729e+00
-4.337840e+00	-2.550641e+00	 5.993335e+00
-4.330912e+00	-2.546641e+00	 5.668995e+00
-4.323983e+00	-2.542641e+00	 4.838708e+00
-4.317055e+00	-2.538641e+00	 3.502476e+00
-4.310127e+00	-2.534641e+00	 1.660296e+00
-4.363069e+00	-2.622942e+00	 3.900650e+00
-4.347481e+00	-2.613942e+00	 4.011694e+00
-4.331892e+00	-2.604942e+00	 3.787693e+00
-4.316304e+00	-2.595942e+00	 3.228648e+00
-4.300715e+00	-2.586942e+00	 2.334558e+00
-4.285127e+00	-2.577942e+00	 1.105423e+00
-4.388691e+00	-2.718564e+00	 2.949025e+00
-4.360978e+00	-2.702564e+00	 3.023263e+00
-4.333265e+00	-2.686564e+00	 2.848418e+00
-4.305553e+00	-2.670564e+00	 2.424490e+00
-4.277840e+00	-2.654564e+00	 1.751480e+00
-4.250127e+00	-2.638564e+00	 8.293867e-01
-4.421633e+00	-2.841506e+00	 2.379265e+00
-4.378332e+00	-2.816506e+00	 2.430965e+00
-4.335031e+00	-2.791506e+00	 2.285322e+00
-4.291730e+00	-2.766506e+00	 1.942336e+00
-4.248428e+00	-2.741506e+00	 1.402007e+00
-4.205127e+00	-2.716506e+00	 6.643361e-01
-4.421633e+00	-2.841506e+00	 2.379265e+00
-4.378332e+00	-2.816506e+00	 2.430965e+00
-4.335031e+00	-2.791506e+00	 2.285322e+00
-4.291730e+00	-2.766506e+00	 1.942336e+00
-4.248428e+00	-2.741506e+00	 1.402007e+00
-4.205127e+00	-2.716506e+00	 6.643361e-01
-4.461896e+00	-2.991769e+00	 2.029505e+00
-4.399542e+00	-2.955769e+00	 2.062499e+00
-4.337189e+00	-2.919769e+00	 1.931708e+00
-4.274835e+00	-2.883769e+00	 1.637131e+00
-4.212481e+00	-2.847769e+00	 1.178768e+00
-4.150127e+00	-2.811769e+00	 5.566196e-01
-4.509479e+00	-3.169352e+00	 1.782263e+00
-4.424609e+00	-3.120352e+00	 1.805947e+00
-4.339738e+00	-3.071352e+00	 1.690460e+00
-4.254868e+00	-3.022352e+00	 1.435800e+00
-4.169998e+00	-2.973352e+00	 1.041969e+00
-4.085127e+00	-2.924352e+00	 5.089663e-01
-4.564383e+00	-3.374256e+00	 1.598223e+00
-4.453532e+00	-3.310256e+00	 1.617164e+00
-4.342681e+00	-3.246256e+00	 1.515745e+00
-4.231830e+00	-3.182256e+00	 1.293965e+00
-4.120978e+00	-3.118256e+00	 9.518250e-01
-4.010127e+00	-3.054256e+00	 4.893247e-01
-4.626608e+00	-3.606481e+00	 1.455882e+00
-4.486311e+00	-3.525481e+00	 1.472485e+00
-4.346015e+00	-3.444481e+00	 1.383565e+00
-4.205719e+00	-3.363481e+00	 1.189120e+00
-4.065423e+00	-3.282481e+00	 8.891516e-01
-3.925127e+00	-3.201481e+00	 4.836589e-01
-4.696152e+00	-3.866025e+00	 1.342495e+00
-4.522947e+00	-3.766025e+00	 1.358102e+00
-4.349742e+00	-3.666025e+00	 1.280180e+00
-4.176537e+00	-3.566025e+00	 1.108730e+00
-4.003332e+00	-3.466025e+00	 8.437508e-01
-3.830127e+00	-3.366025e+00	 4.852433e-01
-4.330127e+00	-2.500000e+00	 1.151473e+00
-4.330127e+00	-2.500000e+00	-6.633402e+15
-4.330127e+00	-2.500000e+00	-6.916405e+14
-4.330127e+00	-2.500000e+00	 1.151473e+00
-4.330127e+00	-2.500000e+00	-6.455644e+15
-4.330127e+00	-2.500000e+00	 1.151473e+00
-4.325127e+00	-2.508660e+00	 3.885395e+00
-4.323395e+00	-2.507660e+00	 1.900330e+00
-4.321663e+00	-2.506660e+00	 4.127193e-01
-4.319931e+00	-2.505660e+00	-5.774379e-01
-4.318199e+00	-2.504660e+00	-1.070141e+00
-4.316467e+00	-2.503660e+00	-1.065391e+00
-4.310127e+00	-2.534641e+00	 1.948649e+00
-4.303199e+00	-2.530641e+00	 9.437051e-01
-4.296271e+00	-2.526641e+00	 1.966196e-01
-4.289342e+00	-2.522641e+00	-2.926078e-01
-4.282414e+00	-2.518641e+00	-5.239769e-01
-4.275486e+00	-2.514641e+00	-4.974879e-01
-4.285127e+00	-2.577942e+00	 1.333904e+00
-4.269539e+00	-2.568942e+00	 6.654647e-01
-4.253950e+00	-2.559942e+00	 1.709057e-01
-4.238362e+00	-2.550942e+00	-1.497730e-01
-4.222773e+00	-2.541942e+00	-2.965715e-01
-4.207185e+00	-2.532942e+00	-2.694897e-01
-4.250127e+00	-2.638564e+00	 1.032454e+00
-4.222414e+00	-2.622564e+00	 5.341386e-01
-4.194701e+00	-2.606564e+00	 1.669433e-01
-4.166989e+00	-2.590564e+00	-6.913247e-02
-4.139276e+00	-2.574564e+00	-1.740886e-01
-4.111563e+00	-2.558564e+00	-1.479252e-01
-4.205127e+00	-2.716506e+00	 8.536020e-01
-4.161826e+00	-2.691506e+00	 4.579902e-01
-4.118524e+00	-2.666506e+00	 1.675938e-01
-4.075223e+00	-2.641506e+00	-1.758717e-02
-4.031922e+00	-2.616506e+00	-9.755276e-02
-3.988621e+00	-2.591506e+00	-7.230294e-02
-4.205127e+00	-2.716506e+00	 8.536020e-01
-4.161826e+00	-2.691506e+00	 4.579902e-01
-4.118524e+00	-2.666506e+00	 1.675938e-01
-4.075223e+00	-2.641506e+00	-1.758717e-02
-4.031922e+00	-2.616506e+00	-9.755276e-02
-3.988621e+00	-2.591506e+00	-7.230294e-02
-4.150127e+00	-2.811769e+00	 7.230164e-01
-4.087773e+00	-2.775769e+00	 3.879668e-01
-4.025419e+00	-2.739769e+00	 1.414783e-01
-3.963066e+00	-2.703769e+00	-1.644901e-02
-3.900712e+00	-2.667769e+00	-8.581523e-02
-3.838358e+00	-2.631769e+00	-6.662031e-02
-4.085127e+00	-2.924352e+00	 6.418484e-01
-4.000257e+00	-2.875352e+00	 3.489145e-01
-3.915386e+00	-2.826352e+00	 1.321522e-01
-3.830516e+00	-2.777352e+00	-8.438234e-03
-3.745645e+00	-2.728352e+00	-7.285695e-02
-3.660775e+00	-2.679352e+00	-6.110392e-02
-4.010127e+00	-3.054256e+00	 5.876756e-01
-3.899276e+00	-2.990256e+00	 3.257183e-01
-3.788425e+00	-2.926256e+00	 1.303689e-01
-3.677573e+00	-2.862256e+00	 1.627199e-03
-3.566722e+00	-2.798256e+00	-6.050671e-02
-3.455871e+00	-2.734256e+00	-5.603283e-02
-3.925127e+00	-3.201481e+00	 5.495847e-01
-3.784831e+00	-3.120481e+00	 3.113701e-01
-3.644535e+00	-3.039481e+00	 1.321610e-01
-3.504239e+00	-2.958481e+00	 1.195740e-02
-3.363943e+00	-2.877481e+00	-4.924076e-02
-3.223646e+00	-2.796481e+00	-5.143346e-02
-3.830127e+00	-3.366025e+00	 5.217214e-01
-3.656922e+00	-3.266025e+00	 3.022877e-01
-3.483717e+00	-3.166025e+00	 1.356715e-01
-3.310512e+00	-3.066025e+00	 2.187288e-02
-3.137307e+00	-2.966025e+00	-3.910818e-02
-2.964102e+00	-2.866025e+00	-4.727169e-02
-4.330127e+00	-2.500000e+00	 1.151473e+00
-4.330127e+00	-2.500000e+00	-8.942932e+15
-4.330127e+00	-2.500000e+00	-3.893614e+14
-4.330127e+00	-2.500000e+00	 1.151473e+00
-4.330127e+00	-2.500000e+00	-5.712968e+15
-4.330127e+00	-2.500000e+00	 1.151473e+00
-4.316467e+00	-2.503660e+00	-7.058505e-01
-4.317467e+00	-2.501928e+00	-7.945676e-01
-4.318467e+00	-2.500196e+00	-1.045943e+00
-4.319467e+00	-2.498464e+00	-1.459978e+00
-4.320467e+00	-2.496732e+00	-2.036671e+00
-4.321467e+00	-2.495000e+00	-2.776024e+00
-4.275486e+00	-2.514641e+00	-3.647605e-01
-4.279486e+00	-2.507713e+00	-4.082174e-01
-4.283486e+00	-2.500785e+00	-5.334646e-01
-4.287486e+00	-2.493856e+00	-7.405021e-01
-4.291486e+00	-2.486928e+00	-1.029330e+00
-4.295486e+00	-2.480000e+00	-1.399948e+00
-4.207185e+00	-2.532942e+00	-2.819347e-01
-4.216185e+00	-2.517354e+00	-3.063009e-01
-4.225185e+00	-2.501765e+00	-3.850527e-01
-4.234185e+00	-2.486177e+00	-5.181901e-01
-4.243185e+00	-2.470588e+00	-7.057131e-01
-4.252185e+00	-2.455000e+00	-9.476218e-01
-4.111563e+00	-2.558564e+00	-2.460003e-01
-4.127563e+00	-2.530851e+00	-2.600960e-01
-4.143563e+00	-2.503138e+00	-3.147911e-01
-4.159563e+00	-2.475426e+00	-4.100856e-01
-4.175563e+00	-2.447713e+00	-5.459794e-01
-4.191563e+00	-2.420000e+00	-7.224727e-01
-3.988621e+00	-2.591506e+00	-2.259302e-01
-4.013621e+00	-2.548205e+00	-2.336522e-01
-4.038621e+00	-2.504904e+00	-2.736754e-01
-4.063621e+00	-2.461603e+00	-3.459997e-01
-4.088621e+00	-2.418301e+00	-4.506252e-01
-4.113621e+00	-2.375000e+00	-5.875518e-01
-3.988621e+00	-2.591506e+00	-2.259302e-01
-4.013621e+00	-2.548205e+00	-2.336522e-01
-4.038621e+00	-2.504904e+00	-2.736754e-01
-4.063621e+00	-2.461603e+00	-3.459997e-01
-4.088621e+00	-2.418301e+00	-4.506252e-01
-4.113621e+00	-2.375000e+00	-5.875518e-01
-3.838358e+00	-2.631769e+00	-1.701591e-01
-3.874358e+00	-2.569415e+00	-1.724434e-01
-3.910358e+00	-2.507061e+00	-2.050147e-01
-3.946358e+00	-2.444708e+00	-2.678728e-01
-3.982358e+00	-2.382354e+00	-3.610178e-01
-4.018358e+00	-2.320000e+00	-4.844497e-01
-3.660775e+00	-2.679352e+00	-1.095753e-01
-3.709775e+00	-2.594482e+00	-1.194629e-01
-3.758775e+00	-2.509611e+00	-1.560339e-01
-3.807775e+00	-2.424741e+00	-2.192885e-01
-3.856775e+00	-2.339870e+00	-3.092264e-01
-3.905775e+00	-2.255000e+00	-4.258479e-01
-3.455871e+00	-2.734256e+00	-5.265453e-02
-3.519871e+00	-2.623405e+00	-7.453325e-02
-3.583871e+00	-2.512554e+00	-1.192100e-01
-3.647871e+00	-2.401703e+00	-1.866847e-01
-3.711871e+00	-2.290851e+00	-2.769573e-01
-3.775871e+00	-2.180000e+00	-3.900280e-01
-3.223646e+00	-2.796481e+00	-1.476215e-03
-3.304646e+00	-2.656184e+00	-3.641050e-02
-3.385646e+00	-2.515888e+00	-9.042081e-02
-3.466646e+00	-2.375592e+00	-1.635072e-01
-3.547646e+00	-2.235296e+00	-2.556695e-01
-3.628646e+00	-2.095000e+00	-3.669080e-01
-2.964102e+00	-2.866025e+00	 4.388706e-02
-3.064102e+00	-2.692820e+00	-3.839530e-03
-3.164102e+00	-2.519615e+00	-6.722491e-02
-3.264102e+00	-2.346410e+00	-1.462691e-01
-3.364102e+00	-2.173205e+00	-2.409720e-01
-3.464102e+00	-2.000000e+00	-3.513338e-01
 5.196152e+00	 3.000000e+00	 1.823049e+00
 5.096152e+00	 3.173205e+00	 1.773242e+00
 4.996152e+00	 3.346410e+00	 1.729748e+00
 4.896152e+00	 3.519615e+00	 1.692568e+00
 4.796152e+00	 3.692820e+00	 1.661701e+00
 4.696152e+00	 3.866025e+00	 1.637147e+00
 5.542563e+00	 3.200000e+00	 1.609431e+00
 5.442563e+00	 3.373205e+00	 1.574391e+00
 5.342563e+00	 3.546410e+00	 1.543225e+00
 5.242563e+00	 3.719615e+00	 1.515933e+00
 5.142563e+00	 3.892820e+00	 1.492516e+00
 5.042563e+00	 4.066025e+00	 1.472973e+00
 5.888973e+00	 3.400000e+00	 1.440340e+00
 5.788973e+00	 3.573205e+00	 1.419604e+00
 5.688973e+00	 3.746410e+00	 1.400303e+00
 5.588973e+00	 3.919615e+00	 1.382437e+00
 5.488973e+00	 4.092820e+00	 1.366007e+00
 5.388973e+00	 4.266025e+00	 1.351013e+00
 6.235383e+00	 3.600000e+00	 1.315776e+00
 6.135383e+00	 3.773205e+00	 1.308881e+00
 6.035383e+00	 3.946410e+00	 1.300982e+00
 5.935383e+00	 4.119615e+00	 1.292081e+00
 5.835383e+00	 4.292820e+00	 1.282175e+00
 5.735383e+00	 4.466025e+00	 1.271267e+00
 6.581793e+00	 3.800000e+00	 1.235738e+00
 6.481793e+00	 3.973205e+00	 1.242222e+00
 6.381793e+00	 4.146410e+00	 1.245264e+00
 6.281793e+00	 4.319615e+00	 1.244863e+00
 6.181793e+00	 4.492820e+00	 1.241020e+00
 6.081793e+00	 4.666025e+00	 1.233734e+00
 6.928203e+00	 4.000000e+00	 1.200228e+00
 6.828203e+00	 4.173205e+00	 1.219628e+00
 6.728203e+00	 4.346410e+00	 1.233146e+00
 6.628203e+00	 4.519615e+00	 1.240784e+00
 6.528203e+00	 4.692820e+00	 1.242541e+00
 6.428203e+00	 4.866025e+00	 1.238416e+00
 6.928203e+00	 4.000000e+00	 1.200228e+00
 6.828203e+00	 4.173205e+00	 1.219628e+00
 6.728203e+00	 4.346410e+00	 1.233146e+00
 6.628203e+00	 4.519615e+00	 1.240784e+00
 6.528203e+00	 4.692820e+00	 1.242541e+00
 6.428203e+00	 4.866025e+00	 1.238416e+00
 7.274613e+00	 4.200000e+00	 1.196603e+00
 7.174613e+00	 4.373205e+00	 1.205130e+00
 7.074613e+00	 4.546410e+00	 1.209333e+00
 6.974613e+00	 4.719615e+00	 1.209214e+00
 6.874613e+00	 4.892820e+00	 1.204772e+00
 6.774613e+00	 5.066025e+00	 1.196006e+00
 7.621024e+00	 4.400000e+00	 1.194893e+00
 7.521024e+00	 4.573205e+00	 1.195033e+00
 7.421024e+00	 4.746410e+00	 1.192409e+00
 7.321024e+00	 4.919615e+00	 1.187020e+00
 7.221024e+00	 5.092820e+00	 1.178867e+00
 7.121024e+00	 5.266025e+00	 1.167948e+00
 7.967434e+00	 4.600000e+00	 1.195097e+00
 7.867434e+00	 4.773205e+00	 1.189339e+00
 7.767434e+00	 4.946410e+00	 1.182374e+00
 7.667434e+00	 5.119615e+00	 1.174203e+00
 7.567434e+00	 5.292820e+00	 1.164825e+00
 7.467434e+00	 5.466025e+00	 1.154241e+00
 8.313844e+00	 4.800000e+00	 1.197215e+00
 8.213844e+00	 4.973205e+00	 1.188046e+00
 8.113844e+00	 5.146410e+00	 1.179228e+00
 8.013844e+00	 5.319615e+00	 1.170762e+00
 7.913844e+00	 5.492820e+00	 1.162648e+00
 7.813844e+00	 5.666025e+00	 1.154885e+00
 8.660254e+00	 5.000000e+00	 1.201349e+00
 8.560254e+00	 5.173205e+00	 1.191197e+00
 8.460254e+00	 5.346410e+00	 1.182979e+00
 8.360254e+00	 5.519615e+00	 1.176696e+00
 8.260254e+00	 5.692820e+00	 1.172334e+00
 8.160254e+00	 5.866025e+00	 1.169881e+00
 4.696152e+00	 3.866025e+00	 1.173450e+00
 4.246152e+00	 4.645448e+00	 1.014581e+00
 3.796152e+00	 5.424871e+00	 8.772643e-01
 3.346152e+00	 6.204294e+00	 7.614999e-01
 2.896152e+00	 6.983717e+00	 6.672879e-01
 2.446152e+00	 7.763140e+00	 5.946282e-01
 5.042563e+00	 4.066025e+00	 1.215323e+00
 4.592563e+00	 4.845448e+00	 1.057859e+00
 4.142563e+00	 5.624871e+00	 9.255095e-01
 3.692563e+00	 6.404294e+00	 8.182754e-01
 3.242563e+00	 7.183717e+00	 7.361566e-01
 2.792563e+00	 7.963140e+00	 6.791531e-01
 5.388973e+00	 4.266025e+00	 1.252277e+00
 4.938973e+00	 5.045448e+00	 1.094667e+00
 4.488973e+00	 5.824871e+00	 9.657347e-01
 4.038973e+00	 6.604294e+00	 8.654806e-01
 3.588973e+00	 7.383717e+00	 7.939048e-01
 3.138973e+00	 8.163140e+00	 7.510071e-01
 5.735383e+00	 4.466025e+00	 1.284312e+00
 5.285383e+00	 5.245448e+00	 1.125005e+00
 4.835383e+00	 6.024871e+00	 9.979399e-01
 4.385383e+00	 6.804294e+00	 9.031156e-01
 3.935383e+00	 7.583717e+00	 8.405325e-01
 3.485383e+00	 8.363140e+00	 8.096956e-01
 6.081793e+00	 4.666025e+00	 1.311427e+00
 5.631793e+00	 5.445448e+00	 1.148874e+00
 5.181793e+00	 6.224871e+00	 1.022125e+00
 4.731793e+00	 7.004294e+00	 9.311804e-01
 4.281793e+00	 7.783717e+00	 8.760397e-01
 3.831793e+00	 8.563140e+00	 8.529278e-01
 6.428203e+00	 4.866025e+00	 1.333622e+00
 5.978203e+00	 5.645448e+00	 1.166273e+00
 5.528203e+00	 6.424871e+00	 1.038290e+00
 5.078203e+00	 7.204294e+00	 9.496749e-01
 4.628203e+00	 7.983717e+00	 9.004264e-01
 4.178203e+00	 8.763140e+00	 8.835673e-01
 2.446152e+00	 7.763140e+00	 5.946282e-01
 1.996152e+00	 8.542563e+00	 6.842275e-01
 1.546152e+00	 9.321985e+00	 7.427658e-01
 1.096152e+00	 1.010141e+01	 7.800201e-01
 6.461524e-01	 1.088083e+01	 7.960802e-01
 1.961524e-01	 1.166025e+01	 7.910362e-01
 2.792563e+00	 7.963140e+00	 6.791531e-01
 2.342563e+00	 8.742563e+00	 7.418852e-01
 1.892563e+00	 9.521985e+00	 7.810283e-01
 1.442563e+00	 1.030141e+01	 8.029212e-01
 9.925626e-01	 1.108083e+01	 8.076538e-01
 5.425626e-01	 1.186025e+01	 7.953162e-01
 3.138973e+00	 8.163140e+00	 7.510071e-01
 2.688973e+00	 8.942563e+00	 7.904716e-01
 2.238973e+00	 9.721985e+00	 8.137790e-01
 1.788973e+00	 1.050141e+01	 8.238701e-01
 1.338973e+00	 1.128083e+01	 8.208349e-01
 8.889727e-01	 1.206025e+01	 8.047632e-01
 3.485383e+00	 8.363140e+00	 8.096956e-01
 3.035383e+00	 9.142563e+00	 8.299994e-01
 2.585383e+00	 9.921985e+00	 8.410308e-01
 2.135383e+00	 1.070141e+01	 8.428797e-01
 1.685383e+00	 1.148083e+01	 8.356361e-01
 1.235383e+00	 1.226025e+01	 8.193901e-01
 3.831793e+00	 8.563140e+00	 8.529278e-01
 3.381793e+00	 9.342563e+00	 8.604813e-01
 2.931793e+00	 1.012199e+01	 8.627962e-01
 2.481793e+00	 1.090141e+01	 8.599626e-01
 2.031793e+00	 1.168083e+01	 8.520704e-01
 1.581793e+00	 1.246025e+01	 8.392095e-01
 4.178203e+00	 8.763140e+00	 8.835673e-01
 3.728203e+00	 9.542563e+00	 8.819301e-01
 3.278203e+00	 1.032199e+01	 8.790883e-01
 2.828203e+00	 1.110141e+01	 8.751317e-01
 2.378203e+00	 1.188083e+01	 8.701504e-01
 1.928203e+00	 1.266025e+01	 8.642344e-01
 6.428203e+00	 4.866025e+00	 1.333622e+00
 5.978203e+00	 5.645448e+00	 1.166273e+00
 5.528203e+00	 6.424871e+00	 1.038290e+00
 5.078203e+00	 7.204294e+00	 9.496749e-01
 4.628203e+00	 7.983717e+00	 9.004264e-01
 4.178203e+00	 8.763140e+00	 8.835673e-01
 6.774613e+00	 5.066025e+00	 1.282562e+00
 6.324613e+00	 5.845448e+00	 1.143040e+00
 5.874613e+00	 6.624871e+00	 1.037658e+00
 5.424613e+00	 7.404294e+00	 9.664145e-01
 4.974613e+00	 8.183717e+00	 9.293103e-01
 4.524613e+00	 8.963140e+00	 9.162563e-01
 7.121024e+00	 5.266025e+00	 1.240658e+00
 6.671024e+00	 6.045448e+00	 1.124737e+00
 6.221024e+00	 6.824871e+00	 1.037727e+00
 5.771024e+00	 7.604294e+00	 9.796285e-01
 5.321024e+00	 8.383717e+00	 9.496672e-01
 4.871024e+00	 9.163140e+00	 9.370691e-01
 7.467434e+00	 5.466025e+00	 1.207910e+00
 7.017434e+00	 6.245448e+00	 1.111362e+00
 6.567434e+00	 7.024871e+00	 1.038497e+00
 6.117434e+00	 7.804294e+00	 9.893169e-01
 5.667434e+00	 8.583717e+00	 9.600442e-01
 5.217434e+00	 9.363140e+00	 9.460183e-01
 7.813844e+00	 5.666025e+00	 1.184317e+00
 7.363844e+00	 6.445448e+00	 1.102915e+00
 6.913844e+00	 7.224871e+00	 1.039970e+00
 6.463844e+00	 8.004294e+00	 9.954798e-01
 6.013844e+00	 8.783717e+00	 9.627924e-01
 5.563844e+00	 9.563140e+00	 9.431169e-01
 8.160254e+00	 5.866025e+00	 1.169881e+00
 7.710254e+00	 6.645448e+00	 1.099398e+00
 7.260254e+00	 7.424871e+00	 1.042143e+00
 6.810254e+00	 8.204294e+00	 9.981170e-01
 6.360254e+00	 8.983717e+00	 9.579247e-01
 5.910254e+00	 9.763140e+00	 9.283775e-01
 4.178203e+00	 8.763140e+00	 8.835673e-01
 3.728203e+00	 9.542563e+00	 8.819301e-01
 3.278203e+00	 1.032199e+01	 8.790883e-01
 2.828203e+00	 1.110141e+01	 8.751317e-01
 2.378203e+00	 1.188083e+01	 8.701504e-01
 1.928203e+00	 1.266025e+01	 8.642344e-01
 4.524613e+00	 8.963140e+00	 9.162563e-01
 4.074613e+00	 9.742563e+00	 9.052036e-01
 3.624613e+00	 1.052199e+01	 8.974554e-01
 3.174613e+00	 1.130141e+01	 8.931019e-01
 2.724613e+00	 1.208083e+01	 8.922328e-01
 2.274613e+00	 1.286025e+01	 8.949382e-01
 4.871024e+00	 9.163140e+00	 9.370691e-01
 4.421024e+00	 9.942563e+00	 9.202066e-01
 3.971024e+00	 1.072199e+01	 9.111579e-01
 3.521024e+00	 1.150141e+01	 9.100131e-01
 3.071024e+00	 1.228083e+01	 9.168620e-01
 2.621024e+00	 1.306025e+01	 9.317947e-01
 5.217434e+00	 9.363140e+00	 9.460183e-01
 4.767434e+00	 1.014256e+01	 9.269518e-01
 4.317434e+00	 1.092199e+01	 9.202085e-01
 3.867434e+00	 1.170141e+01	 9.258782e-01
 3.417434e+00	 1.248083e+01	 9.440509e-01
 2.967434e+00	 1.326025e+01	 9.748166e-01
 5.563844e+00	 9.563140e+00	 9.431169e-01
 5.113844e+00	 1.034256e+01	 9.254522e-01
 4.663844e+00	 1.112199e+01	 9.246199e-01
 4.213844e+00	 1.190141e+01	 9.407099e-01
 3.763844e+00	 1.268083e+01	 9.738121e-01
 3.313844e+00	 1.346025e+01	 1.024017e+00
 5.910254e+00	 9.763140e+00	 9.283775e-01
 5.460254e+00	 1.054256e+01	 9.157204e-01
 5.010254e+00	 1.132199e+01	 9.244049e-01
 4.560254e+00	 1.210141e+01	 9.545209e-01
 4.110254e+00	 1.288083e+01	 1.006159e+00
 3.660254e+00	 1.366025e+01	 1.079408e+00
 3.830127e+00	 3.366025e+00	 1.774664e-01
 3.380127e+00	 4.145448e+00	 3.803048e-01
 2.930127e+00	 4.924871e+00	 5.201226e-01
 2.480127e+00	 5.704294e+00	 5.969196e-01
 2.030127e+00	 6.483717e+00	 6.106960e-01
 1.580127e+00	 7.263140e+00	 5.614517e-01
 4.003332e+00	 3.466025e+00	 4.119431e-01
 3.553332e+00	 4.245448e+00	 5.405260e-01
 3.103332e+00	 5.024871e+00	 6.198887e-01
 2.653332e+00	 5.804294e+00	 6.500314e-01
 2.203332e+00	 6.583717e+00	 6.309540e-01
 1.753332e+00	 7.363140e+00	 5.626566e-01
 4.176537e+00	 3.566025e+00	 6.144083e-01
 3.726537e+00	 4.345448e+00	 6.760858e-01
 3.276537e+00	 5.124871e+00	 7.023439e-01
 2.826537e+00	 5.904294e+00	 6.931826e-01
 2.376537e+00	 6.683717e+00	 6.486018e-01
 1.926537e+00	 7.463140e+00	 5.686015e-01
 4.349742e+00	 3.666025e+00	 7.848618e-01
 3.899742e+00	 4.445448e+00	 7.869844e-01
 3.449742e+00	 5.224871e+00	 7.674882e-01
 2.999742e+00	 6.004294e+00	 7.263731e-01
 2.549742e+00	 6.783717e+00	 6.636392e-01
 2.099742e+00	 7.563140e+00	 5.792864e-01
 4.522947e+00	 3.766025e+00	 9.233037e-01
 4.072947e+00	 4.545448e+00	 8.732217e-01
 3.622947e+00	 5.324871e+00	 8.153215e-01
 3.172947e+00	 6.104294e+00	 7.496030e-01
 2.722947e+00	 6.883717e+00	 6.760663e-01
 2.272947e+00	 7.663140e+00	 5.947114e-01
 4.696152e+00	 3.866025e+00	 1.029734e+00
 4.246152e+00	 4.645448e+00	 9.347977e-01
 3.796152e+00	 5.424871e+00	 8.458438e-01
 3.346152e+00	 6.204294e+00	 7.628723e-01
 2.896152e+00	 6.983717e+00	 6.858831e-01
 2.446152e+00	 7.763140e+00	 6.148764e-01
 1.580127e+00	 7.263140e+00	 5.614517e-01
 1.130127e+00	 8.042563e+00	 6.216707e-01
 6.801270e-01	 8.821985e+00	 6.679618e-01
 2.301270e-01	 9.601408e+00	 7.037193e-01
-2.198730e-01	 1.038083e+01	 7.340556e-01
-6.698730e-01	 1.116025e+01	 7.590606e-01
 1.753332e+00	 7.363140e+00	 5.626566e-01
 1.303332e+00	 8.142563e+00	 6.313168e-01
 8.533321e-01	 8.921985e+00	 6.813434e-01
 4.033321e-01	 9.701408e+00	 7.195776e-01
-4.666790e-02	 1.048083e+01	 7.494027e-01
-4.966679e-01	 1.126025e+01	 7.709085e-01
 1.926537e+00	 7.463140e+00	 5.686015e-01
 1.476537e+00	 8.242563e+00	 6.442080e-01
 1.026537e+00	 9.021985e+00	 6.964779e-01
 5.765372e-01	 9.801408e+00	 7.356953e-01
 1.265372e-01	 1.058083e+01	 7.635154e-01
-3.234628e-01	 1.136025e+01	 7.800284e-01
 2.099742e+00	 7.563140e+00	 5.792864e-01
 1.649742e+00	 8.342563e+00	 6.601852e-01
 1.199742e+00	 9.121985e+00	 7.133671e-01
 7.497423e-01	 9.901408e+00	 7.520739e-01
 2.997423e-01	 1.068083e+01	 7.763955e-01
-1.502577e-01	 1.146025e+01	 7.864219e-01
 2.272947e+00	 7.663140e+00	 5.947114e-01
 1.822947e+00	 8.442563e+00	 6.778469e-01
 1.372947e+00	 9.221985e+00	 7.320125e-01
 9.229473e-01	 1.000141e+01	 7.687151e-01
 4.729473e-01	 1.078083e+01	 7.880445e-01
 2.294734e-02	 1.156025e+01	 7.900907e-01
 2.446152e+00	 7.763140e+00	 6.148764e-01
 1.996152e+00	 8.542563e+00	 6.987600e-01
 1.546152e+00	 9.321985e+00	 7.524158e-01
 1.096152e+00	 1.010141e+01	 7.856204e-01
 6.461524e-01	 1.088083e+01	 7.984639e-01
 1.961524e-01	 1.166025e+01	 7.910362e-01
 2.964102e+00	 2.866025e+00	-2.829054e-02
 2.514102e+00	 3.645448e+00	 1.581433e-01
 2.064102e+00	 4.424871e+00	 3.067439e-01
 1.614102e+00	 5.204294e+00	 4.175113e-01
 1.164102e+00	 5.983717e+00	 4.904456e-01
 7.141016e-01	 6.763140e+00	 5.255466e-01
 3.137307e+00	 2.966025e+00	-1.348940e-02
 2.687307e+00	 3.745448e+00	 1.820725e-01
 2.237307e+00	 4.524871e+00	 3.349479e-01
 1.787307e+00	 5.304294e+00	 4.451367e-01
 1.337307e+00	 6.083717e+00	 5.126391e-01
 8.873067e-01	 6.863140e+00	 5.374551e-01
 3.310512e+00	 3.066025e+00	 1.813468e-02
 2.860512e+00	 3.845448e+00	 2.190233e-01
 2.410512e+00	 4.624871e+00	 3.723722e-01
 1.960512e+00	 5.404294e+00	 4.781813e-01
 1.510512e+00	 6.183717e+00	 5.364506e-01
 1.060512e+00	 6.963140e+00	 5.471801e-01
 3.483717e+00	 3.166025e+00	 6.658168e-02
 3.033717e+00	 3.945448e+00	 2.689958e-01
 2.583717e+00	 4.724871e+00	 4.190169e-01
 2.133717e+00	 5.504294e+00	 5.166449e-01
 1.683717e+00	 6.283717e+00	 5.618799e-01
 1.233717e+00	 7.063140e+00	 5.547218e-01
 3.656922e+00	 3.266025e+00	 1.318516e-01
 3.206922e+00	 4.045448e+00	 3.319900e-01
 2.756922e+00	 4.824871e+00	 4.748820e-01
 2.306922e+00	 5.604294e+00	 5.605277e-01
 1.856922e+00	 6.383717e+00	 5.889270e-01
 1.406922e+00	 7.163140e+00	 5.600800e-01
 3.830127e+00	 3.366025e+00	 2.139445e-01
 3.380127e+00	 4.145448e+00	 4.080058e-01
 2.930127e+00	 4.924871e+00	 5.399675e-01
 2.480127e+00	 5.704294e+00	 6.098296e-01
 2.030127e+00	 6.483717e+00	 6.175920e-01
 1.580127e+00	 7.263140e+00	 5.632548e-01
 7.141016e-01	 6.763140e+00	 5.255466e-01
 2.641016e-01	 7.542563e+00	 5.822320e-01
-1.858984e-01	 8.321985e+00	 6.326945e-01
-6.358984e-01	 9.101408e+00	 6.637215e-01
-1.085898e+00	 9.880831e+00	 6.884546e-01
-1.535898e+00	 1.066025e+01	 7.071793e-01
 8.873067e-01	 6.863140e+00	 5.374551e-01
 4.373067e-01	 7.642563e+00	 5.922910e-01
-1.269330e-02	 8.421985e+00	 6.398681e-01
-4.626933e-01	 9.201408e+00	 6.698093e-01
-9.126933e-01	 9.980831e+00	 6.941295e-01
-1.362693e+00	 1.076025e+01	 7.129184e-01
 1.060512e+00	 6.963140e+00	 5.471801e-01
 6.105118e-01	 7.742563e+00	 6.010668e-01
 1.605118e-01	 8.521985e+00	 6.464582e-01
-2.894882e-01	 9.301408e+00	 6.764110e-01
-7.394882e-01	 1.008083e+01	 7.012197e-01
-1.189488e+00	 1.086025e+01	 7.209744e-01
 1.233717e+00	 7.063140e+00	 5.547218e-01
 7.837169e-01	 7.842563e+00	 6.085596e-01
 3.337169e-01	 8.621985e+00	 6.526621e-01
-1.162831e-01	 9.401408e+00	 6.835280e-01
-5.662831e-01	 1.018083e+01	 7.097270e-01
-1.016283e+00	 1.096025e+01	 7.313491e-01
 1.406922e+00	 7.163140e+00	 5.600800e-01
 9.569219e-01	 7.942563e+00	 6.147692e-01
 5.069219e-01	 8.721985e+00	 6.584814e-01
 5.692194e-02	 9.501408e+00	 6.911619e-01
-3.930781e-01	 1.028083e+01	 7.196528e-01
-8.430781e-01	 1.106025e+01	 7.440439e-01
 1.580127e+00	 7.263140e+00	 5.632548e-01
 1.130127e+00	 8.042563e+00	 6.196958e-01
 6.801270e-01	 8.821985e+00	 6.639177e-01
 2.301270e-01	 9.601408e+00	 6.993145e-01
-2.198730e-01	 1.038083e+01	 7.309988e-01
-6.698730e-01	 1.116025e+01	 7.590606e-01
-5.000000e-01	 8.660254e-01	 8.949139e-02
-9.500000e-01	 1.645448e+00	 2.631817e-01
-1.400000e+00	 2.424871e+00	 4.048616e-01
-1.850000e+00	 3.204294e+00	 5.145311e-01
-2.300000e+00	 3.983717e+00	 5.921901e-01
-2.750000e+00	 4.763140e+00	 6.378386e-01
-1.535898e-01	 1.066025e+00	 6.993819e-02
-6.035898e-01	 1.845448e+00	 2.403517e-01
-1.053590e+00	 2.624871e+00	 3.778563e-01
-1.503590e+00	 3.404294e+00	 4.824521e-01
-1.953590e+00	 4.183717e+00	 5.541391e-01
-2.403590e+00	 4.963140e+00	 5.929173e-01
 1.928203e-01	 1.266025e+00	 4.879905e-02
-2.571797e-01	 2.045448e+00	 2.180413e-01
-7.071797e-01	 2.824871e+00	 3.534764e-01
-1.157180e+00	 3.604294e+00	 4.551044e-01
-1.607180e+00	 4.383717e+00	 5.229251e-01
-2.057180e+00	 5.163140e+00	 5.569386e-01
 5.392305e-01	 1.466025e+00	 2.607398e-02
 8.923048e-02	 2.245448e+00	 1.962508e-01
-3.607695e-01	 3.024871e+00	 3.317221e-01
-8.107695e-01	 3.804294e+00	 4.324878e-01
-1.260770e+00	 4.583717e+00	 4.985479e-01
-1.710770e+00	 5.363140e+00	 5.299025e-01
 8.856406e-01	 1.666025e+00	 1.762974e-03
 4.356406e-01	 2.445448e+00	 1.749801e-01
-1.435935e-02	 3.224871e+00	 3.125932e-01
-4.643594e-01	 4.004294e+00	 4.146024e-01
-9.143594e-01	 4.783717e+00	 4.810077e-01
-1.364359e+00	 5.563140e+00	 5.118090e-01
 1.232051e+00	 1.866025e+00	-2.413396e-02
 7.820508e-01	 2.645448e+00	 1.542291e-01
 3.320508e-01	 3.424871e+00	 2.960898e-01
-1.179492e-01	 4.204294e+00	 4.014482e-01
-5.679492e-01	 4.983717e+00	 4.703043e-01
-1.017949e+00	 5.763140e+00	 5.026581e-01
-2.750000e+00	 4.763140e+00	 6.378386e-01
-3.200000e+00	 5.542563e+00	 6.745100e-01
-3.650000e+00	 6.321985e+00	 7.060284e-01
-4.100000e+00	 7.101408e+00	 7.323939e-01
-4.550000e+00	 7.880831e+00	 7.536064e-01
-5.000000e+00	 8.660254e+00	 7.649514e-01
-2.403590e+00	 4.963140e+00	 5.929173e-01
-2.853590e+00	 5.742563e+00	 6.361117e-01
-3.303590e+00	 6.521985e+00	 6.739347e-01
-3.753590e+00	 7.301408e+00	 7.063863e-01
-4.203590e+00	 8.080831e+00	 7.334665e-01
-4.653590e+00	 8.860254e+00	 7.473900e-01
-2.057180e+00	 5.163140e+00	 5.569386e-01
-2.507180e+00	 5.942563e+00	 6.054847e-01
-2.957180e+00	 6.721985e+00	 6.484409e-01
-3.407180e+00	 7.501408e+00	 6.858073e-01
-3.857180e+00	 8.280831e+00	 7.175838e-01
-4.307180e+00	 9.060254e+00	 7.327884e-01
-1.710770e+00	 5.363140e+00	 5.299025e-01
-2.160770e+00	 6.142563e+00	 5.826290e-01
-2.610770e+00	 6.921985e+00	 6.295471e-01
-3.060770e+00	 7.701408e+00	 6.706570e-01
-3.510770e+00	 8.480831e+00	 7.036371e-01
-3.960770e+00	 9.260254e+00	 7.211595e-01
-1.364359e+00	 5.563140e+00	 5.118090e-01
-1.814359e+00	 6.342563e+00	 5.675446e-01
-2.264359e+00	 7.121985e+00	 6.172533e-01
-2.714359e+00	 7.901408e+00	 6.609354e-01
-3.164359e+00	 8.680831e+00	 6.930307e-01
-3.614359e+00	 9.460254e+00	 7.125161e-01
-1.017949e+00	 5.763140e+00	 5.026581e-01
-1.467949e+00	 6.542563e+00	 5.602314e-01
-1.917949e+00	 7.321985e+00	 6.115595e-01
-2.367949e+00	 8.101408e+00	 6.566424e-01
-2.817949e+00	 8.880831e+00	 6.865886e-01
-3.267949e+00	 9.660254e+00	 7.068708e-01
 1.232051e+00	 1.866025e+00	-2.413396e-02
 7.820508e-01	 2.645448e+00	 1.542291e-01
 3.320508e-01	 3.424871e+00	 2.960898e-01
-1.179492e-01	 4.204294e+00	 4.014482e-01
-5.679492e-01	 4.983717e+00	 4.703043e-01
-1.017949e+00	 5.763140e+00	 5.026581e-01
 1.578461e+00	 2.066025e+00	-5.285230e-02
 1.128461e+00	 2.845448e+00	 1.276680e-01
 6.784610e-01	 3.624871e+00	 2.720857e-01
 2.284610e-01	 4.404294e+00	 3.804009e-01
-2.215390e-01	 5.183717e+00	 4.526136e-01
-6.715390e-01	 5.963140e+00	 4.887236e-01
 1.924871e+00	 2.266025e+00	-6.408289e-02
 1.474871e+00	 3.045448e+00	 1.169797e-01
 1.024871e+00	 3.824871e+00	 2.623394e-01
 5.748711e-01	 4.604294e+00	 3.719964e-01
 1.248711e-01	 5.383717e+00	 4.459506e-01
-3.251289e-01	 6.163140e+00	 4.842019e-01
 2.271281e+00	 2.466025e+00	-5.782573e-02
 1.821281e+00	 3.245448e+00	 1.221641e-01
 1.371281e+00	 4.024871e+00	 2.668509e-01
 9.212813e-01	 4.804294e+00	 3.762346e-01
 4.712813e-01	 5.583717e+00	 4.503153e-01
 2.128129e-02	 6.363140e+00	 4.890930e-01
 2.617691e+00	 2.666025e+00	-3.408084e-02
 2.167691e+00	 3.445448e+00	 1.432213e-01
 1.717691e+00	 4.224871e+00	 2.856201e-01
 1.267691e+00	 5.004294e+00	 3.931156e-01
 8.176915e-01	 5.783717e+00	 4.657079e-01
 3.676915e-01	 6.563140e+00	 5.033968e-01
 2.964102e+00	 2.866025e+00	 7.151804e-03
 2.514102e+00	 3.645448e+00	 1.801512e-01
 2.064102e+00	 4.424871e+00	 3.186470e-01
 1.614102e+00	 5.204294e+00	 4.226394e-01
 1.164102e+00	 5.983717e+00	 4.921282e-01
 7.141016e-01	 6.763140e+00	 5.271134e-01
-1.017949e+00	 5.763140e+00	 5.026581e-01
-1.467949e+00	 6.542563e+00	 5.602314e-01
-1.917949e+00	 7.321985e+00	 6.115595e-01
-2.367949e+00	 8.101408e+00	 6.566424e-01
-2.817949e+00	 8.880831e+00	 6.865886e-01
-3.267949e+00	 9.660254e+00	 7.068708e-01
-6.715390e-01	 5.963140e+00	 4.887236e-01
-1.121539e+00	 6.742563e+00	 5.494257e-01
-1.571539e+00	 7.521985e+00	 6.037380e-01
-2.021539e+00	 8.301408e+00	 6.516606e-01
-2.471539e+00	 9.080831e+00	 6.808904e-01
-2.921539e+00	 9.860254e+00	 7.035611e-01
-3.251289e-01	 6.163140e+00	 4.842019e-01
-7.751289e-01	 6.942563e+00	 5.464973e-01
-1.225129e+00	 7.721985e+00	 6.022583e-01
-1.675129e+00	 8.501408e+00	 6.486575e-01
-2.125129e+00	 9.280831e+00	 6.783954e-01
-2.575129e+00	 1.006025e+01	 7.019244e-01
 2.128129e-02	 6.363140e+00	 4.890930e-01
-4.287187e-01	 7.142563e+00	 5.514461e-01
-8.787187e-01	 7.921985e+00	 6.071203e-01
-1.328719e+00	 8.701408e+00	 6.498692e-01
-1.778719e+00	 9.480831e+00	 6.791165e-01
-2.228719e+00	 1.026025e+01	 7.019733e-01
 3.676915e-01	 6.563140e+00	 5.033968e-01
-8.230855e-02	 7.342563e+00	 5.642722e-01
-5.323085e-01	 8.121985e+00	 6.183241e-01
-9.823085e-01	 8.901408e+00	 6.558402e-01
-1.432309e+00	 9.680831e+00	 6.830664e-01
-1.882309e+00	 1.046025e+01	 7.037207e-01
 7.141016e-01	 6.763140e+00	 5.271134e-01
 2.641016e-01	 7.542563e+00	 5.849755e-01
-1.858984e-01	 8.321985e+00	 6.358696e-01
-6.358984e-01	 9.101408e+00	 6.665832e-01
-1.085898e+00	 9.880831e+00	 6.902580e-01
-1.535898e+00	 1.066025e+01	 7.071793e-01
 0.000000e+00	 0.000000e+00	-9.805812e-02
-1.000000e-01	 1.732051e-01	-5.331310e-02
-2.000000e-01	 3.464102e-01	-1.075180e-02
-3.000000e-01	 5.196152e-01	 2.962577e-02
-4.000000e-01	 6.928203e-01	 6.781962e-02
-5.000000e-01	 8.660254e-01	 1.038297e-01
 3.464102e-01	 2.000000e-01	-1.113246e-01
 2.464102e-01	 3.732051e-01	-6.806239e-02
 1.464102e-01	 5.464102e-01	-2.628742e-02
 4.641016e-02	 7.196152e-01	 1.400028e-02
-5.358984e-02	 8.928203e-01	 5.280070e-02
-1.535898e-01	 1.066025e+00	 9.011384e-02
 6.928203e-01	 4.000000e-01	-1.227148e-01
 5.928203e-01	 5.732051e-01	-8.106794e-02
 4.928203e-01	 7.464102e-01	-4.021194e-02
 3.928203e-01	 9.196152e-01	-1.467564e-04
 2.928203e-01	 1.092820e+00	 3.912759e-02
 1.928203e-01	 1.266025e+00	 7.761112e-02
 1.039230e+00	 6.000000e-01	-1.322285e-01
 9.392305e-01	 7.732051e-01	-9.232975e-02
 8.392305e-01	 9.464102e-01	-5.252535e-02
 7.392305e-01	 1.119615e+00	-1.281533e-02
 6.392305e-01	 1.292820e+00	 2.680031e-02
 5.392305e-01	 1.466025e+00	 6.632157e-02
 1.385641e+00	 8.000000e-01	-1.398659e-01
 1.285641e+00	 9.732051e-01	-1.018478e-01
 1.185641e+00	 1.146410e+00	-6.322767e-02
 1.085641e+00	 1.319615e+00	-2.400544e-02
 9.856406e-01	 1.492820e+00	 1.581885e-02
 8.856406e-01	 1.666025e+00	 5.624520e-02
 1.732051e+00	 1.000000e+00	-1.456269e-01
 1.632051e+00	 1.173205e+00	-1.096222e-01
 1.532051e+00	 1.346410e+00	-7.231888e-02
 1.432051e+00	 1.519615e+00	-3.371710e-02
 1.332051e+00	 1.692820e+00	 6.183203e-03
 1.232051e+00	 1.866025e+00	 4.738202e-02
 1.732051e+00	 1.000000e+00	-1.456269e-01
 1.632051e+00	 1.173205e+00	-1.096222e-01
 1.532051e+00	 1.346410e+00	-7.231888e-02
 1.432051e+00	 1.519615e+00	-3.371710e-02
 1.332051e+00	 1.692820e+00	 6.183203e-03
 1.232051e+00	 1.866025e+00	 4.738202e-02
 2.078461e+00	 1.200000e+00	-2.087872e-01
 1.978461e+00	 1.373205e+00	-1.578325e-01
 1.878461e+00	 1.546410e+00	-1.083960e-01
 1.778461e+00	 1.719615e+00	-6.047750e-02
 1.678461e+00	 1.892820e+00	-1.407716e-02
 1.578461e+00	 2.066025e+00	 3.080505e-02
 2.424871e+00	 1.400000e+00	-2.473031e-01
 2.324871e+00	 1.573205e+00	-1.853466e-01
 2.224871e+00	 1.746410e+00	-1.277248e-01
 2.124871e+00	 1.919615e+00	-7.443778e-02
 2.024871e+00	 2.092820e+00	-2.548553e-02
 1.924871e+00	 2.266025e+00	 1.913195e-02
 2.771281e+00	 1.600000e+00	-2.611744e-01
 2.671281e+00	 1.773205e+00	-1.921642e-01
 2.571281e+00	 1.946410e+00	-1.303054e-01
 2.471281e+00	 2.119615e+00	-7.559794e-02
 2.371281e+00	 2.292820e+00	-2.804191e-02
 2.271281e+00	 2.466025e+00	 1.236271e-02
 3.117691e+00	 1.800000e+00	-2.504013e-01
 3.017691e+00	 1.973205e+00	-1.782855e-01
 2.917691e+00	 2.146410e+00	-1.161377e-01
 2.817691e+00	 2.319615e+00	-6.395799e-02
 2.717691e+00	 2.492820e+00	-2.174631e-02
 2.617691e+00	 2.666025e+00	 1.049734e-02
 3.464102e+00	 2.000000e+00	-2.149837e-01
 3.364102e+00	 2.173205e+00	-1.437104e-01
 3.264102e+00	 2.346410e+00	-8.522183e-02
 3.164102e+00	 2.519615e+00	-3.951793e-02
 3.064102e+00	 2.692820e+00	-6.598708e-03
 2.964102e+00	 2.866025e+00	 1.353583e-02
 5.000000e-01	-8.660254e-01	 9.014798e-02
 4.000000e-01	-6.928203e-01	 5.657413e-02
 3.000000e-01	-5.196152e-01	 2.200963e-02
 2.000000e-01	-3.464102e-01	-1.354550e-02
 1.000000e-01	-1.732051e-01	-5.009127e-02
 0.000000e+00	 0.000000e+00	-8.762769e-02
 8.464102e-01	-6.660254e-01	 1.330258e-01
 7.464102e-01	-4.928203e-01	 9.637897e-02
 6.464102e-01	-3.196152e-01	 5.843570e-02
 5.464102e-01	-1.464102e-01	 1.919603e-02
 4.464102e-01	 2.679492e-02	-2.134003e-02
 3.464102e-01	 2.000000e-01	-6.317249e-02
 1.192820e+00	-4.660254e-01	 1.696001e-01
 1.092820e+00	-2.928203e-01	 1.291652e-01
 9.928203e-01	-1.196152e-01	 8.712804e-02
 8.928203e-01	 5.358984e-02	 4.348877e-02
 7.928203e-01	 2.267949e-01	-1.752655e-03
 6.928203e-01	 4.000000e-01	-4.859623e-02
 1.539230e+00	-2.660254e-01	 1.998708e-01
 1.439230e+00	-9.282032e-02	 1.549327e-01
 1.339230e+00	 8.038476e-02	 1.080866e-01
 1.239230e+00	 2.535898e-01	 5.933270e-02
 1.139230e+00	 4.267949e-01	 8.670845e-03
 1.039230e+00	 6.000000e-01	-4.389891e-02
 1.885641e+00	-6.602540e-02	 2.238379e-01
 1.785641e+00	 1.071797e-01	 1.736816e-01
 1.685641e+00	 2.803848e-01	 1.213115e-01
 1.585641e+00	 4.535898e-01	 6.672782e-02
 1.485641e+00	 6.267949e-01	 9.930473e-03
 1.385641e+00	 8.000000e-01	-4.908054e-02
 2.232051e+00	 1.339746e-01	 2.415014e-01
 2.132051e+00	 3.071797e-01	 1.854118e-01
 2.032051e+00	 4.803848e-01	 1.268027e-01
 1.932051e+00	 6.535898e-01	 6.567415e-02
 1.832051e+00	 8.267949e-01	 2.026229e-03
 1.732051e+00	 1.000000e+00	-6.414111e-02
 2.232051e+00	 1.339746e-01	 2.415014e-01
 2.132051e+00	 3.071797e-01	 1.854118e-01
 2.032051e+00	 4.803848e-01	 1.268027e-01
 1.932051e+00	 6.535898e-01	 6.567415e-02
 1.832051e+00	 8.267949e-01	 2.026229e-03
 1.732051e+00	 1.000000e+00	-6.414111e-02
 2.578461e+00	 3.339746e-01	 2.958416e-01
 2.478461e+00	 5.071797e-01	 2.569070e-01
 2.378461e+00	 6.803848e-01	 2.074269e-01
 2.278461e+00	 8.535898e-01	 1.474012e-01
 2.178461e+00	 1.026795e+00	 7.683001e-02
 2.078461e+00	 1.200000e+00	-4.286789e-03
 2.924871e+00	 5.339746e-01	 3.998214e-01
 2.824871e+00	 7.071797e-01	 3.636391e-01
 2.724871e+00	 8.803848e-01	 3.088851e-01
 2.624871e+00	 1.053590e+00	 2.355593e-01
 2.524871e+00	 1.226795e+00	 1.436619e-01
 2.424871e+00	 1.400000e+00	 3.319273e-02
 3.271281e+00	 7.339746e-01	 5.534409e-01
 3.171281e+00	 9.071797e-01	 5.056079e-01
 3.071281e+00	 1.080385e+00	 4.311771e-01
 2.971281e+00	 1.253590e+00	 3.301484e-01
 2.871281e+00	 1.426795e+00	 2.025218e-01
 2.771281e+00	 1.600000e+00	 4.829744e-02
 3.617691e+00	 9.339746e-01	 7.567000e-01
 3.517691e+00	 1.107180e+00	 6.828135e-01
 3.417691e+00	 1.280385e+00	 5.743030e-01
 3.317691e+00	 1.453590e+00	 4.311685e-01
 3.217691e+00	 1.626795e+00	 2.534099e-01
 3.117691e+00	 1.800000e+00	 4.102735e-02
 3.964102e+00	 1.133975e+00	 1.009599e+00
 3.864102e+00	 1.307180e+00	 8.952559e-01
 3.764102e+00	 1.480385e+00	 7.382628e-01
 3.664102e+00	 1.653590e+00	 5.386195e-01
 3.564102e+00	 1.826795e+00	 2.963261e-01
 3.464102e+00	 2.000000e+00	 1.138246e-02
 5.000000e+00	-8.660254e+00	 7.649514e-01
 4.550000e+00	-7.880831e+00	 7.540708e-01
 4.100000e+00	-7.101408e+00	 7.334624e-01
 3.650000e+00	-6.321985e+00	 7.078408e-01
 3.200000e+00	-5.542563e+00	 6.772059e-01
 2.750000e+00	-4.763140e+00	 6.415578e-01
 5.346410e+00	-8.460254e+00	 7.864349e-01
 4.896410e+00	-7.680831e+00	 7.702604e-01
 4.446410e+00	-6.901408e+00	 7.500122e-01
 3.996410e+00	-6.121985e+00	 7.274731e-01
 3.546410e+00	-5.342563e+00	 7.026433e-01
 3.096410e+00	-4.563140e+00	 6.755226e-01
 5.692820e+00	-8.260254e+00	 8.058818e-01
 5.242820e+00	-7.480831e+00	 7.875585e-01
 4.792820e+00	-6.701408e+00	 7.696667e-01
 4.342820e+00	-5.921985e+00	 7.522065e-01
 3.892820e+00	-5.142563e+00	 7.351778e-01
 3.442820e+00	-4.363140e+00	 7.185807e-01
 6.039230e+00	-8.060254e+00	 8.226583e-01
 5.589230e+00	-7.280831e+00	 8.059652e-01
 5.139230e+00	-6.501408e+00	 7.924260e-01
 4.689230e+00	-5.721985e+00	 7.820408e-01
 4.239230e+00	-4.942563e+00	 7.748096e-01
 3.789230e+00	-4.163140e+00	 7.707323e-01
 6.385641e+00	-7.860254e+00	 8.385472e-01
 5.935641e+00	-7.080831e+00	 8.254805e-01
 5.485641e+00	-6.301408e+00	 8.182901e-01
 5.035641e+00	-5.521985e+00	 8.169761e-01
 4.585641e+00	-4.742563e+00	 8.215385e-01
 4.135641e+00	-3.963140e+00	 8.319771e-01
 6.732051e+00	-7.660254e+00	 8.535485e-01
 6.282051e+00	-6.880831e+00	 8.461044e-01
 5.832051e+00	-6.101408e+00	 8.472590e-01
 5.382051e+00	-5.321985e+00	 8.570124e-01
 4.932051e+00	-4.542563e+00	 8.753645e-01
 4.482051e+00	-3.763140e+00	 9.023154e-01
 2.750000e+00	-4.763140e+00	 6.415578e-01
 2.300000e+00	-3.983717e+00	 5.960877e-01
 1.850000e+00	-3.204294e+00	 5.167779e-01
 1.400000e+00	-2.424871e+00	 4.036283e-01
 9.500000e-01	-1.645448e+00	 2.566388e-01
 5.000000e-01	-8.660254e-01	 7.580962e-02
 3.096410e+00	-4.563140e+00	 6.755226e-01
 2.646410e+00	-3.783717e+00	 6.262280e-01
 2.196410e+00	-3.004294e+00	 5.467652e-01
 1.746410e+00	-2.224871e+00	 4.371344e-01
 1.296410e+00	-1.445448e+00	 2.973354e-01
 8.464102e-01	-6.660254e-01	 1.273683e-01
 3.442820e+00	-4.363140e+00	 7.185807e-01
 2.992820e+00	-3.583717e+00	 6.650764e-01
 2.542820e+00	-2.804294e+00	 5.850757e-01
 2.092820e+00	-2.024871e+00	 4.785785e-01
 1.642820e+00	-1.245448e+00	 3.455848e-01
 1.192820e+00	-4.660254e-01	 1.860947e-01
 3.789230e+00	-4.163140e+00	 7.707323e-01
 3.339230e+00	-3.383717e+00	 7.126331e-01
 2.889230e+00	-2.604294e+00	 6.317092e-01
 2.439230e+00	-1.824871e+00	 5.279605e-01
 1.989230e+00	-1.045448e+00	 4.013871e-01
 1.539230e+00	-2.660254e-01	 2.519888e-01
 4.135641e+00	-3.963140e+00	 8.319771e-01
 3.685641e+00	-3.183717e+00	 7.688981e-01
 3.235641e+00	-2.404294e+00	 6.866658e-01
 2.785641e+00	-1.624871e+00	 5.852805e-01
 2.335641e+00	-8.454483e-01	 4.647421e-01
 1.885641e+00	-6.602540e-02	 3.250506e-01
 4.482051e+00	-3.763140e+00	 9.023154e-01
 4.032051e+00	-2.983717e+00	 8.338712e-01
 3.582051e+00	-2.204294e+00	 7.499456e-01
 3.132051e+00	-1.424871e+00	 6.505385e-01
 2.682051e+00	-6.454483e-01	 5.356500e-01
 2.232051e+00	 1.339746e-01	 4.052800e-01
 6.732051e+00	-7.660254e+00	 8.535485e-01
 6.282051e+00	-6.880831e+00	 8.461044e-01
 5.832051e+00	-6.101408e+00	 8.472590e-01
 5.382051e+00	-5.321985e+00	 8.570124e-01
 4.932051e+00	-4.542563e+00	 8.753645e-01
 4.482051e+00	-3.763140e+00	 9.023154e-01
 7.078461e+00	-7.460254e+00	 8.679036e-01
 6.628461e+00	-6.680831e+00	 8.676217e-01
 6.178461e+00	-5.901408e+00	 8.751829e-01
 5.728461e+00	-5.121985e+00	 8.905870e-01
 5.278461e+00	-4.342563e+00	 9.138341e-01
 4.828461e+00	-3.563140e+00	 9.449242e-01
 7.424871e+00	-7.260254e+00	 8.818539e-01
 6.974871e+00	-6.480831e+00	 8.884988e-01
 6.524871e+00	-5.701408e+00	 9.022310e-01
 6.074871e+00	-4.921985e+00	 9.230504e-01
 5.624871e+00	-4.142563e+00	 9.509570e-01
 5.174871e+00	-3.363140e+00	 9.859508e-01
 7.771281e+00	-7.060254e+00	 8.953995e-01
 7.321281e+00	-6.280831e+00	 9.087357e-01
 6.871281e+00	-5.501408e+00	 9.284034e-01
 6.421281e+00	-4.721985e+00	 9.544026e-01
 5.971281e+00	-3.942563e+00	 9.867332e-01
 5.521281e+00	-3.163140e+00	 1.025395e+00
 8.117691e+00	-6.860254e+00	 9.085403e-01
 7.667691e+00	-6.080831e+00	 9.283323e-01
 7.217691e+00	-5.301408e+00	 9.537001e-01
 6.767691e+00	-4.521985e+00	 9.846436e-01
 6.317691e+00	-3.742563e+00	 1.021163e+00
 5.867691e+00	-2.963140e+00	 1.063258e+00
 8.464102e+00	-6.660254e+00	 9.213320e-01
 8.014102e+00	-5.880831e+00	 9.472887e-01
 7.564102e+00	-5.101408e+00	 9.781211e-01
 7.114102e+00	-4.321985e+00	 1.013773e+00
 6.664102e+00	-3.542563e+00	 1.054246e+00
 6.214102e+00	-2.763140e+00	 1.099538e+00
 4.482051e+00	-3.763140e+00	 9.023154e-01
 4.032051e+00	-2.983717e+00	 8.338712e-01
 3.582051e+00	-2.204294e+00	 7.499456e-01
 3.132051e+00	-1.424871e+00	 6.505385e-01
 2.682051e+00	-6.454483e-01	 5.356500e-01
 2.232051e+00	 1.339746e-01	 4.052800e-01
 4.828461e+00	-3.563140e+00	 9.449242e-01
 4.378461e+00	-2.783717e+00	 8.651778e-01
 3.928461e+00	-2.004294e+00	 7.833380e-01
 3.478461e+00	-1.224871e+00	 6.994050e-01
 3.028461e+00	-4.454483e-01	 6.133786e-01
 2.578461e+00	 3.339746e-01	 5.252589e-01
 5.174871e+00	-3.363140e+00	 9.859508e-01
 4.724871e+00	-2.583717e+00	 9.036814e-01
 4.274871e+00	-1.804294e+00	 8.327067e-01
 3.824871e+00	-1.024871e+00	 7.730269e-01
 3.374871e+00	-2.454483e-01	 7.246419e-01
 2.924871e+00	 5.339746e-01	 6.875516e-01
 5.521281e+00	-3.163140e+00	 1.025395e+00
 5.071281e+00	-2.383717e+00	 9.493821e-01
 4.621281e+00	-1.604294e+00	 8.980518e-01
 4.171281e+00	-8.248711e-01	 8.714043e-01
 3.721281e+00	-4.544827e-02	 8.694398e-01
 3.271281e+00	 7.339746e-01	 8.921583e-01
 5.867691e+00	-2.963140e+00	 1.063258e+00
 5.417691e+00	-2.183717e+00	 1.002280e+00
 4.967691e+00	-1.404294e+00	 9.793731e-01
 4.517691e+00	-6.248711e-01	 9.945373e-01
 4.067691e+00	 1.545517e-01	 1.047773e+00
 3.617691e+00	 9.339746e-01	 1.139079e+00
 6.214102e+00	-2.763140e+00	 1.099538e+00
 5.764102e+00	-1.983717e+00	 1.062375e+00
 5.314102e+00	-1.204294e+00	 1.076671e+00
 4.864102e+00	-4.248711e-01	 1.142426e+00
 4.414102e+00	 3.545517e-01	 1.259640e+00
 3.964102e+00	 1.133975e+00	 1.428313e+00
 8.464102e+00	-6.660254e+00	 9.213320e-01
 8.014102e+00	-5.880831e+00	 9.595572e-01
 7.564102e+00	-5.101408e+00	 9.935236e-01
 7.114102e+00	-4.321985e+00	 1.023176e+00
 6.664102e+00	-3.542563e+00	 1.048513e+00
 6.214102e+00	-2.763140e+00	 1.069536e+00
 8.637307e+00	-6.560254e+00	 9.369000e-01
 8.187307e+00	-5.780831e+00	 9.738647e-01
 7.737307e+00	-5.001408e+00	 1.005885e+00
 7.287307e+00	-4.221985e+00	 1.032767e+00
 6.837307e+00	-3.442563e+00	 1.054512e+00
 6.387307e+00	-2.663140e+00	 1.071120e+00
 8.810512e+00	-6.460254e+00	 9.530422e-01
 8.360512e+00	-5.680831e+00	 9.880981e-01
 7.910512e+00	-4.901408e+00	 1.017578e+00
 7.460512e+00	-4.121985e+00	 1.041106e+00
 7.010512e+00	-3.342563e+00	 1.058673e+00
 6.560512e+00	-2.563140e+00	 1.070280e+00
 8.983717e+00	-6.360254e+00	 9.697585e-01
 8.533717e+00	-5.580831e+00	 1.002338e+00
 8.083717e+00	-4.801408e+00	 1.028603e+00
 7.633717e+00	-4.021985e+00	 1.048192e+00
 7.183717e+00	-3.242563e+00	 1.060997e+00
 6.733717e+00	-2.463140e+00	 1.067018e+00
 9.156922e+00	-6.260254e+00	 9.870486e-01
 8.706922e+00	-5.480831e+00	 1.016567e+00
 8.256922e+00	-4.701408e+00	 1.038960e+00
 7.806922e+00	-3.921985e+00	 1.054024e+00
 7.356922e+00	-3.142563e+00	 1.061482e+00
 6.906922e+00	-2.363140e+00	 1.061332e+00
 9.330127e+00	-6.160254e+00	 1.004912e+00
 8.880127e+00	-5.380831e+00	 1.030783e+00
 8.430127e+00	-4.601408e+00	 1.048691e+00
 7.980127e+00	-3.821985e+00	 1.058604e+00
 7.530127e+00	-3.042563e+00	 1.060129e+00
 7.080127e+00	-2.263140e+00	 1.053223e+00
 6.214102e+00	-2.763140e+00	 1.069536e+00
 5.764102e+00	-1.983717e+00	 1.012934e+00
 5.314102e+00	-1.204294e+00	 1.026584e+00
 4.864102e+00	-4.248711e-01	 1.110487e+00
 4.414102e+00	 3.545517e-01	 1.264643e+00
 3.964102e+00	 1.133975e+00	 1.489053e+00
 6.387307e+00	-2.663140e+00	 1.071120e+00
 5.937307e+00	-1.883717e+00	 1.034336e+00
 5.487307e+00	-1.104294e+00	 1.064067e+00
 5.037307e+00	-3.248711e-01	 1.160314e+00
 4.587307e+00	 4.545517e-01	 1.323077e+00
 4.137307e+00	 1.233975e+00	 1.552356e+00
 6.560512e+00	-2.563140e+00	 1.070280e+00
 6.110512e+00	-1.783717e+00	 1.052849e+00
 5.660512e+00	-1.004294e+00	 1.098197e+00
 5.210512e+00	-2.248711e-01	 1.206323e+00
 4.760512e+00	 5.545517e-01	 1.377228e+00
 4.310512e+00	 1.333975e+00	 1.610911e+00
 6.733717e+00	-2.463140e+00	 1.067018e+00
 6.283717e+00	-1.683717e+00	 1.068475e+00
 5.833717e+00	-9.042940e-01	 1.128974e+00
 5.383717e+00	-1.248711e-01	 1.248514e+00
 4.933717e+00	 6.545517e-01	 1.427095e+00
 4.483717e+00	 1.433975e+00	 1.664717e+00
 6.906922e+00	-2.363140e+00	 1.061332e+00
 6.456922e+00	-1.583717e+00	 1.081213e+00
 6.006922e+00	-8.042940e-01	 1.156398e+00
 5.556922e+00	-2.487113e-02	 1.286887e+00
 5.106922e+00	 7.545517e-01	 1.472679e+00
 4.656922e+00	 1.533975e+00	 1.713776e+00
 7.080127e+00	-2.263140e+00	 1.053223e+00
 6.630127e+00	-1.483717e+00	 1.091062e+00
 6.180127e+00	-7.042940e-01	 1.180468e+00
 5.730127e+00	 7.512887e-02	 1.321441e+00
 5.280127e+00	 8.545517e-01	 1.513980e+00
 4.830127e+00	 1.633975e+00	 1.758086e+00
 9.330127e+00	-6.160254e+00	 1.004912e+00
 8.880127e+00	-5.380831e+00	 1.023566e+00
 8.430127e+00	-4.601408e+00	 1.039290e+00
 7.980127e+00	-3.821985e+00	 1.052053e+00
 7.530127e+00	-3.042563e+00	 1.061462e+00
 7.080127e+00	-2.263140e+00	 1.067474e+00
 9.503332e+00	-6.060254e+00	 1.014783e+00
 9.053332e+00	-5.280831e+00	 1.030259e+00
 8.603332e+00	-4.501408e+00	 1.044064e+00
 8.153332e+00	-3.721985e+00	 1.056221e+00
 7.703332e+00	-2.942563e+00	 1.066411e+00
 7.253332e+00	-2.163140e+00	 1.074463e+00
 9.676537e+00	-5.960254e+00	 1.022547e+00
 9.226537e+00	-5.180831e+00	 1.035516e+00
 8.776537e+00	-4.401408e+00	 1.048075e+00
 8.326537e+00	-3.621985e+00	 1.060226e+00
 7.876537e+00	-2.842563e+00	 1.071869e+00
 7.426537e+00	-2.063140e+00	 1.082633e+00
 9.849742e+00	-5.860254e+00	 1.028203e+00
 9.399742e+00	-5.080831e+00	 1.039338e+00
 8.949742e+00	-4.301408e+00	 1.051322e+00
 8.499742e+00	-3.521985e+00	 1.064155e+00
 8.049742e+00	-2.742563e+00	 1.077838e+00
 7.599742e+00	-1.963140e+00	 1.091986e+00
 1.002295e+01	-5.760254e+00	 1.031751e+00
 9.572947e+00	-4.980831e+00	 1.041723e+00
 9.122947e+00	-4.201408e+00	 1.053804e+00
 8.672947e+00	-3.421985e+00	 1.067994e+00
 8.222947e+00	-2.642563e+00	 1.084316e+00
 7.772947e+00	-1.863140e+00	 1.102520e+00
 1.019615e+01	-5.660254e+00	 1.033192e+00
 9.746152e+00	-4.880831e+00	 1.042673e+00
 9.296152e+00	-4.101408e+00	 1.055522e+00
 8.846152e+00	-3.321985e+00	 1.071741e+00
 8.396152e+00	-2.542563e+00	 1.091329e+00
 7.946152e+00	-1.763140e+00	 1.114236e+00
 7.080127e+00	-2.263140e+00	 1.067474e+00
 6.630127e+00	-1.483717e+00	 1.110871e+00
 6.180127e+00	-7.042940e-01	 1.186078e+00
 5.730127e+00	 7.512887e-02	 1.293096e+00
 5.280127e+00	 8.545517e-01	 1.431924e+00
 4.830127e+00	 1.633975e+00	 1.602564e+00
 7.253332e+00	-2.163140e+00	 1.074463e+00
 6.803332e+00	-1.383717e+00	 1.125662e+00
 6.353332e+00	-6.042940e-01	 1.203038e+00
 5.903332e+00	 1.751289e-01	 1.306590e+00
 5.453332e+00	 9.545517e-01	 1.436320e+00
 5.003332e+00	 1.733975e+00	 1.592225e+00
 7.426537e+00	-2.063140e+00	 1.082633e+00
 6.976537e+00	-1.283717e+00	 1.136595e+00
 6.526537e+00	-5.042940e-01	 1.211098e+00
 6.076537e+00	 2.751289e-01	 1.306144e+00
 5.626537e+00	 1.054552e+00	 1.421733e+00
 5.176537e+00	 1.833975e+00	 1.557864e+00
 7.599742e+00	-1.963140e+00	 1.091986e+00
 7.149742e+00	-1.183717e+00	 1.143668e+00
 6.699742e+00	-4.042940e-01	 1.210258e+00
 6.249742e+00	 3.751289e-01	 1.291757e+00
 5.799742e+00	 1.154552e+00	 1.388165e+00
 5.349742e+00	 1.933975e+00	 1.499481e+00
 7.772947e+00	-1.863140e+00	 1.102520e+00
 7.322947e+00	-1.083717e+00	 1.146882e+00
 6.872947e+00	-3.042940e-01	 1.200519e+00
 6.422947e+00	 4.751289e-01	 1.263429e+00
 5.972947e+00	 1.254552e+00	 1.335615e+00
 5.522947e+00	 2.033975e+00	 1.417074e+00
 7.946152e+00	-1.763140e+00	 1.114236e+00
 7.496152e+00	-9.837169e-01	 1.146238e+00
 7.046152e+00	-2.042940e-01	 1.181879e+00
 6.596152e+00	 5.751289e-01	 1.221161e+00
 6.146152e+00	 1.354552e+00	 1.264083e+00
 5.696152e+00	 2.133975e+00	 1.310645e+00
 1.019615e+01	-5.660254e+00	 1.033192e+00
 9.746152e+00	-4.880831e+00	 1.043867e+00
 9.296152e+00	-4.101408e+00	 1.056363e+00
 8.846152e+00	-3.321985e+00	 1.070682e+00
 8.396152e+00	-2.542563e+00	 1.086824e+00
 7.946152e+00	-1.763140e+00	 1.104737e+00
 1.054256e+01	-5.460254e+00	 1.043013e+00
 1.009256e+01	-4.680831e+00	 1.051529e+00
 9.642563e+00	-3.901408e+00	 1.063325e+00
 9.192563e+00	-3.121985e+00	 1.078403e+00
 8.742563e+00	-2.342563e+00	 1.096762e+00
 8.292563e+00	-1.563140e+00	 1.118415e+00
 1.088897e+01	-5.260254e+00	 1.051244e+00
 1.043897e+01	-4.480831e+00	 1.056633e+00
 9.988973e+00	-3.701408e+00	 1.066762e+00
 9.538973e+00	-2.921985e+00	 1.081631e+00
 9.088973e+00	-2.142563e+00	 1.101241e+00
 8.638973e+00	-1.363140e+00	 1.125592e+00
 1.123538e+01	-5.060254e+00	 1.057884e+00
 1.078538e+01	-4.280831e+00	 1.059179e+00
 1.033538e+01	-3.501408e+00	 1.066672e+00
 9.885383e+00	-2.721985e+00	 1.080365e+00
 9.435383e+00	-1.942563e+00	 1.100257e+00
 8.985383e+00	-1.163140e+00	 1.126350e+00
 1.158179e+01	-4.860254e+00	 1.062932e+00
 1.113179e+01	-4.080831e+00	 1.059165e+00
 1.068179e+01	-3.301408e+00	 1.063055e+00
 1.023179e+01	-2.521985e+00	 1.074603e+00
 9.781793e+00	-1.742563e+00	 1.093811e+00
 9.331793e+00	-9.631397e-01	 1.120678e+00
 1.192820e+01	-4.660254e+00	 1.066385e+00
 1.147820e+01	-3.880831e+00	 1.056588e+00
 1.102820e+01	-3.101408e+00	 1.055907e+00
 1.057820e+01	-2.321985e+00	 1.064344e+00
 1.012820e+01	-1.542563e+00	 1.081899e+00
 9.678203e+00	-7.631397e-01	 1.108572e+00
 7.946152e+00	-1.763140e+00	 1.104737e+00
 7.496152e+00	-9.837169e-01	 1.134497e+00
 7.046152e+00	-2.042940e-01	 1.174951e+00
 6.596152e+00	 5.751289e-01	 1.226097e+00
 6.146152e+00	 1.354552e+00	 1.287937e+00
 5.696152e+00	 2.133975e+00	 1.360470e+00
 8.292563e+00	-1.563140e+00	 1.118415e+00
 7.842563e+00	-7.837169e-01	 1.133404e+00
 7.392563e+00	-4.293994e-03	 1.158612e+00
 6.942563e+00	 7.751289e-01	 1.194040e+00
 6.492563e+00	 1.554552e+00	 1.239688e+00
 6.042563e+00	 2.333975e+00	 1.295556e+00
 8.638973e+00	-1.363140e+00	 1.125592e+00
 8.188973e+00	-5.837169e-01	 1.129559e+00
 7.738973e+00	 1.957060e-01	 1.143472e+00
 7.288973e+00	 9.751289e-01	 1.167131e+00
 6.838973e+00	 1.754552e+00	 1.200537e+00
 6.388973e+00	 2.533975e+00	 1.243689e+00
 8.985383e+00	-1.163140e+00	 1.126350e+00
 8.535383e+00	-3.837169e-01	 1.123065e+00
 8.085383e+00	 3.957060e-01	 1.129530e+00
 7.635383e+00	 1.175129e+00	 1.145370e+00
 7.185383e+00	 1.954552e+00	 1.170483e+00
 6.735383e+00	 2.733975e+00	 1.204870e+00
 9.331793e+00	-9.631397e-01	 1.120678e+00
 8.881793e+00	-1.837169e-01	 1.114106e+00
 8.431793e+00	 5.957060e-01	 1.116821e+00
 7.981793e+00	 1.375129e+00	 1.128757e+00
 7.531793e+00	 2.154552e+00	 1.149527e+00
 7.081793e+00	 2.933975e+00	 1.179097e+00
 9.678203e+00	-7.631397e-01	 1.108572e+00
 9.228203e+00	 1.628314e-02	 1.102662e+00
 8.778203e+00	 7.957060e-01	 1.105568e+00
 8.328203e+00	 1.575129e+00	 1.117291e+00
 7.878203e+00	 2.354552e+00	 1.137668e+00
 7.428203e+00	 3.133975e+00	 1.166371e+00
 1.192820e+01	-4.660254e+00	 1.066385e+00
 1.147820e+01	-3.880831e+00	 1.056588e+00
 1.102820e+01	-3.101408e+00	 1.055907e+00
 1.057820e+01	-2.321985e+00	 1.064344e+00
 1.012820e+01	-1.542563e+00	 1.081899e+00
 9.678203e+00	-7.631397e-01	 1.108572e+00
 1.227461e+01	-4.460254e+00	 1.067920e+00
 1.182461e+01	-3.680831e+00	 1.056480e+00
 1.137461e+01	-2.901408e+00	 1.053906e+00
 1.092461e+01	-2.121985e+00	 1.060198e+00
 1.047461e+01	-1.342563e+00	 1.075357e+00
 1.002461e+01	-5.631397e-01	 1.099384e+00
 1.262102e+01	-4.260254e+00	 1.067214e+00
 1.217102e+01	-3.480831e+00	 1.054134e+00
 1.172102e+01	-2.701408e+00	 1.049669e+00
 1.127102e+01	-1.921985e+00	 1.053819e+00
 1.082102e+01	-1.142563e+00	 1.066585e+00
 1.037102e+01	-3.631397e-01	 1.087968e+00
 1.296743e+01	-4.060254e+00	 1.064266e+00
 1.251743e+01	-3.280831e+00	 1.049549e+00
 1.206743e+01	-2.501408e+00	 1.043195e+00
 1.161743e+01	-1.721985e+00	 1.045206e+00
 1.116743e+01	-9.425626e-01	 1.055582e+00
 1.071743e+01	-1.631397e-01	 1.074324e+00
 1.331384e+01	-3.860254e+00	 1.059073e+00
 1.286384e+01	-3.080831e+00	 1.042722e+00
 1.241384e+01	-2.301408e+00	 1.034483e+00
 1.196384e+01	-1.521985e+00	 1.034358e+00
 1.151384e+01	-7.425626e-01	 1.042346e+00
 1.106384e+01	 3.686028e-02	 1.058450e+00
 1.366025e+01	-3.660254e+00	 1.051635e+00
 1.321025e+01	-2.880831e+00	 1.033652e+00
 1.276025e+01	-2.101408e+00	 1.023530e+00
 1.231025e+01	-1.321985e+00	 1.021272e+00
 1.186025e+01	-5.425626e-01	 1.026876e+00
 1.141025e+01	 2.368603e-01	 1.040345e+00
 9.678203e+00	-7.631397e-01	 1.108572e+00
 9.228203e+00	 1.628314e-02	 1.102662e+00
 8.778203e+00	 7.957060e-01	 1.105568e+00
 8.328203e+00	 1.575129e+00	 1.117291e+00
 7.878203e+00	 2.354552e+00	 1.137668e+00
 7.428203e+00	 3.133975e+00	 1.166371e+00
 1.002461e+01	-5.631397e-01	 1.099384e+00
 9.574613e+00	 2.162831e-01	 1.094286e+00
 9.124613e+00	 9.957060e-01	 1.097341e+00
 8.674613e+00	 1.775129e+00	 1.108547e+00
 8.224613e+00	 2.554552e+00	 1.127909e+00
 7.774613e+00	 3.333975e+00	 1.155123e+00
 1.037102e+01	-3.631397e-01	 1.087968e+00
 9.921024e+00	 4.162831e-01	 1.085883e+00
 9.471024e+00	 1.195706e+00	 1.091285e+00
 9.021024e+00	 1.975129e+00	 1.104175e+00
 8.571024e+00	 2.754552e+00	 1.124554e+00
 8.121024e+00	 3.533975e+00	 1.152388e+00
 1.071743e+01	-1.631397e-01	 1.074324e+00
 1.026743e+01	 6.162831e-01	 1.077451e+00
 9.817434e+00	 1.395706e+00	 1.087400e+00
 9.367434e+00	 2.175129e+00	 1.104173e+00
 8.917434e+00	 2.954552e+00	 1.127770e+00
 8.467434e+00	 3.733975e+00	 1.158192e+00
 1.106384e+01	 3.686028e-02	 1.058450e+00
 1.061384e+01	 8.162831e-01	 1.068988e+00
 1.016384e+01	 1.595706e+00	 1.085683e+00
 9.713844e+00	 2.375129e+00	 1.108538e+00
 9.263844e+00	 3.154552e+00	 1.137553e+00
 8.813844e+00	 3.933975e+00	 1.172728e+00
 1.141025e+01	 2.368603e-01	 1.040345e+00
 1.096025e+01	 1.016283e+00	 1.060493e+00
 1.051025e+01	 1.795706e+00	 1.086134e+00
 1.006025e+01	 2.575129e+00	 1.117270e+00
 9.610254e+00	 3.354552e+00	 1.153901e+00
 9.160254e+00	 4.133975e+00	 1.196029e+00
 5.696152e+00	 2.133975e+00	 1.273325e+00
 5.596152e+00	 2.307180e+00	 1.393517e+00
 5.496152e+00	 2.480385e+00	 1.484647e+00
 5.396152e+00	 2.653590e+00	 1.546716e+00
 5.296152e+00	 2.826795e+00	 1.579724e+00
 5.196152e+00	 3.000000e+00	 1.583670e+00
 6.042563e+00	 2.333975e+00	 1.236241e+00
 5.942563e+00	 2.507180e+00	 1.328858e+00
 5.842563e+00	 2.680385e+00	 1.397708e+00
 5.742563e+00	 2.853590e+00	 1.442794e+00
 5.642563e+00	 3.026795e+00	 1.464113e+00
 5.542563e+00	 3.200000e+00	 1.461667e+00
 6.388973e+00	 2.533975e+00	 1.206584e+00
 6.288973e+00	 2.707180e+00	 1.274682e+00
 6.188973e+00	 2.880385e+00	 1.324310e+00
 6.088973e+00	 3.053590e+00	 1.355468e+00
 5.988973e+00	 3.226795e+00	 1.368156e+00
 5.888973e+00	 3.400000e+00	 1.362375e+00
 6.735383e+00	 2.733975e+00	 1.184352e+00
 6.635383e+00	 2.907180e+00	 1.230989e+00
 6.535383e+00	 3.080385e+00	 1.264452e+00
 6.435383e+00	 3.253590e+00	 1.284740e+00
 6.335383e+00	 3.426795e+00	 1.291854e+00
 6.235383e+00	 3.600000e+00	 1.285794e+00
 7.081793e+00	 2.933975e+00	 1.169547e+00
 6.981793e+00	 3.107180e+00	 1.197779e+00
 6.881793e+00	 3.280385e+00	 1.218133e+00
 6.781793e+00	 3.453590e+00	 1.230608e+00
 6.681793e+00	 3.626795e+00	 1.235205e+00
 6.581793e+00	 3.800000e+00	 1.231923e+00
 7.428203e+00	 3.133975e+00	 1.162168e+00
 7.328203e+00	 3.307180e+00	 1.175053e+00
 7.228203e+00	 3.480385e+00	 1.185355e+00
 7.128203e+00	 3.653590e+00	 1.193074e+00
 7.028203e+00	 3.826795e+00	 1.198210e+00
 6.928203e+00	 4.000000e+00	 1.200764e+00
 7.428203e+00	 3.133975e+00	 1.162168e+00
 7.328203e+00	 3.307180e+00	 1.175053e+00
 7.228203e+00	 3.480385e+00	 1.185355e+00
 7.128203e+00	 3.653590e+00	 1.193074e+00
 7.028203e+00	 3.826795e+00	 1.198210e+00
 6.928203e+00	 4.000000e+00	 1.200764e+00
 7.774613e+00	 3.333975e+00	 1.153117e+00
 7.674613e+00	 3.507180e+00	 1.166017e+00
 7.574613e+00	 3.680385e+00	 1.176343e+00
 7.474613e+00	 3.853590e+00	 1.184094e+00
 7.374613e+00	 4.026795e+00	 1.189271e+00
 7.274613e+00	 4.200000e+00	 1.191873e+00
 8.121024e+00	 3.533975e+00	 1.151900e+00
 8.021024e+00	 3.707180e+00	 1.164148e+00
 7.921024e+00	 3.880385e+00	 1.173829e+00
 7.821024e+00	 4.053590e+00	 1.180944e+00
 7.721024e+00	 4.226795e+00	 1.185493e+00
 7.621024e+00	 4.400000e+00	 1.187475e+00
 8.467434e+00	 3.733975e+00	 1.158545e+00
 8.367434e+00	 3.907180e+00	 1.169447e+00
 8.267434e+00	 4.080385e+00	 1.177813e+00
 8.167434e+00	 4.253590e+00	 1.183624e+00
 8.067434e+00	 4.426795e+00	 1.186877e+00
 7.967434e+00	 4.600000e+00	 1.187572e+00
 8.813844e+00	 3.933975e+00	 1.173243e+00
 8.713844e+00	 4.107180e+00	 1.182077e+00
 8.613844e+00	 4.280385e+00	 1.188386e+00
 8.513844e+00	 4.453590e+00	 1.192170e+00
 8.413844e+00	 4.626795e+00	 1.193429e+00
 8.313844e+00	 4.800000e+00	 1.192162e+00
 9.160254e+00	 4.133975e+00	 1.196029e+00
 9.060254e+00	 4.307180e+00	 1.202126e+00
 8.960254e+00	 4.480385e+00	 1.205706e+00
 8.860254e+00	 4.653590e+00	 1.206770e+00
 8.760254e+00	 4.826795e+00	 1.205318e+00
 8.660254e+00	 5.000000e+00	 1.201349e+00
-3.464102e+00	-2.000000e+00	 1.138246e-02
-3.564102e+00	-1.826795e+00	 2.963261e-01
-3.664102e+00	-1.653590e+00	 5.386195e-01
-3.764102e+00	-1.480385e+00	 7.382628e-01
-3.864102e+00	-1.307180e+00	 8.952559e-01
-3.964102e+00	-1.133975e+00	 1.009599e+00
-3.117691e+00	-1.800000e+00	 4.102735e-02
-3.217691e+00	-1.626795e+00	 2.534099e-01
-3.317691e+00	-1.453590e+00	 4.311685e-01
-3.417691e+00	-1.280385e+00	 5.743030e-01
-3.517691e+00	-1.107180e+00	 6.828135e-01
-3.617691e+00	-9.339746e-01	 7.567000e-01
-2.771281e+00	-1.600000e+00	 4.829744e-02
-2.871281e+00	-1.426795e+00	 2.025218e-01
-2.971281e+00	-1.253590e+00	 3.301484e-01
-3.071281e+00	-1.080385e+00	 4.311771e-01
-3.171281e+00	-9.071797e-01	 5.056079e-01
-3.271281e+00	-7.339746e-01	 5.534409e-01
-2.424871e+00	-1.400000e+00	 3.319273e-02
-2.524871e+00	-1.226795e+00	 1.436619e-01
-2.624871e+00	-1.053590e+00	 2.355593e-01
-2.724871e+00	-8.803848e-01	 3.088851e-01
-2.824871e+00	-7.071797e-01	 3.636391e-01
-2.924871e+00	-5.339746e-01	 3.998214e-01
-2.078461e+00	-1.200000e+00	-4.286789e-03
-2.178461e+00	-1.026795e+00	 7.683001e-02
-2.278461e+00	-8.535898e-01	 1.474012e-01
-2.378461e+00	-6.803848e-01	 2.074269e-01
-2.478461e+00	-5.071797e-01	 2.569070e-01
-2.578461e+00	-3.339746e-01	 2.958416e-01
-1.732051e+00	-1.000000e+00	-6.414111e-02
-1.832051e+00	-8.267949e-01	 2.026229e-03
-1.932051e+00	-6.535898e-01	 6.567415e-02
-2.032051e+00	-4.803848e-01	 1.268027e-01
-2.132051e+00	-3.071797e-01	 1.854118e-01
-2.232051e+00	-1.339746e-01	 2.415014e-01
-1.732051e+00	-1.000000e+00	-6.414111e-02
-1.832051e+00	-8.267949e-01	 2.026229e-03
-1.932051e+00	-6.535898e-01	 6.567415e-02
-2.032051e+00	-4.803848e-01	 1.268027e-01
-2.132051e+00	-3.071797e-01	 1.854118e-01
-2.232051e+00	-1.339746e-01	 2.415014e-01
-1.385641e+00	-8.000000e-01	-4.908054e-02
-1.485641e+00	-6.267949e-01	 9.930473e-03
-1.585641e+00	-4.535898e-01	 6.672782e-02
-1.685641e+00	-2.803848e-01	 1.213115e-01
-1.785641e+00	-1.071797e-01	 1.736816e-01
-1.885641e+00	 6.602540e-02	 2.238379e-01
-1.039230e+00	-6.000000e-01	-4.389891e-02
-1.139230e+00	-4.267949e-01	 8.670845e-03
-1.239230e+00	-2.535898e-01	 5.933270e-02
-1.339230e+00	-8.038476e-02	 1.080866e-01
-1.439230e+00	 9.282032e-02	 1.549327e-01
-1.539230e+00	 2.660254e-01	 1.998708e-01
-6.928203e-01	-4.000000e-01	-4.859623e-02
-7.928203e-01	-2.267949e-01	-1.752655e-03
-8.928203e-01	-5.358984e-02	 4.348877e-02
-9.928203e-01	 1.196152e-01	 8.712804e-02
-1.092820e+00	 2.928203e-01	 1.291652e-01
-1.192820e+00	 4.660254e-01	 1.696001e-01
-3.464102e-01	-2.000000e-01	-6.317249e-02
-4.464102e-01	-2.679492e-02	-2.134003e-02
-5.464102e-01	 1.464102e-01	 1.919603e-02
-6.464102e-01	 3.196152e-01	 5.843570e-02
-7.464102e-01	 4.928203e-01	 9.637897e-02
-8.464102e-01	 6.660254e-01	 1.330258e-01
 0.000000e+00	 0.000000e+00	-8.762769e-02
-1.000000e-01	 1.732051e-01	-5.009127e-02
-2.000000e-01	 3.464102e-01	-1.354550e-02
-3.000000e-01	 5.196152e-01	 2.200963e-02
-4.000000e-01	 6.928203e-01	 5.657413e-02
-5.000000e-01	 8.660254e-01	 9.014798e-02
-3.964102e+00	-1.133975e+00	 1.428313e+00
-4.414102e+00	-3.545517e-01	 1.259640e+00
-4.864102e+00	 4.248711e-01	 1.142426e+00
-5.314102e+00	 1.204294e+00	 1.076671e+00
-5.764102e+00	 1.983717e+00	 1.062375e+00
-6.214102e+00	 2.763140e+00	 1.099538e+00
-3.617691e+00	-9.339746e-01	 1.139079e+00
-4.067691e+00	-1.545517e-01	 1.047773e+00
-4.517691e+00	 6.248711e-01	 9.945373e-01
-4.967691e+00	 1.404294e+00	 9.793731e-01
-5.417691e+00	 2.183717e+00	 1.002280e+00
-5.867691e+00	 2.963140e+00	 1.063258e+00
-3.271281e+00	-7.339746e-01	 8.921583e-01
-3.721281e+00	 4.544827e-02	 8.694398e-01
-4.171281e+00	 8.248711e-01	 8.714043e-01
-4.621281e+00	 1.604294e+00	 8.980518e-01
-5.071281e+00	 2.383717e+00	 9.493821e-01
-5.521281e+00	 3.163140e+00	 1.025395e+00
-2.924871e+00	-5.339746e-01	 6.875516e-01
-3.374871e+00	 2.454483e-01	 7.246419e-01
-3.824871e+00	 1.024871e+00	 7.730269e-01
-4.274871e+00	 1.804294e+00	 8.327067e-01
-4.724871e+00	 2.583717e+00	 9.036814e-01
-5.174871e+00	 3.363140e+00	 9.859508e-01
-2.578461e+00	-3.339746e-01	 5.252589e-01
-3.028461e+00	 4.454483e-01	 6.133786e-01
-3.478461e+00	 1.224871e+00	 6.994050e-01
-3.928461e+00	 2.004294e+00	 7.833380e-01
-4.378461e+00	 2.783717e+00	 8.651778e-01
-4.828461e+00	 3.563140e+00	 9.449242e-01
-2.232051e+00	-1.339746e-01	 4.052800e-01
-2.682051e+00	 6.454483e-01	 5.356500e-01
-3.132051e+00	 1.424871e+00	 6.505385e-01
-3.582051e+00	 2.204294e+00	 7.499456e-01
-4.032051e+00	 2.983717e+00	 8.338712e-01
-4.482051e+00	 3.763140e+00	 9.023154e-01
-6.214102e+00	 2.763140e+00	 1.099538e+00
-6.664102e+00	 3.542563e+00	 1.054246e+00
-7.114102e+00	 4.321985e+00	 1.013773e+00
-7.564102e+00	 5.101408e+00	 9.781211e-01
-8.014102e+00	 5.880831e+00	 9.472887e-01
-8.464102e+00	 6.660254e+00	 9.213320e-01
-5.867691e+00	 2.963140e+00	 1.063258e+00
-6.317691e+00	 3.742563e+00	 1.021163e+00
-6.767691e+00	 4.521985e+00	 9.846436e-01
-7.217691e+00	 5.301408e+00	 9.537001e-01
-7.667691e+00	 6.080831e+00	 9.283323e-01
-8.117691e+00	 6.860254e+00	 9.085403e-01
-5.521281e+00	 3.163140e+00	 1.025395e+00
-5.971281e+00	 3.942563e+00	 9.867332e-01
-6.421281e+00	 4.721985e+00	 9.544026e-01
-6.871281e+00	 5.501408e+00	 9.284034e-01
-7.321281e+00	 6.280831e+00	 9.087357e-01
-7.771281e+00	 7.060254e+00	 8.953995e-01
-5.174871e+00	 3.363140e+00	 9.859508e-01
-5.624871e+00	 4.142563e+00	 9.509570e-01
-6.074871e+00	 4.921985e+00	 9.230504e-01
-6.524871e+00	 5.701408e+00	 9.022310e-01
-6.974871e+00	 6.480831e+00	 8.884988e-01
-7.424871e+00	 7.260254e+00	 8.818539e-01
-4.828461e+00	 3.563140e+00	 9.449242e-01
-5.278461e+00	 4.342563e+00	 9.138341e-01
-5.728461e+00	 5.121985e+00	 8.905870e-01
-6.178461e+00	 5.901408e+00	 8.751829e-01
-6.628461e+00	 6.680831e+00	 8.676217e-01
-7.078461e+00	 7.460254e+00	 8.679036e-01
-4.482051e+00	 3.763140e+00	 9.023154e-01
-4.932051e+00	 4.542563e+00	 8.753645e-01
-5.382051e+00	 5.321985e+00	 8.570124e-01
-5.832051e+00	 6.101408e+00	 8.472590e-01
-6.282051e+00	 6.880831e+00	 8.461044e-01
-6.732051e+00	 7.660254e+00	 8.535485e-01
-2.232051e+00	-1.339746e-01	 4.052800e-01
-2.682051e+00	 6.454483e-01	 5.356500e-01
-3.132051e+00	 1.424871e+00	 6.505385e-01
-3.582051e+00	 2.204294e+00	 7.499456e-01
-4.032051e+00	 2.983717e+00	 8.338712e-01
-4.482051e+00	 3.763140e+00	 9.023154e-01
-1.885641e+00	 6.602540e-02	 3.250506e-01
-2.335641e+00	 8.454483e-01	 4.647421e-01
-2.785641e+00	 1.624871e+00	 5.852805e-01
-3.235641e+00	 2.404294e+00	 6.866658e-01
-3.685641e+00	 3.183717e+00	 7.688981e-01
-4.135641e+00	 3.963140e+00	 8.319771e-01
-1.539230e+00	 2.660254e-01	 2.519888e-01
-1.989230e+00	 1.045448e+00	 4.013871e-01
-2.439230e+00	 1.824871e+00	 5.279605e-01
-2.889230e+00	 2.604294e+00	 6.317092e-01
-3.339230e+00	 3.383717e+00	 7.126331e-01
-3.789230e+00	 4.163140e+00	 7.707323e-01
-1.192820e+00	 4.660254e-01	 1.860947e-01
-1.642820e+00	 1.245448e+00	 3.455848e-01
-2.092820e+00	 2.024871e+00	 4.785785e-01
-2.542820e+00	 2.804294e+00	 5.850757e-01
-2.992820e+00	 3.583717e+00	 6.650764e-01
-3.442820e+00	 4.363140e+00	 7.185807e-01
-8.464102e-01	 6.660254e-01	 1.273683e-01
-1.296410e+00	 1.445448e+00	 2.973354e-01
-1.746410e+00	 2.224871e+00	 4.371344e-01
-2.196410e+00	 3.004294e+00	 5.467652e-01
-2.646410e+00	 3.783717e+00	 6.262280e-01
-3.096410e+00	 4.563140e+00	 6.755226e-01
-5.000000e-01	 8.660254e-01	 7.580962e-02
-9.500000e-01	 1.645448e+00	 2.566388e-01
-1.400000e+00	 2.424871e+00	 4.036283e-01
-1.850000e+00	 3.204294e+00	 5.167779e-01
-2.300000e+00	 3.983717e+00	 5.960877e-01
-2.750000e+00	 4.763140e+00	 6.415578e-01
-4.482051e+00	 3.763140e+00	 9.023154e-01
-4.932051e+00	 4.542563e+00	 8.753645e-01
-5.382051e+00	 5.321985e+00	 8.570124e-01
-5.832051e+00	 6.101408e+00	 8.472590e-01
-6.282051e+00	 6.880831e+00	 8.461044e-01
-6.732051e+00	 7.660254e+00	 8.535485e-01
-4.135641e+00	 3.963140e+00	 8.319771e-01
-4.585641e+00	 4.742563e+00	 8.215385e-01
-5.035641e+00	 5.521985e+00	 8.169761e-01
-5.485641e+00	 6.301408e+00	 8.182901e-01
-5.935641e+00	 7.080831e+00	 8.254805e-01
-6.385641e+00	 7.860254e+00	 8.385472e-01
-3.789230e+00	 4.163140e+00	 7.707323e-01
-4.239230e+00	 4.942563e+00	 7.748096e-01
-4.689230e+00	 5.721985e+00	 7.820408e-01
-5.139230e+00	 6.501408e+00	 7.924260e-01
-5.589230e+00	 7.280831e+00	 8.059652e-01
-6.039230e+00	 8.060254e+00	 8.226583e-01
-3.442820e+00	 4.363140e+00	 7.185807e-01
-3.892820e+00	 5.142563e+00	 7.351778e-01
-4.342820e+00	 5.921985e+00	 7.522065e-01
-4.792820e+00	 6.701408e+00	 7.696667e-01
-5.242820e+00	 7.480831e+00	 7.875585e-01
-5.692820e+00	 8.260254e+00	 8.058818e-01
-3.096410e+00	 4.563140e+00	 6.755226e-01
-3.546410e+00	 5.342563e+00	 7.026433e-01
-3.996410e+00	 6.121985e+00	 7.274731e-01
-4.446410e+00	 6.901408e+00	 7.500122e-01
-4.896410e+00	 7.680831e+00	 7.702604e-01
-5.346410e+00	 8.460254e+00	 7.864349e-01
-2.750000e+00	 4.763140e+00	 6.415578e-01
-3.200000e+00	 5.542563e+00	 6.772059e-01
-3.650000e+00	 6.321985e+00	 7.078408e-01
-4.100000e+00	 7.101408e+00	 7.334624e-01
-4.550000e+00	 7.880831e+00	 7.540708e-01
-5.000000e+00	 8.660254e+00	 7.649514e-01
-4.830127e+00	-1.633975e+00	 1.758086e+00
-5.280127e+00	-8.545517e-01	 1.513980e+00
-5.730127e+00	-7.512887e-02	 1.321441e+00
-6.180127e+00	 7.042940e-01	 1.180468e+00
-6.630127e+00	 1.483717e+00	 1.091062e+00
-7.080127e+00	 2.263140e+00	 1.053223e+00
-4.656922e+00	-1.533975e+00	 1.713776e+00
-5.106922e+00	-7.545517e-01	 1.472679e+00
-5.556922e+00	 2.487113e-02	 1.286887e+00
-6.006922e+00	 8.042940e-01	 1.156398e+00
-6.456922e+00	 1.583717e+00	 1.081213e+00
-6.906922e+00	 2.363140e+00	 1.061332e+00
-4.483717e+00	-1.433975e+00	 1.664717e+00
-4.933717e+00	-6.545517e-01	 1.427095e+00
-5.383717e+00	 1.248711e-01	 1.248514e+00
-5.833717e+00	 9.042940e-01	 1.128974e+00
-6.283717e+00	 1.683717e+00	 1.068475e+00
-6.733717e+00	 2.463140e+00	 1.067018e+00
-4.310512e+00	-1.333975e+00	 1.610911e+00
-4.760512e+00	-5.545517e-01	 1.377228e+00
-5.210512e+00	 2.248711e-01	 1.206323e+00
-5.660512e+00	 1.004294e+00	 1.098197e+00
-6.110512e+00	 1.783717e+00	 1.052849e+00
-6.560512e+00	 2.563140e+00	 1.070280e+00
-4.137307e+00	-1.233975e+00	 1.552356e+00
-4.587307e+00	-4.545517e-01	 1.323077e+00
-5.037307e+00	 3.248711e-01	 1.160314e+00
-5.487307e+00	 1.104294e+00	 1.064067e+00
-5.937307e+00	 1.883717e+00	 1.034336e+00
-6.387307e+00	 2.663140e+00	 1.071120e+00
-3.964102e+00	-1.133975e+00	 1.489053e+00
-4.414102e+00	-3.545517e-01	 1.264643e+00
-4.864102e+00	 4.248711e-01	 1.110487e+00
-5.314102e+00	 1.204294e+00	 1.026584e+00
-5.764102e+00	 1.983717e+00	 1.012934e+00
-6.214102e+00	 2.763140e+00	 1.069536e+00
-7.080127e+00	 2.263140e+00	 1.053223e+00
-7.530127e+00	 3.042563e+00	 1.060129e+00
-7.980127e+00	 3.821985e+00	 1.058604e+00
-8.430127e+00	 4.601408e+00	 1.048691e+00
-8.880127e+00	 5.380831e+00	 1.030783e+00
-9.330127e+00	 6.160254e+00	 1.004912e+00
-6.906922e+00	 2.363140e+00	 1.061332e+00
-7.356922e+00	 3.142563e+00	 1.061482e+00
-7.806922e+00	 3.921985e+00	 1.054024e+00
-8.256922e+00	 4.701408e+00	 1.038960e+00
-8.706922e+00	 5.480831e+00	 1.016567e+00
-9.156922e+00	 6.260254e+00	 9.870486e-01
-6.733717e+00	 2.463140e+00	 1.067018e+00
-7.183717e+00	 3.242563e+00	 1.060997e+00
-7.633717e+00	 4.021985e+00	 1.048192e+00
-8.083717e+00	 4.801408e+00	 1.028603e+00
-8.533717e+00	 5.580831e+00	 1.002338e+00
-8.983717e+00	 6.360254e+00	 9.697585e-01
-6.560512e+00	 2.563140e+00	 1.070280e+00
-7.010512e+00	 3.342563e+00	 1.058673e+00
-7.460512e+00	 4.121985e+00	 1.041106e+00
-7.910512e+00	 4.901408e+00	 1.017578e+00
-8.360512e+00	 5.680831e+00	 9.880981e-01
-8.810512e+00	 6.460254e+00	 9.530422e-01
-6.387307e+00	 2.663140e+00	 1.071120e+00
-6.837307e+00	 3.442563e+00	 1.054512e+00
-7.287307e+00	 4.221985e+00	 1.032767e+00
-7.737307e+00	 5.001408e+00	 1.005885e+00
-8.187307e+00	 5.780831e+00	 9.738647e-01
-8.637307e+00	 6.560254e+00	 9.369000e-01
-6.214102e+00	 2.763140e+00	 1.069536e+00
-6.664102e+00	 3.542563e+00	 1.048513e+00
-7.114102e+00	 4.321985e+00	 1.023176e+00
-7.564102e+00	 5.101408e+00	 9.935236e-01
-8.014102e+00	 5.880831e+00	 9.595572e-01
-8.464102e+00	 6.660254e+00	 9.213320e-01
-5.696152e+00	-2.133975e+00	 1.310645e+00
-6.146152e+00	-1.354552e+00	 1.264083e+00
-6.596152e+00	-5.751289e-01	 1.221161e+00
-7.046152e+00	 2.042940e-01	 1.181879e+00
-7.496152e+00	 9.837169e-01	 1.146238e+00
-7.946152e+00	 1.763140e+00	 1.114236e+00
-5.522947e+00	-2.033975e+00	 1.417074e+00
-5.972947e+00	-1.254552e+00	 1.335615e+00
-6.422947e+00	-4.751289e-01	 1.263429e+00
-6.872947e+00	 3.042940e-01	 1.200519e+00
-7.322947e+00	 1.083717e+00	 1.146882e+00
-7.772947e+00	 1.863140e+00	 1.102520e+00
-5.349742e+00	-1.933975e+00	 1.499481e+00
-5.799742e+00	-1.154552e+00	 1.388165e+00
-6.249742e+00	-3.751289e-01	 1.291757e+00
-6.699742e+00	 4.042940e-01	 1.210258e+00
-7.149742e+00	 1.183717e+00	 1.143668e+00
-7.599742e+00	 1.963140e+00	 1.091986e+00
-5.176537e+00	-1.833975e+00	 1.557864e+00
-5.626537e+00	-1.054552e+00	 1.421733e+00
-6.076537e+00	-2.751289e-01	 1.306144e+00
-6.526537e+00	 5.042940e-01	 1.211098e+00
-6.976537e+00	 1.283717e+00	 1.136595e+00
-7.426537e+00	 2.063140e+00	 1.082633e+00
-5.003332e+00	-1.733975e+00	 1.592225e+00
-5.453332e+00	-9.545517e-01	 1.436320e+00
-5.903332e+00	-1.751289e-01	 1.306590e+00
-6.353332e+00	 6.042940e-01	 1.203038e+00
-6.803332e+00	 1.383717e+00	 1.125662e+00
-7.253332e+00	 2.163140e+00	 1.074463e+00
-4.830127e+00	-1.633975e+00	 1.602564e+00
-5.280127e+00	-8.545517e-01	 1.431924e+00
-5.730127e+00	-7.512887e-02	 1.293096e+00
-6.180127e+00	 7.042940e-01	 1.186078e+00
-6.630127e+00	 1.483717e+00	 1.110871e+00
-7.080127e+00	 2.263140e+00	 1.067474e+00
-7.946152e+00	 1.763140e+00	 1.114236e+00
-8.396152e+00	 2.542563e+00	 1.091329e+00
-8.846152e+00	 3.321985e+00	 1.071741e+00
-9.296152e+00	 4.101408e+00	 1.055522e+00
-9.746152e+00	 4.880831e+00	 1.042673e+00
-1.019615e+01	 5.660254e+00	 1.033192e+00
-7.772947e+00	 1.863140e+00	 1.102520e+00
-8.222947e+00	 2.642563e+00	 1.084316e+00
-8.672947e+00	 3.421985e+00	 1.067994e+00
-9.122947e+00	 4.201408e+00	 1.053804e+00
-9.572947e+00	 4.980831e+00	 1.041723e+00
-1.002295e+01	 5.760254e+00	 1.031751e+00
-7.599742e+00	 1.963140e+00	 1.091986e+00
-8.049742e+00	 2.742563e+00	 1.077838e+00
-8.499742e+00	 3.521985e+00	 1.064155e+00
-8.949742e+00	 4.301408e+00	 1.051322e+00
-9.399742e+00	 5.080831e+00	 1.039338e+00
-9.849742e+00	 5.860254e+00	 1.028203e+00
-7.426537e+00	 2.063140e+00	 1.082633e+00
-7.876537e+00	 2.842563e+00	 1.071869e+00
-8.326537e+00	 3.621985e+00	 1.060226e+00
-8.776537e+00	 4.401408e+00	 1.048075e+00
-9.226537e+00	 5.180831e+00	 1.035516e+00
-9.676537e+00	 5.960254e+00	 1.022547e+00
-7.253332e+00	 2.163140e+00	 1.074463e+00
-7.703332e+00	 2.942563e+00	 1.066411e+00
-8.153332e+00	 3.721985e+00	 1.056221e+00
-8.603332e+00	 4.501408e+00	 1.044064e+00
-9.053332e+00	 5.280831e+00	 1.030259e+00
-9.503332e+00	 6.060254e+00	 1.014783e+00
-7.080127e+00	 2.263140e+00	 1.067474e+00
-7.530127e+00	 3.042563e+00	 1.061462e+00
-7.980127e+00	 3.821985e+00	 1.052053e+00
-8.430127e+00	 4.601408e+00	 1.039290e+00
-8.880127e+00	 5.380831e+00	 1.023566e+00
-9.330127e+00	 6.160254e+00	 1.004912e+00
-9.160254e+00	-4.133975e+00	 1.196029e+00
-9.610254e+00	-3.354552e+00	 1.153901e+00
-1.006025e+01	-2.575129e+00	 1.117270e+00
-1.051025e+01	-1.795706e+00	 1.086134e+00
-1.096025e+01	-1.016283e+00	 1.060493e+00
-1.141025e+01	-2.368603e-01	 1.040345e+00
-8.813844e+00	-3.933975e+00	 1.172728e+00
-9.263844e+00	-3.154552e+00	 1.137553e+00
-9.713844e+00	-2.375129e+00	 1.108538e+00
-1.016384e+01	-1.595706e+00	 1.085683e+00
-1.061384e+01	-8.162831e-01	 1.068988e+00
-1.106384e+01	-3.686028e-02	 1.058450e+00
-8.467434e+00	-3.733975e+00	 1.158192e+00
-8.917434e+00	-2.954552e+00	 1.127770e+00
-9.367434e+00	-2.175129e+00	 1.104173e+00
-9.817434e+00	-1.395706e+00	 1.087400e+00
-1.026743e+01	-6.162831e-01	 1.077451e+00
-1.071743e+01	 1.631397e-01	 1.074324e+00
-8.121024e+00	-3.533975e+00	 1.152388e+00
-8.571024e+00	-2.754552e+00	 1.124554e+00
-9.021024e+00	-1.975129e+00	 1.104175e+00
-9.471024e+00	-1.195706e+00	 1.091285e+00
-9.921024e+00	-4.162831e-01	 1.085883e+00
-1.037102e+01	 3.631397e-01	 1.087968e+00
-7.774613e+00	-3.333975e+00	 1.155123e+00
-8.224613e+00	-2.554552e+00	 1.127909e+00
-8.674613e+00	-1.775129e+00	 1.108547e+00
-9.124613e+00	-9.957060e-01	 1.097341e+00
-9.574613e+00	-2.162831e-01	 1.094286e+00
-1.002461e+01	 5.631397e-01	 1.099384e+00
-7.428203e+00	-3.133975e+00	 1.166371e+00
-7.878203e+00	-2.354552e+00	 1.137668e+00
-8.328203e+00	-1.575129e+00	 1.117291e+00
-8.778203e+00	-7.957060e-01	 1.105568e+00
-9.228203e+00	-1.628314e-02	 1.102662e+00
-9.678203e+00	 7.631397e-01	 1.108572e+00
-1.141025e+01	-2.368603e-01	 1.040345e+00
-1.186025e+01	 5.425626e-01	 1.026876e+00
-1.231025e+01	 1.321985e+00	 1.021272e+00
-1.276025e+01	 2.101408e+00	 1.023530e+00
-1.321025e+01	 2.880831e+00	 1.033652e+00
-1.366025e+01	 3.660254e+00	 1.051635e+00
-1.106384e+01	-3.686028e-02	 1.058450e+00
-1.151384e+01	 7.425626e-01	 1.042346e+00
-1.196384e+01	 1.521985e+00	 1.034358e+00
-1.241384e+01	 2.301408e+00	 1.034483e+00
-1.286384e+01	 3.080831e+00	 1.042722e+00
-1.331384e+01	 3.860254e+00	 1.059073e+00
-1.071743e+01	 1.631397e-01	 1.074324e+00
-1.116743e+01	 9.425626e-01	 1.055582e+00
-1.161743e+01	 1.721985e+00	 1.045206e+00
-1.206743e+01	 2.501408e+00	 1.043195e+00
-1.251743e+01	 3.280831e+00	 1.049549e+00
-1.296743e+01	 4.060254e+00	 1.064266e+00
-1.037102e+01	 3.631397e-01	 1.087968e+00
-1.082102e+01	 1.142563e+00	 1.066585e+00
-1.127102e+01	 1.921985e+00	 1.053819e+00
-1.172102e+01	 2.701408e+00	 1.049669e+00
-1.217102e+01	 3.480831e+00	 1.054134e+00
-1.262102e+01	 4.260254e+00	 1.067214e+00
-1.002461e+01	 5.631397e-01	 1.099384e+00
-1.047461e+01	 1.342563e+00	 1.075357e+00
-1.092461e+01	 2.121985e+00	 1.060198e+00
-1.137461e+01	 2.901408e+00	 1.053906e+00
-1.182461e+01	 3.680831e+00	 1.056480e+00
-1.227461e+01	 4.460254e+00	 1.067920e+00
-9.678203e+00	 7.631397e-01	 1.108572e+00
-1.012820e+01	 1.542563e+00	 1.081899e+00
-1.057820e+01	 2.321985e+00	 1.064344e+00
-1.102820e+01	 3.101408e+00	 1.055907e+00
-1.147820e+01	 3.880831e+00	 1.056588e+00
-1.192820e+01	 4.660254e+00	 1.066385e+00
-7.428203e+00	-3.133975e+00	 1.166371e+00
-7.878203e+00	-2.354552e+00	 1.137668e+00
-8.328203e+00	-1.575129e+00	 1.117291e+00
-8.778203e+00	-7.957060e-01	 1.105568e+00
-9.228203e+00	-1.628314e-02	 1.102662e+00
-9.678203e+00	 7.631397e-01	 1.108572e+00
-7.081793e+00	-2.933975e+00	 1.179097e+00
-7.531793e+00	-2.154552e+00	 1.149527e+00
-7.981793e+00	-1.375129e+00	 1.128757e+00
-8.431793e+00	-5.957060e-01	 1.116821e+00
-8.881793e+00	 1.837169e-01	 1.114106e+00
-9.331793e+00	 9.631397e-01	 1.120678e+00
-6.735383e+00	-2.733975e+00	 1.204870e+00
-7.185383e+00	-1.954552e+00	 1.170483e+00
-7.635383e+00	-1.175129e+00	 1.145370e+00
-8.085383e+00	-3.957060e-01	 1.129530e+00
-8.535383e+00	 3.837169e-01	 1.123065e+00
-8.985383e+00	 1.163140e+00	 1.126350e+00
-6.388973e+00	-2.533975e+00	 1.243689e+00
-6.838973e+00	-1.754552e+00	 1.200537e+00
-7.288973e+00	-9.751289e-01	 1.167131e+00
-7.738973e+00	-1.957060e-01	 1.143472e+00
-8.188973e+00	 5.837169e-01	 1.129559e+00
-8.638973e+00	 1.363140e+00	 1.125592e+00
-6.042563e+00	-2.333975e+00	 1.295556e+00
-6.492563e+00	-1.554552e+00	 1.239688e+00
-6.942563e+00	-7.751289e-01	 1.194040e+00
-7.392563e+00	 4.293994e-03	 1.158612e+00
-7.842563e+00	 7.837169e-01	 1.133404e+00
-8.292563e+00	 1.563140e+00	 1.118415e+00
-5.696152e+00	-2.133975e+00	 1.360470e+00
-6.146152e+00	-1.354552e+00	 1.287937e+00
-6.596152e+00	-5.751289e-01	 1.226097e+00
-7.046152e+00	 2.042940e-01	 1.174951e+00
-7.496152e+00	 9.837169e-01	 1.134497e+00
-7.946152e+00	 1.763140e+00	 1.104737e+00
-9.678203e+00	 7.631397e-01	 1.108572e+00
-1.012820e+01	 1.542563e+00	 1.081899e+00
-1.057820e+01	 2.321985e+00	 1.064344e+00
-1.102820e+01	 3.101408e+00	 1.055907e+00
-1.147820e+01	 3.880831e+00	 1.056588e+00
-1.192820e+01	 4.660254e+00	 1.066385e+00
-9.331793e+00	 9.631397e-01	 1.120678e+00
-9.781793e+00	 1.742563e+00	 1.093811e+00
-1.023179e+01	 2.521985e+00	 1.074603e+00
-1.068179e+01	 3.301408e+00	 1.063055e+00
-1.113179e+01	 4.080831e+00	 1.059165e+00
-1.158179e+01	 4.860254e+00	 1.062932e+00
-8.985383e+00	 1.163140e+00	 1.126350e+00
-9.435383e+00	 1.942563e+00	 1.100257e+00
-9.885383e+00	 2.721985e+00	 1.080365e+00
-1.033538e+01	 3.501408e+00	 1.066672e+00
-1.078538e+01	 4.280831e+00	 1.059179e+00
-1.123538e+01	 5.060254e+00	 1.057884e+00
-8.638973e+00	 1.363140e+00	 1.125592e+00
-9.088973e+00	 2.142563e+00	 1.101241e+00
-9.538973e+00	 2.921985e+00	 1.081631e+00
-9.988973e+00	 3.701408e+00	 1.066762e+00
-1.043897e+01	 4.480831e+00	 1.056633e+00
-1.088897e+01	 5.260254e+00	 1.051244e+00
-8.292563e+00	 1.563140e+00	 1.118415e+00
-8.742563e+00	 2.342563e+00	 1.096762e+00
-9.192563e+00	 3.121985e+00	 1.078403e+00
-9.642563e+00	 3.901408e+00	 1.063325e+00
-1.009256e+01	 4.680831e+00	 1.051529e+00
-1.054256e+01	 5.460254e+00	 1.043013e+00
-7.946152e+00	 1.763140e+00	 1.104737e+00
-8.396152e+00	 2.542563e+00	 1.086824e+00
-8.846152e+00	 3.321985e+00	 1.070682e+00
-9.296152e+00	 4.101408e+00	 1.056363e+00
-9.746152e+00	 4.880831e+00	 1.043867e+00
-1.019615e+01	 5.660254e+00	 1.033192e+00
-8.660254e+00	-5.000000e+00	 1.201349e+00
-8.760254e+00	-4.826795e+00	 1.205318e+00
-8.860254e+00	-4.653590e+00	 1.206770e+00
-8.960254e+00	-4.480385e+00	 1.205706e+00
-9.060254e+00	-4.307180e+00	 1.202126e+00
-9.160254e+00	-4.133975e+00	 1.196029e+00
-8.313844e+00	-4.800000e+00	 1.192162e+00
-8.413844e+00	-4.626795e+00	 1.193429e+00
-8.513844e+00	-4.453590e+00	 1.192170e+00
-8.613844e+00	-4.280385e+00	 1.188386e+00
-8.713844e+00	-4.107180e+00	 1.182077e+00
-8.813844e+00	-3.933975e+00	 1.173243e+00
-7.967434e+00	-4.600000e+00	 1.187572e+00
-8.067434e+00	-4.426795e+00	 1.186877e+00
-8.167434e+00	-4.253590e+00	 1.183624e+00
-8.267434e+00	-4.080385e+00	 1.177813e+00
-8.367434e+00	-3.907180e+00	 1.169447e+00
-8.467434e+00	-3.733975e+00	 1.158545e+00
-7.621024e+00	-4.400000e+00	 1.187475e+00
-7.721024e+00	-4.226795e+00	 1.185493e+00
-7.821024e+00	-4.053590e+00	 1.180944e+00
-7.921024e+00	-3.880385e+00	 1.173829e+00
-8.021024e+00	-3.707180e+00	 1.164148e+00
-8.121024e+00	-3.533975e+00	 1.151900e+00
-7.274613e+00	-4.200000e+00	 1.191873e+00
-7.374613e+00	-4.026795e+00	 1.189271e+00
-7.474613e+00	-3.853590e+00	 1.184094e+00
-7.574613e+00	-3.680385e+00	 1.176343e+00
-7.674613e+00	-3.507180e+00	 1.166017e+00
-7.774613e+00	-3.333975e+00	 1.153117e+00
-6.928203e+00	-4.000000e+00	 1.200764e+00
-7.028203e+00	-3.826795e+00	 1.198210e+00
-7.128203e+00	-3.653590e+00	 1.193074e+00
-7.228203e+00	-3.480385e+00	 1.185355e+00
-7.328203e+00	-3.307180e+00	 1.175053e+00
-7.428203e+00	-3.133975e+00	 1.162168e+00
-6.928203e+00	-4.000000e+00	 1.200764e+00
-7.028203e+00	-3.826795e+00	 1.198210e+00
-7.128203e+00	-3.653590e+00	 1.193074e+00
-7.228203e+00	-3.480385e+00	 1.185355e+00
-7.328203e+00	-3.307180e+00	 1.175053e+00
-7.428203e+00	-3.133975e+00	 1.162168e+00
-6.581793e+00	-3.800000e+00	 1.231923e+00
-6.681793e+00	-3.626795e+00	 1.235205e+00
-6.781793e+00	-3.453590e+00	 1.230608e+00
-6.881793e+00	-3.280385e+00	 1.218133e+00
-6.981793e+00	-3.107180e+00	 1.197779e+00
-7.081793e+00	-2.933975e+00	 1.169547e+00
-6.235383e+00	-3.600000e+00	 1.285794e+00
-6.335383e+00	-3.426795e+00	 1.291854e+00
-6.435383e+00	-3.253590e+00	 1.284740e+00
-6.535383e+00	-3.080385e+00	 1.264452e+00
-6.635383e+00	-2.907180e+00	 1.230989e+00
-6.735383e+00	-2.733975e+00	 1.184352e+00
-5.888973e+00	-3.400000e+00	 1.362375e+00
-5.988973e+00	-3.226795e+00	 1.368156e+00
-6.088973e+00	-3.053590e+00	 1.355468e+00
-6.188973e+00	-2.880385e+00	 1.324310e+00
-6.288973e+00	-2.707180e+00	 1.274682e+00
-6.388973e+00	-2.533975e+00	 1.206584e+00
-5.542563e+00	-3.200000e+00	 1.461667e+00
-5.642563e+00	-3.026795e+00	 1.464113e+00
-5.742563e+00	-2.853590e+00	 1.442794e+00
-5.842563e+00	-2.680385e+00	 1.397708e+00
-5.942563e+00	-2.507180e+00	 1.328858e+00
-6.042563e+00	-2.333975e+00	 1.236241e+00
-5.196152e+00	-3.000000e+00	 1.583670e+00
-5.296152e+00	-2.826795e+00	 1.579724e+00
-5.396152e+00	-2.653590e+00	 1.546716e+00
-5.496152e+00	-2.480385e+00	 1.484647e+00
-5.596152e+00	-2.307180e+00	 1.393517e+00
-5.696152e+00	-2.133975e+00	 1.273325e+00
-8.160254e+00	-5.866025e+00	 1.169881e+00
-8.260254e+00	-5.692820e+00	 1.172334e+00
-8.360254e+00	-5.519615e+00	 1.176696e+00
-8.460254e+00	-5.346410e+00	 1.182979e+00
-8.560254e+00	-5.173205e+00	 1.191197e+00
-8.660254e+00	-5.000000e+00	 1.201349e+00
-7.813844e+00	-5.666025e+00	 1.154885e+00
-7.913844e+00	-5.492820e+00	 1.162648e+00
-8.013844e+00	-5.319615e+00	 1.170762e+00
-8.113844e+00	-5.146410e+00	 1.179228e+00
-8.213844e+00	-4.973205e+00	 1.188046e+00
-8.313844e+00	-4.800000e+00	 1.197215e+00
-7.467434e+00	-5.466025e+00	 1.154241e+00
-7.567434e+00	-5.292820e+00	 1.164825e+00
-7.667434e+00	-5.119615e+00	 1.174203e+00
-7.767434e+00	-4.946410e+00	 1.182374e+00
-7.867434e+00	-4.773205e+00	 1.189339e+00
-7.967434e+00	-4.600000e+00	 1.195097e+00
-7.121024e+00	-5.266025e+00	 1.167948e+00
-7.221024e+00	-5.092820e+00	 1.178867e+00
-7.321024e+00	-4.919615e+00	 1.187020e+00
-7.421024e+00	-4.746410e+00	 1.192409e+00
-7.521024e+00	-4.573205e+00	 1.195033e+00
-7.621024e+00	-4.400000e+00	 1.194893e+00
-6.774613e+00	-5.066025e+00	 1.196006e+00
-6.874613e+00	-4.892820e+00	 1.204772e+00
-6.974613e+00	-4.719615e+00	 1.209214e+00
-7.074613e+00	-4.546410e+00	 1.209333e+00
-7.174613e+00	-4.373205e+00	 1.205130e+00
-7.274613e+00	-4.200000e+00	 1.196603e+00
-6.428203e+00	-4.866025e+00	 1.238416e+00
-6.528203e+00	-4.692820e+00	 1.242541e+00
-6.628203e+00	-4.519615e+00	 1.240784e+00
-6.728203e+00	-4.346410e+00	 1.233146e+00
-6.828203e+00	-4.173205e+00	 1.219628e+00
-6.928203e+00	-4.000000e+00	 1.200228e+00
-6.428203e+00	-4.866025e+00	 1.238416e+00
-6.528203e+00	-4.692820e+00	 1.242541e+00
-6.628203e+00	-4.519615e+00	 1.240784e+00
-6.728203e+00	-4.346410e+00	 1.233146e+00
-6.828203e+00	-4.173205e+00	 1.219628e+00
-6.928203e+00	-4.000000e+00	 1.200228e+00
-6.081793e+00	-4.666025e+00	 1.233734e+00
-6.181793e+00	-4.492820e+00	 1.241020e+00
-6.281793e+00	-4.319615e+00	 1.244863e+00
-6.381793e+00	-4.146410e+00	 1.245264e+00
-6.481793e+00	-3.973205e+00	 1.242222e+00
-6.581793e+00	-3.800000e+00	 1.235738e+00
-5.735383e+00	-4.466025e+00	 1.271267e+00
-5.835383e+00	-4.292820e+00	 1.282175e+00
-5.935383e+00	-4.119615e+00	 1.292081e+00
-6.035383e+00	-3.946410e+00	 1.300982e+00
-6.135383e+00	-3.773205e+00	 1.308881e+00
-6.235383e+00	-3.600000e+00	 1.315776e+00
-5.388973e+00	-4.266025e+00	 1.351013e+00
-5.488973e+00	-4.092820e+00	 1.366007e+00
-5.588973e+00	-3.919615e+00	 1.382437e+00
-5.688973e+00	-3.746410e+00	 1.400303e+00
-5.788973e+00	-3.573205e+00	 1.419604e+00
-5.888973e+00	-3.400000e+00	 1.440340e+00
-5.042563e+00	-4.066025e+00	 1.472973e+00
-5.142563e+00	-3.892820e+00	 1.492516e+00
-5.242563e+00	-3.719615e+00	 1.515933e+00
-5.342563e+00	-3.546410e+00	 1.543225e+00
-5.442563e+00	-3.373205e+00	 1.574391e+00
-5.542563e+00	-3.200000e+00	 1.609431e+00
-4.696152e+00	-3.866025e+00	 1.637147e+00
-4.796152e+00	-3.692820e+00	 1.661701e+00
-4.896152e+00	-3.519615e+00	 1.692568e+00
-4.996152e+00	-3.346410e+00	 1.729748e+00
-5.096152e+00	-3.173205e+00	 1.773242e+00
-5.196152e+00	-3.000000e+00	 1.823049e+00
-3.660254e+00	-1.366025e+01	 1.079408e+00
-4.110254e+00	-1.288083e+01	 1.006159e+00
-4.560254e+00	-1.210141e+01	 9.545209e-01
-5.010254e+00	-1.132199e+01	 9.244049e-01
-5.460254e+00	-1.054256e+01	 9.157204e-01
-5.910254e+00	-9.763140e+00	 9.283775e-01
-3.313844e+00	-1.346025e+01	 1.024017e+00
-3.763844e+00	-1.268083e+01	 9.738121e-01
-4.213844e+00	-1.190141e+01	 9.407099e-01
-4.663844e+00	-1.112199e+01	 9.246199e-01
-5.113844e+00	-1.034256e+01	 9.254522e-01
-5.563844e+00	-9.563140e+00	 9.431169e-01
-2.967434e+00	-1.326025e+01	 9.748166e-01
-3.417434e+00	-1.248083e+01	 9.440509e-01
-3.867434e+00	-1.170141e+01	 9.258782e-01
-4.317434e+00	-1.092199e+01	 9.202085e-01
-4.767434e+00	-1.014256e+01	 9.269518e-01
-5.217434e+00	-9.363140e+00	 9.460183e-01
-2.621024e+00	-1.306025e+01	 9.317947e-01
-3.071024e+00	-1.228083e+01	 9.168620e-01
-3.521024e+00	-1.150141e+01	 9.100131e-01
-3.971024e+00	-1.072199e+01	 9.111579e-01
-4.421024e+00	-9.942563e+00	 9.202066e-01
-4.871024e+00	-9.163140e+00	 9.370691e-01
-2.274613e+00	-1.286025e+01	 8.949382e-01
-2.724613e+00	-1.208083e+01	 8.922328e-01
-3.174613e+00	-1.130141e+01	 8.931019e-01
-3.624613e+00	-1.052199e+01	 8.974554e-01
-4.074613e+00	-9.742563e+00	 9.052036e-01
-4.524613e+00	-8.963140e+00	 9.162563e-01
-1.928203e+00	-1.266025e+01	 8.642344e-01
-2.378203e+00	-1.188083e+01	 8.701504e-01
-2.828203e+00	-1.110141e+01	 8.751317e-01
-3.278203e+00	-1.032199e+01	 8.790883e-01
-3.728203e+00	-9.542563e+00	 8.819301e-01
-4.178203e+00	-8.763140e+00	 8.835673e-01
-5.910254e+00	-9.763140e+00	 9.283775e-01
-6.360254e+00	-8.983717e+00	 9.579247e-01
-6.810254e+00	-8.204294e+00	 9.981170e-01
-7.260254e+00	-7.424871e+00	 1.042143e+00
-7.710254e+00	-6.645448e+00	 1.099398e+00
-8.160254e+00	-5.866025e+00	 1.169881e+00
-5.563844e+00	-9.563140e+00	 9.431169e-01
-6.013844e+00	-8.783717e+00	 9.627924e-01
-6.463844e+00	-8.004294e+00	 9.954798e-01
-6.913844e+00	-7.224871e+00	 1.039970e+00
-7.363844e+00	-6.445448e+00	 1.102915e+00
-7.813844e+00	-5.666025e+00	 1.184317e+00
-5.217434e+00	-9.363140e+00	 9.460183e-01
-5.667434e+00	-8.583717e+00	 9.600442e-01
-6.117434e+00	-7.804294e+00	 9.893169e-01
-6.567434e+00	-7.024871e+00	 1.038497e+00
-7.017434e+00	-6.245448e+00	 1.111362e+00
-7.467434e+00	-5.466025e+00	 1.207910e+00
-4.871024e+00	-9.163140e+00	 9.370691e-01
-5.321024e+00	-8.383717e+00	 9.496672e-01
-5.771024e+00	-7.604294e+00	 9.796285e-01
-6.221024e+00	-6.824871e+00	 1.037727e+00
-6.671024e+00	-6.045448e+00	 1.124737e+00
-7.121024e+00	-5.266025e+00	 1.240658e+00
-4.524613e+00	-8.963140e+00	 9.162563e-01
-4.974613e+00	-8.183717e+00	 9.293103e-01
-5.424613e+00	-7.404294e+00	 9.664145e-01
-5.874613e+00	-6.624871e+00	 1.037658e+00
-6.324613e+00	-5.845448e+00	 1.143040e+00
-6.774613e+00	-5.066025e+00	 1.282562e+00
-4.178203e+00	-8.763140e+00	 8.835673e-01
-4.628203e+00	-7.983717e+00	 9.004264e-01
-5.078203e+00	-7.204294e+00	 9.496749e-01
-5.528203e+00	-6.424871e+00	 1.038290e+00
-5.978203e+00	-5.645448e+00	 1.166273e+00
-6.428203e+00	-4.866025e+00	 1.333622e+00
-1.928203e+00	-1.266025e+01	 8.642344e-01
-2.378203e+00	-1.188083e+01	 8.701504e-01
-2.828203e+00	-1.110141e+01	 8.751317e-01
-3.278203e+00	-1.032199e+01	 8.790883e-01
-3.728203e+00	-9.542563e+00	 8.819301e-01
-4.178203e+00	-8.763140e+00	 8.835673e-01
-1.581793e+00	-1.246025e+01	 8.392095e-01
-2.031793e+00	-1.168083e+01	 8.520704e-01
-2.481793e+00	-1.090141e+01	 8.599626e-01
-2.931793e+00	-1.012199e+01	 8.627962e-01
-3.381793e+00	-9.342563e+00	 8.604813e-01
-3.831793e+00	-8.563140e+00	 8.529278e-01
-1.235383e+00	-1.226025e+01	 8.193901e-01
-1.685383e+00	-1.148083e+01	 8.356361e-01
-2.135383e+00	-1.070141e+01	 8.428797e-01
-2.585383e+00	-9.921985e+00	 8.410308e-01
-3.035383e+00	-9.142563e+00	 8.299994e-01
-3.485383e+00	-8.363140e+00	 8.096956e-01
-8.889727e-01	-1.206025e+01	 8.047632e-01
-1.338973e+00	-1.128083e+01	 8.208349e-01
-1.788973e+00	-1.050141e+01	 8.238701e-01
-2.238973e+00	-9.721985e+00	 8.137790e-01
-2.688973e+00	-8.942563e+00	 7.904716e-01
-3.138973e+00	-8.163140e+00	 7.510071e-01
-5.425626e-01	-1.186025e+01	 7.953162e-01
-9.925626e-01	-1.108083e+01	 8.076538e-01
-1.442563e+00	-1.030141e+01	 8.029212e-01
-1.892563e+00	-9.521985e+00	 7.810283e-01
-2.342563e+00	-8.742563e+00	 7.418852e-01
-2.792563e+00	-7.963140e+00	 6.791531e-01
-1.961524e-01	-1.166025e+01	 7.910362e-01
-6.461524e-01	-1.088083e+01	 7.960802e-01
-1.096152e+00	-1.010141e+01	 7.800201e-01
-1.546152e+00	-9.321985e+00	 7.427658e-01
-1.996152e+00	-8.542563e+00	 6.842275e-01
-2.446152e+00	-7.763140e+00	 5.946282e-01
-4.178203e+00	-8.763140e+00	 8.835673e-01
-4.628203e+00	-7.983717e+00	 9.004264e-01
-5.078203e+00	-7.204294e+00	 9.496749e-01
-5.528203e+00	-6.424871e+00	 1.038290e+00
-5.978203e+00	-5.645448e+00	 1.166273e+00
-6.428203e+00	-4.866025e+00	 1.333622e+00
-3.831793e+00	-8.563140e+00	 8.529278e-01
-4.281793e+00	-7.783717e+00	 8.760397e-01
-4.731793e+00	-7.004294e+00	 9.311804e-01
-5.181793e+00	-6.224871e+00	 1.022125e+00
-5.631793e+00	-5.445448e+00	 1.148874e+00
-6.081793e+00	-4.666025e+00	 1.311427e+00
-3.485383e+00	-8.363140e+00	 8.096956e-01
-3.935383e+00	-7.583717e+00	 8.405325e-01
-4.385383e+00	-6.804294e+00	 9.031156e-01
-4.835383e+00	-6.024871e+00	 9.979399e-01
-5.285383e+00	-5.245448e+00	 1.125005e+00
-5.735383e+00	-4.466025e+00	 1.284312e+00
-3.138973e+00	-8.163140e+00	 7.510071e-01
-3.588973e+00	-7.383717e+00	 7.939048e-01
-4.038973e+00	-6.604294e+00	 8.654806e-01
-4.488973e+00	-5.824871e+00	 9.657347e-01
-4.938973e+00	-5.045448e+00	 1.094667e+00
-5.388973e+00	-4.266025e+00	 1.252277e+00
-2.792563e+00	-7.963140e+00	 6.791531e-01
-3.242563e+00	-7.183717e+00	 7.361566e-01
-3.692563e+00	-6.404294e+00	 8.182754e-01
-4.142563e+00	-5.624871e+00	 9.255095e-01
-4.592563e+00	-4.845448e+00	 1.057859e+00
-5.042563e+00	-4.066025e+00	 1.215323e+00
-2.446152e+00	-7.763140e+00	 5.946282e-01
-2.896152e+00	-6.983717e+00	 6.672879e-01
-3.346152e+00	-6.204294e+00	 7.614999e-01
-3.796152e+00	-5.424871e+00	 8.772643e-01
-4.246152e+00	-4.645448e+00	 1.014581e+00
-4.696152e+00	-3.866025e+00	 1.173450e+00
-1.961524e-01	-1.166025e+01	 7.910362e-01
-6.461524e-01	-1.088083e+01	 7.984639e-01
-1.096152e+00	-1.010141e+01	 7.856204e-01
-1.546152e+00	-9.321985e+00	 7.524158e-01
-1.996152e+00	-8.542563e+00	 6.987600e-01
-2.446152e+00	-7.763140e+00	 6.148764e-01
-2.294734e-02	-1.156025e+01	 7.900907e-01
-4.729473e-01	-1.078083e+01	 7.880445e-01
-9.229473e-01	-1.000141e+01	 7.687151e-01
-1.372947e+00	-9.221985e+00	 7.320125e-01
-1.822947e+00	-8.442563e+00	 6.778469e-01
-2.272947e+00	-7.663140e+00	 5.947114e-01
 1.502577e-01	-1.146025e+01	 7.864219e-01
-2.997423e-01	-1.068083e+01	 7.763955e-01
-7.497423e-01	-9.901408e+00	 7.520739e-01
-1.199742e+00	-9.121985e+00	 7.133671e-01
-1.649742e+00	-8.342563e+00	 6.601852e-01
-2.099742e+00	-7.563140e+00	 5.792864e-01
 3.234628e-01	-1.136025e+01	 7.800284e-01
-1.265372e-01	-1.058083e+01	 7.635154e-01
-5.765372e-01	-9.801408e+00	 7.356953e-01
-1.026537e+00	-9.021985e+00	 6.964779e-01
-1.476537e+00	-8.242563e+00	 6.442080e-01
-1.926537e+00	-7.463140e+00	 5.686015e-01
 4.966679e-01	-1.126025e+01	 7.709085e-01
 4.666790e-02	-1.048083e+01	 7.494027e-01
-4.033321e-01	-9.701408e+00	 7.195776e-01
-8.533321e-01	-8.921985e+00	 6.813434e-01
-1.303332e+00	-8.142563e+00	 6.313168e-01
-1.753332e+00	-7.363140e+00	 5.626566e-01
 6.698730e-01	-1.116025e+01	 7.590606e-01
 2.198730e-01	-1.038083e+01	 7.340556e-01
-2.301270e-01	-9.601408e+00	 7.037193e-01
-6.801270e-01	-8.821985e+00	 6.679618e-01
-1.130127e+00	-8.042563e+00	 6.216707e-01
-1.580127e+00	-7.263140e+00	 5.614517e-01
-2.446152e+00	-7.763140e+00	 6.148764e-01
-2.896152e+00	-6.983717e+00	 6.858831e-01
-3.346152e+00	-6.204294e+00	 7.628723e-01
-3.796152e+00	-5.424871e+00	 8.458438e-01
-4.246152e+00	-4.645448e+00	 9.347977e-01
-4.696152e+00	-3.866025e+00	 1.029734e+00
-2.272947e+00	-7.663140e+00	 5.947114e-01
-2.722947e+00	-6.883717e+00	 6.760663e-01
-3.172947e+00	-6.104294e+00	 7.496030e-01
-3.622947e+00	-5.324871e+00	 8.153215e-01
-4.072947e+00	-4.545448e+00	 8.732217e-01
-4.522947e+00	-3.766025e+00	 9.233037e-01
-2.099742e+00	-7.563140e+00	 5.792864e-01
-2.549742e+00	-6.783717e+00	 6.636392e-01
-2.999742e+00	-6.004294e+00	 7.263731e-01
-3.449742e+00	-5.224871e+00	 7.674882e-01
-3.899742e+00	-4.445448e+00	 7.869844e-01
-4.349742e+00	-3.666025e+00	 7.848618e-01
-1.926537e+00	-7.463140e+00	 5.686015e-01
-2.376537e+00	-6.683717e+00	 6.486018e-01
-2.826537e+00	-5.904294e+00	 6.931826e-01
-3.276537e+00	-5.124871e+00	 7.023439e-01
-3.726537e+00	-4.345448e+00	 6.760858e-01
-4.176537e+00	-3.566025e+00	 6.144083e-01
-1.753332e+00	-7.363140e+00	 5.626566e-01
-2.203332e+00	-6.583717e+00	 6.309540e-01
-2.653332e+00	-5.804294e+00	 6.500314e-01
-3.103332e+00	-5.024871e+00	 6.198887e-01
-3.553332e+00	-4.245448e+00	 5.405260e-01
-4.003332e+00	-3.466025e+00	 4.119431e-01
-1.580127e+00	-7.263140e+00	 5.614517e-01
-2.030127e+00	-6.483717e+00	 6.106960e-01
-2.480127e+00	-5.704294e+00	 5.969196e-01
-2.930127e+00	-4.924871e+00	 5.201226e-01
-3.380127e+00	-4.145448e+00	 3.803048e-01
-3.830127e+00	-3.366025e+00	 1.774664e-01
 6.698730e-01	-1.116025e+01	 7.590606e-01
 2.198730e-01	-1.038083e+01	 7.309988e-01
-2.301270e-01	-9.601408e+00	 6.993145e-01
-6.801270e-01	-8.821985e+00	 6.639177e-01
-1.130127e+00	-8.042563e+00	 6.196958e-01
-1.580127e+00	-7.263140e+00	 5.632548e-01
 8.430781e-01	-1.106025e+01	 7.440439e-01
 3.930781e-01	-1.028083e+01	 7.196528e-01
-5.692194e-02	-9.501408e+00	 6.911619e-01
-5.069219e-01	-8.721985e+00	 6.584814e-01
-9.569219e-01	-7.942563e+00	 6.147692e-01
-1.406922e+00	-7.163140e+00	 5.600800e-01
 1.016283e+00	-1.096025e+01	 7.313491e-01
 5.662831e-01	-1.018083e+01	 7.097270e-01
 1.162831e-01	-9.401408e+00	 6.835280e-01
-3.337169e-01	-8.621985e+00	 6.526621e-01
-7.837169e-01	-7.842563e+00	 6.085596e-01
-1.233717e+00	-7.063140e+00	 5.547218e-01
 1.189488e+00	-1.086025e+01	 7.209744e-01
 7.394882e-01	-1.008083e+01	 7.012197e-01
 2.894882e-01	-9.301408e+00	 6.764110e-01
-1.605118e-01	-8.521985e+00	 6.464582e-01
-6.105118e-01	-7.742563e+00	 6.010668e-01
-1.060512e+00	-6.963140e+00	 5.471801e-01
 1.362693e+00	-1.076025e+01	 7.129184e-01
 9.126933e-01	-9.980831e+00	 6.941295e-01
 4.626933e-01	-9.201408e+00	 6.698093e-01
 1.269330e-02	-8.421985e+00	 6.398681e-01
-4.373067e-01	-7.642563e+00	 5.922910e-01
-8.873067e-01	-6.863140e+00	 5.374551e-01
 1.535898e+00	-1.066025e+01	 7.071793e-01
 1.085898e+00	-9.880831e+00	 6.884546e-01
 6.358984e-01	-9.101408e+00	 6.637215e-01
 1.858984e-01	-8.321985e+00	 6.326945e-01
-2.641016e-01	-7.542563e+00	 5.822320e-01
-7.141016e-01	-6.763140e+00	 5.255466e-01
-1.580127e+00	-7.263140e+00	 5.632548e-01
-2.030127e+00	-6.483717e+00	 6.175920e-01
-2.480127e+00	-5.704294e+00	 6.098296e-01
-2.930127e+00	-4.924871e+00	 5.399675e-01
-3.380127e+00	-4.145448e+00	 4.080058e-01
-3.830127e+00	-3.366025e+00	 2.139445e-01
-1.406922e+00	-7.163140e+00	 5.600800e-01
-1.856922e+00	-6.383717e+00	 5.889270e-01
-2.306922e+00	-5.604294e+00	 5.605277e-01
-2.756922e+00	-4.824871e+00	 4.748820e-01
-3.206922e+00	-4.045448e+00	 3.319900e-01
-3.656922e+00	-3.266025e+00	 1.318516e-01
-1.233717e+00	-7.063140e+00	 5.547218e-01
-1.683717e+00	-6.283717e+00	 5.618799e-01
-2.133717e+00	-5.504294e+00	 5.166449e-01
-2.583717e+00	-4.724871e+00	 4.190169e-01
-3.033717e+00	-3.945448e+00	 2.689958e-01
-3.483717e+00	-3.166025e+00	 6.658168e-02
-1.060512e+00	-6.963140e+00	 5.471801e-01
-1.510512e+00	-6.183717e+00	 5.364506e-01
-1.960512e+00	-5.404294e+00	 4.781813e-01
-2.410512e+00	-4.624871e+00	 3.723722e-01
-2.860512e+00	-3.845448e+00	 2.190233e-01
-3.310512e+00	-3.066025e+00	 1.813468e-02
-8.873067e-01	-6.863140e+00	 5.374551e-01
-1.337307e+00	-6.083717e+00	 5.126391e-01
-1.787307e+00	-5.304294e+00	 4.451367e-01
-2.237307e+00	-4.524871e+00	 3.349479e-01
-2.687307e+00	-3.745448e+00	 1.820725e-01
-3.137307e+00	-2.966025e+00	-1.348940e-02
-7.141016e-01	-6.763140e+00	 5.255466e-01
-1.164102e+00	-5.983717e+00	 4.904456e-01
-1.614102e+00	-5.204294e+00	 4.175113e-01
-2.064102e+00	-4.424871e+00	 3.067439e-01
-2.514102e+00	-3.645448e+00	 1.581433e-01
-2.964102e+00	-2.866025e+00	-2.829054e-02
 1.535898e+00	-1.066025e+01	 7.071793e-01
 1.085898e+00	-9.880831e+00	 6.902580e-01
 6.358984e-01	-9.101408e+00	 6.665832e-01
 1.858984e-01	-8.321985e+00	 6.358696e-01
-2.641016e-01	-7.542563e+00	 5.849755e-01
-7.141016e-01	-6.763140e+00	 5.271134e-01
 1.882309e+00	-1.046025e+01	 7.037207e-01
 1.432309e+00	-9.680831e+00	 6.830664e-01
 9.823085e-01	-8.901408e+00	 6.558402e-01
 5.323085e-01	-8.121985e+00	 6.183241e-01
 8.230855e-02	-7.342563e+00	 5.642722e-01
-3.676915e-01	-6.563140e+00	 5.033968e-01
 2.228719e+00	-1.026025e+01	 7.019733e-01
 1.778719e+00	-9.480831e+00	 6.791165e-01
 1.328719e+00	-8.701408e+00	 6.498692e-01
 8.787187e-01	-7.921985e+00	 6.071203e-01
 4.287187e-01	-7.142563e+00	 5.514461e-01
-2.128129e-02	-6.363140e+00	 4.890930e-01
 2.575129e+00	-1.006025e+01	 7.019244e-01
 2.125129e+00	-9.280831e+00	 6.783954e-01
 1.675129e+00	-8.501408e+00	 6.486575e-01
 1.225129e+00	-7.721985e+00	 6.022583e-01
 7.751289e-01	-6.942563e+00	 5.464973e-01
 3.251289e-01	-6.163140e+00	 4.842019e-01
 2.921539e+00	-9.860254e+00	 7.035611e-01
 2.471539e+00	-9.080831e+00	 6.808904e-01
 2.021539e+00	-8.301408e+00	 6.516606e-01
 1.571539e+00	-7.521985e+00	 6.037380e-01
 1.121539e+00	-6.742563e+00	 5.494257e-01
 6.715390e-01	-5.963140e+00	 4.887236e-01
 3.267949e+00	-9.660254e+00	 7.068708e-01
 2.817949e+00	-8.880831e+00	 6.865886e-01
 2.367949e+00	-8.101408e+00	 6.566424e-01
 1.917949e+00	-7.321985e+00	 6.115595e-01
 1.467949e+00	-6.542563e+00	 5.602314e-01
 1.017949e+00	-5.763140e+00	 5.026581e-01
-7.141016e-01	-6.763140e+00	 5.271134e-01
-1.164102e+00	-5.983717e+00	 4.921282e-01
-1.614102e+00	-5.204294e+00	 4.226394e-01
-2.064102e+00	-4.424871e+00	 3.186470e-01
-2.514102e+00	-3.645448e+00	 1.801512e-01
-2.964102e+00	-2.866025e+00	 7.151804e-03
-3.676915e-01	-6.563140e+00	 5.033968e-01
-8.176915e-01	-5.783717e+00	 4.657079e-01
-1.267691e+00	-5.004294e+00	 3.931156e-01
-1.717691e+00	-4.224871e+00	 2.856201e-01
-2.167691e+00	-3.445448e+00	 1.432213e-01
-2.617691e+00	-2.666025e+00	-3.408084e-02
-2.128129e-02	-6.363140e+00	 4.890930e-01
-4.712813e-01	-5.583717e+00	 4.503153e-01
-9.212813e-01	-4.804294e+00	 3.762346e-01
-1.371281e+00	-4.024871e+00	 2.668509e-01
-1.821281e+00	-3.245448e+00	 1.221641e-01
-2.271281e+00	-2.466025e+00	-5.782573e-02
 3.251289e-01	-6.163140e+00	 4.842019e-01
-1.248711e-01	-5.383717e+00	 4.459506e-01
-5.748711e-01	-4.604294e+00	 3.719964e-01
-1.024871e+00	-3.824871e+00	 2.623394e-01
-1.474871e+00	-3.045448e+00	 1.169797e-01
-1.924871e+00	-2.266025e+00	-6.408289e-02
 6.715390e-01	-5.963140e+00	 4.887236e-01
 2.215390e-01	-5.183717e+00	 4.526136e-01
-2.284610e-01	-4.404294e+00	 3.804009e-01
-6.784610e-01	-3.624871e+00	 2.720857e-01
-1.128461e+00	-2.845448e+00	 1.276680e-01
-1.578461e+00	-2.066025e+00	-5.285230e-02
 1.017949e+00	-5.763140e+00	 5.026581e-01
 5.679492e-01	-4.983717e+00	 4.703043e-01
 1.179492e-01	-4.204294e+00	 4.014482e-01
-3.320508e-01	-3.424871e+00	 2.960898e-01
-7.820508e-01	-2.645448e+00	 1.542291e-01
-1.232051e+00	-1.866025e+00	-2.413396e-02
 3.267949e+00	-9.660254e+00	 7.068708e-01
 2.817949e+00	-8.880831e+00	 6.865886e-01
 2.367949e+00	-8.101408e+00	 6.566424e-01
 1.917949e+00	-7.321985e+00	 6.115595e-01
 1.467949e+00	-6.542563e+00	 5.602314e-01
 1.017949e+00	-5.763140e+00	 5.026581e-01
 3.614359e+00	-9.460254e+00	 7.125161e-01
 3.164359e+00	-8.680831e+00	 6.930307e-01
 2.714359e+00	-7.901408e+00	 6.609354e-01
 2.264359e+00	-7.121985e+00	 6.172533e-01
 1.814359e+00	-6.342563e+00	 5.675446e-01
 1.364359e+00	-5.563140e+00	 5.118090e-01
 3.960770e+00	-9.260254e+00	 7.211595e-01
 3.510770e+00	-8.480831e+00	 7.036371e-01
 3.060770e+00	-7.701408e+00	 6.706570e-01
 2.610770e+00	-6.921985e+00	 6.295471e-01
 2.160770e+00	-6.142563e+00	 5.826290e-01
 1.710770e+00	-5.363140e+00	 5.299025e-01
 4.307180e+00	-9.060254e+00	 7.327884e-01
 3.857180e+00	-8.280831e+00	 7.175838e-01
 3.407180e+00	-7.501408e+00	 6.858073e-01
 2.957180e+00	-6.721985e+00	 6.484409e-01
 2.507180e+00	-5.942563e+00	 6.054847e-01
 2.057180e+00	-5.163140e+00	 5.569386e-01
 4.653590e+00	-8.860254e+00	 7.473900e-01
 4.203590e+00	-8.080831e+00	 7.334665e-01
 3.753590e+00	-7.301408e+00	 7.063863e-01
 3.303590e+00	-6.521985e+00	 6.739347e-01
 2.853590e+00	-5.742563e+00	 6.361117e-01
 2.403590e+00	-4.963140e+00	 5.929173e-01
 5.000000e+00	-8.660254e+00	 7.649514e-01
 4.550000e+00	-7.880831e+00	 7.536064e-01
 4.100000e+00	-7.101408e+00	 7.323939e-01
 3.650000e+00	-6.321985e+00	 7.060284e-01
 3.200000e+00	-5.542563e+00	 6.745100e-01
 2.750000e+00	-4.763140e+00	 6.378386e-01
 1.017949e+00	-5.763140e+00	 5.026581e-01
 5.679492e-01	-4.983717e+00	 4.703043e-01
 1.179492e-01	-4.204294e+00	 4.014482e-01
-3.320508e-01	-3.424871e+00	 2.960898e-01
-7.820508e-01	-2.645448e+00	 1.542291e-01
-1.232051e+00	-1.866025e+00	-2.413396e-02
 1.364359e+00	-5.563140e+00	 5.118090e-01
 9.143594e-01	-4.783717e+00	 4.810077e-01
 4.643594e-01	-4.004294e+00	 4.146024e-01
 1.435935e-02	-3.224871e+00	 3.125932e-01
-4.356406e-01	-2.445448e+00	 1.749801e-01
-8.856406e-01	-1.666025e+00	 1.762974e-03
 1.710770e+00	-5.363140e+00	 5.299025e-01
 1.260770e+00	-4.583717e+00	 4.985479e-01
 8.107695e-01	-3.804294e+00	 4.324878e-01
 3.607695e-01	-3.024871e+00	 3.317221e-01
-8.923048e-02	-2.245448e+00	 1.962508e-01
-5.392305e-01	-1.466025e+00	 2.607398e-02
 2.057180e+00	-5.163140e+00	 5.569386e-01
 1.607180e+00	-4.383717e+00	 5.229251e-01
 1.157180e+00	-3.604294e+00	 4.551044e-01
 7.071797e-01	-2.824871e+00	 3.534764e-01
 2.571797e-01	-2.045448e+00	 2.180413e-01
-1.928203e-01	-1.266025e+00	 4.879905e-02
 2.403590e+00	-4.963140e+00	 5.929173e-01
 1.953590e+00	-4.183717e+00	 5.541391e-01
 1.503590e+00	-3.404294e+00	 4.824521e-01
 1.053590e+00	-2.624871e+00	 3.778563e-01
 6.035898e-01	-1.845448e+00	 2.403517e-01
 1.535898e-01	-1.066025e+00	 6.993819e-02
 2.750000e+00	-4.763140e+00	 6.378386e-01
 2.300000e+00	-3.983717e+00	 5.921901e-01
 1.850000e+00	-3.204294e+00	 5.145311e-01
 1.400000e+00	-2.424871e+00	 4.048616e-01
 9.500000e-01	-1.645448e+00	 2.631817e-01
 5.000000e-01	-8.660254e-01	 8.949139e-02
-2.964102e+00	-2.866025e+00	 1.353583e-02
-3.064102e+00	-2.692820e+00	-6.598708e-03
-3.164102e+00	-2.519615e+00	-3.951793e-02
-3.264102e+00	-2.346410e+00	-8.522183e-02
-3.364102e+00	-2.173205e+00	-1.437104e-01
-3.464102e+00	-2.000000e+00	-2.149837e-01
-2.617691e+00	-2.666025e+00	 1.049734e-02
-2.717691e+00	-2.492820e+00	-2.174631e-02
-2.817691e+00	-2.319615e+00	-6.395799e-02
-2.917691e+00	-2.146410e+00	-1.161377e-01
-3.017691e+00	-1.973205e+00	-1.782855e-01
-3.117691e+00	-1.800000e+00	-2.504013e-01
-2.271281e+00	-2.466025e+00	 1.236271e-02
-2.371281e+00	-2.292820e+00	-2.804191e-02
-2.471281e+00	-2.119615e+00	-7.559794e-02
-2.571281e+00	-1.946410e+00	-1.303054e-01
-2.671281e+00	-1.773205e+00	-1.921642e-01
-2.771281e+00	-1.600000e+00	-2.611744e-01
-1.924871e+00	-2.266025e+00	 1.913195e-02
-2.024871e+00	-2.092820e+00	-2.548553e-02
-2.124871e+00	-1.919615e+00	-7.443778e-02
-2.224871e+00	-1.746410e+00	-1.277248e-01
-2.324871e+00	-1.573205e+00	-1.853466e-01
-2.424871e+00	-1.400000e+00	-2.473031e-01
-1.578461e+00	-2.066025e+00	 3.080505e-02
-1.678461e+00	-1.892820e+00	-1.407716e-02
-1.778461e+00	-1.719615e+00	-6.047750e-02
-1.878461e+00	-1.546410e+00	-1.083960e-01
-1.978461e+00	-1.373205e+00	-1.578325e-01
-2.078461e+00	-1.200000e+00	-2.087872e-01
-1.232051e+00	-1.866025e+00	 4.738202e-02
-1.332051e+00	-1.692820e+00	 6.183203e-03
-1.432051e+00	-1.519615e+00	-3.371710e-02
-1.532051e+00	-1.346410e+00	-7.231888e-02
-1.632051e+00	-1.173205e+00	-1.096222e-01
-1.732051e+00	-1.000000e+00	-1.456269e-01
-1.232051e+00	-1.866025e+00	 4.738202e-02
-1.332051e+00	-1.692820e+00	 6.183203e-03
-1.432051e+00	-1.519615e+00	-3.371710e-02
-1.532051e+00	-1.346410e+00	-7.231888e-02
-1.632051e+00	-1.173205e+00	-1.096222e-01
-1.732051e+00	-1.000000e+00	-1.456269e-01
-8.856406e-01	-1.666025e+00	 5.624520e-02
-9.856406e-01	-1.492820e+00	 1.581885e-02
-1.085641e+00	-1.319615e+00	-2.400544e-02
-1.185641e+00	-1.146410e+00	-6.322767e-02
-1.285641e+00	-9.732051e-01	-1.018478e-01
-1.385641e+00	-8.000000e-01	-1.398659e-01
-5.392305e-01	-1.466025e+00	 6.632157e-02
-6.392305e-01	-1.292820e+00	 2.680031e-02
-7.392305e-01	-1.119615e+00	-1.281533e-02
-8.392305e-01	-9.464102e-01	-5.252535e-02
-9.392305e-01	-7.732051e-01	-9.232975e-02
-1.039230e+00	-6.000000e-01	-1.322285e-01
-1.928203e-01	-1.266025e+00	 7.761112e-02
-2.928203e-01	-1.092820e+00	 3.912759e-02
-3.928203e-01	-9.196152e-01	-1.467564e-04
-4.928203e-01	-7.464102e-01	-4.021194e-02
-5.928203e-01	-5.732051e-01	-8.106794e-02
-6.928203e-01	-4.000000e-01	-1.227148e-01
 1.535898e-01	-1.066025e+00	 9.011384e-02
 5.358984e-02	-8.928203e-01	 5.280070e-02
-4.641016e-02	-7.196152e-01	 1.400028e-02
-1.464102e-01	-5.464102e-01	-2.628742e-02
-2.464102e-01	-3.732051e-01	-6.806239e-02
-3.464102e-01	-2.000000e-01	-1.113246e-01
 5.000000e-01	-8.660254e-01	 1.038297e-01
 4.000000e-01	-6.928203e-01	 6.781962e-02
 3.000000e-01	-5.196152e-01	 2.962577e-02
 2.000000e-01	-3.464102e-01	-1.075180e-02
 1.000000e-01	-1.732051e-01	-5.331310e-02
 0.000000e+00	 0.000000e+00	-9.805812e-02
