patch_n	x	y	stress_yy
0	 0.000000000000000e+00	 0.000000000000000e+00	 7.137700866388947e-01
0	 0.000000000000000e+00	 1.428571428571429e-01	 3.469013381601015e+00
0	 0.000000000000000e+00	 2.857142857142858e-01	 6.073157383192014e+00
0	 0.000000000000000e+00	 4.285714285714287e-01	 8.490500522840840e+00
0	 0.000000000000000e+00	 5.714285714285714e-01	 1.068534123197646e+01
0	 0.000000000000000e+00	 7.142857142857144e-01	 1.262197794202782e+01
0	 0.000000000000000e+00	 8.571428571428573e-01	 1.426470908442388e+01
0	 0.000000000000000e+00	 1.000000000000000e+00	 1.557783309059360e+01
0	 0.000000000000000e+00	 1.142857142857143e+00	 1.652564839196594e+01
0	 0.000000000000000e+00	 1.285714285714286e+00	 1.707245341996985e+01
0	 0.000000000000000e+00	 1.428571428571429e+00	 1.718254660603429e+01
0	 1.428571428571429e-01	 0.000000000000000e+00	-2.289503900806084e+00
0	 1.428571428571429e-01	 1.428571428571429e-01	 1.661935254064552e+00
0	 1.428571428571429e-01	 2.857142857142858e-01	 5.251968476760752e+00
0	 1.428571428571429e-01	 4.285714285714287e-01	 8.452287285675073e+00
0	 1.428571428571429e-01	 5.714285714285714e-01	 1.123458319920007e+01
0	 1.428571428571429e-01	 7.142857142857145e-01	 1.357054773572831e+01
0	 1.428571428571429e-01	 8.571428571428573e-01	 1.543187241365233e+01
0	 1.428571428571430e-01	 1.000000000000001e+00	 1.679024875136471e+01
0	 1.428571428571429e-01	 1.142857142857143e+00	 1.761736826725799e+01
0	 1.428571428571428e-01	 1.285714285714286e+00	 1.788492247972476e+01
0	 1.428571428571429e-01	 1.428571428571429e+00	 1.756460290715754e+01
0	 2.857142857142858e-01	 0.000000000000000e+00	-4.080740917495667e+00
0	 2.857142857142856e-01	 1.428571428571429e-01	 6.375415319656590e-01
0	 2.857142857142858e-01	 2.857142857142859e-01	 4.847445596796984e+00
0	 2.857142857142858e-01	 4.285714285714287e-01	 8.527354858818967e+00
0	 2.857142857142858e-01	 5.714285714285715e-01	 1.165565289985227e+01
0	 2.857142857142856e-01	 7.142857142857144e-01	 1.421072330171756e+01
0	 2.857142857142858e-01	 8.571428571428574e-01	 1.617094964623550e+01
0	 2.857142857142856e-01	 1.000000000000000e+00	 1.751471551522673e+01
0	 2.857142857142857e-01	 1.142857142857143e+00	 1.822040449051193e+01
0	 2.857142857142858e-01	 1.285714285714286e+00	 1.826640015391177e+01
0	 2.857142857142858e-01	 1.428571428571428e+00	 1.763108608724688e+01
0	 4.285714285714287e-01	 0.000000000000000e+00	-4.828002853903820e+00
0	 4.285714285714287e-01	 1.428571428571430e-01	 2.850393785469714e-01
0	 4.285714285714287e-01	 2.857142857142856e-01	 4.798169676103896e+00
0	 4.285714285714288e-01	 4.285714285714287e-01	 8.695762660480222e+00
0	 4.285714285714289e-01	 5.714285714285716e-01	 1.196219295338920e+01
0	 4.285714285714288e-01	 7.142857142857143e-01	 1.458183517654411e+01
0	 4.285714285714288e-01	 8.571428571428573e-01	 1.653906395165824e+01
0	 4.285714285714287e-01	 1.000000000000000e+00	 1.781825390044481e+01
0	 4.285714285714288e-01	 1.142857142857143e+00	 1.840377964461713e+01
0	 4.285714285714288e-01	 1.285714285714286e+00	 1.828001580588843e+01
0	 4.285714285714287e-01	 1.428571428571429e+00	 1.743133700597201e+01
0	 5.714285714285714e-01	 0.000000000000000e+00	-4.699351600504523e+00
0	 5.714285714285714e-01	 1.428571428571429e-01	 4.936359570511297e-01
0	 5.714285714285715e-01	 2.857142857142858e-01	 5.042721647484685e+00
0	 5.714285714285715e-01	 4.285714285714287e-01	 8.937570108866517e+00
0	 5.714285714285717e-01	 5.714285714285716e-01	 1.216784597926699e+01
0	 5.714285714285715e-01	 7.142857142857145e-01	 1.472321389675650e+01
0	 5.714285714285715e-01	 8.571428571428573e-01	 1.659333849940541e+01
0	 5.714285714285714e-01	 1.000000000000000e+00	 1.776788442528410e+01
0	 5.714285714285715e-01	 1.142857142857143e+00	 1.823651631246294e+01
0	 5.714285714285714e-01	 1.285714285714286e+00	 1.798889879901230e+01
0	 5.714285714285715e-01	 1.428571428571429e+00	 1.701469652300257e+01
0	 7.142857142857144e-01	 0.000000000000000e+00	-3.862849047771737e+00
0	 7.142857142857144e-01	 1.428571428571429e-01	 1.152538430720772e+00
0	 7.142857142857143e-01	 2.857142857142857e-01	 5.519682443742537e+00
0	 7.142857142857144e-01	 4.285714285714287e-01	 9.232836622185545e+00
0	 7.142857142857145e-01	 5.714285714285716e-01	 1.228625459694179e+01
0	 7.142857142857145e-01	 7.142857142857145e-01	 1.467418999890324e+01
0	 7.142857142857143e-01	 8.571428571428574e-01	 1.639089645896189e+01
0	 7.142857142857142e-01	 1.000000000000000e+00	 1.743062760800973e+01
0	 7.142857142857145e-01	 1.142857142857143e+00	 1.778763707693874e+01
0	 7.142857142857143e-01	 1.285714285714286e+00	 1.745617849664091e+01
0	 7.142857142857142e-01	 1.428571428571429e+00	 1.643050549800823e+01
0	 8.571428571428573e-01	 0.000000000000000e+00	-2.486557086179435e+00
0	 8.571428571428574e-01	 1.428571428571429e-01	 2.150953962798538e+00
0	 8.571428571428575e-01	 2.857142857142858e-01	 6.167632997680651e+00
0	 8.571428571428572e-01	 4.285714285714287e-01	 9.561621618645006e+00
0	 8.571428571428575e-01	 5.714285714285717e-01	 1.233106142586971e+01
0	 8.571428571428574e-01	 7.142857142857143e-01	 1.447409401953285e+01
0	 8.571428571428575e-01	 8.571428571428575e-01	 1.598886099981253e+01
0	 8.571428571428574e-01	 1.000000000000000e+00	 1.687350396688686e+01
0	 8.571428571428573e-01	 1.142857142857143e+00	 1.712616452093392e+01
0	 8.571428571428574e-01	 1.285714285714286e+00	 1.674498426213182e+01
0	 8.571428571428573e-01	 1.428571428571428e+00	 1.572810479065867e+01
0	 1.000000000000000e+00	 0.000000000000000e+00	-7.385376062015911e-01
0	 1.000000000000001e+00	 1.428571428571429e-01	 3.378089716527057e+00
0	 1.000000000000000e+00	 2.857142857142857e-01	 6.925154242102211e+00
0	 1.000000000000000e+00	 4.285714285714287e-01	 9.903984516452590e+00
0	 1.000000000000000e+00	 5.714285714285715e-01	 1.231590908550690e+01
0	 1.000000000000000e+00	 7.142857142857145e-01	 1.416225649519387e+01
0	 1.000000000000000e+00	 8.571428571428573e-01	 1.544435529144221e+01
0	 1.000000000000000e+00	 1.000000000000000e+00	 1.616353402018063e+01
0	 1.000000000000000e+00	 1.142857142857143e+00	 1.632112122733785e+01
0	 1.000000000000000e+00	 1.285714285714286e+00	 1.591844545884258e+01
0	 1.000000000000000e+00	 1.428571428571429e+00	 1.495683526062355e+01
0	 1.142857142857143e+00	 0.000000000000000e+00	 1.213147501687827e+00
0	 1.142857142857143e+00	 1.428571428571429e-01	 4.723152855148978e+00
0	 1.142857142857143e+00	 2.857142857142858e-01	 7.730827109810420e+00
0	 1.142857142857143e+00	 4.285714285714288e-01	 1.023998473381598e+01
0	 1.142857142857143e+00	 5.714285714285715e-01	 1.225444019530950e+01
0	 1.142857142857143e+00	 7.142857142857144e-01	 1.377800796243484e+01
0	 1.142857142857143e+00	 8.571428571428574e-01	 1.481450250333579e+01
0	 1.142857142857143e+00	 1.000000000000000e+00	 1.536773828615620e+01
0	 1.142857142857143e+00	 1.142857142857143e+00	 1.544152977903991e+01
0	 1.142857142857143e+00	 1.285714285714286e+00	 1.503969145013074e+01
0	 1.142857142857143e+00	 1.428571428571429e+00	 1.416603776757254e+01
0	 1.285714285714286e+00	 0.000000000000000e+00	 3.200436347014851e+00
0	 1.285714285714286e+00	 1.428571428571429e-01	 6.075350541906929e+00
0	 1.285714285714286e+00	 2.857142857142858e-01	 8.523232533608457e+00
0	 1.285714285714286e+00	 4.285714285714287e-01	 1.054968168894288e+01
0	 1.285714285714286e+00	 5.714285714285715e-01	 1.216029737473366e+01
0	 1.285714285714286e+00	 7.142857142857145e-01	 1.336067895780426e+01
0	 1.285714285714286e+00	 8.571428571428575e-01	 1.415642580497812e+01
0	 1.285714285714286e+00	 1.000000000000000e+00	 1.455313728307870e+01
0	 1.285714285714286e+00	 1.142857142857143e+00	 1.455641275892945e+01
0	 1.285714285714286e+00	 1.285714285714286e+00	 1.417185159935384e+01
0	 1.285714285714286e+00	 1.428571428571429e+00	 1.340505317117532e+01
0	 1.428571428571429e+00	 0.000000000000000e+00	 5.055267039305500e+00
0	 1.428571428571429e+00	 1.428571428571429e-01	 7.323889940043552e+00
0	 1.428571428571429e+00	 2.857142857142858e-01	 9.240951446299519e+00
0	 1.428571428571429e+00	 4.285714285714287e-01	 1.081313480004097e+01
0	 1.428571428571429e+00	 5.714285714285715e-01	 1.204712324323550e+01
0	 1.428571428571429e+00	 7.142857142857143e-01	 1.294960001785068e+01
0	 1.428571428571429e+00	 8.571428571428572e-01	 1.352724836585409e+01
0	 1.428571428571429e+00	 1.000000000000000e+00	 1.378675152921329e+01
0	 1.428571428571429e+00	 1.142857142857143e+00	 1.373479274989589e+01
0	 1.428571428571429e+00	 1.285714285714286e+00	 1.337805526986945e+01
0	 1.428571428571429e+00	 1.428571428571429e+00	 1.272322233110154e+01
0	 0.000000000000000e+00	 1.428571428571429e+00	 1.718254660603429e+01
0	 0.000000000000000e+00	 1.571428571428572e+00	 1.698654062047537e+01
0	 0.000000000000000e+00	 1.714285714285714e+00	 1.664825772727211e+01
0	 0.000000000000000e+00	 1.857142857142858e+00	 1.618181074834782e+01
0	 0.000000000000000e+00	 2.000000000000001e+00	 1.560131250562578e+01
0	 0.000000000000000e+00	 2.142857142857144e+00	 1.492087582102930e+01
0	 0.000000000000000e+00	 2.285714285714286e+00	 1.415461351648166e+01
0	 0.000000000000000e+00	 2.428571428571430e+00	 1.331663841390619e+01
0	 0.000000000000000e+00	 2.571428571428572e+00	 1.242106333522616e+01
0	 0.000000000000000e+00	 2.714285714285715e+00	 1.148200110236488e+01
0	 0.000000000000000e+00	 2.857142857142857e+00	 1.051356453724563e+01
0	 1.428571428571429e-01	 1.428571428571429e+00	 1.756460290715754e+01
0	 1.428571428571430e-01	 1.571428571428572e+00	 1.691144175137384e+01
0	 1.428571428571429e-01	 1.714285714285715e+00	 1.620668908216642e+01
0	 1.428571428571429e-01	 1.857142857142858e+00	 1.546136321989060e+01
0	 1.428571428571429e-01	 2.000000000000000e+00	 1.468648248490175e+01
0	 1.428571428571429e-01	 2.142857142857143e+00	 1.389306519755524e+01
0	 1.428571428571429e-01	 2.285714285714286e+00	 1.309212967820640e+01
0	 1.428571428571429e-01	 2.428571428571429e+00	 1.229469424721062e+01
0	 1.428571428571429e-01	 2.571428571428573e+00	 1.151177722492324e+01
0	 1.428571428571429e-01	 2.714285714285716e+00	 1.075439693169963e+01
0	 1.428571428571429e-01	 2.857142857142858e+00	 1.003357168789515e+01
0	 2.857142857142858e-01	 1.428571428571428e+00	 1.763108608724688e+01
0	 2.857142857142856e-01	 1.571428571428572e+00	 1.665438174615583e+01
0	 2.857142857142859e-01	 1.714285714285715e+00	 1.569610502145304e+01
0	 2.857142857142858e-01	 1.857142857142858e+00	 1.476448714772303e+01
0	 2.857142857142858e-01	 2.000000000000000e+00	 1.386775935955033e+01
0	 2.857142857142857e-01	 2.142857142857144e+00	 1.301415289151945e+01
0	 2.857142857142858e-01	 2.285714285714286e+00	 1.221189897821492e+01
0	 2.857142857142858e-01	 2.428571428571430e+00	 1.146922885422125e+01
0	 2.857142857142857e-01	 2.571428571428573e+00	 1.079437375412296e+01
0	 2.857142857142858e-01	 2.714285714285716e+00	 1.019556491250457e+01
0	 2.857142857142858e-01	 2.857142857142858e+00	 9.681033563950601e+00
0	 4.285714285714287e-01	 1.428571428571429e+00	 1.743133700597201e+01
0	 4.285714285714287e-01	 1.571428571428572e+00	 1.624808931083378e+01
0	 4.285714285714288e-01	 1.714285714285714e+00	 1.513487008170468e+01
0	 4.285714285714287e-01	 1.857142857142858e+00	 1.409743088319551e+01
0	 4.285714285714288e-01	 2.000000000000000e+00	 1.314152327991704e+01
0	 4.285714285714289e-01	 2.142857142857144e+00	 1.227289883648001e+01
0	 4.285714285714288e-01	 2.285714285714287e+00	 1.149730911749527e+01
0	 4.285714285714287e-01	 2.428571428571431e+00	 1.082050568757354e+01
0	 4.285714285714287e-01	 2.571428571428573e+00	 1.024824011132562e+01
0	 4.285714285714286e-01	 2.714285714285714e+00	 9.786263953362273e+00
0	 4.285714285714287e-01	 2.857142857142858e+00	 9.440328778294308e+00
0	 5.714285714285715e-01	 1.428571428571429e+00	 1.701469652300257e+01
0	 5.714285714285714e-01	 1.571428571428571e+00	 1.572529315142018e+01
0	 5.714285714285714e-01	 1.714285714285714e+00	 1.454134879949409e+01
0	 5.714285714285715e-01	 1.857142857142858e+00	 1.346644277765845e+01
0	 5.714285714285715e-01	 2.000000000000000e+00	 1.250415439634737e+01
0	 5.714285714285715e-01	 2.142857142857144e+00	 1.165806296599500e+01
0	 5.714285714285715e-01	 2.285714285714286e+00	 1.093174779703548e+01
0	 5.714285714285714e-01	 2.428571428571429e+00	 1.032878819990293e+01
0	 5.714285714285714e-01	 2.571428571428572e+00	 9.852763485031506e+00
0	 5.714285714285714e-01	 2.714285714285714e+00	 9.507252962855340e+00
0	 5.714285714285715e-01	 2.857142857142858e+00	 9.295835943808557e+00
0	 7.142857142857142e-01	 1.428571428571429e+00	 1.643050549800823e+01
0	 7.142857142857143e-01	 1.571428571428572e+00	 1.511872197392752e+01
0	 7.142857142857146e-01	 1.714285714285715e+00	 1.393390571139398e+01
0	 7.142857142857143e-01	 1.857142857142858e+00	 1.287777118246223e+01
0	 7.142857142857143e-01	 2.000000000000000e+00	 1.195203285918685e+01
0	 7.142857142857144e-01	 2.142857142857144e+00	 1.115840521362244e+01
0	 7.142857142857142e-01	 2.285714285714287e+00	 1.049860271782358e+01
0	 7.142857142857146e-01	 2.428571428571430e+00	 9.974339843844882e+00
0	 7.142857142857142e-01	 2.571428571428572e+00	 9.587331063740937e+00
0	 7.142857142857143e-01	 2.714285714285715e+00	 9.339290849566318e+00
0	 7.142857142857143e-01	 2.857142857142858e+00	 9.231933673375641e+00
0	 8.571428571428573e-01	 1.428571428571428e+00	 1.572810479065867e+01
0	 8.571428571428571e-01	 1.571428571428571e+00	 1.446110448436826e+01
0	 8.571428571428572e-01	 1.714285714285715e+00	 1.333090535397707e+01
0	 8.571428571428574e-01	 1.857142857142858e+00	 1.233766444895726e+01
0	 8.571428571428573e-01	 2.000000000000000e+00	 1.148153881878099e+01
0	 8.571428571428574e-01	 2.142857142857144e+00	 1.076268551292039e+01
0	 8.571428571428574e-01	 2.285714285714287e+00	 1.018126158084763e+01
0	 8.571428571428573e-01	 2.428571428571430e+00	 9.737424072034850e+00
0	 8.571428571428573e-01	 2.571428571428572e+00	 9.431330035954193e+00
0	 8.571428571428574e-01	 2.714285714285715e+00	 9.263136522077815e+00
0	 8.571428571428573e-01	 2.857142857142857e+00	 9.233000579877864e+00
0	 1.000000000000000e+00	 1.428571428571429e+00	 1.495683526062355e+01
0	 1.000000000000000e+00	 1.571428571428572e+00	 1.378516938875487e+01
0	 1.000000000000000e+00	 1.714285714285714e+00	 1.275071226381606e+01
0	 1.000000000000000e+00	 1.857142857142858e+00	 1.185237092849393e+01
0	 1.000000000000001e+00	 2.000000000000001e+00	 1.108905242547529e+01
0	 1.000000000000000e+00	 2.142857142857143e+00	 1.045966379744692e+01
0	 1.000000000000000e+00	 2.285714285714286e+00	 9.963112087095645e+00
0	 1.000000000000000e+00	 2.428571428571430e+00	 9.598304337108267e+00
0	 1.000000000000000e+00	 2.571428571428573e+00	 9.364147590171582e+00
0	 1.000000000000000e+00	 2.714285714285715e+00	 9.259548888972393e+00
0	 1.000000000000000e+00	 2.857142857142857e+00	 9.283415276197518e+00
0	 1.142857142857143e+00	 1.428571428571429e+00	 1.416603776757254e+01
0	 1.142857142857143e+00	 1.571428571428572e+00	 1.312364539309985e+01
0	 1.142857142857143e+00	 1.714285714285714e+00	 1.221169097748371e+01
0	 1.142857142857143e+00	 1.857142857142858e+00	 1.142813897242265e+01
0	 1.142857142857143e+00	 2.000000000000001e+00	 1.077095382961526e+01
0	 1.142857142857143e+00	 2.142857142857143e+00	 1.023810000076008e+01
0	 1.142857142857143e+00	 2.285714285714286e+00	 9.827541937555674e+00
0	 1.142857142857143e+00	 2.428571428571429e+00	 9.537244091700597e+00
0	 1.142857142857143e+00	 2.571428571428573e+00	 9.365170914893401e+00
0	 1.142857142857143e+00	 2.714285714285714e+00	 9.309286858832650e+00
0	 1.142857142857143e+00	 2.857142857142858e+00	 9.367556375216909e+00
0	 1.285714285714286e+00	 1.428571428571429e+00	 1.340505317117532e+01
0	 1.285714285714286e+00	 1.571428571428572e+00	 1.250926120341568e+01
0	 1.285714285714286e+00	 1.714285714285714e+00	 1.173220603155270e+01
0	 1.285714285714286e+00	 1.857142857142858e+00	 1.107121693209382e+01
0	 1.285714285714286e+00	 2.000000000000000e+00	 1.052362318154642e+01
0	 1.285714285714286e+00	 2.142857142857144e+00	 1.008675405641793e+01
0	 1.285714285714286e+00	 2.285714285714286e+00	 9.757938833215739e+00
0	 1.285714285714286e+00	 2.428571428571430e+00	 9.534506788447274e+00
0	 1.285714285714286e+00	 2.571428571428572e+00	 9.413787198619941e+00
0	 1.285714285714286e+00	 2.714285714285715e+00	 9.393109340241159e+00
0	 1.285714285714286e+00	 2.857142857142858e+00	 9.469802489818322e+00
0	 1.428571428571429e+00	 1.428571428571429e+00	 1.272322233110154e+01
0	 1.428571428571429e+00	 1.571428571428572e+00	 1.197474552571482e+01
0	 1.428571428571429e+00	 1.714285714285715e+00	 1.133062196259580e+01
0	 1.428571428571429e+00	 1.857142857142857e+00	 1.078785315885784e+01
0	 1.428571428571429e+00	 2.000000000000000e+00	 1.034344063161428e+01
0	 1.428571428571429e+00	 2.142857142857144e+00	 9.994385897978516e+00
0	 1.428571428571429e+00	 2.285714285714286e+00	 9.737690475063895e+00
0	 1.428571428571429e+00	 2.428571428571429e+00	 9.570355879983772e+00
0	 1.428571428571429e+00	 2.571428571428573e+00	 9.489383629851517e+00
0	 1.428571428571429e+00	 2.714285714285715e+00	 9.491775241780491e+00
0	 1.428571428571429e+00	 2.857142857142857e+00	 9.574532232884051e+00
0	 0.000000000000000e+00	 2.857142857142857e+00	 1.051356453724563e+01
0	 0.000000000000000e+00	 3.000000000000001e+00	 9.630492621455875e+00
0	 0.000000000000000e+00	 3.142857142857143e+00	 8.932026519381242e+00
0	 0.000000000000000e+00	 3.285714285714286e+00	 8.409032327142423e+00
0	 0.000000000000000e+00	 3.428571428571429e+00	 8.052376140860057e+00
0	 0.000000000000000e+00	 3.571428571428572e+00	 7.852924056654809e+00
0	 0.000000000000000e+00	 3.714285714285715e+00	 7.801542170647346e+00
0	 0.000000000000000e+00	 3.857142857142858e+00	 7.889096578958315e+00
0	 0.000000000000000e+00	 4.000000000000001e+00	 8.106453377708394e+00
0	 0.000000000000000e+00	 4.142857142857143e+00	 8.444478663018224e+00
0	 0.000000000000000e+00	 4.285714285714286e+00	 8.894038531008475e+00
0	 1.428571428571429e-01	 2.857142857142858e+00	 1.003357168789515e+01
0	 1.428571428571429e-01	 3.000000000000001e+00	 9.404765724278791e+00
0	 1.428571428571429e-01	 3.142857142857143e+00	 8.911541041357349e+00
0	 1.428571428571430e-01	 3.285714285714287e+00	 8.547062614092855e+00
0	 1.428571428571430e-01	 3.428571428571429e+00	 8.304495417447351e+00
0	 1.428571428571428e-01	 3.571428571428570e+00	 8.177004426382869e+00
0	 1.428571428571429e-01	 3.714285714285716e+00	 8.157754615861439e+00
0	 1.428571428571430e-01	 3.857142857142859e+00	 8.239910960845105e+00
0	 1.428571428571429e-01	 4.000000000000002e+00	 8.416638436295887e+00
0	 1.428571428571430e-01	 4.142857142857144e+00	 8.681102017175823e+00
0	 1.428571428571429e-01	 4.285714285714286e+00	 9.026466678446953e+00
0	 2.857142857142858e-01	 2.857142857142858e+00	 9.681033563950601e+00
0	 2.857142857142857e-01	 3.000000000000001e+00	 9.260213222620433e+00
0	 2.857142857142858e-01	 3.142857142857143e+00	 8.933855548922720e+00
0	 2.857142857142858e-01	 3.285714285714286e+00	 8.697168996815964e+00
0	 2.857142857142857e-01	 3.428571428571429e+00	 8.545362020258612e+00
0	 2.857142857142858e-01	 3.571428571428573e+00	 8.473643073209145e+00
0	 2.857142857142858e-01	 3.714285714285714e+00	 8.477220609626034e+00
0	 2.857142857142858e-01	 3.857142857142857e+00	 8.551303083467753e+00
0	 2.857142857142859e-01	 4.000000000000002e+00	 8.691098948692767e+00
0	 2.857142857142857e-01	 4.142857142857145e+00	 8.891816659259552e+00
0	 2.857142857142858e-01	 4.285714285714286e+00	 9.148664669126578e+00
0	 4.285714285714287e-01	 2.857142857142858e+00	 9.440328778294308e+00
0	 4.285714285714287e-01	 3.000000000000000e+00	 9.185644061567601e+00
0	 4.285714285714287e-01	 3.142857142857144e+00	 8.991582590960849e+00
0	 4.285714285714287e-01	 3.285714285714286e+00	 8.855140899584029e+00
0	 4.285714285714288e-01	 3.428571428571429e+00	 8.773315520547104e+00
0	 4.285714285714289e-01	 3.571428571428573e+00	 8.743102986960041e+00
0	 4.285714285714287e-01	 3.714285714285714e+00	 8.761499831932833e+00
0	 4.285714285714288e-01	 3.857142857142857e+00	 8.825502588575420e+00
0	 4.285714285714288e-01	 4.000000000000001e+00	 8.932107789997781e+00
0	 4.285714285714287e-01	 4.142857142857144e+00	 9.078311969309897e+00
0	 4.285714285714287e-01	 4.285714285714286e+00	 9.261111659621731e+00
0	 5.714285714285715e-01	 2.857142857142858e+00	 9.295835943808557e+00
0	 5.714285714285715e-01	 3.000000000000000e+00	 9.169867186207112e+00
0	 5.714285714285715e-01	 3.142857142857144e+00	 9.077334716355196e+00
0	 5.714285714285715e-01	 3.285714285714286e+00	 9.016767746669347e+00
0	 5.714285714285716e-01	 3.428571428571429e+00	 8.986695489566099e+00
0	 5.714285714285716e-01	 3.571428571428573e+00	 8.985647157461973e+00
0	 5.714285714285715e-01	 3.714285714285714e+00	 9.012151962773512e+00
0	 5.714285714285713e-01	 3.857142857142858e+00	 9.064739117917227e+00
0	 5.714285714285713e-01	 4.000000000000001e+00	 9.141937835309664e+00
0	 5.714285714285715e-01	 4.142857142857144e+00	 9.242277327367351e+00
0	 5.714285714285715e-01	 4.285714285714286e+00	 9.364286806506811e+00
0	 7.142857142857143e-01	 2.857142857142858e+00	 9.231933673375641e+00
0	 7.142857142857144e-01	 3.000000000000000e+00	 9.201691541625756e+00
0	 7.142857142857144e-01	 3.142857142857142e+00	 9.183724473989233e+00
0	 7.142857142857143e-01	 3.285714285714286e+00	 9.177838962344220e+00
0	 7.142857142857143e-01	 3.428571428571429e+00	 9.183841498568871e+00
0	 7.142857142857144e-01	 3.571428571428572e+00	 9.201538574541326e+00
0	 7.142857142857144e-01	 3.714285714285716e+00	 9.230736682139771e+00
0	 7.142857142857145e-01	 3.857142857142858e+00	 9.271242313242324e+00
0	 7.142857142857145e-01	 4.000000000000001e+00	 9.322861959727149e+00
0	 7.142857142857144e-01	 4.142857142857143e+00	 9.385402113472399e+00
0	 7.142857142857142e-01	 4.285714285714285e+00	 9.458669266356221e+00
0	 8.571428571428573e-01	 2.857142857142857e+00	 9.233000579877864e+00
0	 8.571428571428575e-01	 3.000000000000001e+00	 9.269926072910353e+00
0	 8.571428571428573e-01	 3.142857142857143e+00	 9.303364412746435e+00
0	 8.571428571428574e-01	 3.285714285714287e+00	 9.334143970880938e+00
0	 8.571428571428573e-01	 3.428571428571429e+00	 9.363093118808692e+00
0	 8.571428571428573e-01	 3.571428571428573e+00	 9.391040228024533e+00
0	 8.571428571428575e-01	 3.714285714285716e+00	 9.418813670023306e+00
0	 8.571428571428573e-01	 3.857142857142858e+00	 9.447241816299835e+00
0	 8.571428571428574e-01	 4.000000000000000e+00	 9.477153038348966e+00
0	 8.571428571428574e-01	 4.142857142857144e+00	 9.509375707665530e+00
0	 8.571428571428575e-01	 4.285714285714286e+00	 9.544738195744355e+00
0	 1.000000000000000e+00	 2.857142857142857e+00	 9.283415276197518e+00
0	 1.000000000000001e+00	 3.000000000000001e+00	 9.363379725147720e+00
0	 1.000000000000000e+00	 3.142857142857143e+00	 9.428867081510290e+00
0	 1.000000000000000e+00	 3.285714285714286e+00	 9.481472196551795e+00
0	 1.000000000000000e+00	 3.428571428571429e+00	 9.522789921538829e+00
0	 1.000000000000000e+00	 3.571428571428573e+00	 9.554415107737974e+00
0	 1.000000000000000e+00	 3.714285714285716e+00	 9.577942606415810e+00
0	 1.000000000000000e+00	 3.857142857142858e+00	 9.594967268838900e+00
0	 1.000000000000000e+00	 4.000000000000001e+00	 9.607083946273852e+00
0	 1.000000000000000e+00	 4.142857142857145e+00	 9.615887489987234e+00
0	 1.000000000000000e+00	 4.285714285714284e+00	 9.622972751245623e+00
0	 1.142857142857143e+00	 2.857142857142858e+00	 9.367556375216909e+00
0	 1.142857142857143e+00	 3.000000000000000e+00	 9.470861443424653e+00
0	 1.142857142857143e+00	 3.142857142857143e+00	 9.552845029164249e+00
0	 1.142857142857143e+00	 3.285714285714286e+00	 9.615613063629091e+00
0	 1.142857142857143e+00	 3.428571428571430e+00	 9.661271478012569e+00
0	 1.142857142857143e+00	 3.571428571428572e+00	 9.691926203508061e+00
0	 1.142857142857143e+00	 3.714285714285716e+00	 9.709683171308967e+00
0	 1.142857142857143e+00	 3.857142857142857e+00	 9.716648312608665e+00
0	 1.142857142857143e+00	 4.000000000000001e+00	 9.714927558600547e+00
0	 1.142857142857143e+00	 4.142857142857144e+00	 9.706626840477997e+00
0	 1.142857142857143e+00	 4.285714285714286e+00	 9.693852089434404e+00
0	 1.285714285714286e+00	 2.857142857142858e+00	 9.469802489818322e+00
0	 1.285714285714286e+00	 3.000000000000000e+00	 9.581180172827956e+00
0	 1.285714285714286e+00	 3.142857142857143e+00	 9.667910804591802e+00
0	 1.285714285714286e+00	 3.285714285714286e+00	 9.732355996385127e+00
0	 1.285714285714286e+00	 3.428571428571429e+00	 9.776877359483173e+00
0	 1.285714285714286e+00	 3.571428571428573e+00	 9.803836505161208e+00
0	 1.285714285714286e+00	 3.714285714285714e+00	 9.815595044694486e+00
0	 1.285714285714286e+00	 3.857142857142858e+00	 9.814514589358254e+00
0	 1.285714285714286e+00	 4.000000000000002e+00	 9.802956750427779e+00
0	 1.285714285714286e+00	 4.142857142857144e+00	 9.783283139178312e+00
0	 1.285714285714286e+00	 4.285714285714286e+00	 9.757855366885115e+00
0	 1.428571428571429e+00	 2.857142857142857e+00	 9.574532232884051e+00
0	 1.428571428571429e+00	 3.000000000000001e+00	 9.683144858444440e+00
0	 1.428571428571429e+00	 3.142857142857143e+00	 9.766676956676417e+00
0	 1.428571428571429e+00	 3.285714285714286e+00	 9.827490419092179e+00
0	 1.428571428571429e+00	 3.428571428571429e+00	 9.867947137203918e+00
0	 1.428571428571429e+00	 3.571428571428572e+00	 9.890409002523810e+00
0	 1.428571428571429e+00	 3.714285714285715e+00	 9.897237906564033e+00
0	 1.428571428571429e+00	 3.857142857142857e+00	 9.890795740836801e+00
0	 1.428571428571429e+00	 4.000000000000000e+00	 9.873444396854284e+00
0	 1.428571428571429e+00	 4.142857142857143e+00	 9.847545766128668e+00
0	 1.428571428571429e+00	 4.285714285714286e+00	 9.815461740172138e+00
0	 0.000000000000000e+00	 4.285714285714286e+00	 8.894038531008475e+00
0	 0.000000000000000e+00	 4.428571428571429e+00	 9.347814728975818e+00
0	 0.000000000000000e+00	 4.571428571428572e+00	 9.708695834445294e+00
0	 0.000000000000000e+00	 4.714285714285715e+00	 9.982858188880051e+00
0	 0.000000000000000e+00	 4.857142857142858e+00	 1.017647813374328e+01
0	 0.000000000000000e+00	 5.000000000000000e+00	 1.029573201049814e+01
0	 0.000000000000000e+00	 5.142857142857143e+00	 1.034679616060781e+01
0	 0.000000000000000e+00	 5.285714285714284e+00	 1.033584692553546e+01
0	 0.000000000000000e+00	 5.428571428571427e+00	 1.026906064674426e+01
0	 0.000000000000000e+00	 5.571428571428570e+00	 1.015261366569739e+01
0	 0.000000000000000e+00	 5.714285714285714e+00	 9.992682323858018e+00
0	 1.428571428571429e-01	 4.285714285714286e+00	 9.026466678446953e+00
0	 1.428571428571429e-01	 4.428571428571431e+00	 9.373959926316740e+00
0	 1.428571428571429e-01	 4.571428571428572e+00	 9.652419660273626e+00
0	 1.428571428571430e-01	 4.714285714285716e+00	 9.866426445201181e+00
0	 1.428571428571430e-01	 4.857142857142857e+00	 1.002056084598297e+01
0	 1.428571428571429e-01	 4.999999999999998e+00	 1.011940342750256e+01
0	 1.428571428571429e-01	 5.142857142857142e+00	 1.016753475464349e+01
0	 1.428571428571430e-01	 5.285714285714286e+00	 1.016953539228933e+01
0	 1.428571428571429e-01	 5.428571428571428e+00	 1.012998590532366e+01
0	 1.428571428571429e-01	 5.571428571428570e+00	 1.005346685863002e+01
0	 1.428571428571429e-01	 5.714285714285716e+00	 9.944558817091954e+00
0	 2.857142857142858e-01	 4.285714285714286e+00	 9.148664669126578e+00
0	 2.857142857142857e-01	 4.428571428571429e+00	 9.406495124483524e+00
0	 2.857142857142859e-01	 4.571428571428573e+00	 9.615466787011165e+00
0	 2.857142857142858e-01	 4.714285714285715e+00	 9.778748033904701e+00
0	 2.857142857142857e-01	 4.857142857142857e+00	 9.899507242359302e+00
0	 2.857142857142858e-01	 5.000000000000002e+00	 9.980912789570134e+00
0	 2.857142857142858e-01	 5.142857142857142e+00	 1.002613305273236e+01
0	 2.857142857142858e-01	 5.285714285714286e+00	 1.003833640904118e+01
0	 2.857142857142858e-01	 5.428571428571428e+00	 1.002069123569176e+01
0	 2.857142857142857e-01	 5.571428571428571e+00	 9.976365909879263e+00
0	 2.857142857142858e-01	 5.714285714285714e+00	 9.908528808798851e+00
0	 4.285714285714287e-01	 4.285714285714286e+00	 9.261111659621731e+00
0	 4.285714285714287e-01	 4.428571428571429e+00	 9.444507919298266e+00
0	 4.285714285714288e-01	 4.571428571428574e+00	 9.595797303563209e+00
0	 4.285714285714287e-01	 4.714285714285715e+00	 9.716919590814552e+00
0	 4.285714285714288e-01	 4.857142857142858e+00	 9.809814559450311e+00
0	 4.285714285714289e-01	 5.000000000000001e+00	 9.876421987868495e+00
0	 4.285714285714288e-01	 5.142857142857142e+00	 9.918681654467120e+00
0	 4.285714285714288e-01	 5.285714285714286e+00	 9.938533337644181e+00
0	 4.285714285714285e-01	 5.428571428571427e+00	 9.937916815797710e+00
0	 4.285714285714287e-01	 5.571428571428570e+00	 9.918771867325713e+00
0	 4.285714285714288e-01	 5.714285714285714e+00	 9.883038270626184e+00
0	 5.714285714285715e-01	 4.285714285714286e+00	 9.364286806506811e+00
0	 5.714285714285717e-01	 4.428571428571430e+00	 9.487085906583124e+00
0	 5.714285714285713e-01	 4.571428571428572e+00	 9.591371298835055e+00
0	 5.714285714285715e-01	 4.714285714285715e+00	 9.678037751754683e+00
0	 5.714285714285715e-01	 4.857142857142858e+00	 9.747980033834065e+00
0	 5.714285714285716e-01	 5.000000000000001e+00	 9.802092913565293e+00
0	 5.714285714285717e-01	 5.142857142857141e+00	 9.841271159440415e+00
0	 5.714285714285714e-01	 5.285714285714285e+00	 9.866409539951526e+00
0	 5.714285714285715e-01	 5.428571428571428e+00	 9.878402823590690e+00
0	 5.714285714285714e-01	 5.571428571428571e+00	 9.878145778849966e+00
0	 5.714285714285714e-01	 5.714285714285714e+00	 9.866533174221452e+00
0	 7.142857142857142e-01	 4.285714285714285e+00	 9.458669266356221e+00
0	 7.142857142857145e-01	 4.428571428571430e+00	 9.533316682160189e+00
0	 7.142857142857146e-01	 4.571428571428573e+00	 9.600148861732013e+00
0	 7.142857142857143e-01	 4.714285714285714e+00	 9.659199152549032e+00
0	 7.142857142857144e-01	 4.857142857142859e+00	 9.710500902088622e+00
0	 7.142857142857145e-01	 5.000000000000002e+00	 9.754087457828142e+00
0	 7.142857142857142e-01	 5.142857142857143e+00	 9.789992167244943e+00
0	 7.142857142857144e-01	 5.285714285714285e+00	 9.818248377816388e+00
0	 7.142857142857143e-01	 5.428571428571427e+00	 9.838889437019834e+00
0	 7.142857142857142e-01	 5.571428571428570e+00	 9.851948692332625e+00
0	 7.142857142857144e-01	 5.714285714285715e+00	 9.857459491232136e+00
0	 8.571428571428575e-01	 4.285714285714286e+00	 9.544738195744355e+00
0	 8.571428571428574e-01	 4.428571428571430e+00	 9.582287841851588e+00
0	 8.571428571428573e-01	 4.571428571428571e+00	 9.620090081159368e+00
0	 8.571428571428574e-01	 4.714285714285715e+00	 9.657500429021578e+00
0	 8.571428571428573e-01	 4.857142857142857e+00	 9.693874400792065e+00
0	 8.571428571428573e-01	 5.000000000000001e+00	 9.728567511824712e+00
0	 8.571428571428572e-01	 5.142857142857141e+00	 9.760935277473390e+00
0	 8.571428571428572e-01	 5.285714285714285e+00	 9.790333213091959e+00
0	 8.571428571428573e-01	 5.428571428571427e+00	 9.816116834034299e+00
0	 8.571428571428575e-01	 5.571428571428570e+00	 9.837641655654263e+00
0	 8.571428571428573e-01	 5.714285714285715e+00	 9.854263193305735e+00
0	 1.000000000000000e+00	 4.285714285714284e+00	 9.622972751245623e+00
0	 1.000000000000000e+00	 4.428571428571431e+00	 9.633086981479440e+00
0	 1.000000000000000e+00	 4.571428571428570e+00	 9.649155046022440e+00
0	 1.000000000000000e+00	 4.714285714285714e+00	 9.670038216996243e+00
0	 1.000000000000000e+00	 4.857142857142859e+00	 9.694597766522428e+00
0	 1.000000000000000e+00	 5.000000000000000e+00	 9.721694966722621e+00
0	 1.000000000000000e+00	 5.142857142857144e+00	 9.750191089718424e+00
0	 1.000000000000000e+00	 5.285714285714284e+00	 9.778947407631426e+00
0	 1.000000000000000e+00	 5.428571428571427e+00	 9.806825192583249e+00
0	 1.000000000000000e+00	 5.571428571428570e+00	 9.832685716695480e+00
0	 1.000000000000000e+00	 5.714285714285714e+00	 9.855390252089737e+00
0	 1.142857142857143e+00	 4.285714285714286e+00	 9.693852089434404e+00
0	 1.142857142857143e+00	 4.428571428571430e+00	 9.684801696865854e+00
0	 1.142857142857143e+00	 4.571428571428570e+00	 9.685303845226521e+00
0	 1.142857142857143e+00	 4.714285714285714e+00	 9.693909152296982e+00
0	 1.142857142857143e+00	 4.857142857142858e+00	 9.709168235857788e+00
0	 1.142857142857144e+00	 5.000000000000002e+00	 9.729631713689516e+00
0	 1.142857142857143e+00	 5.142857142857143e+00	 9.753850203572730e+00
0	 1.142857142857143e+00	 5.285714285714285e+00	 9.780374323287983e+00
0	 1.142857142857143e+00	 5.428571428571427e+00	 9.807754690615841e+00
0	 1.142857142857143e+00	 5.571428571428569e+00	 9.834541923336866e+00
0	 1.142857142857143e+00	 5.714285714285715e+00	 9.859286639231634e+00
0	 1.285714285714286e+00	 4.285714285714286e+00	 9.757855366885115e+00
0	 1.285714285714286e+00	 4.428571428571430e+00	 9.736519583832951e+00
0	 1.285714285714286e+00	 4.571428571428571e+00	 9.726496567676914e+00
0	 1.285714285714286e+00	 4.714285714285714e+00	 9.726209870747750e+00
0	 1.285714285714286e+00	 4.857142857142858e+00	 9.734083045376213e+00
0	 1.285714285714286e+00	 5.000000000000001e+00	 9.748539643893041e+00
0	 1.285714285714286e+00	 5.142857142857143e+00	 9.768003218628991e+00
0	 1.285714285714286e+00	 5.285714285714286e+00	 9.790897321914802e+00
0	 1.285714285714286e+00	 5.428571428571429e+00	 9.815645506081236e+00
0	 1.285714285714286e+00	 5.571428571428569e+00	 9.840671323459013e+00
0	 1.285714285714286e+00	 5.714285714285714e+00	 9.864398326378913e+00
0	 1.428571428571429e+00	 4.285714285714286e+00	 9.815461740172138e+00
0	 1.428571428571429e+00	 4.428571428571429e+00	 9.787328238202850e+00
0	 1.428571428571429e+00	 4.571428571428571e+00	 9.770693302278918e+00
0	 1.428571428571429e+00	 4.714285714285714e+00	 9.764037008172496e+00
0	 1.428571428571429e+00	 4.857142857142858e+00	 9.765839431655740e+00
0	 1.428571428571429e+00	 5.000000000000001e+00	 9.774580648500820e+00
0	 1.428571428571429e+00	 5.142857142857143e+00	 9.788740734479887e+00
0	 1.428571428571429e+00	 5.285714285714285e+00	 9.806799765365078e+00
0	 1.428571428571429e+00	 5.428571428571428e+00	 9.827237816928564e+00
0	 1.428571428571429e+00	 5.571428571428570e+00	 9.848534964942518e+00
0	 1.428571428571429e+00	 5.714285714285713e+00	 9.869171285179061e+00
0	 0.000000000000000e+00	 5.714285714285714e+00	 9.992682323858014e+00
0	 0.000000000000000e+00	 5.857142857142858e+00	 9.835964181868150e+00
0	 0.000000000000000e+00	 5.999999999999999e+00	 9.722266923257719e+00
0	 0.000000000000000e+00	 6.142857142857141e+00	 9.647432073821729e+00
0	 0.000000000000000e+00	 6.285714285714284e+00	 9.607301159355181e+00
0	 0.000000000000000e+00	 6.428571428571426e+00	 9.597715705653126e+00
0	 0.000000000000000e+00	 6.571428571428569e+00	 9.614517238510537e+00
0	 0.000000000000000e+00	 6.714285714285712e+00	 9.653547283722471e+00
0	 0.000000000000000e+00	 6.857142857142853e+00	 9.710647367083901e+00
0	 0.000000000000000e+00	 6.999999999999996e+00	 9.781659014389867e+00
0	 0.000000000000000e+00	 7.142857142857143e+00	 9.862423751435387e+00
0	 1.428571428571429e-01	 5.714285714285716e+00	 9.944558817091952e+00
0	 1.428571428571429e-01	 5.857142857142858e+00	 9.837200246832646e+00
0	 1.428571428571429e-01	 5.999999999999998e+00	 9.760247437064304e+00
0	 1.428571428571430e-01	 6.142857142857142e+00	 9.710657687304051e+00
0	 1.428571428571429e-01	 6.285714285714282e+00	 9.685388297069082e+00
0	 1.428571428571429e-01	 6.428571428571424e+00	 9.681396565876501e+00
0	 1.428571428571430e-01	 6.571428571428570e+00	 9.695639793243506e+00
0	 1.428571428571430e-01	 6.714285714285710e+00	 9.725075278687211e+00
0	 1.428571428571429e-01	 6.857142857142855e+00	 9.766660321724784e+00
0	 1.428571428571429e-01	 6.999999999999996e+00	 9.817352221873380e+00
0	 1.428571428571429e-01	 7.142857142857143e+00	 9.874108278650132e+00
0	 2.857142857142858e-01	 5.714285714285714e+00	 9.908528808798849e+00
0	 2.857142857142856e-01	 5.857142857142858e+00	 9.840673797455917e+00
0	 2.857142857142858e-01	 6.000000000000001e+00	 9.792809992687548e+00
0	 2.857142857142856e-01	 6.142857142857139e+00	 9.762878649436441e+00
0	 2.857142857142858e-01	 6.285714285714285e+00	 9.748821022645341e+00
0	 2.857142857142858e-01	 6.428571428571427e+00	 9.748578367256963e+00
0	 2.857142857142858e-01	 6.571428571428569e+00	 9.760091938214018e+00
0	 2.857142857142858e-01	 6.714285714285711e+00	 9.781302990459247e+00
0	 2.857142857142858e-01	 6.857142857142855e+00	 9.810152778935368e+00
0	 2.857142857142857e-01	 6.999999999999996e+00	 9.844582558585104e+00
0	 2.857142857142858e-01	 7.142857142857144e+00	 9.882533584351169e+00
0	 4.285714285714288e-01	 5.714285714285714e+00	 9.883038270626184e+00
0	 4.285714285714286e-01	 5.857142857142856e+00	 9.845858630827657e+00
0	 4.285714285714285e-01	 5.999999999999999e+00	 9.820277962174467e+00
0	 4.285714285714287e-01	 6.142857142857142e+00	 9.805089656738339e+00
0	 4.285714285714287e-01	 6.285714285714285e+00	 9.799087106591021e+00
0	 4.285714285714288e-01	 6.428571428571427e+00	 9.801063703804214e+00
0	 4.285714285714285e-01	 6.571428571428566e+00	 9.809812840449679e+00
0	 4.285714285714289e-01	 6.714285714285714e+00	 9.824127908599126e+00
0	 4.285714285714287e-01	 6.857142857142853e+00	 9.842802300324287e+00
0	 4.285714285714287e-01	 6.999999999999994e+00	 9.864629407696901e+00
0	 4.285714285714288e-01	 7.142857142857143e+00	 9.888402622788693e+00
0	 5.714285714285714e-01	 5.714285714285714e+00	 9.866533174221452e+00
0	 5.714285714285714e-01	 5.857142857142856e+00	 9.852228544037544e+00
0	 5.714285714285714e-01	 5.999999999999999e+00	 9.842974717572080e+00
0	 5.714285714285714e-01	 6.142857142857141e+00	 9.838285405729218e+00
0	 5.714285714285714e-01	 6.285714285714283e+00	 9.837674319413150e+00
0	 5.714285714285714e-01	 6.428571428571425e+00	 9.840655169528027e+00
0	 5.714285714285714e-01	 6.571428571428569e+00	 9.846741666978051e+00
0	 5.714285714285715e-01	 6.714285714285712e+00	 9.855447522667376e+00
0	 5.714285714285714e-01	 6.857142857142854e+00	 9.866286447500180e+00
0	 5.714285714285715e-01	 6.999999999999996e+00	 9.878772152380641e+00
0	 5.714285714285715e-01	 7.142857142857144e+00	 9.892418348212919e+00
0	 7.142857142857144e-01	 5.714285714285715e+00	 9.857459491232136e+00
0	 7.142857142857143e-01	 5.857142857142857e+00	 9.859257334175265e+00
0	 7.142857142857145e-01	 6.000000000000002e+00	 9.861223630927380e+00
0	 7.142857142857143e-01	 6.142857142857143e+00	 9.863460592928526e+00
0	 7.142857142857145e-01	 6.285714285714286e+00	 9.866070431618773e+00
0	 7.142857142857142e-01	 6.428571428571425e+00	 9.869155358438150e+00
0	 7.142857142857143e-01	 6.571428571428569e+00	 9.872817584826731e+00
0	 7.142857142857142e-01	 6.714285714285711e+00	 9.877159322224562e+00
0	 7.142857142857144e-01	 6.857142857142853e+00	 9.882282782071682e+00
0	 7.142857142857142e-01	 6.999999999999995e+00	 9.888290175808157e+00
0	 7.142857142857143e-01	 7.142857142857145e+00	 9.895283714874044e+00
0	 8.571428571428573e-01	 5.714285714285715e+00	 9.854263193305737e+00
0	 8.571428571428575e-01	 5.857142857142858e+00	 9.866418798330503e+00
0	 8.571428571428574e-01	 5.999999999999998e+00	 9.875348074287389e+00
0	 8.571428571428573e-01	 6.142857142857142e+00	 9.881609914855741e+00
0	 8.571428571428574e-01	 6.285714285714284e+00	 9.885763213714929e+00
0	 8.571428571428573e-01	 6.428571428571427e+00	 9.888366864544320e+00
0	 8.571428571428572e-01	 6.571428571428567e+00	 9.889979761023298e+00
0	 8.571428571428572e-01	 6.714285714285711e+00	 9.891160796831203e+00
0	 8.571428571428575e-01	 6.857142857142854e+00	 9.892468865647423e+00
0	 8.571428571428575e-01	 6.999999999999996e+00	 9.894462861151323e+00
0	 8.571428571428574e-01	 7.142857142857145e+00	 9.897701677022269e+00
0	 1.000000000000000e+00	 5.714285714285714e+00	 9.855390252089737e+00
0	 1.000000000000000e+00	 5.857142857142859e+00	 9.873186733592963e+00
0	 1.000000000000000e+00	 5.999999999999998e+00	 9.885671419699108e+00
0	 1.000000000000000e+00	 6.142857142857142e+00	 9.893728068030303e+00
0	 1.000000000000000e+00	 6.285714285714283e+00	 9.898240436208660e+00
0	 1.000000000000000e+00	 6.428571428571426e+00	 9.900092281856288e+00
0	 1.000000000000000e+00	 6.571428571428570e+00	 9.900167362595315e+00
0	 1.000000000000000e+00	 6.714285714285709e+00	 9.899349436047874e+00
0	 1.000000000000000e+00	 6.857142857142854e+00	 9.898522259836055e+00
0	 1.000000000000000e+00	 6.999999999999996e+00	 9.898569591581994e+00
0	 1.000000000000000e+00	 7.142857142857143e+00	 9.900375188907800e+00
0	 1.142857142857143e+00	 5.714285714285715e+00	 9.859286639231630e+00
0	 1.142857142857143e+00	 5.857142857142857e+00	 9.879034937052303e+00
0	 1.142857142857143e+00	 5.999999999999999e+00	 9.892517039209560e+00
0	 1.142857142857143e+00	 6.142857142857142e+00	 9.900809748971675e+00
0	 1.142857142857143e+00	 6.285714285714282e+00	 9.904989869606993e+00
0	 1.142857142857143e+00	 6.428571428571425e+00	 9.906134204383795e+00
0	 1.142857142857143e+00	 6.571428571428569e+00	 9.905319556570401e+00
0	 1.142857142857143e+00	 6.714285714285710e+00	 9.903622729435101e+00
0	 1.142857142857143e+00	 6.857142857142852e+00	 9.902120526246204e+00
0	 1.142857142857143e+00	 6.999999999999996e+00	 9.901889750272010e+00
0	 1.142857142857143e+00	 7.142857142857143e+00	 9.904007204780838e+00
0	 1.285714285714286e+00	 5.714285714285714e+00	 9.864398326378911e+00
0	 1.285714285714286e+00	 5.857142857142858e+00	 9.883437205798224e+00
0	 1.285714285714286e+00	 6.000000000000000e+00	 9.896208304865727e+00
0	 1.285714285714286e+00	 6.142857142857142e+00	 9.903849654199336e+00
0	 1.285714285714286e+00	 6.285714285714284e+00	 9.907499284416989e+00
0	 1.285714285714286e+00	 6.428571428571427e+00	 9.908295226136598e+00
0	 1.285714285714286e+00	 6.571428571428568e+00	 9.907375509976111e+00
0	 1.285714285714286e+00	 6.714285714285712e+00	 9.905878166553434e+00
0	 1.285714285714286e+00	 6.857142857142853e+00	 9.904941226486509e+00
0	 1.285714285714286e+00	 6.999999999999996e+00	 9.905702720393251e+00
0	 1.285714285714286e+00	 7.142857142857142e+00	 9.909300678891594e+00
0	 1.428571428571429e+00	 5.714285714285713e+00	 9.869171285179061e+00
0	 1.428571428571429e+00	 5.857142857142857e+00	 9.885867336920413e+00
0	 1.428571428571429e+00	 6.000000000000000e+00	 9.897068588714641e+00
0	 1.428571428571429e+00	 6.142857142857141e+00	 9.903842480232735e+00
0	 1.428571428571429e+00	 6.285714285714285e+00	 9.907256451145670e+00
0	 1.428571428571429e+00	 6.428571428571425e+00	 9.908377941124447e+00
0	 1.428571428571429e+00	 6.571428571428568e+00	 9.908274389840031e+00
0	 1.428571428571428e+00	 6.714285714285711e+00	 9.908013236963422e+00
0	 1.428571428571429e+00	 6.857142857142853e+00	 9.908661922165603e+00
0	 1.428571428571429e+00	 6.999999999999996e+00	 9.911287885117549e+00
0	 1.428571428571429e+00	 7.142857142857143e+00	 9.916958565490260e+00
0	 0.000000000000000e+00	 7.142857142857143e+00	 9.862423751435388e+00
0	 0.000000000000000e+00	 7.285714285714286e+00	 9.934881628626915e+00
0	 0.000000000000000e+00	 7.428571428571429e+00	 9.985659806797496e+00
0	 0.000000000000000e+00	 7.571428571428570e+00	 1.001763047738207e+01
0	 0.000000000000000e+00	 7.714285714285714e+00	 1.003366583181557e+01
0	 0.000000000000000e+00	 7.857142857142854e+00	 1.003663806153293e+01
0	 0.000000000000000e+00	 7.999999999999997e+00	 1.002941935796911e+01
0	 0.000000000000000e+00	 8.142857142857141e+00	 1.001488191255901e+01
0	 0.000000000000000e+00	 8.285714285714283e+00	 9.995897916737583e+00
0	 0.000000000000000e+00	 8.428571428571425e+00	 9.975339561939768e+00
0	 0.000000000000000e+00	 8.571428571428573e+00	 9.956079039600482e+00
0	 1.428571428571429e-01	 7.142857142857143e+00	 9.874108278650132e+00
0	 1.428571428571428e-01	 7.285714285714284e+00	 9.924778400990414e+00
0	 1.428571428571429e-01	 7.428571428571430e+00	 9.960616879437312e+00
0	 1.428571428571429e-01	 7.571428571428571e+00	 9.983687585919625e+00
0	 1.428571428571429e-01	 7.714285714285713e+00	 9.996054392366135e+00
0	 1.428571428571429e-01	 7.857142857142856e+00	 9.999781170705633e+00
0	 1.428571428571429e-01	 7.999999999999998e+00	 9.996931792866903e+00
0	 1.428571428571429e-01	 8.142857142857141e+00	 9.989570130778743e+00
0	 1.428571428571429e-01	 8.285714285714283e+00	 9.979760056369939e+00
0	 1.428571428571429e-01	 8.428571428571425e+00	 9.969565441569257e+00
0	 1.428571428571429e-01	 8.571428571428571e+00	 9.961050158305513e+00
0	 2.857142857142858e-01	 7.142857142857144e+00	 9.882533584351172e+00
0	 2.857142857142858e-01	 7.285714285714286e+00	 9.916463927718580e+00
0	 2.857142857142856e-01	 7.428571428571429e+00	 9.941107640064448e+00
0	 2.857142857142856e-01	 7.571428571428570e+00	 9.957819946169691e+00
0	 2.857142857142857e-01	 7.714285714285713e+00	 9.967956070815191e+00
0	 2.857142857142858e-01	 7.857142857142858e+00	 9.972871238781844e+00
0	 2.857142857142858e-01	 7.999999999999997e+00	 9.973920674850557e+00
0	 2.857142857142857e-01	 8.142857142857142e+00	 9.972459603802218e+00
0	 2.857142857142858e-01	 8.285714285714283e+00	 9.969843250417744e+00
0	 2.857142857142858e-01	 8.428571428571427e+00	 9.967426839478003e+00
0	 2.857142857142858e-01	 8.571428571428573e+00	 9.966565595763917e+00
0	 4.285714285714288e-01	 7.142857142857143e+00	 9.888402622788693e+00
0	 4.285714285714287e-01	 7.285714285714287e+00	 9.910032143789572e+00
0	 4.285714285714287e-01	 7.428571428571429e+00	 9.926730074169114e+00
0	 4.285714285714287e-01	 7.571428571428573e+00	 9.939242663918604e+00
0	 4.285714285714287e-01	 7.714285714285714e+00	 9.948316163029283e+00
0	 4.285714285714288e-01	 7.857142857142855e+00	 9.954696821492423e+00
0	 4.285714285714286e-01	 7.999999999999998e+00	 9.959130889299303e+00
0	 4.285714285714288e-01	 8.142857142857142e+00	 9.962364616441178e+00
0	 4.285714285714287e-01	 8.285714285714283e+00	 9.965144252909301e+00
0	 4.285714285714287e-01	 8.428571428571425e+00	 9.968216048694973e+00
0	 4.285714285714288e-01	 8.571428571428573e+00	 9.972326253789412e+00
0	 5.714285714285715e-01	 7.142857142857144e+00	 9.892418348212919e+00
0	 5.714285714285714e-01	 7.285714285714286e+00	 9.905576984181543e+00
0	 5.714285714285713e-01	 7.428571428571428e+00	 9.917082167241499e+00
0	 5.714285714285714e-01	 7.571428571428569e+00	 9.927170844952666e+00
0	 5.714285714285716e-01	 7.714285714285715e+00	 9.936079964874960e+00
0	 5.714285714285714e-01	 7.857142857142855e+00	 9.944046474568228e+00
0	 5.714285714285714e-01	 7.999999999999997e+00	 9.951307321592399e+00
0	 5.714285714285714e-01	 8.142857142857141e+00	 9.958099453507339e+00
0	 5.714285714285716e-01	 8.285714285714283e+00	 9.964659817872953e+00
0	 5.714285714285714e-01	 8.428571428571427e+00	 9.971225362249100e+00
0	 5.714285714285714e-01	 8.571428571428571e+00	 9.978033034195704e+00
0	 7.142857142857143e-01	 7.142857142857145e+00	 9.895283714874044e+00
0	 7.142857142857143e-01	 7.285714285714285e+00	 9.903192383872661e+00
0	 7.142857142857143e-01	 7.428571428571429e+00	 9.911761904771799e+00
0	 7.142857142857143e-01	 7.571428571428571e+00	 9.920819595058251e+00
0	 7.142857142857143e-01	 7.714285714285714e+00	 9.930192772218771e+00
0	 7.142857142857144e-01	 7.857142857142854e+00	 9.939708753740126e+00
0	 7.142857142857144e-01	 7.999999999999997e+00	 9.949194857109095e+00
0	 7.142857142857142e-01	 8.142857142857141e+00	 9.958478399812446e+00
0	 7.142857142857144e-01	 8.285714285714286e+00	 9.967386699336949e+00
0	 7.142857142857145e-01	 8.428571428571429e+00	 9.975747073169369e+00
0	 7.142857142857143e-01	 8.571428571428573e+00	 9.983386838796479e+00
0	 8.571428571428574e-01	 7.142857142857145e+00	 9.897701677022269e+00
0	 8.571428571428572e-01	 7.285714285714286e+00	 9.902972277841071e+00
0	 8.571428571428574e-01	 7.428571428571429e+00	 9.910367272250227e+00
0	 8.571428571428572e-01	 7.571428571428569e+00	 9.919404020021647e+00
0	 8.571428571428573e-01	 7.714285714285714e+00	 9.929599880927261e+00
0	 8.571428571428574e-01	 7.857142857142857e+00	 9.940472214738953e+00
0	 8.571428571428571e-01	 7.999999999999996e+00	 9.951538381228637e+00
0	 8.571428571428574e-01	 8.142857142857142e+00	 9.962315740168219e+00
0	 8.571428571428571e-01	 8.285714285714283e+00	 9.972321651329608e+00
0	 8.571428571428574e-01	 8.428571428571427e+00	 9.981073474484724e+00
0	 8.571428571428574e-01	 8.571428571428571e+00	 9.988088569405456e+00
0	 1.000000000000000e+00	 7.142857142857143e+00	 9.900375188907800e+00
0	 1.000000000000000e+00	 7.285714285714285e+00	 9.905010601064934e+00
0	 1.000000000000000e+00	 7.428571428571430e+00	 9.912496255166976e+00
0	 1.000000000000000e+00	 7.571428571428572e+00	 9.922139225629220e+00
0	 1.000000000000000e+00	 7.714285714285714e+00	 9.933246586866987e+00
0	 9.999999999999999e-01	 7.857142857142854e+00	 9.945125413295568e+00
0	 1.000000000000000e+00	 7.999999999999997e+00	 9.957082779330264e+00
0	 1.000000000000000e+00	 8.142857142857144e+00	 9.968425759386385e+00
0	 1.000000000000000e+00	 8.285714285714281e+00	 9.978461427879232e+00
0	 1.000000000000000e+00	 8.428571428571425e+00	 9.986496859224115e+00
0	 1.000000000000000e+00	 8.571428571428573e+00	 9.991839127836323e+00
0	 1.142857142857143e+00	 7.142857142857143e+00	 9.904007204780839e+00
0	 1.142857142857143e+00	 7.285714285714285e+00	 9.909401288522417e+00
0	 1.142857142857143e+00	 7.428571428571429e+00	 9.917746839012256e+00
0	 1.142857142857143e+00	 7.571428571428573e+00	 9.928240317667292e+00
0	 1.142857142857143e+00	 7.714285714285714e+00	 9.940078185904508e+00
0	 1.142857142857143e+00	 7.857142857142857e+00	 9.952456905140833e+00
0	 1.142857142857143e+00	 7.999999999999999e+00	 9.964572936793243e+00
0	 1.142857142857143e+00	 8.142857142857141e+00	 9.975622742278681e+00
0	 1.142857142857143e+00	 8.285714285714283e+00	 9.984802783014116e+00
0	 1.142857142857143e+00	 8.428571428571425e+00	 9.991309520416500e+00
0	 1.142857142857143e+00	 8.571428571428571e+00	 9.994339415902775e+00
0	 1.285714285714286e+00	 7.142857142857142e+00	 9.909300678891594e+00
0	 1.285714285714286e+00	 7.285714285714286e+00	 9.916238275191676e+00
0	 1.285714285714286e+00	 7.428571428571429e+00	 9.925717009276253e+00
0	 1.285714285714286e+00	 7.571428571428572e+00	 9.936922401922184e+00
0	 1.285714285714286e+00	 7.714285714285713e+00	 9.949039973906356e+00
0	 1.285714285714286e+00	 7.857142857142856e+00	 9.961255246005603e+00
0	 1.285714285714286e+00	 7.999999999999999e+00	 9.972753738996810e+00
0	 1.285714285714286e+00	 8.142857142857141e+00	 9.982720973656843e+00
0	 1.285714285714286e+00	 8.285714285714283e+00	 9.990342470762560e+00
0	 1.285714285714286e+00	 8.428571428571425e+00	 9.994803751090839e+00
0	 1.285714285714286e+00	 8.571428571428575e+00	 9.995290335418527e+00
0	 1.428571428571429e+00	 7.142857142857143e+00	 9.916958565490260e+00
0	 1.428571428571429e+00	 7.285714285714286e+00	 9.925615496050860e+00
0	 1.428571428571429e+00	 7.428571428571427e+00	 9.936004751449181e+00
0	 1.428571428571429e+00	 7.571428571428570e+00	 9.947400584180237e+00
0	 1.428571428571429e+00	 7.714285714285714e+00	 9.959077246739078e+00
0	 1.428571428571429e+00	 7.857142857142852e+00	 9.970308991620723e+00
0	 1.428571428571429e+00	 8.000000000000000e+00	 9.980370071320216e+00
0	 1.428571428571429e+00	 8.142857142857141e+00	 9.988534738332598e+00
0	 1.428571428571429e+00	 8.285714285714283e+00	 9.994077245152861e+00
0	 1.428571428571429e+00	 8.428571428571425e+00	 9.996271844276080e+00
0	 1.428571428571429e+00	 8.571428571428575e+00	 9.994392788197260e+00
0	 0.000000000000000e+00	 8.571428571428573e+00	 9.956079039600482e+00
0	 0.000000000000000e+00	 8.714285714285715e+00	 9.945066622287914e+00
0	 0.000000000000000e+00	 8.857142857142858e+00	 9.945161090267135e+00
0	 0.000000000000000e+00	 9.000000000000000e+00	 9.953097396518462e+00
0	 0.000000000000000e+00	 9.142857142857142e+00	 9.965610494022231e+00
0	 0.000000000000000e+00	 9.285714285714285e+00	 9.979435335758755e+00
0	 0.000000000000000e+00	 9.428571428571427e+00	 9.991306874708327e+00
0	 0.000000000000000e+00	 9.571428571428569e+00	 9.997960063851281e+00
0	 0.000000000000000e+00	 9.714285714285712e+00	 9.996129856167983e+00
0	 0.000000000000000e+00	 9.857142857142852e+00	 9.982551204638625e+00
0	 0.000000000000000e+00	 1.000000000000000e+01	 9.953959062243714e+00
0	 1.428571428571429e-01	 8.571428571428571e+00	 9.961050158305513e+00
0	 1.428571428571429e-01	 8.714285714285714e+00	 9.958156839683360e+00
0	 1.428571428571429e-01	 8.857142857142861e+00	 9.961935733077585e+00
0	 1.428571428571429e-01	 9.000000000000004e+00	 9.970112131822146e+00
0	 1.428571428571429e-01	 9.142857142857141e+00	 9.980411329250980e+00
0	 1.428571428571429e-01	 9.285714285714281e+00	 9.990558618698046e+00
0	 1.428571428571429e-01	 9.428571428571425e+00	 9.998279293497278e+00
0	 1.428571428571429e-01	 9.571428571428573e+00	 1.000129864698263e+01
0	 1.428571428571430e-01	 9.714285714285715e+00	 9.997341972488059e+00
0	 1.428571428571429e-01	 9.857142857142852e+00	 9.984134563347471e+00
0	 1.428571428571429e-01	 1.000000000000000e+01	 9.959401712894884e+00
0	 2.857142857142858e-01	 8.571428571428573e+00	 9.966565595763914e+00
0	 2.857142857142857e-01	 8.714285714285717e+00	 9.969026508765477e+00
0	 2.857142857142858e-01	 8.857142857142859e+00	 9.974731568147449e+00
0	 2.857142857142857e-01	 8.999999999999998e+00	 9.982268498952850e+00
0	 2.857142857142859e-01	 9.142857142857146e+00	 9.990225026224742e+00
0	 2.857142857142858e-01	 9.285714285714285e+00	 9.997188875006110e+00
0	 2.857142857142858e-01	 9.428571428571427e+00	 1.000174777033999e+01
0	 2.857142857142858e-01	 9.571428571428568e+00	 1.000248943726940e+01
0	 2.857142857142858e-01	 9.714285714285710e+00	 9.998001600837434e+00
0	 2.857142857142857e-01	 9.857142857142854e+00	 9.986871986087019e+00
0	 2.857142857142858e-01	 1.000000000000000e+01	 9.967688318061242e+00
0	 4.285714285714288e-01	 8.571428571428573e+00	 9.972326253789413e+00
0	 4.285714285714287e-01	 8.714285714285717e+00	 9.977790303019697e+00
0	 4.285714285714286e-01	 8.857142857142859e+00	 9.983974296623757e+00
0	 4.285714285714287e-01	 9.000000000000000e+00	 9.990200482709133e+00
0	 4.285714285714287e-01	 9.142857142857142e+00	 9.995791109383365e+00
0	 4.285714285714288e-01	 9.285714285714283e+00	 1.000006842475402e+01
0	 4.285714285714287e-01	 9.428571428571431e+00	 1.000235467692866e+01
0	 4.285714285714287e-01	 9.571428571428571e+00	 1.000197211401484e+01
0	 4.285714285714287e-01	 9.714285714285706e+00	 9.998242984120106e+00
0	 4.285714285714287e-01	 9.857142857142856e+00	 9.990489535351992e+00
0	 4.285714285714287e-01	 1.000000000000000e+01	 9.978034015818118e+00
0	 5.714285714285714e-01	 8.571428571428571e+00	 9.978033034195704e+00
0	 5.714285714285714e-01	 8.714285714285717e+00	 9.984562895931468e+00
0	 5.714285714285715e-01	 8.857142857142861e+00	 9.990089619653526e+00
0	 5.714285714285715e-01	 8.999999999999998e+00	 9.994542067889437e+00
0	 5.714285714285715e-01	 9.142857142857144e+00	 9.997849103166704e+00
0	 5.714285714285717e-01	 9.285714285714286e+00	 9.999939588012877e+00
0	 5.714285714285715e-01	 9.428571428571427e+00	 1.000074238495549e+01
0	 5.714285714285714e-01	 9.571428571428569e+00	 1.000018635652205e+01
0	 5.714285714285714e-01	 9.714285714285712e+00	 9.998200365240088e+00
0	 5.714285714285715e-01	 9.857142857142856e+00	 9.994713273637135e+00
0	 5.714285714285714e-01	 1.000000000000000e+01	 9.989653944240747e+00
0	 7.142857142857143e-01	 8.571428571428573e+00	 9.983386838796477e+00
0	 7.142857142857143e-01	 8.714285714285715e+00	 9.989458960986170e+00
0	 7.142857142857144e-01	 8.857142857142859e+00	 9.993503238383806e+00
0	 7.142857142857142e-01	 9.000000000000000e+00	 9.995927239292296e+00
0	 7.142857142857143e-01	 9.142857142857144e+00	 9.997138532014636e+00
0	 7.142857142857144e-01	 9.285714285714283e+00	 9.997544684853754e+00
0	 7.142857142857146e-01	 9.428571428571427e+00	 9.997553266112636e+00
0	 7.142857142857145e-01	 9.571428571428569e+00	 9.997571844094200e+00
0	 7.142857142857144e-01	 9.714285714285712e+00	 9.998007987101417e+00
0	 7.142857142857144e-01	 9.857142857142854e+00	 9.999269263437245e+00
0	 7.142857142857144e-01	 1.000000000000000e+01	 1.000176324140464e+01
0	 8.571428571428574e-01	 8.571428571428571e+00	 9.988088569405454e+00
0	 8.571428571428575e-01	 8.714285714285719e+00	 9.992593171669277e+00
0	 8.571428571428574e-01	 8.857142857142859e+00	 9.994640853961586e+00
0	 8.571428571428574e-01	 9.000000000000004e+00	 9.994989981716229e+00
0	 8.571428571428573e-01	 9.142857142857142e+00	 9.994398920366997e+00
0	 8.571428571428572e-01	 9.285714285714283e+00	 9.993626035347758e+00
0	 8.571428571428574e-01	 9.428571428571425e+00	 9.993429692092288e+00
0	 8.571428571428574e-01	 9.571428571428569e+00	 9.994568256034471e+00
0	 8.571428571428572e-01	 9.714285714285712e+00	 9.997800092608086e+00
0	 8.571428571428572e-01	 9.857142857142856e+00	 1.000388356724698e+01
0	 8.571428571428573e-01	 1.000000000000000e+01	 1.001357704538498e+01
0	 1.000000000000000e+00	 8.571428571428573e+00	 9.991839127836323e+00
0	 1.000000000000000e+00	 8.714285714285717e+00	 9.994080201466176e+00
0	 1.000000000000000e+00	 8.857142857142858e+00	 9.993928167533934e+00
0	 1.000000000000000e+00	 9.000000000000000e+00	 9.992364279959707e+00
0	 1.000000000000000e+00	 9.142857142857141e+00	 9.990369792663657e+00
0	 1.000000000000000e+00	 9.285714285714285e+00	 9.988925959565917e+00
0	 1.000000000000000e+00	 9.428571428571427e+00	 9.989014034586674e+00
0	 1.000000000000000e+00	 9.571428571428568e+00	 9.991615271646030e+00
0	 1.000000000000000e+00	 9.714285714285715e+00	 9.997710924664156e+00
0	 1.000000000000000e+00	 9.857142857142854e+00	 1.000828224756119e+01
0	 1.000000000000000e+00	 1.000000000000000e+01	 1.002431049425731e+01
0	 1.142857142857143e+00	 8.571428571428571e+00	 9.994339415902770e+00
0	 1.142857142857143e+00	 8.714285714285715e+00	 9.994034723862329e+00
0	 1.142857142857143e+00	 8.857142857142858e+00	 9.991790880247851e+00
0	 1.142857142857143e+00	 9.000000000000004e+00	 9.988684118821254e+00
0	 1.142857142857143e+00	 9.142857142857142e+00	 9.985790673344459e+00
0	 1.142857142857143e+00	 9.285714285714285e+00	 9.984186777579374e+00
0	 1.142857142857143e+00	 9.428571428571425e+00	 9.984948665287938e+00
0	 1.142857142857143e+00	 9.571428571428568e+00	 9.989152570232033e+00
0	 1.142857142857143e+00	 9.714285714285714e+00	 9.997874726173603e+00
0	 1.142857142857143e+00	 9.857142857142856e+00	 1.001219136687457e+01
0	 1.142857142857143e+00	 1.000000000000000e+01	 1.003317872609686e+01
0	 1.285714285714286e+00	 8.571428571428575e+00	 9.995290335418524e+00
0	 1.285714285714286e+00	 8.714285714285715e+00	 9.992571412343136e+00
0	 1.285714285714286e+00	 8.857142857142858e+00	 9.988654693250375e+00
0	 1.285714285714286e+00	 9.000000000000000e+00	 9.984583483099382e+00
0	 1.285714285714286e+00	 9.142857142857142e+00	 9.981401086849273e+00
0	 1.285714285714286e+00	 9.285714285714285e+00	 9.980150809459198e+00
0	 1.285714285714286e+00	 9.428571428571429e+00	 9.981875955888292e+00
0	 1.285714285714286e+00	 9.571428571428568e+00	 9.987619831095666e+00
0	 1.285714285714286e+00	 9.714285714285712e+00	 9.998425740040490e+00
0	 1.285714285714286e+00	 9.857142857142852e+00	 1.001533698768188e+01
0	 1.285714285714286e+00	 1.000000000000000e+01	 1.003939687897897e+01
0	 1.428571428571429e+00	 8.571428571428575e+00	 9.994392788197256e+00
0	 1.428571428571429e+00	 8.714285714285715e+00	 9.989804940394038e+00
0	 1.428571428571429e+00	 8.857142857142859e+00	 9.984945307688539e+00
0	 1.428571428571429e+00	 9.000000000000002e+00	 9.980696357592580e+00
0	 1.428571428571429e+00	 9.142857142857142e+00	 9.977940557617956e+00
0	 1.428571428571429e+00	 9.285714285714285e+00	 9.977560375276440e+00
0	 1.428571428571429e+00	 9.428571428571427e+00	 9.980438278079893e+00
0	 1.428571428571429e+00	 9.571428571428569e+00	 9.987456733540068e+00
0	 1.428571428571429e+00	 9.714285714285712e+00	 9.999498209168799e+00
0	 1.428571428571429e+00	 9.857142857142856e+00	 1.001744517247786e+01
0	 1.428571428571429e+00	 1.000000000000000e+01	 1.004218009097909e+01
0	 1.428571428571429e+00	 0.000000000000000e+00	 5.055267039305500e+00
0	 1.428571428571429e+00	 1.428571428571429e-01	 7.323889940043552e+00
0	 1.428571428571429e+00	 2.857142857142858e-01	 9.240951446299519e+00
0	 1.428571428571429e+00	 4.285714285714287e-01	 1.081313480004097e+01
0	 1.428571428571429e+00	 5.714285714285715e-01	 1.204712324323550e+01
0	 1.428571428571429e+00	 7.142857142857143e-01	 1.294960001785068e+01
0	 1.428571428571429e+00	 8.571428571428572e-01	 1.352724836585409e+01
0	 1.428571428571429e+00	 1.000000000000000e+00	 1.378675152921329e+01
0	 1.428571428571429e+00	 1.142857142857143e+00	 1.373479274989589e+01
0	 1.428571428571429e+00	 1.285714285714286e+00	 1.337805526986945e+01
0	 1.428571428571429e+00	 1.428571428571429e+00	 1.272322233110154e+01
0	 1.571428571428572e+00	 0.000000000000000e+00	 6.611698647778118e+00
0	 1.571428571428572e+00	 1.428571428571430e-01	 8.356201248139815e+00
0	 1.571428571428572e+00	 2.857142857142857e-01	 9.816625358866006e+00
0	 1.571428571428572e+00	 4.285714285714287e-01	 1.100029239946356e+01
0	 1.571428571428572e+00	 5.714285714285714e-01	 1.191452378943936e+01
0	 1.571428571428572e+00	 7.142857142857145e-01	 1.256664094830026e+01
0	 1.571428571428572e+00	 8.571428571428574e-01	 1.296396529555316e+01
0	 1.571428571428572e+00	 1.000000000000001e+00	 1.311381825070493e+01
0	 1.571428571428572e+00	 1.142857142857143e+00	 1.302352123326246e+01
0	 1.571428571428572e+00	 1.285714285714286e+00	 1.270039566273259e+01
0	 1.571428571428572e+00	 1.428571428571429e+00	 1.215176295862224e+01
0	 1.714285714285714e+00	 0.000000000000000e+00	 7.841441888975618e+00
0	 1.714285714285715e+00	 1.428571428571429e-01	 9.152942679698535e+00
0	 1.714285714285714e+00	 2.857142857142858e-01	 1.023763732199426e+01
0	 1.714285714285714e+00	 4.285714285714287e-01	 1.110329504123482e+01
0	 1.714285714285715e+00	 5.714285714285715e-01	 1.175768506279223e+01
0	 1.714285714285715e+00	 7.142857142857147e-01	 1.220857661203849e+01
0	 1.714285714285715e+00	 8.571428571428573e-01	 1.246373891434567e+01
0	 1.714285714285714e+00	 1.000000000000000e+00	 1.253094119508575e+01
0	 1.714285714285714e+00	 1.142857142857143e+00	 1.241795267963075e+01
0	 1.714285714285715e+00	 1.285714285714286e+00	 1.213254259335273e+01
0	 1.714285714285715e+00	 1.428571428571429e+00	 1.168248016162368e+01
0	 1.857142857142858e+00	 0.000000000000000e+00	 8.782912343410880e+00
0	 1.857142857142858e+00	 1.428571428571430e-01	 9.743163420345088e+00
0	 1.857142857142858e+00	 2.857142857142858e-01	 1.052468057804338e+01
0	 1.857142857142857e+00	 4.285714285714287e-01	 1.113549047606878e+01
0	 1.857142857142858e+00	 5.714285714285715e-01	 1.158361977398427e+01
0	 1.857142857142858e+00	 7.142857142857143e-01	 1.187709513135289e+01
0	 1.857142857142857e+00	 8.571428571428574e-01	 1.202394320773766e+01
0	 1.857142857142857e+00	 1.000000000000000e+00	 1.203219066270158e+01
0	 1.857142857142857e+00	 1.142857142857143e+00	 1.190986415580766e+01
0	 1.857142857142858e+00	 1.285714285714286e+00	 1.166499034661891e+01
0	 1.857142857142857e+00	 1.428571428571429e+00	 1.130559589469838e+01
0	 2.000000000000001e+00	 0.000000000000000e+00	 9.474525591596827e+00
0	 2.000000000000001e+00	 1.428571428571429e-01	 1.015591265570488e+01
0	 2.000000000000000e+00	 2.857142857142858e-01	 1.069844836937247e+01
0	 2.000000000000000e+00	 4.285714285714287e-01	 1.111022645467945e+01
0	 2.000000000000000e+00	 5.714285714285714e-01	 1.139934063370567e+01
0	 2.000000000000000e+00	 7.142857142857144e-01	 1.157388462853098e+01
0	 2.000000000000000e+00	 8.571428571428573e-01	 1.164195216123525e+01
0	 2.000000000000001e+00	 1.000000000000001e+00	 1.161163695389832e+01
0	 2.000000000000001e+00	 1.142857142857143e+00	 1.149103272860004e+01
0	 2.000000000000000e+00	 1.285714285714286e+00	 1.128823320742027e+01
0	 2.000000000000000e+00	 1.428571428571429e+00	 1.101133211243885e+01
0	 2.142857142857144e+00	 0.000000000000000e+00	 9.954697214046337e+00
0	 2.142857142857143e+00	 1.428571428571429e-01	 1.042023957140328e+01
0	 2.142857142857143e+00	 2.857142857142857e-01	 1.077963393834062e+01
0	 2.142857142857144e+00	 4.285714285714289e-01	 1.104085072778086e+01
0	 2.142857142857144e+00	 5.714285714285717e-01	 1.121186035264657e+01
0	 2.142857142857144e+00	 7.142857142857145e-01	 1.130063322586028e+01
0	 2.142857142857144e+00	 8.571428571428577e-01	 1.131513976034452e+01
0	 2.142857142857144e+00	 1.000000000000000e+00	 1.126335036902184e+01
0	 2.142857142857143e+00	 1.142857142857143e+00	 1.115323546481476e+01
0	 2.142857142857144e+00	 1.285714285714286e+00	 1.099276546064585e+01
0	 2.142857142857144e+00	 1.428571428571429e+00	 1.078991076943763e+01
0	 2.285714285714286e+00	 0.000000000000000e+00	 1.026184279127232e+01
0	 2.285714285714286e+00	 1.428571428571429e-01	 1.056519335306571e+01
0	 2.285714285714286e+00	 2.857142857142858e-01	 1.078893052730693e+01
0	 2.285714285714286e+00	 4.285714285714287e-01	 1.094071104608706e+01
0	 2.285714285714286e+00	 5.714285714285715e-01	 1.102819164149715e+01
0	 2.285714285714286e+00	 7.142857142857145e-01	 1.105902904562829e+01
0	 2.285714285714287e+00	 8.571428571428575e-01	 1.104087999057154e+01
0	 2.285714285714286e+00	 1.000000000000000e+00	 1.098140120841799e+01
0	 2.285714285714287e+00	 1.142857142857143e+00	 1.088824943125872e+01
0	 2.285714285714286e+00	 1.285714285714286e+00	 1.076908139118475e+01
0	 2.285714285714286e+00	 1.428571428571429e+00	 1.063155382028721e+01
0	 2.428571428571430e+00	 0.000000000000000e+00	 1.043437790378767e+01
0	 2.428571428571430e+00	 1.428571428571430e-01	 1.061982318631754e+01
0	 2.428571428571430e+00	 2.857142857142858e-01	 1.074703137863051e+01
0	 2.428571428571430e+00	 4.285714285714288e-01	 1.082315516031203e+01
0	 2.428571428571429e+00	 5.714285714285714e-01	 1.085534721094756e+01
0	 2.428571428571430e+00	 7.142857142857145e-01	 1.085076021012253e+01
0	 2.428571428571429e+00	 8.571428571428573e-01	 1.081654683742242e+01
0	 2.428571428571430e+00	 1.000000000000000e+00	 1.075985977243268e+01
0	 2.428571428571430e+00	 1.142857142857143e+00	 1.068785169473874e+01
0	 2.428571428571430e+00	 1.285714285714286e+00	 1.060767528392607e+01
0	 2.428571428571429e+00	 1.428571428571429e+00	 1.052648321958013e+01
0	 2.571428571428572e+00	 0.000000000000000e+00	 1.051071813210528e+01
0	 2.571428571428573e+00	 1.428571428571429e-01	 1.061317825678416e+01
0	 2.571428571428573e+00	 2.857142857142858e-01	 1.067462973467046e+01
0	 2.571428571428572e+00	 4.285714285714287e-01	 1.070153082116982e+01
0	 2.571428571428572e+00	 5.714285714285715e-01	 1.070033977168796e+01
0	 2.571428571428572e+00	 7.142857142857143e-01	 1.067751484163053e+01
0	 2.571428571428573e+00	 8.571428571428574e-01	 1.063951428640324e+01
0	 2.571428571428572e+00	 1.000000000000000e+00	 1.059279636141174e+01
0	 2.571428571428573e+00	 1.142857142857143e+00	 1.054381932206173e+01
0	 2.571428571428572e+00	 1.285714285714286e+00	 1.049904142375889e+01
0	 2.571428571428572e+00	 1.428571428571429e+00	 1.046492092190890e+01
0	 2.714285714285715e+00	 0.000000000000000e+00	 1.052927905673806e+01
0	 2.714285714285715e+00	 1.428571428571429e-01	 1.057430775009097e+01
0	 2.714285714285716e+00	 2.857142857142858e-01	 1.059241883778585e+01
0	 2.714285714285715e+00	 4.285714285714287e-01	 1.058918577937445e+01
0	 2.714285714285715e+00	 5.714285714285715e-01	 1.057018203440851e+01
0	 2.714285714285715e+00	 7.142857142857144e-01	 1.054098106243981e+01
0	 2.714285714285715e+00	 8.571428571428574e-01	 1.050715632302007e+01
0	 2.714285714285715e+00	 1.000000000000000e+00	 1.047428127570107e+01
0	 2.714285714285715e+00	 1.142857142857143e+00	 1.044792938003457e+01
0	 2.714285714285715e+00	 1.285714285714286e+00	 1.043367409557229e+01
0	 2.714285714285715e+00	 1.428571428571429e+00	 1.043708888186602e+01
0	 2.857142857142857e+00	 0.000000000000000e+00	 1.052847625819888e+01
0	 2.857142857142858e+00	 1.428571428571429e-01	 1.053226085186336e+01
0	 2.857142857142857e+00	 2.857142857142858e-01	 1.052109193033582e+01
0	 2.857142857142858e+00	 4.285714285714287e-01	 1.049946778563994e+01
0	 2.857142857142858e+00	 5.714285714285716e-01	 1.047188670979939e+01
0	 2.857142857142858e+00	 7.142857142857143e-01	 1.044284699483786e+01
0	 2.857142857142857e+00	 8.571428571428573e-01	 1.041684693277901e+01
0	 2.857142857142858e+00	 1.000000000000000e+00	 1.039838481564653e+01
0	 2.857142857142858e+00	 1.142857142857143e+00	 1.039195893546409e+01
0	 2.857142857142859e+00	 1.285714285714286e+00	 1.040206758425536e+01
0	 2.857142857142857e+00	 1.428571428571429e+00	 1.043320905404404e+01
0	 1.428571428571429e+00	 1.428571428571429e+00	 1.272322233110154e+01
0	 1.428571428571429e+00	 1.571428571428572e+00	 1.197474552571482e+01
0	 1.428571428571429e+00	 1.714285714285715e+00	 1.133062196259580e+01
0	 1.428571428571429e+00	 1.857142857142857e+00	 1.078785315885784e+01
0	 1.428571428571429e+00	 2.000000000000000e+00	 1.034344063161428e+01
0	 1.428571428571429e+00	 2.142857142857144e+00	 9.994385897978516e+00
0	 1.428571428571429e+00	 2.285714285714286e+00	 9.737690475063895e+00
0	 1.428571428571429e+00	 2.428571428571429e+00	 9.570355879983772e+00
0	 1.428571428571429e+00	 2.571428571428573e+00	 9.489383629851517e+00
0	 1.428571428571429e+00	 2.714285714285715e+00	 9.491775241780491e+00
0	 1.428571428571429e+00	 2.857142857142857e+00	 9.574532232884051e+00
0	 1.571428571428572e+00	 1.428571428571429e+00	 1.215176295862224e+01
0	 1.571428571428572e+00	 1.571428571428572e+00	 1.153866724458866e+01
0	 1.571428571428572e+00	 1.714285714285715e+00	 1.101517766065938e+01
0	 1.571428571428572e+00	 1.857142857142858e+00	 1.057815315089665e+01
0	 1.571428571428572e+00	 2.000000000000001e+00	 1.022445265936270e+01
0	 1.571428571428572e+00	 2.142857142857144e+00	 9.950935130119806e+00
0	 1.571428571428572e+00	 2.285714285714286e+00	 9.754459507230187e+00
0	 1.571428571428572e+00	 2.428571428571430e+00	 9.631884734756085e+00
0	 1.571428571428571e+00	 2.571428571428572e+00	 9.580069756759748e+00
0	 1.571428571428572e+00	 2.714285714285716e+00	 9.595873517303421e+00
0	 1.571428571428572e+00	 2.857142857142858e+00	 9.676154960449356e+00
0	 1.714285714285715e+00	 1.428571428571429e+00	 1.168248016162368e+01
0	 1.714285714285715e+00	 1.571428571428572e+00	 1.119144993429056e+01
0	 1.714285714285715e+00	 1.714285714285715e+00	 1.077580986288560e+01
0	 1.714285714285715e+00	 1.857142857142857e+00	 1.043233927530865e+01
0	 1.714285714285715e+00	 2.000000000000000e+00	 1.015781749945963e+01
0	 1.714285714285714e+00	 2.142857142857143e+00	 9.949023863238393e+00
0	 1.714285714285715e+00	 2.285714285714287e+00	 9.802737694544863e+00
0	 1.714285714285715e+00	 2.428571428571429e+00	 9.715738321278902e+00
0	 1.714285714285715e+00	 2.571428571428573e+00	 9.684805071340410e+00
0	 1.714285714285714e+00	 2.714285714285715e+00	 9.706717272629270e+00
0	 1.714285714285715e+00	 2.857142857142858e+00	 9.778254253045365e+00
0	 1.857142857142857e+00	 1.428571428571429e+00	 1.130559589469838e+01
0	 1.857142857142858e+00	 1.571428571428572e+00	 1.092360433532604e+01
0	 1.857142857142857e+00	 1.714285714285714e+00	 1.060342987649077e+01
0	 1.857142857142858e+00	 1.857142857142858e+00	 1.034183518681887e+01
0	 1.857142857142858e+00	 2.000000000000000e+00	 1.013558293493662e+01
0	 1.857142857142857e+00	 2.142857142857143e+00	 9.981435789470309e+00
0	 1.857142857142857e+00	 2.285714285714286e+00	 9.876156419046234e+00
0	 1.857142857142858e+00	 2.428571428571430e+00	 9.816507492290704e+00
0	 1.857142857142857e+00	 2.571428571428573e+00	 9.799251677829991e+00
0	 1.857142857142858e+00	 2.714285714285715e+00	 9.821151644290399e+00
0	 1.857142857142857e+00	 2.857142857142857e+00	 9.878970060298212e+00
0	 2.000000000000000e+00	 1.428571428571429e+00	 1.101133211243885e+01
0	 2.000000000000001e+00	 1.571428571428572e+00	 1.072564118820057e+01
0	 2.000000000000000e+00	 1.714285714285715e+00	 1.048894900869123e+01
0	 2.000000000000000e+00	 1.857142857142857e+00	 1.029806454015231e+01
0	 2.000000000000001e+00	 2.000000000000001e+00	 1.014979674882527e+01
0	 2.000000000000000e+00	 2.142857142857144e+00	 1.004095460095155e+01
0	 2.000000000000000e+00	 2.285714285714287e+00	 9.968347062772635e+00
0	 2.000000000000000e+00	 2.428571428571429e+00	 9.928783100529966e+00
0	 2.000000000000000e+00	 2.571428571428572e+00	 9.919071680465004e+00
0	 2.000000000000000e+00	 2.714285714285715e+00	 9.936021768819209e+00
0	 2.000000000000000e+00	 2.857142857142857e+00	 9.976442331834042e+00
0	 2.142857142857144e+00	 1.428571428571429e+00	 1.078991076943763e+01
0	 2.142857142857144e+00	 1.571428571428572e+00	 1.058807123341963e+01
0	 2.142857142857143e+00	 1.714285714285714e+00	 1.042327856670330e+01
0	 2.142857142857143e+00	 1.857142857142858e+00	 1.029245099003402e+01
0	 2.142857142857144e+00	 2.000000000000000e+00	 1.019250672415718e+01
0	 2.142857142857144e+00	 2.142857142857143e+00	 1.012036398981816e+01
0	 2.142857142857143e+00	 2.285714285714286e+00	 1.007294100776235e+01
0	 2.142857142857143e+00	 2.428571428571429e+00	 1.004715599873515e+01
0	 2.142857142857143e+00	 2.571428571428572e+00	 1.003992718348193e+01
0	 2.142857142857143e+00	 2.714285714285715e+00	 1.004817278274808e+01
0	 2.142857142857144e+00	 2.857142857142857e+00	 1.006881101727900e+01
0	 2.285714285714286e+00	 1.428571428571429e+00	 1.063155382028721e+01
0	 2.285714285714286e+00	 1.571428571428572e+00	 1.050140521148873e+01
0	 2.285714285714286e+00	 1.714285714285715e+00	 1.039732985774331e+01
0	 2.285714285714286e+00	 1.857142857142858e+00	 1.031641819118902e+01
0	 2.285714285714287e+00	 2.000000000000000e+00	 1.025576064396394e+01
0	 2.285714285714286e+00	 2.142857142857144e+00	 1.021244764820615e+01
0	 2.285714285714286e+00	 2.285714285714286e+00	 1.018356963605373e+01
0	 2.285714285714286e+00	 2.428571428571429e+00	 1.016621703964474e+01
0	 2.285714285714286e+00	 2.571428571428573e+00	 1.015748029111728e+01
0	 2.285714285714286e+00	 2.714285714285714e+00	 1.015444982260941e+01
0	 2.285714285714286e+00	 2.857142857142858e+00	 1.015421606625921e+01
0	 2.428571428571429e+00	 1.428571428571429e+00	 1.052648321958013e+01
0	 2.428571428571430e+00	 1.571428571428572e+00	 1.045615386291334e+01
0	 2.428571428571429e+00	 1.714285714285715e+00	 1.040201418902757e+01
0	 2.428571428571430e+00	 1.857142857142858e+00	 1.036138979834232e+01
0	 2.428571428571428e+00	 2.000000000000000e+00	 1.033160629127714e+01
0	 2.428571428571429e+00	 2.142857142857143e+00	 1.030998926825153e+01
0	 2.428571428571430e+00	 2.285714285714286e+00	 1.029386432968505e+01
0	 2.428571428571430e+00	 2.428571428571430e+00	 1.028055707599720e+01
0	 2.428571428571429e+00	 2.571428571428572e+00	 1.026739310760754e+01
0	 2.428571428571429e+00	 2.714285714285715e+00	 1.025169802493557e+01
0	 2.428571428571430e+00	 2.857142857142858e+00	 1.023079742840083e+01
0	 2.571428571428572e+00	 1.428571428571429e+00	 1.046492092190890e+01
0	 2.571428571428573e+00	 1.571428571428572e+00	 1.044282792819897e+01
0	 2.571428571428572e+00	 1.714285714285715e+00	 1.042824286777241e+01
0	 2.571428571428572e+00	 1.857142857142857e+00	 1.041878946621897e+01
0	 2.571428571428572e+00	 2.000000000000000e+00	 1.041209144912835e+01
0	 2.571428571428572e+00	 2.142857142857143e+00	 1.040577254209034e+01
0	 2.571428571428572e+00	 2.285714285714286e+00	 1.039745647069464e+01
0	 2.571428571428572e+00	 2.428571428571429e+00	 1.038476696053102e+01
0	 2.571428571428572e+00	 2.571428571428573e+00	 1.036532773718921e+01
0	 2.571428571428572e+00	 2.714285714285716e+00	 1.033676252625895e+01
0	 2.571428571428572e+00	 2.857142857142858e+00	 1.029669505332999e+01
0	 2.714285714285715e+00	 1.428571428571429e+00	 1.043708888186602e+01
0	 2.714285714285715e+00	 1.571428571428572e+00	 1.045193814785109e+01
0	 2.714285714285715e+00	 1.714285714285715e+00	 1.046692720119417e+01
0	 2.714285714285714e+00	 1.857142857142857e+00	 1.048004084954397e+01
0	 2.714285714285715e+00	 2.000000000000000e+00	 1.048926390054919e+01
0	 2.714285714285715e+00	 2.142857142857143e+00	 1.049258116185857e+01
0	 2.714285714285714e+00	 2.285714285714286e+00	 1.048797744112082e+01
0	 2.714285714285715e+00	 2.428571428571429e+00	 1.047343754598465e+01
0	 2.714285714285715e+00	 2.571428571428573e+00	 1.044694628409879e+01
0	 2.714285714285716e+00	 2.714285714285716e+00	 1.040648846311193e+01
0	 2.714285714285715e+00	 2.857142857142858e+00	 1.035004889067282e+01
0	 2.857142857142857e+00	 1.428571428571429e+00	 1.043320905404404e+01
0	 2.857142857142858e+00	 1.571428571428572e+00	 1.047399526237520e+01
0	 2.857142857142857e+00	 1.714285714285715e+00	 1.050897849650915e+01
0	 2.857142857142856e+00	 1.857142857142857e+00	 1.053656760304235e+01
0	 2.857142857142858e+00	 2.000000000000001e+00	 1.055517142857124e+01
0	 2.857142857142857e+00	 2.142857142857144e+00	 1.056319881969227e+01
0	 2.857142857142858e+00	 2.285714285714287e+00	 1.055905862300191e+01
0	 2.857142857142858e+00	 2.428571428571430e+00	 1.054115968509658e+01
0	 2.857142857142857e+00	 2.571428571428573e+00	 1.050791085257278e+01
0	 2.857142857142857e+00	 2.714285714285715e+00	 1.045772097202692e+01
0	 2.857142857142858e+00	 2.857142857142857e+00	 1.038899889005547e+01
0	 1.428571428571429e+00	 2.857142857142857e+00	 9.574532232884051e+00
0	 1.428571428571429e+00	 3.000000000000001e+00	 9.683144858444440e+00
0	 1.428571428571429e+00	 3.142857142857143e+00	 9.766676956676417e+00
0	 1.428571428571429e+00	 3.285714285714286e+00	 9.827490419092179e+00
0	 1.428571428571429e+00	 3.428571428571429e+00	 9.867947137203918e+00
0	 1.428571428571429e+00	 3.571428571428572e+00	 9.890409002523810e+00
0	 1.428571428571429e+00	 3.714285714285715e+00	 9.897237906564033e+00
0	 1.428571428571429e+00	 3.857142857142857e+00	 9.890795740836801e+00
0	 1.428571428571429e+00	 4.000000000000000e+00	 9.873444396854284e+00
0	 1.428571428571429e+00	 4.142857142857143e+00	 9.847545766128668e+00
0	 1.428571428571429e+00	 4.285714285714286e+00	 9.815461740172138e+00
0	 1.571428571428572e+00	 2.857142857142858e+00	 9.676154960449356e+00
0	 1.571428571428572e+00	 3.000000000000001e+00	 9.775020721471012e+00
0	 1.571428571428572e+00	 3.142857142857143e+00	 9.850156346328703e+00
0	 1.571428571428572e+00	 3.285714285714286e+00	 9.903789145114940e+00
0	 1.571428571428572e+00	 3.428571428571430e+00	 9.938146427922222e+00
0	 1.571428571428572e+00	 3.571428571428571e+00	 9.955455504843059e+00
0	 1.571428571428572e+00	 3.714285714285715e+00	 9.957943685969960e+00
0	 1.571428571428572e+00	 3.857142857142858e+00	 9.947838281395425e+00
0	 1.571428571428572e+00	 4.000000000000002e+00	 9.927366601211968e+00
0	 1.571428571428571e+00	 4.142857142857142e+00	 9.898755955512085e+00
0	 1.571428571428572e+00	 4.285714285714287e+00	 9.864233654388293e+00
0	 1.714285714285715e+00	 2.857142857142858e+00	 9.778254253045365e+00
0	 1.714285714285714e+00	 3.000000000000000e+00	 9.862127508400414e+00
0	 1.714285714285715e+00	 3.142857142857144e+00	 9.924581252709270e+00
0	 1.714285714285714e+00	 3.285714285714286e+00	 9.967693891176442e+00
0	 1.714285714285715e+00	 3.428571428571429e+00	 9.993543829006491e+00
0	 1.714285714285715e+00	 3.571428571428573e+00	 1.000420947140396e+01
0	 1.714285714285715e+00	 3.714285714285714e+00	 1.000176922357338e+01
0	 1.714285714285714e+00	 3.857142857142857e+00	 9.988301490719305e+00
0	 1.714285714285715e+00	 4.000000000000002e+00	 9.965884678046276e+00
0	 1.714285714285715e+00	 4.142857142857145e+00	 9.936597190758825e+00
0	 1.714285714285715e+00	 4.285714285714286e+00	 9.902517434061506e+00
0	 1.857142857142857e+00	 2.857142857142857e+00	 9.878970060298212e+00
0	 1.857142857142858e+00	 3.000000000000000e+00	 9.943855952263227e+00
0	 1.857142857142857e+00	 3.142857142857143e+00	 9.990393352076579e+00
0	 1.857142857142858e+00	 3.285714285714286e+00	 1.002049743658657e+01
0	 1.857142857142857e+00	 3.428571428571429e+00	 1.003608338264148e+01
0	 1.857142857142858e+00	 3.571428571428572e+00	 1.003906636708960e+01
0	 1.857142857142857e+00	 3.714285714285714e+00	 1.003136156677925e+01
0	 1.857142857142858e+00	 3.857142857142857e+00	 1.001488415855871e+01
0	 1.857142857142858e+00	 4.000000000000001e+00	 9.991549319276276e+00
0	 1.857142857142858e+00	 4.142857142857145e+00	 9.963272225780251e+00
0	 1.857142857142857e+00	 4.285714285714286e+00	 9.931968054918919e+00
0	 2.000000000000000e+00	 2.857142857142857e+00	 9.976442331834042e+00
0	 2.000000000000000e+00	 3.000000000000001e+00	 1.001959678609000e+01
0	 2.000000000000000e+00	 3.142857142857143e+00	 1.004803432068912e+01
0	 2.000000000000000e+00	 3.285714285714286e+00	 1.006349256065517e+01
0	 2.000000000000000e+00	 3.428571428571428e+00	 1.006770913101190e+01
0	 2.000000000000000e+00	 3.571428571428573e+00	 1.006242165678309e+01
0	 2.000000000000000e+00	 3.714285714285714e+00	 1.004936776299250e+01
0	 2.000000000000000e+00	 3.857142857142857e+00	 1.003028507466389e+01
0	 2.000000000000000e+00	 4.000000000000000e+00	 1.000691121682104e+01
0	 2.000000000000001e+00	 4.142857142857145e+00	 9.980983814487704e+00
0	 2.000000000000001e+00	 4.285714285714287e+00	 9.954240492687656e+00
0	 2.142857142857144e+00	 2.857142857142857e+00	 1.006881101727900e+01
0	 2.142857142857143e+00	 3.000000000000000e+00	 1.008874074291131e+01
0	 2.142857142857143e+00	 3.142857142857144e+00	 1.009794583480537e+01
0	 2.142857142857143e+00	 3.285714285714286e+00	 1.009797204269213e+01
0	 2.142857142857144e+00	 3.428571428571429e+00	 1.009036511630253e+01
0	 2.142857142857144e+00	 3.571428571428572e+00	 1.007667080536753e+01
0	 2.142857142857144e+00	 3.714285714285715e+00	 1.005843485961808e+01
0	 2.142857142857143e+00	 3.857142857142858e+00	 1.003720302878513e+01
0	 2.142857142857142e+00	 4.000000000000000e+00	 1.001452106259964e+01
0	 2.142857142857144e+00	 4.142857142857142e+00	 9.991934710792556e+00
0	 2.142857142857143e+00	 4.285714285714285e+00	 9.970989723094826e+00
0	 2.285714285714286e+00	 2.857142857142858e+00	 1.015421606625921e+01
0	 2.285714285714286e+00	 3.000000000000001e+00	 1.015067855575772e+01
0	 2.285714285714286e+00	 3.142857142857144e+00	 1.014056957068379e+01
0	 2.285714285714286e+00	 3.285714285714286e+00	 1.012522866200730e+01
0	 2.285714285714286e+00	 3.428571428571430e+00	 1.010599538069808e+01
0	 2.285714285714287e+00	 3.571428571428572e+00	 1.008420927772600e+01
0	 2.285714285714286e+00	 3.714285714285714e+00	 1.006120990406091e+01
0	 2.285714285714286e+00	 3.857142857142858e+00	 1.003833681067267e+01
0	 2.285714285714286e+00	 4.000000000000001e+00	 1.001692954853113e+01
0	 2.285714285714286e+00	 4.142857142857143e+00	 9.998327668606144e+00
0	 2.285714285714287e+00	 4.285714285714286e+00	 9.983870721867572e+00
0	 2.428571428571430e+00	 2.857142857142858e+00	 1.023079742840083e+01
0	 2.428571428571430e+00	 3.000000000000001e+00	 1.020480095765979e+01
0	 2.428571428571429e+00	 3.142857142857143e+00	 1.017634720458287e+01
0	 2.428571428571430e+00	 3.285714285714286e+00	 1.014655519791056e+01
0	 2.428571428571429e+00	 3.428571428571429e+00	 1.011654396638331e+01
0	 2.428571428571429e+00	 3.571428571428573e+00	 1.008743253874162e+01
0	 2.428571428571429e+00	 3.714285714285714e+00	 1.006033994372595e+01
0	 2.428571428571430e+00	 3.857142857142858e+00	 1.003638521007678e+01
0	 2.428571428571429e+00	 4.000000000000000e+00	 1.001668736653458e+01
0	 2.428571428571430e+00	 4.142857142857145e+00	 1.000236544183983e+01
0	 2.428571428571430e+00	 4.285714285714285e+00	 9.994538464733003e+00
0	 2.571428571428572e+00	 2.857142857142858e+00	 1.029669505332999e+01
0	 2.571428571428573e+00	 3.000000000000001e+00	 1.025049868164809e+01
0	 2.571428571428572e+00	 3.142857142857143e+00	 1.020572041276108e+01
0	 2.571428571428573e+00	 3.285714285714286e+00	 1.016324442971177e+01
0	 2.571428571428573e+00	 3.428571428571429e+00	 1.012395491554296e+01
0	 2.571428571428572e+00	 3.571428571428572e+00	 1.008873605329749e+01
0	 2.571428571428573e+00	 3.714285714285715e+00	 1.005847202601812e+01
0	 2.571428571428572e+00	 3.857142857142856e+00	 1.003404701674771e+01
0	 2.571428571428572e+00	 4.000000000000001e+00	 1.001634520852906e+01
0	 2.571428571428572e+00	 4.142857142857142e+00	 1.000625078440496e+01
0	 2.571428571428572e+00	 4.285714285714286e+00	 1.000464792741825e+01
0	 2.714285714285715e+00	 2.857142857142858e+00	 1.035004889067282e+01
0	 2.714285714285715e+00	 3.000000000000000e+00	 1.028716246075319e+01
0	 2.714285714285715e+00	 3.142857142857143e+00	 1.022913087147690e+01
0	 2.714285714285715e+00	 3.285714285714286e+00	 1.017658913672080e+01
0	 2.714285714285715e+00	 3.428571428571429e+00	 1.013017227036178e+01
0	 2.714285714285715e+00	 3.571428571428572e+00	 1.009051528627668e+01
0	 2.714285714285715e+00	 3.714285714285716e+00	 1.005825319834239e+01
0	 2.714285714285715e+00	 3.857142857142858e+00	 1.003402102043574e+01
0	 2.714285714285715e+00	 4.000000000000001e+00	 1.001845376643363e+01
0	 2.714285714285714e+00	 4.142857142857143e+00	 1.001218645021291e+01
0	 2.714285714285715e+00	 4.285714285714286e+00	 1.001585408565045e+01
0	 2.857142857142858e+00	 2.857142857142857e+00	 1.038899889005547e+01
0	 2.857142857142858e+00	 3.000000000000000e+00	 1.031418302800565e+01
0	 2.857142857142858e+00	 3.142857142857143e+00	 1.024702025698879e+01
0	 2.857142857142857e+00	 3.285714285714286e+00	 1.018788209824752e+01
0	 2.857142857142858e+00	 3.428571428571429e+00	 1.013714007302448e+01
0	 2.857142857142857e+00	 3.571428571428572e+00	 1.009516570256232e+01
0	 2.857142857142858e+00	 3.714285714285716e+00	 1.006233050810365e+01
0	 2.857142857142858e+00	 3.857142857142858e+00	 1.003900601089112e+01
0	 2.857142857142857e+00	 4.000000000000001e+00	 1.002556373216736e+01
0	 2.857142857142857e+00	 4.142857142857142e+00	 1.002237519317501e+01
0	 2.857142857142858e+00	 4.285714285714286e+00	 1.002981191515670e+01
0	 1.428571428571429e+00	 4.285714285714286e+00	 9.815461740172138e+00
0	 1.428571428571429e+00	 4.428571428571429e+00	 9.787328238202850e+00
0	 1.428571428571429e+00	 4.571428571428571e+00	 9.770693302278918e+00
0	 1.428571428571429e+00	 4.714285714285714e+00	 9.764037008172496e+00
0	 1.428571428571429e+00	 4.857142857142858e+00	 9.765839431655740e+00
0	 1.428571428571429e+00	 5.000000000000001e+00	 9.774580648500820e+00
0	 1.428571428571429e+00	 5.142857142857143e+00	 9.788740734479887e+00
0	 1.428571428571429e+00	 5.285714285714285e+00	 9.806799765365078e+00
0	 1.428571428571429e+00	 5.428571428571428e+00	 9.827237816928564e+00
0	 1.428571428571429e+00	 5.571428571428570e+00	 9.848534964942518e+00
0	 1.428571428571429e+00	 5.714285714285713e+00	 9.869171285179061e+00
0	 1.571428571428572e+00	 4.285714285714287e+00	 9.864233654388293e+00
0	 1.571428571428572e+00	 4.428571428571431e+00	 9.833346682394785e+00
0	 1.571428571428572e+00	 4.571428571428571e+00	 9.813242132159283e+00
0	 1.571428571428572e+00	 4.714285714285714e+00	 9.802547475884607e+00
0	 1.571428571428572e+00	 4.857142857142858e+00	 9.799890185773538e+00
0	 1.571428571428572e+00	 4.999999999999999e+00	 9.803897734028887e+00
0	 1.571428571428572e+00	 5.142857142857143e+00	 9.813197592853436e+00
0	 1.571428571428572e+00	 5.285714285714286e+00	 9.826417234449995e+00
0	 1.571428571428572e+00	 5.428571428571428e+00	 9.842184131021364e+00
0	 1.571428571428572e+00	 5.571428571428569e+00	 9.859125754770337e+00
0	 1.571428571428572e+00	 5.714285714285717e+00	 9.875869577899703e+00
0	 1.714285714285715e+00	 4.285714285714286e+00	 9.902517434061506e+00
0	 1.714285714285714e+00	 4.428571428571426e+00	 9.871999638190839e+00
0	 1.714285714285715e+00	 4.571428571428572e+00	 9.851194447060784e+00
0	 1.714285714285714e+00	 4.714285714285714e+00	 9.838874886392002e+00
0	 1.714285714285715e+00	 4.857142857142857e+00	 9.833813981905205e+00
0	 1.714285714285715e+00	 5.000000000000001e+00	 9.834784759321066e+00
0	 1.714285714285715e+00	 5.142857142857141e+00	 9.840560244360248e+00
0	 1.714285714285714e+00	 5.285714285714284e+00	 9.849913462743462e+00
0	 1.714285714285714e+00	 5.428571428571426e+00	 9.861617440191376e+00
0	 1.714285714285715e+00	 5.571428571428570e+00	 9.874445202424681e+00
0	 1.714285714285715e+00	 5.714285714285714e+00	 9.887169775164047e+00
0	 1.857142857142857e+00	 4.285714285714286e+00	 9.931968054918919e+00
0	 1.857142857142858e+00	 4.428571428571431e+00	 9.904333250457444e+00
0	 1.857142857142857e+00	 4.571428571428571e+00	 9.885065295812685e+00
0	 1.857142857142858e+00	 4.714285714285716e+00	 9.873080927310429e+00
0	 1.857142857142857e+00	 4.857142857142856e+00	 9.867296881276490e+00
0	 1.857142857142858e+00	 5.000000000000001e+00	 9.866629894036683e+00
0	 1.857142857142858e+00	 5.142857142857142e+00	 9.869996701916822e+00
0	 1.857142857142858e+00	 5.285714285714286e+00	 9.876314041242715e+00
0	 1.857142857142857e+00	 5.428571428571428e+00	 9.884498648340168e+00
0	 1.857142857142857e+00	 5.571428571428569e+00	 9.893467259534992e+00
0	 1.857142857142857e+00	 5.714285714285714e+00	 9.902136611152999e+00
0	 2.000000000000001e+00	 4.285714285714287e+00	 9.954240492687656e+00
0	 2.000000000000000e+00	 4.428571428571429e+00	 9.931393664061028e+00
0	 2.000000000000000e+00	 4.571428571428573e+00	 9.915369727244292e+00
0	 2.000000000000000e+00	 4.714285714285714e+00	 9.905227286255602e+00
0	 2.000000000000001e+00	 4.857142857142857e+00	 9.900024945113154e+00
0	 2.000000000000000e+00	 5.000000000000001e+00	 9.898821307835108e+00
0	 2.000000000000000e+00	 5.142857142857142e+00	 9.900674978439676e+00
0	 2.000000000000000e+00	 5.285714285714283e+00	 9.904644560945009e+00
0	 2.000000000000000e+00	 5.428571428571427e+00	 9.909788659369292e+00
0	 2.000000000000001e+00	 5.571428571428571e+00	 9.915165877730711e+00
0	 2.000000000000000e+00	 5.714285714285714e+00	 9.919834820047443e+00
0	 2.142857142857143e+00	 4.285714285714285e+00	 9.970989723094826e+00
0	 2.142857142857143e+00	 4.428571428571428e+00	 9.954227023868013e+00
0	 2.142857142857143e+00	 4.571428571428571e+00	 9.942622790184902e+00
0	 2.142857142857143e+00	 4.714285714285716e+00	 9.935375650843280e+00
0	 2.142857142857144e+00	 4.857142857142858e+00	 9.931684234640946e+00
0	 2.142857142857144e+00	 5.000000000000000e+00	 9.930747170375694e+00
0	 2.142857142857144e+00	 5.142857142857143e+00	 9.931763086845296e+00
0	 2.142857142857144e+00	 5.285714285714285e+00	 9.933930612847579e+00
0	 2.142857142857143e+00	 5.428571428571427e+00	 9.936448377180307e+00
0	 2.142857142857143e+00	 5.571428571428569e+00	 9.938515008641279e+00
0	 2.142857142857144e+00	 5.714285714285714e+00	 9.939329136028292e+00
0	 2.285714285714287e+00	 4.285714285714286e+00	 9.983870721867572e+00
0	 2.285714285714286e+00	 4.428571428571430e+00	 9.973879474744814e+00
0	 2.285714285714286e+00	 4.571428571428572e+00	 9.967339533463804e+00
0	 2.285714285714286e+00	 4.714285714285715e+00	 9.963587708689200e+00
0	 2.285714285714286e+00	 4.857142857142858e+00	 9.961960811085627e+00
0	 2.285714285714286e+00	 5.000000000000000e+00	 9.961795651317756e+00
0	 2.285714285714286e+00	 5.142857142857143e+00	 9.962429040050218e+00
0	 2.285714285714287e+00	 5.285714285714286e+00	 9.963197787947671e+00
0	 2.285714285714286e+00	 5.428571428571426e+00	 9.963438705674758e+00
0	 2.285714285714286e+00	 5.571428571428569e+00	 9.962488603896132e+00
0	 2.285714285714286e+00	 5.714285714285714e+00	 9.959684293276416e+00
0	 2.428571428571430e+00	 4.285714285714285e+00	 9.994538464733003e+00
0	 2.428571428571430e+00	 4.428571428571431e+00	 9.991397161557845e+00
0	 2.428571428571429e+00	 4.571428571428570e+00	 9.990035005910290e+00
0	 2.428571428571430e+00	 4.714285714285715e+00	 9.989925147409076e+00
0	 2.428571428571429e+00	 4.857142857142858e+00	 9.990540735672948e+00
0	 2.428571428571430e+00	 5.000000000000000e+00	 9.991354920320655e+00
0	 2.428571428571429e+00	 5.142857142857142e+00	 9.991840850970936e+00
0	 2.428571428571430e+00	 5.285714285714286e+00	 9.991471677242544e+00
0	 2.428571428571429e+00	 5.428571428571427e+00	 9.989720548754217e+00
0	 2.428571428571429e+00	 5.571428571428570e+00	 9.986060615124696e+00
0	 2.428571428571429e+00	 5.714285714285714e+00	 9.979965025972746e+00
0	 2.571428571428572e+00	 4.285714285714286e+00	 1.000464792741825e+01
0	 2.571428571428572e+00	 4.428571428571430e+00	 1.000782622917355e+01
0	 2.571428571428572e+00	 4.571428571428570e+00	 1.001122425635366e+01
0	 2.571428571428573e+00	 4.714285714285714e+00	 1.001444965461867e+01
0	 2.571428571428573e+00	 4.857142857142858e+00	 1.001711006962866e+01
0	 2.571428571428572e+00	 5.000000000000000e+00	 1.001881314704374e+01
0	 2.571428571428573e+00	 5.142857142857144e+00	 1.001916653252396e+01
0	 2.571428571428573e+00	 5.285714285714285e+00	 1.001777787172943e+01
0	 2.571428571428572e+00	 5.428571428571428e+00	 1.001425481032022e+01
0	 2.571428571428572e+00	 5.571428571428570e+00	 1.000820499395643e+01
0	 2.571428571428572e+00	 5.714285714285714e+00	 9.999236068298147e+00
0	 2.714285714285715e+00	 4.285714285714286e+00	 1.001585408565045e+01
0	 2.714285714285715e+00	 4.428571428571429e+00	 1.002421282245833e+01
0	 2.714285714285715e+00	 4.571428571428571e+00	 1.003142233362320e+01
0	 2.714285714285715e+00	 4.714285714285714e+00	 1.003722291793371e+01
0	 2.714285714285715e+00	 4.857142857142857e+00	 1.004135487417853e+01
0	 2.714285714285714e+00	 4.999999999999999e+00	 1.004355850114634e+01
0	 2.714285714285715e+00	 5.142857142857142e+00	 1.004357409762580e+01
0	 2.714285714285715e+00	 5.285714285714284e+00	 1.004114196240559e+01
0	 2.714285714285715e+00	 5.428571428571426e+00	 1.003600239427435e+01
0	 2.714285714285715e+00	 5.571428571428570e+00	 1.002789569202078e+01
0	 2.714285714285715e+00	 5.714285714285714e+00	 1.001656215443352e+01
0	 2.857142857142858e+00	 4.285714285714286e+00	 1.002981191515670e+01
0	 2.857142857142858e+00	 4.428571428571430e+00	 1.004160308627862e+01
0	 2.857142857142857e+00	 4.571428571428570e+00	 1.005114428654820e+01
0	 2.857142857142857e+00	 4.714285714285714e+00	 1.005830662496993e+01
0	 2.857142857142858e+00	 4.857142857142858e+00	 1.006296121054830e+01
0	 2.857142857142857e+00	 5.000000000000000e+00	 1.006497915228782e+01
0	 2.857142857142857e+00	 5.142857142857143e+00	 1.006423155919298e+01
0	 2.857142857142857e+00	 5.285714285714285e+00	 1.006058954026825e+01
0	 2.857142857142858e+00	 5.428571428571428e+00	 1.005392420451815e+01
0	 2.857142857142858e+00	 5.571428571428569e+00	 1.004410666094716e+01
0	 2.857142857142858e+00	 5.714285714285714e+00	 1.003100801855977e+01
0	 1.428571428571429e+00	 5.714285714285713e+00	 9.869171285179061e+00
0	 1.428571428571429e+00	 5.857142857142857e+00	 9.885867336920413e+00
0	 1.428571428571429e+00	 6.000000000000000e+00	 9.897068588714641e+00
0	 1.428571428571429e+00	 6.142857142857141e+00	 9.903842480232735e+00
0	 1.428571428571429e+00	 6.285714285714285e+00	 9.907256451145670e+00
0	 1.428571428571429e+00	 6.428571428571425e+00	 9.908377941124447e+00
0	 1.428571428571429e+00	 6.571428571428568e+00	 9.908274389840031e+00
0	 1.428571428571428e+00	 6.714285714285711e+00	 9.908013236963422e+00
0	 1.428571428571429e+00	 6.857142857142853e+00	 9.908661922165603e+00
0	 1.428571428571429e+00	 6.999999999999996e+00	 9.911287885117549e+00
0	 1.428571428571429e+00	 7.142857142857143e+00	 9.916958565490260e+00
0	 1.571428571428572e+00	 5.714285714285717e+00	 9.875869577899701e+00
0	 1.571428571428572e+00	 5.857142857142858e+00	 9.889534383930833e+00
0	 1.571428571428572e+00	 5.999999999999999e+00	 9.898776939613480e+00
0	 1.571428571428572e+00	 6.142857142857143e+00	 9.904531691993007e+00
0	 1.571428571428572e+00	 6.285714285714284e+00	 9.907733088114792e+00
0	 1.571428571428572e+00	 6.428571428571425e+00	 9.909315575024220e+00
0	 1.571428571428572e+00	 6.571428571428569e+00	 9.910213599766660e+00
0	 1.571428571428572e+00	 6.714285714285711e+00	 9.911361609387487e+00
0	 1.571428571428572e+00	 6.857142857142854e+00	 9.913694050932079e+00
0	 1.571428571428572e+00	 6.999999999999996e+00	 9.918145371445814e+00
0	 1.571428571428572e+00	 7.142857142857144e+00	 9.925650017974066e+00
0	 1.714285714285715e+00	 5.714285714285714e+00	 9.887169775164047e+00
0	 1.714285714285715e+00	 5.857142857142857e+00	 9.897459304959076e+00
0	 1.714285714285714e+00	 5.999999999999998e+00	 9.904338900784875e+00
0	 1.714285714285715e+00	 6.142857142857141e+00	 9.908617032000459e+00
0	 1.714285714285715e+00	 6.285714285714284e+00	 9.911102167964815e+00
0	 1.714285714285715e+00	 6.428571428571427e+00	 9.912602778036943e+00
0	 1.714285714285714e+00	 6.571428571428567e+00	 9.913927331575843e+00
0	 1.714285714285715e+00	 6.714285714285712e+00	 9.915884297940515e+00
0	 1.714285714285714e+00	 6.857142857142852e+00	 9.919282146489950e+00
0	 1.714285714285715e+00	 6.999999999999996e+00	 9.924929346583143e+00
0	 1.714285714285715e+00	 7.142857142857144e+00	 9.933634367579090e+00
0	 1.857142857142857e+00	 5.714285714285714e+00	 9.902136611152997e+00
0	 1.857142857142858e+00	 5.857142857142857e+00	 9.908833754021215e+00
0	 1.857142857142857e+00	 5.999999999999998e+00	 9.913067585824029e+00
0	 1.857142857142857e+00	 6.142857142857141e+00	 9.915527613173278e+00
0	 1.857142857142858e+00	 6.285714285714286e+00	 9.916903342680826e+00
0	 1.857142857142858e+00	 6.428571428571429e+00	 9.917884280958519e+00
0	 1.857142857142857e+00	 6.571428571428569e+00	 9.919159934618197e+00
0	 1.857142857142857e+00	 6.714285714285710e+00	 9.921419810271729e+00
0	 1.857142857142857e+00	 6.857142857142853e+00	 9.925353414530935e+00
0	 1.857142857142857e+00	 6.999999999999996e+00	 9.931650254007684e+00
0	 1.857142857142857e+00	 7.142857142857144e+00	 9.940999835313830e+00
0	 2.000000000000000e+00	 5.714285714285714e+00	 9.919834820047445e+00
0	 2.000000000000001e+00	 5.857142857142858e+00	 9.922849385133350e+00
0	 2.000000000000000e+00	 5.999999999999998e+00	 9.924276108326108e+00
0	 2.000000000000000e+00	 6.142857142857139e+00	 9.924692548429654e+00
0	 2.000000000000000e+00	 6.285714285714282e+00	 9.924676264247921e+00
0	 2.000000000000000e+00	 6.428571428571426e+00	 9.924804814584835e+00
0	 2.000000000000001e+00	 6.571428571428569e+00	 9.925655758244341e+00
0	 2.000000000000000e+00	 6.714285714285711e+00	 9.927806654030343e+00
0	 2.000000000000000e+00	 6.857142857142854e+00	 9.931835060746799e+00
0	 2.000000000000000e+00	 6.999999999999996e+00	 9.938318537197627e+00
0	 2.000000000000000e+00	 7.142857142857144e+00	 9.947834642186764e+00
0	 2.142857142857144e+00	 5.714285714285714e+00	 9.939329136028292e+00
0	 2.142857142857143e+00	 5.857142857142858e+00	 9.938697852311575e+00
0	 2.142857142857144e+00	 5.999999999999999e+00	 9.937277581886317e+00
0	 2.142857142857144e+00	 6.142857142857143e+00	 9.935540950687781e+00
0	 2.142857142857143e+00	 6.285714285714285e+00	 9.933960584651196e+00
0	 2.142857142857144e+00	 6.428571428571428e+00	 9.933009109711806e+00
0	 2.142857142857144e+00	 6.571428571428569e+00	 9.933159151804867e+00
0	 2.142857142857143e+00	 6.714285714285712e+00	 9.934883336865608e+00
0	 2.142857142857143e+00	 6.857142857142854e+00	 9.938654290829284e+00
0	 2.142857142857143e+00	 6.999999999999996e+00	 9.944944639631126e+00
0	 2.142857142857144e+00	 7.142857142857145e+00	 9.954227009206388e+00
0	 2.285714285714286e+00	 5.714285714285714e+00	 9.959684293276418e+00
0	 2.285714285714286e+00	 5.857142857142855e+00	 9.955570809571968e+00
0	 2.285714285714286e+00	 5.999999999999999e+00	 9.951385120099847e+00
0	 2.285714285714287e+00	 6.142857142857142e+00	 9.947501932865846e+00
0	 2.285714285714287e+00	 6.285714285714286e+00	 9.944295955875743e+00
0	 2.285714285714286e+00	 6.428571428571426e+00	 9.942141897135336e+00
0	 2.285714285714286e+00	 6.571428571428568e+00	 9.941414464650400e+00
0	 2.285714285714286e+00	 6.714285714285711e+00	 9.942488366426733e+00
0	 2.285714285714286e+00	 6.857142857142855e+00	 9.945738310470123e+00
0	 2.285714285714286e+00	 6.999999999999996e+00	 9.951539004786344e+00
0	 2.285714285714286e+00	 7.142857142857144e+00	 9.960265157381187e+00
0	 2.428571428571429e+00	 5.714285714285714e+00	 9.979965025972746e+00
0	 2.428571428571430e+00	 5.857142857142857e+00	 9.972659910930634e+00
0	 2.428571428571428e+00	 5.999999999999999e+00	 9.965911836561876e+00
0	 2.428571428571429e+00	 6.142857142857142e+00	 9.960004607882027e+00
0	 2.428571428571430e+00	 6.285714285714284e+00	 9.955222029906651e+00
0	 2.428571428571429e+00	 6.428571428571425e+00	 9.951847907651315e+00
0	 2.428571428571429e+00	 6.571428571428569e+00	 9.950166046131557e+00
0	 2.428571428571428e+00	 6.714285714285709e+00	 9.950460250362957e+00
0	 2.428571428571429e+00	 6.857142857142852e+00	 9.953014325361073e+00
0	 2.428571428571429e+00	 6.999999999999995e+00	 9.958112076141457e+00
0	 2.428571428571429e+00	 7.142857142857144e+00	 9.966037307719663e+00
0	 2.571428571428572e+00	 5.714285714285714e+00	 9.999236068298146e+00
0	 2.571428571428572e+00	 5.857142857142858e+00	 9.989156810403653e+00
0	 2.571428571428572e+00	 6.000000000000000e+00	 9.980170844867589e+00
0	 2.571428571428572e+00	 6.142857142857141e+00	 9.972478088654530e+00
0	 2.571428571428573e+00	 6.285714285714286e+00	 9.966278458729025e+00
0	 2.571428571428573e+00	 6.428571428571427e+00	 9.961771872055641e+00
0	 2.571428571428572e+00	 6.571428571428569e+00	 9.959158245598946e+00
0	 2.571428571428572e+00	 6.714285714285710e+00	 9.958637496323506e+00
0	 2.571428571428573e+00	 6.857142857142855e+00	 9.960409541193869e+00
0	 2.571428571428572e+00	 6.999999999999996e+00	 9.964674297174614e+00
0	 2.571428571428572e+00	 7.142857142857143e+00	 9.971631681230299e+00
0	 2.714285714285715e+00	 5.714285714285714e+00	 1.001656215443352e+01
0	 2.714285714285715e+00	 5.857142857142856e+00	 1.000425316200712e+01
0	 2.714285714285716e+00	 6.000000000000000e+00	 9.993475258612184e+00
0	 2.714285714285715e+00	 6.142857142857141e+00	 9.984351488101534e+00
0	 2.714285714285715e+00	 6.285714285714285e+00	 9.977004894327955e+00
0	 2.714285714285715e+00	 6.428571428571427e+00	 9.971558521144241e+00
0	 2.714285714285714e+00	 6.571428571428569e+00	 9.968135412403187e+00
0	 2.714285714285715e+00	 6.714285714285710e+00	 9.966858611957598e+00
0	 2.714285714285715e+00	 6.857142857142854e+00	 9.967851163660267e+00
0	 2.714285714285714e+00	 6.999999999999996e+00	 9.971236111363998e+00
0	 2.714285714285715e+00	 7.142857142857145e+00	 9.977136498921583e+00
0	 2.857142857142858e+00	 5.714285714285714e+00	 1.003100801855977e+01
0	 2.857142857142858e+00	 5.857142857142855e+00	 1.001714061975712e+01
0	 2.857142857142857e+00	 5.999999999999999e+00	 1.000513819139086e+01
0	 2.857142857142858e+00	 6.142857142857142e+00	 9.995053919141238e+00
0	 2.857142857142857e+00	 6.285714285714285e+00	 9.986940988688531e+00
0	 2.857142857142857e+00	 6.428571428571425e+00	 9.980852585712988e+00
0	 2.857142857142857e+00	 6.571428571428569e+00	 9.976841895894873e+00
0	 2.857142857142858e+00	 6.714285714285711e+00	 9.974962104914464e+00
0	 2.857142857142857e+00	 6.857142857142854e+00	 9.975266398452000e+00
0	 2.857142857142857e+00	 6.999999999999997e+00	 9.977807962187761e+00
0	 2.857142857142857e+00	 7.142857142857143e+00	 9.982639981801999e+00
0	 1.428571428571429e+00	 7.142857142857143e+00	 9.916958565490260e+00
0	 1.428571428571429e+00	 7.285714285714286e+00	 9.925615496050860e+00
0	 1.428571428571429e+00	 7.428571428571427e+00	 9.936004751449181e+00
0	 1.428571428571429e+00	 7.571428571428570e+00	 9.947400584180237e+00
0	 1.428571428571429e+00	 7.714285714285714e+00	 9.959077246739078e+00
0	 1.428571428571429e+00	 7.857142857142852e+00	 9.970308991620723e+00
0	 1.428571428571429e+00	 8.000000000000000e+00	 9.980370071320216e+00
0	 1.428571428571429e+00	 8.142857142857141e+00	 9.988534738332598e+00
0	 1.428571428571429e+00	 8.285714285714283e+00	 9.994077245152861e+00
0	 1.428571428571429e+00	 8.428571428571425e+00	 9.996271844276080e+00
0	 1.428571428571429e+00	 8.571428571428575e+00	 9.994392788197260e+00
0	 1.571428571428572e+00	 7.142857142857144e+00	 9.925650017974064e+00
0	 1.571428571428572e+00	 7.285714285714286e+00	 9.935620298583379e+00
0	 1.571428571428572e+00	 7.428571428571429e+00	 9.946450032930819e+00
0	 1.571428571428571e+00	 7.571428571428570e+00	 9.957545935447557e+00
0	 1.571428571428571e+00	 7.714285714285713e+00	 9.968314720564749e+00
0	 1.571428571428571e+00	 7.857142857142854e+00	 9.978163102713566e+00
0	 1.571428571428572e+00	 7.999999999999997e+00	 9.986497796325185e+00
0	 1.571428571428572e+00	 8.142857142857142e+00	 9.992725515830774e+00
0	 1.571428571428572e+00	 8.285714285714285e+00	 9.996252975661486e+00
0	 1.571428571428572e+00	 8.428571428571425e+00	 9.996486890248484e+00
0	 1.571428571428572e+00	 8.571428571428573e+00	 9.992833974022959e+00
0	 1.714285714285715e+00	 7.142857142857144e+00	 9.933634367579092e+00
0	 1.714285714285714e+00	 7.285714285714285e+00	 9.944380127311222e+00
0	 1.714285714285714e+00	 7.428571428571427e+00	 9.955295207003587e+00
0	 1.714285714285715e+00	 7.571428571428573e+00	 9.965906571101172e+00
0	 1.714285714285715e+00	 7.714285714285715e+00	 9.975741184048966e+00
0	 1.714285714285715e+00	 7.857142857142857e+00	 9.984326010291946e+00
0	 1.714285714285715e+00	 7.999999999999998e+00	 9.991188014275103e+00
0	 1.714285714285714e+00	 8.142857142857141e+00	 9.995854160443413e+00
0	 1.714285714285715e+00	 8.285714285714285e+00	 9.997851413241854e+00
0	 1.714285714285715e+00	 8.428571428571429e+00	 9.996706737115430e+00
0	 1.714285714285714e+00	 8.571428571428571e+00	 9.991947096509103e+00
0	 1.857142857142857e+00	 7.142857142857144e+00	 9.940999835313830e+00
0	 1.857142857142857e+00	 7.285714285714286e+00	 9.952049062770415e+00
0	 1.857142857142857e+00	 7.428571428571426e+00	 9.962741837981586e+00
0	 1.857142857142857e+00	 7.571428571428572e+00	 9.972713163483826e+00
0	 1.857142857142857e+00	 7.714285714285715e+00	 9.981598041813601e+00
0	 1.857142857142858e+00	 7.857142857142857e+00	 9.989031475507410e+00
0	 1.857142857142857e+00	 7.999999999999997e+00	 9.994648467101726e+00
0	 1.857142857142857e+00	 8.142857142857139e+00	 9.998084019133030e+00
0	 1.857142857142857e+00	 8.285714285714281e+00	 9.998973134137797e+00
0	 1.857142857142858e+00	 8.428571428571429e+00	 9.996950814652507e+00
0	 1.857142857142857e+00	 8.571428571428575e+00	 9.991652063213651e+00
0	 2.000000000000000e+00	 7.142857142857144e+00	 9.947834642186768e+00
0	 2.000000000000000e+00	 7.285714285714286e+00	 9.958781185496996e+00
0	 2.000000000000000e+00	 7.428571428571428e+00	 9.968991490178936e+00
0	 2.000000000000000e+00	 7.571428571428570e+00	 9.978196384938229e+00
0	 2.000000000000000e+00	 7.714285714285714e+00	 9.986126698480540e+00
0	 2.000000000000000e+00	 7.857142857142857e+00	 9.992513259511528e+00
0	 2.000000000000000e+00	 7.999999999999999e+00	 9.997086896736848e+00
0	 2.000000000000000e+00	 8.142857142857141e+00	 9.999578438862148e+00
0	 2.000000000000001e+00	 8.285714285714283e+00	 9.999718714593115e+00
0	 2.000000000000001e+00	 8.428571428571429e+00	 9.997238552635370e+00
0	 2.000000000000000e+00	 8.571428571428571e+00	 9.991868781694611e+00
0	 2.142857142857144e+00	 7.142857142857145e+00	 9.954227009206388e+00
0	 2.142857142857142e+00	 7.285714285714286e+00	 9.964730576027005e+00
0	 2.142857142857144e+00	 7.428571428571428e+00	 9.974245727909738e+00
0	 2.142857142857144e+00	 7.571428571428571e+00	 9.982586907807109e+00
0	 2.142857142857143e+00	 7.714285714285714e+00	 9.989568558671627e+00
0	 2.142857142857143e+00	 7.857142857142858e+00	 9.995005123455824e+00
0	 2.142857142857143e+00	 7.999999999999997e+00	 9.998711045112209e+00
0	 2.142857142857144e+00	 8.142857142857139e+00	 1.000050076659329e+01
0	 2.142857142857144e+00	 8.285714285714286e+00	 1.000018873085160e+01
0	 2.142857142857143e+00	 8.428571428571427e+00	 9.997589380839649e+00
0	 2.142857142857144e+00	 8.571428571428571e+00	 9.992517159509948e+00
0	 2.285714285714286e+00	 7.142857142857144e+00	 9.960265157381190e+00
0	 2.285714285714286e+00	 7.285714285714286e+00	 9.970051314896455e+00
0	 2.285714285714286e+00	 7.428571428571429e+00	 9.978706115488103e+00
0	 2.285714285714286e+00	 7.571428571428569e+00	 9.986115404433175e+00
0	 2.285714285714286e+00	 7.714285714285714e+00	 9.992165027008753e+00
0	 2.285714285714286e+00	 7.857142857142855e+00	 9.996740828491870e+00
0	 2.285714285714286e+00	 8.000000000000000e+00	 9.999728654159599e+00
0	 2.285714285714286e+00	 8.142857142857141e+00	 1.000101434928898e+01
0	 2.285714285714287e+00	 8.285714285714285e+00	 1.000048375915708e+01
0	 2.285714285714287e+00	 8.428571428571427e+00	 9.998022729040949e+00
0	 2.285714285714287e+00	 8.571428571428573e+00	 9.993517104217636e+00
0	 2.428571428571429e+00	 7.142857142857144e+00	 9.966037307719663e+00
0	 2.428571428571429e+00	 7.285714285714286e+00	 9.974897482641403e+00
0	 2.428571428571429e+00	 7.428571428571427e+00	 9.982574217228148e+00
0	 2.428571428571429e+00	 7.571428571428571e+00	 9.989012547159181e+00
0	 2.428571428571429e+00	 7.714285714285714e+00	 9.994157508113776e+00
0	 2.428571428571430e+00	 7.857142857142858e+00	 9.997954135771222e+00
0	 2.428571428571430e+00	 7.999999999999998e+00	 1.000034746581078e+01
0	 2.428571428571429e+00	 8.142857142857141e+00	 1.000128253391172e+01
0	 2.428571428571429e+00	 8.285714285714286e+00	 1.000070437575334e+01
0	 2.428571428571430e+00	 8.428571428571425e+00	 9.998558027014896e+00
0	 2.428571428571429e+00	 8.571428571428577e+00	 9.994788523375680e+00
0	 2.571428571428572e+00	 7.142857142857143e+00	 9.971631681230299e+00
0	 2.571428571428572e+00	 7.285714285714287e+00	 9.979423159797861e+00
0	 2.571428571428572e+00	 7.428571428571430e+00	 9.986051597443979e+00
0	 2.571428571428572e+00	 7.571428571428570e+00	 9.991509008327817e+00
0	 2.571428571428573e+00	 7.714285714285714e+00	 9.995787406608576e+00
0	 2.571428571428572e+00	 7.857142857142858e+00	 9.998878806445404e+00
0	 2.571428571428573e+00	 8.000000000000000e+00	 1.000077522199751e+01
0	 2.571428571428572e+00	 8.142857142857142e+00	 1.000146866742404e+01
0	 2.571428571428572e+00	 8.285714285714285e+00	 1.000095115688419e+01
0	 2.571428571428572e+00	 8.428571428571425e+00	 9.999214704537128e+00
0	 2.571428571428573e+00	 8.571428571428573e+00	 9.996251324542035e+00
0	 2.714285714285715e+00	 7.142857142857145e+00	 9.977136498921583e+00
0	 2.714285714285715e+00	 7.285714285714286e+00	 9.983782426901872e+00
0	 2.714285714285715e+00	 7.428571428571431e+00	 9.989339820449704e+00
0	 2.714285714285715e+00	 7.571428571428572e+00	 9.993835460281829e+00
0	 2.714285714285715e+00	 7.714285714285714e+00	 9.997296127115021e+00
0	 2.714285714285715e+00	 7.857142857142858e+00	 9.999748601666004e+00
0	 2.714285714285715e+00	 7.999999999999998e+00	 1.000121966465157e+01
0	 2.714285714285714e+00	 8.142857142857141e+00	 1.000173609678847e+01
0	 2.714285714285715e+00	 8.285714285714285e+00	 1.000132467879344e+01
0	 2.714285714285716e+00	 8.428571428571427e+00	 1.000001219138327e+01
0	 2.714285714285715e+00	 8.571428571428573e+00	 9.997825415274693e+00
0	 2.857142857142857e+00	 7.142857142857143e+00	 9.982639981801999e+00
0	 2.857142857142857e+00	 7.285714285714285e+00	 9.988129364489469e+00
0	 2.857142857142857e+00	 7.428571428571429e+00	 9.992640450559445e+00
0	 2.857142857142857e+00	 7.571428571428571e+00	 9.996222575363937e+00
0	 2.857142857142857e+00	 7.714285714285714e+00	 9.998925074254970e+00
0	 2.857142857142857e+00	 7.857142857142854e+00	 1.000079728258456e+01
0	 2.857142857142858e+00	 7.999999999999999e+00	 1.000188853570473e+01
0	 2.857142857142858e+00	 8.142857142857142e+00	 1.000224816896750e+01
0	 2.857142857142858e+00	 8.285714285714283e+00	 1.000192551772489e+01
0	 2.857142857142858e+00	 8.428571428571425e+00	 1.000096991732894e+01
0	 2.857142857142858e+00	 8.571428571428575e+00	 9.999430703131651e+00
0	 1.428571428571429e+00	 8.571428571428575e+00	 9.994392788197256e+00
0	 1.428571428571429e+00	 8.714285714285715e+00	 9.989804940394038e+00
0	 1.428571428571429e+00	 8.857142857142859e+00	 9.984945307688539e+00
0	 1.428571428571429e+00	 9.000000000000002e+00	 9.980696357592580e+00
0	 1.428571428571429e+00	 9.142857142857142e+00	 9.977940557617956e+00
0	 1.428571428571429e+00	 9.285714285714285e+00	 9.977560375276440e+00
0	 1.428571428571429e+00	 9.428571428571427e+00	 9.980438278079893e+00
0	 1.428571428571429e+00	 9.571428571428569e+00	 9.987456733540068e+00
0	 1.428571428571429e+00	 9.714285714285712e+00	 9.999498209168799e+00
0	 1.428571428571429e+00	 9.857142857142856e+00	 1.001744517247786e+01
0	 1.428571428571429e+00	 1.000000000000000e+01	 1.004218009097909e+01
0	 1.571428571428572e+00	 8.571428571428573e+00	 9.992833974022961e+00
0	 1.571428571428572e+00	 8.714285714285714e+00	 9.987103883051038e+00
0	 1.571428571428572e+00	 8.857142857142859e+00	 9.981948548603716e+00
0	 1.571428571428572e+00	 9.000000000000004e+00	 9.978038097919505e+00
0	 1.571428571428572e+00	 9.142857142857144e+00	 9.976042658236842e+00
0	 1.571428571428572e+00	 9.285714285714285e+00	 9.976632356794234e+00
0	 1.571428571428572e+00	 9.428571428571427e+00	 9.980477320830111e+00
0	 1.571428571428572e+00	 9.571428571428571e+00	 9.988247677582995e+00
0	 1.571428571428572e+00	 9.714285714285714e+00	 1.000061355429133e+01
0	 1.571428571428572e+00	 9.857142857142852e+00	 1.001824507819364e+01
0	 1.571428571428572e+00	 1.000000000000000e+01	 1.004181237652832e+01
0	 1.714285714285714e+00	 8.571428571428571e+00	 9.991947096509103e+00
0	 1.714285714285715e+00	 8.714285714285721e+00	 9.985645107145086e+00
0	 1.714285714285715e+00	 8.857142857142861e+00	 9.980510535087451e+00
0	 1.714285714285715e+00	 9.000000000000000e+00	 9.977026070293908e+00
0	 1.714285714285715e+00	 9.142857142857146e+00	 9.975674402722134e+00
0	 1.714285714285715e+00	 9.285714285714288e+00	 9.976938222329871e+00
0	 1.714285714285714e+00	 9.428571428571427e+00	 9.981300219074827e+00
0	 1.714285714285714e+00	 9.571428571428569e+00	 9.989243082914717e+00
0	 1.714285714285715e+00	 9.714285714285714e+00	 1.000124950380724e+01
0	 1.714285714285715e+00	 9.857142857142854e+00	 1.001780217171015e+01
0	 1.714285714285714e+00	 1.000000000000000e+01	 1.003938377658108e+01
0	 1.857142857142857e+00	 8.571428571428575e+00	 9.991652063213650e+00
0	 1.857142857142857e+00	 8.714285714285715e+00	 9.985255723854085e+00
0	 1.857142857142858e+00	 8.857142857142859e+00	 9.980397409362009e+00
0	 1.857142857142858e+00	 9.000000000000000e+00	 9.977397275406954e+00
0	 1.857142857142857e+00	 9.142857142857144e+00	 9.976575477658445e+00
0	 1.857142857142857e+00	 9.285714285714283e+00	 9.978252171785977e+00
0	 1.857142857142858e+00	 9.428571428571429e+00	 9.982747513459078e+00
0	 1.857142857142857e+00	 9.571428571428569e+00	 9.990381658347218e+00
0	 1.857142857142858e+00	 9.714285714285712e+00	 1.000147476211999e+01
0	 1.857142857142858e+00	 9.857142857142856e+00	 1.001634698044686e+01
0	 1.857142857142858e+00	 1.000000000000000e+01	 1.003531846899734e+01
0	 2.000000000000000e+00	 8.571428571428571e+00	 9.991868781694611e+00
0	 2.000000000000000e+00	 8.714285714285717e+00	 9.985762844355854e+00
0	 2.000000000000000e+00	 8.857142857142859e+00	 9.981375313649634e+00
0	 2.000000000000001e+00	 9.000000000000000e+00	 9.978888713949843e+00
0	 2.000000000000000e+00	 9.142857142857144e+00	 9.978485569630354e+00
0	 2.000000000000001e+00	 9.285714285714285e+00	 9.980348405065053e+00
0	 2.000000000000000e+00	 9.428571428571427e+00	 9.984659744627823e+00
0	 2.000000000000000e+00	 9.571428571428569e+00	 9.991602112692522e+00
0	 2.000000000000001e+00	 9.714285714285714e+00	 1.000135803363307e+01
0	 2.000000000000000e+00	 9.857142857142856e+00	 1.001411003182335e+01
0	 2.000000000000001e+00	 1.000000000000000e+01	 1.003004063163721e+01
0	 2.142857142857144e+00	 8.571428571428571e+00	 9.992517159509948e+00
0	 2.142857142857143e+00	 8.714285714285715e+00	 9.986993579828273e+00
0	 2.142857142857143e+00	 8.857142857142858e+00	 9.983210390172585e+00
0	 2.142857142857144e+00	 9.000000000000002e+00	 9.981237386613723e+00
0	 2.142857142857144e+00	 9.142857142857142e+00	 9.981144365222468e+00
0	 2.142857142857144e+00	 9.285714285714285e+00	 9.983001122069663e+00
0	 2.142857142857144e+00	 9.428571428571429e+00	 9.986877453226096e+00
0	 2.142857142857143e+00	 9.571428571428568e+00	 9.992843154762610e+00
0	 2.142857142857144e+00	 9.714285714285714e+00	 1.000096802274996e+01
0	 2.142857142857144e+00	 9.857142857142854e+00	 1.001132185325902e+01
0	 2.142857142857144e+00	 1.000000000000000e+01	 1.002397444236057e+01
0	 2.285714285714287e+00	 8.571428571428573e+00	 9.993517104217634e+00
0	 2.285714285714286e+00	 8.714285714285719e+00	 9.988775041449193e+00
0	 2.285714285714286e+00	 8.857142857142858e+00	 9.985668781153137e+00
0	 2.285714285714286e+00	 8.999999999999998e+00	 9.984180294089764e+00
0	 2.285714285714287e+00	 9.142857142857146e+00	 9.984291551019410e+00
0	 2.285714285714286e+00	 9.285714285714285e+00	 9.985984522702354e+00
0	 2.285714285714286e+00	 9.428571428571427e+00	 9.989241179898940e+00
0	 2.285714285714286e+00	 9.571428571428568e+00	 9.994043493369414e+00
0	 2.285714285714286e+00	 9.714285714285712e+00	 1.000037343387414e+01
0	 2.285714285714286e+00	 9.857142857142852e+00	 1.000821297217342e+01
0	 2.285714285714286e+00	 1.000000000000000e+01	 1.001754407902754e+01
0	 2.428571428571429e+00	 8.571428571428577e+00	 9.994788523375682e+00
0	 2.428571428571430e+00	 8.714285714285719e+00	 9.990934340396485e+00
0	 2.428571428571429e+00	 8.857142857142859e+00	 9.988516628813519e+00
0	 2.428571428571430e+00	 9.000000000000002e+00	 9.987454437069154e+00
0	 2.428571428571430e+00	 9.142857142857144e+00	 9.987666813605752e+00
0	 2.428571428571429e+00	 9.285714285714285e+00	 9.989072806865693e+00
0	 2.428571428571430e+00	 9.428571428571431e+00	 9.991591465291311e+00
0	 2.428571428571428e+00	 9.571428571428569e+00	 9.995141837325004e+00
0	 2.428571428571429e+00	 9.714285714285714e+00	 9.999642971409125e+00
0	 2.428571428571429e+00	 9.857142857142854e+00	 1.000501391598605e+01
0	 2.428571428571430e+00	 1.000000000000000e+01	 1.001117371949809e+01
0	 2.571428571428573e+00	 8.571428571428573e+00	 9.996251324542037e+00
0	 2.571428571428572e+00	 8.714285714285717e+00	 9.993298587848017e+00
0	 2.571428571428573e+00	 8.857142857142859e+00	 9.991520075376012e+00
0	 2.571428571428573e+00	 9.000000000000005e+00	 9.990796816243057e+00
0	 2.571428571428573e+00	 9.142857142857144e+00	 9.991009839566107e+00
0	 2.571428571428573e+00	 9.285714285714286e+00	 9.992040174462176e+00
0	 2.571428571428573e+00	 9.428571428571429e+00	 9.993768850048259e+00
0	 2.571428571428572e+00	 9.571428571428568e+00	 9.996076895441327e+00
0	 2.571428571428573e+00	 9.714285714285715e+00	 9.998845339758395e+00
0	 2.571428571428572e+00	 9.857142857142854e+00	 1.000195521211641e+01
0	 2.571428571428572e+00	 1.000000000000000e+01	 1.000528754163238e+01
0	 2.714285714285715e+00	 8.571428571428573e+00	 9.997825415274690e+00
0	 2.714285714285715e+00	 8.714285714285717e+00	 9.995694894981620e+00
0	 2.714285714285715e+00	 8.857142857142858e+00	 9.994445263062865e+00
0	 2.714285714285715e+00	 9.000000000000000e+00	 9.993944432302643e+00
0	 2.714285714285715e+00	 9.142857142857144e+00	 9.994060315485099e+00
0	 2.714285714285716e+00	 9.285714285714283e+00	 9.994660825394405e+00
0	 2.714285714285715e+00	 9.428571428571431e+00	 9.995613874814786e+00
0	 2.714285714285715e+00	 9.571428571428569e+00	 9.996787376530380e+00
0	 2.714285714285715e+00	 9.714285714285712e+00	 9.998049243325369e+00
0	 2.714285714285715e+00	 9.857142857142854e+00	 9.999267387984021e+00
0	 2.714285714285715e+00	 1.000000000000000e+01	 1.000030972329032e+01
0	 2.857142857142858e+00	 8.571428571428575e+00	 9.999430703131651e+00
0	 2.857142857142857e+00	 8.714285714285717e+00	 9.997950372975190e+00
0	 2.857142857142858e+00	 8.857142857142859e+00	 9.997058334096355e+00
0	 2.857142857142857e+00	 9.000000000000000e+00	 9.996634285939066e+00
0	 2.857142857142857e+00	 9.142857142857141e+00	 9.996557927947277e+00
0	 2.857142857142858e+00	 9.285714285714288e+00	 9.996708959564918e+00
0	 2.857142857142858e+00	 9.428571428571431e+00	 9.996967080235894e+00
0	 2.857142857142857e+00	 9.571428571428569e+00	 9.997211989404178e+00
0	 2.857142857142858e+00	 9.714285714285712e+00	 9.997323386513651e+00
0	 2.857142857142857e+00	 9.857142857142856e+00	 9.997180971008254e+00
0	 2.857142857142857e+00	 1.000000000000000e+01	 9.996664442332031e+00
0	 2.857142857142857e+00	 0.000000000000000e+00	 1.052847625819888e+01
0	 2.857142857142858e+00	 1.428571428571429e-01	 1.053226085186336e+01
0	 2.857142857142857e+00	 2.857142857142858e-01	 1.052109193033582e+01
0	 2.857142857142858e+00	 4.285714285714287e-01	 1.049946778563994e+01
0	 2.857142857142858e+00	 5.714285714285716e-01	 1.047188670979939e+01
0	 2.857142857142858e+00	 7.142857142857143e-01	 1.044284699483786e+01
0	 2.857142857142857e+00	 8.571428571428573e-01	 1.041684693277901e+01
0	 2.857142857142858e+00	 1.000000000000000e+00	 1.039838481564653e+01
0	 2.857142857142858e+00	 1.142857142857143e+00	 1.039195893546409e+01
0	 2.857142857142859e+00	 1.285714285714286e+00	 1.040206758425536e+01
0	 2.857142857142857e+00	 1.428571428571429e+00	 1.043320905404404e+01
0	 3.000000000000001e+00	 0.000000000000000e+00	 1.052743049075860e+01
0	 3.000000000000002e+00	 1.428571428571430e-01	 1.050158841475648e+01
0	 3.000000000000001e+00	 2.857142857142858e-01	 1.047042835939675e+01
0	 3.000000000000000e+00	 4.285714285714287e-01	 1.043734870976803e+01
0	 3.000000000000000e+00	 5.714285714285715e-01	 1.040574785095894e+01
0	 3.000000000000000e+00	 7.142857142857143e-01	 1.037902416805811e+01
0	 3.000000000000001e+00	 8.571428571428575e-01	 1.036057604615416e+01
0	 3.000000000000001e+00	 1.000000000000001e+00	 1.035380187033573e+01
0	 3.000000000000002e+00	 1.142857142857143e+00	 1.036210002569144e+01
0	 3.000000000000000e+00	 1.285714285714286e+00	 1.038886889730992e+01
0	 3.000000000000000e+00	 1.428571428571429e+00	 1.043750687027977e+01
0	 3.142857142857143e+00	 0.000000000000000e+00	 1.051957099243787e+01
0	 3.142857142857144e+00	 1.428571428571429e-01	 1.047625747659166e+01
0	 3.142857142857143e+00	 2.857142857142858e-01	 1.043430369904504e+01
0	 3.142857142857144e+00	 4.285714285714288e-01	 1.039614903081179e+01
0	 3.142857142857144e+00	 5.714285714285715e-01	 1.036423284290570e+01
0	 3.142857142857144e+00	 7.142857142857145e-01	 1.034099450634056e+01
0	 3.142857142857143e+00	 8.571428571428573e-01	 1.032887339213015e+01
0	 3.142857142857143e+00	 1.000000000000000e+00	 1.033030887128824e+01
0	 3.142857142857142e+00	 1.142857142857143e+00	 1.034774031482864e+01
0	 3.142857142857143e+00	 1.285714285714286e+00	 1.038360709376513e+01
0	 3.142857142857143e+00	 1.428571428571429e+00	 1.044034857911148e+01
0	 3.285714285714286e+00	 0.000000000000000e+00	 1.050477606937436e+01
0	 3.285714285714287e+00	 1.428571428571430e-01	 1.045444150074349e+01
0	 3.285714285714286e+00	 2.857142857142858e-01	 1.040955553213973e+01
0	 3.285714285714286e+00	 4.285714285714287e-01	 1.037173941336223e+01
0	 3.285714285714286e+00	 5.714285714285715e-01	 1.034261439421013e+01
0	 3.285714285714286e+00	 7.142857142857143e-01	 1.032380172448261e+01
0	 3.285714285714286e+00	 8.571428571428574e-01	 1.031692265397880e+01
0	 3.285714285714286e+00	 1.000000000000000e+00	 1.032359843249785e+01
0	 3.285714285714286e+00	 1.142857142857143e+00	 1.034545030983895e+01
0	 3.285714285714286e+00	 1.285714285714286e+00	 1.038409953580119e+01
0	 3.285714285714286e+00	 1.428571428571429e+00	 1.044116736018380e+01
0	 3.428571428571429e+00	 0.000000000000000e+00	 1.048292402770575e+01
0	 3.428571428571430e+00	 1.428571428571429e-01	 1.043431395058662e+01
0	 3.428571428571429e+00	 2.857142857142858e-01	 1.039302144153991e+01
0	 3.428571428571429e+00	 4.285714285714287e-01	 1.035999052201037e+01
0	 3.428571428571429e+00	 5.714285714285714e-01	 1.033616521344271e+01
0	 3.428571428571429e+00	 7.142857142857143e-01	 1.032248953728167e+01
0	 3.428571428571429e+00	 8.571428571428572e-01	 1.031990751497199e+01
0	 3.428571428571430e+00	 1.000000000000001e+00	 1.032936316795838e+01
0	 3.428571428571429e+00	 1.142857142857143e+00	 1.035180051768558e+01
0	 3.428571428571429e+00	 1.285714285714286e+00	 1.038816358559833e+01
0	 3.428571428571429e+00	 1.428571428571429e+00	 1.043939639314135e+01
0	 3.571428571428572e+00	 0.000000000000000e+00	 1.045389317356970e+01
0	 3.571428571428571e+00	 1.428571428571428e-01	 1.041404828949565e+01
0	 3.571428571428572e+00	 2.857142857142857e-01	 1.038153901010465e+01
0	 3.571428571428573e+00	 4.285714285714288e-01	 1.035677302134722e+01
0	 3.571428571428572e+00	 5.714285714285716e-01	 1.034015800917388e+01
0	 3.571428571428573e+00	 7.142857142857143e-01	 1.033210165953515e+01
0	 3.571428571428573e+00	 8.571428571428575e-01	 1.033301165838155e+01
0	 3.571428571428573e+00	 1.000000000000000e+00	 1.034329569166360e+01
0	 3.571428571428572e+00	 1.142857142857143e+00	 1.036336144533180e+01
0	 3.571428571428572e+00	 1.285714285714286e+00	 1.039361660533670e+01
0	 3.571428571428572e+00	 1.428571428571429e+00	 1.043446885762878e+01
0	 3.714285714285715e+00	 0.000000000000000e+00	 1.041756181310389e+01
0	 3.714285714285715e+00	 1.428571428571429e-01	 1.039181798084520e+01
0	 3.714285714285714e+00	 2.857142857142857e-01	 1.037194582069299e+01
0	 3.714285714285715e+00	 4.285714285714287e-01	 1.035795757596378e+01
0	 3.714285714285715e+00	 5.714285714285715e-01	 1.034986548997410e+01
0	 3.714285714285716e+00	 7.142857142857143e-01	 1.034768180604045e+01
0	 3.714285714285715e+00	 8.571428571428574e-01	 1.035141876747935e+01
0	 3.714285714285715e+00	 1.000000000000000e+00	 1.036108861760731e+01
0	 3.714285714285715e+00	 1.142857142857143e+00	 1.037670359974086e+01
0	 3.714285714285715e+00	 1.285714285714286e+00	 1.039827595719649e+01
0	 3.714285714285715e+00	 1.428571428571428e+00	 1.042581793329072e+01
0	 3.857142857142858e+00	 0.000000000000000e+00	 1.037380825244600e+01
0	 3.857142857142858e+00	 1.428571428571430e-01	 1.036579648800989e+01
0	 3.857142857142858e+00	 2.857142857142857e-01	 1.036107945616402e+01
0	 3.857142857142857e+00	 4.285714285714287e-01	 1.035941485045109e+01
0	 3.857142857142858e+00	 5.714285714285714e-01	 1.036056036441384e+01
0	 3.857142857142859e+00	 7.142857142857143e-01	 1.036427369159499e+01
0	 3.857142857142858e+00	 8.571428571428573e-01	 1.037031252553725e+01
0	 3.857142857142858e+00	 1.000000000000000e+00	 1.037843455978333e+01
0	 3.857142857142857e+00	 1.142857142857143e+00	 1.038839748787599e+01
0	 3.857142857142858e+00	 1.285714285714286e+00	 1.039995900335791e+01
0	 3.857142857142857e+00	 1.428571428571429e+00	 1.041287679977184e+01
0	 4.000000000000001e+00	 0.000000000000000e+00	 1.032251079773369e+01
0	 4.000000000000001e+00	 1.428571428571429e-01	 1.033415727436434e+01
0	 4.000000000000002e+00	 2.857142857142857e-01	 1.034577749937679e+01
0	 4.000000000000001e+00	 4.285714285714286e-01	 1.035701550940015e+01
0	 4.000000000000000e+00	 5.714285714285714e-01	 1.036751534106356e+01
0	 4.000000000000001e+00	 7.142857142857142e-01	 1.037692103099615e+01
0	 4.000000000000002e+00	 8.571428571428573e-01	 1.038487661582708e+01
0	 4.000000000000002e+00	 1.000000000000000e+00	 1.039102613218546e+01
0	 4.000000000000001e+00	 1.142857142857143e+00	 1.039501361670044e+01
0	 4.000000000000001e+00	 1.285714285714286e+00	 1.039648310600115e+01
0	 4.000000000000001e+00	 1.428571428571428e+00	 1.039507863671673e+01
0	 4.142857142857143e+00	 0.000000000000000e+00	 1.026354775510463e+01
0	 4.142857142857143e+00	 1.428571428571429e-01	 1.029507380328317e+01
0	 4.142857142857143e+00	 2.857142857142856e-01	 1.032287753319037e+01
0	 4.142857142857143e+00	 4.285714285714285e-01	 1.034663021740196e+01
0	 4.142857142857144e+00	 5.714285714285715e-01	 1.036600312849370e+01
0	 4.142857142857144e+00	 7.142857142857143e-01	 1.038066753904136e+01
0	 4.142857142857143e+00	 8.571428571428573e-01	 1.039029472162070e+01
0	 4.142857142857144e+00	 1.000000000000000e+00	 1.039455594880747e+01
0	 4.142857142857144e+00	 1.142857142857143e+00	 1.039312249317745e+01
0	 4.142857142857143e+00	 1.285714285714286e+00	 1.038566562730639e+01
0	 4.142857142857143e+00	 1.428571428571428e+00	 1.037185662377005e+01
0	 4.285714285714286e+00	 0.000000000000000e+00	 1.019679743069649e+01
0	 4.285714285714286e+00	 1.428571428571429e-01	 1.024671953814101e+01
0	 4.285714285714286e+00	 2.857142857142857e-01	 1.028921714046384e+01
0	 4.285714285714286e+00	 4.285714285714287e-01	 1.032412963904755e+01
0	 4.285714285714287e+00	 5.714285714285715e-01	 1.035129643527474e+01
0	 4.285714285714286e+00	 7.142857142857143e-01	 1.037055693052802e+01
0	 4.285714285714286e+00	 8.571428571428572e-01	 1.038175052618997e+01
0	 4.285714285714286e+00	 1.000000000000000e+00	 1.038471662364319e+01
0	 4.285714285714286e+00	 1.142857142857143e+00	 1.037929462427027e+01
0	 4.285714285714286e+00	 1.285714285714286e+00	 1.036532392945382e+01
0	 4.285714285714287e+00	 1.428571428571429e+00	 1.034264394057642e+01
0	 2.857142857142857e+00	 1.428571428571429e+00	 1.043320905404404e+01
0	 2.857142857142858e+00	 1.571428571428572e+00	 1.047399526237520e+01
0	 2.857142857142857e+00	 1.714285714285715e+00	 1.050897849650915e+01
0	 2.857142857142856e+00	 1.857142857142857e+00	 1.053656760304235e+01
0	 2.857142857142858e+00	 2.000000000000001e+00	 1.055517142857124e+01
0	 2.857142857142857e+00	 2.142857142857144e+00	 1.056319881969227e+01
0	 2.857142857142858e+00	 2.285714285714287e+00	 1.055905862300191e+01
0	 2.857142857142858e+00	 2.428571428571430e+00	 1.054115968509658e+01
0	 2.857142857142857e+00	 2.571428571428573e+00	 1.050791085257278e+01
0	 2.857142857142857e+00	 2.714285714285715e+00	 1.045772097202692e+01
0	 2.857142857142858e+00	 2.857142857142857e+00	 1.038899889005547e+01
0	 3.000000000000000e+00	 1.428571428571429e+00	 1.043750687027977e+01
0	 3.000000000000001e+00	 1.571428571428572e+00	 1.049362505182763e+01
0	 3.000000000000001e+00	 1.714285714285715e+00	 1.053979334879842e+01
0	 3.000000000000000e+00	 1.857142857142857e+00	 1.057484834570819e+01
0	 3.000000000000001e+00	 2.000000000000000e+00	 1.059762662707303e+01
0	 3.000000000000001e+00	 2.142857142857143e+00	 1.060696477740902e+01
0	 3.000000000000001e+00	 2.285714285714286e+00	 1.060169938123223e+01
0	 3.000000000000001e+00	 2.428571428571430e+00	 1.058066702305871e+01
0	 3.000000000000000e+00	 2.571428571428572e+00	 1.054270428740457e+01
0	 3.000000000000000e+00	 2.714285714285715e+00	 1.048664775878586e+01
0	 3.000000000000001e+00	 2.857142857142858e+00	 1.041133402171866e+01
0	 3.142857142857143e+00	 1.428571428571429e+00	 1.044034857911148e+01
0	 3.142857142857144e+00	 1.571428571428573e+00	 1.050250383676546e+01
0	 3.142857142857144e+00	 1.714285714285715e+00	 1.055245819427611e+01
0	 3.142857142857143e+00	 1.857142857142857e+00	 1.058942041513413e+01
0	 3.142857142857143e+00	 2.000000000000000e+00	 1.061259926283023e+01
0	 3.142857142857143e+00	 2.142857142857143e+00	 1.062120350085510e+01
0	 3.142857142857143e+00	 2.285714285714286e+00	 1.061444189269947e+01
0	 3.142857142857143e+00	 2.428571428571429e+00	 1.059152320185403e+01
0	 3.142857142857143e+00	 2.571428571428572e+00	 1.055165619180949e+01
0	 3.142857142857143e+00	 2.714285714285715e+00	 1.049404962605656e+01
0	 3.142857142857143e+00	 2.857142857142858e+00	 1.041791226808592e+01
0	 3.285714285714286e+00	 1.428571428571429e+00	 1.044116736018380e+01
0	 3.285714285714287e+00	 1.571428571428572e+00	 1.050171816844524e+01
0	 3.285714285714286e+00	 1.714285714285714e+00	 1.054941910185819e+01
0	 3.285714285714286e+00	 1.857142857142858e+00	 1.058379554394300e+01
0	 3.285714285714286e+00	 2.000000000000000e+00	 1.060437287822002e+01
0	 3.285714285714286e+00	 2.142857142857143e+00	 1.061067648820957e+01
0	 3.285714285714286e+00	 2.285714285714286e+00	 1.060223175743201e+01
0	 3.285714285714287e+00	 2.428571428571430e+00	 1.057856406940767e+01
0	 3.285714285714286e+00	 2.571428571428573e+00	 1.053919880765694e+01
0	 3.285714285714286e+00	 2.714285714285715e+00	 1.048366135570011e+01
0	 3.285714285714286e+00	 2.857142857142857e+00	 1.041147709705755e+01
0	 3.428571428571429e+00	 1.428571428571429e+00	 1.043939639314135e+01
0	 3.428571428571430e+00	 1.571428571428572e+00	 1.049235459812354e+01
0	 3.428571428571429e+00	 1.714285714285715e+00	 1.053312214046066e+01
0	 3.428571428571430e+00	 1.857142857142858e+00	 1.056148546475768e+01
0	 3.428571428571429e+00	 2.000000000000000e+00	 1.057723101561962e+01
0	 3.428571428571430e+00	 2.142857142857144e+00	 1.058014523765145e+01
0	 3.428571428571429e+00	 2.285714285714286e+00	 1.057001457545817e+01
0	 3.428571428571430e+00	 2.428571428571429e+00	 1.054662547364478e+01
0	 3.428571428571428e+00	 2.571428571428572e+00	 1.050976437681627e+01
0	 3.428571428571430e+00	 2.714285714285715e+00	 1.045921772957763e+01
0	 3.428571428571429e+00	 2.857142857142858e+00	 1.039477197653386e+01
0	 3.571428571428572e+00	 1.428571428571429e+00	 1.043446885762878e+01
0	 3.571428571428572e+00	 1.571428571428572e+00	 1.047549967705694e+01
0	 3.571428571428572e+00	 1.714285714285715e+00	 1.050601337899947e+01
0	 3.571428571428572e+00	 1.857142857142858e+00	 1.052600191020102e+01
0	 3.571428571428572e+00	 2.000000000000000e+00	 1.053545721740625e+01
0	 3.571428571428572e+00	 2.142857142857143e+00	 1.053437124735980e+01
0	 3.571428571428573e+00	 2.285714285714287e+00	 1.052273594680632e+01
0	 3.571428571428572e+00	 2.428571428571429e+00	 1.050054326249047e+01
0	 3.571428571428573e+00	 2.571428571428573e+00	 1.046778514115688e+01
0	 3.571428571428573e+00	 2.714285714285715e+00	 1.042445352955023e+01
0	 3.571428571428572e+00	 2.857142857142857e+00	 1.037054037441516e+01
0	 3.714285714285715e+00	 1.428571428571428e+00	 1.042581793329072e+01
0	 3.714285714285715e+00	 1.571428571428572e+00	 1.045223995650201e+01
0	 3.714285714285714e+00	 1.714285714285715e+00	 1.047053888639063e+01
0	 3.714285714285715e+00	 1.857142857142857e+00	 1.048085661289589e+01
0	 3.714285714285715e+00	 2.000000000000000e+00	 1.048333502595713e+01
0	 3.714285714285715e+00	 2.142857142857143e+00	 1.047811601551366e+01
0	 3.714285714285714e+00	 2.285714285714286e+00	 1.046534147150479e+01
0	 3.714285714285715e+00	 2.428571428571429e+00	 1.044515328386986e+01
0	 3.714285714285715e+00	 2.571428571428573e+00	 1.041769334254817e+01
0	 3.714285714285715e+00	 2.714285714285714e+00	 1.038310353747903e+01
0	 3.714285714285716e+00	 2.857142857142858e+00	 1.034152575860177e+01
0	 3.857142857142857e+00	 1.428571428571429e+00	 1.041287679977184e+01
0	 3.857142857142859e+00	 1.571428571428572e+00	 1.042366198771530e+01
0	 3.857142857142858e+00	 1.714285714285714e+00	 1.042914473155007e+01
0	 3.857142857142858e+00	 1.857142857142858e+00	 1.042956130546513e+01
0	 3.857142857142859e+00	 2.000000000000001e+00	 1.042514798364947e+01
0	 3.857142857142858e+00	 2.142857142857143e+00	 1.041614104029208e+01
0	 3.857142857142859e+00	 2.285714285714286e+00	 1.040277674958195e+01
0	 3.857142857142859e+00	 2.428571428571430e+00	 1.038529138570809e+01
0	 3.857142857142857e+00	 2.571428571428572e+00	 1.036392122285948e+01
0	 3.857142857142859e+00	 2.714285714285714e+00	 1.033890253522512e+01
0	 3.857142857142858e+00	 2.857142857142858e+00	 1.031047159699401e+01
0	 4.000000000000001e+00	 1.428571428571428e+00	 1.039507863671673e+01
0	 4.000000000000000e+00	 1.571428571428571e+00	 1.039085232195342e+01
0	 4.000000000000002e+00	 1.714285714285715e+00	 1.038427698339382e+01
0	 4.000000000000001e+00	 1.857142857142858e+00	 1.037562772053161e+01
0	 4.000000000000001e+00	 2.000000000000001e+00	 1.036517963286048e+01
0	 4.000000000000000e+00	 2.142857142857143e+00	 1.035320781987410e+01
0	 4.000000000000001e+00	 2.285714285714286e+00	 1.033998738106614e+01
0	 4.000000000000001e+00	 2.428571428571429e+00	 1.032579341593028e+01
0	 4.000000000000002e+00	 2.571428571428573e+00	 1.031090102396023e+01
0	 4.000000000000002e+00	 2.714285714285715e+00	 1.029558530464963e+01
0	 4.000000000000001e+00	 2.857142857142858e+00	 1.028012135749217e+01
0	 4.142857142857143e+00	 1.428571428571428e+00	 1.037185662377005e+01
0	 4.142857142857144e+00	 1.571428571428571e+00	 1.035489751047289e+01
0	 4.142857142857144e+00	 1.714285714285714e+00	 1.033838171083782e+01
0	 4.142857142857142e+00	 1.857142857142857e+00	 1.032256759071819e+01
0	 4.142857142857144e+00	 2.000000000000000e+00	 1.030771351596738e+01
0	 4.142857142857143e+00	 2.142857142857143e+00	 1.029407785243876e+01
0	 4.142857142857143e+00	 2.285714285714286e+00	 1.028191896598571e+01
0	 4.142857142857145e+00	 2.428571428571429e+00	 1.027149522246159e+01
0	 4.142857142857144e+00	 2.571428571428573e+00	 1.026306498771979e+01
0	 4.142857142857144e+00	 2.714285714285715e+00	 1.025688662761365e+01
0	 4.142857142857143e+00	 2.857142857142858e+00	 1.025321850799658e+01
0	 4.285714285714287e+00	 1.428571428571429e+00	 1.034264394057642e+01
0	 4.285714285714285e+00	 1.571428571428571e+00	 1.031688410453032e+01
0	 4.285714285714286e+00	 1.714285714285715e+00	 1.029390498279806e+01
0	 4.285714285714286e+00	 1.857142857142857e+00	 1.027389264864772e+01
0	 4.285714285714286e+00	 2.000000000000001e+00	 1.025703317534738e+01
0	 4.285714285714285e+00	 2.142857142857143e+00	 1.024351263616512e+01
0	 4.285714285714286e+00	 2.285714285714286e+00	 1.023351710436901e+01
0	 4.285714285714286e+00	 2.428571428571429e+00	 1.022723265322711e+01
0	 4.285714285714286e+00	 2.571428571428573e+00	 1.022484535600752e+01
0	 4.285714285714286e+00	 2.714285714285715e+00	 1.022654128597831e+01
0	 4.285714285714287e+00	 2.857142857142858e+00	 1.023250651640755e+01
0	 2.857142857142858e+00	 2.857142857142857e+00	 1.038899889005547e+01
0	 2.857142857142858e+00	 3.000000000000000e+00	 1.031418302800565e+01
0	 2.857142857142858e+00	 3.142857142857143e+00	 1.024702025698879e+01
0	 2.857142857142857e+00	 3.285714285714286e+00	 1.018788209824752e+01
0	 2.857142857142858e+00	 3.428571428571429e+00	 1.013714007302448e+01
0	 2.857142857142857e+00	 3.571428571428572e+00	 1.009516570256232e+01
0	 2.857142857142858e+00	 3.714285714285716e+00	 1.006233050810365e+01
0	 2.857142857142858e+00	 3.857142857142858e+00	 1.003900601089112e+01
0	 2.857142857142857e+00	 4.000000000000001e+00	 1.002556373216736e+01
0	 2.857142857142857e+00	 4.142857142857142e+00	 1.002237519317501e+01
0	 2.857142857142858e+00	 4.285714285714286e+00	 1.002981191515670e+01
0	 3.000000000000001e+00	 2.857142857142858e+00	 1.041133402171866e+01
0	 3.000000000000000e+00	 3.000000000000001e+00	 1.033071000378355e+01
0	 3.000000000000001e+00	 3.142857142857143e+00	 1.025957931504280e+01
0	 3.000000000000000e+00	 3.285714285714286e+00	 1.019806356373507e+01
0	 3.000000000000001e+00	 3.428571428571429e+00	 1.014628435809903e+01
0	 3.000000000000000e+00	 3.571428571428570e+00	 1.010436330637333e+01
0	 3.000000000000001e+00	 3.714285714285714e+00	 1.007242201679664e+01
0	 3.000000000000001e+00	 3.857142857142858e+00	 1.005058209760761e+01
0	 3.000000000000002e+00	 4.000000000000001e+00	 1.003896515704492e+01
0	 3.000000000000001e+00	 4.142857142857143e+00	 1.003769280334721e+01
0	 3.000000000000001e+00	 4.285714285714286e+00	 1.004688664475314e+01
0	 3.142857142857143e+00	 2.857142857142858e+00	 1.041791226808592e+01
0	 3.142857142857144e+00	 3.000000000000001e+00	 1.033742160788408e+01
0	 3.142857142857144e+00	 3.142857142857144e+00	 1.026722474508598e+01
0	 3.142857142857143e+00	 3.285714285714285e+00	 1.020723485765513e+01
0	 3.142857142857143e+00	 3.428571428571429e+00	 1.015736512355501e+01
0	 3.142857142857143e+00	 3.571428571428572e+00	 1.011752872074910e+01
0	 3.142857142857143e+00	 3.714285714285714e+00	 1.008763882720086e+01
0	 3.142857142857144e+00	 3.857142857142858e+00	 1.006760862087380e+01
0	 3.142857142857144e+00	 4.000000000000000e+00	 1.005735127973138e+01
0	 3.142857142857144e+00	 4.142857142857143e+00	 1.005677998173709e+01
0	 3.142857142857142e+00	 4.285714285714287e+00	 1.006580790485441e+01
0	 3.285714285714286e+00	 2.857142857142857e+00	 1.041147709705755e+01
0	 3.285714285714286e+00	 3.000000000000001e+00	 1.033600147246640e+01
0	 3.285714285714286e+00	 3.142857142857143e+00	 1.027073715392832e+01
0	 3.285714285714286e+00	 3.285714285714286e+00	 1.021543037186041e+01
0	 3.285714285714285e+00	 3.428571428571429e+00	 1.016982735667974e+01
0	 3.285714285714286e+00	 3.571428571428573e+00	 1.013367433880342e+01
0	 3.285714285714285e+00	 3.714285714285714e+00	 1.010671754864854e+01
0	 3.285714285714286e+00	 3.857142857142858e+00	 1.008870321663220e+01
0	 3.285714285714286e+00	 4.000000000000000e+00	 1.007937757317149e+01
0	 3.285714285714286e+00	 4.142857142857144e+00	 1.007848684868351e+01
0	 3.285714285714286e+00	 4.285714285714286e+00	 1.008577727358535e+01
0	 3.428571428571429e+00	 2.857142857142858e+00	 1.039477197653386e+01
0	 3.428571428571430e+00	 3.000000000000001e+00	 1.032813322968977e+01
0	 3.428571428571429e+00	 3.142857142857144e+00	 1.027089714837984e+01
0	 3.428571428571429e+00	 3.285714285714286e+00	 1.022268449820359e+01
0	 3.428571428571430e+00	 3.428571428571429e+00	 1.018311604476050e+01
0	 3.428571428571430e+00	 3.571428571428573e+00	 1.015181255365010e+01
0	 3.428571428571429e+00	 3.714285714285714e+00	 1.012839479047187e+01
0	 3.428571428571428e+00	 3.857142857142856e+00	 1.011248352082532e+01
0	 3.428571428571429e+00	 4.000000000000000e+00	 1.010369951030996e+01
0	 3.428571428571430e+00	 4.142857142857145e+00	 1.010166352452529e+01
0	 3.428571428571429e+00	 4.285714285714286e+00	 1.010599632907081e+01
0	 3.571428571428572e+00	 2.857142857142857e+00	 1.037054037441516e+01
0	 3.571428571428572e+00	 3.000000000000000e+00	 1.031550051171335e+01
0	 3.571428571428571e+00	 3.142857142857142e+00	 1.026848533525051e+01
0	 3.571428571428573e+00	 3.285714285714286e+00	 1.022903162853736e+01
0	 3.571428571428572e+00	 3.428571428571429e+00	 1.019667617508460e+01
0	 3.571428571428571e+00	 3.571428571428572e+00	 1.017095575840292e+01
0	 3.571428571428573e+00	 3.714285714285715e+00	 1.015140716200305e+01
0	 3.571428571428573e+00	 3.857142857142858e+00	 1.013756716939568e+01
0	 3.571428571428572e+00	 4.000000000000001e+00	 1.012897256409152e+01
0	 3.571428571428573e+00	 4.142857142857142e+00	 1.012516012960128e+01
0	 3.571428571428572e+00	 4.285714285714286e+00	 1.012566664943566e+01
0	 3.714285714285716e+00	 2.857142857142858e+00	 1.034152575860177e+01
0	 3.714285714285715e+00	 3.000000000000000e+00	 1.029978695069636e+01
0	 3.714285714285715e+00	 3.142857142857144e+00	 1.026428232135034e+01
0	 3.714285714285715e+00	 3.285714285714286e+00	 1.023450615471442e+01
0	 3.714285714285716e+00	 3.428571428571429e+00	 1.020995273493931e+01
0	 3.714285714285715e+00	 3.571428571428572e+00	 1.019011634617569e+01
0	 3.714285714285715e+00	 3.714285714285715e+00	 1.017449127257428e+01
0	 3.714285714285715e+00	 3.857142857142858e+00	 1.016257179828579e+01
0	 3.714285714285715e+00	 4.000000000000000e+00	 1.015385220746089e+01
0	 3.714285714285715e+00	 4.142857142857142e+00	 1.014782678425031e+01
0	 3.714285714285715e+00	 4.285714285714286e+00	 1.014398981280475e+01
0	 3.857142857142858e+00	 2.857142857142858e+00	 1.031047159699401e+01
0	 3.857142857142859e+00	 3.000000000000000e+00	 1.028267617879800e+01
0	 3.857142857142858e+00	 3.142857142857144e+00	 1.025906871348933e+01
0	 3.857142857142857e+00	 3.285714285714286e+00	 1.023914246858748e+01
0	 3.857142857142859e+00	 3.428571428571429e+00	 1.022239071161194e+01
0	 3.857142857142859e+00	 3.571428571428574e+00	 1.020830671008221e+01
0	 3.857142857142858e+00	 3.714285714285714e+00	 1.019638373151778e+01
0	 3.857142857142859e+00	 3.857142857142858e+00	 1.018611504343814e+01
0	 3.857142857142857e+00	 4.000000000000000e+00	 1.017699391336279e+01
0	 3.857142857142859e+00	 4.142857142857145e+00	 1.016851360881124e+01
0	 3.857142857142858e+00	 4.285714285714285e+00	 1.016016739730294e+01
0	 4.000000000000001e+00	 2.857142857142858e+00	 1.028012135749217e+01
0	 4.000000000000000e+00	 3.000000000000000e+00	 1.026585182817749e+01
0	 4.000000000000000e+00	 3.142857142857142e+00	 1.025362511847747e+01
0	 4.000000000000001e+00	 3.285714285714285e+00	 1.024297496200922e+01
0	 4.000000000000000e+00	 3.428571428571428e+00	 1.023343509238979e+01
0	 4.000000000000000e+00	 3.571428571428571e+00	 1.022453924323628e+01
0	 4.000000000000000e+00	 3.714285714285714e+00	 1.021582114816574e+01
0	 4.000000000000001e+00	 3.857142857142857e+00	 1.020681454079528e+01
0	 4.000000000000002e+00	 4.000000000000001e+00	 1.019705315474197e+01
0	 4.000000000000001e+00	 4.142857142857143e+00	 1.018607072362287e+01
0	 4.000000000000000e+00	 4.285714285714285e+00	 1.017340098105510e+01
0	 4.142857142857143e+00	 2.857142857142858e+00	 1.025321850799658e+01
0	 4.142857142857144e+00	 3.000000000000000e+00	 1.025099753099401e+01
0	 4.142857142857144e+00	 3.142857142857143e+00	 1.024873214312477e+01
0	 4.142857142857143e+00	 3.285714285714286e+00	 1.024603802683234e+01
0	 4.142857142857145e+00	 3.428571428571430e+00	 1.024253086456015e+01
0	 4.142857142857144e+00	 3.571428571428573e+00	 1.023782633875168e+01
0	 4.142857142857144e+00	 3.714285714285715e+00	 1.023154013185037e+01
0	 4.142857142857144e+00	 3.857142857142858e+00	 1.022328792629971e+01
0	 4.142857142857144e+00	 4.000000000000000e+00	 1.021268540454312e+01
0	 4.142857142857143e+00	 4.142857142857143e+00	 1.019934824902409e+01
0	 4.142857142857143e+00	 4.285714285714286e+00	 1.018289214218607e+01
0	 4.285714285714287e+00	 2.857142857142858e+00	 1.023250651640755e+01
0	 4.285714285714286e+00	 3.000000000000001e+00	 1.023979691940678e+01
0	 4.285714285714286e+00	 3.142857142857143e+00	 1.024517039424122e+01
0	 4.285714285714286e+00	 3.285714285714286e+00	 1.024836605490952e+01
0	 4.285714285714287e+00	 3.428571428571429e+00	 1.024912301541031e+01
0	 4.285714285714286e+00	 3.571428571428572e+00	 1.024718038974222e+01
0	 4.285714285714286e+00	 3.714285714285715e+00	 1.024227729190388e+01
0	 4.285714285714285e+00	 3.857142857142857e+00	 1.023415283589392e+01
0	 4.285714285714286e+00	 4.000000000000001e+00	 1.022254613571099e+01
0	 4.285714285714286e+00	 4.142857142857144e+00	 1.020719630535371e+01
0	 4.285714285714286e+00	 4.285714285714285e+00	 1.018784245882071e+01
0	 2.857142857142858e+00	 4.285714285714286e+00	 1.002981191515670e+01
0	 2.857142857142858e+00	 4.428571428571430e+00	 1.004160308627862e+01
0	 2.857142857142857e+00	 4.571428571428570e+00	 1.005114428654820e+01
0	 2.857142857142857e+00	 4.714285714285714e+00	 1.005830662496993e+01
0	 2.857142857142858e+00	 4.857142857142858e+00	 1.006296121054830e+01
0	 2.857142857142857e+00	 5.000000000000000e+00	 1.006497915228782e+01
0	 2.857142857142857e+00	 5.142857142857143e+00	 1.006423155919298e+01
0	 2.857142857142857e+00	 5.285714285714285e+00	 1.006058954026825e+01
0	 2.857142857142858e+00	 5.428571428571428e+00	 1.005392420451815e+01
0	 2.857142857142858e+00	 5.571428571428569e+00	 1.004410666094716e+01
0	 2.857142857142858e+00	 5.714285714285714e+00	 1.003100801855977e+01
0	 3.000000000000001e+00	 4.285714285714286e+00	 1.004688664475314e+01
0	 3.000000000000000e+00	 4.428571428571431e+00	 1.005987451572306e+01
0	 3.000000000000000e+00	 4.571428571428571e+00	 1.006989636187071e+01
0	 3.000000000000001e+00	 4.714285714285714e+00	 1.007694195816494e+01
0	 3.000000000000001e+00	 4.857142857142858e+00	 1.008100107957459e+01
0	 3.000000000000001e+00	 4.999999999999999e+00	 1.008206350106851e+01
0	 3.000000000000002e+00	 5.142857142857142e+00	 1.008011899761554e+01
0	 3.000000000000001e+00	 5.285714285714286e+00	 1.007515734418451e+01
0	 3.000000000000001e+00	 5.428571428571429e+00	 1.006716831574427e+01
0	 3.000000000000000e+00	 5.571428571428569e+00	 1.005614168726365e+01
0	 3.000000000000001e+00	 5.714285714285716e+00	 1.004206723371150e+01
0	 3.142857142857142e+00	 4.285714285714287e+00	 1.006580790485441e+01
0	 3.142857142857143e+00	 4.428571428571427e+00	 1.007794148237535e+01
0	 3.142857142857144e+00	 4.571428571428572e+00	 1.008680235917824e+01
0	 3.142857142857143e+00	 4.714285714285714e+00	 1.009247653060608e+01
0	 3.142857142857143e+00	 4.857142857142857e+00	 1.009504999200187e+01
0	 3.142857142857144e+00	 5.000000000000001e+00	 1.009460873870858e+01
0	 3.142857142857143e+00	 5.142857142857141e+00	 1.009123876606922e+01
0	 3.142857142857143e+00	 5.285714285714283e+00	 1.008502606942677e+01
0	 3.142857142857144e+00	 5.428571428571427e+00	 1.007605664412423e+01
0	 3.142857142857144e+00	 5.571428571428571e+00	 1.006441648550457e+01
0	 3.142857142857143e+00	 5.714285714285714e+00	 1.005019158891080e+01
0	 3.285714285714286e+00	 4.285714285714286e+00	 1.008577727358535e+01
0	 3.285714285714286e+00	 4.428571428571429e+00	 1.009540544584448e+01
0	 3.285714285714286e+00	 4.571428571428572e+00	 1.010180365656828e+01
0	 3.285714285714286e+00	 4.714285714285714e+00	 1.010513167588370e+01
0	 3.285714285714286e+00	 4.857142857142857e+00	 1.010554927391766e+01
0	 3.285714285714286e+00	 4.999999999999999e+00	 1.010321622079713e+01
0	 3.285714285714286e+00	 5.142857142857142e+00	 1.009829228664902e+01
0	 3.285714285714286e+00	 5.285714285714285e+00	 1.009093724160029e+01
0	 3.285714285714286e+00	 5.428571428571428e+00	 1.008131085577789e+01
0	 3.285714285714286e+00	 5.571428571428569e+00	 1.006957289930875e+01
0	 3.285714285714287e+00	 5.714285714285715e+00	 1.005588314231979e+01
0	 3.428571428571429e+00	 4.285714285714286e+00	 1.010599632907081e+01
0	 3.428571428571431e+00	 4.428571428571429e+00	 1.011186786573947e+01
0	 3.428571428571429e+00	 4.571428571428572e+00	 1.011484163213835e+01
0	 3.428571428571429e+00	 4.714285714285713e+00	 1.011512872758814e+01
0	 3.428571428571429e+00	 4.857142857142857e+00	 1.011294025140955e+01
0	 3.428571428571430e+00	 5.000000000000001e+00	 1.010848730292325e+01
0	 3.428571428571429e+00	 5.142857142857142e+00	 1.010198098144996e+01
0	 3.428571428571429e+00	 5.285714285714283e+00	 1.009363238631035e+01
0	 3.428571428571429e+00	 5.428571428571426e+00	 1.008365261682513e+01
0	 3.428571428571430e+00	 5.571428571428570e+00	 1.007225277231500e+01
0	 3.428571428571429e+00	 5.714285714285714e+00	 1.005964395210063e+01
0	 3.571428571428572e+00	 4.285714285714286e+00	 1.012566664943566e+01
0	 3.571428571428571e+00	 4.428571428571428e+00	 1.012693020166931e+01
0	 3.571428571428572e+00	 4.571428571428572e+00	 1.012585766398594e+01
0	 3.571428571428573e+00	 4.714285714285714e+00	 1.012268901930977e+01
0	 3.571428571428572e+00	 4.857142857142857e+00	 1.011766425056505e+01
0	 3.571428571428571e+00	 4.999999999999999e+00	 1.011102334067606e+01
0	 3.571428571428572e+00	 5.142857142857143e+00	 1.010300627256703e+01
0	 3.571428571428573e+00	 5.285714285714285e+00	 1.009385302916220e+01
0	 3.571428571428572e+00	 5.428571428571428e+00	 1.008380359338583e+01
0	 3.571428571428573e+00	 5.571428571428570e+00	 1.007309794816216e+01
0	 3.571428571428571e+00	 5.714285714285713e+00	 1.006197607641545e+01
0	 3.714285714285715e+00	 4.285714285714286e+00	 1.014398981280475e+01
0	 3.714285714285715e+00	 4.428571428571428e+00	 1.014019391324302e+01
0	 3.714285714285715e+00	 4.571428571428571e+00	 1.013479313020854e+01
0	 3.714285714285715e+00	 4.714285714285714e+00	 1.012803388463892e+01
0	 3.714285714285715e+00	 4.857142857142856e+00	 1.012016259747175e+01
0	 3.714285714285715e+00	 4.999999999999999e+00	 1.011142568964465e+01
0	 3.714285714285715e+00	 5.142857142857141e+00	 1.010206958209522e+01
0	 3.714285714285714e+00	 5.285714285714285e+00	 1.009234069576108e+01
0	 3.714285714285714e+00	 5.428571428571426e+00	 1.008248545157982e+01
0	 3.714285714285715e+00	 5.571428571428569e+00	 1.007275027048906e+01
0	 3.714285714285715e+00	 5.714285714285714e+00	 1.006338157342639e+01
0	 3.857142857142858e+00	 4.285714285714285e+00	 1.016016739730294e+01
0	 3.857142857142859e+00	 4.428571428571428e+00	 1.015126046006959e+01
0	 3.857142857142858e+00	 4.571428571428571e+00	 1.014158940890366e+01
0	 3.857142857142857e+00	 4.714285714285715e+00	 1.013138465716593e+01
0	 3.857142857142858e+00	 4.857142857142857e+00	 1.012087661821716e+01
0	 3.857142857142859e+00	 5.000000000000000e+00	 1.011029570541812e+01
0	 3.857142857142859e+00	 5.142857142857142e+00	 1.009987233212957e+01
0	 3.857142857142858e+00	 5.285714285714285e+00	 1.008983691171228e+01
0	 3.857142857142859e+00	 5.428571428571427e+00	 1.008041985752700e+01
0	 3.857142857142857e+00	 5.571428571428569e+00	 1.007185158293451e+01
0	 3.857142857142858e+00	 5.714285714285714e+00	 1.006436250129557e+01
0	 4.000000000000000e+00	 4.285714285714285e+00	 1.017340098105510e+01
0	 4.000000000000000e+00	 4.428571428571428e+00	 1.015973130175802e+01
0	 4.000000000000000e+00	 4.571428571428570e+00	 1.014618787816880e+01
0	 4.000000000000002e+00	 4.714285714285714e+00	 1.013296267048117e+01
0	 4.000000000000000e+00	 4.857142857142858e+00	 1.012024763888886e+01
0	 4.000000000000000e+00	 5.000000000000000e+00	 1.010823474358557e+01
0	 4.000000000000001e+00	 5.142857142857144e+00	 1.009711594476506e+01
0	 4.000000000000000e+00	 5.285714285714284e+00	 1.008708320262104e+01
0	 4.000000000000001e+00	 5.428571428571427e+00	 1.007832847734722e+01
0	 4.000000000000002e+00	 5.571428571428569e+00	 1.007104372913734e+01
0	 4.000000000000000e+00	 5.714285714285714e+00	 1.006542091818514e+01
0	 4.142857142857143e+00	 4.285714285714286e+00	 1.018289214218607e+01
0	 4.142857142857143e+00	 4.428571428571429e+00	 1.016520789791732e+01
0	 4.142857142857143e+00	 4.571428571428570e+00	 1.014852991610145e+01
0	 4.142857142857143e+00	 4.714285714285714e+00	 1.013298925817498e+01
0	 4.142857142857144e+00	 4.857142857142856e+00	 1.011871698557438e+01
0	 4.142857142857142e+00	 4.999999999999999e+00	 1.010584415973612e+01
0	 4.142857142857144e+00	 5.142857142857141e+00	 1.009450184209670e+01
0	 4.142857142857143e+00	 5.285714285714285e+00	 1.008482109409263e+01
0	 4.142857142857142e+00	 5.428571428571425e+00	 1.007693297716036e+01
0	 4.142857142857143e+00	 5.571428571428569e+00	 1.007096855273640e+01
0	 4.142857142857144e+00	 5.714285714285714e+00	 1.006705888225724e+01
0	 4.285714285714286e+00	 4.285714285714285e+00	 1.018784245882071e+01
0	 4.285714285714286e+00	 4.428571428571429e+00	 1.016729170815648e+01
0	 4.285714285714285e+00	 4.571428571428570e+00	 1.014855690079913e+01
0	 4.285714285714286e+00	 4.714285714285714e+00	 1.013168575383771e+01
0	 4.285714285714287e+00	 4.857142857142857e+00	 1.011672598436126e+01
0	 4.285714285714286e+00	 4.999999999999999e+00	 1.010372530945884e+01
0	 4.285714285714286e+00	 5.142857142857143e+00	 1.009273144621950e+01
0	 4.285714285714286e+00	 5.285714285714284e+00	 1.008379211173230e+01
0	 4.285714285714285e+00	 5.428571428571426e+00	 1.007695502308628e+01
0	 4.285714285714286e+00	 5.571428571428570e+00	 1.007226789737049e+01
0	 4.285714285714286e+00	 5.714285714285714e+00	 1.006977845167398e+01
0	 2.857142857142858e+00	 5.714285714285714e+00	 1.003100801855977e+01
0	 2.857142857142858e+00	 5.857142857142855e+00	 1.001714061975712e+01
0	 2.857142857142857e+00	 5.999999999999999e+00	 1.000513819139086e+01
0	 2.857142857142858e+00	 6.142857142857142e+00	 9.995053919141238e+00
0	 2.857142857142857e+00	 6.285714285714285e+00	 9.986940988688531e+00
0	 2.857142857142857e+00	 6.428571428571425e+00	 9.980852585712988e+00
0	 2.857142857142857e+00	 6.571428571428569e+00	 9.976841895894873e+00
0	 2.857142857142858e+00	 6.714285714285711e+00	 9.974962104914464e+00
0	 2.857142857142857e+00	 6.857142857142854e+00	 9.975266398452000e+00
0	 2.857142857142857e+00	 6.999999999999997e+00	 9.977807962187761e+00
0	 2.857142857142857e+00	 7.142857142857143e+00	 9.982639981801999e+00
0	 3.000000000000001e+00	 5.714285714285716e+00	 1.004206723371150e+01
0	 3.000000000000001e+00	 5.857142857142857e+00	 1.002750043816200e+01
0	 3.000000000000001e+00	 5.999999999999999e+00	 1.001499874688729e+01
0	 3.000000000000001e+00	 6.142857142857142e+00	 1.000455487965312e+01
0	 3.000000000000002e+00	 6.285714285714284e+00	 9.996161556225264e+00
0	 3.000000000000001e+00	 6.428571428571424e+00	 9.989811496369471e+00
0	 3.000000000000001e+00	 6.571428571428569e+00	 9.985497419851527e+00
0	 3.000000000000001e+00	 6.714285714285713e+00	 9.983212046437169e+00
0	 3.000000000000000e+00	 6.857142857142853e+00	 9.982948095892169e+00
0	 3.000000000000000e+00	 6.999999999999996e+00	 9.984698287982306e+00
0	 3.000000000000000e+00	 7.142857142857143e+00	 9.988455342473328e+00
0	 3.142857142857143e+00	 5.714285714285714e+00	 1.005019158891080e+01
0	 3.142857142857144e+00	 5.857142857142857e+00	 1.003578100141285e+01
0	 3.142857142857143e+00	 5.999999999999998e+00	 1.002348912213739e+01
0	 3.142857142857144e+00	 6.142857142857141e+00	 1.001325997451256e+01
0	 3.142857142857143e+00	 6.285714285714284e+00	 1.000503758196644e+01
0	 3.142857142857143e+00	 6.428571428571428e+00	 9.998765967927127e+00
0	 3.142857142857143e+00	 6.571428571428569e+00	 9.994389155822754e+00
0	 3.142857142857143e+00	 6.714285714285712e+00	 9.991851169081411e+00
0	 3.142857142857144e+00	 6.857142857142853e+00	 9.991096031131207e+00
0	 3.142857142857144e+00	 6.999999999999996e+00	 9.992067765400252e+00
0	 3.142857142857143e+00	 7.142857142857144e+00	 9.994710395316643e+00
0	 3.285714285714287e+00	 5.714285714285715e+00	 1.005588314231979e+01
0	 3.285714285714286e+00	 5.857142857142857e+00	 1.004232465804988e+01
0	 3.285714285714286e+00	 5.999999999999998e+00	 1.003081207076471e+01
0	 3.285714285714286e+00	 6.142857142857142e+00	 1.002125247713159e+01
0	 3.285714285714285e+00	 6.285714285714282e+00	 1.001355297381780e+01
0	 3.285714285714286e+00	 6.428571428571427e+00	 1.000762065749064e+01
0	 3.285714285714286e+00	 6.571428571428570e+00	 1.000336262481740e+01
0	 3.285714285714285e+00	 6.714285714285710e+00	 1.000068597246538e+01
0	 3.285714285714286e+00	 6.857142857142854e+00	 9.999497797101847e+00
0	 3.285714285714286e+00	 6.999999999999996e+00	 9.999705195394105e+00
0	 3.285714285714286e+00	 7.142857142857145e+00	 1.000121526400945e+01
0	 3.428571428571429e+00	 5.714285714285714e+00	 1.005964395210063e+01
0	 3.428571428571430e+00	 5.857142857142856e+00	 1.004747375661332e+01
0	 3.428571428571429e+00	 5.999999999999999e+00	 1.003717034639275e+01
0	 3.428571428571429e+00	 6.142857142857140e+00	 1.002861566092225e+01
0	 3.428571428571427e+00	 6.285714285714281e+00	 1.002169163968513e+01
0	 3.428571428571429e+00	 6.428571428571425e+00	 1.001628022216470e+01
0	 3.428571428571429e+00	 6.571428571428569e+00	 1.001226334784431e+01
0	 3.428571428571429e+00	 6.714285714285711e+00	 1.000952295620723e+01
0	 3.428571428571429e+00	 6.857142857142854e+00	 1.000794098673683e+01
0	 3.428571428571430e+00	 6.999999999999997e+00	 1.000739937891639e+01
0	 3.428571428571429e+00	 7.142857142857146e+00	 1.000778007222926e+01
0	 3.571428571428571e+00	 5.714285714285713e+00	 1.006197607641545e+01
0	 3.571428571428572e+00	 5.857142857142856e+00	 1.005157064564342e+01
0	 3.571428571428571e+00	 5.999999999999998e+00	 1.004276670264507e+01
0	 3.571428571428573e+00	 6.142857142857141e+00	 1.003543279929660e+01
0	 3.571428571428572e+00	 6.285714285714284e+00	 1.002943748747418e+01
0	 3.571428571428572e+00	 6.428571428571426e+00	 1.002464931905402e+01
0	 3.571428571428572e+00	 6.571428571428567e+00	 1.002093684591229e+01
0	 3.571428571428571e+00	 6.714285714285710e+00	 1.001816861992519e+01
0	 3.571428571428572e+00	 6.857142857142854e+00	 1.001621319296891e+01
0	 3.571428571428571e+00	 6.999999999999995e+00	 1.001493911691963e+01
0	 3.571428571428572e+00	 7.142857142857145e+00	 1.001421494365355e+01
0	 3.714285714285715e+00	 5.714285714285714e+00	 1.006338157342638e+01
0	 3.714285714285715e+00	 5.857142857142855e+00	 1.005495767368039e+01
0	 3.714285714285714e+00	 5.999999999999999e+00	 1.004780389314518e+01
0	 3.714285714285716e+00	 6.142857142857141e+00	 1.004178716566666e+01
0	 3.714285714285715e+00	 6.285714285714285e+00	 1.003677442509071e+01
0	 3.714285714285714e+00	 6.428571428571426e+00	 1.003263260526325e+01
0	 3.714285714285715e+00	 6.571428571428568e+00	 1.002922864003018e+01
0	 3.714285714285714e+00	 6.714285714285711e+00	 1.002642946323741e+01
0	 3.714285714285715e+00	 6.857142857142855e+00	 1.002410200873082e+01
0	 3.714285714285715e+00	 6.999999999999996e+00	 1.002211321035631e+01
0	 3.714285714285715e+00	 7.142857142857144e+00	 1.002033000195980e+01
0	 3.857142857142858e+00	 5.714285714285714e+00	 1.006436250129557e+01
0	 3.857142857142858e+00	 5.857142857142856e+00	 1.005797718926446e+01
0	 3.857142857142859e+00	 6.000000000000000e+00	 1.005248467151661e+01
0	 3.857142857142858e+00	 6.142857142857141e+00	 1.004776203344447e+01
0	 3.857142857142858e+00	 6.285714285714284e+00	 1.004368636044049e+01
0	 3.857142857142857e+00	 6.428571428571425e+00	 1.004013473789712e+01
0	 3.857142857142858e+00	 6.571428571428569e+00	 1.003698425120683e+01
0	 3.857142857142858e+00	 6.714285714285710e+00	 1.003411198576207e+01
0	 3.857142857142858e+00	 6.857142857142853e+00	 1.003139502695529e+01
0	 3.857142857142858e+00	 6.999999999999995e+00	 1.002871046017897e+01
0	 3.857142857142858e+00	 7.142857142857143e+00	 1.002593537082554e+01
0	 4.000000000000000e+00	 5.714285714285714e+00	 1.006542091818514e+01
0	 4.000000000000000e+00	 5.857142857142856e+00	 1.006097154093587e+01
0	 4.000000000000000e+00	 5.999999999999999e+00	 1.005701179138289e+01
0	 4.000000000000000e+00	 6.142857142857141e+00	 1.005344067604208e+01
0	 4.000000000000001e+00	 6.285714285714285e+00	 1.005015720142926e+01
0	 4.000000000000001e+00	 6.428571428571427e+00	 1.004706037406030e+01
0	 4.000000000000002e+00	 6.571428571428569e+00	 1.004404920045106e+01
0	 4.000000000000001e+00	 6.714285714285710e+00	 1.004102268711737e+01
0	 4.000000000000001e+00	 6.857142857142852e+00	 1.003787984057510e+01
0	 4.000000000000000e+00	 6.999999999999995e+00	 1.003451966734009e+01
0	 4.000000000000001e+00	 7.142857142857142e+00	 1.003084117392822e+01
0	 4.142857142857144e+00	 5.714285714285714e+00	 1.006705888225724e+01
0	 4.142857142857143e+00	 5.857142857142857e+00	 1.006428307723482e+01
0	 4.142857142857144e+00	 6.000000000000001e+00	 1.006158800636756e+01
0	 4.142857142857142e+00	 6.142857142857141e+00	 1.005890636687152e+01
0	 4.142857142857144e+00	 6.285714285714285e+00	 1.005617085596280e+01
0	 4.142857142857144e+00	 6.428571428571426e+00	 1.005331417085749e+01
0	 4.142857142857143e+00	 6.571428571428569e+00	 1.005026900877169e+01
0	 4.142857142857143e+00	 6.714285714285710e+00	 1.004696806692149e+01
0	 4.142857142857143e+00	 6.857142857142852e+00	 1.004334404252297e+01
0	 4.142857142857143e+00	 6.999999999999995e+00	 1.003932963279223e+01
0	 4.142857142857143e+00	 7.142857142857144e+00	 1.003485753494537e+01
0	 4.285714285714286e+00	 5.714285714285714e+00	 1.006977845167398e+01
0	 4.285714285714286e+00	 5.857142857142856e+00	 1.006825414670157e+01
0	 4.285714285714286e+00	 5.999999999999999e+00	 1.006641607009413e+01
0	 4.285714285714286e+00	 6.142857142857141e+00	 1.006424237934483e+01
0	 4.285714285714286e+00	 6.285714285714284e+00	 1.006171123194687e+01
0	 4.285714285714286e+00	 6.428571428571424e+00	 1.005880078539339e+01
0	 4.285714285714287e+00	 6.571428571428569e+00	 1.005548919717758e+01
0	 4.285714285714286e+00	 6.714285714285711e+00	 1.005175462479260e+01
0	 4.285714285714286e+00	 6.857142857142851e+00	 1.004757522573164e+01
0	 4.285714285714287e+00	 6.999999999999996e+00	 1.004292915748787e+01
0	 4.285714285714286e+00	 7.142857142857141e+00	 1.003779457755446e+01
0	 2.857142857142857e+00	 7.142857142857143e+00	 9.982639981801999e+00
0	 2.857142857142857e+00	 7.285714285714285e+00	 9.988129364489469e+00
0	 2.857142857142857e+00	 7.428571428571429e+00	 9.992640450559445e+00
0	 2.857142857142857e+00	 7.571428571428571e+00	 9.996222575363937e+00
0	 2.857142857142857e+00	 7.714285714285714e+00	 9.998925074254970e+00
0	 2.857142857142857e+00	 7.857142857142854e+00	 1.000079728258456e+01
0	 2.857142857142858e+00	 7.999999999999999e+00	 1.000188853570473e+01
0	 2.857142857142858e+00	 8.142857142857142e+00	 1.000224816896750e+01
0	 2.857142857142858e+00	 8.285714285714283e+00	 1.000192551772489e+01
0	 2.857142857142858e+00	 8.428571428571425e+00	 1.000096991732894e+01
0	 2.857142857142858e+00	 8.571428571428575e+00	 9.999430703131651e+00
0	 3.000000000000000e+00	 7.142857142857143e+00	 9.988455342473326e+00
0	 3.000000000000000e+00	 7.285714285714286e+00	 9.992766579869194e+00
0	 3.000000000000001e+00	 7.428571428571431e+00	 9.996226556463649e+00
0	 3.000000000000000e+00	 7.571428571428572e+00	 9.998898845707039e+00
0	 3.000000000000000e+00	 7.714285714285713e+00	 1.000084702104974e+01
0	 3.000000000000001e+00	 7.857142857142856e+00	 1.000213465594210e+01
0	 3.000000000000001e+00	 7.999999999999998e+00	 1.000282532383450e+01
0	 3.000000000000000e+00	 8.142857142857144e+00	 1.000298259817730e+01
0	 3.000000000000000e+00	 8.285714285714285e+00	 1.000267005242086e+01
0	 3.000000000000000e+00	 8.428571428571427e+00	 1.000195126001556e+01
0	 3.000000000000000e+00	 8.571428571428575e+00	 1.000088979441175e+01
0	 3.142857142857143e+00	 7.142857142857144e+00	 9.994710395316645e+00
0	 3.142857142857142e+00	 7.285714285714286e+00	 9.997787741990685e+00
0	 3.142857142857143e+00	 7.428571428571429e+00	 1.000014987117874e+01
0	 3.142857142857143e+00	 7.571428571428570e+00	 1.000187017327801e+01
0	 3.142857142857143e+00	 7.714285714285716e+00	 1.000302203868566e+01
0	 3.142857142857143e+00	 7.857142857142857e+00	 1.000367885779892e+01
0	 3.142857142857144e+00	 7.999999999999998e+00	 1.000391402101495e+01
0	 3.142857142857144e+00	 8.142857142857142e+00	 1.000380091873096e+01
0	 3.142857142857143e+00	 8.285714285714285e+00	 1.000341294134414e+01
0	 3.142857142857145e+00	 8.428571428571429e+00	 1.000282347925170e+01
0	 3.142857142857143e+00	 8.571428571428573e+00	 1.000210592285080e+01
0	 3.285714285714286e+00	 7.142857142857145e+00	 1.000121526400945e+01
0	 3.285714285714286e+00	 7.285714285714287e+00	 1.000303352385161e+01
0	 3.285714285714286e+00	 7.428571428571428e+00	 1.000427995550778e+01
0	 3.285714285714286e+00	 7.571428571428573e+00	 1.000503334517046e+01
0	 3.285714285714286e+00	 7.714285714285714e+00	 1.000537247903216e+01
0	 3.285714285714286e+00	 7.857142857142856e+00	 1.000537614328539e+01
0	 3.285714285714286e+00	 7.999999999999999e+00	 1.000512312412265e+01
0	 3.285714285714286e+00	 8.142857142857141e+00	 1.000469220773644e+01
0	 3.285714285714286e+00	 8.285714285714281e+00	 1.000416218031928e+01
0	 3.285714285714286e+00	 8.428571428571429e+00	 1.000361182806365e+01
0	 3.285714285714286e+00	 8.571428571428575e+00	 1.000311993716208e+01
0	 3.428571428571429e+00	 7.142857142857146e+00	 1.000778007222926e+01
0	 3.428571428571429e+00	 7.285714285714285e+00	 1.000834459844966e+01
0	 3.428571428571427e+00	 7.428571428571426e+00	 1.000848637025383e+01
0	 3.428571428571429e+00	 7.571428571428569e+00	 1.000828514847807e+01
0	 3.428571428571429e+00	 7.714285714285714e+00	 1.000782069395868e+01
0	 3.428571428571428e+00	 7.857142857142855e+00	 1.000717276753196e+01
0	 3.428571428571430e+00	 8.000000000000002e+00	 1.000642113003420e+01
0	 3.428571428571430e+00	 8.142857142857141e+00	 1.000564554230171e+01
0	 3.428571428571429e+00	 8.285714285714283e+00	 1.000492576517080e+01
0	 3.428571428571430e+00	 8.428571428571429e+00	 1.000434155947775e+01
0	 3.428571428571429e+00	 8.571428571428573e+00	 1.000397268605888e+01
0	 3.571428571428572e+00	 7.142857142857145e+00	 1.001421494365355e+01
0	 3.571428571428573e+00	 7.285714285714286e+00	 1.001356163878251e+01
0	 3.571428571428572e+00	 7.428571428571429e+00	 1.001263867621996e+01
0	 3.571428571428573e+00	 7.571428571428571e+00	 1.001152237029447e+01
0	 3.571428571428572e+00	 7.714285714285714e+00	 1.001028903533462e+01
0	 3.571428571428572e+00	 7.857142857142857e+00	 1.000901498566899e+01
0	 3.571428571428571e+00	 7.999999999999996e+00	 1.000777653562618e+01
0	 3.571428571428572e+00	 8.142857142857141e+00	 1.000664999953475e+01
0	 3.571428571428573e+00	 8.285714285714286e+00	 1.000571169172327e+01
0	 3.571428571428573e+00	 8.428571428571427e+00	 1.000503792652032e+01
0	 3.571428571428572e+00	 8.571428571428571e+00	 1.000470501825449e+01
0	 3.714285714285715e+00	 7.142857142857144e+00	 1.002033000195980e+01
0	 3.714285714285715e+00	 7.285714285714286e+00	 1.001852531784783e+01
0	 3.714285714285715e+00	 7.428571428571426e+00	 1.001660643420921e+01
0	 3.714285714285715e+00	 7.571428571428571e+00	 1.001464179771330e+01
0	 3.714285714285716e+00	 7.714285714285713e+00	 1.001269985502943e+01
0	 3.714285714285716e+00	 7.857142857142857e+00	 1.001084905282695e+01
0	 3.714285714285715e+00	 7.999999999999998e+00	 1.000915783777519e+01
0	 3.714285714285715e+00	 8.142857142857141e+00	 1.000769465654349e+01
0	 3.714285714285715e+00	 8.285714285714285e+00	 1.000652795580121e+01
0	 3.714285714285715e+00	 8.428571428571425e+00	 1.000572618221768e+01
0	 3.714285714285714e+00	 8.571428571428573e+00	 1.000535778246224e+01
0	 3.857142857142858e+00	 7.142857142857143e+00	 1.002593537082553e+01
0	 3.857142857142858e+00	 7.285714285714286e+00	 1.002307630864330e+01
0	 3.857142857142857e+00	 7.428571428571427e+00	 1.002025920502466e+01
0	 3.857142857142858e+00	 7.571428571428569e+00	 1.001754021782821e+01
0	 3.857142857142859e+00	 7.714285714285714e+00	 1.001497550491252e+01
0	 3.857142857142859e+00	 7.857142857142856e+00	 1.001262122413619e+01
0	 3.857142857142858e+00	 7.999999999999998e+00	 1.001053353335780e+01
0	 3.857142857142858e+00	 8.142857142857142e+00	 1.000876859043593e+01
0	 3.857142857142858e+00	 8.285714285714285e+00	 1.000738255322919e+01
0	 3.857142857142858e+00	 8.428571428571425e+00	 1.000643157959614e+01
0	 3.857142857142858e+00	 8.571428571428573e+00	 1.000597182739538e+01
0	 4.000000000000001e+00	 7.142857142857142e+00	 1.003084117392822e+01
0	 4.000000000000000e+00	 7.285714285714286e+00	 1.002705528416660e+01
0	 4.000000000000002e+00	 7.428571428571430e+00	 1.002346654946937e+01
0	 4.000000000000001e+00	 7.571428571428570e+00	 1.002011441773284e+01
0	 4.000000000000001e+00	 7.714285714285714e+00	 1.001703833685333e+01
0	 4.000000000000002e+00	 7.857142857142857e+00	 1.001427775472715e+01
0	 4.000000000000001e+00	 7.999999999999999e+00	 1.001187211925060e+01
0	 4.000000000000001e+00	 8.142857142857142e+00	 1.000986087832003e+01
0	 4.000000000000001e+00	 8.285714285714285e+00	 1.000828347983173e+01
0	 4.000000000000002e+00	 8.428571428571425e+00	 1.000717937168203e+01
0	 4.000000000000001e+00	 8.571428571428571e+00	 1.000658800176724e+01
0	 4.142857142857143e+00	 7.142857142857144e+00	 1.003485753494536e+01
0	 4.142857142857144e+00	 7.285714285714286e+00	 1.003030291741542e+01
0	 4.142857142857144e+00	 7.428571428571430e+00	 1.002609802834641e+01
0	 4.142857142857142e+00	 7.571428571428570e+00	 1.002226118452085e+01
0	 4.142857142857144e+00	 7.714285714285714e+00	 1.001881070272127e+01
0	 4.142857142857145e+00	 7.857142857142856e+00	 1.001576489973021e+01
0	 4.142857142857144e+00	 7.999999999999998e+00	 1.001314209233019e+01
0	 4.142857142857144e+00	 8.142857142857141e+00	 1.001096059730374e+01
0	 4.142857142857144e+00	 8.285714285714283e+00	 1.000923873143339e+01
0	 4.142857142857144e+00	 8.428571428571427e+00	 1.000799481150168e+01
0	 4.142857142857144e+00	 8.571428571428573e+00	 1.000724715429111e+01
0	 4.285714285714286e+00	 7.142857142857141e+00	 1.003779457755446e+01
0	 4.285714285714286e+00	 7.285714285714285e+00	 1.003265988138742e+01
0	 4.285714285714287e+00	 7.428571428571428e+00	 1.002802320245881e+01
0	 4.285714285714286e+00	 7.571428571428572e+00	 1.002387730528585e+01
0	 4.285714285714286e+00	 7.714285714285715e+00	 1.002021495438577e+01
0	 4.285714285714286e+00	 7.857142857142855e+00	 1.001702891427580e+01
0	 4.285714285714286e+00	 8.000000000000000e+00	 1.001431194947315e+01
0	 4.285714285714286e+00	 8.142857142857141e+00	 1.001205682449504e+01
0	 4.285714285714286e+00	 8.285714285714281e+00	 1.001025630385871e+01
0	 4.285714285714286e+00	 8.428571428571423e+00	 1.000890315208138e+01
0	 4.285714285714286e+00	 8.571428571428573e+00	 1.000799013368027e+01
0	 2.857142857142858e+00	 8.571428571428575e+00	 9.999430703131651e+00
0	 2.857142857142857e+00	 8.714285714285717e+00	 9.997950372975190e+00
0	 2.857142857142858e+00	 8.857142857142859e+00	 9.997058334096355e+00
0	 2.857142857142857e+00	 9.000000000000000e+00	 9.996634285939066e+00
0	 2.857142857142857e+00	 9.142857142857141e+00	 9.996557927947277e+00
0	 2.857142857142858e+00	 9.285714285714288e+00	 9.996708959564918e+00
0	 2.857142857142858e+00	 9.428571428571431e+00	 9.996967080235894e+00
0	 2.857142857142857e+00	 9.571428571428569e+00	 9.997211989404178e+00
0	 2.857142857142858e+00	 9.714285714285712e+00	 9.997323386513651e+00
0	 2.857142857142857e+00	 9.857142857142856e+00	 9.997180971008254e+00
0	 2.857142857142857e+00	 1.000000000000000e+01	 9.996664442332031e+00
0	 3.000000000000000e+00	 8.571428571428575e+00	 1.000088979441175e+01
0	 3.000000000000000e+00	 8.714285714285714e+00	 9.999880518488776e+00
0	 3.000000000000002e+00	 8.857142857142861e+00	 9.999211273985111e+00
0	 3.000000000000001e+00	 9.000000000000002e+00	 9.998785102639847e+00
0	 3.000000000000000e+00	 9.142857142857144e+00	 9.998505046192047e+00
0	 3.000000000000001e+00	 9.285714285714286e+00	 9.998274146380785e+00
0	 3.000000000000001e+00	 9.428571428571429e+00	 9.997995444945182e+00
0	 3.000000000000001e+00	 9.571428571428571e+00	 9.997571983624287e+00
0	 3.000000000000001e+00	 9.714285714285712e+00	 9.996906804157152e+00
0	 3.000000000000000e+00	 9.857142857142852e+00	 9.995902948282978e+00
0	 3.000000000000001e+00	 1.000000000000000e+01	 9.994463457740663e+00
0	 3.142857142857143e+00	 8.571428571428573e+00	 1.000210592285080e+01
0	 3.142857142857144e+00	 8.714285714285719e+00	 1.000145057876589e+01
0	 3.142857142857144e+00	 8.857142857142863e+00	 1.000094855489820e+01
0	 3.142857142857143e+00	 9.000000000000000e+00	 1.000052444356020e+01
0	 3.142857142857143e+00	 9.142857142857142e+00	 1.000010283706432e+01
0	 3.142857142857144e+00	 9.285714285714286e+00	 9.999608327723058e+00
0	 3.142857142857144e+00	 9.428571428571429e+00	 9.998965507848842e+00
0	 3.142857142857144e+00	 9.571428571428569e+00	 9.998098969754141e+00
0	 3.142857142857144e+00	 9.714285714285715e+00	 9.996933305751398e+00
0	 3.142857142857143e+00	 9.857142857142854e+00	 9.995393108153104e+00
0	 3.142857142857143e+00	 1.000000000000000e+01	 9.993402969271667e+00
0	 3.285714285714286e+00	 8.571428571428575e+00	 1.000311993716208e+01
0	 3.285714285714286e+00	 8.714285714285717e+00	 1.000271229085944e+01
0	 3.285714285714286e+00	 8.857142857142861e+00	 1.000232504904839e+01
0	 3.285714285714286e+00	 8.999999999999998e+00	 1.000190256289293e+01
0	 3.285714285714286e+00	 9.142857142857144e+00	 1.000138918355714e+01
0	 3.285714285714286e+00	 9.285714285714283e+00	 1.000072926220507e+01
0	 3.285714285714286e+00	 9.428571428571429e+00	 9.999867150000807e+00
0	 3.285714285714286e+00	 9.571428571428569e+00	 9.998747198108376e+00
0	 3.285714285714286e+00	 9.714285714285712e+00	 9.997313757691868e+00
0	 3.285714285714286e+00	 9.857142857142856e+00	 9.995511179915262e+00
0	 3.285714285714286e+00	 1.000000000000000e+01	 9.993283815942739e+00
0	 3.428571428571429e+00	 8.571428571428573e+00	 1.000397268605888e+01
0	 3.428571428571429e+00	 8.714285714285717e+00	 1.000371739182245e+01
0	 3.428571428571429e+00	 8.857142857142861e+00	 1.000339562864849e+01
0	 3.428571428571430e+00	 9.000000000000000e+00	 1.000296971483088e+01
0	 3.428571428571429e+00	 9.142857142857144e+00	 1.000240196866349e+01
0	 3.428571428571429e+00	 9.285714285714286e+00	 1.000165470844024e+01
0	 3.428571428571429e+00	 9.428571428571429e+00	 1.000069025245498e+01
0	 3.428571428571429e+00	 9.571428571428571e+00	 9.999470919001638e+00
0	 3.428571428571429e+00	 9.714285714285712e+00	 9.997959026374069e+00
0	 3.428571428571429e+00	 9.857142857142858e+00	 9.996116892866194e+00
0	 3.428571428571429e+00	 1.000000000000000e+01	 9.993906836771856e+00
0	 3.571428571428572e+00	 8.571428571428571e+00	 1.000470501825449e+01
0	 3.571428571428573e+00	 8.714285714285715e+00	 1.000451761870784e+01
0	 3.571428571428572e+00	 8.857142857142858e+00	 1.000421516591131e+01
0	 3.571428571428573e+00	 9.000000000000004e+00	 1.000377615356684e+01
0	 3.571428571428572e+00	 9.142857142857142e+00	 1.000317907537639e+01
0	 3.571428571428573e+00	 9.285714285714283e+00	 1.000240242504189e+01
0	 3.571428571428572e+00	 9.428571428571427e+00	 1.000142469626531e+01
0	 3.571428571428572e+00	 9.571428571428568e+00	 1.000022438274855e+01
0	 3.571428571428573e+00	 9.714285714285712e+00	 9.998779978193593e+00
0	 3.571428571428572e+00	 9.857142857142852e+00	 9.997069976302377e+00
0	 3.571428571428572e+00	 1.000000000000000e+01	 9.995072870776831e+00
0	 3.714285714285714e+00	 8.571428571428573e+00	 1.000535778246223e+01
0	 3.714285714285716e+00	 8.714285714285719e+00	 1.000516470856856e+01
0	 3.714285714285715e+00	 8.857142857142858e+00	 1.000483853304962e+01
0	 3.714285714285716e+00	 8.999999999999998e+00	 1.000437213329364e+01
0	 3.714285714285716e+00	 9.142857142857146e+00	 1.000375838668883e+01
0	 3.714285714285715e+00	 9.285714285714286e+00	 1.000299017062343e+01
0	 3.714285714285715e+00	 9.428571428571427e+00	 1.000206036248567e+01
0	 3.714285714285714e+00	 9.571428571428568e+00	 1.000096183966375e+01
0	 3.714285714285715e+00	 9.714285714285714e+00	 9.999687479545932e+00
0	 3.714285714285715e+00	 9.857142857142852e+00	 9.998230159520402e+00
0	 3.714285714285715e+00	 1.000000000000000e+01	 9.996582756975446e+00
0	 3.857142857142858e+00	 8.571428571428573e+00	 1.000597182739538e+01
0	 3.857142857142859e+00	 8.714285714285719e+00	 1.000571039845760e+01
0	 3.857142857142858e+00	 8.857142857142859e+00	 1.000532060227627e+01
0	 3.857142857142858e+00	 9.000000000000002e+00	 1.000480790820410e+01
0	 3.857142857142858e+00	 9.142857142857142e+00	 1.000417778559384e+01
0	 3.857142857142858e+00	 9.285714285714285e+00	 1.000343570379823e+01
0	 3.857142857142858e+00	 9.428571428571429e+00	 1.000258713217000e+01
0	 3.857142857142858e+00	 9.571428571428569e+00	 1.000163754006191e+01
0	 3.857142857142858e+00	 9.714285714285714e+00	 1.000059239682667e+01
0	 3.857142857142859e+00	 9.857142857142854e+00	 9.999457171817035e+00
0	 3.857142857142858e+00	 1.000000000000000e+01	 9.998237334385703e+00
0	 4.000000000000001e+00	 8.571428571428571e+00	 1.000658800176724e+01
0	 4.000000000000000e+00	 8.714285714285717e+00	 1.000620642542791e+01
0	 4.000000000000001e+00	 8.857142857142859e+00	 1.000571624580401e+01
0	 4.000000000000002e+00	 9.000000000000005e+00	 1.000513373249103e+01
0	 4.000000000000001e+00	 9.142857142857144e+00	 1.000447515508443e+01
0	 4.000000000000001e+00	 9.285714285714285e+00	 1.000375678317967e+01
0	 4.000000000000000e+00	 9.428571428571427e+00	 1.000299488637224e+01
0	 4.000000000000001e+00	 9.571428571428569e+00	 1.000220573425763e+01
0	 4.000000000000000e+00	 9.714285714285712e+00	 1.000140559643130e+01
0	 4.000000000000000e+00	 9.857142857142854e+00	 1.000061074248870e+01
0	 4.000000000000001e+00	 1.000000000000000e+01	 9.999837442025386e+00
0	 4.142857142857144e+00	 8.571428571428573e+00	 1.000724715429111e+01
0	 4.142857142857144e+00	 8.714285714285717e+00	 1.000670452653245e+01
0	 4.142857142857143e+00	 8.857142857142856e+00	 1.000608033584566e+01
0	 4.142857142857144e+00	 9.000000000000000e+00	 1.000539986034722e+01
0	 4.142857142857144e+00	 9.142857142857144e+00	 1.000468837815354e+01
0	 4.142857142857144e+00	 9.285714285714281e+00	 1.000397116738110e+01
0	 4.142857142857144e+00	 9.428571428571427e+00	 1.000327350614630e+01
0	 4.142857142857143e+00	 9.571428571428568e+00	 1.000262067256555e+01
0	 4.142857142857144e+00	 9.714285714285712e+00	 1.000203794475538e+01
0	 4.142857142857142e+00	 9.857142857142852e+00	 1.000155060083213e+01
0	 4.142857142857143e+00	 1.000000000000000e+01	 1.000118391891225e+01
0	 4.285714285714286e+00	 8.571428571428573e+00	 1.000799013368027e+01
0	 4.285714285714286e+00	 8.714285714285717e+00	 1.000725643882416e+01
0	 4.285714285714285e+00	 8.857142857142856e+00	 1.000646774461402e+01
0	 4.285714285714287e+00	 9.000000000000002e+00	 1.000565654596551e+01
0	 4.285714285714286e+00	 9.142857142857141e+00	 1.000485533779428e+01
0	 4.285714285714286e+00	 9.285714285714285e+00	 1.000409661501593e+01
0	 4.285714285714286e+00	 9.428571428571429e+00	 1.000341287254608e+01
0	 4.285714285714286e+00	 9.571428571428569e+00	 1.000283660530038e+01
0	 4.285714285714286e+00	 9.714285714285712e+00	 1.000240030819442e+01
0	 4.285714285714286e+00	 9.857142857142856e+00	 1.000213647614389e+01
0	 4.285714285714286e+00	 1.000000000000000e+01	 1.000207760406434e+01
0	 4.285714285714286e+00	 0.000000000000000e+00	 1.019679743069649e+01
0	 4.285714285714286e+00	 1.428571428571429e-01	 1.024671953814101e+01
0	 4.285714285714286e+00	 2.857142857142857e-01	 1.028921714046384e+01
0	 4.285714285714286e+00	 4.285714285714287e-01	 1.032412963904755e+01
0	 4.285714285714287e+00	 5.714285714285715e-01	 1.035129643527474e+01
0	 4.285714285714286e+00	 7.142857142857143e-01	 1.037055693052802e+01
0	 4.285714285714286e+00	 8.571428571428572e-01	 1.038175052618997e+01
0	 4.285714285714286e+00	 1.000000000000000e+00	 1.038471662364319e+01
0	 4.285714285714286e+00	 1.142857142857143e+00	 1.037929462427027e+01
0	 4.285714285714286e+00	 1.285714285714286e+00	 1.036532392945382e+01
0	 4.285714285714287e+00	 1.428571428571429e+00	 1.034264394057642e+01
0	 4.428571428571429e+00	 0.000000000000000e+00	 1.013608130125871e+01
0	 4.428571428571431e+00	 1.428571428571430e-01	 1.019885125747746e+01
0	 4.428571428571429e+00	 2.857142857142856e-01	 1.025139732269373e+01
0	 4.428571428571431e+00	 4.285714285714287e-01	 1.029377927255404e+01
0	 4.428571428571428e+00	 5.714285714285713e-01	 1.032605688270490e+01
0	 4.428571428571429e+00	 7.142857142857143e-01	 1.034828992879288e+01
0	 4.428571428571429e+00	 8.571428571428575e-01	 1.036053818646449e+01
0	 4.428571428571431e+00	 1.000000000000000e+00	 1.036286143136627e+01
0	 4.428571428571429e+00	 1.142857142857143e+00	 1.035531943914476e+01
0	 4.428571428571429e+00	 1.285714285714286e+00	 1.033797198544648e+01
0	 4.428571428571429e+00	 1.428571428571429e+00	 1.031087884591797e+01
0	 4.571428571428572e+00	 0.000000000000000e+00	 1.009385443231600e+01
0	 4.571428571428572e+00	 1.428571428571429e-01	 1.016180731348311e+01
0	 4.571428571428573e+00	 2.857142857142858e-01	 1.021815869836489e+01
0	 4.571428571428573e+00	 4.285714285714287e-01	 1.026315233492580e+01
0	 4.571428571428571e+00	 5.714285714285714e-01	 1.029703197113032e+01
0	 4.571428571428574e+00	 7.142857142857144e-01	 1.032004135494291e+01
0	 4.571428571428570e+00	 8.571428571428573e-01	 1.033242423432806e+01
0	 4.571428571428571e+00	 9.999999999999999e-01	 1.033442435725021e+01
0	 4.571428571428571e+00	 1.142857142857143e+00	 1.032628547167384e+01
0	 4.571428571428571e+00	 1.285714285714286e+00	 1.030825132556343e+01
0	 4.571428571428572e+00	 1.428571428571429e+00	 1.028056566688343e+01
0	 4.714285714285715e+00	 0.000000000000000e+00	 1.006794551316896e+01
0	 4.714285714285715e+00	 1.428571428571429e-01	 1.013463353000896e+01
0	 4.714285714285714e+00	 2.857142857142857e-01	 1.018954827581875e+01
0	 4.714285714285714e+00	 4.285714285714286e-01	 1.023308106893471e+01
0	 4.714285714285716e+00	 5.714285714285714e-01	 1.026562322769326e+01
0	 4.714285714285715e+00	 7.142857142857143e-01	 1.028756607043081e+01
0	 4.714285714285714e+00	 8.571428571428574e-01	 1.029930091548373e+01
0	 4.714285714285714e+00	 1.000000000000000e+00	 1.030121908118845e+01
0	 4.714285714285714e+00	 1.142857142857143e+00	 1.029371188588136e+01
0	 4.714285714285715e+00	 1.285714285714286e+00	 1.027717064789887e+01
0	 4.714285714285715e+00	 1.428571428571429e+00	 1.025198668557737e+01
0	 4.857142857142858e+00	 0.000000000000000e+00	 1.005618323311817e+01
0	 4.857142857142857e+00	 1.428571428571429e-01	 1.011637573090606e+01
0	 4.857142857142858e+00	 2.857142857142857e-01	 1.016561306339678e+01
0	 4.857142857142856e+00	 4.285714285714286e-01	 1.020439771735266e+01
0	 4.857142857142857e+00	 5.714285714285714e-01	 1.023323217953604e+01
0	 4.857142857142858e+00	 7.142857142857143e-01	 1.025261893670925e+01
0	 4.857142857142857e+00	 8.571428571428572e-01	 1.026306047563462e+01
0	 4.857142857142858e+00	 1.000000000000000e+00	 1.026505928307449e+01
0	 4.857142857142857e+00	 1.142857142857143e+00	 1.025911784579118e+01
0	 4.857142857142858e+00	 1.285714285714286e+00	 1.024573865054704e+01
0	 4.857142857142858e+00	 1.428571428571429e+00	 1.022542418410438e+01
0	 5.000000000000000e+00	 0.000000000000000e+00	 1.005639628146423e+01
0	 4.999999999999997e+00	 1.428571428571428e-01	 1.010607974002543e+01
0	 4.999999999999999e+00	 2.857142857142857e-01	 1.014640006944044e+01
0	 5.000000000000000e+00	 4.285714285714287e-01	 1.017793452295152e+01
0	 5.000000000000001e+00	 5.714285714285716e-01	 1.020126035380093e+01
0	 5.000000000000002e+00	 7.142857142857144e-01	 1.021695481523093e+01
0	 5.000000000000001e+00	 8.571428571428572e-01	 1.022559516048380e+01
0	 5.000000000000000e+00	 1.000000000000000e+00	 1.022775864280178e+01
0	 5.000000000000001e+00	 1.142857142857143e+00	 1.022402251542714e+01
0	 4.999999999999999e+00	 1.285714285714286e+00	 1.021496403160214e+01
0	 5.000000000000000e+00	 1.428571428571429e+00	 1.020116044456905e+01
0	 5.142857142857143e+00	 0.000000000000000e+00	 1.006641334750773e+01
0	 5.142857142857142e+00	 1.428571428571429e-01	 1.010279138121810e+01
0	 5.142857142857142e+00	 2.857142857142858e-01	 1.013195630229119e+01
0	 5.142857142857142e+00	 4.285714285714287e-01	 1.015452372850316e+01
0	 5.142857142857141e+00	 5.714285714285715e-01	 1.017110927763022e+01
0	 5.142857142857142e+00	 7.142857142857142e-01	 1.018232856744857e+01
0	 5.142857142857143e+00	 8.571428571428573e-01	 1.018879721573436e+01
0	 5.142857142857143e+00	 1.000000000000000e+00	 1.019113084026382e+01
0	 5.142857142857144e+00	 1.142857142857143e+00	 1.018994505881310e+01
0	 5.142857142857141e+00	 1.285714285714286e+00	 1.018585548915841e+01
0	 5.142857142857142e+00	 1.428571428571429e+00	 1.017947774907594e+01
0	 5.285714285714284e+00	 0.000000000000000e+00	 1.008406312054927e+01
0	 5.285714285714286e+00	 1.428571428571430e-01	 1.010555647833511e+01
0	 5.285714285714284e+00	 2.857142857142856e-01	 1.012232877029048e+01
0	 5.285714285714286e+00	 4.285714285714287e-01	 1.013499757677947e+01
0	 5.285714285714285e+00	 5.714285714285715e-01	 1.014418047816622e+01
0	 5.285714285714286e+00	 7.142857142857143e-01	 1.015049505481482e+01
0	 5.285714285714285e+00	 8.571428571428572e-01	 1.015455888708939e+01
0	 5.285714285714285e+00	 1.000000000000000e+00	 1.015698955535404e+01
0	 5.285714285714286e+00	 1.142857142857143e+00	 1.015840463997290e+01
0	 5.285714285714286e+00	 1.285714285714286e+00	 1.015942172131006e+01
0	 5.285714285714285e+00	 1.428571428571429e+00	 1.016065837972964e+01
0	 5.428571428571427e+00	 0.000000000000000e+00	 1.010717428988943e+01
0	 5.428571428571427e+00	 1.428571428571429e-01	 1.011342085522748e+01
0	 5.428571428571428e+00	 2.857142857142858e-01	 1.011756448177977e+01
0	 5.428571428571426e+00	 4.285714285714286e-01	 1.012018831055233e+01
0	 5.428571428571427e+00	 5.714285714285716e-01	 1.012187548255120e+01
0	 5.428571428571426e+00	 7.142857142857141e-01	 1.012320913878241e+01
0	 5.428571428571428e+00	 8.571428571428573e-01	 1.012477242025198e+01
0	 5.428571428571427e+00	 1.000000000000000e+00	 1.012714846796597e+01
0	 5.428571428571426e+00	 1.142857142857143e+00	 1.013092042293040e+01
0	 5.428571428571428e+00	 1.285714285714286e+00	 1.013667142615132e+01
0	 5.428571428571428e+00	 1.428571428571429e+00	 1.014498461863474e+01
0	 5.571428571428570e+00	 0.000000000000000e+00	 1.013357554482881e+01
0	 5.571428571428570e+00	 1.428571428571429e-01	 1.012543033574625e+01
0	 5.571428571428571e+00	 2.857142857142858e-01	 1.011771044510052e+01
0	 5.571428571428569e+00	 4.285714285714285e-01	 1.011092817259361e+01
0	 5.571428571428569e+00	 5.714285714285714e-01	 1.010559581792746e+01
0	 5.571428571428570e+00	 7.142857142857143e-01	 1.010222568080400e+01
0	 5.571428571428570e+00	 8.571428571428573e-01	 1.010133006092522e+01
0	 5.571428571428569e+00	 1.000000000000000e+00	 1.010342125799306e+01
0	 5.571428571428569e+00	 1.142857142857143e+00	 1.010901157170946e+01
0	 5.571428571428570e+00	 1.285714285714286e+00	 1.011861330177640e+01
0	 5.571428571428571e+00	 1.428571428571429e+00	 1.013273874789581e+01
0	 5.714285714285714e+00	 0.000000000000000e+00	 1.016109557466800e+01
0	 5.714285714285714e+00	 1.428571428571429e-01	 1.014063074374243e+01
0	 5.714285714285714e+00	 2.857142857142858e-01	 1.012281366859421e+01
0	 5.714285714285714e+00	 4.285714285714287e-01	 1.010804940567520e+01
0	 5.714285714285714e+00	 5.714285714285715e-01	 1.009674301143728e+01
0	 5.714285714285714e+00	 7.142857142857143e-01	 1.008929954233232e+01
0	 5.714285714285713e+00	 8.571428571428571e-01	 1.008612405481219e+01
0	 5.714285714285714e+00	 1.000000000000000e+00	 1.008762160532877e+01
0	 5.714285714285714e+00	 1.142857142857143e+00	 1.009419725033392e+01
0	 5.714285714285714e+00	 1.285714285714286e+00	 1.010625604627952e+01
0	 5.714285714285715e+00	 1.428571428571429e+00	 1.012420304961744e+01
0	 4.285714285714287e+00	 1.428571428571429e+00	 1.034264394057642e+01
0	 4.285714285714285e+00	 1.571428571428571e+00	 1.031688410453032e+01
0	 4.285714285714286e+00	 1.714285714285715e+00	 1.029390498279806e+01
0	 4.285714285714286e+00	 1.857142857142857e+00	 1.027389264864772e+01
0	 4.285714285714286e+00	 2.000000000000001e+00	 1.025703317534738e+01
0	 4.285714285714285e+00	 2.142857142857143e+00	 1.024351263616512e+01
0	 4.285714285714286e+00	 2.285714285714286e+00	 1.023351710436901e+01
0	 4.285714285714286e+00	 2.428571428571429e+00	 1.022723265322711e+01
0	 4.285714285714286e+00	 2.571428571428573e+00	 1.022484535600752e+01
0	 4.285714285714286e+00	 2.714285714285715e+00	 1.022654128597831e+01
0	 4.285714285714287e+00	 2.857142857142858e+00	 1.023250651640755e+01
0	 4.428571428571429e+00	 1.428571428571429e+00	 1.031087884591797e+01
0	 4.428571428571431e+00	 1.571428571428572e+00	 1.028106023928665e+01
0	 4.428571428571429e+00	 1.714285714285714e+00	 1.025555901859240e+01
0	 4.428571428571429e+00	 1.857142857142857e+00	 1.023446891095040e+01
0	 4.428571428571429e+00	 2.000000000000000e+00	 1.021788364347587e+01
0	 4.428571428571430e+00	 2.142857142857143e+00	 1.020589694328401e+01
0	 4.428571428571429e+00	 2.285714285714286e+00	 1.019860253749001e+01
0	 4.428571428571430e+00	 2.428571428571430e+00	 1.019609415320907e+01
0	 4.428571428571429e+00	 2.571428571428572e+00	 1.019846551755641e+01
0	 4.428571428571429e+00	 2.714285714285715e+00	 1.020581035764722e+01
0	 4.428571428571431e+00	 2.857142857142858e+00	 1.021822240059669e+01
0	 4.571428571428572e+00	 1.428571428571429e+00	 1.028056566688343e+01
0	 4.571428571428572e+00	 1.571428571428572e+00	 1.025062953582548e+01
0	 4.571428571428573e+00	 1.714285714285715e+00	 1.022569269578632e+01
0	 4.571428571428572e+00	 1.857142857142857e+00	 1.020577197953813e+01
0	 4.571428571428574e+00	 2.000000000000001e+00	 1.019088421985307e+01
0	 4.571428571428571e+00	 2.142857142857142e+00	 1.018104624950329e+01
0	 4.571428571428571e+00	 2.285714285714286e+00	 1.017627490126097e+01
0	 4.571428571428572e+00	 2.428571428571429e+00	 1.017658700789825e+01
0	 4.571428571428573e+00	 2.571428571428573e+00	 1.018199940218731e+01
0	 4.571428571428572e+00	 2.714285714285715e+00	 1.019252891690031e+01
0	 4.571428571428571e+00	 2.857142857142857e+00	 1.020819238480940e+01
0	 4.714285714285715e+00	 1.428571428571429e+00	 1.025198668557737e+01
0	 4.714285714285715e+00	 1.571428571428572e+00	 1.022511177428725e+01
0	 4.714285714285714e+00	 1.714285714285714e+00	 1.020320707066724e+01
0	 4.714285714285715e+00	 1.857142857142858e+00	 1.018622796495631e+01
0	 4.714285714285714e+00	 2.000000000000000e+00	 1.017412984739343e+01
0	 4.714285714285715e+00	 2.142857142857143e+00	 1.016686810821755e+01
0	 4.714285714285716e+00	 2.285714285714287e+00	 1.016439813766763e+01
0	 4.714285714285714e+00	 2.428571428571430e+00	 1.016667532598262e+01
0	 4.714285714285714e+00	 2.571428571428573e+00	 1.017365506340149e+01
0	 4.714285714285714e+00	 2.714285714285715e+00	 1.018529274016319e+01
0	 4.714285714285715e+00	 2.857142857142857e+00	 1.020154374650669e+01
0	 4.857142857142858e+00	 1.428571428571429e+00	 1.022542418410438e+01
0	 4.857142857142858e+00	 1.571428571428572e+00	 1.020402673481243e+01
0	 4.857142857142859e+00	 1.714285714285715e+00	 1.018700319952256e+01
0	 4.857142857142858e+00	 1.857142857142857e+00	 1.017426297775036e+01
0	 4.857142857142858e+00	 2.000000000000000e+00	 1.016571546901144e+01
0	 4.857142857142859e+00	 2.142857142857144e+00	 1.016127007282136e+01
0	 4.857142857142858e+00	 2.285714285714286e+00	 1.016083618869574e+01
0	 4.857142857142858e+00	 2.428571428571429e+00	 1.016432321615015e+01
0	 4.857142857142858e+00	 2.571428571428573e+00	 1.017164055470020e+01
0	 4.857142857142858e+00	 2.714285714285715e+00	 1.018269760386147e+01
0	 4.857142857142859e+00	 2.857142857142858e+00	 1.019740376314956e+01
0	 5.000000000000000e+00	 1.428571428571429e+00	 1.020116044456905e+01
0	 4.999999999999999e+00	 1.571428571428572e+00	 1.018689419754150e+01
0	 5.000000000000000e+00	 1.714285714285715e+00	 1.017598213863970e+01
0	 5.000000000000001e+00	 1.857142857142858e+00	 1.016830312846568e+01
0	 5.000000000000002e+00	 2.000000000000000e+00	 1.016373602762153e+01
0	 5.000000000000001e+00	 2.142857142857143e+00	 1.016215969670929e+01
0	 5.000000000000001e+00	 2.285714285714287e+00	 1.016345299633103e+01
0	 5.000000000000000e+00	 2.428571428571430e+00	 1.016749478708882e+01
0	 5.000000000000002e+00	 2.571428571428573e+00	 1.017416392958470e+01
0	 5.000000000000001e+00	 2.714285714285715e+00	 1.018333928442074e+01
0	 5.000000000000000e+00	 2.857142857142857e+00	 1.019489971219900e+01
0	 5.142857142857142e+00	 1.428571428571429e+00	 1.017947774907594e+01
0	 5.142857142857141e+00	 1.571428571428571e+00	 1.017323394261492e+01
0	 5.142857142857145e+00	 1.714285714285715e+00	 1.016904494430605e+01
0	 5.142857142857144e+00	 1.857142857142858e+00	 1.016677452764767e+01
0	 5.142857142857144e+00	 2.000000000000000e+00	 1.016628646613818e+01
0	 5.142857142857144e+00	 2.142857142857144e+00	 1.016744453327593e+01
0	 5.142857142857143e+00	 2.285714285714286e+00	 1.017011250255927e+01
0	 5.142857142857144e+00	 2.428571428571430e+00	 1.017415414748659e+01
0	 5.142857142857146e+00	 2.571428571428573e+00	 1.017943324155625e+01
0	 5.142857142857143e+00	 2.714285714285715e+00	 1.018581355826660e+01
0	 5.142857142857143e+00	 2.857142857142857e+00	 1.019315887111602e+01
0	 5.285714285714285e+00	 1.428571428571429e+00	 1.016065837972964e+01
0	 5.285714285714286e+00	 1.571428571428572e+00	 1.016256575017315e+01
0	 5.285714285714284e+00	 1.714285714285714e+00	 1.016509267280902e+01
0	 5.285714285714286e+00	 1.857142857142858e+00	 1.016810328584175e+01
0	 5.285714285714286e+00	 2.000000000000000e+00	 1.017146172747585e+01
0	 5.285714285714285e+00	 2.142857142857144e+00	 1.017503213591584e+01
0	 5.285714285714286e+00	 2.285714285714287e+00	 1.017867864936621e+01
0	 5.285714285714286e+00	 2.428571428571429e+00	 1.018226540603146e+01
0	 5.285714285714285e+00	 2.571428571428572e+00	 1.018565654411611e+01
0	 5.285714285714286e+00	 2.714285714285716e+00	 1.018871620182465e+01
0	 5.285714285714286e+00	 2.857142857142857e+00	 1.019130851736162e+01
0	 5.428571428571428e+00	 1.428571428571429e+00	 1.014498461863474e+01
0	 5.428571428571429e+00	 1.571428571428572e+00	 1.015440940035666e+01
0	 5.428571428571428e+00	 1.714285714285714e+00	 1.016302638043602e+01
0	 5.428571428571428e+00	 1.857142857142858e+00	 1.017071551359332e+01
0	 5.428571428571429e+00	 2.000000000000000e+00	 1.017735675454902e+01
0	 5.428571428571427e+00	 2.142857142857143e+00	 1.018283005802361e+01
0	 5.428571428571427e+00	 2.285714285714287e+00	 1.018701537873756e+01
0	 5.428571428571429e+00	 2.428571428571430e+00	 1.018979267141139e+01
0	 5.428571428571429e+00	 2.571428571428573e+00	 1.019104189076554e+01
0	 5.428571428571428e+00	 2.714285714285715e+00	 1.019064299152052e+01
0	 5.428571428571429e+00	 2.857142857142857e+00	 1.018847592839679e+01
0	 5.571428571428571e+00	 1.428571428571429e+00	 1.013273874789581e+01
0	 5.571428571428571e+00	 1.571428571428572e+00	 1.014828467330591e+01
0	 5.571428571428570e+00	 1.714285714285715e+00	 1.016174712347448e+01
0	 5.571428571428569e+00	 1.857142857142858e+00	 1.017303732144777e+01
0	 5.571428571428571e+00	 2.000000000000001e+00	 1.018206649027212e+01
0	 5.571428571428569e+00	 2.142857142857143e+00	 1.018874585299380e+01
0	 5.571428571428571e+00	 2.285714285714286e+00	 1.019298663265912e+01
0	 5.571428571428569e+00	 2.428571428571429e+00	 1.019470005231434e+01
0	 5.571428571428570e+00	 2.571428571428573e+00	 1.019379733500580e+01
0	 5.571428571428570e+00	 2.714285714285715e+00	 1.019018970377976e+01
0	 5.571428571428571e+00	 2.857142857142858e+00	 1.018378838168254e+01
0	 5.714285714285715e+00	 1.428571428571429e+00	 1.012420304961744e+01
0	 5.714285714285716e+00	 1.571428571428572e+00	 1.014371134916138e+01
0	 5.714285714285715e+00	 1.714285714285715e+00	 1.016015595821177e+01
0	 5.714285714285714e+00	 1.857142857142857e+00	 1.017349481995054e+01
0	 5.714285714285715e+00	 2.000000000000000e+00	 1.018368587755965e+01
0	 5.714285714285713e+00	 2.142857142857143e+00	 1.019068707422101e+01
0	 5.714285714285714e+00	 2.285714285714287e+00	 1.019445635311659e+01
0	 5.714285714285714e+00	 2.428571428571429e+00	 1.019495165742832e+01
0	 5.714285714285716e+00	 2.571428571428573e+00	 1.019213093033815e+01
0	 5.714285714285715e+00	 2.714285714285715e+00	 1.018595211502801e+01
0	 5.714285714285715e+00	 2.857142857142857e+00	 1.017637315467986e+01
0	 4.285714285714287e+00	 2.857142857142858e+00	 1.023250651640755e+01
0	 4.285714285714286e+00	 3.000000000000001e+00	 1.023979691940678e+01
0	 4.285714285714286e+00	 3.142857142857143e+00	 1.024517039424122e+01
0	 4.285714285714286e+00	 3.285714285714286e+00	 1.024836605490952e+01
0	 4.285714285714287e+00	 3.428571428571429e+00	 1.024912301541031e+01
0	 4.285714285714286e+00	 3.571428571428572e+00	 1.024718038974222e+01
0	 4.285714285714286e+00	 3.714285714285715e+00	 1.024227729190388e+01
0	 4.285714285714285e+00	 3.857142857142857e+00	 1.023415283589392e+01
0	 4.285714285714286e+00	 4.000000000000001e+00	 1.022254613571099e+01
0	 4.285714285714286e+00	 4.142857142857144e+00	 1.020719630535371e+01
0	 4.285714285714286e+00	 4.285714285714285e+00	 1.018784245882071e+01
0	 4.428571428571431e+00	 2.857142857142858e+00	 1.021822240059669e+01
0	 4.428571428571431e+00	 3.000000000000001e+00	 1.023159383419341e+01
0	 4.428571428571430e+00	 3.142857142857143e+00	 1.024166926048632e+01
0	 4.428571428571430e+00	 3.285714285714286e+00	 1.024832102798116e+01
0	 4.428571428571429e+00	 3.428571428571429e+00	 1.025142148518372e+01
0	 4.428571428571428e+00	 3.571428571428571e+00	 1.025084298059972e+01
0	 4.428571428571430e+00	 3.714285714285715e+00	 1.024645786273494e+01
0	 4.428571428571430e+00	 3.857142857142858e+00	 1.023813848009513e+01
0	 4.428571428571430e+00	 4.000000000000002e+00	 1.022575718118605e+01
0	 4.428571428571430e+00	 4.142857142857143e+00	 1.020918631451344e+01
0	 4.428571428571429e+00	 4.285714285714286e+00	 1.018829822858307e+01
0	 4.571428571428571e+00	 2.857142857142857e+00	 1.020819238480940e+01
0	 4.571428571428572e+00	 3.000000000000001e+00	 1.022440025567890e+01
0	 4.571428571428573e+00	 3.142857142857143e+00	 1.023654089488365e+01
0	 4.571428571428572e+00	 3.285714285714286e+00	 1.024459800861165e+01
0	 4.571428571428573e+00	 3.428571428571428e+00	 1.024855530305087e+01
0	 4.571428571428572e+00	 3.571428571428572e+00	 1.024839648438930e+01
0	 4.571428571428572e+00	 3.714285714285714e+00	 1.024410525881492e+01
0	 4.571428571428570e+00	 3.857142857142856e+00	 1.023566533251572e+01
0	 4.571428571428572e+00	 4.000000000000000e+00	 1.022306041167968e+01
0	 4.571428571428573e+00	 4.142857142857144e+00	 1.020627420249479e+01
0	 4.571428571428570e+00	 4.285714285714285e+00	 1.018529041114903e+01
0	 4.714285714285715e+00	 2.857142857142857e+00	 1.020154374650669e+01
0	 4.714285714285714e+00	 3.000000000000001e+00	 1.021790202534351e+01
0	 4.714285714285714e+00	 3.142857142857143e+00	 1.022994005078939e+01
0	 4.714285714285715e+00	 3.285714285714286e+00	 1.023773100988967e+01
0	 4.714285714285715e+00	 3.428571428571429e+00	 1.024134808968966e+01
0	 4.714285714285714e+00	 3.571428571428572e+00	 1.024086447723467e+01
0	 4.714285714285715e+00	 3.714285714285714e+00	 1.023635335957000e+01
0	 4.714285714285715e+00	 3.857142857142857e+00	 1.022788792374101e+01
0	 4.714285714285713e+00	 4.000000000000000e+00	 1.021554135679299e+01
0	 4.714285714285714e+00	 4.142857142857144e+00	 1.019938684577127e+01
0	 4.714285714285714e+00	 4.285714285714285e+00	 1.017949757772116e+01
0	 4.857142857142859e+00	 2.857142857142858e+00	 1.019740376314956e+01
0	 4.857142857142859e+00	 3.000000000000001e+00	 1.021178498466748e+01
0	 4.857142857142859e+00	 3.142857142857144e+00	 1.022202148155968e+01
0	 4.857142857142858e+00	 3.285714285714286e+00	 1.022825404490392e+01
0	 4.857142857142858e+00	 3.428571428571428e+00	 1.023062346577795e+01
0	 4.857142857142858e+00	 3.571428571428573e+00	 1.022927053525953e+01
0	 4.857142857142858e+00	 3.714285714285714e+00	 1.022433604442640e+01
0	 4.857142857142856e+00	 3.857142857142856e+00	 1.021596078435633e+01
0	 4.857142857142858e+00	 4.000000000000000e+00	 1.020428554612708e+01
0	 4.857142857142859e+00	 4.142857142857145e+00	 1.018945112081639e+01
0	 4.857142857142858e+00	 4.285714285714286e+00	 1.017159829950203e+01
0	 5.000000000000000e+00	 2.857142857142857e+00	 1.019489971219900e+01
0	 5.000000000000000e+00	 3.000000000000001e+00	 1.020573497513107e+01
0	 5.000000000000000e+00	 3.142857142857143e+00	 1.021293994055065e+01
0	 5.000000000000000e+00	 3.285714285714286e+00	 1.021670112674307e+01
0	 5.000000000000001e+00	 3.428571428571429e+00	 1.021720505199363e+01
0	 5.000000000000001e+00	 3.571428571428572e+00	 1.021463823458760e+01
0	 5.000000000000001e+00	 3.714285714285715e+00	 1.020918719281029e+01
0	 5.000000000000001e+00	 3.857142857142858e+00	 1.020103844494700e+01
0	 4.999999999999999e+00	 4.000000000000000e+00	 1.019037850928304e+01
0	 5.000000000000000e+00	 4.142857142857142e+00	 1.017739390410369e+01
0	 5.000000000000001e+00	 4.285714285714286e+00	 1.016227114769425e+01
0	 5.142857142857143e+00	 2.857142857142857e+00	 1.019315887111602e+01
0	 5.142857142857142e+00	 3.000000000000001e+00	 1.019943783821452e+01
0	 5.142857142857143e+00	 3.142857142857144e+00	 1.020285018111847e+01
0	 5.142857142857144e+00	 3.285714285714286e+00	 1.020360626849585e+01
0	 5.142857142857144e+00	 3.428571428571429e+00	 1.020191646901457e+01
0	 5.142857142857144e+00	 3.571428571428573e+00	 1.019799115134260e+01
0	 5.142857142857144e+00	 3.714285714285715e+00	 1.019204068414788e+01
0	 5.142857142857144e+00	 3.857142857142858e+00	 1.018427543609835e+01
0	 5.142857142857144e+00	 4.000000000000002e+00	 1.017490577586196e+01
0	 5.142857142857141e+00	 4.142857142857142e+00	 1.016414207210666e+01
0	 5.142857142857143e+00	 4.285714285714285e+00	 1.015219469350039e+01
0	 5.285714285714286e+00	 2.857142857142857e+00	 1.019130851736162e+01
0	 5.285714285714286e+00	 3.000000000000001e+00	 1.019257941539808e+01
0	 5.285714285714285e+00	 3.142857142857143e+00	 1.019190695661928e+01
0	 5.285714285714286e+00	 3.285714285714286e+00	 1.018950348325090e+01
0	 5.285714285714286e+00	 3.428571428571430e+00	 1.018558133751866e+01
0	 5.285714285714285e+00	 3.571428571428573e+00	 1.018035286164825e+01
0	 5.285714285714286e+00	 3.714285714285713e+00	 1.017403039786535e+01
0	 5.285714285714286e+00	 3.857142857142857e+00	 1.016682628839569e+01
0	 5.285714285714285e+00	 4.000000000000001e+00	 1.015895287546495e+01
0	 5.285714285714285e+00	 4.142857142857143e+00	 1.015062250129883e+01
0	 5.285714285714286e+00	 4.285714285714286e+00	 1.014204750812303e+01
0	 5.428571428571429e+00	 2.857142857142857e+00	 1.018847592839679e+01
0	 5.428571428571429e+00	 3.000000000000001e+00	 1.018484554816201e+01
0	 5.428571428571426e+00	 3.142857142857144e+00	 1.018026502040921e+01
0	 5.428571428571429e+00	 3.285714285714286e+00	 1.017492678409696e+01
0	 5.428571428571428e+00	 3.428571428571429e+00	 1.016902327818378e+01
0	 5.428571428571428e+00	 3.571428571428572e+00	 1.016274694162825e+01
0	 5.428571428571425e+00	 3.714285714285714e+00	 1.015629021338892e+01
0	 5.428571428571428e+00	 3.857142857142858e+00	 1.014984553242436e+01
0	 5.428571428571428e+00	 4.000000000000001e+00	 1.014360533769310e+01
0	 5.428571428571428e+00	 4.142857142857142e+00	 1.013776206815371e+01
0	 5.428571428571428e+00	 4.285714285714286e+00	 1.013250816276475e+01
0	 5.571428571428571e+00	 2.857142857142858e+00	 1.018378838168254e+01
0	 5.571428571428570e+00	 3.000000000000000e+00	 1.017592207798656e+01
0	 5.571428571428570e+00	 3.142857142857143e+00	 1.016807912584443e+01
0	 5.571428571428569e+00	 3.285714285714286e+00	 1.016041018412267e+01
0	 5.571428571428570e+00	 3.428571428571429e+00	 1.015306591168780e+01
0	 5.571428571428571e+00	 3.571428571428572e+00	 1.014619696740632e+01
0	 5.571428571428570e+00	 3.714285714285715e+00	 1.013995401014477e+01
0	 5.571428571428570e+00	 3.857142857142857e+00	 1.013448769876967e+01
0	 5.571428571428572e+00	 4.000000000000000e+00	 1.012994869214751e+01
0	 5.571428571428570e+00	 4.142857142857142e+00	 1.012648764914483e+01
0	 5.571428571428571e+00	 4.285714285714286e+00	 1.012425522862815e+01
0	 5.714285714285715e+00	 2.857142857142857e+00	 1.017637315467986e+01
0	 5.714285714285715e+00	 3.000000000000001e+00	 1.016549484635197e+01
0	 5.714285714285714e+00	 3.142857142857143e+00	 1.015550402628108e+01
0	 5.714285714285714e+00	 3.285714285714286e+00	 1.014648769641676e+01
0	 5.714285714285715e+00	 3.428571428571429e+00	 1.013853285870860e+01
0	 5.714285714285714e+00	 3.571428571428572e+00	 1.013172651510619e+01
0	 5.714285714285715e+00	 3.714285714285715e+00	 1.012615566755911e+01
0	 5.714285714285714e+00	 3.857142857142856e+00	 1.012190731801694e+01
0	 5.714285714285714e+00	 4.000000000000001e+00	 1.011906846842928e+01
0	 5.714285714285715e+00	 4.142857142857143e+00	 1.011772612074570e+01
0	 5.714285714285715e+00	 4.285714285714286e+00	 1.011796727691578e+01
0	 4.285714285714286e+00	 4.285714285714285e+00	 1.018784245882071e+01
0	 4.285714285714286e+00	 4.428571428571429e+00	 1.016729170815648e+01
0	 4.285714285714285e+00	 4.571428571428570e+00	 1.014855690079913e+01
0	 4.285714285714286e+00	 4.714285714285714e+00	 1.013168575383771e+01
0	 4.285714285714287e+00	 4.857142857142857e+00	 1.011672598436126e+01
0	 4.285714285714286e+00	 4.999999999999999e+00	 1.010372530945884e+01
0	 4.285714285714286e+00	 5.142857142857143e+00	 1.009273144621950e+01
0	 4.285714285714286e+00	 5.285714285714284e+00	 1.008379211173230e+01
0	 4.285714285714285e+00	 5.428571428571426e+00	 1.007695502308628e+01
0	 4.285714285714286e+00	 5.571428571428570e+00	 1.007226789737049e+01
0	 4.285714285714286e+00	 5.714285714285714e+00	 1.006977845167398e+01
0	 4.428571428571429e+00	 4.285714285714286e+00	 1.018829822858307e+01
0	 4.428571428571430e+00	 4.428571428571430e+00	 1.016642659665404e+01
0	 4.428571428571428e+00	 4.571428571428571e+00	 1.014696426614615e+01
0	 4.428571428571429e+00	 4.714285714285714e+00	 1.012987234680624e+01
0	 4.428571428571429e+00	 4.857142857142857e+00	 1.011511194838113e+01
0	 4.428571428571428e+00	 4.999999999999999e+00	 1.010264418061767e+01
0	 4.428571428571430e+00	 5.142857142857142e+00	 1.009243015326269e+01
0	 4.428571428571429e+00	 5.285714285714286e+00	 1.008443097606303e+01
0	 4.428571428571431e+00	 5.428571428571429e+00	 1.007860775876552e+01
0	 4.428571428571431e+00	 5.571428571428569e+00	 1.007492161111698e+01
0	 4.428571428571429e+00	 5.714285714285714e+00	 1.007333364286426e+01
0	 4.571428571428570e+00	 4.285714285714285e+00	 1.018529041114903e+01
0	 4.571428571428573e+00	 4.428571428571427e+00	 1.016359291316394e+01
0	 4.571428571428572e+00	 4.571428571428572e+00	 1.014460339460590e+01
0	 4.571428571428571e+00	 4.714285714285714e+00	 1.012821227748018e+01
0	 4.571428571428572e+00	 4.857142857142857e+00	 1.011430998379201e+01
0	 4.571428571428573e+00	 5.000000000000001e+00	 1.010278693554665e+01
0	 4.571428571428573e+00	 5.142857142857141e+00	 1.009353355474935e+01
0	 4.571428571428572e+00	 5.285714285714284e+00	 1.008644026340537e+01
0	 4.571428571428571e+00	 5.428571428571426e+00	 1.008139748351995e+01
0	 4.571428571428572e+00	 5.571428571428570e+00	 1.007829563709835e+01
0	 4.571428571428571e+00	 5.714285714285714e+00	 1.007702514614582e+01
0	 4.714285714285714e+00	 4.285714285714285e+00	 1.017949757772116e+01
0	 4.714285714285714e+00	 4.428571428571429e+00	 1.015919684565835e+01
0	 4.714285714285714e+00	 4.571428571428570e+00	 1.014164958714452e+01
0	 4.714285714285715e+00	 4.714285714285715e+00	 1.012669145604400e+01
0	 4.714285714285715e+00	 4.857142857142856e+00	 1.011415810622107e+01
0	 4.714285714285714e+00	 5.000000000000000e+00	 1.010388519154005e+01
0	 4.714285714285714e+00	 5.142857142857142e+00	 1.009570836586523e+01
0	 4.714285714285714e+00	 5.285714285714285e+00	 1.008946328306092e+01
0	 4.714285714285714e+00	 5.428571428571428e+00	 1.008498559699143e+01
0	 4.714285714285715e+00	 5.571428571428569e+00	 1.008211096152106e+01
0	 4.714285714285714e+00	 5.714285714285714e+00	 1.008067503051412e+01
0	 4.857142857142858e+00	 4.285714285714286e+00	 1.017159829950203e+01
0	 4.857142857142858e+00	 4.428571428571429e+00	 1.015364458210942e+01
0	 4.857142857142858e+00	 4.571428571428572e+00	 1.013827814472813e+01
0	 4.857142857142857e+00	 4.714285714285714e+00	 1.012529579268216e+01
0	 4.857142857142858e+00	 4.857142857142857e+00	 1.011449433129549e+01
0	 4.857142857142858e+00	 5.000000000000001e+00	 1.010567056589214e+01
0	 4.857142857142857e+00	 5.142857142857142e+00	 1.009862130179607e+01
0	 4.857142857142856e+00	 5.285714285714283e+00	 1.009314334433130e+01
0	 4.857142857142858e+00	 5.428571428571426e+00	 1.008903349882180e+01
0	 4.857142857142859e+00	 5.571428571428570e+00	 1.008608857059158e+01
0	 4.857142857142858e+00	 5.714285714285714e+00	 1.008410536496462e+01
0	 5.000000000000001e+00	 4.285714285714286e+00	 1.016227114769425e+01
0	 4.999999999999999e+00	 4.428571428571428e+00	 1.014734231048932e+01
0	 4.999999999999999e+00	 4.571428571428570e+00	 1.013466436832284e+01
0	 5.000000000000000e+00	 4.714285714285714e+00	 1.012401119757912e+01
0	 5.000000000000000e+00	 4.857142857142856e+00	 1.011515667464247e+01
0	 5.000000000000001e+00	 5.000000000000000e+00	 1.010787467589721e+01
0	 5.000000000000001e+00	 5.142857142857143e+00	 1.010193907772765e+01
0	 5.000000000000001e+00	 5.285714285714285e+00	 1.009712375651812e+01
0	 5.000000000000000e+00	 5.428571428571426e+00	 1.009320258865291e+01
0	 4.999999999999999e+00	 5.571428571428569e+00	 1.008994945051637e+01
0	 4.999999999999999e+00	 5.714285714285713e+00	 1.008713821849280e+01
0	 5.142857142857143e+00	 4.285714285714285e+00	 1.015219469350039e+01
0	 5.142857142857141e+00	 4.428571428571429e+00	 1.014069621877022e+01
0	 5.142857142857143e+00	 4.571428571428573e+00	 1.013098355889478e+01
0	 5.142857142857144e+00	 4.714285714285714e+00	 1.012282358091933e+01
0	 5.142857142857144e+00	 4.857142857142857e+00	 1.011598315188916e+01
0	 5.142857142857144e+00	 5.000000000000000e+00	 1.011022913884952e+01
0	 5.142857142857143e+00	 5.142857142857142e+00	 1.010532840884571e+01
0	 5.142857142857144e+00	 5.285714285714285e+00	 1.010104782892299e+01
0	 5.142857142857143e+00	 5.428571428571427e+00	 1.009715426612663e+01
0	 5.142857142857144e+00	 5.571428571428569e+00	 1.009341458750192e+01
0	 5.142857142857142e+00	 5.714285714285714e+00	 1.008959566009411e+01
0	 5.285714285714286e+00	 4.285714285714286e+00	 1.014204750812303e+01
0	 5.285714285714285e+00	 4.428571428571429e+00	 1.013411249492427e+01
0	 5.285714285714285e+00	 4.571428571428570e+00	 1.012741101741006e+01
0	 5.285714285714286e+00	 4.714285714285714e+00	 1.012171885288726e+01
0	 5.285714285714285e+00	 4.857142857142856e+00	 1.011681177866274e+01
0	 5.285714285714285e+00	 5.000000000000000e+00	 1.011246557204336e+01
0	 5.285714285714286e+00	 5.142857142857142e+00	 1.010845601033600e+01
0	 5.285714285714286e+00	 5.285714285714285e+00	 1.010455887084752e+01
0	 5.285714285714286e+00	 5.428571428571427e+00	 1.010054993088479e+01
0	 5.285714285714286e+00	 5.571428571428569e+00	 1.009620496775466e+01
0	 5.285714285714285e+00	 5.714285714285714e+00	 1.009129975876402e+01
0	 5.428571428571428e+00	 4.285714285714286e+00	 1.013250816276475e+01
0	 5.428571428571429e+00	 4.428571428571429e+00	 1.012799732692364e+01
0	 5.428571428571425e+00	 4.571428571428570e+00	 1.012412204483481e+01
0	 5.428571428571428e+00	 4.714285714285714e+00	 1.012068292366736e+01
0	 5.428571428571427e+00	 4.857142857142858e+00	 1.011748057059039e+01
0	 5.428571428571427e+00	 5.000000000000000e+00	 1.011431559277300e+01
0	 5.428571428571427e+00	 5.142857142857142e+00	 1.011098859738428e+01
0	 5.428571428571427e+00	 5.285714285714286e+00	 1.010730019159332e+01
0	 5.428571428571427e+00	 5.428571428571425e+00	 1.010305098256923e+01
0	 5.428571428571429e+00	 5.571428571428569e+00	 1.009804157748109e+01
0	 5.428571428571428e+00	 5.714285714285714e+00	 1.009207258349800e+01
0	 5.571428571428571e+00	 4.285714285714286e+00	 1.012425522862815e+01
0	 5.571428571428569e+00	 4.428571428571428e+00	 1.012275690274047e+01
0	 5.571428571428569e+00	 4.571428571428570e+00	 1.012129194213514e+01
0	 5.571428571428569e+00	 4.714285714285715e+00	 1.011970170344409e+01
0	 5.571428571428569e+00	 4.857142857142857e+00	 1.011782754329930e+01
0	 5.571428571428569e+00	 4.999999999999999e+00	 1.011551081833271e+01
0	 5.571428571428570e+00	 5.142857142857142e+00	 1.011259288517630e+01
0	 5.571428571428569e+00	 5.285714285714284e+00	 1.010891510046202e+01
0	 5.571428571428570e+00	 5.428571428571427e+00	 1.010431882082182e+01
0	 5.571428571428571e+00	 5.571428571428569e+00	 1.009864540288766e+01
0	 5.571428571428571e+00	 5.714285714285714e+00	 1.009173620329151e+01
0	 5.714285714285715e+00	 4.285714285714286e+00	 1.011796727691578e+01
0	 5.714285714285715e+00	 4.428571428571428e+00	 1.011879741034696e+01
0	 5.714285714285714e+00	 4.571428571428571e+00	 1.011909601027718e+01
0	 5.714285714285714e+00	 4.714285714285714e+00	 1.011876110240192e+01
0	 5.714285714285715e+00	 4.857142857142858e+00	 1.011769071241664e+01
0	 5.714285714285714e+00	 5.000000000000002e+00	 1.011578286601679e+01
0	 5.714285714285714e+00	 5.142857142857142e+00	 1.011293558889782e+01
0	 5.714285714285714e+00	 5.285714285714285e+00	 1.010904690675521e+01
0	 5.714285714285714e+00	 5.428571428571427e+00	 1.010401484528439e+01
0	 5.714285714285714e+00	 5.571428571428570e+00	 1.009773743018084e+01
0	 5.714285714285715e+00	 5.714285714285714e+00	 1.009011268714001e+01
0	 4.285714285714286e+00	 5.714285714285714e+00	 1.006977845167398e+01
0	 4.285714285714286e+00	 5.857142857142856e+00	 1.006825414670157e+01
0	 4.285714285714286e+00	 5.999999999999999e+00	 1.006641607009413e+01
0	 4.285714285714286e+00	 6.142857142857141e+00	 1.006424237934483e+01
0	 4.285714285714286e+00	 6.285714285714284e+00	 1.006171123194687e+01
0	 4.285714285714286e+00	 6.428571428571424e+00	 1.005880078539339e+01
0	 4.285714285714287e+00	 6.571428571428569e+00	 1.005548919717758e+01
0	 4.285714285714286e+00	 6.714285714285711e+00	 1.005175462479260e+01
0	 4.285714285714286e+00	 6.857142857142851e+00	 1.004757522573164e+01
0	 4.285714285714287e+00	 6.999999999999996e+00	 1.004292915748787e+01
0	 4.285714285714286e+00	 7.142857142857141e+00	 1.003779457755446e+01
0	 4.428571428571429e+00	 5.714285714285714e+00	 1.007333364286426e+01
0	 4.428571428571430e+00	 5.857142857142856e+00	 1.007246305201618e+01
0	 4.428571428571430e+00	 5.999999999999999e+00	 1.007097155715519e+01
0	 4.428571428571430e+00	 6.142857142857141e+00	 1.006888404888862e+01
0	 4.428571428571429e+00	 6.285714285714282e+00	 1.006622541782378e+01
0	 4.428571428571428e+00	 6.428571428571424e+00	 1.006302055456799e+01
0	 4.428571428571429e+00	 6.571428571428569e+00	 1.005929434972858e+01
0	 4.428571428571429e+00	 6.714285714285711e+00	 1.005507169391284e+01
0	 4.428571428571430e+00	 6.857142857142853e+00	 1.005037747772810e+01
0	 4.428571428571429e+00	 6.999999999999995e+00	 1.004523659178168e+01
0	 4.428571428571429e+00	 7.142857142857142e+00	 1.003967392668089e+01
0	 4.571428571428571e+00	 5.714285714285714e+00	 1.007702514614582e+01
0	 4.571428571428571e+00	 5.857142857142856e+00	 1.007621650445167e+01
0	 4.571428571428570e+00	 5.999999999999996e+00	 1.007461485768084e+01
0	 4.571428571428569e+00	 6.142857142857139e+00	 1.007228260565212e+01
0	 4.571428571428574e+00	 6.285714285714284e+00	 1.006928214818422e+01
0	 4.571428571428573e+00	 6.428571428571428e+00	 1.006567588509586e+01
0	 4.571428571428572e+00	 6.571428571428567e+00	 1.006152621620583e+01
0	 4.571428571428571e+00	 6.714285714285712e+00	 1.005689554133283e+01
0	 4.571428571428572e+00	 6.857142857142855e+00	 1.005184626029563e+01
0	 4.571428571428572e+00	 6.999999999999996e+00	 1.004644077291295e+01
0	 4.571428571428572e+00	 7.142857142857144e+00	 1.004074147900353e+01
0	 4.714285714285714e+00	 5.714285714285714e+00	 1.008067503051412e+01
0	 4.714285714285716e+00	 5.857142857142856e+00	 1.007944946543769e+01
0	 4.714285714285714e+00	 5.999999999999998e+00	 1.007737594860097e+01
0	 4.714285714285715e+00	 6.142857142857141e+00	 1.007454516513140e+01
0	 4.714285714285714e+00	 6.285714285714284e+00	 1.007104780015643e+01
0	 4.714285714285714e+00	 6.428571428571427e+00	 1.006697453880351e+01
0	 4.714285714285715e+00	 6.571428571428570e+00	 1.006241606620006e+01
0	 4.714285714285714e+00	 6.714285714285708e+00	 1.005746306747356e+01
0	 4.714285714285714e+00	 6.857142857142854e+00	 1.005220622775144e+01
0	 4.714285714285714e+00	 6.999999999999996e+00	 1.004673623216113e+01
0	 4.714285714285714e+00	 7.142857142857143e+00	 1.004114376583011e+01
0	 4.857142857142858e+00	 5.714285714285714e+00	 1.008410536496462e+01
0	 4.857142857142858e+00	 5.857142857142857e+00	 1.008209689640392e+01
0	 4.857142857142858e+00	 5.999999999999998e+00	 1.007928480684541e+01
0	 4.857142857142857e+00	 6.142857142857139e+00	 1.007577884282253e+01
0	 4.857142857142859e+00	 6.285714285714283e+00	 1.007168875086872e+01
0	 4.857142857142858e+00	 6.428571428571425e+00	 1.006712427751740e+01
0	 4.857142857142858e+00	 6.571428571428569e+00	 1.006219516930202e+01
0	 4.857142857142856e+00	 6.714285714285709e+00	 1.005701117275598e+01
0	 4.857142857142858e+00	 6.857142857142854e+00	 1.005168203441274e+01
0	 4.857142857142858e+00	 6.999999999999996e+00	 1.004631750080572e+01
0	 4.857142857142858e+00	 7.142857142857143e+00	 1.004102731846835e+01
0	 4.999999999999999e+00	 5.714285714285713e+00	 1.008713821849280e+01
0	 4.999999999999999e+00	 5.857142857142857e+00	 1.008409375877999e+01
0	 4.999999999999999e+00	 5.999999999999998e+00	 1.008037140934401e+01
0	 5.000000000000001e+00	 6.142857142857141e+00	 1.007609075422157e+01
0	 5.000000000000001e+00	 6.285714285714283e+00	 1.007137137744935e+01
0	 5.000000000000002e+00	 6.428571428571427e+00	 1.006633286306407e+01
0	 5.000000000000001e+00	 6.571428571428569e+00	 1.006109479510240e+01
0	 5.000000000000000e+00	 6.714285714285711e+00	 1.005577675760106e+01
0	 5.000000000000002e+00	 6.857142857142853e+00	 1.005049833459675e+01
0	 5.000000000000001e+00	 6.999999999999995e+00	 1.004537911012616e+01
0	 5.000000000000000e+00	 7.142857142857143e+00	 1.004053866822597e+01
0	 5.142857142857142e+00	 5.714285714285714e+00	 1.008959566009411e+01
0	 5.142857142857142e+00	 5.857142857142857e+00	 1.008537501399558e+01
0	 5.142857142857144e+00	 5.999999999999999e+00	 1.008066573302665e+01
0	 5.142857142857145e+00	 6.142857142857142e+00	 1.007558801482458e+01
0	 5.142857142857143e+00	 6.285714285714285e+00	 1.007026205702660e+01
0	 5.142857142857142e+00	 6.428571428571425e+00	 1.006480805726998e+01
0	 5.142857142857142e+00	 6.571428571428567e+00	 1.005934621319196e+01
0	 5.142857142857141e+00	 6.714285714285709e+00	 1.005399672242977e+01
0	 5.142857142857143e+00	 6.857142857142854e+00	 1.004887978262067e+01
0	 5.142857142857144e+00	 6.999999999999996e+00	 1.004411559140190e+01
0	 5.142857142857143e+00	 7.142857142857144e+00	 1.003982434641071e+01
0	 5.285714285714285e+00	 5.714285714285714e+00	 1.009129975876402e+01
0	 5.285714285714286e+00	 5.857142857142856e+00	 1.008587562348032e+01
0	 5.285714285714285e+00	 5.999999999999997e+00	 1.008019775482316e+01
0	 5.285714285714284e+00	 6.142857142857140e+00	 1.007437774012761e+01
0	 5.285714285714286e+00	 6.285714285714284e+00	 1.006852716672875e+01
0	 5.285714285714286e+00	 6.428571428571426e+00	 1.006275762196166e+01
0	 5.285714285714284e+00	 6.571428571428569e+00	 1.005718069316140e+01
0	 5.285714285714286e+00	 6.714285714285711e+00	 1.005190796766307e+01
0	 5.285714285714283e+00	 6.857142857142851e+00	 1.004705103280171e+01
0	 5.285714285714285e+00	 6.999999999999996e+00	 1.004272147591243e+01
0	 5.285714285714285e+00	 7.142857142857142e+00	 1.003903088433028e+01
0	 5.428571428571428e+00	 5.714285714285714e+00	 1.009207258349800e+01
0	 5.428571428571429e+00	 5.857142857142857e+00	 1.008553054866389e+01
0	 5.428571428571427e+00	 5.999999999999998e+00	 1.007899745166340e+01
0	 5.428571428571425e+00	 6.142857142857141e+00	 1.007256704562674e+01
0	 5.428571428571429e+00	 6.285714285714283e+00	 1.006633308368407e+01
0	 5.428571428571429e+00	 6.428571428571424e+00	 1.006038931896559e+01
0	 5.428571428571428e+00	 6.571428571428567e+00	 1.005482950460148e+01
0	 5.428571428571429e+00	 6.714285714285711e+00	 1.004974739372192e+01
0	 5.428571428571429e+00	 6.857142857142854e+00	 1.004523673945710e+01
0	 5.428571428571429e+00	 6.999999999999996e+00	 1.004139129493721e+01
0	 5.428571428571426e+00	 7.142857142857142e+00	 1.003830481329242e+01
0	 5.571428571428571e+00	 5.714285714285714e+00	 1.009173620329151e+01
0	 5.571428571428572e+00	 5.857142857142856e+00	 1.008427475097592e+01
0	 5.571428571428570e+00	 5.999999999999998e+00	 1.007709480047724e+01
0	 5.571428571428571e+00	 6.142857142857141e+00	 1.007026304681802e+01
0	 5.571428571428570e+00	 6.285714285714282e+00	 1.006384618502083e+01
0	 5.571428571428569e+00	 6.428571428571425e+00	 1.005791091010826e+01
0	 5.571428571428570e+00	 6.571428571428569e+00	 1.005252391710290e+01
0	 5.571428571428571e+00	 6.714285714285712e+00	 1.004775190102730e+01
0	 5.571428571428571e+00	 6.857142857142853e+00	 1.004366155690403e+01
0	 5.571428571428570e+00	 6.999999999999996e+00	 1.004031957975569e+01
0	 5.571428571428570e+00	 7.142857142857144e+00	 1.003779266460483e+01
0	 5.714285714285715e+00	 5.714285714285714e+00	 1.009011268714000e+01
0	 5.714285714285716e+00	 5.857142857142857e+00	 1.008204319184610e+01
0	 5.714285714285716e+00	 6.000000000000000e+00	 1.007451977819452e+01
0	 5.714285714285715e+00	 6.142857142857141e+00	 1.006757285919751e+01
0	 5.714285714285715e+00	 6.285714285714283e+00	 1.006123284786732e+01
0	 5.714285714285714e+00	 6.428571428571426e+00	 1.005553015721621e+01
0	 5.714285714285715e+00	 6.571428571428569e+00	 1.005049520025640e+01
0	 5.714285714285714e+00	 6.714285714285710e+00	 1.004615839000015e+01
0	 5.714285714285714e+00	 6.857142857142851e+00	 1.004255013945972e+01
0	 5.714285714285714e+00	 6.999999999999996e+00	 1.003970086164734e+01
0	 5.714285714285714e+00	 7.142857142857141e+00	 1.003764096957526e+01
0	 4.285714285714286e+00	 7.142857142857141e+00	 1.003779457755446e+01
0	 4.285714285714286e+00	 7.285714285714285e+00	 1.003265988138742e+01
0	 4.285714285714287e+00	 7.428571428571428e+00	 1.002802320245881e+01
0	 4.285714285714286e+00	 7.571428571428572e+00	 1.002387730528585e+01
0	 4.285714285714286e+00	 7.714285714285715e+00	 1.002021495438577e+01
0	 4.285714285714286e+00	 7.857142857142855e+00	 1.001702891427580e+01
0	 4.285714285714286e+00	 8.000000000000000e+00	 1.001431194947315e+01
0	 4.285714285714286e+00	 8.142857142857141e+00	 1.001205682449504e+01
0	 4.285714285714286e+00	 8.285714285714281e+00	 1.001025630385871e+01
0	 4.285714285714286e+00	 8.428571428571423e+00	 1.000890315208138e+01
0	 4.285714285714286e+00	 8.571428571428573e+00	 1.000799013368027e+01
0	 4.428571428571429e+00	 7.142857142857142e+00	 1.003967392668088e+01
0	 4.428571428571428e+00	 7.285714285714285e+00	 1.003422520336862e+01
0	 4.428571428571428e+00	 7.428571428571427e+00	 1.002938793859615e+01
0	 4.428571428571428e+00	 7.571428571428570e+00	 1.002512971668332e+01
0	 4.428571428571430e+00	 7.714285714285713e+00	 1.002141812194999e+01
0	 4.428571428571428e+00	 7.857142857142855e+00	 1.001822073871605e+01
0	 4.428571428571429e+00	 7.999999999999999e+00	 1.001550515130133e+01
0	 4.428571428571430e+00	 8.142857142857142e+00	 1.001323894402570e+01
0	 4.428571428571429e+00	 8.285714285714285e+00	 1.001138970120903e+01
0	 4.428571428571430e+00	 8.428571428571425e+00	 1.000992500717117e+01
0	 4.428571428571430e+00	 8.571428571428573e+00	 1.000881244623199e+01
0	 4.571428571428572e+00	 7.142857142857144e+00	 1.004074147900353e+01
0	 4.571428571428571e+00	 7.285714285714286e+00	 1.003526644978831e+01
0	 4.571428571428571e+00	 7.428571428571429e+00	 1.003045720288229e+01
0	 4.571428571428572e+00	 7.571428571428572e+00	 1.002626130769540e+01
0	 4.571428571428571e+00	 7.714285714285713e+00	 1.002262633363751e+01
0	 4.571428571428572e+00	 7.857142857142855e+00	 1.001949985011852e+01
0	 4.571428571428572e+00	 7.999999999999996e+00	 1.001682942654834e+01
0	 4.571428571428571e+00	 8.142857142857142e+00	 1.001456263233685e+01
0	 4.571428571428572e+00	 8.285714285714281e+00	 1.001264703689395e+01
0	 4.571428571428573e+00	 8.428571428571429e+00	 1.001103020962954e+01
0	 4.571428571428571e+00	 8.571428571428569e+00	 1.000965971995351e+01
0	 4.714285714285714e+00	 7.142857142857143e+00	 1.004114376583011e+01
0	 4.714285714285715e+00	 7.285714285714287e+00	 1.003587710235902e+01
0	 4.714285714285714e+00	 7.428571428571426e+00	 1.003127920512181e+01
0	 4.714285714285714e+00	 7.571428571428571e+00	 1.002728279390583e+01
0	 4.714285714285714e+00	 7.714285714285714e+00	 1.002382058849836e+01
0	 4.714285714285715e+00	 7.857142857142856e+00	 1.002082530868676e+01
0	 4.714285714285714e+00	 7.999999999999996e+00	 1.001822967425834e+01
0	 4.714285714285715e+00	 8.142857142857141e+00	 1.001596640500046e+01
0	 4.714285714285714e+00	 8.285714285714279e+00	 1.001396822070041e+01
0	 4.714285714285716e+00	 8.428571428571429e+00	 1.001216784114554e+01
0	 4.714285714285714e+00	 8.571428571428573e+00	 1.001049798612318e+01
0	 4.857142857142858e+00	 7.142857142857143e+00	 1.004102731846835e+01
0	 4.857142857142859e+00	 7.285714285714286e+00	 1.003615064279336e+01
0	 4.857142857142855e+00	 7.428571428571426e+00	 1.003190215511931e+01
0	 4.857142857142857e+00	 7.571428571428568e+00	 1.002820489089834e+01
0	 4.857142857142859e+00	 7.714285714285713e+00	 1.002498188558261e+01
0	 4.857142857142859e+00	 7.857142857142856e+00	 1.002215617462428e+01
0	 4.857142857142857e+00	 7.999999999999999e+00	 1.001965079347553e+01
0	 4.857142857142858e+00	 8.142857142857141e+00	 1.001738877758849e+01
0	 4.857142857142858e+00	 8.285714285714283e+00	 1.001529316241533e+01
0	 4.857142857142857e+00	 8.428571428571427e+00	 1.001328698340820e+01
0	 4.857142857142858e+00	 8.571428571428571e+00	 1.001129327601927e+01
0	 5.000000000000000e+00	 7.142857142857143e+00	 1.004053866822597e+01
0	 5.000000000000000e+00	 7.285714285714285e+00	 1.003618055280388e+01
0	 5.000000000000001e+00	 7.428571428571428e+00	 1.003237426267931e+01
0	 4.999999999999999e+00	 7.571428571428570e+00	 1.002903831425666e+01
0	 5.000000000000002e+00	 7.714285714285714e+00	 1.002609122394031e+01
0	 5.000000000000000e+00	 7.857142857142855e+00	 1.002345150813464e+01
0	 4.999999999999999e+00	 7.999999999999996e+00	 1.002103768324405e+01
0	 5.000000000000001e+00	 8.142857142857141e+00	 1.001876826567292e+01
0	 5.000000000000003e+00	 8.285714285714286e+00	 1.001656177182563e+01
0	 5.000000000000001e+00	 8.428571428571425e+00	 1.001433671810658e+01
0	 5.000000000000002e+00	 8.571428571428571e+00	 1.001201162092012e+01
0	 5.142857142857143e+00	 7.142857142857144e+00	 1.003982434641071e+01
0	 5.142857142857143e+00	 7.285714285714286e+00	 1.003606031410314e+01
0	 5.142857142857144e+00	 7.428571428571428e+00	 1.003274373760641e+01
0	 5.142857142857142e+00	 7.571428571428569e+00	 1.002979377956453e+01
0	 5.142857142857144e+00	 7.714285714285714e+00	 1.002712960262150e+01
0	 5.142857142857144e+00	 7.857142857142856e+00	 1.002467036942135e+01
0	 5.142857142857144e+00	 7.999999999999999e+00	 1.002233524260809e+01
0	 5.142857142857143e+00	 8.142857142857141e+00	 1.002004338482572e+01
0	 5.142857142857143e+00	 8.285714285714285e+00	 1.001771395871824e+01
0	 5.142857142857143e+00	 8.428571428571425e+00	 1.001526612692969e+01
0	 5.142857142857142e+00	 8.571428571428571e+00	 1.001261905210406e+01
0	 5.285714285714285e+00	 7.142857142857142e+00	 1.003903088433028e+01
0	 5.285714285714286e+00	 7.285714285714287e+00	 1.003588340840373e+01
0	 5.285714285714285e+00	 7.428571428571426e+00	 1.003305878970517e+01
0	 5.285714285714284e+00	 7.571428571428569e+00	 1.003048200240569e+01
0	 5.285714285714285e+00	 7.714285714285714e+00	 1.002807802067626e+01
0	 5.285714285714286e+00	 7.857142857142857e+00	 1.002577181868796e+01
0	 5.285714285714285e+00	 7.999999999999997e+00	 1.002348837061180e+01
0	 5.285714285714284e+00	 8.142857142857139e+00	 1.002115265061884e+01
0	 5.285714285714286e+00	 8.285714285714283e+00	 1.001868963288010e+01
0	 5.285714285714285e+00	 8.428571428571425e+00	 1.001602429156661e+01
0	 5.285714285714285e+00	 8.571428571428571e+00	 1.001308160084939e+01
0	 5.428571428571426e+00	 7.142857142857142e+00	 1.003830481329243e+01
0	 5.428571428571428e+00	 7.285714285714286e+00	 1.003574331741819e+01
0	 5.428571428571427e+00	 7.428571428571427e+00	 1.003336762878019e+01
0	 5.428571428571428e+00	 7.571428571428569e+00	 1.003111369836385e+01
0	 5.428571428571428e+00	 7.714285714285713e+00	 1.002891747715464e+01
0	 5.428571428571428e+00	 7.857142857142856e+00	 1.002671491613800e+01
0	 5.428571428571426e+00	 7.999999999999996e+00	 1.002444196629940e+01
0	 5.428571428571429e+00	 8.142857142857139e+00	 1.002203457862428e+01
0	 5.428571428571428e+00	 8.285714285714285e+00	 1.001942870409811e+01
0	 5.428571428571427e+00	 8.428571428571423e+00	 1.001656029370633e+01
0	 5.428571428571429e+00	 8.571428571428575e+00	 1.001336529843442e+01
0	 5.571428571428570e+00	 7.142857142857144e+00	 1.003779266460483e+01
0	 5.571428571428569e+00	 7.285714285714286e+00	 1.003573352285913e+01
0	 5.571428571428569e+00	 7.428571428571427e+00	 1.003371846463602e+01
0	 5.571428571428572e+00	 7.571428571428572e+00	 1.003169958302278e+01
0	 5.571428571428569e+00	 7.714285714285713e+00	 1.002962897110668e+01
0	 5.571428571428569e+00	 7.857142857142854e+00	 1.002745872197500e+01
0	 5.571428571428571e+00	 7.999999999999999e+00	 1.002514092871502e+01
0	 5.571428571428568e+00	 8.142857142857139e+00	 1.002262768441399e+01
0	 5.571428571428569e+00	 8.285714285714281e+00	 1.001987108215922e+01
0	 5.571428571428570e+00	 8.428571428571423e+00	 1.001682321503795e+01
0	 5.571428571428569e+00	 8.571428571428573e+00	 1.001343617613747e+01
0	 5.714285714285714e+00	 7.142857142857141e+00	 1.003764096957526e+01
0	 5.714285714285714e+00	 7.285714285714285e+00	 1.003594750643908e+01
0	 5.714285714285715e+00	 7.428571428571429e+00	 1.003415950707722e+01
0	 5.714285714285715e+00	 7.571428571428571e+00	 1.003225037196617e+01
0	 5.714285714285714e+00	 7.714285714285714e+00	 1.003019350158244e+01
0	 5.714285714285714e+00	 7.857142857142854e+00	 1.002796229640249e+01
0	 5.714285714285714e+00	 7.999999999999998e+00	 1.002553015690284e+01
0	 5.714285714285714e+00	 8.142857142857141e+00	 1.002287048355996e+01
0	 5.714285714285715e+00	 8.285714285714285e+00	 1.001995667685034e+01
0	 5.714285714285715e+00	 8.428571428571425e+00	 1.001676213725048e+01
0	 5.714285714285715e+00	 8.571428571428573e+00	 1.001326026523687e+01
0	 4.285714285714286e+00	 8.571428571428573e+00	 1.000799013368027e+01
0	 4.285714285714286e+00	 8.714285714285717e+00	 1.000725643882416e+01
0	 4.285714285714285e+00	 8.857142857142856e+00	 1.000646774461402e+01
0	 4.285714285714287e+00	 9.000000000000002e+00	 1.000565654596551e+01
0	 4.285714285714286e+00	 9.142857142857141e+00	 1.000485533779428e+01
0	 4.285714285714286e+00	 9.285714285714285e+00	 1.000409661501593e+01
0	 4.285714285714286e+00	 9.428571428571429e+00	 1.000341287254608e+01
0	 4.285714285714286e+00	 9.571428571428569e+00	 1.000283660530038e+01
0	 4.285714285714286e+00	 9.714285714285712e+00	 1.000240030819442e+01
0	 4.285714285714286e+00	 9.857142857142856e+00	 1.000213647614389e+01
0	 4.285714285714286e+00	 1.000000000000000e+01	 1.000207760406434e+01
0	 4.428571428571430e+00	 8.571428571428573e+00	 1.000881244623199e+01
0	 4.428571428571429e+00	 8.714285714285714e+00	 1.000784086479096e+01
0	 4.428571428571430e+00	 8.857142857142859e+00	 1.000684579505819e+01
0	 4.428571428571431e+00	 9.000000000000002e+00	 1.000586485006953e+01
0	 4.428571428571429e+00	 9.142857142857144e+00	 1.000493564286082e+01
0	 4.428571428571429e+00	 9.285714285714283e+00	 1.000409578646791e+01
0	 4.428571428571429e+00	 9.428571428571427e+00	 1.000338289392666e+01
0	 4.428571428571430e+00	 9.571428571428571e+00	 1.000283457827287e+01
0	 4.428571428571429e+00	 9.714285714285712e+00	 1.000248845254243e+01
0	 4.428571428571430e+00	 9.857142857142852e+00	 1.000238212977118e+01
0	 4.428571428571429e+00	 1.000000000000000e+01	 1.000255322299491e+01
0	 4.571428571428571e+00	 8.571428571428569e+00	 1.000965971995351e+01
0	 4.571428571428573e+00	 8.714285714285719e+00	 1.000839231758307e+01
0	 4.571428571428573e+00	 8.857142857142861e+00	 1.000714658964205e+01
0	 4.571428571428572e+00	 9.000000000000000e+00	 1.000596286165035e+01
0	 4.571428571428570e+00	 9.142857142857142e+00	 1.000488145912787e+01
0	 4.571428571428571e+00	 9.285714285714285e+00	 1.000394270759446e+01
0	 4.571428571428571e+00	 9.428571428571427e+00	 1.000318693257006e+01
0	 4.571428571428571e+00	 9.571428571428568e+00	 1.000265445957452e+01
0	 4.571428571428573e+00	 9.714285714285712e+00	 1.000238561412774e+01
0	 4.571428571428572e+00	 9.857142857142852e+00	 1.000242072174959e+01
0	 4.571428571428572e+00	 1.000000000000000e+01	 1.000280010796005e+01
0	 4.714285714285714e+00	 8.571428571428573e+00	 1.001049798612318e+01
0	 4.714285714285716e+00	 8.714285714285717e+00	 1.000889625024692e+01
0	 4.714285714285714e+00	 8.857142857142859e+00	 1.000737216985065e+01
0	 4.714285714285714e+00	 8.999999999999996e+00	 1.000596637730214e+01
0	 4.714285714285717e+00	 9.142857142857144e+00	 1.000471950496914e+01
0	 4.714285714285715e+00	 9.285714285714283e+00	 1.000367218521942e+01
0	 4.714285714285714e+00	 9.428571428571427e+00	 1.000286505042072e+01
0	 4.714285714285715e+00	 9.571428571428568e+00	 1.000233873294080e+01
0	 4.714285714285715e+00	 9.714285714285712e+00	 1.000213386514745e+01
0	 4.714285714285715e+00	 9.857142857142856e+00	 1.000229107940839e+01
0	 4.714285714285715e+00	 1.000000000000000e+01	 1.000285100809137e+01
0	 4.857142857142858e+00	 8.571428571428571e+00	 1.001129327601927e+01
0	 4.857142857142858e+00	 8.714285714285717e+00	 1.000933811582891e+01
0	 4.857142857142857e+00	 8.857142857142859e+00	 1.000752457716899e+01
0	 4.857142857142858e+00	 8.999999999999998e+00	 1.000589119361900e+01
0	 4.857142857142859e+00	 9.142857142857144e+00	 1.000447649875837e+01
0	 4.857142857142858e+00	 9.285714285714285e+00	 1.000331902616656e+01
0	 4.857142857142858e+00	 9.428571428571427e+00	 1.000245730942303e+01
0	 4.857142857142857e+00	 9.571428571428569e+00	 1.000192988210724e+01
0	 4.857142857142859e+00	 9.714285714285714e+00	 1.000177527779864e+01
0	 4.857142857142858e+00	 9.857142857142856e+00	 1.000203203007666e+01
0	 4.857142857142858e+00	 1.000000000000000e+01	 1.000273867252076e+01
0	 5.000000000000002e+00	 8.571428571428571e+00	 1.001201162092012e+01
0	 5.000000000000000e+00	 8.714285714285714e+00	 1.000970336737545e+01
0	 4.999999999999999e+00	 8.857142857142858e+00	 1.000760585308210e+01
0	 5.000000000000001e+00	 9.000000000000002e+00	 1.000575310719505e+01
0	 5.000000000000000e+00	 9.142857142857142e+00	 1.000417915886927e+01
0	 5.000000000000001e+00	 9.285714285714283e+00	 1.000291803725972e+01
0	 5.000000000000001e+00	 9.428571428571427e+00	 1.000200377152143e+01
0	 5.000000000000000e+00	 9.571428571428568e+00	 1.000147039080930e+01
0	 5.000000000000001e+00	 9.714285714285712e+00	 1.000135192427839e+01
0	 4.999999999999999e+00	 9.857142857142852e+00	 1.000168240108361e+01
0	 5.000000000000000e+00	 1.000000000000000e+01	 1.000249585038002e+01
0	 5.142857142857142e+00	 8.571428571428571e+00	 1.001261905210406e+01
0	 5.142857142857141e+00	 8.714285714285717e+00	 1.000997745793299e+01
0	 5.142857142857142e+00	 8.857142857142856e+00	 1.000761803907500e+01
0	 5.142857142857144e+00	 9.000000000000000e+00	 1.000556791462440e+01
0	 5.142857142857144e+00	 9.142857142857141e+00	 1.000385420367553e+01
0	 5.142857142857143e+00	 9.285714285714285e+00	 1.000250402532271e+01
0	 5.142857142857142e+00	 9.428571428571427e+00	 1.000154449866026e+01
0	 5.142857142857144e+00	 9.571428571428569e+00	 1.000100274278251e+01
0	 5.142857142857144e+00	 9.714285714285714e+00	 1.000090587678382e+01
0	 5.142857142857143e+00	 9.857142857142854e+00	 1.000128101975845e+01
0	 5.142857142857143e+00	 1.000000000000000e+01	 1.000215529080079e+01
0	 5.285714285714285e+00	 8.571428571428571e+00	 1.001308160084939e+01
0	 5.285714285714286e+00	 8.714285714285719e+00	 1.001014584054792e+01
0	 5.285714285714285e+00	 8.857142857142854e+00	 1.000756317663271e+01
0	 5.285714285714285e+00	 8.999999999999998e+00	 1.000535141250120e+01
0	 5.285714285714286e+00	 9.142857142857144e+00	 1.000352835155090e+01
0	 5.285714285714286e+00	 9.285714285714286e+00	 1.000211179717932e+01
0	 5.285714285714285e+00	 9.428571428571429e+00	 1.000111955278397e+01
0	 5.285714285714286e+00	 9.571428571428571e+00	 1.000056942176235e+01
0	 5.285714285714285e+00	 9.714285714285712e+00	 1.000047920751195e+01
0	 5.285714285714285e+00	 9.857142857142852e+00	 1.000086671343029e+01
0	 5.285714285714284e+00	 1.000000000000000e+01	 1.000174974291480e+01
0	 5.428571428571429e+00	 8.571428571428575e+00	 1.001336529843442e+01
0	 5.428571428571429e+00	 8.714285714285715e+00	 1.001019396826671e+01
0	 5.428571428571428e+00	 8.857142857142856e+00	 1.000744330724025e+01
0	 5.428571428571429e+00	 9.000000000000002e+00	 1.000511939741953e+01
0	 5.428571428571428e+00	 9.142857142857142e+00	 1.000322832086908e+01
0	 5.428571428571427e+00	 9.285714285714285e+00	 1.000177615965339e+01
0	 5.428571428571427e+00	 9.428571428571423e+00	 1.000076899583696e+01
0	 5.428571428571428e+00	 9.571428571428571e+00	 1.000021291148435e+01
0	 5.428571428571428e+00	 9.714285714285710e+00	 1.000011398865996e+01
0	 5.428571428571427e+00	 9.857142857142852e+00	 1.000047830942838e+01
0	 5.428571428571427e+00	 1.000000000000000e+01	 1.000131195585405e+01
0	 5.571428571428569e+00	 8.571428571428573e+00	 1.001343617613747e+01
0	 5.571428571428569e+00	 8.714285714285715e+00	 1.001010729413569e+01
0	 5.571428571428569e+00	 8.857142857142858e+00	 1.000726047238262e+01
0	 5.571428571428570e+00	 9.000000000000002e+00	 1.000488766597353e+01
0	 5.571428571428570e+00	 9.142857142857142e+00	 1.000298083000380e+01
0	 5.571428571428572e+00	 9.285714285714286e+00	 1.000153191956872e+01
0	 5.571428571428571e+00	 9.428571428571429e+00	 1.000053288976366e+01
0	 5.571428571428570e+00	 9.571428571428568e+00	 9.999975695683929e+00
0	 5.571428571428571e+00	 9.714285714285710e+00	 9.999852292424897e+00
0	 5.571428571428570e+00	 9.857142857142852e+00	 1.000015463508184e+01
0	 5.571428571428570e+00	 1.000000000000000e+01	 1.000087467875016e+01
0	 5.714285714285715e+00	 8.571428571428573e+00	 1.001326026523687e+01
0	 5.714285714285717e+00	 8.714285714285719e+00	 1.000987127120138e+01
0	 5.714285714285715e+00	 8.857142857142859e+00	 1.000701671354487e+01
0	 5.714285714285714e+00	 9.000000000000002e+00	 1.000467201475732e+01
0	 5.714285714285715e+00	 9.142857142857141e+00	 1.000281259732875e+01
0	 5.714285714285716e+00	 9.285714285714286e+00	 1.000141388374914e+01
0	 5.714285714285714e+00	 9.428571428571429e+00	 1.000045129650844e+01
0	 5.714285714285715e+00	 9.571428571428571e+00	 9.999900258096698e+00
0	 5.714285714285714e+00	 9.714285714285712e+00	 9.999736191003841e+00
0	 5.714285714285714e+00	 9.857142857142856e+00	 9.999934517719844e+00
0	 5.714285714285714e+00	 1.000000000000000e+01	 1.000047066073481e+01
0	 5.714285714285714e+00	 0.000000000000000e+00	 1.016109557466800e+01
0	 5.714285714285714e+00	 1.428571428571429e-01	 1.014063074374243e+01
0	 5.714285714285714e+00	 2.857142857142858e-01	 1.012281366859421e+01
0	 5.714285714285714e+00	 4.285714285714287e-01	 1.010804940567520e+01
0	 5.714285714285714e+00	 5.714285714285715e-01	 1.009674301143728e+01
0	 5.714285714285714e+00	 7.142857142857143e-01	 1.008929954233232e+01
0	 5.714285714285713e+00	 8.571428571428571e-01	 1.008612405481219e+01
0	 5.714285714285714e+00	 1.000000000000000e+00	 1.008762160532877e+01
0	 5.714285714285714e+00	 1.142857142857143e+00	 1.009419725033392e+01
0	 5.714285714285714e+00	 1.285714285714286e+00	 1.010625604627952e+01
0	 5.714285714285715e+00	 1.428571428571429e+00	 1.012420304961744e+01
0	 5.857142857142858e+00	 0.000000000000000e+00	 1.018163130900870e+01
0	 5.857142857142858e+00	 1.428571428571429e-01	 1.015294996739367e+01
0	 5.857142857142858e+00	 2.857142857142858e-01	 1.012847182363503e+01
0	 5.857142857142858e+00	 4.285714285714288e-01	 1.010848423901292e+01
0	 5.857142857142856e+00	 5.714285714285714e-01	 1.009327457480751e+01
0	 5.857142857142856e+00	 7.142857142857143e-01	 1.008313019229897e+01
0	 5.857142857142857e+00	 8.571428571428575e-01	 1.007833845276747e+01
0	 5.857142857142857e+00	 1.000000000000000e+00	 1.007918671749316e+01
0	 5.857142857142857e+00	 1.142857142857143e+00	 1.008596234775622e+01
0	 5.857142857142856e+00	 1.285714285714286e+00	 1.009895270483680e+01
0	 5.857142857142857e+00	 1.428571428571429e+00	 1.011844515001507e+01
0	 5.999999999999999e+00	 0.000000000000000e+00	 1.018973811071793e+01
0	 5.999999999999997e+00	 1.428571428571429e-01	 1.015762459527800e+01
0	 6.000000000000001e+00	 2.857142857142858e-01	 1.013047226768721e+01
0	 5.999999999999998e+00	 4.285714285714285e-01	 1.010846629215674e+01
0	 6.000000000000000e+00	 5.714285714285715e-01	 1.009179183289781e+01
0	 5.999999999999999e+00	 7.142857142857146e-01	 1.008063405412164e+01
0	 5.999999999999998e+00	 8.571428571428572e-01	 1.007517812003941e+01
0	 5.999999999999997e+00	 1.000000000000000e+00	 1.007560919486234e+01
0	 5.999999999999999e+00	 1.142857142857143e+00	 1.008211244280165e+01
0	 5.999999999999999e+00	 1.285714285714286e+00	 1.009487302806854e+01
0	 5.999999999999999e+00	 1.428571428571429e+00	 1.011407611487422e+01
0	 6.142857142857141e+00	 0.000000000000000e+00	 1.018723231899425e+01
0	 6.142857142857142e+00	 1.428571428571429e-01	 1.015566350184706e+01
0	 6.142857142857138e+00	 2.857142857142857e-01	 1.012914653822724e+01
0	 6.142857142857141e+00	 4.285714285714287e-01	 1.010777989337979e+01
0	 6.142857142857141e+00	 5.714285714285715e-01	 1.009166203254972e+01
0	 6.142857142857142e+00	 7.142857142857144e-01	 1.008089142098204e+01
0	 6.142857142857143e+00	 8.571428571428574e-01	 1.007556652392174e+01
0	 6.142857142857142e+00	 1.000000000000001e+00	 1.007578580661383e+01
0	 6.142857142857141e+00	 1.142857142857143e+00	 1.008164773430332e+01
0	 6.142857142857141e+00	 1.285714285714286e+00	 1.009325077223521e+01
0	 6.142857142857141e+00	 1.428571428571429e+00	 1.011069338565452e+01
0	 6.285714285714284e+00	 0.000000000000000e+00	 1.017593027303622e+01
0	 6.285714285714284e+00	 1.428571428571429e-01	 1.014807556155243e+01
0	 6.285714285714284e+00	 2.857142857142858e-01	 1.012482617273156e+01
0	 6.285714285714284e+00	 4.285714285714287e-01	 1.010620937095514e+01
0	 6.285714285714285e+00	 5.714285714285715e-01	 1.009225242060475e+01
0	 6.285714285714284e+00	 7.142857142857145e-01	 1.008298258606192e+01
0	 6.285714285714285e+00	 8.571428571428573e-01	 1.007842713170822e+01
0	 6.285714285714282e+00	 1.000000000000000e+00	 1.007861332192518e+01
0	 6.285714285714283e+00	 1.142857142857143e+00	 1.008356842109436e+01
0	 6.285714285714284e+00	 1.285714285714286e+00	 1.009331969359733e+01
0	 6.285714285714284e+00	 1.428571428571429e+00	 1.010789440381562e+01
0	 6.428571428571426e+00	 0.000000000000000e+00	 1.015764831204242e+01
0	 6.428571428571427e+00	 1.428571428571429e-01	 1.013586964884576e+01
0	 6.428571428571425e+00	 2.857142857142858e-01	 1.011784270867665e+01
0	 6.428571428571425e+00	 4.285714285714287e-01	 1.010353905315593e+01
0	 6.428571428571425e+00	 5.714285714285714e-01	 1.009293024390444e+01
0	 6.428571428571425e+00	 7.142857142857143e-01	 1.008598784254304e+01
0	 6.428571428571426e+00	 8.571428571428573e-01	 1.008268341069257e+01
0	 6.428571428571425e+00	 1.000000000000000e+00	 1.008298850997391e+01
0	 6.428571428571426e+00	 1.142857142857143e+00	 1.008687470200788e+01
0	 6.428571428571426e+00	 1.285714285714286e+00	 1.009431354841534e+01
0	 6.428571428571424e+00	 1.428571428571429e+00	 1.010527661081715e+01
0	 6.571428571428569e+00	 0.000000000000000e+00	 1.013420277521139e+01
0	 6.571428571428567e+00	 1.428571428571429e-01	 1.012005463817867e+01
0	 6.571428571428570e+00	 2.857142857142858e-01	 1.010852768353899e+01
0	 6.571428571428569e+00	 4.285714285714287e-01	 1.009955326825523e+01
0	 6.571428571428568e+00	 5.714285714285714e-01	 1.009306274929031e+01
0	 6.571428571428569e+00	 7.142857142857143e-01	 1.008898748360711e+01
0	 6.571428571428569e+00	 8.571428571428574e-01	 1.008725882816856e+01
0	 6.571428571428569e+00	 1.000000000000001e+00	 1.008780813993754e+01
0	 6.571428571428568e+00	 1.142857142857143e+00	 1.009056677587697e+01
0	 6.571428571428567e+00	 1.285714285714286e+00	 1.009546609294975e+01
0	 6.571428571428569e+00	 1.428571428571429e+00	 1.010243744811877e+01
0	 6.714285714285712e+00	 0.000000000000000e+00	 1.010741000174171e+01
0	 6.714285714285710e+00	 1.428571428571430e-01	 1.010163940400277e+01
0	 6.714285714285709e+00	 2.857142857142858e-01	 1.009721263479502e+01
0	 6.714285714285711e+00	 4.285714285714287e-01	 1.009403634452616e+01
0	 6.714285714285710e+00	 5.714285714285714e-01	 1.009201718360388e+01
0	 6.714285714285708e+00	 7.142857142857142e-01	 1.009106180243589e+01
0	 6.714285714285712e+00	 8.571428571428574e-01	 1.009107685142991e+01
0	 6.714285714285710e+00	 1.000000000000000e+00	 1.009196898099364e+01
0	 6.714285714285712e+00	 1.142857142857143e+00	 1.009364484153478e+01
0	 6.714285714285713e+00	 1.285714285714286e+00	 1.009601108346104e+01
0	 6.714285714285711e+00	 1.428571428571429e+00	 1.009897435718012e+01
0	 6.857142857142853e+00	 0.000000000000000e+00	 1.007908633083193e+01
0	 6.857142857142851e+00	 1.428571428571429e-01	 1.008163282076969e+01
0	 6.857142857142852e+00	 2.857142857142857e-01	 1.008422909992122e+01
0	 6.857142857142853e+00	 4.285714285714287e-01	 1.008677261024180e+01
0	 6.857142857142854e+00	 5.714285714285714e-01	 1.008916079368668e+01
0	 6.857142857142852e+00	 7.142857142857143e-01	 1.009129109221111e+01
0	 6.857142857142851e+00	 8.571428571428573e-01	 1.009306094777038e+01
0	 6.857142857142853e+00	 1.000000000000000e+00	 1.009436780231972e+01
0	 6.857142857142853e+00	 1.142857142857143e+00	 1.009510909781441e+01
0	 6.857142857142853e+00	 1.285714285714286e+00	 1.009518227620969e+01
0	 6.857142857142854e+00	 1.428571428571429e+00	 1.009448477946085e+01
0	 6.999999999999996e+00	 0.000000000000000e+00	 1.005104810168063e+01
0	 6.999999999999996e+00	 1.428571428571429e-01	 1.006104376293103e+01
0	 6.999999999999995e+00	 2.857142857142858e-01	 1.006990861639406e+01
0	 6.999999999999995e+00	 4.285714285714287e-01	 1.007754639367527e+01
0	 6.999999999999996e+00	 5.714285714285714e-01	 1.008386082638023e+01
0	 6.999999999999995e+00	 7.142857142857144e-01	 1.008875564611452e+01
0	 6.999999999999997e+00	 8.571428571428575e-01	 1.009213458448370e+01
0	 6.999999999999996e+00	 1.000000000000001e+00	 1.009390137309331e+01
0	 6.999999999999996e+00	 1.142857142857143e+00	 1.009395974354897e+01
0	 6.999999999999996e+00	 1.285714285714286e+00	 1.009221342745620e+01
0	 6.999999999999996e+00	 1.428571428571429e+00	 1.008856615642059e+01
0	 7.142857142857143e+00	 0.000000000000000e+00	 1.002511165348637e+01
0	 7.142857142857143e+00	 1.428571428571429e-01	 1.004088110493844e+01
0	 7.142857142857143e+00	 2.857142857142858e-01	 1.005458272169000e+01
0	 7.142857142857144e+00	 4.285714285714288e-01	 1.006614202309967e+01
0	 7.142857142857143e+00	 5.714285714285716e-01	 1.007548452852608e+01
0	 7.142857142857143e+00	 7.142857142857143e-01	 1.008253575732785e+01
0	 7.142857142857145e+00	 8.571428571428575e-01	 1.008722122886361e+01
0	 7.142857142857145e+00	 1.000000000000000e+00	 1.008946646249197e+01
0	 7.142857142857146e+00	 1.142857142857143e+00	 1.008919697757157e+01
0	 7.142857142857143e+00	 1.285714285714286e+00	 1.008633829346104e+01
0	 7.142857142857141e+00	 1.428571428571429e+00	 1.008081592951899e+01
0	 5.714285714285715e+00	 1.428571428571429e+00	 1.012420304961744e+01
0	 5.714285714285716e+00	 1.571428571428572e+00	 1.014371134916138e+01
0	 5.714285714285715e+00	 1.714285714285715e+00	 1.016015595821177e+01
0	 5.714285714285714e+00	 1.857142857142857e+00	 1.017349481995054e+01
0	 5.714285714285715e+00	 2.000000000000000e+00	 1.018368587755965e+01
0	 5.714285714285713e+00	 2.142857142857143e+00	 1.019068707422101e+01
0	 5.714285714285714e+00	 2.285714285714287e+00	 1.019445635311659e+01
0	 5.714285714285714e+00	 2.428571428571429e+00	 1.019495165742832e+01
0	 5.714285714285716e+00	 2.571428571428573e+00	 1.019213093033815e+01
0	 5.714285714285715e+00	 2.714285714285715e+00	 1.018595211502801e+01
0	 5.714285714285715e+00	 2.857142857142857e+00	 1.017637315467986e+01
0	 5.857142857142857e+00	 1.428571428571429e+00	 1.011844515001507e+01
0	 5.857142857142858e+00	 1.571428571428572e+00	 1.013947077287544e+01
0	 5.857142857142857e+00	 1.714285714285715e+00	 1.015687447642944e+01
0	 5.857142857142856e+00	 1.857142857142858e+00	 1.017066434209788e+01
0	 5.857142857142858e+00	 2.000000000000000e+00	 1.018084845130162e+01
0	 5.857142857142858e+00	 2.142857142857144e+00	 1.018743488546150e+01
0	 5.857142857142856e+00	 2.285714285714286e+00	 1.019043172599833e+01
0	 5.857142857142857e+00	 2.428571428571430e+00	 1.018984705433298e+01
0	 5.857142857142858e+00	 2.571428571428572e+00	 1.018568895188628e+01
0	 5.857142857142859e+00	 2.714285714285716e+00	 1.017796550007905e+01
0	 5.857142857142857e+00	 2.857142857142858e+00	 1.016668478033214e+01
0	 5.999999999999999e+00	 1.428571428571429e+00	 1.011407611487422e+01
0	 5.999999999999999e+00	 1.571428571428572e+00	 1.013465809922630e+01
0	 6.000000000000000e+00	 1.714285714285715e+00	 1.015146500369585e+01
0	 5.999999999999998e+00	 1.857142857142858e+00	 1.016454643233926e+01
0	 5.999999999999999e+00	 2.000000000000000e+00	 1.017395198921293e+01
0	 5.999999999999999e+00	 2.142857142857143e+00	 1.017973127837323e+01
0	 5.999999999999999e+00	 2.285714285714287e+00	 1.018193390387658e+01
0	 5.999999999999999e+00	 2.428571428571429e+00	 1.018060946977935e+01
0	 6.000000000000000e+00	 2.571428571428572e+00	 1.017580758013796e+01
0	 6.000000000000002e+00	 2.714285714285715e+00	 1.016757783900878e+01
0	 6.000000000000001e+00	 2.857142857142858e+00	 1.015596985044821e+01
0	 6.142857142857141e+00	 1.428571428571429e+00	 1.011069338565452e+01
0	 6.142857142857143e+00	 1.571428571428572e+00	 1.012926382309314e+01
0	 6.142857142857141e+00	 1.714285714285715e+00	 1.014423969697872e+01
0	 6.142857142857142e+00	 1.857142857142857e+00	 1.015570351839989e+01
0	 6.142857142857141e+00	 2.000000000000000e+00	 1.016373779844524e+01
0	 6.142857142857144e+00	 2.142857142857144e+00	 1.016842504820337e+01
0	 6.142857142857142e+00	 2.285714285714288e+00	 1.016984777876290e+01
0	 6.142857142857143e+00	 2.428571428571430e+00	 1.016808850121244e+01
0	 6.142857142857142e+00	 2.571428571428572e+00	 1.016322972664059e+01
0	 6.142857142857141e+00	 2.714285714285715e+00	 1.015535396613596e+01
0	 6.142857142857141e+00	 2.857142857142857e+00	 1.014454373078714e+01
0	 6.285714285714284e+00	 1.428571428571429e+00	 1.010789440381562e+01
0	 6.285714285714286e+00	 1.571428571428572e+00	 1.012327843935514e+01
0	 6.285714285714285e+00	 1.714285714285714e+00	 1.013551071324577e+01
0	 6.285714285714285e+00	 1.857142857142858e+00	 1.014469802800497e+01
0	 6.285714285714284e+00	 2.000000000000000e+00	 1.015094718615024e+01
0	 6.285714285714286e+00	 2.142857142857144e+00	 1.015436499019905e+01
0	 6.285714285714284e+00	 2.285714285714287e+00	 1.015505824266889e+01
0	 6.285714285714284e+00	 2.428571428571430e+00	 1.015313374607722e+01
0	 6.285714285714285e+00	 2.571428571428573e+00	 1.014869830294154e+01
0	 6.285714285714286e+00	 2.714285714285715e+00	 1.014185871577932e+01
0	 6.285714285714284e+00	 2.857142857142857e+00	 1.013272178710806e+01
0	 6.428571428571424e+00	 1.428571428571429e+00	 1.010527661081715e+01
0	 6.428571428571426e+00	 1.571428571428572e+00	 1.011669244289149e+01
0	 6.428571428571426e+00	 1.714285714285715e+00	 1.012559020946469e+01
0	 6.428571428571424e+00	 1.857142857142857e+00	 1.013209238887973e+01
0	 6.428571428571427e+00	 2.000000000000001e+00	 1.013632145947964e+01
0	 6.428571428571428e+00	 2.142857142857144e+00	 1.013839989960742e+01
0	 6.428571428571427e+00	 2.285714285714286e+00	 1.013845018760611e+01
0	 6.428571428571425e+00	 2.428571428571429e+00	 1.013659480181870e+01
0	 6.428571428571427e+00	 2.571428571428573e+00	 1.013295622058822e+01
0	 6.428571428571427e+00	 2.714285714285716e+00	 1.012765692225766e+01
0	 6.428571428571425e+00	 2.857142857142857e+00	 1.012081938517006e+01
0	 6.571428571428569e+00	 1.428571428571429e+00	 1.010243744811877e+01
0	 6.571428571428569e+00	 1.571428571428572e+00	 1.010949632858140e+01
0	 6.571428571428569e+00	 1.714285714285715e+00	 1.011479034260319e+01
0	 6.571428571428569e+00	 1.857142857142858e+00	 1.011844902874936e+01
0	 6.571428571428569e+00	 2.000000000000001e+00	 1.012060192558511e+01
0	 6.571428571428569e+00	 2.142857142857144e+00	 1.012137857167563e+01
0	 6.571428571428569e+00	 2.285714285714286e+00	 1.012090850558615e+01
0	 6.571428571428569e+00	 2.428571428571430e+00	 1.011932126588186e+01
0	 6.571428571428569e+00	 2.571428571428573e+00	 1.011674639112799e+01
0	 6.571428571428569e+00	 2.714285714285715e+00	 1.011331341988971e+01
0	 6.571428571428569e+00	 2.857142857142858e+00	 1.010915189073225e+01
0	 6.714285714285711e+00	 1.428571428571429e+00	 1.009897435718012e+01
0	 6.714285714285709e+00	 1.571428571428571e+00	 1.010168059130402e+01
0	 6.714285714285713e+00	 1.714285714285715e+00	 1.010342326962899e+01
0	 6.714285714285711e+00	 1.857142857142858e+00	 1.010433037533907e+01
0	 6.714285714285710e+00	 2.000000000000000e+00	 1.010452989161832e+01
0	 6.714285714285709e+00	 2.142857142857143e+00	 1.010414980165081e+01
0	 6.714285714285712e+00	 2.285714285714286e+00	 1.010331808862058e+01
0	 6.714285714285710e+00	 2.428571428571429e+00	 1.010216273571171e+01
0	 6.714285714285710e+00	 2.571428571428572e+00	 1.010081172610824e+01
0	 6.714285714285710e+00	 2.714285714285715e+00	 1.009939304299423e+01
0	 6.714285714285713e+00	 2.857142857142858e+00	 1.009803466955375e+01
0	 6.857142857142854e+00	 1.428571428571429e+00	 1.009448477946085e+01
0	 6.857142857142853e+00	 1.571428571428572e+00	 1.009323572593857e+01
0	 6.857142857142853e+00	 1.714285714285714e+00	 1.009180114750979e+01
0	 6.857142857142854e+00	 1.857142857142858e+00	 1.009029885637407e+01
0	 6.857142857142854e+00	 2.000000000000000e+00	 1.008884666473099e+01
0	 6.857142857142853e+00	 2.142857142857144e+00	 1.008756238478010e+01
0	 6.857142857142854e+00	 2.285714285714286e+00	 1.008656382872100e+01
0	 6.857142857142855e+00	 2.428571428571429e+00	 1.008596880875323e+01
0	 6.857142857142855e+00	 2.571428571428573e+00	 1.008589513707637e+01
0	 6.857142857142855e+00	 2.714285714285716e+00	 1.008646062588999e+01
0	 6.857142857142855e+00	 2.857142857142857e+00	 1.008778308739365e+01
0	 6.999999999999996e+00	 1.428571428571429e+00	 1.008856615642059e+01
0	 6.999999999999996e+00	 1.571428571428572e+00	 1.008415222736422e+01
0	 6.999999999999996e+00	 1.714285714285715e+00	 1.008023613321331e+01
0	 6.999999999999996e+00	 1.857142857142858e+00	 1.007691689957958e+01
0	 6.999999999999996e+00	 2.000000000000000e+00	 1.007429355207479e+01
0	 6.999999999999996e+00	 2.142857142857144e+00	 1.007246511631067e+01
0	 6.999999999999996e+00	 2.285714285714286e+00	 1.007153061789897e+01
0	 6.999999999999996e+00	 2.428571428571430e+00	 1.007158908245141e+01
0	 6.999999999999996e+00	 2.571428571428573e+00	 1.007273953557975e+01
0	 6.999999999999996e+00	 2.714285714285715e+00	 1.007508100289572e+01
0	 6.999999999999996e+00	 2.857142857142857e+00	 1.007871251001105e+01
0	 7.142857142857141e+00	 1.428571428571429e+00	 1.008081592951899e+01
0	 7.142857142857145e+00	 1.571428571428572e+00	 1.007442059046015e+01
0	 7.142857142857146e+00	 1.714285714285715e+00	 1.006904038370723e+01
0	 7.142857142857142e+00	 1.857142857142857e+00	 1.006474693268079e+01
0	 7.142857142857144e+00	 2.000000000000001e+00	 1.006161186080141e+01
0	 7.142857142857144e+00	 2.142857142857144e+00	 1.005970679148964e+01
0	 7.142857142857144e+00	 2.285714285714286e+00	 1.005910334816607e+01
0	 7.142857142857144e+00	 2.428571428571429e+00	 1.005987315425125e+01
0	 7.142857142857141e+00	 2.571428571428572e+00	 1.006208783316578e+01
0	 7.142857142857143e+00	 2.714285714285714e+00	 1.006581900833020e+01
0	 7.142857142857142e+00	 2.857142857142857e+00	 1.007113830316509e+01
0	 5.714285714285715e+00	 2.857142857142857e+00	 1.017637315467986e+01
0	 5.714285714285715e+00	 3.000000000000001e+00	 1.016549484635197e+01
0	 5.714285714285714e+00	 3.142857142857143e+00	 1.015550402628108e+01
0	 5.714285714285714e+00	 3.285714285714286e+00	 1.014648769641676e+01
0	 5.714285714285715e+00	 3.428571428571429e+00	 1.013853285870860e+01
0	 5.714285714285714e+00	 3.571428571428572e+00	 1.013172651510619e+01
0	 5.714285714285715e+00	 3.714285714285715e+00	 1.012615566755911e+01
0	 5.714285714285714e+00	 3.857142857142856e+00	 1.012190731801694e+01
0	 5.714285714285714e+00	 4.000000000000001e+00	 1.011906846842928e+01
0	 5.714285714285715e+00	 4.142857142857143e+00	 1.011772612074570e+01
0	 5.714285714285715e+00	 4.285714285714286e+00	 1.011796727691578e+01
0	 5.857142857142857e+00	 2.857142857142858e+00	 1.016668478033214e+01
0	 5.857142857142858e+00	 3.000000000000000e+00	 1.015437320526124e+01
0	 5.857142857142857e+00	 3.142857142857143e+00	 1.014356407606395e+01
0	 5.857142857142857e+00	 3.285714285714286e+00	 1.013427580703407e+01
0	 5.857142857142857e+00	 3.428571428571429e+00	 1.012652681246542e+01
0	 5.857142857142857e+00	 3.571428571428571e+00	 1.012033550665176e+01
0	 5.857142857142856e+00	 3.714285714285715e+00	 1.011572030388689e+01
0	 5.857142857142857e+00	 3.857142857142858e+00	 1.011269961846459e+01
0	 5.857142857142859e+00	 4.000000000000001e+00	 1.011129186467867e+01
0	 5.857142857142857e+00	 4.142857142857143e+00	 1.011151545682291e+01
0	 5.857142857142857e+00	 4.285714285714286e+00	 1.011338880919110e+01
0	 6.000000000000001e+00	 2.857142857142858e+00	 1.015596985044821e+01
0	 6.000000000000002e+00	 3.000000000000001e+00	 1.014361135832669e+01
0	 6.000000000000000e+00	 3.142857142857143e+00	 1.013307159846721e+01
0	 5.999999999999997e+00	 3.285714285714286e+00	 1.012431241285491e+01
0	 5.999999999999999e+00	 3.428571428571428e+00	 1.011729564347498e+01
0	 5.999999999999999e+00	 3.571428571428573e+00	 1.011198313231257e+01
0	 5.999999999999998e+00	 3.714285714285714e+00	 1.010833672135287e+01
0	 5.999999999999999e+00	 3.857142857142858e+00	 1.010631825258103e+01
0	 6.000000000000000e+00	 4.000000000000002e+00	 1.010588956798224e+01
0	 6.000000000000001e+00	 4.142857142857145e+00	 1.010701250954164e+01
0	 6.000000000000001e+00	 4.285714285714286e+00	 1.010964891924442e+01
0	 6.142857142857141e+00	 2.857142857142857e+00	 1.014454373078714e+01
0	 6.142857142857144e+00	 3.000000000000001e+00	 1.013326242444264e+01
0	 6.142857142857141e+00	 3.142857142857143e+00	 1.012386330024106e+01
0	 6.142857142857142e+00	 3.285714285714286e+00	 1.011626364320607e+01
0	 6.142857142857141e+00	 3.428571428571428e+00	 1.011038073836142e+01
0	 6.142857142857143e+00	 3.571428571428573e+00	 1.010613187073081e+01
0	 6.142857142857142e+00	 3.714285714285715e+00	 1.010343432533798e+01
0	 6.142857142857141e+00	 3.857142857142857e+00	 1.010220538720663e+01
0	 6.142857142857142e+00	 4.000000000000001e+00	 1.010236234136048e+01
0	 6.142857142857141e+00	 4.142857142857142e+00	 1.010382247282326e+01
0	 6.142857142857141e+00	 4.285714285714285e+00	 1.010650306661868e+01
0	 6.285714285714284e+00	 2.857142857142857e+00	 1.013272178710806e+01
0	 6.285714285714285e+00	 3.000000000000001e+00	 1.012337952250341e+01
0	 6.285714285714285e+00	 3.142857142857144e+00	 1.011577588813570e+01
0	 6.285714285714284e+00	 3.285714285714286e+00	 1.010979562741438e+01
0	 6.285714285714283e+00	 3.428571428571428e+00	 1.010532348374887e+01
0	 6.285714285714284e+00	 3.571428571428572e+00	 1.010224420054863e+01
0	 6.285714285714284e+00	 3.714285714285715e+00	 1.010044252122309e+01
0	 6.285714285714284e+00	 3.857142857142857e+00	 1.009980318918170e+01
0	 6.285714285714284e+00	 4.000000000000001e+00	 1.010021094783390e+01
0	 6.285714285714284e+00	 4.142857142857144e+00	 1.010155054058913e+01
0	 6.285714285714285e+00	 4.285714285714287e+00	 1.010370671085682e+01
0	 6.428571428571425e+00	 2.857142857142857e+00	 1.012081938517006e+01
0	 6.428571428571426e+00	 3.000000000000001e+00	 1.011401577140326e+01
0	 6.428571428571427e+00	 3.142857142857144e+00	 1.010864606890134e+01
0	 6.428571428571425e+00	 3.285714285714286e+00	 1.010457449480663e+01
0	 6.428571428571427e+00	 3.428571428571428e+00	 1.010166526626146e+01
0	 6.428571428571427e+00	 3.571428571428572e+00	 1.009978260040818e+01
0	 6.428571428571428e+00	 3.714285714285715e+00	 1.009879071438912e+01
0	 6.428571428571425e+00	 3.857142857142857e+00	 1.009855382534662e+01
0	 6.428571428571426e+00	 4.000000000000000e+00	 1.009893615042301e+01
0	 6.428571428571427e+00	 4.142857142857143e+00	 1.009980190676061e+01
0	 6.428571428571425e+00	 4.285714285714286e+00	 1.010101531150179e+01
0	 6.571428571428569e+00	 2.857142857142858e+00	 1.010915189073225e+01
0	 6.571428571428569e+00	 3.000000000000001e+00	 1.010522429003651e+01
0	 6.571428571428569e+00	 3.142857142857143e+00	 1.010231054928817e+01
0	 6.571428571428569e+00	 3.285714285714286e+00	 1.010026637470965e+01
0	 6.571428571428569e+00	 3.428571428571429e+00	 1.009894747252334e+01
0	 6.571428571428569e+00	 3.571428571428572e+00	 1.009820954895164e+01
0	 6.571428571428569e+00	 3.714285714285714e+00	 1.009790831021696e+01
0	 6.571428571428569e+00	 3.857142857142858e+00	 1.009789946254171e+01
0	 6.571428571428569e+00	 4.000000000000000e+00	 1.009803871214828e+01
0	 6.571428571428568e+00	 4.142857142857143e+00	 1.009818176525908e+01
0	 6.571428571428569e+00	 4.285714285714286e+00	 1.009818432809652e+01
0	 6.714285714285713e+00	 2.857142857142858e+00	 1.009803466955375e+01
0	 6.714285714285711e+00	 3.000000000000000e+00	 1.009705819729745e+01
0	 6.714285714285711e+00	 3.142857142857144e+00	 1.009660603604641e+01
0	 6.714285714285710e+00	 3.285714285714286e+00	 1.009653739645024e+01
0	 6.714285714285709e+00	 3.428571428571428e+00	 1.009671148915861e+01
0	 6.714285714285711e+00	 3.571428571428572e+00	 1.009698752482116e+01
0	 6.714285714285711e+00	 3.714285714285714e+00	 1.009722471408752e+01
0	 6.714285714285709e+00	 3.857142857142857e+00	 1.009728226760734e+01
0	 6.714285714285711e+00	 4.000000000000000e+00	 1.009701939603026e+01
0	 6.714285714285710e+00	 4.142857142857143e+00	 1.009629531000592e+01
0	 6.714285714285713e+00	 4.285714285714286e+00	 1.009496922018396e+01
0	 6.857142857142855e+00	 2.857142857142857e+00	 1.008778308739365e+01
0	 6.857142857142854e+00	 3.000000000000001e+00	 1.008957061208038e+01
0	 6.857142857142853e+00	 3.142857142857144e+00	 1.009136923592622e+01
0	 6.857142857142854e+00	 3.285714285714286e+00	 1.009305368935523e+01
0	 6.857142857142855e+00	 3.428571428571429e+00	 1.009449870279144e+01
0	 6.857142857142853e+00	 3.571428571428572e+00	 1.009557900665891e+01
0	 6.857142857142852e+00	 3.714285714285714e+00	 1.009616933138170e+01
0	 6.857142857142854e+00	 3.857142857142858e+00	 1.009614440738385e+01
0	 6.857142857142854e+00	 4.000000000000000e+00	 1.009537896508942e+01
0	 6.857142857142853e+00	 4.142857142857143e+00	 1.009374773492247e+01
0	 6.857142857142854e+00	 4.285714285714286e+00	 1.009112544730705e+01
0	 6.999999999999996e+00	 2.857142857142857e+00	 1.007871251001105e+01
0	 6.999999999999995e+00	 3.000000000000000e+00	 1.008281465327962e+01
0	 6.999999999999995e+00	 3.142857142857143e+00	 1.008643685567786e+01
0	 6.999999999999996e+00	 3.285714285714286e+00	 1.008948138275142e+01
0	 6.999999999999995e+00	 3.428571428571428e+00	 1.009185050004594e+01
0	 6.999999999999996e+00	 3.571428571428572e+00	 1.009344647310704e+01
0	 6.999999999999996e+00	 3.714285714285715e+00	 1.009417156748037e+01
0	 6.999999999999996e+00	 3.857142857142857e+00	 1.009392804871158e+01
0	 6.999999999999996e+00	 4.000000000000000e+00	 1.009261818234628e+01
0	 6.999999999999996e+00	 4.142857142857143e+00	 1.009014423393011e+01
0	 6.999999999999995e+00	 4.285714285714286e+00	 1.008640846900873e+01
0	 7.142857142857142e+00	 2.857142857142857e+00	 1.007113830316509e+01
0	 7.142857142857145e+00	 3.000000000000001e+00	 1.007684343978944e+01
0	 7.142857142857145e+00	 3.142857142857144e+00	 1.008164560205150e+01
0	 7.142857142857144e+00	 3.285714285714286e+00	 1.008548660596563e+01
0	 7.142857142857141e+00	 3.428571428571427e+00	 1.008830826754624e+01
0	 7.142857142857146e+00	 3.571428571428572e+00	 1.009005240280772e+01
0	 7.142857142857143e+00	 3.714285714285715e+00	 1.009066082776447e+01
0	 7.142857142857142e+00	 3.857142857142857e+00	 1.009007535843087e+01
0	 7.142857142857143e+00	 4.000000000000001e+00	 1.008823781082132e+01
0	 7.142857142857144e+00	 4.142857142857144e+00	 1.008509000095021e+01
0	 7.142857142857142e+00	 4.285714285714285e+00	 1.008057374483193e+01
0	 5.714285714285715e+00	 4.285714285714286e+00	 1.011796727691578e+01
0	 5.714285714285715e+00	 4.428571428571428e+00	 1.011879741034696e+01
0	 5.714285714285714e+00	 4.571428571428571e+00	 1.011909601027718e+01
0	 5.714285714285714e+00	 4.714285714285714e+00	 1.011876110240192e+01
0	 5.714285714285715e+00	 4.857142857142858e+00	 1.011769071241664e+01
0	 5.714285714285714e+00	 5.000000000000002e+00	 1.011578286601679e+01
0	 5.714285714285714e+00	 5.142857142857142e+00	 1.011293558889782e+01
0	 5.714285714285714e+00	 5.285714285714285e+00	 1.010904690675521e+01
0	 5.714285714285714e+00	 5.428571428571427e+00	 1.010401484528439e+01
0	 5.714285714285714e+00	 5.571428571428570e+00	 1.009773743018084e+01
0	 5.714285714285715e+00	 5.714285714285714e+00	 1.009011268714001e+01
0	 5.857142857142857e+00	 4.285714285714286e+00	 1.011338880919110e+01
0	 5.857142857142856e+00	 4.428571428571428e+00	 1.011562620638293e+01
0	 5.857142857142859e+00	 4.571428571428572e+00	 1.011690134850956e+01
0	 5.857142857142857e+00	 4.714285714285714e+00	 1.011717177313201e+01
0	 5.857142857142857e+00	 4.857142857142858e+00	 1.011639501781131e+01
0	 5.857142857142855e+00	 4.999999999999999e+00	 1.011452862010848e+01
0	 5.857142857142858e+00	 5.142857142857142e+00	 1.011153011758455e+01
0	 5.857142857142858e+00	 5.285714285714286e+00	 1.010735704780053e+01
0	 5.857142857142857e+00	 5.428571428571428e+00	 1.010196694831745e+01
0	 5.857142857142858e+00	 5.571428571428570e+00	 1.009531735669632e+01
0	 5.857142857142858e+00	 5.714285714285714e+00	 1.008736581049820e+01
0	 6.000000000000001e+00	 4.285714285714286e+00	 1.010964891924442e+01
0	 6.000000000000001e+00	 4.428571428571429e+00	 1.011242351403283e+01
0	 5.999999999999998e+00	 4.571428571428571e+00	 1.011399099314575e+01
0	 5.999999999999997e+00	 4.714285714285714e+00	 1.011435817201327e+01
0	 5.999999999999999e+00	 4.857142857142858e+00	 1.011353186606547e+01
0	 5.999999999999999e+00	 5.000000000000001e+00	 1.011151889073244e+01
0	 5.999999999999998e+00	 5.142857142857142e+00	 1.010832606144425e+01
0	 5.999999999999999e+00	 5.285714285714285e+00	 1.010396019363102e+01
0	 5.999999999999999e+00	 5.428571428571428e+00	 1.009842810272280e+01
0	 5.999999999999998e+00	 5.571428571428569e+00	 1.009173660414972e+01
0	 6.000000000000000e+00	 5.714285714285714e+00	 1.008389251334182e+01
0	 6.142857142857141e+00	 4.285714285714285e+00	 1.010650306661868e+01
0	 6.142857142857142e+00	 4.428571428571429e+00	 1.010910482108568e+01
0	 6.142857142857140e+00	 4.571428571428569e+00	 1.011041415074916e+01
0	 6.142857142857143e+00	 4.714285714285714e+00	 1.011047691491175e+01
0	 6.142857142857141e+00	 4.857142857142856e+00	 1.010933897287613e+01
0	 6.142857142857143e+00	 5.000000000000000e+00	 1.010704618394492e+01
0	 6.142857142857141e+00	 5.142857142857142e+00	 1.010364440742078e+01
0	 6.142857142857141e+00	 5.285714285714285e+00	 1.009917950260638e+01
0	 6.142857142857140e+00	 5.428571428571426e+00	 1.009369732880432e+01
0	 6.142857142857142e+00	 5.571428571428570e+00	 1.008724374531730e+01
0	 6.142857142857141e+00	 5.714285714285714e+00	 1.007986461144794e+01
0	 6.285714285714285e+00	 4.285714285714287e+00	 1.010370671085682e+01
0	 6.285714285714285e+00	 4.428571428571428e+00	 1.010558561533049e+01
0	 6.285714285714285e+00	 4.571428571428571e+00	 1.010622002788315e+01
0	 6.285714285714284e+00	 4.714285714285713e+00	 1.010568461769353e+01
0	 6.285714285714285e+00	 4.857142857142858e+00	 1.010405405394032e+01
0	 6.285714285714284e+00	 5.000000000000000e+00	 1.010140300580224e+01
0	 6.285714285714284e+00	 5.142857142857142e+00	 1.009780614245800e+01
0	 6.285714285714283e+00	 5.285714285714284e+00	 1.009333813308631e+01
0	 6.285714285714284e+00	 5.428571428571428e+00	 1.008807364686587e+01
0	 6.285714285714283e+00	 5.571428571428569e+00	 1.008208735297541e+01
0	 6.285714285714284e+00	 5.714285714285714e+00	 1.007545392059362e+01
0	 6.428571428571425e+00	 4.285714285714286e+00	 1.010101531150179e+01
0	 6.428571428571425e+00	 4.428571428571427e+00	 1.010178138455628e+01
0	 6.428571428571426e+00	 4.571428571428572e+00	 1.010145783111115e+01
0	 6.428571428571426e+00	 4.714285714285714e+00	 1.010013789622466e+01
0	 6.428571428571426e+00	 4.857142857142857e+00	 1.009791482495508e+01
0	 6.428571428571428e+00	 4.999999999999999e+00	 1.009488186236069e+01
0	 6.428571428571426e+00	 5.142857142857143e+00	 1.009113225349974e+01
0	 6.428571428571428e+00	 5.285714285714285e+00	 1.008675924343052e+01
0	 6.428571428571427e+00	 5.428571428571427e+00	 1.008185607721130e+01
0	 6.428571428571427e+00	 5.571428571428569e+00	 1.007651599990034e+01
0	 6.428571428571424e+00	 5.714285714285714e+00	 1.007083225655591e+01
0	 6.571428571428569e+00	 4.285714285714286e+00	 1.009818432809652e+01
0	 6.571428571428569e+00	 4.428571428571428e+00	 1.009760761655208e+01
0	 6.571428571428569e+00	 4.571428571428572e+00	 1.009617676699652e+01
0	 6.571428571428569e+00	 4.714285714285715e+00	 1.009399336637120e+01
0	 6.571428571428569e+00	 4.857142857142856e+00	 1.009115900161744e+01
0	 6.571428571428569e+00	 5.000000000000001e+00	 1.008777525967654e+01
0	 6.571428571428567e+00	 5.142857142857141e+00	 1.008394372748988e+01
0	 6.571428571428569e+00	 5.285714285714283e+00	 1.007976599199874e+01
0	 6.571428571428569e+00	 5.428571428571427e+00	 1.007534364014448e+01
0	 6.571428571428569e+00	 5.571428571428570e+00	 1.007077825886841e+01
0	 6.571428571428570e+00	 5.714285714285714e+00	 1.006617143511187e+01
0	 6.714285714285713e+00	 4.285714285714286e+00	 1.009496922018396e+01
0	 6.714285714285711e+00	 4.428571428571429e+00	 1.009297979910688e+01
0	 6.714285714285711e+00	 4.571428571428571e+00	 1.009042604210267e+01
0	 6.714285714285708e+00	 4.714285714285714e+00	 1.008740764399922e+01
0	 6.714285714285709e+00	 4.857142857142857e+00	 1.008402429962440e+01
0	 6.714285714285713e+00	 5.000000000000001e+00	 1.008037570380612e+01
0	 6.714285714285710e+00	 5.142857142857141e+00	 1.007656155137224e+01
0	 6.714285714285711e+00	 5.285714285714284e+00	 1.007268153715067e+01
0	 6.714285714285710e+00	 5.428571428571426e+00	 1.006883535596926e+01
0	 6.714285714285713e+00	 5.571428571428569e+00	 1.006512270265592e+01
0	 6.714285714285711e+00	 5.714285714285714e+00	 1.006164327203855e+01
0	 6.857142857142854e+00	 4.285714285714286e+00	 1.009112544730705e+01
0	 6.857142857142851e+00	 4.428571428571428e+00	 1.008781342000972e+01
0	 6.857142857142855e+00	 4.571428571428571e+00	 1.008425486299297e+01
0	 6.857142857142853e+00	 4.714285714285713e+00	 1.008053734497476e+01
0	 6.857142857142855e+00	 4.857142857142856e+00	 1.007674843467302e+01
0	 6.857142857142853e+00	 5.000000000000001e+00	 1.007297570080568e+01
0	 6.857142857142854e+00	 5.142857142857142e+00	 1.006930671209069e+01
0	 6.857142857142851e+00	 5.285714285714283e+00	 1.006582903724599e+01
0	 6.857142857142854e+00	 5.428571428571429e+00	 1.006263024498952e+01
0	 6.857142857142851e+00	 5.571428571428568e+00	 1.005979790403920e+01
0	 6.857142857142854e+00	 5.714285714285715e+00	 1.005741958311301e+01
0	 6.999999999999995e+00	 4.285714285714286e+00	 1.008640846900873e+01
0	 6.999999999999995e+00	 4.428571428571429e+00	 1.008202396704962e+01
0	 6.999999999999996e+00	 4.571428571428571e+00	 1.007771243623085e+01
0	 6.999999999999995e+00	 4.714285714285713e+00	 1.007353908516392e+01
0	 6.999999999999995e+00	 4.857142857142856e+00	 1.006956912246032e+01
0	 6.999999999999996e+00	 5.000000000000000e+00	 1.006586775673154e+01
0	 6.999999999999996e+00	 5.142857142857142e+00	 1.006250019658909e+01
0	 6.999999999999996e+00	 5.285714285714284e+00	 1.005953165064443e+01
0	 6.999999999999996e+00	 5.428571428571426e+00	 1.005702732750910e+01
0	 6.999999999999996e+00	 5.571428571428569e+00	 1.005505243579456e+01
0	 6.999999999999995e+00	 5.714285714285714e+00	 1.005367218411232e+01
0	 7.142857142857142e+00	 4.285714285714285e+00	 1.008057374483193e+01
0	 7.142857142857144e+00	 4.428571428571429e+00	 1.007552692801559e+01
0	 7.142857142857144e+00	 4.571428571428571e+00	 1.007084796837967e+01
0	 7.142857142857143e+00	 4.714285714285714e+00	 1.006656948043273e+01
0	 7.142857142857144e+00	 4.857142857142857e+00	 1.006272407868332e+01
0	 7.142857142857144e+00	 5.000000000000000e+00	 1.005934437763998e+01
0	 7.142857142857144e+00	 5.142857142857143e+00	 1.005646299181126e+01
0	 7.142857142857143e+00	 5.285714285714285e+00	 1.005411253570571e+01
0	 7.142857142857143e+00	 5.428571428571427e+00	 1.005232562383187e+01
0	 7.142857142857146e+00	 5.571428571428571e+00	 1.005113487069829e+01
0	 7.142857142857143e+00	 5.714285714285714e+00	 1.005057289081351e+01
0	 5.714285714285715e+00	 5.714285714285714e+00	 1.009011268714001e+01
0	 5.714285714285716e+00	 5.857142857142857e+00	 1.008204319184610e+01
0	 5.714285714285716e+00	 6.000000000000000e+00	 1.007451977819452e+01
0	 5.714285714285715e+00	 6.142857142857141e+00	 1.006757285919751e+01
0	 5.714285714285715e+00	 6.285714285714283e+00	 1.006123284786732e+01
0	 5.714285714285714e+00	 6.428571428571426e+00	 1.005553015721621e+01
0	 5.714285714285715e+00	 6.571428571428569e+00	 1.005049520025640e+01
0	 5.714285714285714e+00	 6.714285714285710e+00	 1.004615839000015e+01
0	 5.714285714285714e+00	 6.857142857142851e+00	 1.004255013945972e+01
0	 5.714285714285714e+00	 6.999999999999996e+00	 1.003970086164734e+01
0	 5.714285714285714e+00	 7.142857142857141e+00	 1.003764096957526e+01
0	 5.857142857142858e+00	 5.714285714285714e+00	 1.008736581049820e+01
0	 5.857142857142858e+00	 5.857142857142858e+00	 1.007912502597455e+01
0	 5.857142857142858e+00	 5.999999999999999e+00	 1.007163132864093e+01
0	 5.857142857142859e+00	 6.142857142857141e+00	 1.006487766995438e+01
0	 5.857142857142858e+00	 6.285714285714282e+00	 1.005885700137197e+01
0	 5.857142857142857e+00	 6.428571428571423e+00	 1.005356227435072e+01
0	 5.857142857142858e+00	 6.571428571428569e+00	 1.004898644034771e+01
0	 5.857142857142859e+00	 6.714285714285711e+00	 1.004512245081999e+01
0	 5.857142857142856e+00	 6.857142857142852e+00	 1.004196325722461e+01
0	 5.857142857142857e+00	 6.999999999999996e+00	 1.003950181101861e+01
0	 5.857142857142858e+00	 7.142857142857144e+00	 1.003773106365906e+01
0	 6.000000000000000e+00	 5.714285714285714e+00	 1.008389251334182e+01
0	 6.000000000000001e+00	 5.857142857142857e+00	 1.007591189359703e+01
0	 5.999999999999998e+00	 5.999999999999997e+00	 1.006878116773643e+01
0	 6.000000000000001e+00	 6.142857142857141e+00	 1.006246269047485e+01
0	 5.999999999999998e+00	 6.285714285714281e+00	 1.005691881652714e+01
0	 5.999999999999999e+00	 6.428571428571428e+00	 1.005211190060816e+01
0	 5.999999999999999e+00	 6.571428571428569e+00	 1.004800429743275e+01
0	 5.999999999999998e+00	 6.714285714285708e+00	 1.004455836171575e+01
0	 5.999999999999998e+00	 6.857142857142852e+00	 1.004173644817201e+01
0	 6.000000000000000e+00	 6.999999999999996e+00	 1.003950091151638e+01
0	 6.000000000000000e+00	 7.142857142857144e+00	 1.003781410646372e+01
0	 6.142857142857141e+00	 5.714285714285714e+00	 1.007986461144794e+01
0	 6.142857142857142e+00	 5.857142857142857e+00	 1.007249248444660e+01
0	 6.142857142857141e+00	 5.999999999999997e+00	 1.006598843055225e+01
0	 6.142857142857142e+00	 6.142857142857141e+00	 1.006029107255054e+01
0	 6.142857142857143e+00	 6.285714285714285e+00	 1.005533903322710e+01
0	 6.142857142857141e+00	 6.428571428571425e+00	 1.005107093536753e+01
0	 6.142857142857141e+00	 6.571428571428569e+00	 1.004742540175749e+01
0	 6.142857142857142e+00	 6.714285714285712e+00	 1.004434105518260e+01
0	 6.142857142857141e+00	 6.857142857142851e+00	 1.004175651842849e+01
0	 6.142857142857143e+00	 6.999999999999996e+00	 1.003961041428079e+01
0	 6.142857142857142e+00	 7.142857142857144e+00	 1.003784136552513e+01
0	 6.285714285714284e+00	 5.714285714285714e+00	 1.007545392059362e+01
0	 6.285714285714284e+00	 5.857142857142859e+00	 1.006895548825629e+01
0	 6.285714285714283e+00	 5.999999999999997e+00	 1.006327225215964e+01
0	 6.285714285714284e+00	 6.142857142857141e+00	 1.005832596797309e+01
0	 6.285714285714283e+00	 6.285714285714282e+00	 1.005403839136601e+01
0	 6.285714285714284e+00	 6.428571428571425e+00	 1.005033127800783e+01
0	 6.285714285714283e+00	 6.571428571428568e+00	 1.004712638356794e+01
0	 6.285714285714282e+00	 6.714285714285708e+00	 1.004434546371572e+01
0	 6.285714285714282e+00	 6.857142857142851e+00	 1.004191027412059e+01
0	 6.285714285714283e+00	 6.999999999999996e+00	 1.003974257045195e+01
0	 6.285714285714282e+00	 7.142857142857142e+00	 1.003776410837919e+01
0	 6.428571428571424e+00	 5.714285714285714e+00	 1.007083225655591e+01
0	 6.428571428571425e+00	 5.857142857142856e+00	 1.006538959475916e+01
0	 6.428571428571427e+00	 5.999999999999999e+00	 1.006065176762984e+01
0	 6.428571428571426e+00	 6.142857142857141e+00	 1.005653052853413e+01
0	 6.428571428571426e+00	 6.285714285714283e+00	 1.005293763083814e+01
0	 6.428571428571425e+00	 6.428571428571424e+00	 1.004978482790806e+01
0	 6.428571428571427e+00	 6.571428571428567e+00	 1.004698387311005e+01
0	 6.428571428571427e+00	 6.714285714285710e+00	 1.004444651981025e+01
0	 6.428571428571426e+00	 6.857142857142853e+00	 1.004208452137484e+01
0	 6.428571428571426e+00	 6.999999999999994e+00	 1.003980963116998e+01
0	 6.428571428571426e+00	 7.142857142857143e+00	 1.003753360256179e+01
0	 6.571428571428570e+00	 5.714285714285714e+00	 1.006617143511187e+01
0	 6.571428571428569e+00	 5.857142857142856e+00	 1.006188349368826e+01
0	 6.571428571428569e+00	 5.999999999999999e+00	 1.005814611203411e+01
0	 6.571428571428569e+00	 6.142857142857141e+00	 1.005486790602528e+01
0	 6.571428571428567e+00	 6.285714285714282e+00	 1.005195749153769e+01
0	 6.571428571428568e+00	 6.428571428571426e+00	 1.004932348444724e+01
0	 6.571428571428569e+00	 6.571428571428567e+00	 1.004687450062985e+01
0	 6.571428571428568e+00	 6.714285714285711e+00	 1.004451915596141e+01
0	 6.571428571428568e+00	 6.857142857142852e+00	 1.004216606631782e+01
0	 6.571428571428568e+00	 6.999999999999996e+00	 1.003972384757500e+01
0	 6.571428571428570e+00	 7.142857142857145e+00	 1.003710111560886e+01
0	 6.714285714285711e+00	 5.714285714285714e+00	 1.006164327203855e+01
0	 6.714285714285710e+00	 5.857142857142856e+00	 1.005852587477666e+01
0	 6.714285714285708e+00	 5.999999999999999e+00	 1.005577442044366e+01
0	 6.714285714285712e+00	 6.142857142857141e+00	 1.005330125223819e+01
0	 6.714285714285710e+00	 6.285714285714284e+00	 1.005101871335887e+01
0	 6.714285714285711e+00	 6.428571428571425e+00	 1.004883914700436e+01
0	 6.714285714285709e+00	 6.571428571428567e+00	 1.004667489637330e+01
0	 6.714285714285712e+00	 6.714285714285712e+00	 1.004443830466431e+01
0	 6.714285714285712e+00	 6.857142857142855e+00	 1.004204171507606e+01
0	 6.714285714285711e+00	 6.999999999999995e+00	 1.003939747080716e+01
0	 6.714285714285710e+00	 7.142857142857142e+00	 1.003641791505627e+01
0	 6.857142857142854e+00	 5.714285714285715e+00	 1.005741958311301e+01
0	 6.857142857142855e+00	 5.857142857142857e+00	 1.005540542775739e+01
0	 6.857142857142851e+00	 5.999999999999998e+00	 1.005355582792975e+01
0	 6.857142857142851e+00	 6.142857142857140e+00	 1.005179371896447e+01
0	 6.857142857142855e+00	 6.285714285714283e+00	 1.005004203619592e+01
0	 6.857142857142851e+00	 6.428571428571424e+00	 1.004822371495844e+01
0	 6.857142857142854e+00	 6.571428571428569e+00	 1.004626169058640e+01
0	 6.857142857142853e+00	 6.714285714285710e+00	 1.004407889841417e+01
0	 6.857142857142851e+00	 6.857142857142852e+00	 1.004159827377610e+01
0	 6.857142857142851e+00	 6.999999999999996e+00	 1.003874275200656e+01
0	 6.857142857142851e+00	 7.142857142857142e+00	 1.003543526843992e+01
0	 6.999999999999995e+00	 5.714285714285714e+00	 1.005367218411232e+01
0	 6.999999999999996e+00	 5.857142857142856e+00	 1.005261084236349e+01
0	 6.999999999999995e+00	 5.999999999999999e+00	 1.005150946956363e+01
0	 6.999999999999996e+00	 6.142857142857141e+00	 1.005030845799578e+01
0	 6.999999999999995e+00	 6.285714285714283e+00	 1.004894819994304e+01
0	 6.999999999999996e+00	 6.428571428571426e+00	 1.004736908768847e+01
0	 6.999999999999997e+00	 6.571428571428568e+00	 1.004551151351514e+01
0	 6.999999999999995e+00	 6.714285714285710e+00	 1.004331586970612e+01
0	 6.999999999999996e+00	 6.857142857142851e+00	 1.004072254854449e+01
0	 6.999999999999996e+00	 6.999999999999995e+00	 1.003767194231334e+01
0	 6.999999999999996e+00	 7.142857142857144e+00	 1.003410444329572e+01
0	 7.142857142857143e+00	 5.714285714285714e+00	 1.005057289081351e+01
0	 7.142857142857144e+00	 5.857142857142857e+00	 1.005023080832805e+01
0	 7.142857142857142e+00	 5.999999999999998e+00	 1.004965448041653e+01
0	 7.142857142857144e+00	 6.142857142857141e+00	 1.004880862112374e+01
0	 7.142857142857143e+00	 6.285714285714283e+00	 1.004765794449447e+01
0	 7.142857142857143e+00	 6.428571428571424e+00	 1.004616716457345e+01
0	 7.142857142857145e+00	 6.571428571428568e+00	 1.004430099540550e+01
0	 7.142857142857145e+00	 6.714285714285712e+00	 1.004202415103535e+01
0	 7.142857142857142e+00	 6.857142857142851e+00	 1.003930134550780e+01
0	 7.142857142857143e+00	 6.999999999999996e+00	 1.003609729286761e+01
0	 7.142857142857141e+00	 7.142857142857141e+00	 1.003237670715955e+01
0	 5.714285714285714e+00	 7.142857142857141e+00	 1.003764096957526e+01
0	 5.714285714285714e+00	 7.285714285714285e+00	 1.003594750643908e+01
0	 5.714285714285715e+00	 7.428571428571429e+00	 1.003415950707722e+01
0	 5.714285714285715e+00	 7.571428571428571e+00	 1.003225037196617e+01
0	 5.714285714285714e+00	 7.714285714285714e+00	 1.003019350158244e+01
0	 5.714285714285714e+00	 7.857142857142854e+00	 1.002796229640249e+01
0	 5.714285714285714e+00	 7.999999999999998e+00	 1.002553015690284e+01
0	 5.714285714285714e+00	 8.142857142857141e+00	 1.002287048355996e+01
0	 5.714285714285715e+00	 8.285714285714285e+00	 1.001995667685034e+01
0	 5.714285714285715e+00	 8.428571428571425e+00	 1.001676213725048e+01
0	 5.714285714285715e+00	 8.571428571428573e+00	 1.001326026523687e+01
0	 5.857142857142858e+00	 7.142857142857144e+00	 1.003773106365906e+01
0	 5.857142857142858e+00	 7.285714285714286e+00	 1.003620488377867e+01
0	 5.857142857142857e+00	 7.428571428571427e+00	 1.003447863425372e+01
0	 5.857142857142857e+00	 7.571428571428572e+00	 1.003254750790664e+01
0	 5.857142857142858e+00	 7.714285714285712e+00	 1.003040669755983e+01
0	 5.857142857142856e+00	 7.857142857142853e+00	 1.002805139603572e+01
0	 5.857142857142858e+00	 7.999999999999999e+00	 1.002547679615673e+01
0	 5.857142857142856e+00	 8.142857142857142e+00	 1.002267809074528e+01
0	 5.857142857142858e+00	 8.285714285714286e+00	 1.001965047262376e+01
0	 5.857142857142857e+00	 8.428571428571427e+00	 1.001638913461462e+01
0	 5.857142857142859e+00	 8.571428571428573e+00	 1.001288926954025e+01
0	 6.000000000000000e+00	 7.142857142857144e+00	 1.003781410646372e+01
0	 6.000000000000000e+00	 7.285714285714286e+00	 1.003625846905206e+01
0	 5.999999999999999e+00	 7.428571428571428e+00	 1.003445005870586e+01
0	 5.999999999999999e+00	 7.571428571428570e+00	 1.003240166521945e+01
0	 5.999999999999998e+00	 7.714285714285714e+00	 1.003012607838722e+01
0	 6.000000000000000e+00	 7.857142857142855e+00	 1.002763608800350e+01
0	 5.999999999999997e+00	 7.999999999999997e+00	 1.002494448386271e+01
0	 5.999999999999999e+00	 8.142857142857141e+00	 1.002206405575918e+01
0	 5.999999999999999e+00	 8.285714285714283e+00	 1.001900759348730e+01
0	 6.000000000000001e+00	 8.428571428571429e+00	 1.001578788684141e+01
0	 5.999999999999999e+00	 8.571428571428569e+00	 1.001241772561589e+01
0	 6.142857142857142e+00	 7.142857142857144e+00	 1.003784136552512e+01
0	 6.142857142857141e+00	 7.285714285714284e+00	 1.003610154180220e+01
0	 6.142857142857141e+00	 7.428571428571426e+00	 1.003410149182386e+01
0	 6.142857142857141e+00	 7.571428571428570e+00	 1.003186740698246e+01
0	 6.142857142857141e+00	 7.714285714285714e+00	 1.002942547867031e+01
0	 6.142857142857141e+00	 7.857142857142856e+00	 1.002680189827977e+01
0	 6.142857142857140e+00	 7.999999999999997e+00	 1.002402285720319e+01
0	 6.142857142857142e+00	 8.142857142857139e+00	 1.002111454683286e+01
0	 6.142857142857142e+00	 8.285714285714285e+00	 1.001810315856117e+01
0	 6.142857142857141e+00	 8.428571428571423e+00	 1.001501488378045e+01
0	 6.142857142857141e+00	 8.571428571428571e+00	 1.001187591388302e+01
0	 6.285714285714282e+00	 7.142857142857142e+00	 1.003776410837919e+01
0	 6.285714285714283e+00	 7.285714285714285e+00	 1.003572738157199e+01
0	 6.285714285714282e+00	 7.428571428571425e+00	 1.003346064499797e+01
0	 6.285714285714282e+00	 7.571428571428569e+00	 1.003099929627348e+01
0	 6.285714285714284e+00	 7.714285714285714e+00	 1.002837873301485e+01
0	 6.285714285714285e+00	 7.857142857142857e+00	 1.002563435283842e+01
0	 6.285714285714283e+00	 7.999999999999997e+00	 1.002280155336052e+01
0	 6.285714285714283e+00	 8.142857142857139e+00	 1.001991573219747e+01
0	 6.285714285714283e+00	 8.285714285714281e+00	 1.001701228696563e+01
0	 6.285714285714283e+00	 8.428571428571425e+00	 1.001412661528132e+01
0	 6.285714285714284e+00	 8.571428571428573e+00	 1.001129411476086e+01
0	 6.428571428571426e+00	 7.142857142857143e+00	 1.003753360256179e+01
0	 6.428571428571425e+00	 7.285714285714286e+00	 1.003512926790434e+01
0	 6.428571428571425e+00	 7.428571428571427e+00	 1.003255522961842e+01
0	 6.428571428571423e+00	 7.571428571428568e+00	 1.002985189617038e+01
0	 6.428571428571425e+00	 7.714285714285712e+00	 1.002705967602658e+01
0	 6.428571428571423e+00	 7.857142857142853e+00	 1.002421897765338e+01
0	 6.428571428571426e+00	 7.999999999999998e+00	 1.002137020951713e+01
0	 6.428571428571425e+00	 8.142857142857139e+00	 1.001855378008418e+01
0	 6.428571428571427e+00	 8.285714285714283e+00	 1.001581009782088e+01
0	 6.428571428571428e+00	 8.428571428571427e+00	 1.001317957119360e+01
0	 6.428571428571426e+00	 8.571428571428571e+00	 1.001070260866869e+01
0	 6.571428571428570e+00	 7.142857142857145e+00	 1.003710111560886e+01
0	 6.571428571428570e+00	 7.285714285714286e+00	 1.003430048034217e+01
0	 6.571428571428569e+00	 7.428571428571429e+00	 1.003141295707540e+01
0	 6.571428571428567e+00	 7.571428571428569e+00	 1.002847976975096e+01
0	 6.571428571428569e+00	 7.714285714285713e+00	 1.002554214231121e+01
0	 6.571428571428569e+00	 7.857142857142857e+00	 1.002264129869857e+01
0	 6.571428571428569e+00	 7.999999999999997e+00	 1.001981846285542e+01
0	 6.571428571428569e+00	 8.142857142857141e+00	 1.001711485872416e+01
0	 6.571428571428568e+00	 8.285714285714283e+00	 1.001457171024719e+01
0	 6.571428571428569e+00	 8.428571428571427e+00	 1.001223024136691e+01
0	 6.571428571428569e+00	 8.571428571428573e+00	 1.001013167602568e+01
0	 6.714285714285710e+00	 7.142857142857142e+00	 1.003641791505627e+01
0	 6.714285714285709e+00	 7.285714285714283e+00	 1.003323429842841e+01
0	 6.714285714285710e+00	 7.428571428571426e+00	 1.003006153875919e+01
0	 6.714285714285710e+00	 7.571428571428570e+00	 1.002693748009307e+01
0	 6.714285714285711e+00	 7.714285714285714e+00	 1.002389996647447e+01
0	 6.714285714285713e+00	 7.857142857142857e+00	 1.002098684194789e+01
0	 6.714285714285711e+00	 7.999999999999998e+00	 1.001823595055778e+01
0	 6.714285714285713e+00	 8.142857142857144e+00	 1.001568513634858e+01
0	 6.714285714285711e+00	 8.285714285714285e+00	 1.001337224336478e+01
0	 6.714285714285712e+00	 8.428571428571423e+00	 1.001133511565081e+01
0	 6.714285714285710e+00	 8.571428571428571e+00	 1.000961159725114e+01
0	 6.857142857142851e+00	 7.142857142857142e+00	 1.003543526843992e+01
0	 6.857142857142853e+00	 7.285714285714285e+00	 1.003192400170598e+01
0	 6.857142857142853e+00	 7.428571428571427e+00	 1.002852868606000e+01
0	 6.857142857142852e+00	 7.571428571428570e+00	 1.002527959027451e+01
0	 6.857142857142852e+00	 7.714285714285713e+00	 1.002220698312209e+01
0	 6.857142857142852e+00	 7.857142857142855e+00	 1.001934113337527e+01
0	 6.857142857142853e+00	 7.999999999999997e+00	 1.001671230980659e+01
0	 6.857142857142852e+00	 8.142857142857139e+00	 1.001435078118861e+01
0	 6.857142857142854e+00	 8.285714285714283e+00	 1.001228681629387e+01
0	 6.857142857142852e+00	 8.428571428571423e+00	 1.001055068389490e+01
0	 6.857142857142853e+00	 8.571428571428571e+00	 1.000917265276427e+01
0	 6.999999999999996e+00	 7.142857142857144e+00	 1.003410444329572e+01
0	 6.999999999999996e+00	 7.285714285714287e+00	 1.003036286971778e+01
0	 6.999999999999996e+00	 7.428571428571429e+00	 1.002684211036803e+01
0	 6.999999999999994e+00	 7.571428571428568e+00	 1.002356066337317e+01
0	 6.999999999999995e+00	 7.714285714285713e+00	 1.002053702685981e+01
0	 6.999999999999996e+00	 7.857142857142856e+00	 1.001778969895464e+01
0	 6.999999999999996e+00	 7.999999999999998e+00	 1.001533717778428e+01
0	 6.999999999999996e+00	 8.142857142857141e+00	 1.001319796147542e+01
0	 6.999999999999995e+00	 8.285714285714285e+00	 1.001139054815470e+01
0	 6.999999999999995e+00	 8.428571428571423e+00	 1.000993343594878e+01
0	 6.999999999999996e+00	 8.571428571428571e+00	 1.000884512298431e+01
0	 7.142857142857141e+00	 7.142857142857141e+00	 1.003237670715955e+01
0	 7.142857142857145e+00	 7.285714285714286e+00	 1.002854418200673e+01
0	 7.142857142857143e+00	 7.428571428571429e+00	 1.002502952307356e+01
0	 7.142857142857142e+00	 7.571428571428569e+00	 1.002183526246684e+01
0	 7.142857142857141e+00	 7.714285714285711e+00	 1.001896393229336e+01
0	 7.142857142857142e+00	 7.857142857142855e+00	 1.001641806465988e+01
0	 7.142857142857145e+00	 7.999999999999999e+00	 1.001420019167323e+01
0	 7.142857142857144e+00	 8.142857142857142e+00	 1.001231284544017e+01
0	 7.142857142857144e+00	 8.285714285714283e+00	 1.001075855806751e+01
0	 7.142857142857144e+00	 8.428571428571423e+00	 1.000953986166202e+01
0	 7.142857142857144e+00	 8.571428571428573e+00	 1.000865928833051e+01
0	 5.714285714285715e+00	 8.571428571428573e+00	 1.001326026523687e+01
0	 5.714285714285717e+00	 8.714285714285719e+00	 1.000987127120138e+01
0	 5.714285714285715e+00	 8.857142857142859e+00	 1.000701671354487e+01
0	 5.714285714285714e+00	 9.000000000000002e+00	 1.000467201475733e+01
0	 5.714285714285715e+00	 9.142857142857141e+00	 1.000281259732875e+01
0	 5.714285714285716e+00	 9.285714285714286e+00	 1.000141388374914e+01
0	 5.714285714285714e+00	 9.428571428571429e+00	 1.000045129650844e+01
0	 5.714285714285715e+00	 9.571428571428571e+00	 9.999900258096694e+00
0	 5.714285714285714e+00	 9.714285714285712e+00	 9.999736191003841e+00
0	 5.714285714285714e+00	 9.857142857142856e+00	 9.999934517719842e+00
0	 5.714285714285714e+00	 1.000000000000000e+01	 1.000047066073481e+01
0	 5.857142857142859e+00	 8.571428571428573e+00	 1.001288926954026e+01
0	 5.857142857142855e+00	 8.714285714285712e+00	 1.000956308402142e+01
0	 5.857142857142859e+00	 8.857142857142861e+00	 1.000679899455526e+01
0	 5.857142857142858e+00	 9.000000000000000e+00	 1.000455650877879e+01
0	 5.857142857142857e+00	 9.142857142857141e+00	 1.000279513432912e+01
0	 5.857142857142856e+00	 9.285714285714283e+00	 1.000147437884327e+01
0	 5.857142857142856e+00	 9.428571428571427e+00	 1.000055374995829e+01
0	 5.857142857142858e+00	 9.571428571428571e+00	 9.999992755311219e+00
0	 5.857142857142858e+00	 9.714285714285715e+00	 9.999750902539105e+00
0	 5.857142857142857e+00	 9.857142857142852e+00	 9.999787699279047e+00
0	 5.857142857142858e+00	 1.000000000000000e+01	 1.000006265316798e+01
0	 5.999999999999999e+00	 8.571428571428569e+00	 1.001241772561589e+01
0	 5.999999999999999e+00	 8.714285714285714e+00	 1.000927179219122e+01
0	 5.999999999999998e+00	 8.857142857142859e+00	 1.000668106503504e+01
0	 5.999999999999998e+00	 9.000000000000000e+00	 1.000459277807245e+01
0	 5.999999999999997e+00	 9.142857142857142e+00	 1.000295416522852e+01
0	 6.000000000000001e+00	 9.285714285714283e+00	 1.000171246042836e+01
0	 5.999999999999998e+00	 9.428571428571425e+00	 1.000081489759707e+01
0	 6.000000000000001e+00	 9.571428571428571e+00	 1.000020871065973e+01
0	 6.000000000000001e+00	 9.714285714285712e+00	 9.999841133541487e+00
0	 5.999999999999997e+00	 9.857142857142851e+00	 9.999659400167324e+00
0	 5.999999999999999e+00	 1.000000000000000e+01	 9.999610744462455e+00
0	 6.142857142857141e+00	 8.571428571428571e+00	 1.001187591388302e+01
0	 6.142857142857141e+00	 8.714285714285715e+00	 1.000900066131378e+01
0	 6.142857142857141e+00	 8.857142857142859e+00	 1.000664514515884e+01
0	 6.142857142857140e+00	 8.999999999999998e+00	 1.000474796677233e+01
0	 6.142857142857141e+00	 9.142857142857139e+00	 1.000324772750836e+01
0	 6.142857142857142e+00	 9.285714285714283e+00	 1.000208302872107e+01
0	 6.142857142857139e+00	 9.428571428571425e+00	 1.000119247176455e+01
0	 6.142857142857141e+00	 9.571428571428568e+00	 1.000051465799301e+01
0	 6.142857142857141e+00	 9.714285714285710e+00	 9.999988188760501e+00
0	 6.142857142857142e+00	 9.857142857142854e+00	 9.999551665421210e+00
0	 6.142857142857141e+00	 1.000000000000000e+01	 9.999143689329179e+00
0	 6.285714285714284e+00	 8.571428571428573e+00	 1.001129411476087e+01
0	 6.285714285714282e+00	 8.714285714285715e+00	 1.000875295699207e+01
0	 6.285714285714284e+00	 8.857142857142859e+00	 1.000667345510124e+01
0	 6.285714285714283e+00	 9.000000000000000e+00	 1.000498921901252e+01
0	 6.285714285714284e+00	 9.142857142857142e+00	 1.000363385865008e+01
0	 6.285714285714283e+00	 9.285714285714285e+00	 1.000254098393804e+01
0	 6.285714285714284e+00	 9.428571428571429e+00	 1.000164420480055e+01
0	 6.285714285714284e+00	 9.571428571428569e+00	 1.000087713116177e+01
0	 6.285714285714282e+00	 9.714285714285708e+00	 1.000017337294584e+01
0	 6.285714285714285e+00	 9.857142857142852e+00	 9.999466540076941e+00
0	 6.285714285714284e+00	 1.000000000000000e+01	 9.998690242479160e+00
0	 6.428571428571426e+00	 8.571428571428571e+00	 1.001070260866869e+01
0	 6.428571428571426e+00	 8.714285714285715e+00	 1.000853194482903e+01
0	 6.428571428571425e+00	 8.857142857142858e+00	 1.000674821503679e+01
0	 6.428571428571424e+00	 8.999999999999998e+00	 1.000528367892708e+01
0	 6.428571428571426e+00	 9.142857142857142e+00	 1.000407059613509e+01
0	 6.428571428571426e+00	 9.285714285714281e+00	 1.000304122629594e+01
0	 6.428571428571426e+00	 9.428571428571429e+00	 1.000212782904481e+01
0	 6.428571428571425e+00	 9.571428571428571e+00	 1.000126266401682e+01
0	 6.428571428571427e+00	 9.714285714285712e+00	 1.000037799084715e+01
0	 6.428571428571426e+00	 9.857142857142854e+00	 9.999406069170945e+00
0	 6.428571428571426e+00	 1.000000000000000e+01	 9.998279158623284e+00
0	 6.571428571428569e+00	 8.571428571428573e+00	 1.001013167602568e+01
0	 6.571428571428568e+00	 8.714285714285715e+00	 1.000834089042765e+01
0	 6.571428571428569e+00	 8.857142857142858e+00	 1.000685164514008e+01
0	 6.571428571428569e+00	 9.000000000000000e+00	 1.000559849065009e+01
0	 6.571428571428568e+00	 9.142857142857142e+00	 1.000451597744483e+01
0	 6.571428571428569e+00	 9.285714285714285e+00	 1.000353865601146e+01
0	 6.571428571428569e+00	 9.428571428571427e+00	 1.000260107683710e+01
0	 6.571428571428568e+00	 9.571428571428566e+00	 1.000163779040889e+01
0	 6.571428571428569e+00	 9.714285714285714e+00	 1.000058334721401e+01
0	 6.571428571428569e+00	 9.857142857142854e+00	 9.999372297739521e+00
0	 6.571428571428569e+00	 1.000000000000000e+01	 9.997939192472673e+00
0	 6.714285714285710e+00	 8.571428571428571e+00	 1.000961159725114e+01
0	 6.714285714285712e+00	 8.714285714285717e+00	 1.000818305939091e+01
0	 6.714285714285711e+00	 8.857142857142856e+00	 1.000696596558568e+01
0	 6.714285714285710e+00	 9.000000000000000e+00	 1.000590079831558e+01
0	 6.714285714285712e+00	 9.142857142857144e+00	 1.000492804006072e+01
0	 6.714285714285711e+00	 9.285714285714285e+00	 1.000398817330122e+01
0	 6.714285714285709e+00	 9.428571428571425e+00	 1.000302168051720e+01
0	 6.714285714285712e+00	 9.571428571428569e+00	 1.000196904418875e+01
0	 6.714285714285710e+00	 9.714285714285708e+00	 1.000077074679604e+01
0	 6.714285714285714e+00	 9.857142857142854e+00	 9.999367270819189e+00
0	 6.714285714285712e+00	 1.000000000000000e+01	 9.997699098738252e+00
0	 6.857142857142853e+00	 8.571428571428571e+00	 1.000917265276428e+01
0	 6.857142857142852e+00	 8.714285714285715e+00	 1.000806171732175e+01
0	 6.857142857142852e+00	 8.857142857142858e+00	 1.000707339654819e+01
0	 6.857142857142851e+00	 8.999999999999998e+00	 1.000615774605764e+01
0	 6.857142857142853e+00	 9.142857142857142e+00	 1.000526482146418e+01
0	 6.857142857142852e+00	 9.285714285714286e+00	 1.000434467838190e+01
0	 6.857142857142854e+00	 9.428571428571425e+00	 1.000334737242489e+01
0	 6.857142857142853e+00	 9.571428571428569e+00	 1.000222295920720e+01
0	 6.857142857142852e+00	 9.714285714285712e+00	 1.000092149434295e+01
0	 6.857142857142853e+00	 9.857142857142854e+00	 9.999393033446193e+00
0	 6.857142857142853e+00	 1.000000000000000e+01	 9.997587632131017e+00
0	 6.999999999999996e+00	 8.571428571428571e+00	 1.000884512298431e+01
0	 6.999999999999996e+00	 8.714285714285714e+00	 1.000798012982317e+01
0	 6.999999999999996e+00	 8.857142857142858e+00	 1.000715615820218e+01
0	 6.999999999999996e+00	 9.000000000000002e+00	 1.000633647801032e+01
0	 6.999999999999996e+00	 9.142857142857141e+00	 1.000548435913664e+01
0	 6.999999999999996e+00	 9.285714285714285e+00	 1.000456307147017e+01
0	 6.999999999999996e+00	 9.428571428571427e+00	 1.000353588489993e+01
0	 6.999999999999996e+00	 9.571428571428571e+00	 1.000236606931498e+01
0	 6.999999999999996e+00	 9.714285714285710e+00	 1.000101689460428e+01
0	 6.999999999999996e+00	 9.857142857142854e+00	 9.999451630656910e+00
0	 6.999999999999996e+00	 1.000000000000000e+01	 9.997633547361950e+00
0	 7.142857142857144e+00	 8.571428571428573e+00	 1.000865928833051e+01
0	 7.142857142857144e+00	 8.714285714285715e+00	 1.000794156249814e+01
0	 7.142857142857146e+00	 8.857142857142861e+00	 1.000719647072221e+01
0	 7.142857142857145e+00	 9.000000000000004e+00	 1.000640413830768e+01
0	 7.142857142857142e+00	 9.142857142857141e+00	 1.000554469055952e+01
0	 7.142857142857142e+00	 9.285714285714285e+00	 1.000459825278267e+01
0	 7.142857142857143e+00	 9.428571428571427e+00	 1.000354495028213e+01
0	 7.142857142857144e+00	 9.571428571428569e+00	 1.000236490836284e+01
0	 7.142857142857144e+00	 9.714285714285712e+00	 1.000103825232974e+01
0	 7.142857142857143e+00	 9.857142857142854e+00	 9.999545107487839e+00
0	 7.142857142857143e+00	 1.000000000000000e+01	 9.997865599142004e+00
0	 7.142857142857143e+00	 0.000000000000000e+00	 1.002511165348637e+01
0	 7.142857142857143e+00	 1.428571428571429e-01	 1.004088110493844e+01
0	 7.142857142857143e+00	 2.857142857142858e-01	 1.005458272169000e+01
0	 7.142857142857144e+00	 4.285714285714288e-01	 1.006614202309967e+01
0	 7.142857142857143e+00	 5.714285714285716e-01	 1.007548452852608e+01
0	 7.142857142857143e+00	 7.142857142857143e-01	 1.008253575732785e+01
0	 7.142857142857145e+00	 8.571428571428575e-01	 1.008722122886360e+01
0	 7.142857142857145e+00	 1.000000000000000e+00	 1.008946646249197e+01
0	 7.142857142857146e+00	 1.142857142857143e+00	 1.008919697757157e+01
0	 7.142857142857143e+00	 1.285714285714286e+00	 1.008633829346104e+01
0	 7.142857142857141e+00	 1.428571428571429e+00	 1.008081592951899e+01
0	 7.285714285714286e+00	 0.000000000000000e+00	 1.000531088045528e+01
0	 7.285714285714286e+00	 1.428571428571429e-01	 1.002419401440367e+01
0	 7.285714285714286e+00	 2.857142857142858e-01	 1.004047804775379e+01
0	 7.285714285714286e+00	 4.285714285714287e-01	 1.005411629034603e+01
0	 7.285714285714286e+00	 5.714285714285715e-01	 1.006506205202081e+01
0	 7.285714285714283e+00	 7.142857142857141e-01	 1.007326864261853e+01
0	 7.285714285714284e+00	 8.571428571428571e-01	 1.007868937197961e+01
0	 7.285714285714286e+00	 1.000000000000000e+00	 1.008127754994444e+01
0	 7.285714285714284e+00	 1.142857142857143e+00	 1.008098648635345e+01
0	 7.285714285714288e+00	 1.285714285714286e+00	 1.007776949104703e+01
0	 7.285714285714286e+00	 1.428571428571429e+00	 1.007157987386560e+01
0	 7.428571428571429e+00	 0.000000000000000e+00	 9.993502205683756e+00
0	 7.428571428571427e+00	 1.428571428571429e-01	 1.001275906149800e+01
0	 7.428571428571427e+00	 2.857142857142857e-01	 1.002931042873159e+01
0	 7.428571428571430e+00	 4.285714285714288e-01	 1.004313391506144e+01
0	 7.428571428571428e+00	 5.714285714285715e-01	 1.005420712816443e+01
0	 7.428571428571428e+00	 7.142857142857144e-01	 1.006250767571746e+01
0	 7.428571428571428e+00	 8.571428571428575e-01	 1.006801316539741e+01
0	 7.428571428571430e+00	 1.000000000000000e+00	 1.007070120488116e+01
0	 7.428571428571428e+00	 1.142857142857143e+00	 1.007054940184563e+01
0	 7.428571428571428e+00	 1.285714285714287e+00	 1.006753536396769e+01
0	 7.428571428571429e+00	 1.428571428571429e+00	 1.006163669892423e+01
0	 7.571428571428570e+00	 0.000000000000000e+00	 9.988235761705786e+00
0	 7.571428571428570e+00	 1.428571428571429e-01	 1.000567622451229e+01
0	 7.571428571428570e+00	 2.857142857142858e-01	 1.002064520540205e+01
0	 7.571428571428572e+00	 4.285714285714288e-01	 1.003314111724314e+01
0	 7.571428571428569e+00	 5.714285714285714e-01	 1.004316237290363e+01
0	 7.571428571428572e+00	 7.142857142857145e-01	 1.005070738525159e+01
0	 7.571428571428571e+00	 8.571428571428575e-01	 1.005577456715509e+01
0	 7.571428571428571e+00	 1.000000000000000e+00	 1.005836233148221e+01
0	 7.571428571428574e+00	 1.142857142857144e+00	 1.005846909110101e+01
0	 7.571428571428571e+00	 1.285714285714286e+00	 1.005609325887956e+01
0	 7.571428571428570e+00	 1.428571428571429e+00	 1.005123324768594e+01
0	 7.714285714285714e+00	 0.000000000000000e+00	 9.988061681055342e+00
0	 7.714285714285712e+00	 1.428571428571429e-01	 1.000204548173744e+01
0	 7.714285714285714e+00	 2.857142857142858e-01	 1.001404771854381e+01
0	 7.714285714285714e+00	 4.285714285714287e-01	 1.002408411688837e+01
0	 7.714285714285714e+00	 5.714285714285715e-01	 1.003217040218508e+01
0	 7.714285714285713e+00	 7.142857142857144e-01	 1.003832229984789e+01
0	 7.714285714285713e+00	 8.571428571428575e-01	 1.004255553529076e+01
0	 7.714285714285715e+00	 1.000000000000000e+00	 1.004488583392763e+01
0	 7.714285714285713e+00	 1.142857142857143e+00	 1.004532892117246e+01
0	 7.714285714285714e+00	 1.285714285714286e+00	 1.004390052243919e+01
0	 7.714285714285714e+00	 1.428571428571429e+00	 1.004061636314178e+01
0	 7.857142857142854e+00	 0.000000000000000e+00	 9.991530096266386e+00
0	 7.857142857142857e+00	 1.428571428571429e-01	 1.000096681146434e+01
0	 7.857142857142857e+00	 2.857142857142858e-01	 1.000908330893548e+01
0	 7.857142857142855e+00	 4.285714285714288e-01	 1.001590913399433e+01
0	 7.857142857142858e+00	 5.714285714285715e-01	 1.002147383195544e+01
0	 7.857142857142855e+00	 7.142857142857144e-01	 1.002580694813331e+01
0	 7.857142857142858e+00	 8.571428571428574e-01	 1.002893802784249e+01
0	 7.857142857142855e+00	 1.000000000000000e+00	 1.003089661639749e+01
0	 7.857142857142856e+00	 1.142857142857143e+00	 1.003171225911286e+01
0	 7.857142857142857e+00	 1.285714285714286e+00	 1.003141450130311e+01
0	 7.857142857142856e+00	 1.428571428571429e+00	 1.003003288828279e+01
0	 7.999999999999997e+00	 0.000000000000000e+00	 9.997191139872900e+00
0	 7.999999999999997e+00	 1.428571428571429e-01	 1.000154019198385e+01
0	 7.999999999999996e+00	 2.857142857142858e-01	 1.000531731735571e+01
0	 7.999999999999998e+00	 4.285714285714287e-01	 1.000856238855829e+01
0	 7.999999999999997e+00	 5.714285714285714e-01	 1.001131527816138e+01
0	 7.999999999999996e+00	 7.142857142857142e-01	 1.001361585873481e+01
0	 7.999999999999996e+00	 8.571428571428574e-01	 1.001550400284837e+01
0	 7.999999999999996e+00	 1.000000000000000e+00	 1.001701958307185e+01
0	 7.999999999999996e+00	 1.142857142857143e+00	 1.001820247197510e+01
0	 7.999999999999997e+00	 1.285714285714286e+00	 1.001909254212788e+01
0	 8.000000000000000e+00	 1.428571428571429e+00	 1.001972966610002e+01
0	 8.142857142857141e+00	 0.000000000000000e+00	 1.000359494440886e+01
0	 8.142857142857139e+00	 1.428571428571429e-01	 1.000286560158686e+01
0	 8.142857142857141e+00	 2.857142857142856e-01	 1.000231508458314e+01
0	 8.142857142857141e+00	 4.285714285714287e-01	 1.000199010057745e+01
0	 8.142857142857139e+00	 5.714285714285714e-01	 1.000193735674960e+01
0	 8.142857142857139e+00	 7.142857142857143e-01	 1.000220356027934e+01
0	 8.142857142857141e+00	 8.571428571428575e-01	 1.000283541834647e+01
0	 8.142857142857142e+00	 1.000000000000000e+00	 1.000387963813077e+01
0	 8.142857142857141e+00	 1.142857142857143e+00	 1.000538292681204e+01
0	 8.142857142857141e+00	 1.285714285714286e+00	 1.000739199157004e+01
0	 8.142857142857141e+00	 1.428571428571428e+00	 1.000995353958453e+01
0	 8.285714285714283e+00	 0.000000000000000e+00	 1.000929164240823e+01
0	 8.285714285714283e+00	 1.428571428571429e-01	 1.000404301856426e+01
0	 8.285714285714281e+00	 2.857142857142858e-01	 9.999641951396383e+00
0	 8.285714285714283e+00	 4.285714285714287e-01	 9.996138490049054e+00
0	 8.285714285714283e+00	 5.714285714285716e-01	 9.993582683666725e+00
0	 8.285714285714285e+00	 7.142857142857144e-01	 9.992024581393871e+00
0	 8.285714285714285e+00	 8.571428571428573e-01	 9.991514232374916e+00
0	 8.285714285714281e+00	 1.000000000000000e+00	 9.992101685754335e+00
0	 8.285714285714283e+00	 1.142857142857143e+00	 9.993836990676584e+00
0	 8.285714285714281e+00	 1.285714285714286e+00	 9.996770196286112e+00
0	 8.285714285714283e+00	 1.428571428571429e+00	 1.000095135172738e+01
0	 8.428571428571425e+00	 0.000000000000000e+00	 1.001283136640500e+01
0	 8.428571428571427e+00	 1.428571428571429e-01	 1.000417242120693e+01
0	 8.428571428571425e+00	 2.857142857142858e-01	 9.996863258574097e+00
0	 8.428571428571427e+00	 4.285714285714288e-01	 9.990953776970333e+00
0	 8.428571428571425e+00	 5.714285714285715e-01	 9.986493874859471e+00
0	 8.428571428571423e+00	 7.142857142857144e-01	 9.983533450705334e+00
0	 8.428571428571425e+00	 8.571428571428575e-01	 9.982122402971759e+00
0	 8.428571428571425e+00	 1.000000000000000e+00	 9.982310630122576e+00
0	 8.428571428571425e+00	 1.142857142857143e+00	 9.984148030621594e+00
0	 8.428571428571425e+00	 1.285714285714286e+00	 9.987684502932661e+00
0	 8.428571428571427e+00	 1.428571428571429e+00	 9.992969945519604e+00
0	 8.571428571428573e+00	 0.000000000000000e+00	 1.001276424893313e+01
0	 8.571428571428571e+00	 1.428571428571429e-01	 1.000235378780573e+01
0	 8.571428571428571e+00	 2.857142857142858e-01	 9.993544346894899e+00
0	 8.571428571428571e+00	 4.285714285714288e-01	 9.986382181338513e+00
0	 8.571428571428573e+00	 5.714285714285715e-01	 9.980913546274490e+00
0	 8.571428571428573e+00	 7.142857142857143e-01	 9.977184696840714e+00
0	 8.571428571428571e+00	 8.571428571428574e-01	 9.975241888175107e+00
0	 8.571428571428573e+00	 1.000000000000000e+00	 9.975131375415554e+00
0	 8.571428571428571e+00	 1.142857142857143e+00	 9.976899413699957e+00
0	 8.571428571428575e+00	 1.285714285714286e+00	 9.980592258166219e+00
0	 8.571428571428575e+00	 1.428571428571429e+00	 9.986256163952248e+00
0	 7.142857142857141e+00	 1.428571428571429e+00	 1.008081592951899e+01
0	 7.142857142857145e+00	 1.571428571428572e+00	 1.007442059046015e+01
0	 7.142857142857146e+00	 1.714285714285715e+00	 1.006904038370723e+01
0	 7.142857142857142e+00	 1.857142857142857e+00	 1.006474693268079e+01
0	 7.142857142857144e+00	 2.000000000000001e+00	 1.006161186080140e+01
0	 7.142857142857144e+00	 2.142857142857144e+00	 1.005970679148964e+01
0	 7.142857142857144e+00	 2.285714285714286e+00	 1.005910334816607e+01
0	 7.142857142857144e+00	 2.428571428571429e+00	 1.005987315425125e+01
0	 7.142857142857141e+00	 2.571428571428572e+00	 1.006208783316578e+01
0	 7.142857142857143e+00	 2.714285714285714e+00	 1.006581900833020e+01
0	 7.142857142857142e+00	 2.857142857142857e+00	 1.007113830316509e+01
0	 7.285714285714286e+00	 1.428571428571429e+00	 1.007157987386560e+01
0	 7.285714285714286e+00	 1.571428571428572e+00	 1.006452578444133e+01
0	 7.285714285714285e+00	 1.714285714285715e+00	 1.005877470830685e+01
0	 7.285714285714286e+00	 1.857142857142858e+00	 1.005436895915328e+01
0	 7.285714285714286e+00	 2.000000000000001e+00	 1.005135085067173e+01
0	 7.285714285714284e+00	 2.142857142857142e+00	 1.004976269655329e+01
0	 7.285714285714286e+00	 2.285714285714286e+00	 1.004964681048907e+01
0	 7.285714285714286e+00	 2.428571428571429e+00	 1.005104550617019e+01
0	 7.285714285714288e+00	 2.571428571428573e+00	 1.005400109728774e+01
0	 7.285714285714287e+00	 2.714285714285715e+00	 1.005855589753282e+01
0	 7.285714285714285e+00	 2.857142857142858e+00	 1.006475222059656e+01
0	 7.428571428571429e+00	 1.428571428571429e+00	 1.006163669892423e+01
0	 7.428571428571430e+00	 1.571428571428572e+00	 1.005496929521640e+01
0	 7.428571428571427e+00	 1.714285714285714e+00	 1.004967583921965e+01
0	 7.428571428571429e+00	 1.857142857142858e+00	 1.004577413542239e+01
0	 7.428571428571427e+00	 2.000000000000000e+00	 1.004328198831302e+01
0	 7.428571428571430e+00	 2.142857142857145e+00	 1.004221720237994e+01
0	 7.428571428571428e+00	 2.285714285714286e+00	 1.004259758211153e+01
0	 7.428571428571427e+00	 2.428571428571429e+00	 1.004444093199618e+01
0	 7.428571428571430e+00	 2.571428571428572e+00	 1.004776505652231e+01
0	 7.428571428571431e+00	 2.714285714285716e+00	 1.005258776017830e+01
0	 7.428571428571429e+00	 2.857142857142857e+00	 1.005892684745256e+01
0	 7.571428571428570e+00	 1.428571428571429e+00	 1.005123324768594e+01
0	 7.571428571428572e+00	 1.571428571428572e+00	 1.004576639270512e+01
0	 7.571428571428572e+00	 1.714285714285715e+00	 1.004156981775166e+01
0	 7.571428571428569e+00	 1.857142857142857e+00	 1.003864161863800e+01
0	 7.571428571428570e+00	 2.000000000000000e+00	 1.003697989117657e+01
0	 7.571428571428570e+00	 2.142857142857143e+00	 1.003658273117981e+01
0	 7.571428571428569e+00	 2.285714285714286e+00	 1.003744823446018e+01
0	 7.571428571428570e+00	 2.428571428571429e+00	 1.003957449683009e+01
0	 7.571428571428570e+00	 2.571428571428573e+00	 1.004295961410200e+01
0	 7.571428571428572e+00	 2.714285714285715e+00	 1.004760168208835e+01
0	 7.571428571428570e+00	 2.857142857142857e+00	 1.005349879660157e+01
0	 7.714285714285714e+00	 1.428571428571429e+00	 1.004061636314178e+01
0	 7.714285714285714e+00	 1.571428571428572e+00	 1.003693234682727e+01
0	 7.714285714285714e+00	 1.714285714285715e+00	 1.003428268520892e+01
0	 7.714285714285712e+00	 1.857142857142857e+00	 1.003265056594996e+01
0	 7.714285714285714e+00	 2.000000000000001e+00	 1.003201917671363e+01
0	 7.714285714285714e+00	 2.142857142857144e+00	 1.003237170516316e+01
0	 7.714285714285713e+00	 2.285714285714286e+00	 1.003369133896180e+01
0	 7.714285714285715e+00	 2.428571428571429e+00	 1.003596126577276e+01
0	 7.714285714285714e+00	 2.571428571428573e+00	 1.003916467325931e+01
0	 7.714285714285713e+00	 2.714285714285714e+00	 1.004328474908467e+01
0	 7.714285714285715e+00	 2.857142857142857e+00	 1.004830468091208e+01
0	 7.857142857142856e+00	 1.428571428571429e+00	 1.003003288828279e+01
0	 7.857142857142854e+00	 1.571428571428571e+00	 1.002848242750260e+01
0	 7.857142857142856e+00	 1.714285714285714e+00	 1.002764048289747e+01
0	 7.857142857142858e+00	 1.857142857142858e+00	 1.002748013450817e+01
0	 7.857142857142858e+00	 2.000000000000001e+00	 1.002797446237548e+01
0	 7.857142857142854e+00	 2.142857142857143e+00	 1.002909654654021e+01
0	 7.857142857142856e+00	 2.285714285714286e+00	 1.003081946704313e+01
0	 7.857142857142858e+00	 2.428571428571429e+00	 1.003311630392504e+01
0	 7.857142857142857e+00	 2.571428571428573e+00	 1.003596013722673e+01
0	 7.857142857142855e+00	 2.714285714285715e+00	 1.003932404698897e+01
0	 7.857142857142854e+00	 2.857142857142858e+00	 1.004318111325256e+01
0	 8.000000000000000e+00	 1.428571428571429e+00	 1.001972966610002e+01
0	 7.999999999999995e+00	 1.571428571428571e+00	 1.002043190465088e+01
0	 7.999999999999997e+00	 1.714285714285715e+00	 1.002146925212334e+01
0	 7.999999999999998e+00	 1.857142857142858e+00	 1.002280948146247e+01
0	 8.000000000000000e+00	 2.000000000000001e+00	 1.002442036561339e+01
0	 7.999999999999997e+00	 2.142857142857143e+00	 1.002626967752119e+01
0	 7.999999999999999e+00	 2.285714285714287e+00	 1.002832519013095e+01
0	 7.999999999999996e+00	 2.428571428571429e+00	 1.003055467638778e+01
0	 7.999999999999999e+00	 2.571428571428573e+00	 1.003292590923675e+01
0	 7.999999999999998e+00	 2.714285714285715e+00	 1.003540666162296e+01
0	 7.999999999999997e+00	 2.857142857142858e+00	 1.003796470649151e+01
0	 8.142857142857141e+00	 1.428571428571428e+00	 1.000995353958453e+01
0	 8.142857142857142e+00	 1.571428571428572e+00	 1.001279604819186e+01
0	 8.142857142857141e+00	 1.714285714285715e+00	 1.001559503419255e+01
0	 8.142857142857141e+00	 1.857142857142857e+00	 1.001831776396277e+01
0	 8.142857142857141e+00	 2.000000000000000e+00	 1.002093150387864e+01
0	 8.142857142857141e+00	 2.142857142857144e+00	 1.002340352031635e+01
0	 8.142857142857142e+00	 2.285714285714286e+00	 1.002570107965202e+01
0	 8.142857142857139e+00	 2.428571428571429e+00	 1.002779144826181e+01
0	 8.142857142857142e+00	 2.571428571428572e+00	 1.002964189252187e+01
0	 8.142857142857141e+00	 2.714285714285715e+00	 1.003121967880837e+01
0	 8.142857142857142e+00	 2.857142857142857e+00	 1.003249207349742e+01
0	 8.285714285714283e+00	 1.428571428571429e+00	 1.000095135172738e+01
0	 8.285714285714281e+00	 1.571428571428571e+00	 1.000559012804531e+01
0	 8.285714285714283e+00	 1.714285714285715e+00	 1.000984387041116e+01
0	 8.285714285714285e+00	 1.857142857142858e+00	 1.001368413915891e+01
0	 8.285714285714283e+00	 2.000000000000000e+00	 1.001708249462250e+01
0	 8.285714285714285e+00	 2.142857142857143e+00	 1.002001049713590e+01
0	 8.285714285714285e+00	 2.285714285714286e+00	 1.002243970703308e+01
0	 8.285714285714285e+00	 2.428571428571430e+00	 1.002434168464799e+01
0	 8.285714285714283e+00	 2.571428571428572e+00	 1.002568799031460e+01
0	 8.285714285714281e+00	 2.714285714285715e+00	 1.002645018436687e+01
0	 8.285714285714283e+00	 2.857142857142858e+00	 1.002659982713877e+01
0	 8.428571428571427e+00	 1.428571428571429e+00	 9.992969945519604e+00
0	 8.428571428571427e+00	 1.571428571428572e+00	 9.998829414130986e+00
0	 8.428571428571425e+00	 1.714285714285715e+00	 1.000404180208520e+01
0	 8.428571428571425e+00	 1.857142857142858e+00	 1.000858776420078e+01
0	 8.428571428571425e+00	 2.000000000000000e+00	 1.001244795529623e+01
0	 8.428571428571425e+00	 2.142857142857143e+00	 1.001560303019010e+01
0	 8.428571428571427e+00	 2.285714285714287e+00	 1.001803364370090e+01
0	 8.428571428571423e+00	 2.428571428571429e+00	 1.001972045064716e+01
0	 8.428571428571425e+00	 2.571428571428572e+00	 1.002064410584742e+01
0	 8.428571428571429e+00	 2.714285714285715e+00	 1.002078526412020e+01
0	 8.428571428571423e+00	 2.857142857142857e+00	 1.002012458028403e+01
0	 8.571428571428575e+00	 1.428571428571429e+00	 9.986256163952248e+00
0	 8.571428571428573e+00	 1.571428571428572e+00	 9.992529176368658e+00
0	 8.571428571428573e+00	 1.714285714285715e+00	 9.998014870520707e+00
0	 8.571428571428573e+00	 1.857142857142857e+00	 1.000270779623825e+01
0	 8.571428571428573e+00	 2.000000000000000e+00	 1.000660250335111e+01
0	 8.571428571428571e+00	 2.142857142857143e+00	 1.000969354168915e+01
0	 8.571428571428573e+00	 2.285714285714286e+00	 1.001197546108223e+01
0	 8.571428571428573e+00	 2.428571428571429e+00	 1.001344281136017e+01
0	 8.571428571428575e+00	 2.571428571428573e+00	 1.001409014235283e+01
0	 8.571428571428571e+00	 2.714285714285715e+00	 1.001391200389007e+01
0	 8.571428571428575e+00	 2.857142857142857e+00	 1.001290294580171e+01
0	 7.142857142857142e+00	 2.857142857142857e+00	 1.007113830316509e+01
0	 7.142857142857145e+00	 3.000000000000001e+00	 1.007684343978944e+01
0	 7.142857142857145e+00	 3.142857142857144e+00	 1.008164560205150e+01
0	 7.142857142857144e+00	 3.285714285714286e+00	 1.008548660596563e+01
0	 7.142857142857141e+00	 3.428571428571427e+00	 1.008830826754624e+01
0	 7.142857142857146e+00	 3.571428571428572e+00	 1.009005240280773e+01
0	 7.142857142857143e+00	 3.714285714285715e+00	 1.009066082776447e+01
0	 7.142857142857142e+00	 3.857142857142857e+00	 1.009007535843087e+01
0	 7.142857142857143e+00	 4.000000000000001e+00	 1.008823781082132e+01
0	 7.142857142857144e+00	 4.142857142857144e+00	 1.008509000095021e+01
0	 7.142857142857142e+00	 4.285714285714285e+00	 1.008057374483193e+01
0	 7.285714285714285e+00	 2.857142857142858e+00	 1.006475222059656e+01
0	 7.285714285714287e+00	 3.000000000000000e+00	 1.007119647676210e+01
0	 7.285714285714285e+00	 3.142857142857142e+00	 1.007645594433246e+01
0	 7.285714285714287e+00	 3.285714285714286e+00	 1.008051423902852e+01
0	 7.285714285714286e+00	 3.428571428571429e+00	 1.008335497657120e+01
0	 7.285714285714287e+00	 3.571428571428572e+00	 1.008496177268137e+01
0	 7.285714285714285e+00	 3.714285714285714e+00	 1.008531824307992e+01
0	 7.285714285714286e+00	 3.857142857142857e+00	 1.008440800348775e+01
0	 7.285714285714288e+00	 4.000000000000002e+00	 1.008221466962575e+01
0	 7.285714285714286e+00	 4.142857142857143e+00	 1.007872185721481e+01
0	 7.285714285714283e+00	 4.285714285714285e+00	 1.007391318197583e+01
0	 7.428571428571429e+00	 2.857142857142857e+00	 1.005892684745256e+01
0	 7.428571428571429e+00	 3.000000000000000e+00	 1.006537339008415e+01
0	 7.428571428571429e+00	 3.142857142857143e+00	 1.007051852252367e+01
0	 7.428571428571429e+00	 3.285714285714286e+00	 1.007438014332684e+01
0	 7.428571428571426e+00	 3.428571428571427e+00	 1.007697615104935e+01
0	 7.428571428571428e+00	 3.571428571428572e+00	 1.007832444424693e+01
0	 7.428571428571426e+00	 3.714285714285714e+00	 1.007844292147525e+01
0	 7.428571428571427e+00	 3.857142857142857e+00	 1.007734948129003e+01
0	 7.428571428571430e+00	 4.000000000000002e+00	 1.007506202224699e+01
0	 7.428571428571429e+00	 4.142857142857145e+00	 1.007159844290179e+01
0	 7.428571428571429e+00	 4.285714285714286e+00	 1.006697664181017e+01
0	 7.571428571428570e+00	 2.857142857142857e+00	 1.005349879660157e+01
0	 7.571428571428573e+00	 3.000000000000001e+00	 1.005936747975137e+01
0	 7.571428571428569e+00	 3.142857142857143e+00	 1.006395529945173e+01
0	 7.571428571428574e+00	 3.285714285714286e+00	 1.006730692022146e+01
0	 7.571428571428569e+00	 3.428571428571428e+00	 1.006946700657941e+01
0	 7.571428571428570e+00	 3.571428571428573e+00	 1.007048022304439e+01
0	 7.571428571428570e+00	 3.714285714285714e+00	 1.007039123413524e+01
0	 7.571428571428570e+00	 3.857142857142857e+00	 1.006924470437079e+01
0	 7.571428571428572e+00	 4.000000000000001e+00	 1.006708529826986e+01
0	 7.571428571428570e+00	 4.142857142857141e+00	 1.006395768035128e+01
0	 7.571428571428570e+00	 4.285714285714286e+00	 1.005990651513389e+01
0	 7.714285714285715e+00	 2.857142857142857e+00	 1.004830468091208e+01
0	 7.714285714285714e+00	 3.000000000000000e+00	 1.005317204575956e+01
0	 7.714285714285712e+00	 3.142857142857142e+00	 1.005688823794321e+01
0	 7.714285714285714e+00	 3.285714285714286e+00	 1.005951717107328e+01
0	 7.714285714285715e+00	 3.428571428571429e+00	 1.006112275876004e+01
0	 7.714285714285714e+00	 3.571428571428572e+00	 1.006176891461374e+01
0	 7.714285714285714e+00	 3.714285714285714e+00	 1.006151955224466e+01
0	 7.714285714285714e+00	 3.857142857142858e+00	 1.006043858526308e+01
0	 7.714285714285714e+00	 4.000000000000001e+00	 1.005858992727924e+01
0	 7.714285714285714e+00	 4.142857142857143e+00	 1.005603749190341e+01
0	 7.714285714285714e+00	 4.285714285714286e+00	 1.005284519274588e+01
0	 7.857142857142854e+00	 2.857142857142858e+00	 1.004318111325256e+01
0	 7.857142857142857e+00	 3.000000000000000e+00	 1.004678038810453e+01
0	 7.857142857142856e+00	 3.142857142857142e+00	 1.004943930082474e+01
0	 7.857142857142856e+00	 3.285714285714286e+00	 1.005123349724321e+01
0	 7.857142857142857e+00	 3.428571428571429e+00	 1.005223862318994e+01
0	 7.857142857142855e+00	 3.571428571428571e+00	 1.005253032449496e+01
0	 7.857142857142856e+00	 3.714285714285715e+00	 1.005218424698830e+01
0	 7.857142857142856e+00	 3.857142857142858e+00	 1.005127603649995e+01
0	 7.857142857142855e+00	 4.000000000000000e+00	 1.004988133885995e+01
0	 7.857142857142853e+00	 4.142857142857142e+00	 1.004807579989832e+01
0	 7.857142857142855e+00	 4.285714285714286e+00	 1.004593506544506e+01
0	 7.999999999999997e+00	 2.857142857142858e+00	 1.003796470649151e+01
0	 7.999999999999997e+00	 3.000000000000000e+00	 1.004018580678206e+01
0	 7.999999999999997e+00	 3.142857142857143e+00	 1.004173045092289e+01
0	 7.999999999999998e+00	 3.285714285714286e+00	 1.004267850009211e+01
0	 8.000000000000002e+00	 3.428571428571430e+00	 1.004310981546780e+01
0	 7.999999999999997e+00	 3.571428571428572e+00	 1.004310425822803e+01
0	 7.999999999999999e+00	 3.714285714285715e+00	 1.004274168955090e+01
0	 7.999999999999997e+00	 3.857142857142857e+00	 1.004210197061448e+01
0	 7.999999999999999e+00	 4.000000000000001e+00	 1.004126496259685e+01
0	 7.999999999999997e+00	 4.142857142857143e+00	 1.004031052667611e+01
0	 7.999999999999997e+00	 4.285714285714286e+00	 1.003931852403032e+01
0	 8.142857142857142e+00	 2.857142857142857e+00	 1.003249207349742e+01
0	 8.142857142857141e+00	 3.000000000000000e+00	 1.003338160178792e+01
0	 8.142857142857141e+00	 3.142857142857143e+00	 1.003388365106426e+01
0	 8.142857142857142e+00	 3.285714285714286e+00	 1.003407478098090e+01
0	 8.142857142857144e+00	 3.428571428571430e+00	 1.003403155119231e+01
0	 8.142857142857142e+00	 3.571428571428572e+00	 1.003383052135294e+01
0	 8.142857142857141e+00	 3.714285714285714e+00	 1.003354825111726e+01
0	 8.142857142857142e+00	 3.857142857142858e+00	 1.003326130013973e+01
0	 8.142857142857144e+00	 4.000000000000002e+00	 1.003304622807479e+01
0	 8.142857142857139e+00	 4.142857142857143e+00	 1.003297959457693e+01
0	 8.142857142857141e+00	 4.285714285714286e+00	 1.003313795930059e+01
0	 8.285714285714283e+00	 2.857142857142858e+00	 1.002659982713877e+01
0	 8.285714285714283e+00	 3.000000000000000e+00	 1.002636107311793e+01
0	 8.285714285714285e+00	 3.142857142857144e+00	 1.002602086407544e+01
0	 8.285714285714281e+00	 3.285714285714286e+00	 1.002564494127047e+01
0	 8.285714285714283e+00	 3.428571428571428e+00	 1.002529904596216e+01
0	 8.285714285714285e+00	 3.571428571428573e+00	 1.002504891940968e+01
0	 8.285714285714283e+00	 3.714285714285715e+00	 1.002496030287215e+01
0	 8.285714285714285e+00	 3.857142857142858e+00	 1.002509893760875e+01
0	 8.285714285714283e+00	 4.000000000000001e+00	 1.002553056487861e+01
0	 8.285714285714283e+00	 4.142857142857144e+00	 1.002632092594090e+01
0	 8.285714285714281e+00	 4.285714285714285e+00	 1.002753576205476e+01
0	 8.428571428571423e+00	 2.857142857142857e+00	 1.002012458028403e+01
0	 8.428571428571425e+00	 3.000000000000000e+00	 1.001911752076786e+01
0	 8.428571428571427e+00	 3.142857142857143e+00	 1.001826405278303e+01
0	 8.428571428571425e+00	 3.285714285714286e+00	 1.001761158232171e+01
0	 8.428571428571427e+00	 3.428571428571429e+00	 1.001720751537605e+01
0	 8.428571428571425e+00	 3.571428571428572e+00	 1.001709925793821e+01
0	 8.428571428571425e+00	 3.714285714285715e+00	 1.001733421600034e+01
0	 8.428571428571425e+00	 3.857142857142858e+00	 1.001795979555461e+01
0	 8.428571428571425e+00	 4.000000000000000e+00	 1.001902340259316e+01
0	 8.428571428571427e+00	 4.142857142857144e+00	 1.002057244310815e+01
0	 8.428571428571425e+00	 4.285714285714286e+00	 1.002265432309173e+01
0	 8.571428571428575e+00	 2.857142857142857e+00	 1.001290294580171e+01
0	 8.571428571428573e+00	 3.000000000000000e+00	 1.001164424473351e+01
0	 8.571428571428573e+00	 3.142857142857143e+00	 1.001073518001362e+01
0	 8.571428571428575e+00	 3.285714285714287e+00	 1.001019730549551e+01
0	 8.571428571428571e+00	 3.428571428571429e+00	 1.001005217503266e+01
0	 8.571428571428573e+00	 3.571428571428572e+00	 1.001032134247854e+01
0	 8.571428571428571e+00	 3.714285714285715e+00	 1.001102636168663e+01
0	 8.571428571428569e+00	 3.857142857142857e+00	 1.001218878651038e+01
0	 8.571428571428569e+00	 3.999999999999999e+00	 1.001383017080328e+01
0	 8.571428571428571e+00	 4.142857142857143e+00	 1.001597206841881e+01
0	 8.571428571428573e+00	 4.285714285714286e+00	 1.001863603321044e+01
0	 7.142857142857142e+00	 4.285714285714285e+00	 1.008057374483193e+01
0	 7.142857142857144e+00	 4.428571428571429e+00	 1.007552692801558e+01
0	 7.142857142857144e+00	 4.571428571428571e+00	 1.007084796837967e+01
0	 7.142857142857143e+00	 4.714285714285714e+00	 1.006656948043273e+01
0	 7.142857142857144e+00	 4.857142857142857e+00	 1.006272407868332e+01
0	 7.142857142857144e+00	 5.000000000000000e+00	 1.005934437763998e+01
0	 7.142857142857144e+00	 5.142857142857143e+00	 1.005646299181126e+01
0	 7.142857142857143e+00	 5.285714285714285e+00	 1.005411253570571e+01
0	 7.142857142857143e+00	 5.428571428571427e+00	 1.005232562383187e+01
0	 7.142857142857146e+00	 5.571428571428571e+00	 1.005113487069829e+01
0	 7.142857142857143e+00	 5.714285714285714e+00	 1.005057289081351e+01
0	 7.285714285714283e+00	 4.285714285714285e+00	 1.007391318197583e+01
0	 7.285714285714285e+00	 4.428571428571428e+00	 1.006873140368404e+01
0	 7.285714285714286e+00	 4.571428571428571e+00	 1.006412899212319e+01
0	 7.285714285714287e+00	 4.714285714285714e+00	 1.006010412802684e+01
0	 7.285714285714286e+00	 4.857142857142858e+00	 1.005665499212857e+01
0	 7.285714285714286e+00	 5.000000000000000e+00	 1.005377976516199e+01
0	 7.285714285714286e+00	 5.142857142857144e+00	 1.005147662786065e+01
0	 7.285714285714288e+00	 5.285714285714285e+00	 1.004974376095816e+01
0	 7.285714285714286e+00	 5.428571428571427e+00	 1.004857934518809e+01
0	 7.285714285714287e+00	 5.571428571428571e+00	 1.004798156128402e+01
0	 7.285714285714284e+00	 5.714285714285711e+00	 1.004794858997955e+01
0	 7.428571428571429e+00	 4.285714285714286e+00	 1.006697664181017e+01
0	 7.428571428571430e+00	 4.428571428571429e+00	 1.006213068580440e+01
0	 7.428571428571429e+00	 4.571428571428571e+00	 1.005796291042034e+01
0	 7.428571428571429e+00	 4.714285714285715e+00	 1.005444361726909e+01
0	 7.428571428571426e+00	 4.857142857142856e+00	 1.005154310796173e+01
0	 7.428571428571429e+00	 5.000000000000001e+00	 1.004923168410937e+01
0	 7.428571428571429e+00	 5.142857142857142e+00	 1.004747964732307e+01
0	 7.428571428571426e+00	 5.285714285714282e+00	 1.004625729921397e+01
0	 7.428571428571428e+00	 5.428571428571427e+00	 1.004553494139313e+01
0	 7.428571428571428e+00	 5.571428571428569e+00	 1.004528287547165e+01
0	 7.428571428571430e+00	 5.714285714285715e+00	 1.004547140306063e+01
0	 7.571428571428570e+00	 4.285714285714286e+00	 1.005990651513389e+01
0	 7.571428571428572e+00	 4.428571428571429e+00	 1.005576654862511e+01
0	 7.571428571428572e+00	 4.571428571428571e+00	 1.005230873524722e+01
0	 7.571428571428572e+00	 4.714285714285714e+00	 1.004948205214129e+01
0	 7.571428571428569e+00	 4.857142857142858e+00	 1.004723547644839e+01
0	 7.571428571428569e+00	 4.999999999999999e+00	 1.004551798530961e+01
0	 7.571428571428569e+00	 5.142857142857141e+00	 1.004427855586598e+01
0	 7.571428571428571e+00	 5.285714285714286e+00	 1.004346616525861e+01
0	 7.571428571428570e+00	 5.428571428571428e+00	 1.004302979062857e+01
0	 7.571428571428571e+00	 5.571428571428569e+00	 1.004291840911692e+01
0	 7.571428571428569e+00	 5.714285714285714e+00	 1.004308099786473e+01
0	 7.714285714285714e+00	 4.285714285714286e+00	 1.005284519274588e+01
0	 7.714285714285714e+00	 4.428571428571428e+00	 1.004968076639467e+01
0	 7.714285714285714e+00	 4.571428571428571e+00	 1.004712547857996e+01
0	 7.714285714285714e+00	 4.714285714285714e+00	 1.004511353662530e+01
0	 7.714285714285712e+00	 4.857142857142855e+00	 1.004357914785419e+01
0	 7.714285714285713e+00	 5.000000000000000e+00	 1.004245651959019e+01
0	 7.714285714285714e+00	 5.142857142857144e+00	 1.004167985915680e+01
0	 7.714285714285714e+00	 5.285714285714285e+00	 1.004118337387754e+01
0	 7.714285714285711e+00	 5.428571428571427e+00	 1.004090127107594e+01
0	 7.714285714285712e+00	 5.571428571428569e+00	 1.004076775807553e+01
0	 7.714285714285714e+00	 5.714285714285715e+00	 1.004071704219984e+01
0	 7.857142857142855e+00	 4.285714285714286e+00	 1.004593506544506e+01
0	 7.857142857142858e+00	 4.428571428571427e+00	 1.004391511336153e+01
0	 7.857142857142856e+00	 4.571428571428571e+00	 1.004237215239467e+01
0	 7.857142857142857e+00	 4.714285714285714e+00	 1.004123217470293e+01
0	 7.857142857142855e+00	 4.857142857142858e+00	 1.004042117244477e+01
0	 7.857142857142855e+00	 4.999999999999999e+00	 1.003986513777863e+01
0	 7.857142857142856e+00	 5.142857142857142e+00	 1.003949006286296e+01
0	 7.857142857142856e+00	 5.285714285714285e+00	 1.003922193985621e+01
0	 7.857142857142856e+00	 5.428571428571428e+00	 1.003898676091682e+01
0	 7.857142857142856e+00	 5.571428571428569e+00	 1.003871051820324e+01
0	 7.857142857142854e+00	 5.714285714285714e+00	 1.003831920387393e+01
0	 7.999999999999997e+00	 4.285714285714286e+00	 1.003931852403032e+01
0	 7.999999999999997e+00	 4.428571428571428e+00	 1.003851136377416e+01
0	 7.999999999999997e+00	 4.571428571428571e+00	 1.003800776866745e+01
0	 7.999999999999998e+00	 4.714285714285714e+00	 1.003773207035602e+01
0	 8.000000000000000e+00	 4.857142857142858e+00	 1.003760860048573e+01
0	 7.999999999999998e+00	 5.000000000000000e+00	 1.003756169070241e+01
0	 7.999999999999998e+00	 5.142857142857142e+00	 1.003751567265191e+01
0	 7.999999999999996e+00	 5.285714285714284e+00	 1.003739487798008e+01
0	 7.999999999999997e+00	 5.428571428571428e+00	 1.003712363833275e+01
0	 8.000000000000000e+00	 5.571428571428570e+00	 1.003662628535577e+01
0	 7.999999999999997e+00	 5.714285714285714e+00	 1.003582715069498e+01
0	 8.142857142857141e+00	 4.285714285714286e+00	 1.003313795930059e+01
0	 8.142857142857141e+00	 4.428571428571428e+00	 1.003351129188105e+01
0	 8.142857142857142e+00	 4.571428571428572e+00	 1.003399133937441e+01
0	 8.142857142857142e+00	 4.714285714285714e+00	 1.003450732756639e+01
0	 8.142857142857142e+00	 4.857142857142858e+00	 1.003498848224270e+01
0	 8.142857142857141e+00	 5.000000000000000e+00	 1.003536402918903e+01
0	 8.142857142857142e+00	 5.142857142857142e+00	 1.003556319419109e+01
0	 8.142857142857141e+00	 5.285714285714285e+00	 1.003551520303462e+01
0	 8.142857142857139e+00	 5.428571428571427e+00	 1.003514928150530e+01
0	 8.142857142857139e+00	 5.571428571428568e+00	 1.003439465538885e+01
0	 8.142857142857141e+00	 5.714285714285714e+00	 1.003318055047098e+01
0	 8.285714285714281e+00	 4.285714285714285e+00	 1.002753576205476e+01
0	 8.285714285714283e+00	 4.428571428571429e+00	 1.002895667193066e+01
0	 8.285714285714283e+00	 4.571428571428572e+00	 1.003028187649169e+01
0	 8.285714285714281e+00	 4.714285714285714e+00	 1.003145205031588e+01
0	 8.285714285714283e+00	 4.857142857142857e+00	 1.003240786798130e+01
0	 8.285714285714285e+00	 5.000000000000001e+00	 1.003309000406596e+01
0	 8.285714285714285e+00	 5.142857142857142e+00	 1.003343913314794e+01
0	 8.285714285714281e+00	 5.285714285714285e+00	 1.003339592980527e+01
0	 8.285714285714285e+00	 5.428571428571428e+00	 1.003290106861601e+01
0	 8.285714285714283e+00	 5.571428571428569e+00	 1.003189522415820e+01
0	 8.285714285714285e+00	 5.714285714285714e+00	 1.003031907100989e+01
0	 8.428571428571425e+00	 4.285714285714286e+00	 1.002265432309173e+01
0	 8.428571428571427e+00	 4.428571428571429e+00	 1.002488927817148e+01
0	 8.428571428571427e+00	 4.571428571428573e+00	 1.002683839199539e+01
0	 8.428571428571423e+00	 4.714285714285714e+00	 1.002846034258633e+01
0	 8.428571428571425e+00	 4.857142857142858e+00	 1.002971380796715e+01
0	 8.428571428571425e+00	 5.000000000000000e+00	 1.003055746616071e+01
0	 8.428571428571425e+00	 5.142857142857144e+00	 1.003094999518989e+01
0	 8.428571428571425e+00	 5.285714285714284e+00	 1.003085007307751e+01
0	 8.428571428571425e+00	 5.428571428571426e+00	 1.003021637784646e+01
0	 8.428571428571423e+00	 5.571428571428569e+00	 1.002900758751957e+01
0	 8.428571428571427e+00	 5.714285714285714e+00	 1.002718238011970e+01
0	 8.571428571428573e+00	 4.285714285714286e+00	 1.001863603321044e+01
0	 8.571428571428573e+00	 4.428571428571429e+00	 1.002135088485195e+01
0	 8.571428571428573e+00	 4.571428571428572e+00	 1.002361989786160e+01
0	 8.571428571428575e+00	 4.714285714285715e+00	 1.002542630835954e+01
0	 8.571428571428573e+00	 4.857142857142858e+00	 1.002675335246588e+01
0	 8.571428571428573e+00	 5.000000000000001e+00	 1.002758426630079e+01
0	 8.571428571428571e+00	 5.142857142857142e+00	 1.002790228598438e+01
0	 8.571428571428573e+00	 5.285714285714284e+00	 1.002769064763679e+01
0	 8.571428571428573e+00	 5.428571428571428e+00	 1.002693258737817e+01
0	 8.571428571428571e+00	 5.571428571428569e+00	 1.002561134132866e+01
0	 8.571428571428573e+00	 5.714285714285715e+00	 1.002371014560839e+01
0	 7.142857142857143e+00	 5.714285714285714e+00	 1.005057289081351e+01
0	 7.142857142857144e+00	 5.857142857142857e+00	 1.005023080832805e+01
0	 7.142857142857142e+00	 5.999999999999998e+00	 1.004965448041653e+01
0	 7.142857142857144e+00	 6.142857142857141e+00	 1.004880862112374e+01
0	 7.142857142857143e+00	 6.285714285714283e+00	 1.004765794449447e+01
0	 7.142857142857143e+00	 6.428571428571424e+00	 1.004616716457346e+01
0	 7.142857142857145e+00	 6.571428571428568e+00	 1.004430099540550e+01
0	 7.142857142857145e+00	 6.714285714285712e+00	 1.004202415103535e+01
0	 7.142857142857142e+00	 6.857142857142851e+00	 1.003930134550780e+01
0	 7.142857142857143e+00	 6.999999999999996e+00	 1.003609729286761e+01
0	 7.142857142857141e+00	 7.142857142857141e+00	 1.003237670715955e+01
0	 7.285714285714284e+00	 5.714285714285711e+00	 1.004794858997955e+01
0	 7.285714285714286e+00	 5.857142857142857e+00	 1.004801134568730e+01
0	 7.285714285714287e+00	 6.000000000000000e+00	 1.004769533836327e+01
0	 7.285714285714286e+00	 6.142857142857142e+00	 1.004699064205598e+01
0	 7.285714285714285e+00	 6.285714285714283e+00	 1.004588733081401e+01
0	 7.285714285714287e+00	 6.428571428571423e+00	 1.004437547868591e+01
0	 7.285714285714286e+00	 6.571428571428570e+00	 1.004244515972026e+01
0	 7.285714285714286e+00	 6.714285714285710e+00	 1.004008644796560e+01
0	 7.285714285714285e+00	 6.857142857142851e+00	 1.003728941747048e+01
0	 7.285714285714287e+00	 6.999999999999996e+00	 1.003404414228348e+01
0	 7.285714285714284e+00	 7.142857142857141e+00	 1.003034069645316e+01
0	 7.428571428571430e+00	 5.714285714285715e+00	 1.004547140306063e+01
0	 7.428571428571429e+00	 5.857142857142857e+00	 1.004564133702920e+01
0	 7.428571428571428e+00	 5.999999999999997e+00	 1.004536038632148e+01
0	 7.428571428571427e+00	 6.142857142857139e+00	 1.004463919666101e+01
0	 7.428571428571427e+00	 6.285714285714283e+00	 1.004348841377130e+01
0	 7.428571428571425e+00	 6.428571428571425e+00	 1.004191868337591e+01
0	 7.428571428571429e+00	 6.571428571428569e+00	 1.003994065119837e+01
0	 7.428571428571428e+00	 6.714285714285710e+00	 1.003756496296219e+01
0	 7.428571428571427e+00	 6.857142857142852e+00	 1.003480226439093e+01
0	 7.428571428571428e+00	 6.999999999999994e+00	 1.003166320120811e+01
0	 7.428571428571428e+00	 7.142857142857141e+00	 1.002815841913727e+01
0	 7.571428571428569e+00	 5.714285714285714e+00	 1.004308099786473e+01
0	 7.571428571428571e+00	 5.857142857142856e+00	 1.004312376591422e+01
0	 7.571428571428568e+00	 5.999999999999997e+00	 1.004270455692668e+01
0	 7.571428571428572e+00	 6.142857142857142e+00	 1.004184979997179e+01
0	 7.571428571428569e+00	 6.285714285714283e+00	 1.004058592411925e+01
0	 7.571428571428568e+00	 6.428571428571422e+00	 1.003893935843876e+01
0	 7.571428571428569e+00	 6.571428571428568e+00	 1.003693653200002e+01
0	 7.571428571428571e+00	 6.714285714285711e+00	 1.003460387387272e+01
0	 7.571428571428569e+00	 6.857142857142851e+00	 1.003196781312655e+01
0	 7.571428571428571e+00	 6.999999999999996e+00	 1.002905477883120e+01
0	 7.571428571428569e+00	 7.142857142857141e+00	 1.002589120005638e+01
0	 7.714285714285714e+00	 5.714285714285715e+00	 1.004071704219984e+01
0	 7.714285714285714e+00	 5.857142857142857e+00	 1.004046161590288e+01
0	 7.714285714285714e+00	 5.999999999999997e+00	 1.003978278281434e+01
0	 7.714285714285714e+00	 6.142857142857141e+00	 1.003871796702130e+01
0	 7.714285714285714e+00	 6.285714285714283e+00	 1.003730459261076e+01
0	 7.714285714285713e+00	 6.428571428571425e+00	 1.003558008366980e+01
0	 7.714285714285712e+00	 6.571428571428567e+00	 1.003358186428544e+01
0	 7.714285714285713e+00	 6.714285714285709e+00	 1.003134735854474e+01
0	 7.714285714285713e+00	 6.857142857142852e+00	 1.002891399053474e+01
0	 7.714285714285713e+00	 6.999999999999994e+00	 1.002631918434248e+01
0	 7.714285714285712e+00	 7.142857142857141e+00	 1.002360036405502e+01
0	 7.857142857142854e+00	 5.714285714285714e+00	 1.003831920387392e+01
0	 7.857142857142854e+00	 5.857142857142856e+00	 1.003765787055566e+01
0	 7.857142857142856e+00	 6.000000000000001e+00	 1.003664999661999e+01
0	 7.857142857142856e+00	 6.142857142857141e+00	 1.003533921284248e+01
0	 7.857142857142859e+00	 6.285714285714285e+00	 1.003376914999874e+01
0	 7.857142857142854e+00	 6.428571428571425e+00	 1.003198343886433e+01
0	 7.857142857142856e+00	 6.571428571428569e+00	 1.003002571021483e+01
0	 7.857142857142858e+00	 6.714285714285711e+00	 1.002793959482584e+01
0	 7.857142857142856e+00	 6.857142857142851e+00	 1.002576872347291e+01
0	 7.857142857142856e+00	 6.999999999999996e+00	 1.002355672693165e+01
0	 7.857142857142856e+00	 7.142857142857142e+00	 1.002134723597762e+01
0	 7.999999999999997e+00	 5.714285714285714e+00	 1.003582715069498e+01
0	 7.999999999999999e+00	 5.857142857142857e+00	 1.003471551343309e+01
0	 7.999999999999998e+00	 5.999999999999998e+00	 1.003336113097911e+01
0	 7.999999999999998e+00	 6.142857142857141e+00	 1.003180905246835e+01
0	 7.999999999999997e+00	 6.285714285714283e+00	 1.003010432703612e+01
0	 7.999999999999998e+00	 6.428571428571425e+00	 1.002829200381770e+01
0	 7.999999999999997e+00	 6.571428571428566e+00	 1.002641713194842e+01
0	 7.999999999999996e+00	 6.714285714285710e+00	 1.002452476056358e+01
0	 7.999999999999997e+00	 6.857142857142853e+00	 1.002265993879847e+01
0	 7.999999999999999e+00	 6.999999999999996e+00	 1.002086771578842e+01
0	 7.999999999999997e+00	 7.142857142857144e+00	 1.001919314066872e+01
0	 8.142857142857141e+00	 5.714285714285714e+00	 1.003318055047098e+01
0	 8.142857142857141e+00	 5.857142857142855e+00	 1.003163752809565e+01
0	 8.142857142857139e+00	 5.999999999999998e+00	 1.002997111852721e+01
0	 8.142857142857139e+00	 6.142857142857141e+00	 1.002822300093185e+01
0	 8.142857142857141e+00	 6.285714285714283e+00	 1.002643485447578e+01
0	 8.142857142857141e+00	 6.428571428571424e+00	 1.002464835832522e+01
0	 8.142857142857142e+00	 6.571428571428569e+00	 1.002290519164642e+01
0	 8.142857142857142e+00	 6.714285714285710e+00	 1.002124703360554e+01
0	 8.142857142857139e+00	 6.857142857142852e+00	 1.001971556336884e+01
0	 8.142857142857142e+00	 6.999999999999996e+00	 1.001835246010251e+01
0	 8.142857142857141e+00	 7.142857142857144e+00	 1.001719940297278e+01
0	 8.285714285714285e+00	 5.714285714285714e+00	 1.003031907100989e+01
0	 8.285714285714283e+00	 5.857142857142856e+00	 1.002842689810386e+01
0	 8.285714285714279e+00	 5.999999999999997e+00	 1.002653489189977e+01
0	 8.285714285714283e+00	 6.142857142857141e+00	 1.002467657326593e+01
0	 8.285714285714283e+00	 6.285714285714284e+00	 1.002288546307065e+01
0	 8.285714285714283e+00	 6.428571428571424e+00	 1.002119508218223e+01
0	 8.285714285714281e+00	 6.571428571428568e+00	 1.001963895146902e+01
0	 8.285714285714281e+00	 6.714285714285709e+00	 1.001825059179929e+01
0	 8.285714285714283e+00	 6.857142857142853e+00	 1.001706352404140e+01
0	 8.285714285714283e+00	 6.999999999999994e+00	 1.001611126906363e+01
0	 8.285714285714283e+00	 7.142857142857143e+00	 1.001542734773432e+01
0	 8.428571428571427e+00	 5.714285714285714e+00	 1.002718238011969e+01
0	 8.428571428571425e+00	 5.857142857142857e+00	 1.002508660701821e+01
0	 8.428571428571427e+00	 5.999999999999999e+00	 1.002310738373231e+01
0	 8.428571428571425e+00	 6.142857142857139e+00	 1.002126528450358e+01
0	 8.428571428571423e+00	 6.285714285714281e+00	 1.001958088357362e+01
0	 8.428571428571425e+00	 6.428571428571425e+00	 1.001807475518403e+01
0	 8.428571428571425e+00	 6.571428571428568e+00	 1.001676747357644e+01
0	 8.428571428571425e+00	 6.714285714285709e+00	 1.001567961299241e+01
0	 8.428571428571425e+00	 6.857142857142855e+00	 1.001483174767356e+01
0	 8.428571428571425e+00	 6.999999999999996e+00	 1.001424445186148e+01
0	 8.428571428571423e+00	 7.142857142857141e+00	 1.001393829979779e+01
0	 8.571428571428573e+00	 5.714285714285715e+00	 1.002371014560839e+01
0	 8.571428571428573e+00	 5.857142857142858e+00	 1.002161963839923e+01
0	 8.571428571428571e+00	 5.999999999999998e+00	 1.001974352666033e+01
0	 8.571428571428573e+00	 6.142857142857141e+00	 1.001808464967777e+01
0	 8.571428571428573e+00	 6.285714285714284e+00	 1.001664584673764e+01
0	 8.571428571428571e+00	 6.428571428571425e+00	 1.001542995712598e+01
0	 8.571428571428573e+00	 6.571428571428568e+00	 1.001443982012890e+01
0	 8.571428571428571e+00	 6.714285714285709e+00	 1.001367827503246e+01
0	 8.571428571428571e+00	 6.857142857142854e+00	 1.001314816112273e+01
0	 8.571428571428573e+00	 6.999999999999994e+00	 1.001285231768579e+01
0	 8.571428571428573e+00	 7.142857142857144e+00	 1.001279358400771e+01
0	 7.142857142857141e+00	 7.142857142857141e+00	 1.003237670715955e+01
0	 7.142857142857145e+00	 7.285714285714286e+00	 1.002854418200673e+01
0	 7.142857142857143e+00	 7.428571428571429e+00	 1.002502952307356e+01
0	 7.142857142857142e+00	 7.571428571428569e+00	 1.002183526246684e+01
0	 7.142857142857141e+00	 7.714285714285711e+00	 1.001896393229336e+01
0	 7.142857142857142e+00	 7.857142857142855e+00	 1.001641806465988e+01
0	 7.142857142857145e+00	 7.999999999999999e+00	 1.001420019167323e+01
0	 7.142857142857144e+00	 8.142857142857142e+00	 1.001231284544017e+01
0	 7.142857142857144e+00	 8.285714285714283e+00	 1.001075855806751e+01
0	 7.142857142857144e+00	 8.428571428571423e+00	 1.000953986166202e+01
0	 7.142857142857144e+00	 8.571428571428573e+00	 1.000865928833051e+01
0	 7.285714285714284e+00	 7.142857142857141e+00	 1.003034069645316e+01
0	 7.285714285714285e+00	 7.285714285714285e+00	 1.002660112895309e+01
0	 7.285714285714286e+00	 7.428571428571430e+00	 1.002324488889592e+01
0	 7.285714285714284e+00	 7.571428571428570e+00	 1.002025815053868e+01
0	 7.285714285714287e+00	 7.714285714285715e+00	 1.001762708813847e+01
0	 7.285714285714285e+00	 7.857142857142852e+00	 1.001533787595239e+01
0	 7.285714285714286e+00	 7.999999999999999e+00	 1.001337668823748e+01
0	 7.285714285714286e+00	 8.142857142857137e+00	 1.001172969925083e+01
0	 7.285714285714286e+00	 8.285714285714283e+00	 1.001038308324951e+01
0	 7.285714285714286e+00	 8.428571428571425e+00	 1.000932301449061e+01
0	 7.285714285714286e+00	 8.571428571428573e+00	 1.000853566723120e+01
0	 7.428571428571428e+00	 7.142857142857141e+00	 1.002815841913726e+01
0	 7.428571428571429e+00	 7.285714285714286e+00	 1.002468501251153e+01
0	 7.428571428571428e+00	 7.428571428571428e+00	 1.002161513059610e+01
0	 7.428571428571426e+00	 7.571428571428569e+00	 1.001892200151265e+01
0	 7.428571428571429e+00	 7.714285714285712e+00	 1.001657885338278e+01
0	 7.428571428571428e+00	 7.857142857142856e+00	 1.001455891432820e+01
0	 7.428571428571431e+00	 8.000000000000002e+00	 1.001283541247052e+01
0	 7.428571428571426e+00	 8.142857142857137e+00	 1.001138157593141e+01
0	 7.428571428571429e+00	 8.285714285714285e+00	 1.001017063283252e+01
0	 7.428571428571427e+00	 8.428571428571425e+00	 1.000917581129549e+01
0	 7.428571428571430e+00	 8.571428571428571e+00	 1.000837033944197e+01
0	 7.571428571428569e+00	 7.142857142857141e+00	 1.002589120005639e+01
0	 7.571428571428572e+00	 7.285714285714286e+00	 1.002281627958660e+01
0	 7.571428571428571e+00	 7.428571428571427e+00	 1.002012739662687e+01
0	 7.571428571428569e+00	 7.571428571428568e+00	 1.001778824487773e+01
0	 7.571428571428569e+00	 7.714285714285712e+00	 1.001576251803968e+01
0	 7.571428571428570e+00	 7.857142857142855e+00	 1.001401390981323e+01
0	 7.571428571428569e+00	 7.999999999999998e+00	 1.001250611389890e+01
0	 7.571428571428570e+00	 8.142857142857141e+00	 1.001120282399718e+01
0	 7.571428571428571e+00	 8.285714285714283e+00	 1.001006773380861e+01
0	 7.571428571428571e+00	 8.428571428571425e+00	 1.000906453703366e+01
0	 7.571428571428569e+00	 8.571428571428573e+00	 1.000815692737290e+01
0	 7.714285714285712e+00	 7.142857142857141e+00	 1.002360036405502e+01
0	 7.714285714285715e+00	 7.285714285714286e+00	 1.002101537708286e+01
0	 7.714285714285712e+00	 7.428571428571429e+00	 1.001876883544096e+01
0	 7.714285714285714e+00	 7.571428571428569e+00	 1.001681831012299e+01
0	 7.714285714285713e+00	 7.714285714285713e+00	 1.001512137212258e+01
0	 7.714285714285715e+00	 7.857142857142855e+00	 1.001363559243340e+01
0	 7.714285714285714e+00	 7.999999999999999e+00	 1.001231854204912e+01
0	 7.714285714285714e+00	 8.142857142857142e+00	 1.001112779196338e+01
0	 7.714285714285714e+00	 8.285714285714285e+00	 1.001002091316986e+01
0	 7.714285714285711e+00	 8.428571428571425e+00	 1.000895547666220e+01
0	 7.714285714285714e+00	 8.571428571428573e+00	 1.000788905343405e+01
0	 7.857142857142856e+00	 7.142857142857142e+00	 1.002134723597762e+01
0	 7.857142857142852e+00	 7.285714285714284e+00	 1.001930275190488e+01
0	 7.857142857142856e+00	 7.428571428571428e+00	 1.001752659549111e+01
0	 7.857142857142853e+00	 7.571428571428568e+00	 1.001597362673742e+01
0	 7.857142857142853e+00	 7.714285714285713e+00	 1.001459870564491e+01
0	 7.857142857142855e+00	 7.857142857142854e+00	 1.001335669221467e+01
0	 7.857142857142855e+00	 7.999999999999996e+00	 1.001220244644775e+01
0	 7.857142857142856e+00	 8.142857142857142e+00	 1.001109082834530e+01
0	 7.857142857142858e+00	 8.285714285714286e+00	 1.000997669790837e+01
0	 7.857142857142854e+00	 8.428571428571425e+00	 1.000881491513808e+01
0	 7.857142857142857e+00	 8.571428571428573e+00	 1.000756034003550e+01
0	 7.999999999999997e+00	 7.142857142857144e+00	 1.001919314066872e+01
0	 7.999999999999999e+00	 7.285714285714286e+00	 1.001769885095720e+01
0	 7.999999999999998e+00	 7.428571428571429e+00	 1.001638782523005e+01
0	 7.999999999999998e+00	 7.571428571428570e+00	 1.001521562421008e+01
0	 7.999999999999998e+00	 7.714285714285713e+00	 1.001413780862009e+01
0	 7.999999999999997e+00	 7.857142857142856e+00	 1.001310993918290e+01
0	 7.999999999999998e+00	 7.999999999999997e+00	 1.001208757662132e+01
0	 7.999999999999998e+00	 8.142857142857141e+00	 1.001102628165816e+01
0	 7.999999999999996e+00	 8.285714285714281e+00	 1.000988161501623e+01
0	 7.999999999999998e+00	 8.428571428571425e+00	 1.000860913741835e+01
0	 7.999999999999997e+00	 8.571428571428571e+00	 1.000716440958733e+01
0	 8.142857142857141e+00	 7.142857142857144e+00	 1.001719940297278e+01
0	 8.142857142857139e+00	 7.285714285714285e+00	 1.001622412114441e+01
0	 8.142857142857137e+00	 7.428571428571425e+00	 1.001533967311053e+01
0	 8.142857142857141e+00	 7.571428571428570e+00	 1.001450573202996e+01
0	 8.142857142857141e+00	 7.714285714285714e+00	 1.001368197106154e+01
0	 8.142857142857141e+00	 7.857142857142854e+00	 1.001282806336406e+01
0	 8.142857142857144e+00	 7.999999999999999e+00	 1.001190368209635e+01
0	 8.142857142857141e+00	 8.142857142857139e+00	 1.001086850041724e+01
0	 8.142857142857139e+00	 8.285714285714281e+00	 1.000968219148553e+01
0	 8.142857142857139e+00	 8.428571428571425e+00	 1.000830442846003e+01
0	 8.142857142857141e+00	 8.571428571428571e+00	 1.000669488449958e+01
0	 8.285714285714283e+00	 7.142857142857143e+00	 1.001542734773432e+01
0	 8.285714285714281e+00	 7.285714285714286e+00	 1.001489900937104e+01
0	 8.285714285714283e+00	 7.428571428571430e+00	 1.001436928758528e+01
0	 8.285714285714283e+00	 7.571428571428570e+00	 1.001380537968611e+01
0	 8.285714285714285e+00	 7.714285714285714e+00	 1.001317448298267e+01
0	 8.285714285714283e+00	 7.857142857142855e+00	 1.001244379478407e+01
0	 8.285714285714283e+00	 7.999999999999997e+00	 1.001158051239940e+01
0	 8.285714285714283e+00	 8.142857142857141e+00	 1.001055183313780e+01
0	 8.285714285714286e+00	 8.285714285714283e+00	 1.000932495430834e+01
0	 8.285714285714281e+00	 8.428571428571423e+00	 1.000786707322017e+01
0	 8.285714285714285e+00	 8.571428571428573e+00	 1.000614538718236e+01
0	 8.428571428571423e+00	 7.142857142857141e+00	 1.001393829979779e+01
0	 8.428571428571425e+00	 7.285714285714286e+00	 1.001374396254167e+01
0	 8.428571428571425e+00	 7.428571428571427e+00	 1.001346381710702e+01
0	 8.428571428571425e+00	 7.571428571428569e+00	 1.001307599666754e+01
0	 8.428571428571425e+00	 7.714285714285711e+00	 1.001255863439691e+01
0	 8.428571428571425e+00	 7.857142857142853e+00	 1.001188986346884e+01
0	 8.428571428571425e+00	 7.999999999999997e+00	 1.001104781705699e+01
0	 8.428571428571427e+00	 8.142857142857142e+00	 1.001001062833508e+01
0	 8.428571428571423e+00	 8.285714285714281e+00	 1.000875643047676e+01
0	 8.428571428571427e+00	 8.428571428571425e+00	 1.000726335665575e+01
0	 8.428571428571427e+00	 8.571428571428573e+00	 1.000550954004574e+01
0	 8.571428571428573e+00	 7.142857142857144e+00	 1.001279358400771e+01
0	 8.571428571428571e+00	 7.285714285714286e+00	 1.001277942756084e+01
0	 8.571428571428571e+00	 7.428571428571428e+00	 1.001261041012851e+01
0	 8.571428571428571e+00	 7.571428571428569e+00	 1.001227901246327e+01
0	 8.571428571428573e+00	 7.714285714285713e+00	 1.001177771531768e+01
0	 8.571428571428569e+00	 7.857142857142854e+00	 1.001109899944430e+01
0	 8.571428571428571e+00	 7.999999999999998e+00	 1.001023534559566e+01
0	 8.571428571428571e+00	 8.142857142857141e+00	 1.000917923452434e+01
0	 8.571428571428573e+00	 8.285714285714283e+00	 1.000792314698289e+01
0	 8.571428571428575e+00	 8.428571428571425e+00	 1.000645956372384e+01
0	 8.571428571428573e+00	 8.571428571428571e+00	 1.000478096549977e+01
0	 7.142857142857144e+00	 8.571428571428573e+00	 1.000865928833051e+01
0	 7.142857142857144e+00	 8.714285714285715e+00	 1.000794156249814e+01
0	 7.142857142857146e+00	 8.857142857142861e+00	 1.000719647072221e+01
0	 7.142857142857145e+00	 9.000000000000004e+00	 1.000640413830769e+01
0	 7.142857142857142e+00	 9.142857142857141e+00	 1.000554469055952e+01
0	 7.142857142857142e+00	 9.285714285714285e+00	 1.000459825278267e+01
0	 7.142857142857143e+00	 9.428571428571427e+00	 1.000354495028213e+01
0	 7.142857142857144e+00	 9.571428571428569e+00	 1.000236490836284e+01
0	 7.142857142857144e+00	 9.714285714285712e+00	 1.000103825232974e+01
0	 7.142857142857143e+00	 9.857142857142854e+00	 9.999545107487837e+00
0	 7.142857142857143e+00	 1.000000000000000e+01	 9.997865599142006e+00
0	 7.285714285714286e+00	 8.571428571428573e+00	 1.000853566723120e+01
0	 7.285714285714286e+00	 8.714285714285715e+00	 1.000784762965922e+01
0	 7.285714285714284e+00	 8.857142857142854e+00	 1.000709271043354e+01
0	 7.285714285714285e+00	 8.999999999999998e+00	 1.000626791451761e+01
0	 7.285714285714286e+00	 9.142857142857144e+00	 1.000537024687492e+01
0	 7.285714285714286e+00	 9.285714285714285e+00	 1.000439671246891e+01
0	 7.285714285714285e+00	 9.428571428571427e+00	 1.000334431626307e+01
0	 7.285714285714285e+00	 9.571428571428569e+00	 1.000221006322085e+01
0	 7.285714285714286e+00	 9.714285714285714e+00	 1.000099095830570e+01
0	 7.285714285714286e+00	 9.857142857142854e+00	 9.999684006481139e+00
0	 7.285714285714286e+00	 1.000000000000000e+01	 9.998286212710573e+00
0	 7.428571428571430e+00	 8.571428571428571e+00	 1.000837033944197e+01
0	 7.428571428571426e+00	 8.714285714285714e+00	 1.000761187370337e+01
0	 7.428571428571430e+00	 8.857142857142858e+00	 1.000678277974068e+01
0	 7.428571428571427e+00	 9.000000000000000e+00	 1.000589334952008e+01
0	 7.428571428571428e+00	 9.142857142857141e+00	 1.000495387500766e+01
0	 7.428571428571428e+00	 9.285714285714285e+00	 1.000397464816953e+01
0	 7.428571428571429e+00	 9.428571428571427e+00	 1.000296596097184e+01
0	 7.428571428571427e+00	 9.571428571428566e+00	 1.000193810538071e+01
0	 7.428571428571426e+00	 9.714285714285710e+00	 1.000090137336228e+01
0	 7.428571428571425e+00	 9.857142857142851e+00	 9.999866056882627e+00
0	 7.428571428571429e+00	 1.000000000000000e+01	 9.998842447907892e+00
0	 7.571428571428569e+00	 8.571428571428573e+00	 1.000815692737290e+01
0	 7.571428571428572e+00	 8.714285714285715e+00	 1.000725545236007e+01
0	 7.571428571428571e+00	 8.857142857142858e+00	 1.000630818793721e+01
0	 7.571428571428572e+00	 9.000000000000000e+00	 1.000533512041729e+01
0	 7.571428571428569e+00	 9.142857142857141e+00	 1.000435623611324e+01
0	 7.571428571428571e+00	 9.285714285714281e+00	 1.000339152133799e+01
0	 7.571428571428569e+00	 9.428571428571427e+00	 1.000246096240448e+01
0	 7.571428571428571e+00	 9.571428571428569e+00	 1.000158454562566e+01
0	 7.571428571428570e+00	 9.714285714285712e+00	 1.000078225731446e+01
0	 7.571428571428569e+00	 9.857142857142854e+00	 1.000007408378379e+01
0	 7.571428571428570e+00	 9.999999999999998e+00	 9.999480011346641e+00
0	 7.714285714285714e+00	 8.571428571428573e+00	 1.000788905343405e+01
0	 7.714285714285714e+00	 8.714285714285715e+00	 1.000679952335882e+01
0	 7.714285714285713e+00	 8.857142857142858e+00	 1.000571044431664e+01
0	 7.714285714285712e+00	 8.999999999999996e+00	 1.000464790431147e+01
0	 7.714285714285712e+00	 9.142857142857142e+00	 1.000363799134721e+01
0	 7.714285714285714e+00	 9.285714285714283e+00	 1.000270679342778e+01
0	 7.714285714285712e+00	 9.428571428571427e+00	 1.000188039855703e+01
0	 7.714285714285713e+00	 9.571428571428569e+00	 1.000118489473892e+01
0	 7.714285714285714e+00	 9.714285714285710e+00	 1.000064636997737e+01
0	 7.714285714285714e+00	 9.857142857142854e+00	 1.000029091227618e+01
0	 7.714285714285714e+00	 1.000000000000000e+01	 1.000014460963943e+01
0	 7.857142857142857e+00	 8.571428571428573e+00	 1.000756034003550e+01
0	 7.857142857142854e+00	 8.714285714285714e+00	 1.000626524442907e+01
0	 7.857142857142855e+00	 8.857142857142858e+00	 1.000503105817250e+01
0	 7.857142857142856e+00	 8.999999999999996e+00	 1.000388637830483e+01
0	 7.857142857142854e+00	 9.142857142857141e+00	 1.000285980186509e+01
0	 7.857142857142858e+00	 9.285714285714286e+00	 1.000197992589231e+01
0	 7.857142857142857e+00	 9.428571428571427e+00	 1.000127534742550e+01
0	 7.857142857142855e+00	 9.571428571428568e+00	 1.000077466350371e+01
0	 7.857142857142855e+00	 9.714285714285710e+00	 1.000050647116598e+01
0	 7.857142857142855e+00	 9.857142857142852e+00	 1.000049936745133e+01
0	 7.857142857142854e+00	 9.999999999999998e+00	 1.000078194939877e+01
0	 7.999999999999997e+00	 8.571428571428571e+00	 1.000716440958733e+01
0	 7.999999999999997e+00	 8.714285714285715e+00	 1.000567377330036e+01
0	 7.999999999999997e+00	 8.857142857142858e+00	 1.000431153879833e+01
0	 7.999999999999999e+00	 9.000000000000002e+00	 1.000310521949959e+01
0	 8.000000000000000e+00	 9.142857142857142e+00	 1.000208232882239e+01
0	 7.999999999999999e+00	 9.285714285714286e+00	 1.000127038018505e+01
0	 7.999999999999998e+00	 9.428571428571427e+00	 1.000069688700590e+01
0	 7.999999999999999e+00	 9.571428571428569e+00	 1.000038936270325e+01
0	 7.999999999999998e+00	 9.714285714285710e+00	 1.000037532069540e+01
0	 7.999999999999998e+00	 9.857142857142854e+00	 1.000068227440068e+01
0	 7.999999999999997e+00	 1.000000000000000e+01	 1.000133773723731e+01
0	 8.142857142857141e+00	 8.571428571428571e+00	 1.000669488449958e+01
0	 8.142857142857142e+00	 8.714285714285717e+00	 1.000504626770216e+01
0	 8.142857142857141e+00	 8.857142857142858e+00	 1.000359339548769e+01
0	 8.142857142857141e+00	 9.000000000000000e+00	 1.000235910499793e+01
0	 8.142857142857141e+00	 9.142857142857142e+00	 1.000136623337461e+01
0	 8.142857142857141e+00	 9.285714285714285e+00	 1.000063761775949e+01
0	 8.142857142857142e+00	 9.428571428571427e+00	 1.000019609529430e+01
0	 8.142857142857141e+00	 9.571428571428568e+00	 1.000006450312079e+01
0	 8.142857142857139e+00	 9.714285714285710e+00	 1.000026567838067e+01
0	 8.142857142857141e+00	 9.857142857142854e+00	 1.000082245821573e+01
0	 8.142857142857141e+00	 1.000000000000000e+01	 1.000175767976766e+01
0	 8.285714285714285e+00	 8.571428571428573e+00	 1.000614538718236e+01
0	 8.285714285714283e+00	 8.714285714285715e+00	 1.000440388536395e+01
0	 8.285714285714285e+00	 8.857142857142858e+00	 1.000291813753408e+01
0	 8.285714285714285e+00	 9.000000000000000e+00	 1.000170271190210e+01
0	 8.285714285714283e+00	 9.142857142857142e+00	 1.000077217667732e+01
0	 8.285714285714283e+00	 9.285714285714285e+00	 1.000014110006909e+01
0	 8.285714285714283e+00	 9.428571428571425e+00	 9.999824050286710e+00
0	 8.285714285714283e+00	 9.571428571428569e+00	 9.999835595539507e+00
0	 8.285714285714285e+00	 9.714285714285712e+00	 1.000019030403683e+01
0	 8.285714285714283e+00	 9.857142857142854e+00	 1.000090274398805e+01
0	 8.285714285714283e+00	 1.000000000000000e+01	 1.000198748360243e+01
0	 8.428571428571427e+00	 8.571428571428573e+00	 1.000550954004574e+01
0	 8.428571428571425e+00	 8.714285714285715e+00	 1.000376778401524e+01
0	 8.428571428571423e+00	 8.857142857142858e+00	 1.000232727423109e+01
0	 8.428571428571427e+00	 9.000000000000002e+00	 1.000119071731432e+01
0	 8.428571428571425e+00	 9.142857142857142e+00	 1.000036081988601e+01
0	 8.428571428571423e+00	 9.285714285714283e+00	 9.999840288567261e+00
0	 8.428571428571425e+00	 9.428571428571429e+00	 9.999631829979119e+00
0	 8.428571428571425e+00	 9.571428571428569e+00	 9.999738150742672e+00
0	 8.428571428571427e+00	 9.714285714285714e+00	 1.000016195747900e+01
0	 8.428571428571425e+00	 9.857142857142854e+00	 1.000090595680910e+01
0	 8.428571428571425e+00	 1.000000000000000e+01	 1.000197285535417e+01
0	 8.571428571428573e+00	 8.571428571428571e+00	 1.000478096549977e+01
0	 8.571428571428573e+00	 8.714285714285715e+00	 1.000315912138551e+01
0	 8.571428571428573e+00	 8.857142857142858e+00	 1.000186231487218e+01
0	 8.571428571428571e+00	 9.000000000000000e+00	 1.000087779833676e+01
0	 8.571428571428575e+00	 9.142857142857144e+00	 1.000019282415622e+01
0	 8.571428571428573e+00	 9.285714285714286e+00	 9.999794644707496e+00
0	 8.571428571428575e+00	 9.428571428571429e+00	 9.999670512367599e+00
0	 8.571428571428573e+00	 9.571428571428571e+00	 9.999807679513495e+00
0	 8.571428571428573e+00	 9.714285714285712e+00	 1.000019339852213e+01
0	 8.571428571428573e+00	 9.857142857142854e+00	 1.000081492177045e+01
0	 8.571428571428573e+00	 1.000000000000000e+01	 1.000165950163554e+01
0	 8.571428571428573e+00	 0.000000000000000e+00	 1.001276424893313e+01
0	 8.571428571428571e+00	 1.428571428571429e-01	 1.000235378780573e+01
0	 8.571428571428571e+00	 2.857142857142858e-01	 9.993544346894899e+00
0	 8.571428571428571e+00	 4.285714285714288e-01	 9.986382181338513e+00
0	 8.571428571428573e+00	 5.714285714285715e-01	 9.980913546274490e+00
0	 8.571428571428573e+00	 7.142857142857143e-01	 9.977184696840716e+00
0	 8.571428571428571e+00	 8.571428571428574e-01	 9.975241888175107e+00
0	 8.571428571428573e+00	 1.000000000000000e+00	 9.975131375415554e+00
0	 8.571428571428571e+00	 1.142857142857143e+00	 9.976899413699957e+00
0	 8.571428571428575e+00	 1.285714285714286e+00	 9.980592258166219e+00
0	 8.571428571428575e+00	 1.428571428571429e+00	 9.986256163952246e+00
0	 8.714285714285715e+00	 0.000000000000000e+00	 1.000694036874825e+01
0	 8.714285714285714e+00	 1.428571428571430e-01	 9.996871751982271e+00
0	 8.714285714285717e+00	 2.857142857142858e-01	 9.988349157352246e+00
0	 8.714285714285717e+00	 4.285714285714288e-01	 9.981412597006639e+00
0	 8.714285714285714e+00	 5.714285714285714e-01	 9.976102083093934e+00
0	 8.714285714285715e+00	 7.142857142857143e-01	 9.972457627762578e+00
0	 8.714285714285719e+00	 8.571428571428575e-01	 9.970519243161041e+00
0	 8.714285714285717e+00	 1.000000000000000e+00	 9.970326941437790e+00
0	 8.714285714285719e+00	 1.142857142857143e+00	 9.971920734741285e+00
0	 8.714285714285712e+00	 1.285714285714286e+00	 9.975340635219981e+00
0	 8.714285714285717e+00	 1.428571428571429e+00	 9.980626655022355e+00
0	 8.857142857142858e+00	 0.000000000000000e+00	 9.995332694185567e+00
0	 8.857142857142858e+00	 1.428571428571429e-01	 9.987333156611585e+00
0	 8.857142857142858e+00	 2.857142857142858e-01	 9.980584220826122e+00
0	 8.857142857142861e+00	 4.285714285714287e-01	 9.975117949306508e+00
0	 8.857142857142859e+00	 5.714285714285715e-01	 9.970966404530046e+00
0	 8.857142857142858e+00	 7.142857142857144e-01	 9.968161648974053e+00
0	 8.857142857142859e+00	 8.571428571428575e-01	 9.966735745115837e+00
0	 8.857142857142856e+00	 1.000000000000000e+00	 9.966720755432721e+00
0	 8.857142857142861e+00	 1.142857142857144e+00	 9.968148742402009e+00
0	 8.857142857142858e+00	 1.285714285714286e+00	 9.971051768501020e+00
0	 8.857142857142859e+00	 1.428571428571429e+00	 9.975461896207067e+00
0	 9.000000000000000e+00	 0.000000000000000e+00	 9.979675692148383e+00
0	 9.000000000000002e+00	 1.428571428571429e-01	 9.974821293864760e+00
0	 9.000000000000000e+00	 2.857142857142857e-01	 9.970778762924969e+00
0	 8.999999999999998e+00	 4.285714285714287e-01	 9.967570505453430e+00
0	 8.999999999999998e+00	 5.714285714285714e-01	 9.965218927574602e+00
0	 9.000000000000000e+00	 7.142857142857143e-01	 9.963746435412933e+00
0	 9.000000000000002e+00	 8.571428571428575e-01	 9.963175435092859e+00
0	 9.000000000000000e+00	 1.000000000000000e+00	 9.963528332738836e+00
0	 9.000000000000005e+00	 1.142857142857144e+00	 9.964827534475315e+00
0	 9.000000000000000e+00	 1.285714285714286e+00	 9.967095446426722e+00
0	 9.000000000000002e+00	 1.428571428571429e+00	 9.970354474717528e+00
0	 9.142857142857142e+00	 0.000000000000000e+00	 9.961703829540015e+00
0	 9.142857142857142e+00	 1.428571428571429e-01	 9.960419455912930e+00
0	 9.142857142857146e+00	 2.857142857142859e-01	 9.959462009257212e+00
0	 9.142857142857142e+00	 4.285714285714286e-01	 9.958842532662754e+00
0	 9.142857142857146e+00	 5.714285714285716e-01	 9.958572069219395e+00
0	 9.142857142857142e+00	 7.142857142857143e-01	 9.958661662017009e+00
0	 9.142857142857144e+00	 8.571428571428574e-01	 9.959122354145462e+00
0	 9.142857142857141e+00	 1.000000000000000e+00	 9.959965188694623e+00
0	 9.142857142857142e+00	 1.142857142857143e+00	 9.961201208754344e+00
0	 9.142857142857144e+00	 1.285714285714286e+00	 9.962841457414505e+00
0	 9.142857142857142e+00	 1.428571428571429e+00	 9.964896977764955e+00
0	 9.285714285714285e+00	 0.000000000000000e+00	 9.943151573263778e+00
0	 9.285714285714283e+00	 1.428571428571429e-01	 9.945210934927150e+00
0	 9.285714285714286e+00	 2.857142857142858e-01	 9.947163185431304e+00
0	 9.285714285714285e+00	 4.285714285714288e-01	 9.949006298149790e+00
0	 9.285714285714286e+00	 5.714285714285716e-01	 9.950738246456199e+00
0	 9.285714285714285e+00	 7.142857142857144e-01	 9.952357003724071e+00
0	 9.285714285714285e+00	 8.571428571428574e-01	 9.953860543326996e+00
0	 9.285714285714281e+00	 1.000000000000000e+00	 9.955246838638534e+00
0	 9.285714285714286e+00	 1.142857142857143e+00	 9.956513863032264e+00
0	 9.285714285714283e+00	 1.285714285714286e+00	 9.957659589881739e+00
0	 9.285714285714283e+00	 1.428571428571428e+00	 9.958681992560528e+00
0	 9.428571428571427e+00	 0.000000000000000e+00	 9.925753390222981e+00
0	 9.428571428571427e+00	 1.428571428571429e-01	 9.930279023078544e+00
0	 9.428571428571427e+00	 2.857142857142858e-01	 9.934411517055672e+00
0	 9.428571428571429e+00	 4.285714285714288e-01	 9.938134069129896e+00
0	 9.428571428571427e+00	 5.714285714285715e-01	 9.941429876276800e+00
0	 9.428571428571431e+00	 7.142857142857145e-01	 9.944282135471930e+00
0	 9.428571428571427e+00	 8.571428571428575e-01	 9.946674043690841e+00
0	 9.428571428571427e+00	 1.000000000000000e+00	 9.948588797909087e+00
0	 9.428571428571427e+00	 1.142857142857143e+00	 9.950009595102234e+00
0	 9.428571428571429e+00	 1.285714285714286e+00	 9.950919632245828e+00
0	 9.428571428571427e+00	 1.428571428571429e+00	 9.951302106315435e+00
0	 9.571428571428569e+00	 0.000000000000000e+00	 9.911243747320935e+00
0	 9.571428571428569e+00	 1.428571428571429e-01	 9.916707012538200e+00
0	 9.571428571428569e+00	 2.857142857142858e-01	 9.921736229738743e+00
0	 9.571428571428569e+00	 4.285714285714287e-01	 9.926298112818403e+00
0	 9.571428571428568e+00	 5.714285714285715e-01	 9.930359375672989e+00
0	 9.571428571428568e+00	 7.142857142857144e-01	 9.933886732198358e+00
0	 9.571428571428569e+00	 8.571428571428574e-01	 9.936846896290332e+00
0	 9.571428571428569e+00	 1.000000000000000e+00	 9.939206581844740e+00
0	 9.571428571428569e+00	 1.142857142857143e+00	 9.940932502757406e+00
0	 9.571428571428569e+00	 1.285714285714286e+00	 9.941991372924170e+00
0	 9.571428571428571e+00	 1.428571428571429e+00	 9.942349906240839e+00
0	 9.714285714285712e+00	 0.000000000000000e+00	 9.901357111460960e+00
0	 9.714285714285712e+00	 1.428571428571429e-01	 9.905578195477213e+00
0	 9.714285714285712e+00	 2.857142857142858e-01	 9.909666549088959e+00
0	 9.714285714285712e+00	 4.285714285714287e-01	 9.913570696430604e+00
0	 9.714285714285710e+00	 5.714285714285715e-01	 9.917239161636546e+00
0	 9.714285714285712e+00	 7.142857142857144e-01	 9.920620468841154e+00
0	 9.714285714285714e+00	 8.571428571428574e-01	 9.923663142178848e+00
0	 9.714285714285714e+00	 1.000000000000000e+00	 9.926315705783962e+00
0	 9.714285714285714e+00	 1.142857142857143e+00	 9.928526683790944e+00
0	 9.714285714285712e+00	 1.285714285714286e+00	 9.930244600334131e+00
0	 9.714285714285712e+00	 1.428571428571429e+00	 9.931417979547952e+00
0	 9.857142857142852e+00	 0.000000000000000e+00	 9.897827949546382e+00
0	 9.857142857142854e+00	 1.428571428571429e-01	 9.897975864066671e+00
0	 9.857142857142856e+00	 2.857142857142858e-01	 9.898731700714762e+00
0	 9.857142857142852e+00	 4.285714285714287e-01	 9.900024087181874e+00
0	 9.857142857142854e+00	 5.714285714285715e-01	 9.901781651159247e+00
0	 9.857142857142854e+00	 7.142857142857144e-01	 9.903933020338126e+00
0	 9.857142857142856e+00	 8.571428571428575e-01	 9.906406822409714e+00
0	 9.857142857142854e+00	 1.000000000000000e+00	 9.909131685065258e+00
0	 9.857142857142856e+00	 1.142857142857143e+00	 9.912036235995998e+00
0	 9.857142857142854e+00	 1.285714285714286e+00	 9.915049102893141e+00
0	 9.857142857142854e+00	 1.428571428571429e+00	 9.918098913447947e+00
0	 1.000000000000000e+01	 0.000000000000000e+00	 9.902390728480500e+00
0	 1.000000000000000e+01	 1.428571428571429e-01	 9.894983310477686e+00
0	 1.000000000000000e+01	 2.857142857142858e-01	 9.889460910224578e+00
0	 1.000000000000000e+01	 4.285714285714287e-01	 9.885730552287521e+00
0	 1.000000000000000e+01	 5.714285714285714e-01	 9.883699261232898e+00
0	 1.000000000000000e+01	 7.142857142857144e-01	 9.883274061627040e+00
0	 1.000000000000000e+01	 8.571428571428573e-01	 9.884361978036324e+00
0	 1.000000000000000e+01	 1.000000000000000e+00	 9.886870035027112e+00
0	 1.000000000000000e+01	 1.142857142857143e+00	 9.890705257165727e+00
0	 1.000000000000000e+01	 1.285714285714286e+00	 9.895774669018573e+00
0	 1.000000000000000e+01	 1.428571428571429e+00	 9.901985295152015e+00
0	 8.571428571428575e+00	 1.428571428571429e+00	 9.986256163952246e+00
0	 8.571428571428573e+00	 1.571428571428572e+00	 9.992529176368659e+00
0	 8.571428571428573e+00	 1.714285714285715e+00	 9.998014870520706e+00
0	 8.571428571428573e+00	 1.857142857142857e+00	 1.000270779623825e+01
0	 8.571428571428573e+00	 2.000000000000000e+00	 1.000660250335111e+01
0	 8.571428571428571e+00	 2.142857142857143e+00	 1.000969354168915e+01
0	 8.571428571428573e+00	 2.285714285714286e+00	 1.001197546108223e+01
0	 8.571428571428573e+00	 2.428571428571429e+00	 1.001344281136017e+01
0	 8.571428571428575e+00	 2.571428571428573e+00	 1.001409014235283e+01
0	 8.571428571428571e+00	 2.714285714285715e+00	 1.001391200389007e+01
0	 8.571428571428575e+00	 2.857142857142857e+00	 1.001290294580171e+01
0	 8.714285714285717e+00	 1.428571428571429e+00	 9.980626655022355e+00
0	 8.714285714285712e+00	 1.571428571428571e+00	 9.986468572954212e+00
0	 8.714285714285717e+00	 1.714285714285715e+00	 9.991535528470530e+00
0	 8.714285714285719e+00	 1.857142857142858e+00	 9.995836574693605e+00
0	 8.714285714285715e+00	 2.000000000000000e+00	 9.999380764745718e+00
0	 8.714285714285714e+00	 2.142857142857144e+00	 1.000217715174915e+01
0	 8.714285714285715e+00	 2.285714285714286e+00	 1.000423478882617e+01
0	 8.714285714285715e+00	 2.428571428571429e+00	 1.000556272909908e+01
0	 8.714285714285717e+00	 2.571428571428572e+00	 1.000617002569014e+01
0	 8.714285714285717e+00	 2.714285714285715e+00	 1.000606573172164e+01
0	 8.714285714285715e+00	 2.857142857142858e+00	 1.000525890031588e+01
0	 8.857142857142859e+00	 1.428571428571429e+00	 9.975461896207067e+00
0	 8.857142857142861e+00	 1.571428571428572e+00	 9.980311239898883e+00
0	 8.857142857142859e+00	 1.714285714285714e+00	 9.984523853937162e+00
0	 8.857142857142859e+00	 1.857142857142858e+00	 9.988119710772079e+00
0	 8.857142857142859e+00	 2.000000000000000e+00	 9.991118782853839e+00
0	 8.857142857142856e+00	 2.142857142857143e+00	 9.993541042632632e+00
0	 8.857142857142858e+00	 2.285714285714287e+00	 9.995406462558639e+00
0	 8.857142857142859e+00	 2.428571428571429e+00	 9.996735015082066e+00
0	 8.857142857142859e+00	 2.571428571428573e+00	 9.997546672653106e+00
0	 8.857142857142856e+00	 2.714285714285715e+00	 9.997861407721940e+00
0	 8.857142857142861e+00	 2.857142857142859e+00	 9.997699192738764e+00
0	 9.000000000000002e+00	 1.428571428571429e+00	 9.970354474717528e+00
0	 8.999999999999998e+00	 1.571428571428572e+00	 9.973899163845473e+00
0	 9.000000000000002e+00	 1.714285714285715e+00	 9.977027326101080e+00
0	 9.000000000000002e+00	 1.857142857142858e+00	 9.979766269297908e+00
0	 9.000000000000002e+00	 2.000000000000001e+00	 9.982143301249554e+00
0	 9.000000000000002e+00	 2.142857142857144e+00	 9.984185729769601e+00
0	 9.000000000000000e+00	 2.285714285714286e+00	 9.985920862671623e+00
0	 9.000000000000004e+00	 2.428571428571429e+00	 9.987376007769202e+00
0	 9.000000000000000e+00	 2.571428571428572e+00	 9.988578472875931e+00
0	 9.000000000000002e+00	 2.714285714285715e+00	 9.989555565805363e+00
0	 9.000000000000000e+00	 2.857142857142857e+00	 9.990334594371104e+00
0	 9.142857142857142e+00	 1.428571428571429e+00	 9.964896977764955e+00
0	 9.142857142857144e+00	 1.571428571428572e+00	 9.967074331436773e+00
0	 9.142857142857144e+00	 1.714285714285715e+00	 9.969093424142754e+00
0	 9.142857142857141e+00	 1.857142857142857e+00	 9.970985315095334e+00
0	 9.142857142857142e+00	 2.000000000000000e+00	 9.972781063506943e+00
0	 9.142857142857144e+00	 2.142857142857144e+00	 9.974511728590052e+00
0	 9.142857142857146e+00	 2.285714285714287e+00	 9.976208369557106e+00
0	 9.142857142857144e+00	 2.428571428571429e+00	 9.977902045620539e+00
0	 9.142857142857142e+00	 2.571428571428573e+00	 9.979623815992802e+00
0	 9.142857142857144e+00	 2.714285714285715e+00	 9.981404739886337e+00
0	 9.142857142857142e+00	 2.857142857142858e+00	 9.983275876513604e+00
0	 9.285714285714283e+00	 1.428571428571428e+00	 9.958681992560528e+00
0	 9.285714285714286e+00	 1.571428571428572e+00	 9.959678729315590e+00
0	 9.285714285714288e+00	 1.714285714285715e+00	 9.960769627242678e+00
0	 9.285714285714285e+00	 1.857142857142858e+00	 9.961985912988574e+00
0	 9.285714285714286e+00	 2.000000000000001e+00	 9.963358813200086e+00
0	 9.285714285714285e+00	 2.142857142857144e+00	 9.964919554523984e+00
0	 9.285714285714285e+00	 2.285714285714286e+00	 9.966699363607056e+00
0	 9.285714285714285e+00	 2.428571428571429e+00	 9.968729467096114e+00
0	 9.285714285714286e+00	 2.571428571428573e+00	 9.971041091637922e+00
0	 9.285714285714283e+00	 2.714285714285715e+00	 9.973665463879282e+00
0	 9.285714285714285e+00	 2.857142857142857e+00	 9.976633810466968e+00
0	 9.428571428571427e+00	 1.428571428571429e+00	 9.951302106315435e+00
0	 9.428571428571427e+00	 1.571428571428572e+00	 9.951554344124693e+00
0	 9.428571428571427e+00	 1.714285714285715e+00	 9.952103414581314e+00
0	 9.428571428571429e+00	 1.857142857142858e+00	 9.952977127801896e+00
0	 9.428571428571427e+00	 2.000000000000000e+00	 9.954203293903046e+00
0	 9.428571428571429e+00	 2.142857142857144e+00	 9.955809723001368e+00
0	 9.428571428571429e+00	 2.285714285714286e+00	 9.957824225213484e+00
0	 9.428571428571427e+00	 2.428571428571430e+00	 9.960274610655993e+00
0	 9.428571428571427e+00	 2.571428571428572e+00	 9.963188689445492e+00
0	 9.428571428571427e+00	 2.714285714285715e+00	 9.966594271698602e+00
0	 9.428571428571427e+00	 2.857142857142857e+00	 9.970519167531924e+00
0	 9.571428571428571e+00	 1.428571428571429e+00	 9.942349906240839e+00
0	 9.571428571428573e+00	 1.571428571428572e+00	 9.942543162506894e+00
0	 9.571428571428569e+00	 1.714285714285714e+00	 9.943142265339151e+00
0	 9.571428571428569e+00	 1.857142857142858e+00	 9.944168024359531e+00
0	 9.571428571428571e+00	 2.000000000000000e+00	 9.945641249189920e+00
0	 9.571428571428569e+00	 2.142857142857143e+00	 9.947582749452229e+00
0	 9.571428571428571e+00	 2.285714285714286e+00	 9.950013334768357e+00
0	 9.571428571428569e+00	 2.428571428571429e+00	 9.952953814760214e+00
0	 9.571428571428569e+00	 2.571428571428573e+00	 9.956424999049711e+00
0	 9.571428571428571e+00	 2.714285714285715e+00	 9.960447697258715e+00
0	 9.571428571428571e+00	 2.857142857142858e+00	 9.965042719009173e+00
0	 9.714285714285712e+00	 1.428571428571429e+00	 9.931417979547952e+00
0	 9.714285714285714e+00	 1.571428571428572e+00	 9.932487171104984e+00
0	 9.714285714285712e+00	 1.714285714285714e+00	 9.933933658696681e+00
0	 9.714285714285714e+00	 1.857142857142858e+00	 9.935767667485706e+00
0	 9.714285714285710e+00	 2.000000000000000e+00	 9.937999422634768e+00
0	 9.714285714285714e+00	 2.142857142857144e+00	 9.940639149306524e+00
0	 9.714285714285710e+00	 2.285714285714286e+00	 9.943697072663664e+00
0	 9.714285714285712e+00	 2.428571428571429e+00	 9.947183417868851e+00
0	 9.714285714285714e+00	 2.571428571428572e+00	 9.951108410084753e+00
0	 9.714285714285712e+00	 2.714285714285715e+00	 9.955482274474072e+00
0	 9.714285714285714e+00	 2.857142857142857e+00	 9.960315236199468e+00
0	 9.857142857142854e+00	 1.428571428571429e+00	 9.918098913447947e+00
0	 9.857142857142854e+00	 1.571428571428572e+00	 9.921228356561741e+00
0	 9.857142857142854e+00	 1.714285714285715e+00	 9.924525073834356e+00
0	 9.857142857142854e+00	 1.857142857142858e+00	 9.927985122004685e+00
0	 9.857142857142854e+00	 2.000000000000001e+00	 9.931604557811681e+00
0	 9.857142857142852e+00	 2.142857142857143e+00	 9.935379437994275e+00
0	 9.857142857142854e+00	 2.285714285714286e+00	 9.939305819291388e+00
0	 9.857142857142856e+00	 2.428571428571429e+00	 9.943379758441930e+00
0	 9.857142857142854e+00	 2.571428571428573e+00	 9.947597312184854e+00
0	 9.857142857142856e+00	 2.714285714285715e+00	 9.951954537259077e+00
0	 9.857142857142856e+00	 2.857142857142858e+00	 9.956447490403502e+00
0	 1.000000000000000e+01	 1.428571428571429e+00	 9.901985295152015e+00
0	 1.000000000000000e+01	 1.571428571428572e+00	 9.908608705519983e+00
0	 1.000000000000000e+01	 1.714285714285714e+00	 9.914963989932650e+00
0	 1.000000000000000e+01	 1.857142857142858e+00	 9.921029452740694e+00
0	 1.000000000000000e+01	 2.000000000000001e+00	 9.926783398294749e+00
0	 1.000000000000000e+01	 2.142857142857144e+00	 9.932204130945470e+00
0	 1.000000000000000e+01	 2.285714285714286e+00	 9.937269955043504e+00
0	 1.000000000000000e+01	 2.428571428571430e+00	 9.941959174939534e+00
0	 1.000000000000000e+01	 2.571428571428572e+00	 9.946250094984174e+00
0	 1.000000000000000e+01	 2.714285714285715e+00	 9.950121019528115e+00
0	 1.000000000000000e+01	 2.857142857142857e+00	 9.953550252921973e+00
0	 8.571428571428575e+00	 2.857142857142857e+00	 1.001290294580171e+01
0	 8.571428571428573e+00	 3.000000000000000e+00	 1.001164424473351e+01
0	 8.571428571428573e+00	 3.142857142857143e+00	 1.001073518001362e+01
0	 8.571428571428575e+00	 3.285714285714287e+00	 1.001019730549551e+01
0	 8.571428571428571e+00	 3.428571428571429e+00	 1.001005217503266e+01
0	 8.571428571428573e+00	 3.571428571428572e+00	 1.001032134247854e+01
0	 8.571428571428571e+00	 3.714285714285715e+00	 1.001102636168662e+01
0	 8.571428571428569e+00	 3.857142857142857e+00	 1.001218878651038e+01
0	 8.571428571428569e+00	 3.999999999999999e+00	 1.001383017080328e+01
0	 8.571428571428571e+00	 4.142857142857143e+00	 1.001597206841881e+01
0	 8.571428571428573e+00	 4.285714285714286e+00	 1.001863603321043e+01
0	 8.714285714285715e+00	 2.857142857142858e+00	 1.000525890031588e+01
0	 8.714285714285712e+00	 3.000000000000000e+00	 1.000432564531696e+01
0	 8.714285714285719e+00	 3.142857142857143e+00	 1.000383297463544e+01
0	 8.714285714285717e+00	 3.285714285714286e+00	 1.000377628249322e+01
0	 8.714285714285715e+00	 3.428571428571428e+00	 1.000415096311222e+01
0	 8.714285714285714e+00	 3.571428571428573e+00	 1.000495241071435e+01
0	 8.714285714285717e+00	 3.714285714285714e+00	 1.000617601952152e+01
0	 8.714285714285717e+00	 3.857142857142857e+00	 1.000781718375564e+01
0	 8.714285714285717e+00	 4.000000000000000e+00	 1.000987129763862e+01
0	 8.714285714285712e+00	 4.142857142857141e+00	 1.001233375539236e+01
0	 8.714285714285717e+00	 4.285714285714286e+00	 1.001519995123878e+01
0	 8.857142857142861e+00	 2.857142857142859e+00	 9.997699192738764e+00
0	 8.857142857142859e+00	 3.000000000000002e+00	 9.997522554665887e+00
0	 8.857142857142859e+00	 3.142857142857143e+00	 9.997764796482967e+00
0	 8.857142857142859e+00	 3.285714285714286e+00	 9.998402054666302e+00
0	 8.857142857142861e+00	 3.428571428571430e+00	 9.999410465692140e+00
0	 8.857142857142859e+00	 3.571428571428572e+00	 1.000076616603678e+01
0	 8.857142857142859e+00	 3.714285714285715e+00	 1.000244529217649e+01
0	 8.857142857142858e+00	 3.857142857142857e+00	 1.000442398058753e+01
0	 8.857142857142859e+00	 4.000000000000000e+00	 1.000667836774619e+01
0	 8.857142857142859e+00	 4.142857142857145e+00	 1.000918459012874e+01
0	 8.857142857142859e+00	 4.285714285714287e+00	 1.001191878421146e+01
0	 9.000000000000000e+00	 2.857142857142857e+00	 9.990334594371104e+00
0	 9.000000000000002e+00	 3.000000000000000e+00	 9.991192920544488e+00
0	 9.000000000000002e+00	 3.142857142857143e+00	 9.992365554832208e+00
0	 9.000000000000002e+00	 3.285714285714286e+00	 9.993816277850819e+00
0	 8.999999999999998e+00	 3.428571428571430e+00	 9.995508870216881e+00
0	 9.000000000000002e+00	 3.571428571428572e+00	 9.997407112546957e+00
0	 9.000000000000000e+00	 3.714285714285716e+00	 9.999474785457622e+00
0	 9.000000000000004e+00	 3.857142857142858e+00	 1.000167566956545e+01
0	 9.000000000000002e+00	 4.000000000000000e+00	 1.000397354548699e+01
0	 8.999999999999998e+00	 4.142857142857143e+00	 1.000633219383881e+01
0	 9.000000000000002e+00	 4.285714285714286e+00	 1.000871539523748e+01
0	 9.142857142857142e+00	 2.857142857142858e+00	 9.983275876513604e+00
0	 9.142857142857144e+00	 3.000000000000000e+00	 9.985294690716987e+00
0	 9.142857142857142e+00	 3.142857142857143e+00	 9.987470158959145e+00
0	 9.142857142857142e+00	 3.285714285714286e+00	 9.989760607882838e+00
0	 9.142857142857144e+00	 3.428571428571430e+00	 9.992124364130872e+00
0	 9.142857142857142e+00	 3.571428571428572e+00	 9.994519754346008e+00
0	 9.142857142857144e+00	 3.714285714285715e+00	 9.996905105171054e+00
0	 9.142857142857142e+00	 3.857142857142857e+00	 9.999238743248775e+00
0	 9.142857142857141e+00	 4.000000000000000e+00	 1.000147899522196e+01
0	 9.142857142857144e+00	 4.142857142857144e+00	 1.000358418773340e+01
0	 9.142857142857141e+00	 4.285714285714286e+00	 1.000551264742586e+01
0	 9.285714285714285e+00	 2.857142857142857e+00	 9.976633810466968e+00
0	 9.285714285714285e+00	 3.000000000000001e+00	 9.979785812947565e+00
0	 9.285714285714286e+00	 3.142857142857144e+00	 9.982913518139744e+00
0	 9.285714285714285e+00	 3.285714285714286e+00	 9.985976700598448e+00
0	 9.285714285714285e+00	 3.428571428571429e+00	 9.988935134878579e+00
0	 9.285714285714285e+00	 3.571428571428573e+00	 9.991748595535089e+00
0	 9.285714285714285e+00	 3.714285714285715e+00	 9.994376857122878e+00
0	 9.285714285714285e+00	 3.857142857142858e+00	 9.996779694196915e+00
0	 9.285714285714286e+00	 4.000000000000001e+00	 9.998916881312093e+00
0	 9.285714285714283e+00	 4.142857142857143e+00	 1.000074819302336e+01
0	 9.285714285714286e+00	 4.285714285714287e+00	 1.000223340388562e+01
0	 9.428571428571427e+00	 2.857142857142857e+00	 9.970519167531924e+00
0	 9.428571428571429e+00	 3.000000000000001e+00	 9.974624235000428e+00
0	 9.428571428571431e+00	 3.142857142857144e+00	 9.978530541650027e+00
0	 9.428571428571427e+00	 3.285714285714286e+00	 9.982206211833697e+00
0	 9.428571428571427e+00	 3.428571428571428e+00	 9.985619369904454e+00
0	 9.428571428571431e+00	 3.571428571428572e+00	 9.988738140215297e+00
0	 9.428571428571429e+00	 3.714285714285714e+00	 9.991530647119232e+00
0	 9.428571428571427e+00	 3.857142857142859e+00	 9.993965014969241e+00
0	 9.428571428571429e+00	 4.000000000000002e+00	 9.996009368118342e+00
0	 9.428571428571427e+00	 4.142857142857144e+00	 9.997631830919527e+00
0	 9.428571428571427e+00	 4.285714285714286e+00	 9.998800527725797e+00
0	 9.571428571428571e+00	 2.857142857142858e+00	 9.965042719009173e+00
0	 9.571428571428573e+00	 3.000000000000000e+00	 9.969767904639784e+00
0	 9.571428571428571e+00	 3.142857142857143e+00	 9.974156138765945e+00
0	 9.571428571428569e+00	 3.285714285714286e+00	 9.978190797424668e+00
0	 9.571428571428571e+00	 3.428571428571428e+00	 9.981855256652953e+00
0	 9.571428571428568e+00	 3.571428571428572e+00	 9.985132892487783e+00
0	 9.571428571428569e+00	 3.714285714285715e+00	 9.988007080966197e+00
0	 9.571428571428569e+00	 3.857142857142858e+00	 9.990461198125153e+00
0	 9.571428571428569e+00	 4.000000000000001e+00	 9.992478620001670e+00
0	 9.571428571428569e+00	 4.142857142857144e+00	 9.994042722632758e+00
0	 9.571428571428569e+00	 4.285714285714286e+00	 9.995136882055377e+00
0	 9.714285714285714e+00	 2.857142857142857e+00	 9.960315236199468e+00
0	 9.714285714285710e+00	 3.000000000000000e+00	 9.965174769629822e+00
0	 9.714285714285712e+00	 3.142857142857143e+00	 9.969625218763493e+00
0	 9.714285714285712e+00	 3.285714285714286e+00	 9.973672113207424e+00
0	 9.714285714285712e+00	 3.428571428571429e+00	 9.977320982568516e+00
0	 9.714285714285712e+00	 3.571428571428573e+00	 9.980577356453697e+00
0	 9.714285714285712e+00	 3.714285714285715e+00	 9.983446764469893e+00
0	 9.714285714285712e+00	 3.857142857142858e+00	 9.985934736224044e+00
0	 9.714285714285712e+00	 4.000000000000000e+00	 9.988046801323055e+00
0	 9.714285714285712e+00	 4.142857142857144e+00	 9.989788489373884e+00
0	 9.714285714285712e+00	 4.285714285714286e+00	 9.991165329983412e+00
0	 9.857142857142856e+00	 2.857142857142858e+00	 9.956447490403502e+00
0	 9.857142857142854e+00	 3.000000000000001e+00	 9.960802777734759e+00
0	 9.857142857142856e+00	 3.142857142857144e+00	 9.964772690918686e+00
0	 9.857142857142854e+00	 3.285714285714286e+00	 9.968391815018027e+00
0	 9.857142857142854e+00	 3.428571428571429e+00	 9.971694735095589e+00
0	 9.857142857142852e+00	 3.571428571428572e+00	 9.974716036214128e+00
0	 9.857142857142854e+00	 3.714285714285715e+00	 9.977490303436458e+00
0	 9.857142857142856e+00	 3.857142857142859e+00	 9.980052121825306e+00
0	 9.857142857142854e+00	 4.000000000000001e+00	 9.982436076443481e+00
0	 9.857142857142856e+00	 4.142857142857143e+00	 9.984676752353746e+00
0	 9.857142857142854e+00	 4.285714285714286e+00	 9.986808734618904e+00
0	 1.000000000000000e+01	 2.857142857142857e+00	 9.953550252921973e+00
0	 1.000000000000000e+01	 3.000000000000001e+00	 9.956609876718788e+00
0	 1.000000000000000e+01	 3.142857142857143e+00	 9.959433464507452e+00
0	 1.000000000000000e+01	 3.285714285714286e+00	 9.962091558692572e+00
0	 1.000000000000000e+01	 3.428571428571429e+00	 9.964654701678651e+00
0	 1.000000000000000e+01	 3.571428571428572e+00	 9.967193435870257e+00
0	 1.000000000000000e+01	 3.714285714285715e+00	 9.969778303671966e+00
0	 1.000000000000000e+01	 3.857142857142858e+00	 9.972479847488326e+00
0	 1.000000000000000e+01	 4.000000000000001e+00	 9.975368609723883e+00
0	 1.000000000000000e+01	 4.142857142857143e+00	 9.978515132783222e+00
0	 1.000000000000000e+01	 4.285714285714286e+00	 9.981989959070873e+00
0	 8.571428571428573e+00	 4.285714285714286e+00	 1.001863603321043e+01
0	 8.571428571428573e+00	 4.428571428571429e+00	 1.002135088485195e+01
0	 8.571428571428573e+00	 4.571428571428572e+00	 1.002361989786160e+01
0	 8.571428571428575e+00	 4.714285714285715e+00	 1.002542630835954e+01
0	 8.571428571428573e+00	 4.857142857142858e+00	 1.002675335246588e+01
0	 8.571428571428573e+00	 5.000000000000001e+00	 1.002758426630079e+01
0	 8.571428571428571e+00	 5.142857142857142e+00	 1.002790228598438e+01
0	 8.571428571428573e+00	 5.285714285714284e+00	 1.002769064763679e+01
0	 8.571428571428573e+00	 5.428571428571428e+00	 1.002693258737817e+01
0	 8.571428571428571e+00	 5.571428571428569e+00	 1.002561134132866e+01
0	 8.571428571428573e+00	 5.714285714285715e+00	 1.002371014560839e+01
0	 8.714285714285717e+00	 4.285714285714286e+00	 1.001519995123878e+01
0	 8.714285714285712e+00	 4.428571428571427e+00	 1.001799691530689e+01
0	 8.714285714285715e+00	 4.571428571428571e+00	 1.002025991939635e+01
0	 8.714285714285719e+00	 4.714285714285715e+00	 1.002199672023507e+01
0	 8.714285714285715e+00	 4.857142857142856e+00	 1.002321507455096e+01
0	 8.714285714285712e+00	 4.999999999999999e+00	 1.002392273907195e+01
0	 8.714285714285717e+00	 5.142857142857141e+00	 1.002412747052593e+01
0	 8.714285714285719e+00	 5.285714285714286e+00	 1.002383702564081e+01
0	 8.714285714285715e+00	 5.428571428571426e+00	 1.002305916114452e+01
0	 8.714285714285712e+00	 5.571428571428568e+00	 1.002180163376496e+01
0	 8.714285714285715e+00	 5.714285714285714e+00	 1.002007220023004e+01
0	 8.857142857142859e+00	 4.285714285714287e+00	 1.001191878421146e+01
0	 8.857142857142859e+00	 4.428571428571431e+00	 1.001448281973592e+01
0	 8.857142857142859e+00	 4.571428571428570e+00	 1.001651157392899e+01
0	 8.857142857142858e+00	 4.714285714285713e+00	 1.001803069449485e+01
0	 8.857142857142859e+00	 4.857142857142858e+00	 1.001906582913774e+01
0	 8.857142857142858e+00	 4.999999999999999e+00	 1.001964262556181e+01
0	 8.857142857142856e+00	 5.142857142857141e+00	 1.001978673147129e+01
0	 8.857142857142856e+00	 5.285714285714284e+00	 1.001952379457037e+01
0	 8.857142857142859e+00	 5.428571428571427e+00	 1.001887946256324e+01
0	 8.857142857142859e+00	 5.571428571428569e+00	 1.001787938315410e+01
0	 8.857142857142859e+00	 5.714285714285715e+00	 1.001654920404717e+01
0	 9.000000000000002e+00	 4.285714285714286e+00	 1.000871539523748e+01
0	 8.999999999999998e+00	 4.428571428571429e+00	 1.001085041268476e+01
0	 9.000000000000002e+00	 4.571428571428572e+00	 1.001251326147072e+01
0	 9.000000000000002e+00	 4.714285714285715e+00	 1.001374085064435e+01
0	 8.999999999999998e+00	 4.857142857142858e+00	 1.001457008925466e+01
0	 9.000000000000004e+00	 5.000000000000000e+00	 1.001503788635062e+01
0	 9.000000000000000e+00	 5.142857142857142e+00	 1.001518115098125e+01
0	 9.000000000000002e+00	 5.285714285714285e+00	 1.001503679219555e+01
0	 9.000000000000000e+00	 5.428571428571427e+00	 1.001464171904251e+01
0	 9.000000000000002e+00	 5.571428571428569e+00	 1.001403284057113e+01
0	 9.000000000000002e+00	 5.714285714285714e+00	 1.001324706583041e+01
0	 9.142857142857141e+00	 4.285714285714286e+00	 1.000551264742586e+01
0	 9.142857142857144e+00	 4.428571428571427e+00	 1.000714150869915e+01
0	 9.142857142857142e+00	 4.571428571428570e+00	 1.000840338203276e+01
0	 9.142857142857144e+00	 4.714285714285715e+00	 1.000933980818900e+01
0	 9.142857142857146e+00	 4.857142857142859e+00	 1.000999232793018e+01
0	 9.142857142857142e+00	 5.000000000000000e+00	 1.001040248201860e+01
0	 9.142857142857142e+00	 5.142857142857143e+00	 1.001061181121660e+01
0	 9.142857142857146e+00	 5.285714285714286e+00	 1.001066185628646e+01
0	 9.142857142857139e+00	 5.428571428571426e+00	 1.001059415799052e+01
0	 9.142857142857142e+00	 5.571428571428568e+00	 1.001045025709107e+01
0	 9.142857142857141e+00	 5.714285714285714e+00	 1.001027169435043e+01
0	 9.285714285714286e+00	 4.285714285714287e+00	 1.000223340388562e+01
0	 9.285714285714285e+00	 4.428571428571429e+00	 1.000339792232482e+01
0	 9.285714285714288e+00	 4.571428571428572e+00	 1.000432033562632e+01
0	 9.285714285714285e+00	 4.714285714285715e+00	 1.000504018663425e+01
0	 9.285714285714286e+00	 4.857142857142857e+00	 1.000559701819277e+01
0	 9.285714285714281e+00	 5.000000000000001e+00	 1.000603037314601e+01
0	 9.285714285714286e+00	 5.142857142857143e+00	 1.000637979433810e+01
0	 9.285714285714285e+00	 5.285714285714284e+00	 1.000668482461319e+01
0	 9.285714285714285e+00	 5.428571428571427e+00	 1.000698500681543e+01
0	 9.285714285714285e+00	 5.571428571428570e+00	 1.000731988378893e+01
0	 9.285714285714286e+00	 5.714285714285714e+00	 1.000772899837786e+01
0	 9.428571428571427e+00	 4.285714285714286e+00	 9.998800527725797e+00
0	 9.428571428571429e+00	 4.428571428571429e+00	 9.999661468107483e+00
0	 9.428571428571427e+00	 4.571428571428571e+00	 1.000040252226257e+01
0	 9.428571428571425e+00	 4.714285714285714e+00	 1.000105460548554e+01
0	 9.428571428571429e+00	 4.857142857142858e+00	 1.000164863307088e+01
0	 9.428571428571427e+00	 5.000000000000001e+00	 1.000221552031305e+01
0	 9.428571428571431e+00	 5.142857142857142e+00	 1.000278618250655e+01
0	 9.428571428571429e+00	 5.285714285714285e+00	 1.000339153494585e+01
0	 9.428571428571427e+00	 5.428571428571428e+00	 1.000406249292543e+01
0	 9.428571428571423e+00	 5.571428571428569e+00	 1.000482997173976e+01
0	 9.428571428571429e+00	 5.714285714285715e+00	 1.000572488668334e+01
0	 9.571428571428569e+00	 4.285714285714286e+00	 9.995136882055377e+00
0	 9.571428571428569e+00	 4.428571428571429e+00	 9.995973960592870e+00
0	 9.571428571428569e+00	 4.571428571428571e+00	 9.996788341952737e+00
0	 9.571428571428568e+00	 4.714285714285714e+00	 9.997595684248328e+00
0	 9.571428571428571e+00	 4.857142857142858e+00	 9.998411645592967e+00
0	 9.571428571428568e+00	 5.000000000000000e+00	 9.999251884099992e+00
0	 9.571428571428569e+00	 5.142857142857143e+00	 1.000013205788273e+01
0	 9.571428571428568e+00	 5.285714285714285e+00	 1.000106782505451e+01
0	 9.571428571428569e+00	 5.428571428571427e+00	 1.000207484372869e+01
0	 9.571428571428569e+00	 5.571428571428570e+00	 1.000316877201858e+01
0	 9.571428571428568e+00	 5.714285714285714e+00	 1.000436526803751e+01
0	 9.714285714285712e+00	 4.285714285714286e+00	 9.991165329983412e+00
0	 9.714285714285710e+00	 4.428571428571429e+00	 9.992377214326716e+00
0	 9.714285714285714e+00	 4.571428571428572e+00	 9.993616194708039e+00
0	 9.714285714285710e+00	 4.714285714285714e+00	 9.994876042428057e+00
0	 9.714285714285712e+00	 4.857142857142858e+00	 9.996150528787489e+00
0	 9.714285714285712e+00	 5.000000000000001e+00	 9.997433425087047e+00
0	 9.714285714285712e+00	 5.142857142857142e+00	 9.998718502627407e+00
0	 9.714285714285710e+00	 5.285714285714284e+00	 9.999999532709291e+00
0	 9.714285714285712e+00	 5.428571428571428e+00	 1.000127028663339e+01
0	 9.714285714285712e+00	 5.571428571428570e+00	 1.000252453570040e+01
0	 9.714285714285714e+00	 5.714285714285714e+00	 1.000375605121104e+01
0	 9.857142857142854e+00	 4.285714285714286e+00	 9.986808734618904e+00
0	 9.857142857142854e+00	 4.428571428571429e+00	 9.988913043854740e+00
0	 9.857142857142854e+00	 4.571428571428571e+00	 9.991024480539636e+00
0	 9.857142857142852e+00	 4.714285714285714e+00	 9.993108299530160e+00
0	 9.857142857142854e+00	 4.857142857142858e+00	 9.995129755682919e+00
0	 9.857142857142854e+00	 5.000000000000000e+00	 9.997054103854456e+00
0	 9.857142857142854e+00	 5.142857142857142e+00	 9.998846598901391e+00
0	 9.857142857142852e+00	 5.285714285714285e+00	 1.000047249568028e+01
0	 9.857142857142852e+00	 5.428571428571427e+00	 1.000189704904771e+01
0	 9.857142857142854e+00	 5.571428571428569e+00	 1.000308551386027e+01
0	 9.857142857142854e+00	 5.714285714285714e+00	 1.000400314497455e+01
0	 1.000000000000000e+01	 4.285714285714286e+00	 9.981989959070873e+00
0	 1.000000000000000e+01	 4.428571428571429e+00	 9.985623263722690e+00
0	 1.000000000000000e+01	 4.571428571428572e+00	 9.989151599458767e+00
0	 1.000000000000000e+01	 4.714285714285715e+00	 9.992505075060114e+00
0	 1.000000000000000e+01	 4.857142857142858e+00	 9.995613799307701e+00
0	 1.000000000000000e+01	 5.000000000000000e+00	 9.998407880982484e+00
0	 1.000000000000000e+01	 5.142857142857143e+00	 1.000081742886544e+01
0	 1.000000000000000e+01	 5.285714285714284e+00	 1.000277255173758e+01
0	 1.000000000000000e+01	 5.428571428571427e+00	 1.000420335837983e+01
0	 1.000000000000000e+01	 5.571428571428570e+00	 1.000503995757322e+01
0	 1.000000000000000e+01	 5.714285714285714e+00	 1.000521245809869e+01
0	 8.571428571428573e+00	 5.714285714285715e+00	 1.002371014560839e+01
0	 8.571428571428573e+00	 5.857142857142858e+00	 1.002161963839923e+01
0	 8.571428571428571e+00	 5.999999999999998e+00	 1.001974352666033e+01
0	 8.571428571428573e+00	 6.142857142857141e+00	 1.001808464967776e+01
0	 8.571428571428573e+00	 6.285714285714284e+00	 1.001664584673764e+01
0	 8.571428571428571e+00	 6.428571428571425e+00	 1.001542995712598e+01
0	 8.571428571428573e+00	 6.571428571428568e+00	 1.001443982012890e+01
0	 8.571428571428571e+00	 6.714285714285709e+00	 1.001367827503246e+01
0	 8.571428571428571e+00	 6.857142857142854e+00	 1.001314816112273e+01
0	 8.571428571428573e+00	 6.999999999999994e+00	 1.001285231768579e+01
0	 8.571428571428573e+00	 7.142857142857144e+00	 1.001279358400771e+01
0	 8.714285714285715e+00	 5.714285714285714e+00	 1.002007220023003e+01
0	 8.714285714285712e+00	 5.857142857142855e+00	 1.001824582925122e+01
0	 8.714285714285715e+00	 5.999999999999998e+00	 1.001668248950645e+01
0	 8.714285714285717e+00	 6.142857142857141e+00	 1.001536743767338e+01
0	 8.714285714285715e+00	 6.285714285714282e+00	 1.001428593042963e+01
0	 8.714285714285714e+00	 6.428571428571427e+00	 1.001342322445285e+01
0	 8.714285714285715e+00	 6.571428571428567e+00	 1.001276457642067e+01
0	 8.714285714285719e+00	 6.714285714285712e+00	 1.001229524301074e+01
0	 8.714285714285717e+00	 6.857142857142852e+00	 1.001200048090070e+01
0	 8.714285714285712e+00	 6.999999999999996e+00	 1.001186554676817e+01
0	 8.714285714285714e+00	 7.142857142857144e+00	 1.001187569729082e+01
0	 8.857142857142859e+00	 5.714285714285715e+00	 1.001654920404716e+01
0	 8.857142857142859e+00	 5.857142857142859e+00	 1.001519648687213e+01
0	 8.857142857142859e+00	 5.999999999999998e+00	 1.001409353951734e+01
0	 8.857142857142859e+00	 6.142857142857142e+00	 1.001321312907503e+01
0	 8.857142857142858e+00	 6.285714285714283e+00	 1.001252802263741e+01
0	 8.857142857142859e+00	 6.428571428571425e+00	 1.001201098729663e+01
0	 8.857142857142858e+00	 6.571428571428568e+00	 1.001163479014493e+01
0	 8.857142857142854e+00	 6.714285714285708e+00	 1.001137219827448e+01
0	 8.857142857142858e+00	 6.857142857142852e+00	 1.001119597877749e+01
0	 8.857142857142858e+00	 6.999999999999995e+00	 1.001107889874618e+01
0	 8.857142857142859e+00	 7.142857142857142e+00	 1.001099372527269e+01
0	 9.000000000000002e+00	 5.714285714285714e+00	 1.001324706583041e+01
0	 8.999999999999998e+00	 5.857142857142857e+00	 1.001249180026278e+01
0	 9.000000000000002e+00	 5.999999999999999e+00	 1.001192675696453e+01
0	 8.999999999999998e+00	 6.142857142857142e+00	 1.001151730646540e+01
0	 9.000000000000000e+00	 6.285714285714284e+00	 1.001122881929514e+01
0	 8.999999999999998e+00	 6.428571428571425e+00	 1.001102666598351e+01
0	 9.000000000000000e+00	 6.571428571428569e+00	 1.001087621706026e+01
0	 9.000000000000000e+00	 6.714285714285711e+00	 1.001074284305514e+01
0	 9.000000000000002e+00	 6.857142857142851e+00	 1.001059191449789e+01
0	 9.000000000000004e+00	 6.999999999999997e+00	 1.001038880191828e+01
0	 9.000000000000002e+00	 7.142857142857144e+00	 1.001009887584606e+01
0	 9.142857142857141e+00	 5.714285714285714e+00	 1.001027169435043e+01
0	 9.142857142857141e+00	 5.857142857142855e+00	 1.001015195842409e+01
0	 9.142857142857144e+00	 5.999999999999999e+00	 1.001013222211955e+01
0	 9.142857142857141e+00	 6.142857142857141e+00	 1.001017555242709e+01
0	 9.142857142857142e+00	 6.285714285714283e+00	 1.001024501633702e+01
0	 9.142857142857144e+00	 6.428571428571428e+00	 1.001030368083965e+01
0	 9.142857142857141e+00	 6.571428571428567e+00	 1.001031461292526e+01
0	 9.142857142857141e+00	 6.714285714285710e+00	 1.001024087958417e+01
0	 9.142857142857141e+00	 6.857142857142853e+00	 1.001004554780667e+01
0	 9.142857142857141e+00	 6.999999999999994e+00	 1.000969168458306e+01
0	 9.142857142857141e+00	 7.142857142857142e+00	 1.000914235690363e+01
0	 9.285714285714286e+00	 5.714285714285714e+00	 1.000772899837785e+01
0	 9.285714285714283e+00	 5.857142857142857e+00	 1.000819715035690e+01
0	 9.285714285714285e+00	 6.000000000000001e+00	 1.000866001525392e+01
0	 9.285714285714285e+00	 6.142857142857141e+00	 1.000908344954274e+01
0	 9.285714285714285e+00	 6.285714285714282e+00	 1.000943330969723e+01
0	 9.285714285714281e+00	 6.428571428571426e+00	 1.000967545219122e+01
0	 9.285714285714285e+00	 6.571428571428569e+00	 1.000977573349854e+01
0	 9.285714285714283e+00	 6.714285714285709e+00	 1.000970001009306e+01
0	 9.285714285714286e+00	 6.857142857142853e+00	 1.000941413844859e+01
0	 9.285714285714283e+00	 6.999999999999996e+00	 1.000888397503901e+01
0	 9.285714285714283e+00	 7.142857142857141e+00	 1.000807537633813e+01
0	 9.428571428571429e+00	 5.714285714285715e+00	 1.000572488668334e+01
0	 9.428571428571429e+00	 5.857142857142857e+00	 1.000664756506208e+01
0	 9.428571428571425e+00	 5.999999999999999e+00	 1.000746021663917e+01
0	 9.428571428571425e+00	 6.142857142857141e+00	 1.000813658039498e+01
0	 9.428571428571427e+00	 6.285714285714284e+00	 1.000865039530993e+01
0	 9.428571428571425e+00	 6.428571428571425e+00	 1.000897540036437e+01
0	 9.428571428571423e+00	 6.571428571428569e+00	 1.000908533453868e+01
0	 9.428571428571425e+00	 6.714285714285709e+00	 1.000895393681323e+01
0	 9.428571428571427e+00	 6.857142857142854e+00	 1.000855494616845e+01
0	 9.428571428571425e+00	 6.999999999999995e+00	 1.000786210158467e+01
0	 9.428571428571425e+00	 7.142857142857142e+00	 1.000684914204228e+01
0	 9.571428571428568e+00	 5.714285714285714e+00	 1.000436526803751e+01
0	 9.571428571428571e+00	 5.857142857142858e+00	 1.000552339154048e+01
0	 9.571428571428568e+00	 5.999999999999999e+00	 1.000648290654683e+01
0	 9.571428571428569e+00	 6.142857142857141e+00	 1.000723052756647e+01
0	 9.571428571428569e+00	 6.285714285714283e+00	 1.000775296910930e+01
0	 9.571428571428568e+00	 6.428571428571424e+00	 1.000803694568526e+01
0	 9.571428571428568e+00	 6.571428571428569e+00	 1.000806917180426e+01
0	 9.571428571428568e+00	 6.714285714285711e+00	 1.000783636197621e+01
0	 9.571428571428568e+00	 6.857142857142854e+00	 1.000732523071100e+01
0	 9.571428571428568e+00	 6.999999999999996e+00	 1.000652249251856e+01
0	 9.571428571428568e+00	 7.142857142857143e+00	 1.000541486190881e+01
0	 9.714285714285714e+00	 5.714285714285714e+00	 1.000375605121103e+01
0	 9.714285714285714e+00	 5.857142857142857e+00	 1.000484481879298e+01
0	 9.714285714285710e+00	 5.999999999999999e+00	 1.000567816524842e+01
0	 9.714285714285712e+00	 6.142857142857142e+00	 1.000626087363980e+01
0	 9.714285714285712e+00	 6.285714285714284e+00	 1.000659772702954e+01
0	 9.714285714285712e+00	 6.428571428571426e+00	 1.000669350848009e+01
0	 9.714285714285712e+00	 6.571428571428568e+00	 1.000655300105390e+01
0	 9.714285714285710e+00	 6.714285714285710e+00	 1.000618098781339e+01
0	 9.714285714285710e+00	 6.857142857142852e+00	 1.000558225182103e+01
0	 9.714285714285710e+00	 6.999999999999996e+00	 1.000476157613923e+01
0	 9.714285714285712e+00	 7.142857142857145e+00	 1.000372374383045e+01
0	 9.857142857142854e+00	 5.714285714285714e+00	 1.000400314497455e+01
0	 9.857142857142852e+00	 5.857142857142857e+00	 1.000463203582044e+01
0	 9.857142857142854e+00	 5.999999999999999e+00	 1.000499607301550e+01
0	 9.857142857142854e+00	 6.142857142857141e+00	 1.000512320119761e+01
0	 9.857142857142852e+00	 6.285714285714283e+00	 1.000504136500480e+01
0	 9.857142857142852e+00	 6.428571428571427e+00	 1.000477850907499e+01
0	 9.857142857142851e+00	 6.571428571428568e+00	 1.000436257804619e+01
0	 9.857142857142852e+00	 6.714285714285711e+00	 1.000382151655630e+01
0	 9.857142857142852e+00	 6.857142857142853e+00	 1.000318326924332e+01
0	 9.857142857142854e+00	 6.999999999999995e+00	 1.000247578074519e+01
0	 9.857142857142852e+00	 7.142857142857143e+00	 1.000172699569990e+01
0	 1.000000000000000e+01	 5.714285714285714e+00	 1.000521245809869e+01
0	 1.000000000000000e+01	 5.857142857142858e+00	 1.000490523162375e+01
0	 1.000000000000000e+01	 5.999999999999999e+00	 1.000438671011954e+01
0	 1.000000000000000e+01	 6.142857142857141e+00	 1.000371309282255e+01
0	 1.000000000000000e+01	 6.285714285714284e+00	 1.000294057896927e+01
0	 1.000000000000000e+01	 6.428571428571426e+00	 1.000212536779617e+01
0	 1.000000000000000e+01	 6.571428571428569e+00	 1.000132365853968e+01
0	 1.000000000000000e+01	 6.714285714285712e+00	 1.000059165043637e+01
0	 1.000000000000000e+01	 6.857142857142853e+00	 9.999985542722634e+00
0	 1.000000000000000e+01	 6.999999999999996e+00	 9.999561534634978e+00
0	 1.000000000000000e+01	 7.142857142857143e+00	 9.999375825409896e+00
0	 8.571428571428573e+00	 7.142857142857144e+00	 1.001279358400771e+01
0	 8.571428571428571e+00	 7.285714285714286e+00	 1.001277942756084e+01
0	 8.571428571428571e+00	 7.428571428571428e+00	 1.001261041012851e+01
0	 8.571428571428571e+00	 7.571428571428569e+00	 1.001227901246327e+01
0	 8.571428571428573e+00	 7.714285714285713e+00	 1.001177771531768e+01
0	 8.571428571428569e+00	 7.857142857142854e+00	 1.001109899944430e+01
0	 8.571428571428571e+00	 7.999999999999998e+00	 1.001023534559565e+01
0	 8.571428571428571e+00	 8.142857142857141e+00	 1.000917923452434e+01
0	 8.571428571428573e+00	 8.285714285714283e+00	 1.000792314698289e+01
0	 8.571428571428575e+00	 8.428571428571425e+00	 1.000645956372384e+01
0	 8.571428571428573e+00	 8.571428571428571e+00	 1.000478096549977e+01
0	 8.714285714285714e+00	 7.142857142857144e+00	 1.001187569729082e+01
0	 8.714285714285715e+00	 7.285714285714285e+00	 1.001185767027868e+01
0	 8.714285714285715e+00	 7.428571428571428e+00	 1.001165231597445e+01
0	 8.714285714285717e+00	 7.571428571428570e+00	 1.001126605970471e+01
0	 8.714285714285715e+00	 7.714285714285713e+00	 1.001070532679601e+01
0	 8.714285714285714e+00	 7.857142857142855e+00	 1.000997654257493e+01
0	 8.714285714285715e+00	 7.999999999999997e+00	 1.000908613236804e+01
0	 8.714285714285719e+00	 8.142857142857142e+00	 1.000804052150193e+01
0	 8.714285714285715e+00	 8.285714285714279e+00	 1.000684613530315e+01
0	 8.714285714285714e+00	 8.428571428571425e+00	 1.000550939909829e+01
0	 8.714285714285715e+00	 8.571428571428573e+00	 1.000403673821389e+01
0	 8.857142857142859e+00	 7.142857142857142e+00	 1.001099372527269e+01
0	 8.857142857142852e+00	 7.285714285714284e+00	 1.001082261858950e+01
0	 8.857142857142859e+00	 7.428571428571430e+00	 1.001047666231863e+01
0	 8.857142857142856e+00	 7.571428571428570e+00	 1.000997200863667e+01
0	 8.857142857142856e+00	 7.714285714285713e+00	 1.000932480972026e+01
0	 8.857142857142858e+00	 7.857142857142855e+00	 1.000855121774598e+01
0	 8.857142857142856e+00	 7.999999999999996e+00	 1.000766738489047e+01
0	 8.857142857142859e+00	 8.142857142857144e+00	 1.000668946333031e+01
0	 8.857142857142859e+00	 8.285714285714281e+00	 1.000563360524214e+01
0	 8.857142857142859e+00	 8.428571428571423e+00	 1.000451596280254e+01
0	 8.857142857142856e+00	 8.571428571428569e+00	 1.000335268818814e+01
0	 9.000000000000002e+00	 7.142857142857144e+00	 1.001009887584606e+01
0	 8.999999999999998e+00	 7.285714285714286e+00	 1.000968221246413e+01
0	 8.999999999999998e+00	 7.428571428571427e+00	 1.000913641513734e+01
0	 9.000000000000000e+00	 7.571428571428570e+00	 1.000848314516838e+01
0	 8.999999999999996e+00	 7.714285714285711e+00	 1.000774406385989e+01
0	 9.000000000000000e+00	 7.857142857142857e+00	 1.000694083251456e+01
0	 9.000000000000002e+00	 7.999999999999999e+00	 1.000609511243504e+01
0	 9.000000000000000e+00	 8.142857142857141e+00	 1.000522856492400e+01
0	 9.000000000000004e+00	 8.285714285714286e+00	 1.000436285128412e+01
0	 9.000000000000002e+00	 8.428571428571427e+00	 1.000351963281806e+01
0	 9.000000000000000e+00	 8.571428571428573e+00	 1.000272057082849e+01
0	 9.142857142857141e+00	 7.142857142857142e+00	 1.000914235690363e+01
0	 9.142857142857142e+00	 7.285714285714285e+00	 1.000844439187337e+01
0	 9.142857142857141e+00	 7.428571428571427e+00	 1.000768454040691e+01
0	 9.142857142857141e+00	 7.571428571428569e+00	 1.000688575520898e+01
0	 9.142857142857142e+00	 7.714285714285712e+00	 1.000607098898434e+01
0	 9.142857142857141e+00	 7.857142857142855e+00	 1.000526319443770e+01
0	 9.142857142857141e+00	 7.999999999999996e+00	 1.000448532427384e+01
0	 9.142857142857141e+00	 8.142857142857141e+00	 1.000376033119749e+01
0	 9.142857142857142e+00	 8.285714285714278e+00	 1.000311116791339e+01
0	 9.142857142857142e+00	 8.428571428571423e+00	 1.000256078712631e+01
0	 9.142857142857142e+00	 8.571428571428573e+00	 1.000213214154095e+01
0	 9.285714285714283e+00	 7.142857142857141e+00	 1.000807537633813e+01
0	 9.285714285714285e+00	 7.285714285714286e+00	 1.000711709678808e+01
0	 9.285714285714285e+00	 7.428571428571428e+00	 1.000617400410366e+01
0	 9.285714285714283e+00	 7.571428571428572e+00	 1.000526612466770e+01
0	 9.285714285714286e+00	 7.714285714285715e+00	 1.000441348486304e+01
0	 9.285714285714288e+00	 7.857142857142857e+00	 1.000363611107252e+01
0	 9.285714285714283e+00	 7.999999999999996e+00	 1.000295402967899e+01
0	 9.285714285714285e+00	 8.142857142857141e+00	 1.000238726706527e+01
0	 9.285714285714285e+00	 8.285714285714283e+00	 1.000195584961423e+01
0	 9.285714285714285e+00	 8.428571428571425e+00	 1.000167980370870e+01
0	 9.285714285714286e+00	 8.571428571428573e+00	 1.000157915573151e+01
0	 9.428571428571425e+00	 7.142857142857142e+00	 1.000684914204228e+01
0	 9.428571428571427e+00	 7.285714285714285e+00	 1.000570826717908e+01
0	 9.428571428571427e+00	 7.428571428571429e+00	 1.000465777220391e+01
0	 9.428571428571427e+00	 7.571428571428570e+00	 1.000371053945371e+01
0	 9.428571428571427e+00	 7.714285714285714e+00	 1.000287945126545e+01
0	 9.428571428571425e+00	 7.857142857142855e+00	 1.000217738997607e+01
0	 9.428571428571429e+00	 7.999999999999998e+00	 1.000161723792256e+01
0	 9.428571428571429e+00	 8.142857142857142e+00	 1.000121187744185e+01
0	 9.428571428571429e+00	 8.285714285714283e+00	 1.000097419087090e+01
0	 9.428571428571425e+00	 8.428571428571423e+00	 1.000091706054669e+01
0	 9.428571428571429e+00	 8.571428571428575e+00	 1.000105336880616e+01
0	 9.571428571428568e+00	 7.142857142857143e+00	 1.000541486190881e+01
0	 9.571428571428569e+00	 7.285714285714285e+00	 1.000422584301720e+01
0	 9.571428571428568e+00	 7.428571428571428e+00	 1.000318881068397e+01
0	 9.571428571428569e+00	 7.571428571428571e+00	 1.000230528547620e+01
0	 9.571428571428569e+00	 7.714285714285712e+00	 1.000157678796099e+01
0	 9.571428571428568e+00	 7.857142857142855e+00	 1.000100483870545e+01
0	 9.571428571428569e+00	 7.999999999999997e+00	 1.000059095827666e+01
0	 9.571428571428569e+00	 8.142857142857141e+00	 1.000033666724173e+01
0	 9.571428571428569e+00	 8.285714285714283e+00	 1.000024348616771e+01
0	 9.571428571428569e+00	 8.428571428571425e+00	 1.000031293562174e+01
0	 9.571428571428571e+00	 8.571428571428573e+00	 1.000054653617089e+01
0	 9.714285714285712e+00	 7.142857142857145e+00	 1.000372374383045e+01
0	 9.714285714285712e+00	 7.285714285714286e+00	 1.000267776427326e+01
0	 9.714285714285710e+00	 7.428571428571426e+00	 1.000182008552015e+01
0	 9.714285714285710e+00	 7.571428571428570e+00	 1.000113664864435e+01
0	 9.714285714285712e+00	 7.714285714285714e+00	 1.000061339471913e+01
0	 9.714285714285712e+00	 7.857142857142855e+00	 1.000023626481773e+01
0	 9.714285714285710e+00	 7.999999999999997e+00	 9.999991200013394e+00
0	 9.714285714285714e+00	 8.142857142857142e+00	 9.999864141379371e+00
0	 9.714285714285710e+00	 8.285714285714283e+00	 9.999841029988902e+00
0	 9.714285714285712e+00	 8.428571428571423e+00	 9.999907806915271e+00
0	 9.714285714285710e+00	 8.571428571428571e+00	 1.000005041323169e+01
0	 9.857142857142852e+00	 7.142857142857143e+00	 1.000172699569990e+01
0	 9.857142857142854e+00	 7.285714285714286e+00	 1.000107197091811e+01
0	 9.857142857142852e+00	 7.428571428571427e+00	 1.000060456268878e+01
0	 9.857142857142856e+00	 7.571428571428570e+00	 1.000029091486737e+01
0	 9.857142857142854e+00	 7.714285714285713e+00	 1.000009717130929e+01
0	 9.857142857142854e+00	 7.857142857142856e+00	 9.999989475869960e+00
0	 9.857142857142854e+00	 7.999999999999998e+00	 9.999933972404815e+00
0	 9.857142857142852e+00	 8.142857142857142e+00	 9.999896804769296e+00
0	 9.857142857142852e+00	 8.285714285714281e+00	 9.999844116818782e+00
0	 9.857142857142854e+00	 8.428571428571425e+00	 9.999742052408738e+00
0	 9.857142857142856e+00	 8.571428571428573e+00	 9.999556755394570e+00
0	 1.000000000000000e+01	 7.142857142857143e+00	 9.999375825409894e+00
0	 1.000000000000000e+01	 7.285714285714286e+00	 9.999416402922533e+00
0	 1.000000000000000e+01	 7.428571428571429e+00	 9.999595208166173e+00
0	 9.999999999999998e+00	 7.571428571428570e+00	 9.999854370054425e+00
0	 1.000000000000000e+01	 7.714285714285714e+00	 1.000013601750091e+01
0	 9.999999999999998e+00	 7.857142857142854e+00	 1.000038227941927e+01
0	 1.000000000000000e+01	 7.999999999999997e+00	 1.000053528472309e+01
0	 1.000000000000000e+01	 8.142857142857141e+00	 1.000053716232602e+01
0	 1.000000000000000e+01	 8.285714285714283e+00	 1.000033004114163e+01
0	 1.000000000000000e+01	 8.428571428571425e+00	 9.999856050083602e+00
0	 1.000000000000000e+01	 8.571428571428573e+00	 9.999057318065500e+00
0	 8.571428571428573e+00	 8.571428571428571e+00	 1.000478096549977e+01
0	 8.571428571428573e+00	 8.714285714285715e+00	 1.000315912138552e+01
0	 8.571428571428573e+00	 8.857142857142858e+00	 1.000186231487218e+01
0	 8.571428571428571e+00	 9.000000000000000e+00	 1.000087779833677e+01
0	 8.571428571428575e+00	 9.142857142857144e+00	 1.000019282415622e+01
0	 8.571428571428573e+00	 9.285714285714286e+00	 9.999794644707498e+00
0	 8.571428571428575e+00	 9.428571428571429e+00	 9.999670512367603e+00
0	 8.571428571428573e+00	 9.571428571428571e+00	 9.999807679513497e+00
0	 8.571428571428573e+00	 9.714285714285712e+00	 1.000019339852213e+01
0	 8.571428571428573e+00	 9.857142857142854e+00	 1.000081492177045e+01
0	 8.571428571428573e+00	 1.000000000000000e+01	 1.000165950163554e+01
0	 8.714285714285715e+00	 8.571428571428573e+00	 1.000403673821389e+01
0	 8.714285714285714e+00	 8.714285714285714e+00	 1.000266265812707e+01
0	 8.714285714285717e+00	 8.857142857142859e+00	 1.000159926239849e+01
0	 8.714285714285717e+00	 9.000000000000002e+00	 1.000081937348015e+01
0	 8.714285714285717e+00	 9.142857142857142e+00	 1.000029581382405e+01
0	 8.714285714285715e+00	 9.285714285714283e+00	 1.000000140588216e+01
0	 8.714285714285715e+00	 9.428571428571429e+00	 9.999908972106502e+00
0	 8.714285714285717e+00	 9.571428571428569e+00	 9.999991334949074e+00
0	 8.714285714285719e+00	 9.714285714285712e+00	 1.000022131686181e+01
0	 8.714285714285715e+00	 9.857142857142852e+00	 1.000057174029680e+01
0	 8.714285714285715e+00	 9.999999999999998e+00	 1.000101542770595e+01
0	 8.857142857142856e+00	 8.571428571428569e+00	 1.000335268818814e+01
0	 8.857142857142861e+00	 8.714285714285717e+00	 1.000231205415407e+01
0	 8.857142857142858e+00	 8.857142857142858e+00	 1.000152758788518e+01
0	 8.857142857142856e+00	 8.999999999999998e+00	 1.000096332320252e+01
0	 8.857142857142858e+00	 9.142857142857141e+00	 1.000058329392724e+01
0	 8.857142857142858e+00	 9.285714285714285e+00	 1.000035153388048e+01
0	 8.857142857142856e+00	 9.428571428571425e+00	 1.000023207688328e+01
0	 8.857142857142856e+00	 9.571428571428566e+00	 1.000018895675684e+01
0	 8.857142857142859e+00	 9.714285714285712e+00	 1.000018620732221e+01
0	 8.857142857142859e+00	 9.857142857142858e+00	 1.000018786240049e+01
0	 8.857142857142858e+00	 1.000000000000000e+01	 1.000015795581289e+01
0	 9.000000000000000e+00	 8.571428571428573e+00	 1.000272057082849e+01
0	 9.000000000000000e+00	 8.714285714285714e+00	 1.000205181608883e+01
0	 9.000000000000002e+00	 8.857142857142858e+00	 1.000155900282694e+01
0	 9.000000000000002e+00	 9.000000000000002e+00	 1.000120301752714e+01
0	 9.000000000000000e+00	 9.142857142857142e+00	 1.000094474667377e+01
0	 9.000000000000000e+00	 9.285714285714285e+00	 1.000074507675115e+01
0	 9.000000000000004e+00	 9.428571428571429e+00	 1.000056489424364e+01
0	 9.000000000000002e+00	 9.571428571428571e+00	 1.000036508563551e+01
0	 9.000000000000002e+00	 9.714285714285714e+00	 1.000010653741113e+01
0	 9.000000000000002e+00	 9.857142857142852e+00	 9.999750136054834e+00
0	 9.000000000000000e+00	 1.000000000000000e+01	 9.999256768050980e+00
0	 9.142857142857142e+00	 8.571428571428573e+00	 1.000213214154095e+01
0	 9.142857142857144e+00	 8.714285714285717e+00	 1.000182645055362e+01
0	 9.142857142857141e+00	 8.857142857142858e+00	 1.000160521871851e+01
0	 9.142857142857141e+00	 9.000000000000000e+00	 1.000143182647727e+01
0	 9.142857142857144e+00	 9.142857142857144e+00	 1.000126965427154e+01
0	 9.142857142857142e+00	 9.285714285714285e+00	 1.000108208254295e+01
0	 9.142857142857142e+00	 9.428571428571427e+00	 1.000083249173315e+01
0	 9.142857142857144e+00	 9.571428571428571e+00	 1.000048426228380e+01
0	 9.142857142857144e+00	 9.714285714285714e+00	 1.000000077463649e+01
0	 9.142857142857142e+00	 9.857142857142852e+00	 9.999345409232889e+00
0	 9.142857142857142e+00	 1.000000000000000e+01	 9.998481546514649e+00
0	 9.285714285714286e+00	 8.571428571428573e+00	 1.000157915573151e+01
0	 9.285714285714285e+00	 8.714285714285715e+00	 1.000158046417076e+01
0	 9.285714285714285e+00	 8.857142857142859e+00	 1.000157794705463e+01
0	 9.285714285714283e+00	 8.999999999999998e+00	 1.000154312007620e+01
0	 9.285714285714283e+00	 9.142857142857141e+00	 1.000144749892850e+01
0	 9.285714285714285e+00	 9.285714285714283e+00	 1.000126259930460e+01
0	 9.285714285714285e+00	 9.428571428571427e+00	 1.000095993689754e+01
0	 9.285714285714283e+00	 9.571428571428569e+00	 1.000051102740038e+01
0	 9.285714285714285e+00	 9.714285714285712e+00	 9.999887386506128e+00
0	 9.285714285714281e+00	 9.857142857142852e+00	 9.999060529907878e+00
0	 9.285714285714285e+00	 1.000000000000000e+01	 9.998001973298672e+00
0	 9.428571428571429e+00	 8.571428571428575e+00	 1.000105336880616e+01
0	 9.428571428571429e+00	 8.714285714285717e+00	 1.000125836356250e+01
0	 9.428571428571427e+00	 8.857142857142856e+00	 1.000138889932999e+01
0	 9.428571428571429e+00	 9.000000000000002e+00	 1.000143026834717e+01
0	 9.428571428571427e+00	 9.142857142857142e+00	 1.000136776285260e+01
0	 9.428571428571429e+00	 9.285714285714285e+00	 1.000118667508483e+01
0	 9.428571428571425e+00	 9.428571428571427e+00	 1.000087229728243e+01
0	 9.428571428571427e+00	 9.571428571428571e+00	 1.000040992168395e+01
0	 9.428571428571427e+00	 9.714285714285712e+00	 9.999784840527900e+00
0	 9.428571428571427e+00	 9.857142857142856e+00	 9.998982346052919e+00
0	 9.428571428571427e+00	 1.000000000000000e+01	 9.997987730497490e+00
0	 9.571428571428571e+00	 8.571428571428573e+00	 1.000054653617089e+01
0	 9.571428571428569e+00	 8.714285714285717e+00	 1.000080465535117e+01
0	 9.571428571428568e+00	 8.857142857142858e+00	 1.000094978703932e+01
0	 9.571428571428569e+00	 9.000000000000000e+00	 1.000098664131346e+01
0	 9.571428571428571e+00	 9.142857142857144e+00	 1.000091992825175e+01
0	 9.571428571428568e+00	 9.285714285714285e+00	 1.000075435793239e+01
0	 9.571428571428568e+00	 9.428571428571425e+00	 1.000049464043349e+01
0	 9.571428571428569e+00	 9.571428571428569e+00	 1.000014548583322e+01
0	 9.571428571428568e+00	 9.714285714285710e+00	 9.999711604209732e+00
0	 9.571428571428569e+00	 9.857142857142856e+00	 9.999197705641183e+00
0	 9.571428571428569e+00	 1.000000000000000e+01	 9.998608500205735e+00
0	 9.714285714285710e+00	 8.571428571428571e+00	 1.000005041323169e+01
0	 9.714285714285712e+00	 8.714285714285715e+00	 1.000016384615907e+01
0	 9.714285714285714e+00	 8.857142857142859e+00	 1.000017232167734e+01
0	 9.714285714285710e+00	 8.999999999999998e+00	 1.000010560899833e+01
0	 9.714285714285712e+00	 9.142857142857144e+00	 9.999993477333936e+00
0	 9.714285714285710e+00	 9.285714285714283e+00	 9.999865695895997e+00
0	 9.714285714285710e+00	 9.428571428571425e+00	 9.999752033896376e+00
0	 9.714285714285710e+00	 9.571428571428568e+00	 9.999682260546910e+00
0	 9.714285714285710e+00	 9.714285714285710e+00	 9.999686145059439e+00
0	 9.714285714285712e+00	 9.857142857142854e+00	 9.999793456645849e+00
0	 9.714285714285712e+00	 1.000000000000000e+01	 1.000003396451799e+01
0	 9.857142857142856e+00	 8.571428571428573e+00	 9.999556755394572e+00
0	 9.857142857142852e+00	 8.714285714285715e+00	 9.999280442608457e+00
0	 9.857142857142856e+00	 8.857142857142859e+00	 9.998968214738742e+00
0	 9.857142857142854e+00	 9.000000000000000e+00	 9.998680541425058e+00
0	 9.857142857142852e+00	 9.142857142857141e+00	 9.998477892307065e+00
0	 9.857142857142852e+00	 9.285714285714283e+00	 9.998420737024428e+00
0	 9.857142857142854e+00	 9.428571428571425e+00	 9.998569545216734e+00
0	 9.857142857142851e+00	 9.571428571428568e+00	 9.998984786523710e+00
0	 9.857142857142854e+00	 9.714285714285712e+00	 9.999726930584933e+00
0	 9.857142857142854e+00	 9.857142857142854e+00	 1.000085644704010e+01
0	 9.857142857142852e+00	 1.000000000000000e+01	 1.000243380552881e+01
0	 1.000000000000000e+01	 8.571428571428573e+00	 9.999057318065503e+00
0	 9.999999999999998e+00	 8.714285714285715e+00	 9.998098951321648e+00
0	 1.000000000000000e+01	 8.857142857142858e+00	 9.997249177718293e+00
0	 1.000000000000000e+01	 9.000000000000000e+00	 9.996604808616919e+00
0	 1.000000000000000e+01	 9.142857142857142e+00	 9.996262655379105e+00
0	 1.000000000000000e+01	 9.285714285714285e+00	 9.996319529366364e+00
0	 1.000000000000000e+01	 9.428571428571427e+00	 9.996872241940263e+00
0	 1.000000000000000e+01	 9.571428571428569e+00	 9.998017604462312e+00
0	 1.000000000000000e+01	 9.714285714285712e+00	 9.999852428294108e+00
0	 1.000000000000000e+01	 9.857142857142852e+00	 1.000247352479706e+01
0	 1.000000000000000e+01	 1.000000000000000e+01	 1.000597770533283e+01
1	 1.000000000000000e+00	 0.000000000000000e+00	 2.414245794047343e+01
1	 9.997942209309062e-01	 2.028585204427908e-02	 2.351040818112406e+01
1	 9.991701818187483e-01	 4.073018247306789e-02	 2.284187480135545e+01
1	 9.981180433968323e-01	 6.132186759777695e-02	 2.213625054482096e+01
1	 9.966282799005903e-01	 8.204920293574097e-02	 2.139327763480698e+01
1	 9.946917154369740e-01	 1.028999088485992e-01	 2.061306857105666e+01
1	 9.922995607885995e-01	 1.238611386139841e-01	 1.979612558086167e+01
1	 9.894434504817674e-01	 1.449194890231616e-01	 1.894335846559633e+01
1	 9.861154799348201e-01	 1.660610135851266e-01	 1.805610058130992e+01
1	 9.823082424914590e-01	 1.872712384039294e-01	 1.713612269256276e+01
1	 9.780148661327976e-01	 2.085351807807159e-01	 1.618564444265549e+01
1	 1.014285714285714e+00	 0.000000000000000e+00	 2.322063043698432e+01
1	 1.014076995515633e+00	 2.057564993062592e-02	 2.259004359310071e+01
1	 1.013444041559016e+00	 4.131204222268315e-02	 2.192638672061117e+01
1	 1.012376872588215e+00	 6.219789427774518e-02	 2.122913560732696e+01
1	 1.010865826756313e+00	 8.322133440625157e-02	 2.049809228557233e+01
1	 1.008901597086074e+00	 1.043699075464363e-01	 1.973340428822861e+01
1	 1.006475268799865e+00	 1.256305834513268e-01	 1.893558263412935e+01
1	 1.003578356917221e+00	 1.469897674377783e-01	 1.810551830120694e+01
1	 1.000202843933889e+00	 1.684333137791999e-01	 1.724449694355537e+01
1	 9.963412173841937e-01	 1.899465418096997e-01	 1.635421160926958e+01
1	 9.919865070775523e-01	 2.115142547918691e-01	 1.543677321979704e+01
1	 1.028571428571428e+00	 0.000000000000000e+00	 2.235124401126747e+01
1	 1.028359770100361e+00	 2.086544781697277e-02	 2.172249230146521e+01
1	 1.027717901299284e+00	 4.189390197229840e-02	 2.106384716184346e+01
1	 1.026635701779599e+00	 6.307392095771344e-02	 2.037486528461660e+01
1	 1.025103373612036e+00	 8.439346587676218e-02	 1.965540761338086e+01
1	 1.023111478735173e+00	 1.058399062442734e-01	 1.890565712267284e+01
1	 1.020650976811131e+00	 1.274000282886694e-01	 1.812613539729155e+01
1	 1.017713263352675e+00	 1.490600458523948e-01	 1.731771778622671e+01
1	 1.014290207932958e+00	 1.708056139732731e-01	 1.648164690411983e+01
1	 1.010374192276929e+00	 1.926218452154702e-01	 1.561954425401527e+01
1	 1.005958148022306e+00	 2.144933288030221e-01	 1.473341974896367e+01
1	 1.042857142857143e+00	 0.000000000000000e+00	 2.152948312105221e+01
1	 1.042642544685088e+00	 2.115524570331961e-02	 2.090292737276116e+01
1	 1.041991761039552e+00	 4.247576172191367e-02	 2.024943015799195e+01
1	 1.040894530970982e+00	 6.394994763768166e-02	 1.956862702942240e+01
1	 1.039340920467758e+00	 8.556559734727270e-02	 1.886043699893121e+01
1	 1.037321360384273e+00	 1.073099049421106e-01	 1.812507890280495e+01
1	 1.034826684822397e+00	 1.291694731260121e-01	 1.736308663257378e+01
1	 1.031848169788129e+00	 1.511303242670114e-01	 1.657532302199990e+01
1	 1.028377571932027e+00	 1.731779141673463e-01	 1.576299217914440e+01
1	 1.024407167169664e+00	 1.952971486212406e-01	 1.492765005341028e+01
1	 1.019929788967060e+00	 2.174724028141751e-01	 1.407121303121435e+01
1	 1.057142857142857e+00	 0.000000000000000e+00	 2.075079252365012e+01
1	 1.056925319269815e+00	 2.144504358966645e-02	 2.012678278885423e+01
1	 1.056265620779820e+00	 4.305762147152892e-02	 1.947857060508073e+01
1	 1.055153360162366e+00	 6.482597431764991e-02	 1.880586843216700e+01
1	 1.053578467323481e+00	 8.673772881778331e-02	 1.810865255910040e+01
1	 1.051531242033373e+00	 1.087799036399477e-01	 1.738717811496396e+01
1	 1.049002392833662e+00	 1.309389179633546e-01	 1.664199300694604e+01
1	 1.045983076223583e+00	 1.532006026816280e-01	 1.587395059087926e+01
1	 1.042464935931095e+00	 1.755502143614196e-01	 1.508422087849236e+01
1	 1.038440142062399e+00	 1.979724520270111e-01	 1.427430008668061e+01
1	 1.033901429911815e+00	 2.204514768253283e-01	 1.344601833782103e+01
1	 1.071428571428571e+00	 0.000000000000000e+00	 2.001085992264947e+01
1	 1.071208093854542e+00	 2.173484147601330e-02	 1.938973605257714e+01
1	 1.070539480520088e+00	 4.363948122114417e-02	 1.874694687134588e+01
1	 1.069412189353749e+00	 6.570200099761814e-02	 1.808227987845047e+01
1	 1.067816014179204e+00	 8.790986028829388e-02	 1.739576789786533e+01
1	 1.065741123682472e+00	 1.102499023377849e-01	 1.668770279288420e+01
1	 1.063178100844928e+00	 1.327083628006973e-01	 1.595864816514002e+01
1	 1.060117982659036e+00	 1.552708810962446e-01	 1.520945085749201e+01
1	 1.056552299930164e+00	 1.779225145554928e-01	 1.444125107950095e+01
1	 1.052473116955134e+00	 2.006477554327814e-01	 1.365549097549362e+01
1	 1.047873070856569e+00	 2.234305508364814e-01	 1.285392145892124e+01
1	 1.085714285714286e+00	 0.000000000000000e+00	 1.930559998460757e+01
1	 1.085490868439270e+00	 2.202463936236015e-02	 1.868769216661358e+01
1	 1.084813340260356e+00	 4.422134097075943e-02	 1.805046477932682e+01
1	 1.083671018545132e+00	 6.657802767758639e-02	 1.739377857568347e+01
1	 1.082053561034927e+00	 8.908199175880446e-02	 1.671772221899366e+01
1	 1.079951005331572e+00	 1.117199010356220e-01	 1.602262475799816e+01
1	 1.077353808856194e+00	 1.344778076380399e-01	 1.530906713900675e+01
1	 1.074252889094491e+00	 1.573411595108612e-01	 1.457789258832711e+01
1	 1.070639663929233e+00	 1.802948147495661e-01	 1.383021569754224e+01
1	 1.066506091847869e+00	 2.033230588385519e-01	 1.306743004563938e+01
1	 1.061844711801323e+00	 2.264096248476345e-01	 1.229121419569782e+01
1	 1.100000000000000e+00	 0.000000000000000e+00	 1.863113960119567e+01
1	 1.099773643023997e+00	 2.231443724870699e-02	 1.801676886078058e+01
1	 1.099087200000623e+00	 4.480320072037468e-02	 1.738524283610641e+01
1	 1.097929847736515e+00	 6.745405435755464e-02	 1.673649382439814e+01
1	 1.096291107890649e+00	 9.025412322931507e-02	 1.607066567670660e+01
1	 1.094160886980672e+00	 1.131898997334591e-01	 1.538812508776781e+01
1	 1.091529516867459e+00	 1.362472524753825e-01	 1.468947197172966e+01
1	 1.088387795529944e+00	 1.594114379254778e-01	 1.397554876979616e+01
1	 1.084727027928302e+00	 1.826671149436393e-01	 1.324744853550149e+01
1	 1.080539066740605e+00	 2.059983622443223e-01	 1.250652164494489e+01
1	 1.075816352746078e+00	 2.293886988587875e-01	 1.175438098303847e+01
1	 1.114285714285715e+00	 0.000000000000000e+00	 1.798380428502492e+01
1	 1.114056417608724e+00	 2.260423513505383e-02	 1.737328295567370e+01
1	 1.113361059740891e+00	 4.538506046998994e-02	 1.674759859968633e+01
1	 1.112188676927899e+00	 6.833008103752287e-02	 1.610675342253523e+01
1	 1.110528654746372e+00	 9.142625469982567e-02	 1.545094585321408e+01
1	 1.108370768629771e+00	 1.146598984312962e-01	 1.478058070183657e+01
1	 1.105705224878725e+00	 1.380166973127252e-01	 1.409627844786744e+01
1	 1.102522701965398e+00	 1.614817163400944e-01	 1.339888351721276e+01
1	 1.098814391927371e+00	 1.850394151377125e-01	 1.268947140637240e+01
1	 1.094572041633340e+00	 2.086736656500927e-01	 1.196935451365622e+01
1	 1.089787993690832e+00	 2.323677728699406e-01	 1.124008654122123e+01
1	 1.128571428571429e+00	 0.000000000000000e+00	 1.736010559870085e+01
1	 1.128339192193451e+00	 2.289403302140067e-02	 1.675373776198498e+01
1	 1.127634919481159e+00	 4.596692021960519e-02	 1.613403608082769e+01
1	 1.126447506119282e+00	 6.920610771749112e-02	 1.550107110231697e+01
1	 1.124766201602095e+00	 9.259838617033624e-02	 1.485509526327230e+01
1	 1.122580650278870e+00	 1.161298971291334e-01	 1.419655196695452e+01
1	 1.119880932889991e+00	 1.397861421500678e-01	 1.352608383124157e+01
1	 1.116657608400852e+00	 1.635519947547110e-01	 1.284453997802651e+01
1	 1.112901755926440e+00	 1.874117153317858e-01	 1.215298223388315e+01
1	 1.108605016526075e+00	 2.113489690558632e-01	 1.145269011403236e+01
1	 1.103759634635586e+00	 2.353468468810937e-01	 1.074516446544677e+01
1	 1.142857142857143e+00	 0.000000000000000e+00	 1.675672952669871e+01
1	 1.142621966778179e+00	 2.318383090774752e-02	 1.615481142487187e+01
1	 1.141908779221426e+00	 4.654877996922045e-02	 1.554123408975350e+01
1	 1.140706335310665e+00	 7.008213439745935e-02	 1.491613490935450e+01
1	 1.139003748457817e+00	 9.377051764084682e-02	 1.427981979589971e+01
1	 1.136790531927970e+00	 1.175998958269705e-01	 1.363277123153422e+01
1	 1.134056640901256e+00	 1.415555869874104e-01	 1.297565552248250e+01
1	 1.130792514836306e+00	 1.656222731693276e-01	 1.230932914231451e+01
1	 1.126989119925508e+00	 1.897840155258590e-01	 1.163484404557552e+01
1	 1.122637991418810e+00	 2.140242724616336e-01	 1.095345183521929e+01
1	 1.117731275580340e+00	 2.383259208922468e-01	 1.026660667115573e+01
1	 9.780148661327976e-01	 2.085351807807159e-01	 1.618564444265549e+01
1	 9.732290496522831e-01	 2.298373705751832e-01	 1.520304780717982e+01
1	 9.679450980693772e-01	 2.511618743429501e-01	 1.418628378942706e+01
1	 9.621579570512621e-01	 2.724923222458603e-01	 1.313754858704670e+01
1	 9.558632461069742e-01	 2.938119377115879e-01	 1.205941705113740e+01
1	 9.490572903155012e-01	 3.151035697972945e-01	 1.095484602333320e+01
1	 9.417371503486140e-01	 3.363497281896808e-01	 9.827175102991710e+00
1	 9.339006505507231e-01	 3.575326207508009e-01	 8.680124702529470e+00
1	 9.255464048419428e-01	 3.786341934957203e-01	 7.517791270510161e+00
1	 9.166738402169075e-01	 3.996361728647543e-01	 6.344639586537363e+00
1	 9.072832176207859e-01	 4.205201101299123e-01	 5.165492059126377e+00
1	 9.919865070775523e-01	 2.115142547918691e-01	 1.543677321979704e+01
1	 9.871323217901729e-01	 2.331207615834001e-01	 1.449013208401078e+01
1	 9.817728851846540e-01	 2.547499011192779e-01	 1.351185184705530e+01
1	 9.759030707234233e-01	 2.763850697065156e-01	 1.250403951909623e+01
1	 9.695184353370739e-01	 2.980092511074677e-01	 1.146914917003527e+01
1	 9.626152516057227e-01	 3.196050493658273e-01	 1.040998452941608e+01
1	 9.551905382107371e-01	 3.411547243066764e-01	 9.329699216476630e+00
1	 9.472420884157332e-01	 3.626402296186693e-01	 8.231794473506884e+00
1	 9.387684963396846e-01	 3.840432534028021e-01	 7.120114295709310e+00
1	 9.297691807914344e-01	 4.053452610485364e-01	 5.998837873412753e+00
1	 9.202444064439402e-01	 4.265275402746255e-01	 4.872469287560750e+00
1	 1.005958148022306e+00	 2.144933288030221e-01	 1.473341974896367e+01
1	 1.001035593928062e+00	 2.364041525916170e-01	 1.382080129348540e+01
1	 9.956006722999308e-01	 2.583379278956057e-01	 1.287887062015040e+01
1	 9.896481843955840e-01	 2.802778171671708e-01	 1.190965012736658e+01
1	 9.831736245671735e-01	 3.022065645033475e-01	 1.091547961167451e+01
1	 9.761732128959438e-01	 3.241065289343600e-01	 9.899018177734666e+00
1	 9.686439260728597e-01	 3.459597204236716e-01	 8.863243966739772e+00
1	 9.605835262807438e-01	 3.677478384865382e-01	 7.811451590619014e+00
1	 9.519905878374270e-01	 3.894523133098838e-01	 6.747247178006171e+00
1	 9.428645213659619e-01	 4.110543492323185e-01	 5.674540958906862e+00
1	 9.332055952670942e-01	 4.325349704193383e-01	 4.597537338136821e+00
1	 1.019929788967060e+00	 2.174724028141751e-01	 1.407121303121435e+01
1	 1.014938866065952e+00	 2.396875435998339e-01	 1.319079715067149e+01
1	 1.009428459415208e+00	 2.619259546719336e-01	 1.228320913748632e+01
1	 1.003393298067745e+00	 2.841705646278258e-01	 1.135039131470059e+01
1	 9.968288137972734e-01	 3.064038778992275e-01	 1.039457561238923e+01
1	 9.897311741861657e-01	 3.286080085028928e-01	 9.418284833289576e+00
1	 9.820973139349831e-01	 3.507647165406672e-01	 8.424331913679254e+00
1	 9.739249641457540e-01	 3.728554473544068e-01	 7.415817080197538e+00
1	 9.652126793351687e-01	 3.948613732169654e-01	 6.396122820561557e+00
1	 9.559598619404892e-01	 4.167634374161008e-01	 5.368906605503500e+00
1	 9.461667840902481e-01	 4.385424005640514e-01	 4.338091320575849e+00
1	 1.033901429911815e+00	 2.204514768253283e-01	 1.344601833782103e+01
1	 1.028842138203842e+00	 2.429709346080507e-01	 1.259609154820073e+01
1	 1.023256246530484e+00	 2.655139814482615e-01	 1.172095972357877e+01
1	 1.017138411739905e+00	 2.880633120884808e-01	 1.082248961081429e+01
1	 1.010484003027373e+00	 3.106011912951073e-01	 9.902811584927829e+00
1	 1.003289135476387e+00	 3.331094880714255e-01	 8.964320314324574e+00
1	 9.955507017971060e-01	 3.555697126576626e-01	 8.009673586928498e+00
1	 9.872664020107647e-01	 3.779630562222753e-01	 7.041789210394300e+00
1	 9.784347708329104e-01	 4.002704331240472e-01	 6.063839915554598e+00
1	 9.690552025150165e-01	 4.224725255998831e-01	 5.079246210146800e+00
1	 9.591279729134023e-01	 4.445498307087645e-01	 4.091667149478736e+00
1	 1.047873070856569e+00	 2.234305508364814e-01	 1.285392145892124e+01
1	 1.042745410341732e+00	 2.462543256162677e-01	 1.203287121109781e+01
1	 1.037084033645761e+00	 2.691020082245894e-01	 1.118842311230283e+01
1	 1.030883525412067e+00	 2.919560595491361e-01	 1.032237279717232e+01
1	 1.024139192257473e+00	 3.147985046909870e-01	 9.436755306692175e+00
1	 1.016847096766608e+00	 3.376109676399583e-01	 8.533845195443767e+00
1	 1.009004089659229e+00	 3.603747087746580e-01	 7.616154954540492e+00
1	 1.000607839875775e+00	 3.830706650901438e-01	 6.686431675059525e+00
1	 9.916568623306528e-01	 4.056794930311289e-01	 5.747651891581603e+00
1	 9.821505430895439e-01	 4.281816137836654e-01	 4.803014561943895e+00
1	 9.720891617365564e-01	 4.505572608534776e-01	 3.855932157334417e+00
1	 1.061844711801323e+00	 2.264096248476345e-01	 1.229121419569782e+01
1	 1.056648682479622e+00	 2.495377166244846e-01	 1.149752356307033e+01
1	 1.050911820761038e+00	 2.726900350009171e-01	 1.068209473575053e+01
1	 1.044628639084228e+00	 2.958488070097914e-01	 9.846656666741053e+00
1	 1.037794381487572e+00	 3.189958180868669e-01	 8.993155198378744e+00
1	 1.030405058056830e+00	 3.421124472084912e-01	 8.123752652587955e+00
1	 1.022457477521352e+00	 3.651797048916534e-01	 7.240825880986394e+00
1	 1.013949277740785e+00	 3.881782739580125e-01	 6.346962710472422e+00
1	 1.004878953828395e+00	 4.110885529382107e-01	 5.444956733628438e+00
1	 9.952458836640706e-01	 4.338907019674473e-01	 4.537800408469924e+00
1	 9.850503505597105e-01	 4.565646909981905e-01	 3.628676448606083e+00
1	 1.075816352746078e+00	 2.293886988587875e-01	 1.175438098303847e+01
1	 1.070551954617511e+00	 2.528211076327014e-01	 1.098662369412678e+01
1	 1.064739607876315e+00	 2.762780617772450e-01	 1.019865208148967e+01
1	 1.058373752756388e+00	 2.997415544704464e-01	 9.392132815449790e+00
1	 1.051449570717672e+00	 3.231931314827468e-01	 8.568928593894611e+00
1	 1.043963019347051e+00	 3.466139267770240e-01	 7.731097255155460e+00
1	 1.035910865383475e+00	 3.699847010086489e-01	 6.880889484531155e+00
1	 1.027290715605796e+00	 3.932858828258811e-01	 6.020745060118450e+00
1	 1.018101045326137e+00	 4.164976128452925e-01	 5.153287596292230e+00
1	 1.008341224238598e+00	 4.395997901512296e-01	 4.281317757166308e+00
1	 9.980115393828648e-01	 4.625721211429035e-01	 3.407804927525112e+00
1	 1.089787993690832e+00	 2.323677728699406e-01	 1.124008654122123e+01
1	 1.084455226755401e+00	 2.561044986409184e-01	 1.049692233068543e+01
1	 1.078567394991592e+00	 2.798660885535729e-01	 9.734943022341016e+00
1	 1.072118866428549e+00	 3.036343019311015e-01	 8.955757372769787e+00
1	 1.065104759947771e+00	 3.273904448786266e-01	 8.161150912587495e+00
1	 1.057520980637273e+00	 3.511154063455566e-01	 7.353084620267834e+00
1	 1.049364253245598e+00	 3.747896971256443e-01	 6.533692313272217e+00
1	 1.040632153470806e+00	 3.983934916937497e-01	 5.705276711406971e+00
1	 1.031323136823879e+00	 4.219066727523740e-01	 4.870304139062438e+00
1	 1.021436564813125e+00	 4.453088783350118e-01	 4.031397845862031e+00
1	 1.010972728206019e+00	 4.685795512876166e-01	 3.191329939131538e+00
1	 1.103759634635586e+00	 2.353468468810937e-01	 1.074516446544677e+01
1	 1.098358498893291e+00	 2.593878896491353e-01	 1.002533471934600e+01
1	 1.092395182106869e+00	 2.834541153299008e-01	 9.287975032501498e+00
1	 1.085863980100710e+00	 3.075270493917566e-01	 8.534640588199172e+00
1	 1.078759949177871e+00	 3.315877582745065e-01	 7.767045653838128e+00
1	 1.071078941927494e+00	 3.556168859140896e-01	 6.987061852787273e+00
1	 1.062817641107721e+00	 3.795946932426398e-01	 6.196715267302191e+00
1	 1.053973591335816e+00	 4.035011005616184e-01	 5.398182335929088e+00
1	 1.044545228321621e+00	 4.273157326594558e-01	 4.593784519682270e+00
1	 1.034531905387653e+00	 4.510179665187942e-01	 3.785981723128956e+00
1	 1.023933917029173e+00	 4.745869814323296e-01	 2.977364469222763e+00
1	 1.117731275580340e+00	 2.383259208922468e-01	 1.026660667115573e+01
1	 1.112261771031181e+00	 2.626712806573522e-01	 9.568930344378124e+00
1	 1.106222969222145e+00	 2.870421421062286e-01	 8.854905212458153e+00
1	 1.099609093772871e+00	 3.114197968524118e-01	 8.126037198761095e+00
1	 1.092415138407971e+00	 3.357850716703862e-01	 7.383975142058249e+00
1	 1.084636903217716e+00	 3.601183654826223e-01	 6.630508702332883e+00
1	 1.076271028969845e+00	 3.843996893596351e-01	 5.867565201708991e+00
1	 1.067315029200826e+00	 4.086087094294868e-01	 5.097205371696325e+00
1	 1.057767319819363e+00	 4.327247925665375e-01	 4.321617988007775e+00
1	 1.047627245962180e+00	 4.567270547025762e-01	 3.543113385110324e+00
1	 1.036895105852327e+00	 4.805944115770426e-01	 2.764115854306395e+00
1	 9.072832176207859e-01	 4.205201101299123e-01	 5.165492059126377e+00
1	 8.973756499953728e-01	 4.412674277525846e-01	 3.983589458729651e+00
1	 8.869531173021131e-01	 4.618594674877455e-01	 2.801290586135838e+00
1	 8.760184783453765e-01	 4.822775400093309e-01	 1.622414621244051e+00
1	 8.645754792381196e-01	 5.025029758122590e-01	 4.508495509403343e-01
1	 8.526287583731883e-01	 5.225171771291306e-01	-7.094615007065870e-01
1	 8.401838477866392e-01	 5.423016705842215e-01	-1.854534600787678e+00
1	 8.272471708245099e-01	 5.618381602942648e-01	-2.980359904085827e+00
1	 8.138260360510750e-01	 5.811085811149189e-01	-4.082917019225407e+00
1	 7.999286273645809e-01	 6.000951517239724e-01	-5.158190738606015e+00
1	 7.855639903154131e-01	 6.187804272274013e-01	-6.202187020124732e+00
1	 9.202444064439402e-01	 4.265275402746255e-01	 4.872469287560750e+00
1	 9.101953021381637e-01	 4.475712481490501e-01	 3.743244107915610e+00
1	 8.996238761207145e-01	 4.684574598804274e-01	 2.612627453175250e+00
1	 8.885330280360242e-01	 4.891672191523212e-01	 1.484258177996765e+00
1	 8.769265575129500e-01	 5.096815897524344e-01	 3.618375381040539e-01
1	 8.648091692070913e-01	 5.299817082309753e-01	-7.508839544009800e-01
1	 8.521864741835914e-01	 5.500488373068533e-01	-1.850120274520328e+00
1	 8.390649875505746e-01	 5.698644197270401e-01	-2.932064138653307e+00
1	 8.254521222803762e-01	 5.894101322737036e-01	-3.992901674198959e+00
1	 8.113561791840751e-01	 6.086679396057434e-01	-5.028827402394197e+00
1	 7.967863330342053e-01	 6.276201476163644e-01	-6.036059426826565e+00
1	 9.332055952670942e-01	 4.325349704193383e-01	 4.597537338136821e+00
1	 9.230149542809548e-01	 4.538750685455157e-01	 3.517552610762400e+00
1	 9.122946349393168e-01	 4.750554522731097e-01	 2.435236025632749e+00
1	 9.010475777266729e-01	 4.960568982953117e-01	 1.354054426458901e+00
1	 8.892776357877804e-01	 5.168602036926095e-01	 2.775310876863222e-01
1	 8.769895800409937e-01	 5.374462393328199e-01	-7.907669236948438e-01
1	 8.641891005805434e-01	 5.577960040294851e-01	-1.847241929085622e+00
1	 8.508828042766388e-01	 5.778906791598153e-01	-2.888279276313908e+00
1	 8.370782085096772e-01	 5.977116834324880e-01	-3.910261342260524e+00
1	 8.227837310035692e-01	 6.172407274875147e-01	-4.909581801650392e+00
1	 8.080086757529962e-01	 6.364598680053269e-01	-5.882660058718714e+00
1	 9.461667840902481e-01	 4.385424005640514e-01	 4.338091320575849e+00
1	 9.358346064237457e-01	 4.601788889419810e-01	 3.304154406108892e+00
1	 9.249653937579178e-01	 4.816534446657916e-01	 2.267001877762058e+00
1	 9.135621274173210e-01	 5.029465774383023e-01	 1.229936822494524e+00
1	 9.016287140626106e-01	 5.240388176327846e-01	 1.963132079687475e-01
1	 8.891699908748966e-01	 5.449107704346647e-01	-8.304762677173618e-01
1	 8.761917269774953e-01	 5.655431707521167e-01	-1.847012816601498e+00
1	 8.627006210027034e-01	 5.859169385925905e-01	-2.849864608381889e+00
1	 8.487042947389785e-01	 6.060132345912725e-01	-3.835600135310224e+00
1	 8.342112828230631e-01	 6.258135153692855e-01	-4.800801799556365e+00
1	 8.192310184717879e-01	 6.452995883942898e-01	-5.742079623868180e+00
1	 9.591279729134023e-01	 4.445498307087645e-01	 4.091667149478736e+00
1	 9.486542585665368e-01	 4.664827093384465e-01	 3.100816530694933e+00
1	 9.376361525765197e-01	 4.882514370584738e-01	 2.105924877100586e+00
1	 9.260766771079689e-01	 5.098362565812926e-01	 1.110139716245218e+00
1	 9.139797923374405e-01	 5.312174315729594e-01	 1.166543121908732e-01
1	 9.013504017087993e-01	 5.523753015365095e-01	-8.713040153745577e-01
1	 8.881943533744474e-01	 5.732903374747486e-01	-1.850486013395551e+00
1	 8.745184377287680e-01	 5.939431980253658e-01	-2.817632977992364e+00
1	 8.603303809682793e-01	 6.143147857500572e-01	-3.769489510551336e+00
1	 8.456388346425568e-01	 6.343863032510562e-01	-4.702816455878677e+00
1	 8.304533611905800e-01	 6.541393087832528e-01	-5.614403927202982e+00
1	 9.720891617365564e-01	 4.505572608534776e-01	 3.855932157334417e+00
1	 9.614739107093283e-01	 4.727865297349121e-01	 2.905425112633917e+00
1	 9.503069113951214e-01	 4.948494294511560e-01	 1.950111564917105e+00
1	 9.385912267986175e-01	 5.167259357242833e-01	 9.929916258451491e-01
1	 9.263308706122714e-01	 5.383960455131348e-01	 3.710639155277629e-02
1	 9.135308125427016e-01	 5.598398326383540e-01	-9.144732873639800e-01
1	 9.001969797713993e-01	 5.810375041973801e-01	-1.858658431724500e+00
1	 8.863362544548321e-01	 6.019694574581410e-01	-2.792353876646785e+00
1	 8.719564671975805e-01	 6.226163369088416e-01	-3.712470447469308e+00
1	 8.570663864620512e-01	 6.429590911328277e-01	-4.615937280529545e+00
1	 8.416757039093712e-01	 6.629790291722155e-01	-5.499714197388423e+00
1	 9.850503505597105e-01	 4.565646909981905e-01	 3.628676448606083e+00
1	 9.742935628521189e-01	 4.790903501313776e-01	 2.715977536454533e+00
1	 9.629776702137229e-01	 5.014474218438381e-01	 1.797768138202975e+00
1	 9.511057764892659e-01	 5.236156148672736e-01	 8.769090421581440e-01
1	 9.386819488871013e-01	 5.455746594533097e-01	-4.370235175602288e-02
1	 9.257112233766045e-01	 5.673043637401989e-01	-9.611428296096647e-01
1	 9.121996061683509e-01	 5.887846709200116e-01	-1.872474514779037e+00
1	 8.981540711808966e-01	 6.099957168909160e-01	-2.774756296293603e+00
1	 8.835825534268819e-01	 6.309178880676264e-01	-3.665055452945167e+00
1	 8.684939382815452e-01	 6.515318790145984e-01	-4.540459388162798e+00
1	 8.528980466281629e-01	 6.718187495611785e-01	-5.398087387896805e+00
1	 9.980115393828648e-01	 4.625721211429035e-01	 3.407804927525112e+00
1	 9.871132149949101e-01	 4.853941705278430e-01	 2.530575218657940e+00
1	 9.756484290323246e-01	 5.080454142365202e-01	 1.647193978521487e+00
1	 9.636203261799139e-01	 5.305052940102640e-01	 7.603907162630731e-01
1	 9.510330271619318e-01	 5.527532733934850e-01	-1.270724533220677e-01
1	 9.378916342105076e-01	 5.747688948420437e-01	-1.012411193442229e+00
1	 9.242022325653033e-01	 5.965318376426435e-01	-1.892829643765859e+00
1	 9.099718879069612e-01	 6.180219763236915e-01	-2.765531359169900e+00
1	 8.952086396561829e-01	 6.392194392264111e-01	-3.627730410125854e+00
1	 8.799214901010391e-01	 6.601046668963694e-01	-4.476662562800806e+00
1	 8.641203893469546e-01	 6.806584699501413e-01	-5.309596454617513e+00
1	 1.010972728206019e+00	 4.685795512876166e-01	 3.191329939131538e+00
1	 9.999328671377011e-01	 4.916979909243085e-01	 2.347416939001647e+00
1	 9.883191878509261e-01	 5.146434066292022e-01	 1.496775678637867e+00
1	 9.761348758705620e-01	 5.373949731532545e-01	 6.420123863628266e-01
1	 9.633841054367618e-01	 5.599318873336601e-01	-2.142377545993479e-01
1	 9.500720450444099e-01	 5.822334259438883e-01	-1.069320594226583e+00
1	 9.362048589622556e-01	 6.042790043652755e-01	-1.920573282906692e+00
1	 9.217897046330253e-01	 6.260482357564664e-01	-2.765334745346610e+00
1	 9.068347258854836e-01	 6.475209903851954e-01	-3.600956285073952e+00
1	 8.913490419205331e-01	 6.686774547781408e-01	-4.424812240567395e+00
1	 8.753427320657464e-01	 6.894981903391044e-01	-5.234310612112233e+00
1	 1.023933917029173e+00	 4.745869814323296e-01	 2.977364469222763e+00
1	 1.012752519280492e+00	 4.980018113207742e-01	 2.164792678268093e+00
1	 1.000989946669528e+00	 5.212413990218843e-01	 1.344981522822828e+00
1	 9.886494255612103e-01	 5.442846522962448e-01	 5.204219051816135e-01
1	 9.757351837115925e-01	 5.671105012738353e-01	-3.063696240566962e-01
1	 9.622524558783128e-01	 5.896979570457329e-01	-1.132860476929396e+00
1	 9.482074853592071e-01	 6.120261710879070e-01	-1.956511885576652e+00
1	 9.336075213590898e-01	 6.340744951892416e-01	-2.774788935903810e+00
1	 9.184608121147848e-01	 6.558225415439799e-01	-3.585170703798072e+00
1	 9.027765937400271e-01	 6.772502426599116e-01	-4.385160417782661e+00
1	 8.865650747845378e-01	 6.983379107280673e-01	-5.172295570407904e+00
1	 1.036895105852327e+00	 4.805944115770426e-01	 2.764115854306395e+00
1	 1.025572171423283e+00	 5.043056317172395e-01	 1.981077918200573e+00
1	 1.013660705488129e+00	 5.278393914145663e-01	 1.190356381133567e+00
1	 1.001163975251858e+00	 5.511743314392351e-01	 3.943347328076074e-01
1	 9.880862619864225e-01	 5.742891152140104e-01	-4.045808617395803e-01
1	 9.744328667122153e-01	 5.971624881475778e-01	-1.203970814269114e+00
1	 9.602101117561592e-01	 6.197733378105390e-01	-2.001411582482067e+00
1	 9.454253380851545e-01	 6.421007546220170e-01	-2.794485287867554e+00
1	 9.300868983440859e-01	 6.641240927027645e-01	-3.580789411006521e+00
1	 9.142041455595213e-01	 6.858230305416827e-01	-4.357946490950676e+00
1	 8.977874175033295e-01	 7.071776311170301e-01	-5.123613754030182e+00
1	 7.855639903154131e-01	 6.187804272274013e-01	-6.202187020124732e+00
1	 7.707420146512741e-01	 6.371473509725164e-01	-7.209063027208247e+00
1	 7.554734131438946e-01	 6.551793052536952e-01	-8.174081029763201e+00
1	 7.397696967816780e-01	 6.728601606006588e-01	-9.095191416006712e+00
1	 7.236431464421306e-01	 6.901743233468870e-01	-9.970695721787486e+00
1	 7.071067811865475e-01	 7.071067811865477e-01	-1.079924796984604e+01
1	 6.901743233468870e-01	 7.236431464421306e-01	-1.157985336139523e+01
1	 6.728601606006588e-01	 7.397696967816780e-01	-1.231186435068361e+01
1	 6.551793052536952e-01	 7.554734131438944e-01	-1.299497416276615e+01
1	 6.371473509725165e-01	 7.707420146512741e-01	-1.362920784331194e+01
1	 6.187804272274013e-01	 7.855639903154132e-01	-1.421491095646022e+01
1	 7.967863330342053e-01	 6.276201476163644e-01	-6.036059426826565e+00
1	 7.817526148605780e-01	 6.462494559864095e-01	-7.009745681398643e+00
1	 7.662658904745219e-01	 6.645390096144622e-01	-7.945985838504162e+00
1	 7.503378353071305e-01	 6.824724486092393e-01	-8.842688043734842e+00
1	 7.339809056770183e-01	 7.000339565375566e-01	-9.698077967913834e+00
1	 7.172083066320697e-01	 7.172083066320697e-01	-1.051070108431090e+01
1	 7.000339565375567e-01	 7.339809056770181e-01	-1.127942254532251e+01
1	 6.824724486092392e-01	 7.503378353071304e-01	-1.200342467777036e+01
1	 6.645390096144623e-01	 7.662658904745214e-01	-1.268220214285833e+01
1	 6.462494559864097e-01	 7.817526148605780e-01	-1.331555483295358e+01
1	 6.276201476163644e-01	 7.967863330342052e-01	-1.390357860230102e+01
1	 8.080086757529962e-01	 6.364598680053269e-01	-5.882660058718714e+00
1	 7.927632150698822e-01	 6.553515610003027e-01	-6.825522179412909e+00
1	 7.770583678051488e-01	 6.738987139752293e-01	-7.735005418587296e+00
1	 7.609059738325832e-01	 6.920847366178207e-01	-8.608985757301857e+00
1	 7.443186649119058e-01	 7.098935897282264e-01	-9.445625514549326e+00
1	 7.273098320775917e-01	 7.273098320775919e-01	-1.024337646704030e+01
1	 7.098935897282265e-01	 7.443186649119057e-01	-1.100098079804156e+01
1	 6.920847366178207e-01	 7.609059738325831e-01	-1.171746988394772e+01
1	 6.738987139752293e-01	 7.770583678051486e-01	-1.239216095166941e+01
1	 6.553515610003030e-01	 7.927632150698820e-01	-1.302465166373355e+01
1	 6.364598680053271e-01	 8.080086757529963e-01	-1.361481271085736e+01
1	 8.192310184717879e-01	 6.452995883942898e-01	-5.742079623868180e+00
1	 8.037738152791861e-01	 6.644536660141954e-01	-6.656234874667098e+00
1	 7.878508451357759e-01	 6.832584183359962e-01	-7.540751775655421e+00
1	 7.714741123580358e-01	 7.016970246264014e-01	-8.393483587758638e+00
1	 7.546564241467932e-01	 7.197532229188962e-01	-9.212541085355678e+00
1	 7.374113575231138e-01	 7.374113575231138e-01	-9.996296426251963e+00
1	 7.197532229188964e-01	 7.546564241467931e-01	-1.074338506318090e+01
1	 7.016970246264013e-01	 7.714741123580355e-01	-1.145270569605784e+01
1	 6.832584183359962e-01	 7.878508451357754e-01	-1.212341828630301e+01
1	 6.644536660141959e-01	 8.037738152791861e-01	-1.275494017622511e+01
1	 6.452995883942900e-01	 8.192310184717879e-01	-1.334694037738038e+01
1	 8.304533611905800e-01	 6.541393087832528e-01	-5.614403927202982e+00
1	 8.147844154884897e-01	 6.735557710280885e-01	-6.501734642013796e+00
1	 7.986433224664029e-01	 6.926181226967634e-01	-7.362857888018794e+00
1	 7.820422508834883e-01	 7.113093126349818e-01	-8.195613050963471e+00
1	 7.649941833816813e-01	 7.296128561095663e-01	-8.998070500013020e+00
1	 7.475128829686359e-01	 7.475128829686359e-01	-9.768536118368495e+00
1	 7.296128561095661e-01	 7.649941833816811e-01	-1.050555407120043e+01
1	 7.113093126349821e-01	 7.820422508834880e-01	-1.120790780165416e+01
1	 6.926181226967637e-01	 7.986433224664027e-01	-1.187461926564166e+01
1	 6.735557710280889e-01	 8.147844154884898e-01	-1.250494643583574e+01
1	 6.541393087832528e-01	 8.304533611905799e-01	-1.309837912440426e+01
1	 8.416757039093712e-01	 6.629790291722155e-01	-5.499714197388423e+00
1	 8.257950156977942e-01	 6.826578760419820e-01	-6.361880309647020e+00
1	 8.094357997970297e-01	 7.019778270575303e-01	-7.200976308478378e+00
1	 7.926103894089407e-01	 7.209216006435628e-01	-8.014835981929391e+00
1	 7.753319426165687e-01	 7.394724893002361e-01	-8.801499801151856e+00
1	 7.576144084141579e-01	 7.576144084141581e-01	-9.559220024802935e+00
1	 7.394724893002359e-01	 7.753319426165685e-01	-1.028646422026847e+01
1	 7.209216006435631e-01	 7.926103894089409e-01	-1.098191718495390e+01
1	 7.019778270575305e-01	 8.094357997970296e-01	-1.164448126889415e+01
1	 6.826578760419821e-01	 8.257950156977940e-01	-1.227327511781726e+01
1	 6.629790291722157e-01	 8.416757039093714e-01	-1.286763087326165e+01
1	 8.528980466281629e-01	 6.718187495611785e-01	-5.398087387896805e+00
1	 8.368056159070980e-01	 6.917599810558749e-01	-6.236538135855882e+00
1	 8.202282771276569e-01	 7.113375314182975e-01	-7.054777876529419e+00
1	 8.031785279343934e-01	 7.305338886521437e-01	-7.850642540142128e+00
1	 7.856697018514562e-01	 7.493321224909059e-01	-8.622152608106312e+00
1	 7.677159338596803e-01	 7.677159338596803e-01	-9.367518706894208e+00
1	 7.493321224909059e-01	 7.856697018514558e-01	-1.008514578233422e+01
1	 7.305338886521437e-01	 8.031785279343933e-01	-1.077363583100497e+01
1	 7.113375314182977e-01	 8.202282771276568e-01	-1.143178918162640e+01
1	 6.917599810558752e-01	 8.368056159070977e-01	-1.205860433556668e+01
1	 6.718187495611787e-01	 8.528980466281628e-01	-1.265327639153076e+01
1	 8.641203893469546e-01	 6.806584699501413e-01	-5.309596454617513e+00
1	 8.478162161164017e-01	 7.008620860697679e-01	-6.125581326550734e+00
1	 8.310207544582839e-01	 7.206972357790647e-01	-6.923950530914261e+00
1	 8.137466664598459e-01	 7.401461766607245e-01	-7.702549370309161e+00
1	 7.960074610863438e-01	 7.591917556815756e-01	-8.459387676868509e+00
1	 7.778174593052023e-01	 7.778174593052023e-01	-9.192645813703832e+00
1	 7.591917556815757e-01	 7.960074610863437e-01	-9.900679404830038e+00
1	 7.401461766607246e-01	 8.137466664598457e-01	-1.058202276459307e+01
1	 7.206972357790647e-01	 8.310207544582839e-01	-1.123539101223212e+01
1	 7.008620860697682e-01	 8.478162161164016e-01	-1.185968087191464e+01
1	 6.806584699501415e-01	 8.641203893469546e-01	-1.245397017314943e+01
1	 8.753427320657464e-01	 6.894981903391044e-01	-5.234310612112233e+00
1	 8.588268163257057e-01	 7.099641910836612e-01	-6.028889589902912e+00
1	 8.418132317889112e-01	 7.300569401398317e-01	-6.808198213516743e+00
1	 8.243148049852986e-01	 7.497584646693054e-01	-7.570097904588565e+00
1	 8.063452203212312e-01	 7.690513888722454e-01	-8.312596647738671e+00
1	 7.879189847507241e-01	 7.879189847507243e-01	-9.033855319982518e+00
1	 7.690513888722454e-01	 8.063452203212313e-01	-9.732192881473564e+00
1	 7.497584646693055e-01	 8.243148049852983e-01	-1.040609039384826e+01
1	 7.300569401398317e-01	 8.418132317889109e-01	-1.105419384559780e+01
1	 7.099641910836613e-01	 8.588268163257055e-01	-1.167531577723897e+01
1	 6.894981903391043e-01	 8.753427320657461e-01	-1.226843571236635e+01
1	 8.865650747845378e-01	 6.983379107280673e-01	-5.172295570407904e+00
1	 8.698374165350096e-01	 7.190662960975541e-01	-5.946348724809331e+00
1	 8.526057091195379e-01	 7.394166445005986e-01	-6.707239856504925e+00
1	 8.348829435107509e-01	 7.593707526778862e-01	-7.452852793763575e+00
1	 8.166829795561187e-01	 7.789110220629153e-01	-8.181201964039722e+00
1	 7.980205101962464e-01	 7.980205101962464e-01	-8.890438973911113e+00
1	 7.789110220629154e-01	 8.166829795561189e-01	-9.578858168326063e+00
1	 7.593707526778863e-01	 8.348829435107509e-01	-1.024490113155207e+01
1	 7.394166445005989e-01	 8.526057091195380e-01	-1.088716010408396e+01
1	 7.190662960975543e-01	 8.698374165350092e-01	-1.150438030189837e+01
1	 6.983379107280674e-01	 8.865650747845379e-01	-1.209546113663283e+01
1	 8.977874175033295e-01	 7.071776311170301e-01	-5.123613754030182e+00
1	 8.808480167443135e-01	 7.281684011114473e-01	-5.877850240222056e+00
1	 8.633981864501654e-01	 7.487763488613658e-01	-6.620808445438579e+00
1	 8.454510820362036e-01	 7.689830406864669e-01	-7.350400456078235e+00
1	 8.270207387910065e-01	 7.887706552535849e-01	-8.064654946928560e+00
1	 8.081220356417685e-01	 8.081220356417687e-01	-8.761723936261726e+00
1	 7.887706552535849e-01	 8.270207387910065e-01	-9.439888623645730e+00
1	 7.689830406864671e-01	 8.454510820362033e-01	-1.009756426984725e+01
1	 7.487763488613659e-01	 8.633981864501649e-01	-1.073330408893302e+01
1	 7.281684011114475e-01	 8.808480167443136e-01	-1.134580213373364e+01
1	 7.071776311170301e-01	 8.977874175033295e-01	-1.193389516702752e+01
1	 6.187804272274013e-01	 7.855639903154132e-01	-1.421491095646022e+01
1	 6.000951517239723e-01	 7.999286273645809e-01	-1.475071127453712e+01
1	 5.811085811149190e-01	 8.138260360510750e-01	-1.523512393747118e+01
1	 5.618381602942650e-01	 8.272471708245098e-01	-1.566887373712610e+01
1	 5.423016705842216e-01	 8.401838477866392e-01	-1.605309309266521e+01
1	 5.225171771291308e-01	 8.526287583731881e-01	-1.638930320506119e+01
1	 5.025029758122596e-01	 8.645754792381194e-01	-1.667939272853161e+01
1	 4.822775400093313e-01	 8.760184783453757e-01	-1.692559421313593e+01
1	 4.618594674877461e-01	 8.869531173021130e-01	-1.713045859094128e+01
1	 4.412674277525853e-01	 8.973756499953723e-01	-1.729682799213752e+01
1	 4.205201101299122e-01	 9.072832176207859e-01	-1.742780718721048e+01
1	 6.276201476163644e-01	 7.967863330342052e-01	-1.390357860230101e+01
1	 6.086679396057432e-01	 8.113561791840751e-01	-1.444504171556216e+01
1	 5.894101322737035e-01	 8.254521222803761e-01	-1.493862292053923e+01
1	 5.698644197270403e-01	 8.390649875505743e-01	-1.538478898666069e+01
1	 5.500488373068533e-01	 8.521864741835907e-01	-1.578438176257268e+01
1	 5.299817082309758e-01	 8.648091692070909e-01	-1.613860193577445e+01
1	 5.096815897524345e-01	 8.769265575129495e-01	-1.644899048884926e+01
1	 4.891672191523216e-01	 8.885330280360237e-01	-1.671740807715190e+01
1	 4.684574598804281e-01	 8.996238761207147e-01	-1.694601256999106e+01
1	 4.475712481490506e-01	 9.101953021381631e-01	-1.713723501079629e+01
1	 4.265275402746253e-01	 9.202444064439400e-01	-1.729375426135147e+01
1	 6.364598680053271e-01	 8.080086757529963e-01	-1.361481271085736e+01
1	 6.172407274875147e-01	 8.227837310035692e-01	-1.416152638879817e+01
1	 5.977116834324880e-01	 8.370782085096770e-01	-1.466360530734070e+01
1	 5.778906791598154e-01	 8.508828042766388e-01	-1.512128054752221e+01
1	 5.577960040294853e-01	 8.641891005805433e-01	-1.553512772293438e+01
1	 5.374462393328204e-01	 8.769895800409937e-01	-1.590605316044594e+01
1	 5.168602036926098e-01	 8.892776357877800e-01	-1.623527794693329e+01
1	 4.960568982953122e-01	 9.010475777266724e-01	-1.652432003944675e+01
1	 4.750554522731102e-01	 9.122946349393162e-01	-1.677497465249446e+01
1	 4.538750685455162e-01	 9.230149542809546e-01	-1.698929314904506e+01
1	 4.325349704193384e-01	 9.332055952670942e-01	-1.716956067132881e+01
1	 6.452995883942900e-01	 8.192310184717879e-01	-1.334694037738038e+01
1	 6.258135153692855e-01	 8.342112828230631e-01	-1.389839160793911e+01
1	 6.060132345912727e-01	 8.487042947389785e-01	-1.440821359610201e+01
1	 5.859169385925908e-01	 8.627006210027035e-01	-1.487642314705629e+01
1	 5.655431707521168e-01	 8.761917269774949e-01	-1.530335298914467e+01
1	 5.449107704346651e-01	 8.891699908748966e-01	-1.568964019694494e+01
1	 5.240388176327850e-01	 9.016287140626105e-01	-1.603621263979038e+01
1	 5.029465774383027e-01	 9.135621274173205e-01	-1.634427362762912e+01
1	 4.816534446657922e-01	 9.249653937579175e-01	-1.661528494149269e+01
1	 4.601788889419818e-01	 9.358346064237452e-01	-1.685094844825566e+01
1	 4.385424005640514e-01	 9.461667840902485e-01	-1.705318650872148e+01
1	 6.541393087832528e-01	 8.304533611905799e-01	-1.309837912440426e+01
1	 6.343863032510563e-01	 8.456388346425566e-01	-1.365395956161401e+01
1	 6.143147857500574e-01	 8.603303809682793e-01	-1.417069069055105e+01
1	 5.939431980253658e-01	 8.745184377287676e-01	-1.464839558140107e+01
1	 5.732903374747487e-01	 8.881943533744471e-01	-1.508718649468489e+01
1	 5.523753015365097e-01	 9.013504017087989e-01	-1.548745537298534e+01
1	 5.312174315729599e-01	 9.139797923374404e-01	-1.584986250783265e+01
1	 5.098362565812931e-01	 9.260766771079687e-01	-1.617532352997769e+01
1	 4.882514370584744e-01	 9.376361525765194e-01	-1.646499488580849e+01
1	 4.664827093384472e-01	 9.486542585665366e-01	-1.672025797459067e+01
1	 4.445498307087645e-01	 9.591279729134023e-01	-1.694270213042875e+01
1	 6.629790291722157e-01	 8.416757039093714e-01	-1.286763087326165e+01
1	 6.429590911328275e-01	 8.570663864620515e-01	-1.342664192172506e+01
1	 6.226163369088418e-01	 8.719564671975804e-01	-1.394937320621710e+01
1	 6.019694574581412e-01	 8.863362544548321e-01	-1.443547377756678e+01
1	 5.810375041973804e-01	 9.001969797713991e-01	-1.488485696325058e+01
1	 5.598398326383544e-01	 9.135308125427015e-01	-1.529769275880319e+01
1	 5.383960455131351e-01	 9.263308706122709e-01	-1.567439853465016e+01
1	 5.167259357242835e-01	 9.385912267986172e-01	-1.601562818472925e+01
1	 4.948494294511565e-01	 9.503069113951210e-01	-1.632225985699397e+01
1	 4.727865297349128e-01	 9.614739107093278e-01	-1.659538241735083e+01
1	 4.505572608534776e-01	 9.720891617365568e-01	-1.683628080764818e+01
1	 6.718187495611787e-01	 8.528980466281628e-01	-1.265327639153076e+01
1	 6.515318790145984e-01	 8.684939382815452e-01	-1.321493395639042e+01
1	 6.309178880676263e-01	 8.835825534268814e-01	-1.374268530518022e+01
1	 6.099957168909163e-01	 8.981540711808964e-01	-1.423602440324762e+01
1	 5.887846709200121e-01	 9.121996061683508e-01	-1.469468634360603e+01
1	 5.673043637401992e-01	 9.257112233766046e-01	-1.511864147356926e+01
1	 5.455746594533102e-01	 9.386819488871010e-01	-1.550808796785455e+01
1	 5.236156148672741e-01	 9.511057764892655e-01	-1.586344295442395e+01
1	 5.014474218438386e-01	 9.629776702137226e-01	-1.618533231230903e+01
1	 4.790903501313784e-01	 9.742935628521187e-01	-1.647457927166284e+01
1	 4.565646909981904e-01	 9.850503505597107e-01	-1.673219195519862e+01
1	 6.806584699501415e-01	 8.641203893469546e-01	-1.245397017314943e+01
1	 6.601046668963694e-01	 8.799214901010390e-01	-1.301740910161789e+01
1	 6.392194392264108e-01	 8.952086396561826e-01	-1.354913301123075e+01
1	 6.180219763236915e-01	 9.099718879069610e-01	-1.404849897456926e+01
1	 5.965318376426438e-01	 9.242022325653031e-01	-1.451508375600816e+01
1	 5.747688948420439e-01	 9.378916342105070e-01	-1.494867951338076e+01
1	 5.527532733934855e-01	 9.510330271619314e-01	-1.534928806816850e+01
1	 5.305052940102644e-01	 9.636203261799136e-01	-1.571711383211937e+01
1	 5.080454142365207e-01	 9.756484290323243e-01	-1.605255549045453e+01
1	 4.853941705278438e-01	 9.871132149949097e-01	-1.635619655238741e+01
1	 4.625721211429035e-01	 9.980115393828650e-01	-1.662879488842812e+01
1	 6.894981903391043e-01	 8.753427320657461e-01	-1.226843571236635e+01
1	 6.686774547781408e-01	 8.913490419205331e-01	-1.283271395054321e+01
1	 6.475209903851953e-01	 9.068347258854836e-01	-1.336729896232367e+01
1	 6.260482357564667e-01	 9.217897046330255e-01	-1.387142841708668e+01
1	 6.042790043652757e-01	 9.362048589622552e-01	-1.434453990429063e+01
1	 5.822334259438887e-01	 9.500720450444098e-01	-1.478626805402204e+01
1	 5.599318873336604e-01	 9.633841054367617e-01	-1.519644033935466e+01
1	 5.373949731532549e-01	 9.761348758705619e-01	-1.557507163174195e+01
1	 5.146434066292028e-01	 9.883191878509255e-01	-1.592235759224951e+01
1	 4.916979909243093e-01	 9.999328671377006e-01	-1.623866699157162e+01
1	 4.685795512876165e-01	 1.010972728206019e+00	-1.652453306035892e+01
1	 6.983379107280674e-01	 8.865650747845379e-01	-1.209546113663283e+01
1	 6.772502426599116e-01	 9.027765937400271e-01	-1.265956362323188e+01
1	 6.558225415439801e-01	 9.184608121147849e-01	-1.319583756158059e+01
1	 6.340744951892421e-01	 9.336075213590899e-01	-1.370341803987125e+01
1	 6.120261710879074e-01	 9.482074853592071e-01	-1.418162191234606e+01
1	 5.896979570457334e-01	 9.622524558783121e-01	-1.462994618642765e+01
1	 5.671105012738356e-01	 9.757351837115920e-01	-1.504806519637742e+01
1	 5.442846522962453e-01	 9.886494255612098e-01	-1.543582661967765e+01
1	 5.212413990218850e-01	 1.000989946669527e+00	-1.579324640328142e+01
1	 4.980018113207747e-01	 1.012752519280492e+00	-1.612050267660209e+01
1	 4.745869814323296e-01	 1.023933917029173e+00	-1.641792873651838e+01
1	 7.071776311170301e-01	 8.977874175033295e-01	-1.193389516702752e+01
1	 6.858230305416826e-01	 9.142041455595212e-01	-1.249673748374625e+01
1	 6.641240927027647e-01	 9.300868983440858e-01	-1.303347049196729e+01
1	 6.421007546220172e-01	 9.454253380851544e-01	-1.354314288654058e+01
1	 6.197733378105391e-01	 9.602101117561590e-01	-1.402496854787242e+01
1	 5.971624881475781e-01	 9.744328667122151e-01	-1.447832604698558e+01
1	 5.742891152140108e-01	 9.880862619864224e-01	-1.490275703345310e+01
1	 5.511743314392359e-01	 1.001163975251858e+00	-1.529796354899292e+01
1	 5.278393914145669e-01	 1.013660705488129e+00	-1.566380431985852e+01
1	 5.043056317172403e-01	 1.025572171423283e+00	-1.600029009049608e+01
1	 4.805944115770426e-01	 1.036895105852327e+00	-1.630757806915778e+01
1	 4.205201101299122e-01	 9.072832176207859e-01	-1.742780718721048e+01
1	 3.996361728647542e-01	 9.166738402169073e-01	-1.752709866902524e+01
1	 3.786341934957204e-01	 9.255464048419428e-01	-1.759686986400321e+01
1	 3.575326207508011e-01	 9.339006505507231e-01	-1.763825920633664e+01
1	 3.363497281896810e-01	 9.417371503486138e-01	-1.765260370333718e+01
1	 3.151035697972948e-01	 9.490572903155010e-01	-1.764142474988715e+01
1	 2.938119377115883e-01	 9.558632461069742e-01	-1.760641314891325e+01
1	 2.724923222458608e-01	 9.621579570512618e-01	-1.754941349862701e+01
1	 2.511618743429507e-01	 9.679450980693770e-01	-1.747240810651599e+01
1	 2.298373705751838e-01	 9.732290496522829e-01	-1.737750058732579e+01
1	 2.085351807807160e-01	 9.780148661327976e-01	-1.726689929770610e+01
1	 4.265275402746253e-01	 9.202444064439400e-01	-1.729375426135146e+01
1	 4.053452610485362e-01	 9.297691807914344e-01	-1.741882537937639e+01
1	 3.840432534028021e-01	 9.387684963396845e-01	-1.751434303334221e+01
1	 3.626402296186697e-01	 9.472420884157334e-01	-1.758126482186947e+01
1	 3.411547243066765e-01	 9.551905382107367e-01	-1.762073774726601e+01
1	 3.196050493658277e-01	 9.626152516057228e-01	-1.763408552561627e+01
1	 2.980092511074681e-01	 9.695184353370739e-01	-1.762279511310765e+01
1	 2.763850697065161e-01	 9.759030707234229e-01	-1.758850259556842e+01
1	 2.547499011192784e-01	 9.817728851846537e-01	-1.753297858808231e+01
1	 2.331207615834007e-01	 9.871323217901723e-01	-1.745811328958710e+01
1	 2.115142547918692e-01	 9.919865070775520e-01	-1.736590133369601e+01
1	 4.325349704193384e-01	 9.332055952670942e-01	-1.716956067132881e+01
1	 4.110543492323185e-01	 9.428645213659618e-01	-1.731861622252446e+01
1	 3.894523133098839e-01	 9.519905878374271e-01	-1.743810022762775e+01
1	 3.677478384865385e-01	 9.605835262807438e-01	-1.752880326137852e+01
1	 3.459597204236719e-01	 9.686439260728598e-01	-1.759169667181598e+01
1	 3.241065289343603e-01	 9.761732128959438e-01	-1.762792128534188e+01
1	 3.022065645033480e-01	 9.831736245671734e-01	-1.763877533803314e+01
1	 2.802778171671712e-01	 9.896481843955841e-01	-1.762570176729542e+01
1	 2.583379278956063e-01	 9.956006722999304e-01	-1.759027499845038e+01
1	 2.364041525916176e-01	 1.001035593928062e+00	-1.753418735961525e+01
1	 2.144933288030222e-01	 1.005958148022306e+00	-1.745923525540518e+01
1	 4.385424005640514e-01	 9.461667840902485e-01	-1.705318650872148e+01
1	 4.167634374161008e-01	 9.559598619404893e-01	-1.722445255904490e+01
1	 3.948613732169655e-01	 9.652126793351690e-01	-1.736615092855226e+01
1	 3.728554473544068e-01	 9.739249641457544e-01	-1.747891848045451e+01
1	 3.507647165406675e-01	 9.820973139349833e-01	-1.756356473575806e+01
1	 3.286080085028931e-01	 9.897311741861657e-01	-1.762106187559101e+01
1	 3.064038778992278e-01	 9.968288137972730e-01	-1.765253397961805e+01
1	 2.841705646278262e-01	 1.003393298067744e+00	-1.765924562261986e+01
1	 2.619259546719343e-01	 1.009428459415208e+00	-1.764258995237127e+01
1	 2.396875435998346e-01	 1.014938866065952e+00	-1.760407637139514e+01
1	 2.174724028141752e-01	 1.019929788967060e+00	-1.754531794312410e+01
1	 4.445498307087645e-01	 9.591279729134023e-01	-1.694270213042875e+01
1	 4.224725255998831e-01	 9.690552025150163e-01	-1.713442486515770e+01
1	 4.002704331240473e-01	 9.784347708329109e-01	-1.729661221339210e+01
1	 3.779630562222755e-01	 9.872664020107647e-01	-1.742976016681884e+01
1	 3.555697126576628e-01	 9.955507017971059e-01	-1.753452975144412e+01
1	 3.331094880714258e-01	 1.003289135476387e+00	-1.761173823226774e+01
1	 3.106011912951077e-01	 1.010484003027373e+00	-1.766234956374052e+01
1	 2.880633120884815e-01	 1.017138411739906e+00	-1.768746419690488e+01
1	 2.655139814482621e-01	 1.023256246530484e+00	-1.768830835569080e+01
1	 2.429709346080514e-01	 1.028842138203842e+00	-1.766622289491250e+01
1	 2.204514768253283e-01	 1.033901429911814e+00	-1.762265185118142e+01
1	 4.505572608534776e-01	 9.720891617365568e-01	-1.683628080764818e+01
1	 4.281816137836653e-01	 9.821505430895439e-01	-1.704672545835141e+01
1	 4.056794930311290e-01	 9.916568623306530e-01	-1.722770158196923e+01
1	 3.830706650901440e-01	 1.000607839875775e+00	-1.737957669151433e+01
1	 3.603747087746583e-01	 1.009004089659229e+00	-1.750287618123330e+01
1	 3.376109676399587e-01	 1.016847096766609e+00	-1.759827564136108e+01
1	 3.147985046909875e-01	 1.024139192257472e+00	-1.766659242823222e+01
1	 2.919560595491366e-01	 1.030883525412067e+00	-1.770877659029382e+01
1	 2.691020082245900e-01	 1.037084033645761e+00	-1.772590125260928e+01
1	 2.462543256162684e-01	 1.042745410341732e+00	-1.771915256308729e+01
1	 2.234305508364814e-01	 1.047873070856569e+00	-1.768981930300829e+01
1	 4.565646909981904e-01	 9.850503505597107e-01	-1.673219195519862e+01
1	 4.338907019674474e-01	 9.952458836640712e-01	-1.695964179729919e+01
1	 4.110885529382107e-01	 1.004878953828395e+00	-1.715773034990427e+01
1	 3.881782739580126e-01	 1.013949277740785e+00	-1.732670861658134e+01
1	 3.651797048916536e-01	 1.022457477521352e+00	-1.746697877893961e+01
1	 3.421124472084916e-01	 1.030405058056830e+00	-1.757908753170292e+01
1	 3.189958180868673e-01	 1.037794381487572e+00	-1.766371868261753e+01
1	 2.958488070097918e-01	 1.044628639084227e+00	-1.772168510818578e+01
1	 2.726900350009179e-01	 1.050911820761038e+00	-1.775392015868506e+01
1	 2.495377166244853e-01	 1.056648682479622e+00	-1.776146860710659e+01
1	 2.264096248476345e-01	 1.061844711801323e+00	-1.774547723659228e+01
1	 4.625721211429035e-01	 9.980115393828650e-01	-1.662879488842812e+01
1	 4.395997901512296e-01	 1.008341224238598e+00	-1.687155030386011e+01
1	 4.164976128452925e-01	 1.018101045326137e+00	-1.708509755668180e+01
1	 3.932858828258812e-01	 1.027290715605796e+00	-1.726958270862979e+01
1	 3.699847010086491e-01	 1.035910865383475e+00	-1.742529672675060e+01
1	 3.466139267770242e-01	 1.043963019347051e+00	-1.755266975140643e+01
1	 3.231931314827471e-01	 1.051449570717672e+00	-1.765226463852366e+01
1	 2.997415544704470e-01	 1.058373752756388e+00	-1.772476985829701e+01
1	 2.762780617772457e-01	 1.064739607876315e+00	-1.777099183542176e+01
1	 2.528211076327022e-01	 1.070551954617511e+00	-1.779184681757661e+01
1	 2.293886988587876e-01	 1.075816352746077e+00	-1.778835235937603e+01
1	 4.685795512876165e-01	 1.010972728206019e+00	-1.652453306035892e+01
1	 4.453088783350119e-01	 1.021436564813126e+00	-1.678091066031063e+01
1	 4.219066727523741e-01	 1.031323136823879e+00	-1.700828434232551e+01
1	 3.983934916937498e-01	 1.040632153470806e+00	-1.720670641290486e+01
1	 3.747896971256445e-01	 1.049364253245598e+00	-1.737636822315155e+01
1	 3.511154063455570e-01	 1.057520980637273e+00	-1.751759528457905e+01
1	 3.273904448786269e-01	 1.065104759947771e+00	-1.763084166851982e+01
1	 3.036343019311021e-01	 1.072118866428549e+00	-1.771668376333230e+01
1	 2.798660885535735e-01	 1.078567394991591e+00	-1.777581346680963e+01
1	 2.561044986409192e-01	 1.084455226755401e+00	-1.780903089327736e+01
1	 2.323677728699406e-01	 1.089787993690832e+00	-1.781723667585646e+01
1	 4.745869814323296e-01	 1.023933917029173e+00	-1.641792873651838e+01
1	 4.510179665187940e-01	 1.034531905387653e+00	-1.668626053969813e+01
1	 4.273157326594558e-01	 1.044545228321621e+00	-1.692584875116189e+01
1	 4.035011005616184e-01	 1.053973591335816e+00	-1.713666274704445e+01
1	 3.795946932426400e-01	 1.062817641107721e+00	-1.731880548189449e+01
1	 3.556168859140899e-01	 1.071078941927494e+00	-1.747250936929745e+01
1	 3.315877582745068e-01	 1.078759949177871e+00	-1.759813145542518e+01
1	 3.075270493917571e-01	 1.085863980100710e+00	-1.769614795244199e+01
1	 2.834541153299014e-01	 1.092395182106868e+00	-1.776714820220673e+01
1	 2.593878896491359e-01	 1.098358498893291e+00	-1.781182814317731e+01
1	 2.353468468810937e-01	 1.103759634635586e+00	-1.783098335485971e+01
1	 4.805944115770426e-01	 1.036895105852327e+00	-1.630757806915778e+01
1	 4.567270547025761e-01	 1.047627245962180e+00	-1.658621073141754e+01
1	 4.327247925665375e-01	 1.057767319819363e+00	-1.683642092530102e+01
1	 4.086087094294868e-01	 1.067315029200826e+00	-1.705810557780453e+01
1	 3.843996893596354e-01	 1.076271028969845e+00	-1.725129010604396e+01
1	 3.601183654826226e-01	 1.084636903217715e+00	-1.741612498173453e+01
1	 3.357850716703866e-01	 1.092415138407971e+00	-1.755288159791770e+01
1	 3.114197968524123e-01	 1.099609093772871e+00	-1.766194749831877e+01
1	 2.870421421062293e-01	 1.106222969222145e+00	-1.774382103350313e+01
1	 2.626712806573530e-01	 1.112261771031180e+00	-1.779910551079657e+01
1	 2.383259208922468e-01	 1.117731275580340e+00	-1.782850290677057e+01
1	 2.085351807807160e-01	 9.780148661327976e-01	-1.726689929770610e+01
1	 1.872712384039293e-01	 9.823082424914590e-01	-1.714440787276034e+01
1	 1.660610135851267e-01	 9.861154799348201e-01	-1.701219847162681e+01
1	 1.449194890231617e-01	 9.894434504817674e-01	-1.687013753655578e+01
1	 1.238611386139843e-01	 9.922995607885994e-01	-1.671814044679590e+01
1	 1.028999088485995e-01	 9.946917154369739e-01	-1.655617122422595e+01
1	 8.204920293574133e-02	 9.966282799005903e-01	-1.638424190007596e+01
1	 6.132186759777736e-02	 9.981180433968323e-01	-1.620241156580479e+01
1	 4.073018247306839e-02	 9.991701818187483e-01	-1.601078513298506e+01
1	 2.028585204427963e-02	 9.997942209309062e-01	-1.580951182841874e+01
1	 0.000000000000000e+00	 1.000000000000000e+00	-1.559878345165455e+01
1	 2.115142547918692e-01	 9.919865070775520e-01	-1.736590133369600e+01
1	 1.899465418096997e-01	 9.963412173841937e-01	-1.725972448736633e+01
1	 1.684333137792000e-01	 1.000202843933889e+00	-1.714154257879864e+01
1	 1.469897674377783e-01	 1.003578356917221e+00	-1.701132901558295e+01
1	 1.256305834513270e-01	 1.006475268799865e+00	-1.686911294739134e+01
1	 1.043699075464366e-01	 1.008901597086073e+00	-1.671497784977419e+01
1	 8.322133440625193e-02	 1.010865826756313e+00	-1.654905979797191e+01
1	 6.219789427774560e-02	 1.012376872588216e+00	-1.637154546090576e+01
1	 4.131204222268364e-02	 1.013444041559016e+00	-1.618266984644462e+01
1	 2.057564993062649e-02	 1.014076995515633e+00	-1.598271382955713e+01
1	 0.000000000000000e+00	 1.014285714285714e+00	-1.577200149505159e+01
1	 2.144933288030222e-01	 1.005958148022306e+00	-1.745923525540517e+01
1	 1.926218452154701e-01	 1.010374192276929e+00	-1.736843676671015e+01
1	 1.708056139732731e-01	 1.014290207932958e+00	-1.726356761156499e+01
1	 1.490600458523949e-01	 1.017713263352675e+00	-1.714467833843581e+01
1	 1.274000282886696e-01	 1.020650976811131e+00	-1.701188184245182e+01
1	 1.058399062442738e-01	 1.023111478735173e+00	-1.686535104092143e+01
1	 8.439346587676252e-02	 1.025103373612036e+00	-1.670531625555294e+01
1	 6.307392095771386e-02	 1.026635701779599e+00	-1.653206233770662e+01
1	 4.189390197229891e-02	 1.027717901299284e+00	-1.634592557329211e+01
1	 2.086544781697334e-02	 1.028359770100361e+00	-1.614729040376111e+01
1	 0.000000000000000e+00	 1.028571428571428e+00	-1.593658599906659e+01
1	 2.174724028141752e-01	 1.019929788967060e+00	-1.754531794312410e+01
1	 1.952971486212406e-01	 1.024407167169664e+00	-1.746902076626494e+01
1	 1.731779141673464e-01	 1.028377571932026e+00	-1.737679944352450e+01
1	 1.511303242670116e-01	 1.031848169788129e+00	-1.726875310856211e+01
1	 1.291694731260122e-01	 1.034826684822397e+00	-1.714504964128823e+01
1	 1.073099049421109e-01	 1.037321360384273e+00	-1.700592264364714e+01
1	 8.556559734727312e-02	 1.039340920467758e+00	-1.685166812684183e+01
1	 6.394994763768209e-02	 1.040894530970983e+00	-1.668264095158365e+01
1	 4.247576172191418e-02	 1.041991761039552e+00	-1.649925106277760e+01
1	 2.115524570332019e-02	 1.042642544685088e+00	-1.630195955939916e+01
1	 0.000000000000000e+00	 1.042857142857143e+00	-1.609127463925282e+01
1	 2.204514768253283e-01	 1.033901429911814e+00	-1.762265185118142e+01
1	 1.979724520270110e-01	 1.038440142062399e+00	-1.756003491688366e+01
1	 1.755502143614197e-01	 1.042464935931095e+00	-1.747984363078404e+01
1	 1.532006026816281e-01	 1.045983076223583e+00	-1.738219835624996e+01
1	 1.309389179633549e-01	 1.049002392833662e+00	-1.726729439324854e+01
1	 1.087799036399480e-01	 1.051531242033373e+00	-1.713539845820207e+01
1	 8.673772881778370e-02	 1.053578467323481e+00	-1.698684486834661e+01
1	 6.482597431765035e-02	 1.055153360162365e+00	-1.682203147654175e+01
1	 4.305762147152944e-02	 1.056265620779820e+00	-1.664141540202902e+01
1	 2.144504358966704e-02	 1.056925319269815e+00	-1.644550860168481e+01
1	 0.000000000000000e+00	 1.057142857142857e+00	-1.623487332491738e+01
1	 2.234305508364814e-01	 1.047873070856569e+00	-1.768981930300830e+01
1	 2.006477554327814e-01	 1.052473116955134e+00	-1.764011453310676e+01
1	 1.779225145554928e-01	 1.056552299930164e+00	-1.757138009979152e+01
1	 1.552708810962447e-01	 1.060117982659036e+00	-1.748373137683905e+01
1	 1.327083628006975e-01	 1.063178100844928e+00	-1.737736465171557e+01
1	 1.102499023377851e-01	 1.065741123682472e+00	-1.725255330882352e+01
1	 8.790986028829428e-02	 1.067816014179204e+00	-1.710964369889505e+01
1	 6.570200099761860e-02	 1.069412189353749e+00	-1.694905074397199e+01
1	 4.363948122114471e-02	 1.070539480520087e+00	-1.677125332686120e+01
1	 2.173484147601390e-02	 1.071208093854542e+00	-1.657678951288650e+01
1	 0.000000000000000e+00	 1.071428571428571e+00	-1.636625165020421e+01
1	 2.264096248476345e-01	 1.061844711801323e+00	-1.774547723659228e+01
1	 2.033230588385518e-01	 1.066506091847870e+00	-1.770796675502565e+01
1	 1.802948147495661e-01	 1.070639663929233e+00	-1.765015825455015e+01
1	 1.573411595108614e-01	 1.074252889094490e+00	-1.757213697644026e+01
1	 1.344778076380401e-01	 1.077353808856194e+00	-1.747407483568363e+01
1	 1.117199010356223e-01	 1.079951005331572e+00	-1.735622650268359e+01
1	 8.908199175880488e-02	 1.082053561034927e+00	-1.721892514158707e+01
1	 6.657802767758685e-02	 1.083671018545132e+00	-1.706257785729752e+01
1	 4.422134097075998e-02	 1.084813340260355e+00	-1.688766090278272e+01
1	 2.202463936236075e-02	 1.085490868439270e+00	-1.669471469725863e+01
1	 0.000000000000000e+00	 1.085714285714286e+00	-1.648433870430247e+01
1	 2.293886988587876e-01	 1.075816352746077e+00	-1.778835235937604e+01
1	 2.059983622443222e-01	 1.080539066740605e+00	-1.776236588428507e+01
1	 1.826671149436393e-01	 1.084727027928302e+00	-1.771499246508895e+01
1	 1.594114379254779e-01	 1.088387795529944e+00	-1.764626308812016e+01
1	 1.362472524753827e-01	 1.091529516867459e+00	-1.755630095277052e+01
1	 1.131898997334594e-01	 1.094160886980671e+00	-1.744531764268609e+01
1	 9.025412322931547e-02	 1.096291107890649e+00	-1.731360891312759e+01
1	 6.745405435755508e-02	 1.097929847736516e+00	-1.716155014833512e+01
1	 4.480320072037522e-02	 1.099087200000623e+00	-1.698959154254844e+01
1	 2.231443724870760e-02	 1.099773643023997e+00	-1.679825305753614e+01
1	 0.000000000000000e+00	 1.100000000000000e+00	-1.658811920813164e+01
1	 2.323677728699406e-01	 1.089787993690832e+00	-1.781723667585645e+01
1	 2.086736656500926e-01	 1.094572041633340e+00	-1.780214907885593e+01
1	 1.850394151377126e-01	 1.098814391927371e+00	-1.776475790297394e+01
1	 1.614817163400945e-01	 1.102522701965398e+00	-1.770501672530066e+01
1	 1.380166973127254e-01	 1.105705224878725e+00	-1.762297665122923e+01
1	 1.146598984312965e-01	 1.108370768629771e+00	-1.751878276235472e+01
1	 9.142625469982607e-02	 1.110528654746372e+00	-1.739267012936527e+01
1	 6.833008103752333e-02	 1.112188676927899e+00	-1.724495944470591e+01
1	 4.538506046999050e-02	 1.113361059740891e+00	-1.707605233005425e+01
1	 2.260423513505445e-02	 1.114056417608724e+00	-1.688642637323662e+01
1	 0.000000000000000e+00	 1.114285714285715e+00	-1.667662994820506e+01
1	 2.353468468810937e-01	 1.103759634635586e+00	-1.783098335485971e+01
1	 2.113489690558631e-01	 1.108605016526075e+00	-1.782621237478635e+01
1	 1.874117153317858e-01	 1.112901755926440e+00	-1.779838669310951e+01
1	 1.635519947547110e-01	 1.116657608400851e+00	-1.774736024249635e+01
1	 1.397861421500680e-01	 1.119880932889991e+00	-1.767308957180600e+01
1	 1.161298971291337e-01	 1.122580650278871e+00	-1.757563075427556e+01
1	 9.259838617033665e-02	 1.124766201602095e+00	-1.745513579901677e+01
1	 6.920610771749158e-02	 1.126447506119282e+00	-1.731184862073361e+01
1	 4.596692021960576e-02	 1.127634919481159e+00	-1.714610062342880e+01
1	 2.289403302140131e-02	 1.128339192193451e+00	-1.695830595402850e+01
1	 0.000000000000000e+00	 1.128571428571429e+00	-1.674895648133934e+01
1	 2.383259208922468e-01	 1.117731275580340e+00	-1.782850290677057e+01
1	 2.140242724616335e-01	 1.122637991418810e+00	-1.783350700632219e+01
1	 1.897840155258591e-01	 1.126989119925509e+00	-1.781486435415495e+01
1	 1.656222731693277e-01	 1.130792514836306e+00	-1.777230787649581e+01
1	 1.415555869874107e-01	 1.134056640901256e+00	-1.770567797321008e+01
1	 1.175998958269708e-01	 1.136790531927970e+00	-1.761492006640513e+01
1	 9.377051764084722e-02	 1.139003748457817e+00	-1.750008158036328e+01
1	 7.008213439745983e-02	 1.140706335310666e+00	-1.736130840702580e+01
1	 4.654877996922101e-02	 1.141908779221426e+00	-1.719884091289465e+01
1	 2.318383090774815e-02	 1.142621966778179e+00	-1.701300954409720e+01
1	 0.000000000000000e+00	 1.142857142857143e+00	-1.680423008651008e+01
1	 1.142857142857143e+00	 0.000000000000000e+00	 1.675672952669871e+01
1	 1.142621966778179e+00	 2.318383090774752e-02	 1.615481142487187e+01
1	 1.141908779221426e+00	 4.654877996922045e-02	 1.554123408975350e+01
1	 1.140706335310665e+00	 7.008213439745935e-02	 1.491613490935450e+01
1	 1.139003748457817e+00	 9.377051764084682e-02	 1.427981979589971e+01
1	 1.136790531927970e+00	 1.175998958269705e-01	 1.363277123153422e+01
1	 1.134056640901256e+00	 1.415555869874104e-01	 1.297565552248250e+01
1	 1.130792514836306e+00	 1.656222731693276e-01	 1.230932914231451e+01
1	 1.126989119925508e+00	 1.897840155258590e-01	 1.163484404557552e+01
1	 1.122637991418810e+00	 2.140242724616336e-01	 1.095345183521929e+01
1	 1.117731275580340e+00	 2.383259208922468e-01	 1.026660667115573e+01
1	 1.157142857142857e+00	 0.000000000000000e+00	 1.617555026284395e+01
1	 1.156904741362905e+00	 2.347362879409436e-02	 1.557837806948311e+01
1	 1.156182638961694e+00	 4.713063971883569e-02	 1.497109065531535e+01
1	 1.154965164502049e+00	 7.095816107742760e-02	 1.435388995422406e+01
1	 1.153241295313540e+00	 9.494264911135741e-02	 1.372713387535439e+01
1	 1.151000413577070e+00	 1.190698945248076e-01	 1.309134336617733e+01
1	 1.148232348912522e+00	 1.433250318247531e-01	 1.244720871808831e+01
1	 1.144927421271759e+00	 1.676925515839441e-01	 1.179559500552721e+01
1	 1.141076483924578e+00	 1.921563157199323e-01	 1.113754655051521e+01
1	 1.136670966311545e+00	 2.166995758674040e-01	 1.047429030688444e+01
1	 1.131702916525094e+00	 2.413049949033999e-01	 9.807238062422156e+00
1	 1.171428571428571e+00	 0.000000000000000e+00	 1.561926107818813e+01
1	 1.171187515947633e+00	 2.376342668044120e-02	 1.502712253964361e+01
1	 1.170456498701963e+00	 4.771249946845098e-02	 1.442630507280640e+01
1	 1.169223993693432e+00	 7.183418775739586e-02	 1.381707210029918e+01
1	 1.167478842169263e+00	 9.611478058186801e-02	 1.319983114064322e+01
1	 1.165210295226170e+00	 1.205398932226448e-01	 1.257513993558792e+01
1	 1.162408056923788e+00	 1.450944766620957e-01	 1.194371185207063e+01
1	 1.159062327707213e+00	 1.697628299985608e-01	 1.130642045962335e+01
1	 1.155163847923646e+00	 1.945286159140055e-01	 1.066430318524778e+01
1	 1.150703941204281e+00	 2.193748792731745e-01	 1.001856395035161e+01
1	 1.145674557469849e+00	 2.442840689145529e-01	 9.370574698358681e+00
1	 1.185714285714286e+00	 0.000000000000000e+00	 1.508597173263164e+01
1	 1.185470290532361e+00	 2.405322456678806e-02	 1.449913523798312e+01
1	 1.184730358442230e+00	 4.829435921806622e-02	 1.390495469596359e+01
1	 1.183482822884816e+00	 7.271021443736410e-02	 1.330375206863690e+01
1	 1.181716389024986e+00	 9.728691205237859e-02	 1.269598218482962e+01
1	 1.179420176875269e+00	 1.220098919204819e-01	 1.208223797735709e+01
1	 1.176583764935054e+00	 1.468639214994384e-01	 1.146325502503392e+01
1	 1.173197234142667e+00	 1.718331084131773e-01	 1.083991530962618e+01
1	 1.169251211922715e+00	 1.969009161080788e-01	 1.021325009939135e+01
1	 1.164736916097015e+00	 2.220501826789449e-01	 9.584441873608787e+00
1	 1.159646198414602e+00	 2.472631429257060e-01	 8.954825206598541e+00
1	 1.200000000000000e+00	 0.000000000000000e+00	 1.457388199750817e+01
1	 1.199753065117088e+00	 2.434302245313489e-02	 1.399259750033945e+01
1	 1.199004218182498e+00	 4.887621896768148e-02	 1.340520843310786e+01
1	 1.197741652076199e+00	 7.358624111733233e-02	 1.281209245072008e+01
1	 1.195953935880709e+00	 9.845904352288920e-02	 1.221374947749787e+01
1	 1.193630058524369e+00	 1.234798906183191e-01	 1.161080609871452e+01
1	 1.190759472946320e+00	 1.486333663367810e-01	 1.100401928517292e+01
1	 1.187332140578121e+00	 1.739033868277940e-01	 1.039427936984359e+01
1	 1.183338575921784e+00	 1.992732163021519e-01	 9.782612197344090e+00
1	 1.178769890989751e+00	 2.247254860847153e-01	 9.170180369977960e+00
1	 1.173617839359357e+00	 2.502422169368591e-01	 8.558283518221005e+00
1	 1.214285714285715e+00	 0.000000000000000e+00	 1.408127636079452e+01
1	 1.214035839701815e+00	 2.463282033948174e-02	 1.350577624674632e+01
1	 1.213278077922765e+00	 4.945807871729672e-02	 1.292532136158026e+01
1	 1.212000481267582e+00	 7.446226779730057e-02	 1.234034230431479e+01
1	 1.210191482736431e+00	 9.963117499339975e-02	 1.175138196025179e+01
1	 1.207839940173469e+00	 1.249498893161562e-01	 1.115909909007902e+01
1	 1.204935180957585e+00	 1.504028111741236e-01	 1.056427127841437e+01
1	 1.201467047013575e+00	 1.759736652424105e-01	 9.967797169204266e+00
1	 1.197425939920853e+00	 2.016455164962253e-01	 9.370697917414878e+00
1	 1.192802865882486e+00	 2.274007894904857e-01	 8.774117789565880e+00
1	 1.187589480304112e+00	 2.532212909480123e-01	 8.179323849901641e+00
1	 1.228571428571429e+00	 0.000000000000000e+00	 1.360651910172441e+01
1	 1.228318614286542e+00	 2.492261822582858e-02	 1.303701900560793e+01
1	 1.227551937663034e+00	 5.003993846691199e-02	 1.246362971791534e+01
1	 1.226259310458965e+00	 7.533829447726881e-02	 1.188683212636072e+01
1	 1.224429029592154e+00	 1.008033064639103e-01	 1.130721001927174e+01
1	 1.222049821822568e+00	 1.264198880139933e-01	 1.072545291440809e+01
1	 1.219110888968851e+00	 1.521722560114662e-01	 1.014235827180470e+01
1	 1.215601953449029e+00	 1.780439436570272e-01	 9.558833025989042e+00
1	 1.211513303919922e+00	 2.040178166902985e-01	 8.975894375200539e+00
1	 1.206835840775221e+00	 2.300760928962561e-01	 8.394669768520883e+00
1	 1.201561121248866e+00	 2.562003649591653e-01	 7.816396036145012e+00
1	 1.242857142857143e+00	 0.000000000000000e+00	 1.314804970508398e+01
1	 1.242601388871269e+00	 2.521241611217542e-02	 1.258474928103407e+01
1	 1.241825797403302e+00	 5.062179821652725e-02	 1.201854623351962e+01
1	 1.240518139650348e+00	 7.621432115723706e-02	 1.144996917255899e+01
1	 1.238666576447877e+00	 1.019754379344209e-01	 1.087964080459190e+01
1	 1.236259703471668e+00	 1.278898867118304e-01	 1.030828004210944e+01
1	 1.233286596980117e+00	 1.539417008488089e-01	 9.736703520112330e+00
1	 1.229736859884482e+00	 1.801142220716437e-01	 9.165826462235962e+00
1	 1.225600667918991e+00	 2.063901168843717e-01	 8.596662841902635e+00
1	 1.220868815667956e+00	 2.327513963020265e-01	 8.030324787306322e+00
1	 1.215532762193620e+00	 2.591794389703184e-01	 7.468021183432518e+00
1	 1.257142857142857e+00	 0.000000000000000e+00	 1.270437858816917e+01
1	 1.256884163455996e+00	 2.550221399852227e-02	 1.214746223603861e+01
1	 1.256099657143569e+00	 5.120365796614251e-02	 1.158855578837201e+01
1	 1.254776968841732e+00	 7.709034783720529e-02	 1.102823309607882e+01
1	 1.252904123303599e+00	 1.031475694049315e-01	 1.046715386851759e+01
1	 1.250469585120767e+00	 1.293598854096676e-01	 9.906065104026812e+00
1	 1.247462304991382e+00	 1.557111456861515e-01	 9.345801948343492e+00
1	 1.243871766319936e+00	 1.821845004862604e-01	 8.787287930799511e+00
1	 1.239688031918060e+00	 2.087624170784449e-01	 8.231534530940849e+00
1	 1.234901790560691e+00	 2.354266997077969e-01	 7.679640031819016e+00
1	 1.229504403138374e+00	 2.621585129814715e-01	 7.132787620678211e+00
1	 1.271428571428571e+00	 0.000000000000000e+00	 1.227408311581311e+01
1	 1.271166938040723e+00	 2.579201188486911e-02	 1.172372066675840e+01
1	 1.270373516883837e+00	 5.178551771575777e-02	 1.117221135773331e+01
1	 1.269035798033115e+00	 7.796637451717355e-02	 1.062017188028409e+01
1	 1.267141670159322e+00	 1.043197008754421e-01	 1.006829709808200e+01
1	 1.264679466769867e+00	 1.308298841075047e-01	 9.517360837482876e+00
1	 1.261638013002648e+00	 1.574805905234942e-01	 8.968216125324375e+00
1	 1.258006672755390e+00	 1.842547789008769e-01	 8.421794830473317e+00
1	 1.253775395917128e+00	 2.111347172725182e-01	 7.879106668614865e+00
1	 1.248934765453427e+00	 2.381020031135674e-01	 7.341237533533487e+00
1	 1.243476044083129e+00	 2.651375869926246e-01	 6.809347122687650e+00
1	 1.285714285714286e+00	 0.000000000000000e+00	 1.185580388107861e+01
1	 1.285449712625451e+00	 2.608180977121596e-02	 1.131215124505754e+01
1	 1.284647376624105e+00	 5.236737746537301e-02	 1.076813022907494e+01
1	 1.283294627224498e+00	 7.884240119714178e-02	 1.022439804261141e+01
1	 1.281379217015045e+00	 1.054918323459527e-01	 9.681682918672385e+00
1	 1.278889348418967e+00	 1.322998828053418e-01	 9.140784302585960e+00
1	 1.275813721013914e+00	 1.592500353608367e-01	 8.602572505711079e+00
1	 1.272141579190844e+00	 1.863250573154935e-01	 8.067987786771276e+00
1	 1.267862759916197e+00	 2.135070174665914e-01	 7.538038826722174e+00
1	 1.262967740346161e+00	 2.407773065193378e-01	 7.013800566969816e+00
1	 1.257447685027883e+00	 2.681166610037777e-01	 6.496411385386147e+00
1	 1.117731275580340e+00	 2.383259208922468e-01	 1.026660667115573e+01
1	 1.112261771031181e+00	 2.626712806573522e-01	 9.568930344378124e+00
1	 1.106222969222145e+00	 2.870421421062286e-01	 8.854905212458153e+00
1	 1.099609093772871e+00	 3.114197968524118e-01	 8.126037198761095e+00
1	 1.092415138407971e+00	 3.357850716703862e-01	 7.383975142058249e+00
1	 1.084636903217716e+00	 3.601183654826223e-01	 6.630508702332883e+00
1	 1.076271028969845e+00	 3.843996893596351e-01	 5.867565201708991e+00
1	 1.067315029200826e+00	 4.086087094294868e-01	 5.097205371696325e+00
1	 1.057767319819363e+00	 4.327247925665375e-01	 4.321617988007775e+00
1	 1.047627245962180e+00	 4.567270547025762e-01	 3.543113385110324e+00
1	 1.036895105852327e+00	 4.805944115770426e-01	 2.764115854306395e+00
1	 1.131702916525094e+00	 2.413049949033999e-01	 9.807238062422156e+00
1	 1.126165043169070e+00	 2.659546716655691e-01	 9.130720693846163e+00
1	 1.120050756337422e+00	 2.906301688825564e-01	 8.438943602673129e+00
1	 1.113354207445032e+00	 3.153125443130670e-01	 7.733366592271567e+00
1	 1.106070327638070e+00	 3.399823850662660e-01	 7.015577367735029e+00
1	 1.098194864507937e+00	 3.646198450511549e-01	 6.287289103340196e+00
1	 1.089724416831968e+00	 3.892046854766306e-01	 5.550337041940066e+00
1	 1.080656467065837e+00	 4.137163182973555e-01	 4.806674104698359e+00
1	 1.070989411317106e+00	 4.381338524736193e-01	 4.058365498887727e+00
1	 1.060722586536707e+00	 4.624361428863585e-01	 3.307582321506306e+00
1	 1.049856294675481e+00	 4.866018417217557e-01	 2.556594167101207e+00
1	 1.145674557469849e+00	 2.442840689145529e-01	 9.370574698358681e+00
1	 1.140068315306960e+00	 2.692380626737860e-01	 8.714390069500329e+00
1	 1.133878543452699e+00	 2.942181956588843e-01	 8.043951960171777e+00
1	 1.127099321117193e+00	 3.192052917737221e-01	 7.360676027693354e+00
1	 1.119725516868170e+00	 3.441796984621457e-01	 6.666091618017789e+00
1	 1.111752825798159e+00	 3.691213246196877e-01	 5.961839014653172e+00
1	 1.103177804694091e+00	 3.940096815936261e-01	 5.249665811467399e+00
1	 1.093997904930847e+00	 4.188239271652240e-01	 4.531422394613425e+00
1	 1.084211502814847e+00	 4.435429123807010e-01	 3.809056527423277e+00
1	 1.073817927111234e+00	 4.681452310701407e-01	 3.084607041317553e+00
1	 1.062817483498635e+00	 4.926092718664688e-01	 2.360196645460634e+00
1	 1.159646198414602e+00	 2.472631429257060e-01	 8.954825206598541e+00
1	 1.153971587444850e+00	 2.725214536820029e-01	 8.318192542799324e+00
1	 1.147706330567976e+00	 2.978062224352123e-01	 7.668235137063674e+00
1	 1.140844434789353e+00	 3.230980392343773e-01	 7.006326460308419e+00
1	 1.133380706098269e+00	 3.483770118580257e-01	 6.333940237233703e+00
1	 1.125310787088380e+00	 3.736228041882206e-01	 5.652647395906719e+00
1	 1.116631192556214e+00	 3.988146777106216e-01	 4.964112228419972e+00
1	 1.107339342795858e+00	 4.239315360330926e-01	 4.270087754327364e+00
1	 1.097433594312590e+00	 4.489519722877827e-01	 3.572410286496468e+00
1	 1.086913267685762e+00	 4.738543192539230e-01	 2.872993207424618e+00
1	 1.075778672321789e+00	 4.986167020111819e-01	 2.173819972845546e+00
1	 1.173617839359357e+00	 2.502422169368591e-01	 8.558283518221005e+00
1	 1.167874859582740e+00	 2.758048446902198e-01	 7.940465324656219e+00
1	 1.161534117683253e+00	 3.013942492115401e-01	 7.310178706786507e+00
1	 1.154589548461515e+00	 3.269907866950325e-01	 6.668756895147205e+00
1	 1.147035895328369e+00	 3.525743252539056e-01	 6.017620696170538e+00
1	 1.138868748378601e+00	 3.781242837567534e-01	 5.358275161038751e+00
1	 1.130084580418337e+00	 4.036196738276170e-01	 4.692305548158738e+00
1	 1.120680780660868e+00	 4.290391449009611e-01	 4.021372577064763e+00
1	 1.110655685810332e+00	 4.543610321948645e-01	 3.347206978852127e+00
1	 1.100008608260289e+00	 4.795634074377051e-01	 2.671603355904245e+00
1	 1.088739861144943e+00	 5.046241321558949e-01	 1.996413371599600e+00
1	 1.187589480304112e+00	 2.532212909480123e-01	 8.179323849901641e+00
1	 1.181778131720630e+00	 2.790882356984368e-01	 7.579623874882251e+00
1	 1.175361904798530e+00	 3.049822759878680e-01	 6.968244215792616e+00
1	 1.168334662133675e+00	 3.308835341556877e-01	 6.346479795826930e+00
1	 1.160691084558469e+00	 3.567716386497853e-01	 5.715701172873123e+00
1	 1.152426709668823e+00	 3.826257633252862e-01	 5.077350945684240e+00
1	 1.143537968280460e+00	 4.084246699446123e-01	 4.432939531674672e+00
1	 1.134022218525878e+00	 4.341467537688297e-01	 3.784040319898466e+00
1	 1.123877777308073e+00	 4.597700921019461e-01	 3.132284209458754e+00
1	 1.113103948834816e+00	 4.852724956214874e-01	 2.479353550547228e+00
1	 1.101701049968098e+00	 5.106315623006080e-01	 1.826975512426747e+00
1	 1.201561121248866e+00	 2.562003649591653e-01	 7.816396036145012e+00
1	 1.195681403858519e+00	 2.823716267066537e-01	 7.234157352832362e+00
1	 1.189189691913806e+00	 3.085703027641959e-01	 6.640964766513367e+00
1	 1.182079775805837e+00	 3.347762816163428e-01	 6.038076813703569e+00
1	 1.174346273788568e+00	 3.609689520456653e-01	 5.426816441756293e+00
1	 1.165984670959044e+00	 3.871272428938189e-01	 4.808567169867266e+00
1	 1.156991356142583e+00	 4.132296660616078e-01	 4.184768695261555e+00
1	 1.147363656390888e+00	 4.392543626366983e-01	 3.556911953525839e+00
1	 1.137099868805816e+00	 4.651791520090278e-01	 2.926533648170126e+00
1	 1.126199289409344e+00	 4.909815838052696e-01	 2.295210270781971e+00
1	 1.114662238791251e+00	 5.166389924453209e-01	 1.664551639486541e+00
1	 1.215532762193620e+00	 2.591794389703184e-01	 7.468021183432518e+00
1	 1.209584675996409e+00	 2.856550177148706e-01	 6.902624381799180e+00
1	 1.203017479029083e+00	 3.121583295405236e-01	 6.326940904946452e+00
1	 1.195824889477997e+00	 3.386690290769980e-01	 5.742194811564994e+00
1	 1.188001463018668e+00	 3.651662654415451e-01	 5.149664046227288e+00
1	 1.179542632249266e+00	 3.916287224623518e-01	 4.550676372231454e+00
1	 1.170444744004706e+00	 4.180346621786034e-01	 3.946604818831798e+00
1	 1.160705094255899e+00	 4.443619715045669e-01	 3.338862656888077e+00
1	 1.150321960303558e+00	 4.705882119161096e-01	 2.728897922547862e+00
1	 1.139294629983871e+00	 4.966906719890518e-01	 2.118187514224110e+00
1	 1.127623427614406e+00	 5.226464225900339e-01	 1.508230893758874e+00
1	 1.229504403138374e+00	 2.621585129814715e-01	 7.132787620678211e+00
1	 1.223487948134299e+00	 2.889384087230874e-01	 6.583649102198389e+00
1	 1.216845266144360e+00	 3.157463563168516e-01	 6.024836788635144e+00
1	 1.209570003150159e+00	 3.425617765376531e-01	 5.457542158436011e+00
1	 1.201656652248768e+00	 3.693635788374249e-01	 4.883000732265772e+00
1	 1.193100593539488e+00	 3.961302020308845e-01	 4.302487794209366e+00
1	 1.183898131866829e+00	 4.228396582955987e-01	 3.717313692301828e+00
1	 1.174046532120909e+00	 4.494695803724356e-01	 3.128818737156260e+00
1	 1.163544051801300e+00	 4.759972718231912e-01	 2.538367722537159e+00
1	 1.152389970558398e+00	 5.023997601728341e-01	 1.947344096779416e+00
1	 1.140584616437560e+00	 5.286538527347471e-01	 1.357143818906284e+00
1	 1.243476044083129e+00	 2.651375869926246e-01	 6.809347122687650e+00
1	 1.237391220272188e+00	 2.922217997313044e-01	 6.275917490831500e+00
1	 1.230673053259637e+00	 3.193343830931795e-01	 5.733376612985928e+00
1	 1.223315116822320e+00	 3.464545239983082e-01	 5.182885274171749e+00
1	 1.215311841478867e+00	 3.735608922333047e-01	 4.625639122436565e+00
1	 1.206658554829709e+00	 4.006316815994174e-01	 4.062864194472565e+00
1	 1.197351519728952e+00	 4.276446544125942e-01	 3.495812081322148e+00
1	 1.187387969985920e+00	 4.545771892403042e-01	 2.925754757359008e+00
1	 1.176766143299042e+00	 4.814063317302731e-01	 2.353979100332835e+00
1	 1.165485311132925e+00	 5.081088483566161e-01	 1.781781134762473e+00
1	 1.153545805260714e+00	 5.346612828794599e-01	 1.210460035280678e+00
1	 1.257447685027883e+00	 2.681166610037777e-01	 6.496411385386147e+00
1	 1.251294492410078e+00	 2.955051907395213e-01	 5.978173925531053e+00
1	 1.244500840374914e+00	 3.229224098695073e-01	 5.451341275831682e+00
1	 1.237060230494480e+00	 3.503472714589634e-01	 4.917045404411555e+00
1	 1.228967030708967e+00	 3.777582056291845e-01	 4.376444611634965e+00
1	 1.220216516119931e+00	 4.051331611679502e-01	 3.830718875751634e+00
1	 1.210804907591075e+00	 4.324496505295896e-01	 3.281064895292122e+00
1	 1.200729407850930e+00	 4.596847981081726e-01	 2.728690855501402e+00
1	 1.189988234796783e+00	 4.868153916373548e-01	 2.174810950254417e+00
1	 1.178580651707452e+00	 5.138179365403983e-01	 1.620639694873813e+00
1	 1.166506994083868e+00	 5.406687130241731e-01	 1.067386068996081e+00
1	 1.036895105852327e+00	 4.805944115770426e-01	 2.764115854306395e+00
1	 1.025572171423283e+00	 5.043056317172395e-01	 1.981077918200573e+00
1	 1.013660705488129e+00	 5.278393914145663e-01	 1.190356381133567e+00
1	 1.001163975251858e+00	 5.511743314392351e-01	 3.943347328076074e-01
1	 9.880862619864225e-01	 5.742891152140104e-01	-4.045808617395803e-01
1	 9.744328667122153e-01	 5.971624881475778e-01	-1.203970814269114e+00
1	 9.602101117561592e-01	 6.197733378105390e-01	-2.001411582482067e+00
1	 9.454253380851545e-01	 6.421007546220170e-01	-2.794485287867554e+00
1	 9.300868983440859e-01	 6.641240927027645e-01	-3.580789411006521e+00
1	 9.142041455595213e-01	 6.858230305416827e-01	-4.357946490950676e+00
1	 8.977874175033295e-01	 7.071776311170301e-01	-5.123613754030182e+00
1	 1.049856294675481e+00	 4.866018417217557e-01	 2.556594167101207e+00
1	 1.038391823566074e+00	 5.106094521137051e-01	 1.801488459309895e+00
1	 1.026331464306731e+00	 5.344373838072483e-01	 1.038301407393269e+00
1	 1.013678524942507e+00	 5.580640105822257e-01	 2.693148929492205e-01
1	 1.000437340261253e+00	 5.814677291541854e-01	-5.031692844892836e-01
1	 9.866132775461184e-01	 6.046270192494226e-01	-1.276838314767753e+00
1	 9.722127381531113e-01	 6.275205045331703e-01	-2.049377473894970e+00
1	 9.572431548112186e-01	 6.501270140547922e-01	-2.818479343986660e+00
1	 9.417129845733868e-01	 6.724256438615492e-01	-3.581853087446915e+00
1	 9.256316973790152e-01	 6.943958184234537e-01	-4.337233704653096e+00
1	 9.090097602221213e-01	 7.160173515059931e-01	-5.082391203446025e+00
1	 1.062817483498635e+00	 4.926092718664688e-01	 2.360196645460634e+00
1	 1.051211475708865e+00	 5.169132725101704e-01	 1.631583941971714e+00
1	 1.039002223125333e+00	 5.410353761999306e-01	 8.945176135787548e-01
1	 1.026193074633155e+00	 5.649536897252161e-01	 1.511816351553448e-01
1	 1.012788418536083e+00	 5.886463430943608e-01	-5.962227560404409e-01
1	 9.987936883800206e-01	 6.120915503512673e-01	-1.345485632432138e+00
1	 9.842153645500634e-01	 6.352676712558024e-01	-2.094397111059989e+00
1	 9.690609715372831e-01	 6.581532734875675e-01	-2.840756187023238e+00
1	 9.533390708026879e-01	 6.807271950203335e-01	-3.582379598786106e+00
1	 9.370592491985095e-01	 7.029686063052251e-01	-4.317110657200894e+00
1	 9.202321029409131e-01	 7.248570718949563e-01	-5.042827969425662e+00
1	 1.075778672321789e+00	 4.986167020111819e-01	 2.173819972845546e+00
1	 1.064031127851656e+00	 5.232170929066360e-01	 1.470354400861172e+00
1	 1.051672981943935e+00	 5.476333685926127e-01	 7.580885897243982e-01
1	 1.038707624323804e+00	 5.718433688682065e-01	 3.911227903605397e-02
1	 1.025139496810914e+00	 5.958249570345360e-01	-6.844700864019353e-01
1	 1.010974099213923e+00	 6.195560814531120e-01	-1.410547602894531e+00
1	 9.962179909470150e-01	 6.430148379784342e-01	-2.137011291339650e+00
1	 9.808787882633476e-01	 6.661795329203426e-01	-2.861762555442096e+00
1	 9.649651570319890e-01	 6.890287461791184e-01	-3.582721650239184e+00
1	 9.484868010180032e-01	 7.115413941869959e-01	-4.297836095320809e+00
1	 9.314544456597045e-01	 7.336967922839188e-01	-5.005088966726374e+00
1	 1.088739861144943e+00	 5.046241321558949e-01	 1.996413371599600e+00
1	 1.076850779994447e+00	 5.295209133031016e-01	 1.316837964240317e+00
1	 1.064343740762536e+00	 5.542313609852947e-01	 6.281415644343500e-01
1	 1.051222174014452e+00	 5.787330480111971e-01	-6.767668054194398e-02
1	 1.037490575085744e+00	 6.030035709747107e-01	-7.686053803440219e-01
1	 1.023154510047826e+00	 6.270206125549570e-01	-1.472628831518922e+00
1	 1.008220617343967e+00	 6.507620047010659e-01	-2.177735059841232e+00
1	 9.926966049894125e-01	 6.742057923531179e-01	-2.881923914447902e+00
1	 9.765912432612902e-01	 6.973302973379030e-01	-3.583215151534770e+00
1	 9.599143528374972e-01	 7.201141820687668e-01	-4.279656444466882e+00
1	 9.426767883784959e-01	 7.425365126728817e-01	-4.969331257021769e+00
1	 1.101701049968098e+00	 5.106315623006080e-01	 1.826975512426747e+00
1	 1.089670432137238e+00	 5.358247336995671e-01	 1.170118024923487e+00
1	 1.077014499581138e+00	 5.608293533779768e-01	 5.038448379078794e-01
1	 1.063736723705100e+00	 5.856227271541875e-01	-1.699318778820780e-01
1	 1.049841653360574e+00	 6.101821849148861e-01	-8.492900788831258e-01
1	 1.035334920881729e+00	 6.344851436568015e-01	-1.532305471652255e+00
1	 1.020223243740919e+00	 6.585091714236978e-01	-2.217059224255167e+00
1	 1.004514421715477e+00	 6.822320517858934e-01	-2.901645707353272e+00
1	 9.882173294905914e-01	 7.056318484966873e-01	-3.584180204884849e+00
1	 9.713419046569913e-01	 7.286869699505379e-01	-4.262806533601211e+00
1	 9.538991310972880e-01	 7.513762330618449e-01	-4.935704510847806e+00
1	 1.114662238791251e+00	 5.166389924453209e-01	 1.664551639486541e+00
1	 1.102490084280030e+00	 5.421285540960327e-01	 1.029320608617533e+00
1	 1.089685258399739e+00	 5.674273457706589e-01	 3.844053940558784e-01
1	 1.076251273395748e+00	 5.925124062971779e-01	-2.683652201109370e-01
1	 1.062192731635404e+00	 6.173607988550611e-01	-9.271548583371311e-01
1	 1.047515331715632e+00	 6.419496747586463e-01	-1.590126878811367e+00
1	 1.032225870137871e+00	 6.662563381463292e-01	-2.255451764007104e+00
1	 1.016332238441541e+00	 6.902583112186688e-01	-2.921314519642350e+00
1	 9.998434157198922e-01	 7.139333996554720e-01	-3.585922024026416e+00
1	 9.827694564764852e-01	 7.372597578323089e-01	-4.247510269408641e+00
1	 9.651214738160794e-01	 7.602159534508075e-01	-4.904351437320208e+00
1	 1.127623427614406e+00	 5.226464225900339e-01	 1.508230893758874e+00
1	 1.115309736422820e+00	 5.484323744924979e-01	 8.936119237552592e-01
1	 1.102356017218341e+00	 5.740253381633409e-01	 2.690666772991175e-01
1	 1.088765823086396e+00	 5.994020854401684e-01	-3.636558829929365e-01
1	 1.074543809910235e+00	 6.245394127952362e-01	-1.002801398411692e+00
1	 1.059695742549534e+00	 6.494142058604907e-01	-1.646617150788133e+00
1	 1.044228496534823e+00	 6.740035048689610e-01	-2.293359142227412e+00
1	 1.028150055167605e+00	 6.982845706514436e-01	-2.941299162754069e+00
1	 1.011469501949193e+00	 7.222349508142566e-01	-3.588731789881031e+00
1	 9.941970082959795e-01	 7.458325457140800e-01	-4.233981264013645e+00
1	 9.763438165348710e-01	 7.690556738397705e-01	-4.875408184216056e+00
1	 1.140584616437560e+00	 5.286538527347471e-01	 1.357143818906284e+00
1	 1.128129388565612e+00	 5.547361948889636e-01	 7.621960783862715e-01
1	 1.115026776036942e+00	 5.806233305560229e-01	 1.571065209483286e-01
1	 1.101280372777045e+00	 6.062917645831590e-01	-4.564521706668404e-01
1	 1.086894888185065e+00	 6.317180267354116e-01	-1.076804029734895e+00
1	 1.071876153383437e+00	 6.568787369623358e-01	-1.702276562747559e+00
1	 1.056231122931775e+00	 6.817506715915930e-01	-2.331207528267706e+00
1	 1.039967871893670e+00	 7.063108300842189e-01	-2.961951683970995e+00
1	 1.023095588178494e+00	 7.305365019730411e-01	-3.592887447873751e+00
1	 1.005624560115473e+00	 7.544053335958513e-01	-4.222423419898845e+00
1	 9.875661592536625e-01	 7.778953942287332e-01	-4.849004710777079e+00
1	 1.153545805260714e+00	 5.346612828794599e-01	 1.210460035280678e+00
1	 1.140949040708403e+00	 5.610400152854291e-01	 6.343129509848563e-01
1	 1.127697534855544e+00	 5.872213229487053e-01	 4.783521524406587e-02
1	 1.113794922467693e+00	 6.131814437261494e-01	-5.473732500067447e-01
1	 1.099245966459895e+00	 6.388966406755867e-01	-1.149711270322366e+00
1	 1.084056564217340e+00	 6.643432680641804e-01	-1.757582905577581e+00
1	 1.068233749328727e+00	 6.894978383142246e-01	-2.369403937800981e+00
1	 1.051785688619735e+00	 7.143370895169940e-01	-2.983608308225970e+00
1	 1.034721674407796e+00	 7.388380531318257e-01	-3.598654451500438e+00
1	 1.017052111934967e+00	 7.629781214776223e-01	-4.213031475390242e+00
1	 9.987885019724543e-01	 7.867351146176962e-01	-4.825265135380236e+00
1	 1.166506994083868e+00	 5.406687130241731e-01	 1.067386068996081e+00
1	 1.153768692851193e+00	 5.673438356818944e-01	 5.092362032042542e-01
1	 1.140368293674146e+00	 5.938193153413874e-01	-5.940629580598356e-02
1	 1.126309472158341e+00	 6.200711228691399e-01	-6.370107693590148e-01
1	 1.111597044734725e+00	 6.460752546157617e-01	-1.222047259611225e+00
1	 1.096236975051242e+00	 6.718077991660252e-01	-1.812992735015555e+00
1	 1.080236375725679e+00	 6.972450050368563e-01	-2.408337296914621e+00
1	 1.063603505345799e+00	 7.223633489497692e-01	-3.006590317121428e+00
1	 1.046347760637097e+00	 7.471396042906104e-01	-3.606286456323827e+00
1	 1.028479663754462e+00	 7.715509093593932e-01	-4.205991513777134e+00
1	 1.010010844691246e+00	 7.955748350066590e-01	-4.804308060030194e+00
1	 8.977874175033295e-01	 7.071776311170301e-01	-5.123613754030182e+00
1	 8.808480167443135e-01	 7.281684011114473e-01	-5.877850240222056e+00
1	 8.633981864501654e-01	 7.487763488613658e-01	-6.620808445438579e+00
1	 8.454510820362036e-01	 7.689830406864669e-01	-7.350400456078235e+00
1	 8.270207387910065e-01	 7.887706552535849e-01	-8.064654946928560e+00
1	 8.081220356417685e-01	 8.081220356417687e-01	-8.761723936261726e+00
1	 7.887706552535849e-01	 8.270207387910065e-01	-9.439888623645730e+00
1	 7.689830406864671e-01	 8.454510820362033e-01	-1.009756426984725e+01
1	 7.487763488613659e-01	 8.633981864501649e-01	-1.073330408893302e+01
1	 7.281684011114475e-01	 8.808480167443136e-01	-1.134580213373364e+01
1	 7.071776311170301e-01	 8.977874175033295e-01	-1.193389516702752e+01
1	 9.090097602221213e-01	 7.160173515059931e-01	-5.082391203446025e+00
1	 8.918586169536173e-01	 7.372705061253405e-01	-5.817631024750711e+00
1	 8.741906637807925e-01	 7.581360532221332e-01	-6.543304371580243e+00
1	 8.560192205616559e-01	 7.785953286950478e-01	-7.257354979311662e+00
1	 8.373584980258939e-01	 7.986302884442549e-01	-7.957830479443192e+00
1	 8.182235610872908e-01	 8.182235610872908e-01	-8.642889283334595e+00
1	 7.986302884442550e-01	 8.373584980258939e-01	-9.310806642385854e+00
1	 7.785953286950478e-01	 8.560192205616561e-01	-9.959979841549735e+00
1	 7.581360532221332e-01	 8.741906637807922e-01	-1.058893249277680e+01
1	 7.372705061253408e-01	 8.918586169536172e-01	-1.119631790506903e+01
1	 7.160173515059931e-01	 9.090097602221212e-01	-1.178092151810279e+01
1	 9.202321029409131e-01	 7.248570718949563e-01	-5.042827969425662e+00
1	 9.028692171629216e-01	 7.463726111392335e-01	-5.760048439497906e+00
1	 8.849831411114194e-01	 7.674957575828999e-01	-6.469290230288083e+00
1	 8.665873590871088e-01	 7.882076167036289e-01	-7.168529851126868e+00
1	 8.476962572607818e-01	 8.084899216349247e-01	-7.855835718673479e+00
1	 8.283250865328130e-01	 8.283250865328130e-01	-8.529375150725659e+00
1	 8.084899216349248e-01	 8.476962572607817e-01	-9.187420625271145e+00
1	 7.882076167036288e-01	 8.665873590871086e-01	-9.828355259419142e+00
1	 7.674957575829000e-01	 8.849831411114192e-01	-1.045067747157572e+01
1	 7.463726111392337e-01	 9.028692171629212e-01	-1.105300479937742e+01
1	 7.248570718949562e-01	 9.202321029409131e-01	-1.163407685531194e+01
1	 9.314544456597045e-01	 7.336967922839188e-01	-5.005088966726374e+00
1	 9.138798173722255e-01	 7.554747161531268e-01	-5.705176013240208e+00
1	 8.957756184420463e-01	 7.768554619436669e-01	-6.398752821315940e+00
1	 8.771554976125614e-01	 7.978199047122099e-01	-7.083829676232769e+00
1	 8.580340164956691e-01	 8.183495548255945e-01	-7.758497467213291e+00
1	 8.384266119783350e-01	 8.384266119783350e-01	-8.420934773313167e+00
1	 8.183495548255947e-01	 8.580340164956692e-01	-9.069414298547885e+00
1	 7.978199047122096e-01	 8.771554976125611e-01	-9.702308608855393e+00
1	 7.768554619436674e-01	 8.957756184420463e-01	-1.031809513129502e+01
1	 7.554747161531271e-01	 9.138798173722255e-01	-1.091536038414740e+01
1	 7.336967922839188e-01	 9.314544456597044e-01	-1.149280341517542e+01
1	 9.426767883784959e-01	 7.425365126728817e-01	-4.969331257021769e+00
1	 9.248904175815291e-01	 7.645768211670195e-01	-5.653083773383802e+00
1	 9.065680957726734e-01	 7.862151663044341e-01	-6.331679573000817e+00
1	 8.877236361380140e-01	 8.074321927207906e-01	-7.003163601971017e+00
1	 8.683717757305567e-01	 8.282091880162644e-01	-7.665650775151913e+00
1	 8.485281374238571e-01	 8.485281374238571e-01	-8.317333136695591e+00
1	 8.282091880162644e-01	 8.683717757305566e-01	-8.956486449117174e+00
1	 8.074321927207909e-01	 8.877236361380137e-01	-9.581476161668000e+00
1	 7.862151663044342e-01	 9.065680957726733e-01	-1.019076271571106e+01
1	 7.645768211670200e-01	 9.248904175815288e-01	-1.078290615222552e+01
1	 7.425365126728817e-01	 9.426767883784960e-01	-1.135656999437951e+01
1	 9.538991310972880e-01	 7.513762330618449e-01	-4.935704510847806e+00
1	 9.359010177908331e-01	 7.736789261809131e-01	-5.603838451927624e+00
1	 9.173605731033008e-01	 7.955748706652011e-01	-6.268058505287370e+00
1	 8.982917746634662e-01	 8.170444807293712e-01	-6.926445051102691e+00
1	 8.787095349654441e-01	 8.380688212069339e-01	-7.577138454927508e+00
1	 8.586296628693793e-01	 8.586296628693794e-01	-8.218346285972473e+00
1	 8.380688212069344e-01	 8.787095349654442e-01	-8.848350038614219e+00
1	 8.170444807293715e-01	 8.982917746634661e-01	-9.465511306287135e+00
1	 7.955748706652015e-01	 9.173605731033002e-01	-1.006827736301079e+01
1	 7.736789261809132e-01	 9.359010177908329e-01	-1.065518611444174e+01
1	 7.513762330618444e-01	 9.538991310972876e-01	-1.122487038741322e+01
1	 9.651214738160794e-01	 7.602159534508075e-01	-4.904351437320208e+00
1	 9.469116180001373e-01	 7.827810311948058e-01	-5.557503677056625e+00
1	 9.281530504339274e-01	 8.049345750259682e-01	-6.207878195332131e+00
1	 9.088599131889189e-01	 8.266567687379524e-01	-6.853591473237067e+00
1	 8.890472942003317e-01	 8.479284543976039e-01	-7.492810630027568e+00
1	 8.687311883149013e-01	 8.687311883149013e-01	-8.123760682750580e+00
1	 8.479284543976038e-01	 8.890472942003317e-01	-8.744731379295880e+00
1	 8.266567687379524e-01	 9.088599131889189e-01	-9.354083552611394e+00
1	 8.049345750259683e-01	 9.281530504339273e-01	-9.950254949139785e+00
1	 7.827810311948061e-01	 9.469116180001369e-01	-1.053176549042483e+01
1	 7.602159534508076e-01	 9.651214738160793e-01	-1.109722193320818e+01
1	 9.763438165348710e-01	 7.690556738397705e-01	-4.875408184216056e+00
1	 9.579222182094410e-01	 7.918831362086990e-01	-5.514140151521999e+00
1	 9.389455277645548e-01	 8.142942793867355e-01	-6.151127745479892e+00
1	 9.194280517143711e-01	 8.362690567465330e-01	-6.784524113403730e+00
1	 8.993850534352196e-01	 8.577880875882739e-01	-7.412524314813689e+00
1	 8.788327137604230e-01	 8.788327137604234e-01	-8.033372606493636e+00
1	 8.577880875882740e-01	 8.993850534352197e-01	-8.645369366763491e+00
1	 8.362690567465331e-01	 9.194280517143714e-01	-9.246877605486540e+00
1	 8.142942793867357e-01	 9.389455277645549e-01	-9.836329010919904e+00
1	 7.918831362086992e-01	 9.579222182094407e-01	-1.041222948970561e+01
1	 7.690556738397704e-01	 9.763438165348709e-01	-1.097316416200934e+01
1	 9.875661592536625e-01	 7.778953942287332e-01	-4.849004710777079e+00
1	 9.689328184187450e-01	 8.009852412225922e-01	-5.473805818858898e+00
1	 9.497380050951819e-01	 8.236539837475026e-01	-6.097796753423346e+00
1	 9.299961902398240e-01	 8.458813447551138e-01	-6.719167796403558e+00
1	 9.097228126701072e-01	 8.676477207789437e-01	-7.336143022994709e+00
1	 8.889342392059456e-01	 8.889342392059458e-01	-7.946987596689920e+00
1	 8.676477207789437e-01	 9.097228126701070e-01	-8.550014765000158e+00
1	 8.458813447551139e-01	 9.299961902398237e-01	-9.143592501356222e+00
1	 8.236539837475026e-01	 9.497380050951817e-01	-9.726149742590048e+00
1	 8.009852412225925e-01	 9.689328184187448e-01	-1.029618217592712e+01
1	 7.778953942287333e-01	 9.875661592536625e-01	-1.085225753450522e+01
1	 9.987885019724543e-01	 7.867351146176962e-01	-4.825265135380236e+00
1	 9.799434186280490e-01	 8.100873462364852e-01	-5.436556018398838e+00
1	 9.605304824258090e-01	 8.330136881082696e-01	-6.047875284374654e+00
1	 9.405643287652766e-01	 8.554936327636948e-01	-6.657450725698154e+00
1	 9.200605719049948e-01	 8.775073539696137e-01	-7.263536402494797e+00
1	 8.990357646514675e-01	 8.990357646514676e-01	-7.864419932625754e+00
1	 8.775073539696135e-01	 9.200605719049947e-01	-8.458429539607785e+00
1	 8.554936327636949e-01	 9.405643287652764e-01	-9.043940803116119e+00
1	 8.330136881082698e-01	 9.605304824258089e-01	-9.619383059996283e+00
1	 8.100873462364852e-01	 9.799434186280486e-01	-1.018324540762485e+01
1	 7.867351146176962e-01	 9.987885019724542e-01	-1.073408226595998e+01
1	 1.010010844691246e+00	 7.955748350066590e-01	-4.804308060030194e+00
1	 9.909540188373530e-01	 8.191894512503783e-01	-5.402443629947294e+00
1	 9.713229597564360e-01	 8.423733924690369e-01	-6.001353845092092e+00
1	 9.511324672907289e-01	 8.651059207722755e-01	-6.599304295706443e+00
1	 9.303983311398824e-01	 8.873669871602835e-01	-7.194579894663747e+00
1	 9.091372900969897e-01	 9.091372900969898e-01	-7.785492147841648e+00
1	 8.873669871602835e-01	 9.303983311398824e-01	-8.370386235494726e+00
1	 8.651059207722754e-01	 9.511324672907289e-01	-8.947647848644293e+00
1	 8.423733924690366e-01	 9.713229597564357e-01	-9.515709727169481e+00
1	 8.191894512503786e-01	 9.909540188373525e-01	-1.007305784962166e+01
1	 7.955748350066588e-01	 1.010010844691246e+00	-1.061823722873724e+01
1	 7.071776311170301e-01	 8.977874175033295e-01	-1.193389516702752e+01
1	 6.858230305416826e-01	 9.142041455595212e-01	-1.249673748374625e+01
1	 6.641240927027647e-01	 9.300868983440858e-01	-1.303347049196729e+01
1	 6.421007546220172e-01	 9.454253380851544e-01	-1.354314288654058e+01
1	 6.197733378105391e-01	 9.602101117561590e-01	-1.402496854787242e+01
1	 5.971624881475781e-01	 9.744328667122151e-01	-1.447832604698558e+01
1	 5.742891152140108e-01	 9.880862619864224e-01	-1.490275703345310e+01
1	 5.511743314392359e-01	 1.001163975251858e+00	-1.529796354899292e+01
1	 5.278393914145669e-01	 1.013660705488129e+00	-1.566380431985852e+01
1	 5.043056317172403e-01	 1.025572171423283e+00	-1.600029009049608e+01
1	 4.805944115770426e-01	 1.036895105852327e+00	-1.630757806915778e+01
1	 7.160173515059931e-01	 9.090097602221212e-01	-1.178092151810279e+01
1	 6.943958184234538e-01	 9.256316973790153e-01	-1.234188037824665e+01
1	 6.724256438615493e-01	 9.417129845733867e-01	-1.287831736768854e+01
1	 6.501270140547926e-01	 9.572431548112185e-01	-1.338920843233579e+01
1	 6.275205045331708e-01	 9.722127381531109e-01	-1.387367949865080e+01
1	 6.046270192494229e-01	 9.866132775461179e-01	-1.433100697001062e+01
1	 5.814677291541860e-01	 1.000437340261253e+00	-1.476061719493001e+01
1	 5.580640105822263e-01	 1.013678524942507e+00	-1.516208493791035e+01
1	 5.344373838072489e-01	 1.026331464306731e+00	-1.553513089345976e+01
1	 5.106094521137058e-01	 1.038391823566074e+00	-1.587961829278890e+01
1	 4.866018417217555e-01	 1.049856294675481e+00	-1.619554866070937e+01
1	 7.248570718949562e-01	 9.202321029409131e-01	-1.163407685531194e+01
1	 7.029686063052248e-01	 9.370592491985094e-01	-1.219300032762268e+01
1	 6.807271950203336e-01	 9.533390708026878e-01	-1.272886940199595e+01
1	 6.581532734875676e-01	 9.690609715372829e-01	-1.324059849418527e+01
1	 6.352676712558026e-01	 9.842153645500631e-01	-1.372723797992756e+01
1	 6.120915503512675e-01	 9.987936883800205e-01	-1.418797557733624e+01
1	 5.886463430943613e-01	 1.012788418536083e+00	-1.462213678377679e+01
1	 5.649536897252169e-01	 1.026193074633155e+00	-1.502918438712190e+01
1	 5.410353761999313e-01	 1.039002223125333e+00	-1.540871708052921e+01
1	 5.169132725101713e-01	 1.051211475708865e+00	-1.576046721848064e+01
1	 4.926092718664686e-01	 1.062817483498635e+00	-1.608429775965186e+01
1	 7.336967922839188e-01	 9.314544456597044e-01	-1.149280341517542e+01
1	 7.115413941869959e-01	 9.484868010180033e-01	-1.204949000657681e+01
1	 6.890287461791182e-01	 9.649651570319890e-01	-1.258447793794950e+01
1	 6.661795329203429e-01	 9.808787882633474e-01	-1.309663089571598e+01
1	 6.430148379784343e-01	 9.962179909470147e-01	-1.358493565927622e+01
1	 6.195560814531126e-01	 1.010974099213923e+00	-1.404850426660192e+01
1	 5.958249570345363e-01	 1.025139496810913e+00	-1.448657531070499e+01
1	 5.718433688682071e-01	 1.038707624323803e+00	-1.489851437713942e+01
1	 5.476333685926134e-01	 1.051672981943934e+00	-1.528381364144636e+01
1	 5.232170929066368e-01	 1.064031127851656e+00	-1.564209065369266e+01
1	 4.986167020111817e-01	 1.075778672321789e+00	-1.597308634488765e+01
1	 7.425365126728817e-01	 9.426767883784960e-01	-1.135656999437951e+01
1	 7.201141820687668e-01	 9.599143528374969e-01	-1.191077101006374e+01
1	 6.973302973379030e-01	 9.765912432612899e-01	-1.244452520703479e+01
1	 6.742057923531185e-01	 9.926966049894121e-01	-1.295665594514431e+01
1	 6.507620047010662e-01	 1.008220617343967e+00	-1.344609793438552e+01
1	 6.270206125549576e-01	 1.023154510047826e+00	-1.391190008317871e+01
1	 6.030035709747114e-01	 1.037490575085743e+00	-1.435322754782095e+01
1	 5.787330480111974e-01	 1.051222174014451e+00	-1.476936298464073e+01
1	 5.542313609852955e-01	 1.064343740762536e+00	-1.515970701466793e+01
1	 5.295209133031024e-01	 1.076850779994447e+00	-1.552377791854055e+01
1	 5.046241321558946e-01	 1.088739861144943e+00	-1.586121058679999e+01
1	 7.513762330618444e-01	 9.538991310972876e-01	-1.122487038741323e+01
1	 7.286869699505378e-01	 9.713419046569913e-01	-1.177629215209917e+01
1	 7.056318484966875e-01	 9.882173294905910e-01	-1.230842251219698e+01
1	 6.822320517858933e-01	 1.004514421715476e+00	-1.282005452441736e+01
1	 6.585091714236979e-01	 1.020223243740919e+00	-1.331008194893561e+01
1	 6.344851436568016e-01	 1.035334920881729e+00	-1.377750268206701e+01
1	 6.101821849148866e-01	 1.049841653360574e+00	-1.422142145442595e+01
1	 5.856227271541884e-01	 1.063736723705099e+00	-1.464105178857772e+01
1	 5.608293533779776e-01	 1.077014499581137e+00	-1.503571721801747e+01
1	 5.358247336995680e-01	 1.089670432137238e+00	-1.540485177689911e+01
1	 5.106315623006079e-01	 1.101701049968098e+00	-1.574799977716591e+01
1	 7.602159534508076e-01	 9.651214738160793e-01	-1.109722193320818e+01
1	 7.372597578323089e-01	 9.827694564764853e-01	-1.164552788325620e+01
1	 7.139333996554723e-01	 9.998434157198924e-01	-1.217560853763959e+01
1	 6.902583112186687e-01	 1.016332238441541e+00	-1.268623631167094e+01
1	 6.662563381463297e-01	 1.032225870137871e+00	-1.317627474690054e+01
1	 6.419496747586466e-01	 1.047515331715632e+00	-1.364468243198842e+01
1	 6.173607988550613e-01	 1.062192731635404e+00	-1.409051624752837e+01
1	 5.925124062971786e-01	 1.076251273395748e+00	-1.451293392236960e+01
1	 5.674273457706597e-01	 1.089685258399739e+00	-1.491119589639629e+01
1	 5.421285540960333e-01	 1.102490084280029e+00	-1.528466649199795e+01
1	 5.166389924453209e-01	 1.114662238791251e+00	-1.563281440349372e+01
1	 7.690556738397704e-01	 9.763438165348709e-01	-1.097316416200934e+01
1	 7.458325457140800e-01	 9.941970082959795e-01	-1.151797681729999e+01
1	 7.222349508142566e-01	 1.011469501949193e+00	-1.204554777518890e+01
1	 6.982845706514438e-01	 1.028150055167605e+00	-1.255463812627584e+01
1	 6.740035048689613e-01	 1.044228496534823e+00	-1.304409155414039e+01
1	 6.494142058604913e-01	 1.059695742549534e+00	-1.351283865022888e+01
1	 6.245394127952368e-01	 1.074543809910234e+00	-1.395990060542325e+01
1	 5.994020854401689e-01	 1.088765823086396e+00	-1.438439226042789e+01
1	 5.740253381633417e-01	 1.102356017218341e+00	-1.478552450413572e+01
1	 5.484323744924988e-01	 1.115309736422820e+00	-1.516260601611340e+01
1	 5.226464225900338e-01	 1.127623427614406e+00	-1.551504435616483e+01
1	 7.778953942287333e-01	 9.875661592536625e-01	-1.085225753450522e+01
1	 7.544053335958513e-01	 1.005624560115473e+00	-1.139316035827910e+01
1	 7.305365019730412e-01	 1.023095588178494e+00	-1.191772905795194e+01
1	 7.063108300842189e-01	 1.039967871893670e+00	-1.242472238672254e+01
1	 6.817506715915930e-01	 1.056231122931775e+00	-1.291297417715825e+01
1	 6.568787369623360e-01	 1.071876153383437e+00	-1.338139795783408e+01
1	 6.317180267354119e-01	 1.086894888185064e+00	-1.382899099375608e+01
1	 6.062917645831596e-01	 1.101280372777044e+00	-1.425483772832701e+01
1	 5.806233305560238e-01	 1.115026776036942e+00	-1.465811261127922e+01
1	 5.547361948889644e-01	 1.128129388565611e+00	-1.503808230369126e+01
1	 5.286538527347469e-01	 1.140584616437560e+00	-1.539410725781611e+01
1	 7.867351146176962e-01	 9.987885019724542e-01	-1.073408226595998e+01
1	 7.629781214776221e-01	 1.017052111934967e+00	-1.127062142017236e+01
1	 7.388380531318257e-01	 1.034721674407795e+00	-1.179166419282859e+01
1	 7.143370895169943e-01	 1.051785688619734e+00	-1.229597567246810e+01
1	 6.894978383142247e-01	 1.068233749328727e+00	-1.278238950980518e+01
1	 6.643432680641808e-01	 1.084056564217339e+00	-1.324981274569044e+01
1	 6.388966406755870e-01	 1.099245966459895e+00	-1.369723010443543e+01
1	 6.131814437261499e-01	 1.113794922467692e+00	-1.412370772689658e+01
1	 5.872213229487060e-01	 1.127697534855544e+00	-1.452839632404802e+01
1	 5.610400152854299e-01	 1.140949040708402e+00	-1.491053373819089e+01
1	 5.346612828794600e-01	 1.153545805260714e+00	-1.526944690534797e+01
1	 7.955748350066588e-01	 1.010010844691246e+00	-1.061823722873724e+01
1	 7.715509093593930e-01	 1.028479663754462e+00	-1.114992323189311e+01
1	 7.471396042906104e-01	 1.046347760637097e+00	-1.166688668418984e+01
1	 7.223633489497694e-01	 1.063603505345799e+00	-1.216790738166038e+01
1	 6.972450050368567e-01	 1.080236375725679e+00	-1.265182813953900e+01
1	 6.718077991660253e-01	 1.096236975051242e+00	-1.311755974286719e+01
1	 6.460752546157621e-01	 1.111597044734725e+00	-1.356408539861840e+01
1	 6.200711228691402e-01	 1.126309472158340e+00	-1.399046466137396e+01
1	 5.938193153413878e-01	 1.140368293674145e+00	-1.439583681060924e+01
1	 5.673438356818953e-01	 1.153768692851193e+00	-1.477942366380670e+01
1	 5.406687130241730e-01	 1.166506994083868e+00	-1.514053181579850e+01
1	 4.805944115770426e-01	 1.036895105852327e+00	-1.630757806915778e+01
1	 4.567270547025761e-01	 1.047627245962180e+00	-1.658621073141754e+01
1	 4.327247925665375e-01	 1.057767319819363e+00	-1.683642092530102e+01
1	 4.086087094294868e-01	 1.067315029200826e+00	-1.705810557780453e+01
1	 3.843996893596354e-01	 1.076271028969845e+00	-1.725129010604396e+01
1	 3.601183654826226e-01	 1.084636903217715e+00	-1.741612498173453e+01
1	 3.357850716703866e-01	 1.092415138407971e+00	-1.755288159791770e+01
1	 3.114197968524123e-01	 1.099609093772871e+00	-1.766194749831877e+01
1	 2.870421421062293e-01	 1.106222969222145e+00	-1.774382103350313e+01
1	 2.626712806573530e-01	 1.112261771031180e+00	-1.779910551079657e+01
1	 2.383259208922468e-01	 1.117731275580340e+00	-1.782850290677057e+01
1	 4.866018417217555e-01	 1.049856294675481e+00	-1.619554866070937e+01
1	 4.624361428863585e-01	 1.060722586536707e+00	-1.648329288601462e+01
1	 4.381338524736192e-01	 1.070989411317105e+00	-1.674297869273182e+01
1	 4.137163182973556e-01	 1.080656467065837e+00	-1.697443760732206e+01
1	 3.892046854766309e-01	 1.089724416831968e+00	-1.717762470051223e+01
1	 3.646198450511555e-01	 1.098194864507938e+00	-1.735261578857876e+01
1	 3.399823850662663e-01	 1.106070327638070e+00	-1.749960394669851e+01
1	 3.153125443130676e-01	 1.113354207445032e+00	-1.761889538859977e+01
1	 2.906301688825571e-01	 1.120050756337422e+00	-1.771090477077117e+01
1	 2.659546716655698e-01	 1.126165043169070e+00	-1.777614998259490e+01
1	 2.413049949034000e-01	 1.131702916525094e+00	-1.781524648596491e+01
1	 4.926092718664686e-01	 1.062817483498635e+00	-1.608429775965186e+01
1	 4.681452310701406e-01	 1.073817927111234e+00	-1.638042541264347e+01
1	 4.435429123807010e-01	 1.084211502814847e+00	-1.664888113364391e+01
1	 4.188239271652241e-01	 1.093997904930847e+00	-1.688943482124639e+01
1	 3.940096815936264e-01	 1.103177804694091e+00	-1.710197488840270e+01
1	 3.691213246196882e-01	 1.111752825798159e+00	-1.728650608638915e+01
1	 3.441796984621464e-01	 1.119725516868170e+00	-1.744314665165634e+01
1	 3.192052917737226e-01	 1.127099321117193e+00	-1.757212482370714e+01
1	 2.942181956588850e-01	 1.133878543452699e+00	-1.767377478640612e+01
1	 2.692380626737867e-01	 1.140068315306960e+00	-1.774853208852290e+01
1	 2.442840689145530e-01	 1.145674557469848e+00	-1.779692860185657e+01
1	 4.986167020111817e-01	 1.075778672321789e+00	-1.597308634488765e+01
1	 4.738543192539229e-01	 1.086913267685762e+00	-1.627687869463416e+01
1	 4.489519722877828e-01	 1.097433594312590e+00	-1.655340862401945e+01
1	 4.239315360330927e-01	 1.107339342795858e+00	-1.680238808417614e+01
1	 3.988146777106218e-01	 1.116631192556214e+00	-1.702364242415954e+01
1	 3.736228041882210e-01	 1.125310787088380e+00	-1.721710882395854e+01
1	 3.483770118580260e-01	 1.133380706098269e+00	-1.738283406219731e+01
1	 3.230980392343779e-01	 1.140844434789353e+00	-1.752097166064778e+01
1	 2.978062224352129e-01	 1.147706330567976e+00	-1.763177845214665e+01
1	 2.725214536820036e-01	 1.153971587444850e+00	-1.771561062219367e+01
1	 2.472631429257061e-01	 1.159646198414602e+00	-1.777291927738786e+01
1	 5.046241321558946e-01	 1.088739861144943e+00	-1.586121058679999e+01
1	 4.795634074377050e-01	 1.100008608260289e+00	-1.617195785896774e+01
1	 4.543610321948645e-01	 1.110655685810332e+00	-1.645587580765121e+01
1	 4.290391449009613e-01	 1.120680780660868e+00	-1.671262202906248e+01
1	 4.036196738276170e-01	 1.130084580418337e+00	-1.694196231201543e+01
1	 3.781242837567537e-01	 1.138868748378601e+00	-1.714376966680373e+01
1	 3.525743252539059e-01	 1.147035895328369e+00	-1.731802270156541e+01
1	 3.269907866950331e-01	 1.154589548461515e+00	-1.746480338228536e+01
1	 3.013942492115408e-01	 1.161534117683253e+00	-1.758429421726741e+01
1	 2.758048446902206e-01	 1.167874859582740e+00	-1.767677491085792e+01
1	 2.502422169368592e-01	 1.173617839359357e+00	-1.774261853440859e+01
1	 5.106315623006079e-01	 1.101701049968098e+00	-1.574799977716592e+01
1	 4.852724956214873e-01	 1.113103948834816e+00	-1.606500073253210e+01
1	 4.597700921019461e-01	 1.123877777308073e+00	-1.635562958038863e+01
1	 4.341467537688298e-01	 1.134022218525878e+00	-1.661949307083527e+01
1	 4.084246699446127e-01	 1.143537968280460e+00	-1.685630085012137e+01
1	 3.826257633252865e-01	 1.152426709668823e+00	-1.706586507265253e+01
1	 3.567716386497858e-01	 1.160691084558469e+00	-1.724809937426362e+01
1	 3.308835341556882e-01	 1.168334662133675e+00	-1.740301723699580e+01
1	 3.049822759878686e-01	 1.175361904798529e+00	-1.753072978048910e+01
1	 2.790882356984375e-01	 1.181778131720629e+00	-1.763144301930761e+01
1	 2.532212909480123e-01	 1.187589480304112e+00	-1.770545462903467e+01
1	 5.166389924453209e-01	 1.114662238791251e+00	-1.563281440349372e+01
1	 4.909815838052695e-01	 1.126199289409344e+00	-1.595537594096446e+01
1	 4.651791520090278e-01	 1.137099868805816e+00	-1.625204721501849e+01
1	 4.392543626366984e-01	 1.147363656390888e+00	-1.652238755861378e+01
1	 4.132296660616081e-01	 1.156991356142583e+00	-1.676605381113306e+01
1	 3.871272428938194e-01	 1.165984670959045e+00	-1.698280050119896e+01
1	 3.609689520456657e-01	 1.174346273788569e+00	-1.717247940551589e+01
1	 3.347762816163433e-01	 1.182079775805836e+00	-1.733503850811448e+01
1	 3.085703027641964e-01	 1.189189691913806e+00	-1.747052038942910e+01
1	 2.823716267066544e-01	 1.195681403858519e+00	-1.757906007908842e+01
1	 2.562003649591654e-01	 1.201561121248866e+00	-1.766088241012047e+01
1	 5.226464225900338e-01	 1.127623427614406e+00	-1.551504435616483e+01
1	 4.966906719890516e-01	 1.139294629983871e+00	-1.584248113860836e+01
1	 4.705882119161095e-01	 1.150321960303558e+00	-1.614453461546369e+01
1	 4.443619715045670e-01	 1.160705094255899e+00	-1.642072005535072e+01
1	 4.180346621786036e-01	 1.170444744004706e+00	-1.667064474827364e+01
1	 3.916287224623521e-01	 1.179542632249266e+00	-1.689400874732341e+01
1	 3.651662654415456e-01	 1.188001463018668e+00	-1.709060500214481e+01
1	 3.386690290769984e-01	 1.195824889477997e+00	-1.726031890273125e+01
1	 3.121583295405244e-01	 1.203017479029083e+00	-1.740312725733155e+01
1	 2.856550177148712e-01	 1.209584675996409e+00	-1.751909673293931e+01
1	 2.591794389703184e-01	 1.215532762193620e+00	-1.760838179094100e+01
1	 5.286538527347469e-01	 1.140584616437560e+00	-1.539410725781611e+01
1	 5.023997601728338e-01	 1.152389970558398e+00	-1.572574135915543e+01
1	 4.759972718231914e-01	 1.163544051801300e+00	-1.603252469001431e+01
1	 4.494695803724357e-01	 1.174046532120909e+00	-1.631393173477385e+01
1	 4.228396582955990e-01	 1.183898131866829e+00	-1.656952341689269e+01
1	 3.961302020308851e-01	 1.193100593539487e+00	-1.679894838795727e+01
1	 3.693635788374253e-01	 1.201656652248768e+00	-1.700194372520854e+01
1	 3.425617765376536e-01	 1.209570003150158e+00	-1.717833505034103e+01
1	 3.157463563168522e-01	 1.216845266144360e+00	-1.732803608774774e+01
1	 2.889384087230882e-01	 1.223487948134299e+00	-1.745104768529304e+01
1	 2.621585129814716e-01	 1.229504403138374e+00	-1.754745632507702e+01
1	 5.346612828794600e-01	 1.153545805260714e+00	-1.526944690534797e+01
1	 5.081088483566161e-01	 1.165485311132925e+00	-1.560460747747959e+01
1	 4.814063317302731e-01	 1.176766143299042e+00	-1.591547583422831e+01
1	 4.545771892403043e-01	 1.187387969985920e+00	-1.620148888639828e+01
1	 4.276446544125944e-01	 1.197351519728952e+00	-1.646216430243617e+01
1	 4.006316815994176e-01	 1.206658554829709e+00	-1.669710233365292e+01
1	 3.735608922333051e-01	 1.215311841478867e+00	-1.690598706560534e+01
1	 3.464545239983086e-01	 1.223315116822319e+00	-1.708858710270862e+01
1	 3.193343830931801e-01	 1.230673053259636e+00	-1.724475569867596e+01
1	 2.922217997313052e-01	 1.237391220272188e+00	-1.737443035049542e+01
1	 2.651375869926246e-01	 1.243476044083129e+00	-1.747763187830790e+01
1	 5.406687130241730e-01	 1.166506994083868e+00	-1.514053181579849e+01
1	 5.138179365403981e-01	 1.178580651707452e+00	-1.547855477401610e+01
1	 4.868153916373548e-01	 1.189988234796784e+00	-1.579287051497227e+01
1	 4.596847981081728e-01	 1.200729407850930e+00	-1.608288152020532e+01
1	 4.324496505295898e-01	 1.210804907591075e+00	-1.634806524655267e+01
1	 4.051331611679505e-01	 1.220216516119930e+00	-1.658797647671606e+01
1	 3.777582056291850e-01	 1.228967030708967e+00	-1.680224911463774e+01
1	 3.503472714589639e-01	 1.237060230494480e+00	-1.699059742707608e+01
1	 3.229224098695080e-01	 1.244500840374913e+00	-1.715281673842592e+01
1	 2.955051907395220e-01	 1.251294492410078e+00	-1.728878359114365e+01
1	 2.681166610037777e-01	 1.257447685027883e+00	-1.739845538904491e+01
1	 2.383259208922468e-01	 1.117731275580340e+00	-1.782850290677057e+01
1	 2.140242724616335e-01	 1.122637991418810e+00	-1.783350700632219e+01
1	 1.897840155258591e-01	 1.126989119925509e+00	-1.781486435415495e+01
1	 1.656222731693277e-01	 1.130792514836306e+00	-1.777230787649581e+01
1	 1.415555869874107e-01	 1.134056640901256e+00	-1.770567797321008e+01
1	 1.175998958269708e-01	 1.136790531927970e+00	-1.761492006640513e+01
1	 9.377051764084722e-02	 1.139003748457817e+00	-1.750008158036328e+01
1	 7.008213439745983e-02	 1.140706335310666e+00	-1.736130840702580e+01
1	 4.654877996922101e-02	 1.141908779221426e+00	-1.719884091289465e+01
1	 2.318383090774815e-02	 1.142621966778179e+00	-1.701300954409720e+01
1	 0.000000000000000e+00	 1.142857142857143e+00	-1.680423008651008e+01
1	 2.413049949034000e-01	 1.131702916525094e+00	-1.781524648596491e+01
1	 2.166995758674038e-01	 1.136670966311545e+00	-1.782959365086703e+01
1	 1.921563157199323e-01	 1.141076483924578e+00	-1.781981469688322e+01
1	 1.676925515839443e-01	 1.144927421271759e+00	-1.778551510594360e+01
1	 1.433250318247533e-01	 1.148232348912522e+00	-1.772641231240169e+01
1	 1.190698945248080e-01	 1.151000413577070e+00	-1.764233397146512e+01
1	 9.494264911135783e-02	 1.153241295313540e+00	-1.753321558411366e+01
1	 7.095816107742810e-02	 1.154965164502049e+00	-1.739909753157237e+01
1	 4.713063971883628e-02	 1.156182638961694e+00	-1.724012157490107e+01
1	 2.347362879409501e-02	 1.156904741362906e+00	-1.705652687692771e+01
1	 0.000000000000000e+00	 1.157142857142857e+00	-1.684864560463398e+01
1	 2.442840689145530e-01	 1.145674557469848e+00	-1.779692860185657e+01
1	 2.193748792731743e-01	 1.150703941204281e+00	-1.782027736517120e+01
1	 1.945286159140055e-01	 1.155163847923646e+00	-1.781908988777569e+01
1	 1.697628299985609e-01	 1.159062327707213e+00	-1.779285193515154e+01
1	 1.450944766620959e-01	 1.162408056923788e+00	-1.774116518698423e+01
1	 1.205398932226451e-01	 1.165210295226169e+00	-1.766374620678545e+01
1	 9.611478058186840e-02	 1.167478842169263e+00	-1.756042469755272e+01
1	 7.183418775739633e-02	 1.169223993693432e+00	-1.743114109524121e+01
1	 4.771249946845155e-02	 1.170456498701962e+00	-1.727594355513707e+01
1	 2.376342668044186e-02	 1.171187515947633e+00	-1.709498438864585e+01
1	 0.000000000000000e+00	 1.171428571428571e+00	-1.688851600959445e+01
1	 2.472631429257061e-01	 1.159646198414602e+00	-1.777291927738785e+01
1	 2.220501826789447e-01	 1.164736916097015e+00	-1.780493851740973e+01
1	 1.969009161080788e-01	 1.169251211922715e+00	-1.781207893432330e+01
1	 1.718331084131775e-01	 1.173197234142667e+00	-1.779371401849145e+01
1	 1.468639214994386e-01	 1.176583764935054e+00	-1.774933663066593e+01
1	 1.220098919204822e-01	 1.179420176875269e+00	-1.767855865484433e+01
1	 9.728691205237901e-02	 1.181716389024986e+00	-1.758110987100271e+01
1	 7.271021443736456e-02	 1.183482822884816e+00	-1.745683609805788e+01
1	 4.829435921806680e-02	 1.184730358442230e+00	-1.730569666150461e+01
1	 2.405322456678871e-02	 1.185470290532360e+00	-1.712776124333771e+01
1	 0.000000000000000e+00	 1.185714285714286e+00	-1.692320617412812e+01
1	 2.502422169368592e-01	 1.173617839359357e+00	-1.774261853440859e+01
1	 2.247254860847152e-01	 1.178769890989751e+00	-1.778298698203493e+01
1	 1.992732163021520e-01	 1.183338575921784e+00	-1.779819993889845e+01
1	 1.739033868277940e-01	 1.187332140578121e+00	-1.778752578869798e+01
1	 1.486333663367812e-01	 1.190759472946320e+00	-1.775035524697840e+01
1	 1.234798906183194e-01	 1.193630058524369e+00	-1.768620167990641e+01
1	 9.845904352288960e-02	 1.195953935880709e+00	-1.759470058096102e+01
1	 7.358624111733281e-02	 1.197741652076199e+00	-1.747560825433264e+01
1	 4.887621896768205e-02	 1.199004218182498e+00	-1.732879975867239e+01
1	 2.434302245313557e-02	 1.199753065117088e+00	-1.715426616870441e+01
1	 0.000000000000000e+00	 1.200000000000000e+00	-1.695211121512706e+01
1	 2.532212909480123e-01	 1.187589480304112e+00	-1.770545462903467e+01
1	 2.274007894904856e-01	 1.192802865882486e+00	-1.775386040411350e+01
1	 2.016455164962253e-01	 1.197425939920853e+00	-1.777689838729108e+01
1	 1.759736652424107e-01	 1.201467047013575e+00	-1.777373876402441e+01
1	 1.504028111741238e-01	 1.204935180957585e+00	-1.774367652869880e+01
1	 1.249498893161565e-01	 1.207839940173469e+00	-1.768613245262417e+01
1	 9.963117499340018e-02	 1.210191482736431e+00	-1.760065315208984e+01
1	 7.446226779730108e-02	 1.212000481267582e+00	-1.748691030358443e+01
1	 4.945807871729734e-02	 1.213278077922766e+00	-1.734469905885402e+01
1	 2.463282033948242e-02	 1.214035839701815e+00	-1.717393571702560e+01
1	 0.000000000000000e+00	 1.214285714285715e+00	-1.697465471457069e+01
1	 2.562003649591654e-01	 1.201561121248866e+00	-1.766088241012047e+01
1	 2.300760928962560e-01	 1.206835840775221e+00	-1.771702258475505e+01
1	 2.040178166902985e-01	 1.211513303919922e+00	-1.774764555665013e+01
1	 1.780439436570272e-01	 1.215601953449029e+00	-1.775182997350286e+01
1	 1.521722560114664e-01	 1.219110888968851e+00	-1.772878129452171e+01
1	 1.264198880139936e-01	 1.222049821822568e+00	-1.767783339152659e+01
1	 1.008033064639108e-01	 1.224429029592154e+00	-1.759844919627639e+01
1	 7.533829447726931e-02	 1.226259310458965e+00	-1.749022043930834e+01
1	 5.003993846691260e-02	 1.227551937663034e+00	-1.735286653183456e+01
1	 2.492261822582927e-02	 1.228318614286542e+00	-1.718623264745188e+01
1	 0.000000000000000e+00	 1.228571428571429e+00	-1.699028706457898e+01
1	 2.591794389703184e-01	 1.215532762193620e+00	-1.760838179094100e+01
1	 2.327513963020264e-01	 1.220868815667956e+00	-1.767196197789214e+01
1	 2.063901168843717e-01	 1.225600667918991e+00	-1.770993703322079e+01
1	 1.801142220716438e-01	 1.229736859884482e+00	-1.772130049080775e+01
1	 1.539417008488091e-01	 1.233286596980117e+00	-1.770517423354653e+01
1	 1.278898867118308e-01	 1.236259703471668e+00	-1.766081071199179e+01
1	 1.019754379344214e-01	 1.238666576447877e+00	-1.758759415934413e+01
1	 7.621432115723759e-02	 1.240518139650349e+00	-1.748504084610300e+01
1	 5.062179821652787e-02	 1.241825797403302e+00	-1.735279842465044e+01
1	 2.521241611217612e-02	 1.242601388871269e+00	-1.719064441986236e+01
1	 0.000000000000000e+00	 1.242857142857143e+00	-1.699848392659970e+01
1	 2.621585129814716e-01	 1.229504403138374e+00	-1.754745632507702e+01
1	 2.354266997077968e-01	 1.234901790560691e+00	-1.761819028955124e+01
1	 2.087624170784450e-01	 1.239688031918060e+00	-1.766329133114634e+01
1	 1.821845004862604e-01	 1.243871766319936e+00	-1.768167406808274e+01
1	 1.557111456861517e-01	 1.247462304991382e+00	-1.767238254900439e+01
1	 1.293598854096679e-01	 1.250469585120767e+00	-1.763459307415376e+01
1	 1.031475694049319e-01	 1.252904123303600e+00	-1.756761596685169e+01
1	 7.709034783720581e-02	 1.254776968841732e+00	-1.747089633653977e+01
1	 5.120365796614312e-02	 1.256099657143569e+00	-1.734401388219989e+01
1	 2.550221399852297e-02	 1.256884163455996e+00	-1.718668179141466e+01
1	 0.000000000000000e+00	 1.257142857142857e+00	-1.699874479565116e+01
1	 2.651375869926246e-01	 1.243476044083129e+00	-1.747763187830789e+01
1	 2.381020031135672e-01	 1.248934765453426e+00	-1.755524117155502e+01
1	 2.111347172725183e-01	 1.253775395917128e+00	-1.760724860438392e+01
1	 1.842547789008770e-01	 1.258006672755390e+00	-1.763249586186945e+01
1	 1.574805905234943e-01	 1.261638013002648e+00	-1.762995469341954e+01
1	 1.308298841075050e-01	 1.264679466769867e+00	-1.759873032196027e+01
1	 1.043197008754425e-01	 1.267141670159322e+00	-1.753806376118668e+01
1	 7.796637451717406e-02	 1.269035798033116e+00	-1.744733307992840e+01
1	 5.178551771575840e-02	 1.270373516883837e+00	-1.732605366084660e+01
1	 2.579201188486982e-02	 1.271166938040724e+00	-1.717387750770843e+01
1	 0.000000000000000e+00	 1.271428571428571e+00	-1.699059166135764e+01
1	 2.681166610037777e-01	 1.257447685027883e+00	-1.739845538904491e+01
1	 2.407773065193377e-01	 1.262967740346161e+00	-1.748266900231234e+01
1	 2.135070174665914e-01	 1.267862759916197e+00	-1.754136944449242e+01
1	 1.863250573154937e-01	 1.272141579190844e+00	-1.757333124397457e+01
1	 1.592500353608370e-01	 1.275813721013914e+00	-1.757745918809294e+01
1	 1.322998828053422e-01	 1.278889348418967e+00	-1.755279230629503e+01
1	 1.054918323459531e-01	 1.281379217015045e+00	-1.749850672285282e+01
1	 7.884240119714231e-02	 1.283294627224498e+00	-1.741391741583170e+01
1	 5.236737746537364e-02	 1.284647376624105e+00	-1.729847892778228e+01
1	 2.608180977121667e-02	 1.285449712625450e+00	-1.715178508120579e+01
1	 0.000000000000000e+00	 1.285714285714286e+00	-1.697356775824895e+01
1	 1.285714285714286e+00	 0.000000000000000e+00	 1.185580388107861e+01
1	 1.285449712625451e+00	 2.608180977121596e-02	 1.131215124505754e+01
1	 1.284647376624105e+00	 5.236737746537301e-02	 1.076813022907494e+01
1	 1.283294627224498e+00	 7.884240119714178e-02	 1.022439804261141e+01
1	 1.281379217015045e+00	 1.054918323459527e-01	 9.681682918672385e+00
1	 1.278889348418967e+00	 1.322998828053418e-01	 9.140784302585960e+00
1	 1.275813721013914e+00	 1.592500353608367e-01	 8.602572505711079e+00
1	 1.272141579190844e+00	 1.863250573154935e-01	 8.067987786771276e+00
1	 1.267862759916197e+00	 2.135070174665914e-01	 7.538038826722174e+00
1	 1.262967740346161e+00	 2.407773065193378e-01	 7.013800566969816e+00
1	 1.257447685027883e+00	 2.681166610037777e-01	 6.496411385386147e+00
1	 1.300000000000000e+00	 0.000000000000000e+00	 1.145042280002997e+01
1	 1.299732487210178e+00	 2.637160765756280e-02	 1.091364532956817e+01
1	 1.298921236364373e+00	 5.294923721498827e-02	 1.037721921602341e+01
1	 1.297553456415882e+00	 7.971842787711006e-02	 9.841840810564289e+00
1	 1.295616763870767e+00	 1.066639638164633e-01	 9.308270684031111e+00
1	 1.293099230068066e+00	 1.337698815031789e-01	 8.777333234989056e+00
1	 1.289989429025179e+00	 1.610194801981794e-01	 8.249915779123413e+00
1	 1.286276485626297e+00	 1.883953357301101e-01	 7.726967088651927e+00
1	 1.281950123915266e+00	 2.158793176606647e-01	 7.209495353834262e+00
1	 1.277000715238897e+00	 2.434526099251083e-01	 6.698565542718137e+00
1	 1.271419325972637e+00	 2.710957350149308e-01	 6.195296139972476e+00
1	 1.314285714285714e+00	 0.000000000000000e+00	 1.105918377960857e+01
1	 1.314015261794905e+00	 2.666140554390965e-02	 1.052945680674321e+01
1	 1.313195096104641e+00	 5.353109696460353e-02	 1.000074638886234e+01
1	 1.311812285607266e+00	 8.059445455707827e-02	 9.473787535719378e+00
1	 1.309854310726491e+00	 1.078360952869739e-01	 8.949372829897985e+00
1	 1.307309111717166e+00	 1.352398802010162e-01	 8.428351458390528e+00
1	 1.304165137036445e+00	 1.627889250355221e-01	 7.911627741137817e+00
1	 1.300411392061751e+00	 1.904656141447267e-01	 7.400159131096003e+00
1	 1.296037487914335e+00	 2.182516178547379e-01	 6.894953664018327e+00
1	 1.291033690131632e+00	 2.461279133308787e-01	 6.397066840355172e+00
1	 1.285390966917391e+00	 2.740748090260838e-01	 5.907597926475017e+00
1	 1.328571428571429e+00	 0.000000000000000e+00	 1.068134058717860e+01
1	 1.328298036379633e+00	 2.695120343025649e-02	 1.015882720032440e+01
1	 1.327468955844909e+00	 5.411295671421878e-02	 9.637942647147936e+00
1	 1.326071114798648e+00	 8.147048123704650e-02	 9.119460108042890e+00
1	 1.324091857582213e+00	 1.090082267574845e-01	 8.604203840986404e+00
1	 1.321518993366265e+00	 1.367098788988532e-01	 8.093047640699503e+00
1	 1.318340845047711e+00	 1.645583698728647e-01	 7.586912809595489e+00
1	 1.314546298497205e+00	 1.925358925593433e-01	 7.086765620906773e+00
1	 1.310124851913404e+00	 2.206239180488112e-01	 6.593614258223835e+00
1	 1.305066665024367e+00	 2.488032167366490e-01	 6.108505220057650e+00
1	 1.299362607862145e+00	 2.770538830372369e-01	 5.632519182931418e+00
1	 1.342857142857143e+00	 0.000000000000000e+00	 1.031617874468445e+01
1	 1.342580810964359e+00	 2.724100131660333e-02	 9.801030309638980e+00
1	 1.341742815585176e+00	 5.469481646383403e-02	 9.288071618114840e+00
1	 1.340329943990032e+00	 8.234650791701477e-02	 8.778113528566296e+00
1	 1.338329404437935e+00	 1.101803582279950e-01	 8.272011628192173e+00
1	 1.335728875015365e+00	 1.381798775966903e-01	 7.770664123531086e+00
1	 1.332516553058976e+00	 1.663278147102073e-01	 7.275009256897558e+00
1	 1.328681204932660e+00	 1.946061709739599e-01	 6.786022234810798e+00
1	 1.324212215912473e+00	 2.229962182428843e-01	 6.304711658636468e+00
1	 1.319099639917102e+00	 2.514785201424195e-01	 5.832115452207526e+00
1	 1.313334248806899e+00	 2.800329570483899e-01	 5.369296286186185e+00
1	 1.357142857142857e+00	 0.000000000000000e+00	 9.963013857357087e+00
1	 1.356863585549087e+00	 2.753079920295018e-02	 9.455370510884562e+00
1	 1.356016675325444e+00	 5.527667621344929e-02	 8.950427934166768e+00
1	 1.354588773181415e+00	 8.322253459698299e-02	 8.449034166698695e+00
1	 1.352566951293658e+00	 1.113524896985056e-01	 7.952075769320760e+00
1	 1.349938756664465e+00	 1.396498762945275e-01	 7.460475149906064e+00
1	 1.346692261070243e+00	 1.680972595475499e-01	 6.975187428186182e+00
1	 1.342816111368113e+00	 1.966764493885765e-01	 6.497196831567196e+00
1	 1.338299579911542e+00	 2.253685184369576e-01	 6.027512618086716e+00
1	 1.333132614809837e+00	 2.541538235481899e-01	 5.567164527381216e+00
1	 1.327305889751654e+00	 2.830120310595430e-01	 5.117197765637763e+00
1	 1.371428571428571e+00	 0.000000000000000e+00	 9.621190046876197e+00
1	 1.371146360133814e+00	 2.782059708929703e-02	 9.121181164583891e+00
1	 1.370290535065712e+00	 5.585853596306455e-02	 8.624335618023963e+00
1	 1.368847602372799e+00	 8.409856127695124e-02	 8.131538126457139e+00
1	 1.366804498149381e+00	 1.125246211690162e-01	 7.643705859769053e+00
1	 1.364148638313564e+00	 1.411198749923646e-01	 7.161785202719365e+00
1	 1.360867969081508e+00	 1.698667043848925e-01	 6.686748070889224e+00
1	 1.356951017803567e+00	 1.987467278031931e-01	 6.219587775820107e+00
1	 1.352386943910610e+00	 2.277408186310309e-01	 5.761314441370461e+00
1	 1.347165589702572e+00	 2.568291269539603e-01	 5.312949978214431e+00
1	 1.341277530696408e+00	 2.859911050706961e-01	 4.875522628626339e+00
1	 1.385714285714286e+00	 0.000000000000000e+00	 9.290078481450116e+00
1	 1.385429134718541e+00	 2.811039497564386e-02	 8.797823121547435e+00
1	 1.384564394805980e+00	 5.644039571267982e-02	 8.309146567758383e+00
1	 1.383106431564182e+00	 8.497458795691948e-02	 7.824969713754874e+00
1	 1.381042045005104e+00	 1.136967526395268e-01	 7.346239965226872e+00
1	 1.378358519962664e+00	 1.425898736902018e-01	 6.873927445983647e+00
1	 1.375043677092774e+00	 1.716361492222352e-01	 6.409020767592213e+00
1	 1.371085924239021e+00	 2.008170062178097e-01	 5.952522365630439e+00
1	 1.366474307909679e+00	 2.301131188251041e-01	 5.505443410405399e+00
1	 1.361198564595307e+00	 2.595044303597308e-01	 5.068798305069275e+00
1	 1.355249171641163e+00	 2.889701790818492e-01	 4.643598789405878e+00
1	 1.400000000000000e+00	 0.000000000000000e+00	 8.969075995890938e+00
1	 1.399711909303269e+00	 2.840019286199071e-02	 8.484683320307683e+00
1	 1.398838254546248e+00	 5.702225546229506e-02	 8.004239134581926e+00
1	 1.397365260755565e+00	 8.585061463688770e-02	 7.528699997529117e+00
1	 1.395279591860827e+00	 1.148688841100374e-01	 7.059043169110980e+00
1	 1.392568401611763e+00	 1.440598723880389e-01	 6.596262261506987e+00
1	 1.389219385104039e+00	 1.734055940595778e-01	 6.141362464856744e+00
1	 1.385220830674475e+00	 2.028872846324263e-01	 5.695355356281071e+00
1	 1.380561671908748e+00	 2.324854190191773e-01	 5.259253305806483e+00
1	 1.375231539488043e+00	 2.621797337655011e-01	 4.834063498088955e+00
1	 1.369220812585916e+00	 2.919492530930023e-01	 4.420781594301640e+00
1	 1.414285714285714e+00	 0.000000000000000e+00	 8.657603795321373e+00
1	 1.413994683887996e+00	 2.868999074833755e-02	 8.181173469557415e+00
1	 1.413112114286515e+00	 5.760411521191032e-02	 7.709016786829229e+00
1	 1.411624089946949e+00	 8.672664131685595e-02	 7.242125458073124e+00
1	 1.409517138716549e+00	 1.160410155805480e-01	 6.781506208033394e+00
1	 1.406778283260863e+00	 1.455298710858760e-01	 6.328175874256700e+00
1	 1.403395093115305e+00	 1.751750388969205e-01	 5.883156091201514e+00
1	 1.399355737109928e+00	 2.049575630470429e-01	 5.447467573548521e+00
1	 1.394649035907817e+00	 2.348577192132505e-01	 5.022124018062780e+00
1	 1.389264514380778e+00	 2.648550371712716e-01	 4.608125648825063e+00
1	 1.383192453530671e+00	 2.949283271041554e-01	 4.206452436251988e+00
1	 1.428571428571429e+00	 0.000000000000000e+00	 8.355106236659225e+00
1	 1.428277458472724e+00	 2.897978863468439e-02	 7.886728809641720e+00
1	 1.427385974026783e+00	 5.818597496152556e-02	 7.422906854101567e+00
1	 1.425882919138332e+00	 8.760266799682419e-02	 6.964666716468460e+00
1	 1.423754685572271e+00	 1.172131470510585e-01	 6.513044189141694e+00
1	 1.420988164909963e+00	 1.469998697837131e-01	 6.069079060201430e+00
1	 1.417570801126570e+00	 1.769444837342630e-01	 5.633809258004499e+00
1	 1.413490643545382e+00	 2.070278414616595e-01	 5.208264610178240e+00
1	 1.408736399906886e+00	 2.372300194073238e-01	 4.793460242043826e+00
1	 1.403297489273513e+00	 2.675303405770419e-01	 4.390389645167116e+00
1	 1.397164094475425e+00	 2.979074011153084e-01	 4.000017452477763e+00
1	 1.257447685027883e+00	 2.681166610037777e-01	 6.496411385386147e+00
1	 1.251294492410078e+00	 2.955051907395213e-01	 5.978173925531053e+00
1	 1.244500840374914e+00	 3.229224098695073e-01	 5.451341275831682e+00
1	 1.237060230494480e+00	 3.503472714589634e-01	 4.917045404411555e+00
1	 1.228967030708967e+00	 3.777582056291845e-01	 4.376444611634965e+00
1	 1.220216516119931e+00	 4.051331611679502e-01	 3.830718875751634e+00
1	 1.210804907591075e+00	 4.324496505295896e-01	 3.281064895292122e+00
1	 1.200729407850930e+00	 4.596847981081726e-01	 2.728690855501402e+00
1	 1.189988234796783e+00	 4.868153916373548e-01	 2.174810950254417e+00
1	 1.178580651707452e+00	 5.138179365403983e-01	 1.620639694873813e+00
1	 1.166506994083868e+00	 5.406687130241731e-01	 1.067386068996081e+00
1	 1.271419325972637e+00	 2.710957350149308e-01	 6.195296139972476e+00
1	 1.265197764547968e+00	 2.987885817477380e-01	 5.691819533595967e+00
1	 1.258328627490190e+00	 3.265104366458351e-01	 5.180221900292058e+00
1	 1.250805344166641e+00	 3.542400189196186e-01	 4.661606847737072e+00
1	 1.242622219939067e+00	 3.819555190250643e-01	 4.137096417875768e+00
1	 1.233774477410152e+00	 4.096346407364830e-01	 3.607826274912212e+00
1	 1.224258295453198e+00	 4.372546466465850e-01	 3.074940642888897e+00
1	 1.214070845715940e+00	 4.647924069760414e-01	 2.539587023878071e+00
1	 1.203210326294526e+00	 4.922244515444367e-01	 2.002910731547004e+00
1	 1.191675992281980e+00	 5.195270247241807e-01	 1.466049278347898e+00
1	 1.179468182907022e+00	 5.466761431688861e-01	 9.301266577549202e-01
1	 1.285390966917391e+00	 2.740748090260838e-01	 5.907597926475017e+00
1	 1.279101036685857e+00	 3.020719727559550e-01	 5.418518124758862e+00
1	 1.272156414605467e+00	 3.300984634221630e-01	 4.921754315939705e+00
1	 1.264550457838802e+00	 3.581327663802736e-01	 4.418380811072687e+00
1	 1.256277409169166e+00	 3.861528324209441e-01	 3.909483074978824e+00
1	 1.247332438700373e+00	 4.141361203050155e-01	 3.396152785494842e+00
1	 1.237711683315321e+00	 4.420596427635805e-01	 2.879482691591140e+00
1	 1.227412283580950e+00	 4.699000158439098e-01	 2.360561304708107e+00
1	 1.216432417792268e+00	 4.976335114515183e-01	 1.840467461001846e+00
1	 1.204771332856507e+00	 5.252361129079627e-01	 1.320264795220144e+00
1	 1.192429371730176e+00	 5.526835733135992e-01	 8.009961695822022e-01
1	 1.299362607862145e+00	 2.770538830372369e-01	 5.632519182931418e+00
1	 1.293004308823748e+00	 3.053553637641720e-01	 5.157476397944303e+00
1	 1.285984201720744e+00	 3.336864901984908e-01	 4.675153291404859e+00
1	 1.278295571510963e+00	 3.620255138409288e-01	 4.186593971804364e+00
1	 1.269932598399266e+00	 3.903501458168240e-01	 3.692847023692206e+00
1	 1.260890399990595e+00	 4.186375998735485e-01	 3.194960466517506e+00
1	 1.251165071177444e+00	 4.468646388805760e-01	 2.693976558129483e+00
1	 1.240753721445961e+00	 4.750076247117785e-01	 2.190926480209245e+00
1	 1.229654509290010e+00	 5.030425713586000e-01	 1.686824945871940e+00
1	 1.217866673431034e+00	 5.309452010917448e-01	 1.182664772276398e+00
1	 1.205390560553330e+00	 5.586910034583122e-01	 6.794114632464425e-01
1	 1.313334248806899e+00	 2.800329570483899e-01	 5.369296286186185e+00
1	 1.306907580961637e+00	 3.086387547723888e-01	 4.907934809569399e+00
1	 1.299811988836020e+00	 3.372745169748186e-01	 4.439667009418606e+00
1	 1.292040685183124e+00	 3.659182613015839e-01	 3.965505914663379e+00
1	 1.283587787629366e+00	 3.945474592127038e-01	 3.486462941327877e+00
1	 1.274448361280816e+00	 4.231390794420814e-01	 3.003542778742097e+00
1	 1.264618459039567e+00	 4.516696349975713e-01	 2.517738162777972e+00
1	 1.254095159310971e+00	 4.801152335796470e-01	 2.030024575909096e+00
1	 1.242876600787752e+00	 5.084516312656816e-01	 1.541354916505920e+00
1	 1.230962014005561e+00	 5.366542892755272e-01	 1.052654181971157e+00
1	 1.218351749376484e+00	 5.646984336030251e-01	 5.648142120365778e-01
1	 1.327305889751654e+00	 2.830120310595430e-01	 5.117197765637763e+00
1	 1.320810853099528e+00	 3.119221457806058e-01	 4.669165796833742e+00
1	 1.313639775951298e+00	 3.408625437511466e-01	 4.214575308175982e+00
1	 1.305785798855284e+00	 3.698110087622390e-01	 3.754407399760716e+00
1	 1.297242976859465e+00	 3.987447726085836e-01	 3.289636045100451e+00
1	 1.288006322571037e+00	 4.276405590106139e-01	 2.821222931951079e+00
1	 1.278071846901691e+00	 4.564746311145668e-01	 2.350112229167505e+00
1	 1.267436597175982e+00	 4.852228424475155e-01	 1.877225321523588e+00
1	 1.256098692285494e+00	 5.138606911727635e-01	 1.403455556711395e+00
1	 1.244057354580089e+00	 5.423633774593095e-01	 9.296630505503218e-01
1	 1.231312938199638e+00	 5.707058637477382e-01	 4.566695977347272e-01
1	 1.341277530696408e+00	 2.859911050706961e-01	 4.875522628626339e+00
1	 1.334714125237417e+00	 3.152055367888226e-01	 4.440472112053548e+00
1	 1.327467563066575e+00	 3.444505705274744e-01	 3.999188032613905e+00
1	 1.319530912527445e+00	 3.737037562228944e-01	 3.552618738869396e+00
1	 1.310898166089565e+00	 4.029420860044635e-01	 3.101700501507285e+00
1	 1.301564283861259e+00	 4.321420385791467e-01	 2.647352335519299e+00
1	 1.291525234763813e+00	 4.612796272315622e-01	 2.190470784111022e+00
1	 1.280778035040992e+00	 4.903304513153842e-01	 1.731924708030472e+00
1	 1.269320783783236e+00	 5.192697510798451e-01	 1.272550125970665e+00
1	 1.257152695154616e+00	 5.480724656430916e-01	 8.131451531662111e-01
1	 1.244274127022792e+00	 5.767132938924511e-01	 3.544650862153808e-01
1	 1.355249171641163e+00	 2.889701790818492e-01	 4.643598789405878e+00
1	 1.348617397375307e+00	 3.184889277970396e-01	 4.221185260026890e+00
1	 1.341295350181851e+00	 3.480385973038022e-01	 3.792843487671878e+00
1	 1.333276026199606e+00	 3.775965036835494e-01	 3.359488272142959e+00
1	 1.324553355319665e+00	 4.071393994003433e-01	 2.922017934097390e+00
1	 1.315122245151480e+00	 4.366435181476796e-01	 2.481309144826757e+00
1	 1.304978622625937e+00	 4.660846233485576e-01	 2.038211750223022e+00
1	 1.294119472906002e+00	 4.954380601832527e-01	 1.593543633996058e+00
1	 1.282542875280978e+00	 5.246788109869268e-01	 1.148085666880184e+00
1	 1.270248035729143e+00	 5.537815538268738e-01	 7.025767897071430e-01
1	 1.257235315845946e+00	 5.827207240371642e-01	 2.577092787808427e-01
1	 1.369220812585916e+00	 2.919492530930023e-01	 4.420781594301640e+00
1	 1.362520669513196e+00	 3.217723188052564e-01	 4.010664031070267e+00
1	 1.355123137297128e+00	 3.516266240801301e-01	 3.594906986251078e+00
1	 1.347021139871767e+00	 3.814892511442046e-01	 3.174390938096016e+00
1	 1.338208544549764e+00	 4.113367127962231e-01	 2.749976022601443e+00
1	 1.328680206441702e+00	 4.411449977162124e-01	 2.322496896666525e+00
1	 1.318432010488059e+00	 4.708896194655530e-01	 1.892757624705142e+00
1	 1.307460910771013e+00	 5.005456690511213e-01	 1.461526634779873e+00
1	 1.295764966778720e+00	 5.300878708940084e-01	 1.029531791726315e+00
1	 1.283343376303670e+00	 5.594906420106558e-01	 5.974556355761808e-01
1	 1.270196504669100e+00	 5.887281541818772e-01	 1.659308338232048e-01
1	 1.383192453530671e+00	 2.949283271041554e-01	 4.206452436251988e+00
1	 1.376423941651086e+00	 3.250557098134734e-01	 3.808293122962128e+00
1	 1.368950924412405e+00	 3.552146508564580e-01	 3.404769485175844e+00
1	 1.360766253543928e+00	 3.853819986048597e-01	 2.996726930252671e+00
1	 1.351863733779864e+00	 4.155340261921029e-01	 2.584987186963019e+00
1	 1.342238167731924e+00	 4.456464772847452e-01	 2.170343227355197e+00
1	 1.331885398350183e+00	 4.756946155825486e-01	 1.753554238205419e+00
1	 1.320802348636023e+00	 5.056532779189901e-01	 1.335340688757196e+00
1	 1.308987058276462e+00	 5.354969308010902e-01	 9.163795426020420e-01
1	 1.296438716878198e+00	 5.651997301944380e-01	 4.972996621197101e-01
1	 1.283157693492255e+00	 5.947355843265903e-01	 7.867745383985264e-02
1	 1.397164094475425e+00	 2.979074011153084e-01	 4.000017452477763e+00
1	 1.390327213788976e+00	 3.283391008216903e-01	 3.613481845569805e+00
1	 1.382778711527682e+00	 3.588026776327858e-01	 3.221846302997564e+00
1	 1.374511367216089e+00	 3.892747460655148e-01	 2.825920434396084e+00
1	 1.365518923009963e+00	 4.197313395879828e-01	 2.426487350327957e+00
1	 1.355796129022145e+00	 4.501479568532779e-01	 2.024298667756689e+00
1	 1.345338786212305e+00	 4.804996116995440e-01	 1.620069588145997e+00
1	 1.334143786501033e+00	 5.107608867868584e-01	 1.214474095168327e+00
1	 1.322209149774204e+00	 5.409059907081718e-01	 8.081403199166518e-01
1	 1.309534057452725e+00	 5.709088183782204e-01	 4.016461218302541e-01
1	 1.296118882315409e+00	 6.007430144713033e-01	-4.485066771680757e-03
1	 1.166506994083868e+00	 5.406687130241731e-01	 1.067386068996081e+00
1	 1.153768692851193e+00	 5.673438356818944e-01	 5.092362032042542e-01
1	 1.140368293674146e+00	 5.938193153413874e-01	-5.940629580598356e-02
1	 1.126309472158341e+00	 6.200711228691399e-01	-6.370107693590148e-01
1	 1.111597044734725e+00	 6.460752546157617e-01	-1.222047259611225e+00
1	 1.096236975051242e+00	 6.718077991660252e-01	-1.812992735015555e+00
1	 1.080236375725679e+00	 6.972450050368563e-01	-2.408337296914621e+00
1	 1.063603505345799e+00	 7.223633489497692e-01	-3.006590317121428e+00
1	 1.046347760637097e+00	 7.471396042906104e-01	-3.606286456323827e+00
1	 1.028479663754462e+00	 7.715509093593932e-01	-4.205991513777134e+00
1	 1.010010844691246e+00	 7.955748350066590e-01	-4.804308060030194e+00
1	 1.179468182907022e+00	 5.466761431688861e-01	 9.301266577549202e-01
1	 1.166588344993985e+00	 5.736476560783600e-01	 3.892364133434195e-01
1	 1.153039052492747e+00	 6.004173077340693e-01	-1.622928653093340e-01
1	 1.138824021848989e+00	 6.269608020121300e-01	-7.229965046520888e-01
1	 1.123948123009556e+00	 6.532538685559368e-01	-1.291412321208194e+00
1	 1.108417385885145e+00	 6.792723302678699e-01	-1.866086595273178e+00
1	 1.092239002122631e+00	 7.049921717594880e-01	-2.445580007344520e+00
1	 1.075421322071863e+00	 7.303896083825445e-01	-3.028473488749936e+00
1	 1.057973846866397e+00	 7.554411554493946e-01	-3.613373938150141e+00
1	 1.039907215573955e+00	 7.801236972411641e-01	-4.198919756436473e+00
1	 1.021233187410037e+00	 8.044145553956219e-01	-4.783786154021429e+00
1	 1.192429371730176e+00	 5.526835733135992e-01	 8.009961695822022e-01
1	 1.179407997136775e+00	 5.799514764748253e-01	 2.766785132071413e-01
1	 1.165709811311348e+00	 6.070153001267513e-01	-2.584196661816305e-01
1	 1.151338571539637e+00	 6.338504811551207e-01	-8.028966412794541e-01
1	 1.136299201284386e+00	 6.604324824961121e-01	-1.355354716252306e+00
1	 1.120597796719048e+00	 6.867368613697148e-01	-1.914405958804440e+00
1	 1.104241628519583e+00	 7.127393384821198e-01	-2.478677878747197e+00
1	 1.087239138797928e+00	 7.384158678153198e-01	-3.046819006104449e+00
1	 1.069599933095699e+00	 7.637427066081796e-01	-3.617504322206389e+00
1	 1.051334767393450e+00	 7.886964851229353e-01	-4.189440498259127e+00
1	 1.032455530128829e+00	 8.132542757845849e-01	-4.761370897526363e+00
1	 1.205390560553330e+00	 5.586910034583122e-01	 6.794114632464425e-01
1	 1.192227649279566e+00	 5.862552968712909e-01	 1.710199897536400e-01
1	 1.178380570129950e+00	 6.136132925194336e-01	-3.482875698791265e-01
1	 1.163853121230286e+00	 6.407401602981110e-01	-8.771694446594533e-01
1	 1.148650279559216e+00	 6.676110964362872e-01	-1.414289194183129e+00
1	 1.132778207552950e+00	 6.942013924715591e-01	-1.958321209070087e+00
1	 1.116244254916535e+00	 7.204865052047517e-01	-2.507956143799004e+00
1	 1.099056955523992e+00	 7.464421272480947e-01	-3.061906236507096e+00
1	 1.081226019325000e+00	 7.720442577669638e-01	-3.618910470920093e+00
1	 1.062762319212943e+00	 7.972692730047061e-01	-4.177739536778152e+00
1	 1.043677872847621e+00	 8.220939961735476e-01	-4.737200546920363e+00
1	 1.218351749376484e+00	 5.646984336030251e-01	 5.648142120365778e-01
1	 1.205047301422357e+00	 5.925591172677566e-01	 7.174141560250263e-02
1	 1.191051328948552e+00	 6.202112849121155e-01	-4.323761341790772e-01
1	 1.176367670920934e+00	 6.476298394411018e-01	-9.462536795543597e-01
1	 1.161001357834047e+00	 6.747897103764622e-01	-1.468612855527998e+00
1	 1.144958618386853e+00	 7.016659235734040e-01	-1.998186968532639e+00
1	 1.128246881313487e+00	 7.282336719273833e-01	-2.533726195487940e+00
1	 1.110874772250056e+00	 7.544683866808701e-01	-3.074002659308874e+00
1	 1.092852105554301e+00	 7.803458089257483e-01	-3.617815337679263e+00
1	 1.074189871032437e+00	 8.058420608864771e-01	-4.163994763248460e+00
1	 1.054900215566412e+00	 8.309337165625104e-01	-4.711407475328783e+00
1	 1.231312938199638e+00	 5.707058637477382e-01	 4.566695977347272e-01
1	 1.217866953565149e+00	 5.988629376642223e-01	-2.165476600015726e-02
1	 1.203722087767154e+00	 6.268092773047976e-01	-5.111447249522996e-01
1	 1.188882220611582e+00	 6.545195185840921e-01	-1.010569636420666e+00
1	 1.173352436108877e+00	 6.819683243166372e-01	-1.518706080791985e+00
1	 1.157139029220756e+00	 7.091304546752487e-01	-2.034342928182428e+00
1	 1.140249507710439e+00	 7.359808386500147e-01	-2.556286315518292e+00
1	 1.122692588976121e+00	 7.624946461136453e-01	-3.083364491572292e+00
1	 1.104478191783602e+00	 7.886473600845334e-01	-3.614432488360875e+00
1	 1.085617422851931e+00	 8.144148487682483e-01	-4.148376578766973e+00
1	 1.066122558285204e+00	 8.397734369514734e-01	-4.684118482271714e+00
1	 1.244274127022792e+00	 5.767132938924511e-01	 3.544650862153808e-01
1	 1.230686605707940e+00	 6.051667580606874e-01	-1.096453802767599e-01
1	 1.216392846585755e+00	 6.334072696974798e-01	-5.850335678250365e-01
1	 1.201396770302230e+00	 6.614091977270824e-01	-1.070520093612496e+00
1	 1.185703514383707e+00	 6.891469382568125e-01	-1.564933401292471e+00
1	 1.169319440054658e+00	 7.165949857770931e-01	-2.067114625218556e+00
1	 1.152252134107391e+00	 7.437280053726465e-01	-2.575922357190014e+00
1	 1.134510405702185e+00	 7.705209055464207e-01	-3.090237274648950e+00
1	 1.116104278012903e+00	 7.969489112433176e-01	-3.608966590263631e+00
1	 1.097044974671425e+00	 8.229876366500192e-01	-4.131048284384804e+00
1	 1.077344901003995e+00	 8.486131573404362e-01	-4.655455083955902e+00
1	 1.257235315845946e+00	 5.827207240371642e-01	 2.577092787808427e-01
1	 1.243506257850731e+00	 6.114705784571529e-01	-1.926875895540489e-01
1	 1.229063605404357e+00	 6.400052620901617e-01	-6.544647347894521e-01
1	 1.213911319992879e+00	 6.682988768700731e-01	-1.126491220067352e+00
1	 1.198054592658537e+00	 6.963255521969874e-01	-1.607644316127552e+00
1	 1.181499850888561e+00	 7.240595168789381e-01	-2.096814172625695e+00
1	 1.164254760504343e+00	 7.514751720952785e-01	-2.592908386038103e+00
1	 1.146328222428249e+00	 7.785471649791956e-01	-3.094856424473884e+00
1	 1.127730364242204e+00	 8.052504624021022e-01	-3.601613870797712e+00
1	 1.108472526490919e+00	 8.315604245317902e-01	-4.112166447089191e+00
1	 1.088567243722787e+00	 8.574528777293993e-01	-4.625533785610497e+00
1	 1.270196504669100e+00	 5.887281541818772e-01	 1.659308338232048e-01
1	 1.256325909993522e+00	 6.177743988536184e-01	-2.712198964718777e-01
1	 1.241734364222959e+00	 6.466032544828436e-01	-7.198430704094286e-01
1	 1.226425869683527e+00	 6.751885560130633e-01	-1.178853422725216e+00
1	 1.210405670933367e+00	 7.035041661371625e-01	-1.647174059126018e+00
1	 1.193680261722464e+00	 7.315240479807827e-01	-2.123740944083064e+00
1	 1.176257386901295e+00	 7.592223388179102e-01	-2.607507281249208e+00
1	 1.158146039154314e+00	 7.865734244119710e-01	-3.097447748168454e+00
1	 1.139356450471505e+00	 8.135520135608866e-01	-3.592562548091233e+00
1	 1.119900078310413e+00	 8.401332124135613e-01	-4.091881243378038e+00
1	 1.099789586441579e+00	 8.662925981183619e-01	-4.594466337149179e+00
1	 1.283157693492255e+00	 5.947355843265903e-01	 7.867745383985264e-02
1	 1.269145562136313e+00	 6.240782192500840e-01	-3.456630863917632e-01
1	 1.254405123041560e+00	 6.532012468755258e-01	-7.815570618927491e-01
1	 1.238940419374175e+00	 6.820782351560538e-01	-1.227962142589154e+00
1	 1.222756749208198e+00	 7.106827800773379e-01	-1.683844319315522e+00
1	 1.205860672556367e+00	 7.389885790826275e-01	-2.148182217363630e+00
1	 1.188260013298247e+00	 7.669695055405419e-01	-2.619971300628691e+00
1	 1.169963855880378e+00	 7.945996838447461e-01	-3.098227929333950e+00
1	 1.150982536700806e+00	 8.218535647196711e-01	-3.581993235499379e+00
1	 1.131327630129907e+00	 8.487060002953323e-01	-4.070336782012030e+00
1	 1.111011929160370e+00	 8.751323185073248e-01	-4.562359973337598e+00
1	 1.296118882315409e+00	 6.007430144713033e-01	-4.485066771680757e-03
1	 1.281965214279104e+00	 6.303820396465493e-01	-4.164211132607548e-01
1	 1.267075881860162e+00	 6.597992392682079e-01	-8.399796569589042e-01
1	 1.251454969064823e+00	 6.889679142990441e-01	-1.274158603022121e+00
1	 1.235107827483028e+00	 7.178613940175128e-01	-1.717963918162570e+00
1	 1.218041083390269e+00	 7.464531101844722e-01	-2.170413779129445e+00
1	 1.200262639695199e+00	 7.747166722631734e-01	-2.630542611669670e+00
1	 1.181781672606443e+00	 8.026259432775211e-01	-3.097404984227612e+00
1	 1.162608622930107e+00	 8.301551158784557e-01	-3.570079321843234e+00
1	 1.142755181949402e+00	 8.572787881771037e-01	-4.047671407401314e+00
1	 1.122234271879162e+00	 8.839720388962876e-01	-4.529317639550753e+00
1	 1.010010844691246e+00	 7.955748350066590e-01	-4.804308060030194e+00
1	 9.909540188373530e-01	 8.191894512503783e-01	-5.402443629947294e+00
1	 9.713229597564360e-01	 8.423733924690369e-01	-6.001353845092092e+00
1	 9.511324672907289e-01	 8.651059207722755e-01	-6.599304295706443e+00
1	 9.303983311398824e-01	 8.873669871602835e-01	-7.194579894663747e+00
1	 9.091372900969897e-01	 9.091372900969898e-01	-7.785492147841648e+00
1	 8.873669871602835e-01	 9.303983311398824e-01	-8.370386235494726e+00
1	 8.651059207722754e-01	 9.511324672907289e-01	-8.947647848644293e+00
1	 8.423733924690366e-01	 9.713229597564357e-01	-9.515709727169481e+00
1	 8.191894512503786e-01	 9.909540188373525e-01	-1.007305784962166e+01
1	 7.955748350066588e-01	 1.010010844691246e+00	-1.061823722873724e+01
1	 1.021233187410037e+00	 8.044145553956219e-01	-4.783786154021429e+00
1	 1.001964619046657e+00	 8.282915562642714e-01	-5.369169797853747e+00
1	 9.821154370870629e-01	 8.517330968298038e-01	-5.955995714655041e+00
1	 9.617006058161814e-01	 8.747182087808563e-01	-6.542567660252777e+00
1	 9.407360903747700e-01	 8.972266203509532e-01	-7.127202370234591e+00
1	 9.192388155425119e-01	 9.192388155425119e-01	-7.708236797274473e+00
1	 8.972266203509530e-01	 9.407360903747698e-01	-8.284035208100251e+00
1	 8.747182087808565e-01	 9.617006058161816e-01	-8.852996083646465e+00
1	 8.517330968298039e-01	 9.821154370870629e-01	-9.413558768056259e+00
1	 8.282915562642714e-01	 1.001964619046656e+00	-9.964209815002395e+00
1	 8.044145553956220e-01	 1.021233187410037e+00	-1.050348898324486e+01
1	 1.032455530128829e+00	 8.132542757845849e-01	-4.761370897526363e+00
1	 1.012975219255961e+00	 8.373936612781645e-01	-5.334465090104287e+00
1	 9.929079144176900e-01	 8.610928011905711e-01	-5.909604332578376e+00
1	 9.722687443416342e-01	 8.843304967894372e-01	-6.485131008434610e+00
1	 9.510738496096575e-01	 9.070862535416228e-01	-7.059394761173111e+00
1	 9.293403409880343e-01	 9.293403409880346e-01	-7.630759686277792e+00
1	 9.070862535416231e-01	 9.510738496096575e-01	-8.197611426751369e+00
1	 8.843304967894374e-01	 9.722687443416340e-01	-8.758364115445390e+00
1	 8.610928011905709e-01	 9.929079144176899e-01	-9.311467109040681e+00
1	 8.373936612781649e-01	 1.012975219255960e+00	-9.855411460857766e+00
1	 8.132542757845848e-01	 1.032455530128829e+00	-1.038873608266335e+01
1	 1.043677872847621e+00	 8.220939961735476e-01	-4.737200546920363e+00
1	 1.023985819465264e+00	 8.464957662920575e-01	-5.298421686634868e+00
1	 1.003700391748317e+00	 8.704525055513379e-01	-5.862229115493859e+00
1	 9.828368828670866e-01	 8.939427847980181e-01	-6.427004244298157e+00
1	 9.614116088445450e-01	 9.169458867322929e-01	-6.991130633756950e+00
1	 9.394418664335561e-01	 9.394418664335562e-01	-7.553001129090888e+00
1	 9.169458867322925e-01	 9.614116088445449e-01	-8.111024937489983e+00
1	 8.939427847980180e-01	 9.828368828670864e-01	-8.663634591500205e+00
1	 8.704525055513380e-01	 1.003700391748317e+00	-9.209292742592872e+00
1	 8.464957662920578e-01	 1.023985819465264e+00	-9.746498731062676e+00
1	 8.220939961735474e-01	 1.043677872847621e+00	-1.027379488097050e+01
1	 1.054900215566412e+00	 8.309337165625104e-01	-4.711407475328783e+00
1	 1.034996419674568e+00	 8.555978713059504e-01	-5.261127844830984e+00
1	 1.014492869078944e+00	 8.798122099121048e-01	-5.813917377197854e+00
1	 9.934050213925393e-01	 9.035550728065987e-01	-6.368196850440802e+00
1	 9.717493680794327e-01	 9.268055199229626e-01	-6.922384679103144e+00
1	 9.495433918790782e-01	 9.495433918790783e-01	-7.474903979772717e+00
1	 9.268055199229626e-01	 9.717493680794327e-01	-8.024189614185925e+00
1	 9.035550728065990e-01	 9.934050213925391e-01	-8.568695152995110e+00
1	 8.798122099121050e-01	 1.014492869078944e+00	-9.106899704056595e+00
1	 8.555978713059509e-01	 1.034996419674568e+00	-9.637314550603804e+00
1	 8.309337165625105e-01	 1.054900215566412e+00	-1.015848954686865e+01
1	 1.066122558285204e+00	 8.397734369514734e-01	-4.684118482271714e+00
1	 1.046007019883872e+00	 8.646999763198441e-01	-5.222668105977580e+00
1	 1.025285346409571e+00	 8.891719142728722e-01	-5.764714439326884e+00
1	 1.003973159917992e+00	 9.131673608151796e-01	-6.308717910192696e+00
1	 9.820871273143201e-01	 9.366651531136321e-01	-6.853132653965840e+00
1	 9.596449173246001e-01	 9.596449173246002e-01	-7.396413498527041e+00
1	 9.366651531136323e-01	 9.820871273143201e-01	-7.937022957072458e+00
1	 9.131673608151799e-01	 1.003973159917992e+00	-8.473438172011914e+00
1	 8.891719142728721e-01	 1.025285346409571e+00	-9.004157753603193e+00
1	 8.646999763198443e-01	 1.046007019883872e+00	-9.527708458152564e+00
1	 8.397734369514734e-01	 1.066122558285204e+00	-1.004265165248294e+01
1	 1.077344901003995e+00	 8.486131573404362e-01	-4.655455083955902e+00
1	 1.057017620093176e+00	 8.738020813337369e-01	-5.183123488806200e+00
1	 1.036077823740198e+00	 8.985316186336387e-01	-5.714663735115915e+00
1	 1.014541298443444e+00	 9.227796488237606e-01	-6.248576128411973e+00
1	 9.924248865492075e-01	 9.465247863043019e-01	-6.783351325234403e+00
1	 9.697464427701223e-01	 9.697464427701227e-01	-7.317477226382484e+00
1	 9.465247863043018e-01	 9.924248865492077e-01	-7.849445903873103e+00
1	 9.227796488237608e-01	 1.014541298443444e+00	-8.377760505129006e+00
1	 8.985316186336388e-01	 1.036077823740198e+00	-8.900942078063627e+00
1	 8.738020813337372e-01	 1.057017620093176e+00	-9.417536261602356e+00
1	 8.486131573404361e-01	 1.077344901003995e+00	-9.926119787766789e+00
1	 1.088567243722787e+00	 8.574528777293993e-01	-4.625533785610497e+00
1	 1.068028220302480e+00	 8.829041863476299e-01	-5.142571671069687e+00
1	 1.046870301070825e+00	 9.078913229944062e-01	-5.663806906738782e+00
1	 1.025109436968897e+00	 9.323919368323413e-01	-6.187779850993423e+00
1	 1.002762645784095e+00	 9.563844194949718e-01	-6.713018417864633e+00
1	 9.798479682156443e-01	 9.798479682156445e-01	-7.238044867624268e+00
1	 9.563844194949718e-01	 1.002762645784095e+00	-7.761382652611425e+00
1	 9.323919368323412e-01	 1.025109436968897e+00	-8.281563262261651e+00
1	 9.078913229944061e-01	 1.046870301070825e+00	-8.797133011203552e+00
1	 8.829041863476302e-01	 1.068028220302480e+00	-9.306659714912948e+00
1	 8.574528777293990e-01	 1.088567243722787e+00	-9.808739198757941e+00
1	 1.099789586441579e+00	 8.662925981183619e-01	-4.594466337149179e+00
1	 1.079038820511784e+00	 8.920062913615231e-01	-5.101087160000352e+00
1	 1.057662778401453e+00	 9.172510273551729e-01	-5.612183896688614e+00
1	 1.035677575494349e+00	 9.420042248409225e-01	-6.126337083183125e+00
1	 1.013100405018983e+00	 9.662440526856416e-01	-6.642112565997836e+00
1	 9.899494936611666e-01	 9.899494936611666e-01	-7.158068179423903e+00
1	 9.662440526856416e-01	 1.013100405018983e+00	-7.672760495269205e+00
1	 9.420042248409224e-01	 1.035677575494349e+00	-8.184751589655207e+00
1	 9.172510273551733e-01	 1.057662778401452e+00	-8.692615771124839e+00
1	 8.920062913615233e-01	 1.079038820511784e+00	-9.194946214739455e+00
1	 8.662925981183618e-01	 1.099789586441579e+00	-9.690361447982452e+00
1	 1.111011929160370e+00	 8.751323185073248e-01	-4.562359973337598e+00
1	 1.090049420721088e+00	 9.011083963754161e-01	-5.058741452437343e+00
1	 1.068455255732079e+00	 9.266107317159404e-01	-5.559833033620506e+00
1	 1.046245714019802e+00	 9.516165128495029e-01	-6.064255506782886e+00
1	 1.023438164253871e+00	 9.761036858763115e-01	-6.570613267042315e+00
1	 1.000051019106688e+00	 1.000051019106689e+00	-7.077500868158100e+00
1	 9.761036858763114e-01	 1.023438164253870e+00	-7.583509661526003e+00
1	 9.516165128495029e-01	 1.046245714019802e+00	-8.087234466029916e+00
1	 9.266107317159404e-01	 1.068455255732079e+00	-8.587280213581723e+00
1	 9.011083963754162e-01	 1.090049420721087e+00	-9.082268515448057e+00
1	 8.751323185073248e-01	 1.111011929160370e+00	-9.570844095440101e+00
1	 1.122234271879162e+00	 8.839720388962876e-01	-4.529317639550753e+00
1	 1.101060020930392e+00	 9.102105013893090e-01	-5.015603185346187e+00
1	 1.079247733062707e+00	 9.359704360767072e-01	-5.506791113043404e+00
1	 1.056813852545254e+00	 9.612288008580839e-01	-6.001542496322443e+00
1	 1.033775923488758e+00	 9.859633190669812e-01	-6.498500838510057e+00
1	 1.010152544552211e+00	 1.010152544552211e+00	-6.996298491948481e+00
1	 9.859633190669811e-01	 1.033775923488758e+00	-7.493563171874115e+00
1	 9.612288008580840e-01	 1.056813852545254e+00	-7.988924510957207e+00
1	 9.359704360767074e-01	 1.079247733062706e+00	-8.481020600098269e+00
1	 9.102105013893093e-01	 1.101060020930392e+00	-8.968504461230200e+00
1	 8.839720388962875e-01	 1.122234271879162e+00	-9.450050398730495e+00
1	 7.955748350066588e-01	 1.010010844691246e+00	-1.061823722873724e+01
1	 7.715509093593930e-01	 1.028479663754462e+00	-1.114992323189311e+01
1	 7.471396042906104e-01	 1.046347760637097e+00	-1.166688668418984e+01
1	 7.223633489497694e-01	 1.063603505345799e+00	-1.216790738166038e+01
1	 6.972450050368567e-01	 1.080236375725679e+00	-1.265182813953900e+01
1	 6.718077991660253e-01	 1.096236975051242e+00	-1.311755974286719e+01
1	 6.460752546157621e-01	 1.111597044734725e+00	-1.356408539861840e+01
1	 6.200711228691402e-01	 1.126309472158340e+00	-1.399046466137396e+01
1	 5.938193153413878e-01	 1.140368293674145e+00	-1.439583681060924e+01
1	 5.673438356818953e-01	 1.153768692851193e+00	-1.477942366380670e+01
1	 5.406687130241730e-01	 1.166506994083868e+00	-1.514053181579850e+01
1	 8.044145553956220e-01	 1.021233187410037e+00	-1.050348898324486e+01
1	 7.801236972411643e-01	 1.039907215573955e+00	-1.103002456256715e+01
1	 7.554411554493951e-01	 1.057973846866398e+00	-1.154256133801583e+01
1	 7.303896083825445e-01	 1.075421322071863e+00	-1.203989738541918e+01
1	 7.049921717594883e-01	 1.092239002122630e+00	-1.252088878785113e+01
1	 6.792723302678702e-01	 1.108417385885145e+00	-1.298445466911762e+01
1	 6.532538685559376e-01	 1.123948123009555e+00	-1.342958176186285e+01
1	 6.269608020121306e-01	 1.138824021848989e+00	-1.385532848042537e+01
1	 6.004173077340699e-01	 1.153039052492747e+00	-1.426082847431396e+01
1	 5.736476560783607e-01	 1.166588344993984e+00	-1.464529364407904e+01
1	 5.466761431688860e-01	 1.179468182907022e+00	-1.500801660733463e+01
1	 8.132542757845848e-01	 1.032455530128829e+00	-1.038873608266335e+01
1	 7.886964851229353e-01	 1.051334767393450e+00	-1.091002665985383e+01
1	 7.637427066081792e-01	 1.069599933095698e+00	-1.141800252708237e+01
1	 7.384158678153198e-01	 1.087239138797927e+00	-1.191147903167118e+01
1	 7.127393384821202e-01	 1.104241628519583e+00	-1.238932461664606e+01
1	 6.867368613697150e-01	 1.120597796719048e+00	-1.285046594503633e+01
1	 6.604324824961126e-01	 1.136299201284386e+00	-1.329389259115624e+01
1	 6.338504811551211e-01	 1.151338571539637e+00	-1.371866126703419e+01
1	 6.070153001267521e-01	 1.165709811311348e+00	-1.412389955761655e+01
1	 5.799514764748261e-01	 1.179407997136775e+00	-1.450880914404057e+01
1	 5.526835733135990e-01	 1.192429371730176e+00	-1.487266850004778e+01
1	 8.220939961735474e-01	 1.043677872847621e+00	-1.027379488097050e+01
1	 7.972692730047061e-01	 1.062762319212943e+00	-1.078972775512376e+01
1	 7.720442577669638e-01	 1.081226019325000e+00	-1.129299096534339e+01
1	 7.464421272480949e-01	 1.099056955523992e+00	-1.178241615920999e+01
1	 7.204865052047519e-01	 1.116244254916535e+00	-1.225688326640329e+01
1	 6.942013924715593e-01	 1.132778207552950e+00	-1.271532572161871e+01
1	 6.676110964362876e-01	 1.148650279559216e+00	-1.315673528610752e+01
1	 6.407401602981114e-01	 1.163853121230285e+00	-1.358016643397893e+01
1	 6.136132925194341e-01	 1.178380570129949e+00	-1.398474027459769e+01
1	 5.862552968712916e-01	 1.192227649279566e+00	-1.436964798784552e+01
1	 5.586910034583120e-01	 1.205390560553330e+00	-1.473415375460599e+01
1	 8.309337165625105e-01	 1.054900215566412e+00	-1.015848954686865e+01
1	 8.058420608864770e-01	 1.074189871032437e+00	-1.066893466564669e+01
1	 7.803458089257485e-01	 1.092852105554301e+00	-1.116731669807379e+01
1	 7.544683866808702e-01	 1.110874772250056e+00	-1.165248265624232e+01
1	 7.282336719273834e-01	 1.128246881313487e+00	-1.212332311630523e+01
1	 7.016659235734043e-01	 1.144958618386853e+00	-1.257877754769017e+01
1	 6.747897103764626e-01	 1.161001357834046e+00	-1.301783927187419e+01
1	 6.476298394411021e-01	 1.176367670920933e+00	-1.343956001477114e+01
1	 6.202112849121161e-01	 1.191051328948551e+00	-1.384305402171748e+01
1	 5.925591172677575e-01	 1.205047301422357e+00	-1.422750170925890e+01
1	 5.646984336030250e-01	 1.218351749376484e+00	-1.459215283335118e+01
1	 8.397734369514734e-01	 1.066122558285204e+00	-1.004265165248294e+01
1	 8.144148487682482e-01	 1.085617422851932e+00	-1.054746234270218e+01
1	 7.886473600845333e-01	 1.104478191783602e+00	-1.104077861074755e+01
1	 7.624946461136453e-01	 1.122692588976121e+00	-1.152146193147130e+01
1	 7.359808386500150e-01	 1.140249507710439e+00	-1.198841271904246e+01
1	 7.091304546752492e-01	 1.157139029220756e+00	-1.244057577002029e+01
1	 6.819683243166379e-01	 1.173352436108877e+00	-1.287694536623878e+01
1	 6.545195185840925e-01	 1.188882220611581e+00	-1.329656999940609e+01
1	 6.268092773047984e-01	 1.203722087767153e+00	-1.369855668400622e+01
1	 5.988629376642230e-01	 1.217866953565149e+00	-1.408207483009743e+01
1	 5.707058637477380e-01	 1.231312938199638e+00	-1.444635965284229e+01
1	 8.486131573404361e-01	 1.077344901003995e+00	-9.926119787766789e+00
1	 8.229876366500192e-01	 1.097044974671425e+00	-1.042513344793293e+01
1	 7.969489112433175e-01	 1.116104278012903e+00	-1.091318396861053e+01
1	 7.705209055464206e-01	 1.134510405702185e+00	-1.138914641823755e+01
1	 7.437280053726468e-01	 1.152252134107391e+00	-1.185193027094336e+01
1	 7.165949857770937e-01	 1.169319440054658e+00	-1.230048497092990e+01
1	 6.891469382568128e-01	 1.185703514383706e+00	-1.273380518624285e+01
1	 6.614091977270830e-01	 1.201396770302230e+00	-1.315093571162904e+01
1	 6.334072696974803e-01	 1.216392846585755e+00	-1.355097598461788e+01
1	 6.051667580606884e-01	 1.230686605707940e+00	-1.393308418376911e+01
1	 5.767132938924509e-01	 1.244274127022792e+00	-1.429648088311500e+01
1	 8.574528777293990e-01	 1.088567243722787e+00	-9.808739198757941e+00
1	 8.315604245317900e-01	 1.108472526490919e+00	-1.030177795590373e+01
1	 8.052504624021023e-01	 1.127730364242204e+00	-1.078434798473348e+01
1	 7.785471649791956e-01	 1.146328222428249e+00	-1.125533710933145e+01
1	 7.514751720952785e-01	 1.164254760504343e+00	-1.171366311487961e+01
1	 7.240595168789383e-01	 1.181499850888561e+00	-1.215827944068545e+01
1	 6.963255521969880e-01	 1.198054592658537e+00	-1.258818059152416e+01
1	 6.682988768700734e-01	 1.213911319992878e+00	-1.300240722472177e+01
1	 6.400052620901623e-01	 1.229063605404356e+00	-1.340005087461750e+01
1	 6.114705784571537e-01	 1.243506257850730e+00	-1.378025828065455e+01
1	 5.827207240371641e-01	 1.257235315845946e+00	-1.414223529028608e+01
1	 8.662925981183618e-01	 1.099789586441579e+00	-9.690361447982449e+00
1	 8.401332124135613e-01	 1.119900078310413e+00	-1.017723278099302e+01
1	 8.135520135608866e-01	 1.139356450471505e+00	-1.065409341451075e+01
1	 7.865734244119709e-01	 1.158146039154314e+00	-1.111984312028676e+01
1	 7.592223388179103e-01	 1.176257386901295e+00	-1.157340727360556e+01
1	 7.315240479807831e-01	 1.193680261722463e+00	-1.201374268219550e+01
1	 7.035041661371632e-01	 1.210405670933367e+00	-1.243984316173525e+01
1	 6.751885560130640e-01	 1.226425869683527e+00	-1.285074481305648e+01
1	 6.466032544828446e-01	 1.241734364222958e+00	-1.324553096012888e+01
1	 6.177743988536192e-01	 1.256325909993521e+00	-1.362333671234343e+01
1	 5.887281541818771e-01	 1.270196504669101e+00	-1.398335311940620e+01
1	 8.751323185073248e-01	 1.111011929160370e+00	-9.570844095440101e+00
1	 8.487060002953323e-01	 1.131327630129908e+00	-1.005134142689730e+01
1	 8.218535647196713e-01	 1.150982536700806e+00	-1.052225017473505e+01
1	 7.945996838447463e-01	 1.169963855880378e+00	-1.098248127914083e+01
1	 7.669695055405418e-01	 1.188260013298246e+00	-1.143096701138044e+01
1	 7.389885790826279e-01	 1.205860672556366e+00	-1.186666694572578e+01
1	 7.106827800773383e-01	 1.222756749208197e+00	-1.228857370563361e+01
1	 6.820782351560541e-01	 1.238940419374174e+00	-1.269571843688930e+01
1	 6.532012468755265e-01	 1.254405123041560e+00	-1.308717596420001e+01
1	 6.240782192500847e-01	 1.269145562136312e+00	-1.346206959197737e+01
1	 5.947355843265902e-01	 1.283157693492255e+00	-1.381957551471600e+01
1	 8.839720388962875e-01	 1.122234271879162e+00	-9.450050398730498e+00
1	 8.572787881771033e-01	 1.142755181949402e+00	-9.923953657165146e+00
1	 8.301551158784558e-01	 1.162608622930107e+00	-1.038865498552719e+01
1	 8.026259432775211e-01	 1.181781672606442e+00	-1.084307574080956e+01
1	 7.747166722631738e-01	 1.200262639695199e+00	-1.128615442189319e+01
1	 7.464531101844724e-01	 1.218041083390269e+00	-1.171685279153161e+01
1	 7.178613940175135e-01	 1.235107827483028e+00	-1.213416179962650e+01
1	 6.889679142990445e-01	 1.251454969064822e+00	-1.253710725806620e+01
1	 6.597992392682085e-01	 1.267075881860161e+00	-1.292475522095704e+01
1	 6.303820396465504e-01	 1.281965214279103e+00	-1.329621702817222e+01
1	 6.007430144713030e-01	 1.296118882315408e+00	-1.365065397468637e+01
1	 5.406687130241730e-01	 1.166506994083868e+00	-1.514053181579849e+01
1	 5.138179365403981e-01	 1.178580651707452e+00	-1.547855477401610e+01
1	 4.868153916373548e-01	 1.189988234796784e+00	-1.579287051497227e+01
1	 4.596847981081728e-01	 1.200729407850930e+00	-1.608288152020532e+01
1	 4.324496505295898e-01	 1.210804907591075e+00	-1.634806524655267e+01
1	 4.051331611679505e-01	 1.220216516119930e+00	-1.658797647671606e+01
1	 3.777582056291850e-01	 1.228967030708967e+00	-1.680224911463774e+01
1	 3.503472714589639e-01	 1.237060230494480e+00	-1.699059742707608e+01
1	 3.229224098695080e-01	 1.244500840374913e+00	-1.715281673842592e+01
1	 2.955051907395220e-01	 1.251294492410078e+00	-1.728878359114365e+01
1	 2.681166610037777e-01	 1.257447685027883e+00	-1.739845538904491e+01
1	 5.466761431688860e-01	 1.179468182907022e+00	-1.500801660733463e+01
1	 5.195270247241806e-01	 1.191675992281980e+00	-1.534831214742279e+01
1	 4.922244515444364e-01	 1.203210326294526e+00	-1.566547903555819e+01
1	 4.647924069760414e-01	 1.214070845715940e+00	-1.595889768133503e+01
1	 4.372546466465853e-01	 1.224258295453198e+00	-1.622801783086670e+01
1	 4.096346407364832e-01	 1.233774477410152e+00	-1.647236134789663e+01
1	 3.819555190250647e-01	 1.242622219939066e+00	-1.669152446134499e+01
1	 3.542400189196190e-01	 1.250805344166641e+00	-1.688517947570135e+01
1	 3.265104366458357e-01	 1.258328627490190e+00	-1.705307594638980e+01
1	 2.987885817477389e-01	 1.265197764547968e+00	-1.719504132767178e+01
1	 2.710957350149307e-01	 1.271419325972637e+00	-1.731098110573497e+01
1	 5.526835733135990e-01	 1.192429371730176e+00	-1.487266850004777e+01
1	 5.252361129079626e-01	 1.204771332856507e+00	-1.521471096587767e+01
1	 4.976335114515183e-01	 1.216432417792268e+00	-1.553416726536521e+01
1	 4.699000158439099e-01	 1.227412283580950e+00	-1.583041688414366e+01
1	 4.420596427635807e-01	 1.237711683315321e+00	-1.610290338920290e+01
1	 4.141361203050160e-01	 1.247332438700373e+00	-1.635113746377483e+01
1	 3.861528324209446e-01	 1.256277409169166e+00	-1.657469943520861e+01
1	 3.581327663802742e-01	 1.264550457838802e+00	-1.677324128862041e+01
1	 3.300984634221636e-01	 1.272156414605467e+00	-1.694648816475058e+01
1	 3.020719727559558e-01	 1.279101036685858e+00	-1.709423934588003e+01
1	 2.740748090260838e-01	 1.285390966917391e+00	-1.721636873877049e+01
1	 5.586910034583120e-01	 1.205390560553330e+00	-1.473415375460599e+01
1	 5.309452010917448e-01	 1.217866673431034e+00	-1.507740910876856e+01
1	 5.030425713586000e-01	 1.229654509290010e+00	-1.539858978543035e+01
1	 4.750076247117785e-01	 1.240753721445961e+00	-1.569709481908877e+01
1	 4.468646388805761e-01	 1.251165071177444e+00	-1.597238244597448e+01
1	 4.186375998735488e-01	 1.260890399990595e+00	-1.622397321916439e+01
1	 3.903501458168244e-01	 1.269932598399266e+00	-1.645145264808919e+01
1	 3.620255138409293e-01	 1.278295571510962e+00	-1.665447335293067e+01
1	 3.336864901984916e-01	 1.285984201720744e+00	-1.683275672984874e+01
1	 3.053553637641728e-01	 1.293004308823748e+00	-1.698609412824518e+01
1	 2.770538830372370e-01	 1.299362607862145e+00	-1.711434754626331e+01
1	 5.646984336030250e-01	 1.218351749376484e+00	-1.459215283335117e+01
1	 5.366542892755272e-01	 1.230962014005562e+00	-1.493607901380732e+01
1	 5.084516312656815e-01	 1.242876600787752e+00	-1.525841587546983e+01
1	 4.801152335796471e-01	 1.254095159310971e+00	-1.555860182809760e+01
1	 4.516696349975716e-01	 1.264618459039567e+00	-1.583612997136433e+01
1	 4.231390794420816e-01	 1.274448361280816e+00	-1.609055111973785e+01
1	 3.945474592127042e-01	 1.283587787629365e+00	-1.632147638793855e+01
1	 3.659182613015847e-01	 1.292040685183124e+00	-1.652857932649136e+01
1	 3.372745169748194e-01	 1.299811988836021e+00	-1.671159760201036e+01
1	 3.086387547723898e-01	 1.306907580961637e+00	-1.687033422181983e+01
1	 2.800329570483900e-01	 1.313334248806900e+00	-1.700465830725691e+01
1	 5.707058637477380e-01	 1.231312938199638e+00	-1.444635965284229e+01
1	 5.423633774593093e-01	 1.244057354580089e+00	-1.479040691080218e+01
1	 5.138606911727631e-01	 1.256098692285494e+00	-1.511332874026463e+01
1	 4.852228424475157e-01	 1.267436597175981e+00	-1.541462213343751e+01
1	 4.564746311145670e-01	 1.278071846901690e+00	-1.569383462102120e+01
1	 4.276405590106143e-01	 1.288006322571037e+00	-1.595056703935027e+01
1	 3.987447726085840e-01	 1.297242976859465e+00	-1.618447589900509e+01
1	 3.698110087622396e-01	 1.305785798855284e+00	-1.639527534472558e+01
1	 3.408625437511472e-01	 1.313639775951297e+00	-1.658273870112662e+01
1	 3.119221457806066e-01	 1.320810853099527e+00	-1.674669960325401e+01
1	 2.830120310595431e-01	 1.327305889751654e+00	-1.688705271536123e+01
1	 5.767132938924509e-01	 1.244274127022792e+00	-1.429648088311499e+01
1	 5.480724656430914e-01	 1.257152695154617e+00	-1.464009210331917e+01
1	 5.192697510798450e-01	 1.269320783783235e+00	-1.496302478439627e+01
1	 4.903304513153842e-01	 1.280778035040991e+00	-1.526485311478115e+01
1	 4.612796272315624e-01	 1.291525234763813e+00	-1.554519802327524e+01
1	 4.321420385791473e-01	 1.301564283861259e+00	-1.580372952377898e+01
1	 4.029420860044641e-01	 1.310898166089565e+00	-1.604016870702688e+01
1	 3.737037562228949e-01	 1.319530912527445e+00	-1.625428937074716e+01
1	 3.444505705274750e-01	 1.327467563066574e+00	-1.644591928376000e+01
1	 3.152055367888234e-01	 1.334714125237417e+00	-1.661494108350422e+01
1	 2.859911050706962e-01	 1.341277530696408e+00	-1.676129281028579e+01
1	 5.827207240371641e-01	 1.257235315845946e+00	-1.414223529028608e+01
1	 5.537815538268737e-01	 1.270248035729144e+00	-1.448484629477746e+01
1	 5.246788109869266e-01	 1.282542875280978e+00	-1.480721293184513e+01
1	 4.954380601832527e-01	 1.294119472906002e+00	-1.510900463099010e+01
1	 4.660846233485579e-01	 1.304978622625936e+00	-1.538993411044296e+01
1	 4.366435181476797e-01	 1.315122245151480e+00	-1.564975913753260e+01
1	 4.071393994003437e-01	 1.324553355319664e+00	-1.588828398616530e+01
1	 3.775965036835500e-01	 1.333276026199606e+00	-1.610536058568577e+01
1	 3.480385973038030e-01	 1.341295350181852e+00	-1.630088935877967e+01
1	 3.184889277970403e-01	 1.348617397375307e+00	-1.647481974936373e+01
1	 2.889701790818494e-01	 1.355249171641163e+00	-1.662715044453569e+01
1	 5.887281541818771e-01	 1.270196504669101e+00	-1.398335311940620e+01
1	 5.594906420106557e-01	 1.283343376303670e+00	-1.432439295580343e+01
1	 5.300878708940083e-01	 1.295764966778720e+00	-1.464561398724549e+01
1	 5.005456690511215e-01	 1.307460910771012e+00	-1.494679838342140e+01
1	 4.708896194655534e-01	 1.318432010488060e+00	-1.522776849107292e+01
1	 4.411449977162127e-01	 1.328680206441701e+00	-1.548838785064969e+01
1	 4.113367127962235e-01	 1.338208544549764e+00	-1.572856196469747e+01
1	 3.814892511442051e-01	 1.347021139871767e+00	-1.594823881633929e+01
1	 3.516266240801308e-01	 1.355123137297128e+00	-1.614740913877436e+01
1	 3.217723188052573e-01	 1.362520669513196e+00	-1.632610643918529e+01
1	 2.919492530930024e-01	 1.369220812585917e+00	-1.648440678275857e+01
1	 5.947355843265902e-01	 1.283157693492255e+00	-1.381957551471600e+01
1	 5.651997301944379e-01	 1.296438716878197e+00	-1.415846672992767e+01
1	 5.354969308010902e-01	 1.308987058276462e+00	-1.447796003585231e+01
1	 5.056532779189902e-01	 1.320802348636023e+00	-1.477796731782147e+01
1	 4.756946155825488e-01	 1.331885398350183e+00	-1.505843786023680e+01
1	 4.456464772847454e-01	 1.342238167731923e+00	-1.531935846266229e+01
1	 4.155340261921033e-01	 1.351863733779864e+00	-1.556075336672782e+01
1	 3.853819986048602e-01	 1.360766253543927e+00	-1.578268399751379e+01
1	 3.552146508564586e-01	 1.368950924412405e+00	-1.598524852471304e+01
1	 3.250557098134743e-01	 1.376423941651086e+00	-1.616858125037806e+01
1	 2.949283271041554e-01	 1.383192453530671e+00	-1.633285183143456e+01
1	 6.007430144713030e-01	 1.296118882315408e+00	-1.365065397468637e+01
1	 5.709088183782203e-01	 1.309534057452725e+00	-1.398681287493928e+01
1	 5.409059907081718e-01	 1.322209149774204e+00	-1.430399387951047e+01
1	 5.107608867868586e-01	 1.334143786501033e+00	-1.460225506210726e+01
1	 4.804996116995442e-01	 1.345338786212305e+00	-1.488168944520360e+01
1	 4.501479568532782e-01	 1.355796129022144e+00	-1.514242406112118e+01
1	 4.197313395879832e-01	 1.365518923009963e+00	-1.538461888739639e+01
1	 3.892747460655154e-01	 1.374511367216089e+00	-1.560846566662307e+01
1	 3.588026776327866e-01	 1.382778711527682e+00	-1.581418662152612e+01
1	 3.283391008216911e-01	 1.390327213788976e+00	-1.600203307645488e+01
1	 2.979074011153085e-01	 1.397164094475425e+00	-1.617228399678461e+01
1	 2.681166610037777e-01	 1.257447685027883e+00	-1.739845538904491e+01
1	 2.407773065193377e-01	 1.262967740346161e+00	-1.748266900231234e+01
1	 2.135070174665914e-01	 1.267862759916197e+00	-1.754136944449242e+01
1	 1.863250573154937e-01	 1.272141579190844e+00	-1.757333124397457e+01
1	 1.592500353608370e-01	 1.275813721013914e+00	-1.757745918809294e+01
1	 1.322998828053422e-01	 1.278889348418967e+00	-1.755279230629503e+01
1	 1.054918323459531e-01	 1.281379217015045e+00	-1.749850672285282e+01
1	 7.884240119714231e-02	 1.283294627224498e+00	-1.741391741583170e+01
1	 5.236737746537364e-02	 1.284647376624105e+00	-1.729847892778228e+01
1	 2.608180977121667e-02	 1.285449712625450e+00	-1.715178508120579e+01
1	 0.000000000000000e+00	 1.285714285714286e+00	-1.697356775824895e+01
1	 2.710957350149307e-01	 1.271419325972637e+00	-1.731098110573498e+01
1	 2.434526099251081e-01	 1.277000715238896e+00	-1.740169579131051e+01
1	 2.158793176606647e-01	 1.281950123915266e+00	-1.746707918827371e+01
1	 1.883953357301102e-01	 1.286276485626298e+00	-1.750582933658982e+01
1	 1.610194801981796e-01	 1.289989429025179e+00	-1.751677446672636e+01
1	 1.337698815031793e-01	 1.293099230068067e+00	-1.749887764200576e+01
1	 1.066639638164637e-01	 1.295616763870767e+00	-1.745124022823881e+01
1	 7.971842787711057e-02	 1.297553456415882e+00	-1.737310422456835e+01
1	 5.294923721498889e-02	 1.298921236364373e+00	-1.726385349885028e+01
1	 2.637160765756353e-02	 1.299732487210178e+00	-1.712301397912325e+01
1	 0.000000000000000e+00	 1.300000000000000e+00	-1.695025285971905e+01
1	 2.740748090260838e-01	 1.285390966917391e+00	-1.721636873877049e+01
1	 2.461279133308786e-01	 1.291033690131632e+00	-1.731365099231697e+01
1	 2.182516178547379e-01	 1.296037487914335e+00	-1.738591024501012e+01
1	 1.904656141447268e-01	 1.300411392061752e+00	-1.743174425806764e+01
1	 1.627889250355222e-01	 1.304165137036445e+00	-1.744988081908200e+01
1	 1.352398802010165e-01	 1.307309111717166e+00	-1.743918322570588e+01
1	 1.078360952869743e-01	 1.309854310726490e+00	-1.739865454333708e+01
1	 8.059445455707880e-02	 1.311812285607265e+00	-1.732744066716305e+01
1	 5.353109696460417e-02	 1.313195096104641e+00	-1.722483222915252e+01
1	 2.666140554391038e-02	 1.314015261794905e+00	-1.709026539960524e+01
1	 0.000000000000000e+00	 1.314285714285714e+00	-1.692332164063064e+01
1	 2.770538830372370e-01	 1.299362607862145e+00	-1.711434754626331e+01
1	 2.488032167366490e-01	 1.305066665024367e+00	-1.721827370102361e+01
1	 2.206239180488112e-01	 1.310124851913404e+00	-1.729760698298652e+01
1	 1.925358925593434e-01	 1.314546298497205e+00	-1.735082183452511e+01
1	 1.645583698728649e-01	 1.318340845047711e+00	-1.737652245936754e+01
1	 1.367098788988536e-01	 1.321518993366265e+00	-1.737344932691417e+01
1	 1.090082267574849e-01	 1.324091857582213e+00	-1.734048438643021e+01
1	 8.147048123704703e-02	 1.326071114798648e+00	-1.727665501713455e+01
1	 5.411295671421944e-02	 1.327468955844909e+00	-1.718113675143758e+01
1	 2.695120343025724e-02	 1.328298036379632e+00	-1.705325481855992e+01
1	 0.000000000000000e+00	 1.328571428571429e+00	-1.689248456445011e+01
1	 2.800329570483900e-01	 1.313334248806900e+00	-1.700465830725691e+01
1	 2.514785201424192e-01	 1.319099639917102e+00	-1.711531411543324e+01
1	 2.229962182428843e-01	 1.324212215912473e+00	-1.720192464843301e+01
1	 1.946061709739600e-01	 1.328681204932659e+00	-1.726281870798906e+01
1	 1.663278147102075e-01	 1.332516553058977e+00	-1.729645448629240e+01
1	 1.381798775966907e-01	 1.335728875015365e+00	-1.730142726751050e+01
1	 1.101803582279955e-01	 1.338329404437936e+00	-1.727647576438449e+01
1	 8.234650791701530e-02	 1.340329943990032e+00	-1.722048711083078e+01
1	 5.469481646383469e-02	 1.341742815585177e+00	-1.713250054386912e+01
1	 2.724100131660408e-02	 1.342580810964360e+00	-1.701170981930382e+01
1	 0.000000000000000e+00	 1.342857142857143e+00	-1.685746441534737e+01
1	 2.830120310595431e-01	 1.327305889751654e+00	-1.688705271536124e+01
1	 2.541538235481897e-01	 1.333132614809837e+00	-1.700453295152747e+01
1	 2.253685184369576e-01	 1.338299579911541e+00	-1.709862879300169e+01
1	 1.966764493885766e-01	 1.342816111368113e+00	-1.716750176713774e+01
1	 1.680972595475501e-01	 1.346692261070242e+00	-1.720944231019940e+01
1	 1.396498762945279e-01	 1.349938756664465e+00	-1.722287884003238e+01
1	 1.113524896985061e-01	 1.352566951293658e+00	-1.720638537851400e+01
1	 8.322253459698356e-02	 1.354588773181415e+00	-1.715868773885855e+01
1	 5.527667621344996e-02	 1.356016675325444e+00	-1.707866830658261e+01
1	 2.753079920295094e-02	 1.356863585549087e+00	-1.696536945532929e+01
1	 0.000000000000000e+00	 1.357142857142857e+00	-1.681799564973787e+01
1	 2.859911050706962e-01	 1.341277530696408e+00	-1.676129281028579e+01
1	 2.568291269539602e-01	 1.347165589702572e+00	-1.688570089545550e+01
1	 2.277408186310308e-01	 1.352386943910610e+00	-1.698749473702567e+01
1	 1.987467278031933e-01	 1.356951017803567e+00	-1.706464761362118e+01
1	 1.698667043848928e-01	 1.360867969081508e+00	-1.711526111600035e+01
1	 1.411198749923649e-01	 1.364148638313564e+00	-1.713757576232813e+01
1	 1.125246211690167e-01	 1.366804498149381e+00	-1.712998006757800e+01
1	 8.409856127695178e-02	 1.368847602372798e+00	-1.709101807554938e+01
1	 5.585853596306523e-02	 1.370290535065712e+00	-1.701939537720812e+01
1	 2.782059708929779e-02	 1.371146360133814e+00	-1.691398365290003e+01
1	 0.000000000000000e+00	 1.371428571428571e+00	-1.677382378835299e+01
1	 2.889701790818494e-01	 1.355249171641163e+00	-1.662715044453569e+01
1	 2.595044303597306e-01	 1.361198564595307e+00	-1.675859808960756e+01
1	 2.301131188251041e-01	 1.366474307909679e+00	-1.686830706597913e+01
1	 2.008170062178098e-01	 1.371085924239021e+00	-1.695404206139266e+01
1	 1.716361492222354e-01	 1.375043677092774e+00	-1.701369535933246e+01
1	 1.425898736902021e-01	 1.378358519962664e+00	-1.704529916594323e+01
1	 1.136967526395273e-01	 1.381042045005104e+00	-1.704703628523242e+01
1	 8.497458795692005e-02	 1.383106431564182e+00	-1.701724914371604e+01
1	 5.644039571268048e-02	 1.384564394805980e+00	-1.695444718254550e+01
1	 2.811039497564464e-02	 1.385429134718542e+00	-1.685731265059879e+01
1	 0.000000000000000e+00	 1.385714285714286e+00	-1.672470484591468e+01
1	 2.919492530930024e-01	 1.369220812585917e+00	-1.648440678275857e+01
1	 2.621797337655010e-01	 1.375231539488042e+00	-1.662301365015405e+01
1	 2.324854190191773e-01	 1.380561671908748e+00	-1.674085915776581e+01
1	 2.028872846324264e-01	 1.385220830674475e+00	-1.683547966669292e+01
1	 1.734055940595781e-01	 1.389219385104039e+00	-1.690453829356186e+01
1	 1.440598723880392e-01	 1.392568401611764e+00	-1.694583911582929e+01
1	 1.148688841100378e-01	 1.395279591860826e+00	-1.695733960947364e+01
1	 8.585061463688828e-02	 1.397365260755565e+00	-1.693716131217895e+01
1	 5.702225546229574e-02	 1.398838254546248e+00	-1.688359872381095e+01
1	 2.840019286199148e-02	 1.399711909303269e+00	-1.679512647318848e+01
1	 0.000000000000000e+00	 1.400000000000000e+00	-1.667040479572753e+01
1	 2.949283271041554e-01	 1.383192453530671e+00	-1.633285183143456e+01
1	 2.648550371712714e-01	 1.389264514380777e+00	-1.647874521382415e+01
1	 2.348577192132506e-01	 1.394649035907817e+00	-1.660495273865693e+01
1	 2.049575630470430e-01	 1.399355737109929e+00	-1.670876328652064e+01
1	 1.751750388969207e-01	 1.403395093115305e+00	-1.678759152545414e+01
1	 1.455298710858763e-01	 1.406778283260863e+00	-1.683899415916223e+01
1	 1.160410155805484e-01	 1.409517138716549e+00	-1.686068428181331e+01
1	 8.672664131685655e-02	 1.411624089946949e+00	-1.685054382374549e+01
1	 5.760411521191101e-02	 1.413112114286516e+00	-1.680663409308063e+01
1	 2.868999074833834e-02	 1.413994683887996e+00	-1.672720443736082e+01
1	 0.000000000000000e+00	 1.414285714285714e+00	-1.661069906672038e+01
1	 2.979074011153085e-01	 1.397164094475425e+00	-1.617228399678461e+01
1	 2.675303405770418e-01	 1.403297489273513e+00	-1.632559851187775e+01
1	 2.372300194073238e-01	 1.408736399906886e+00	-1.646039746587293e+01
1	 2.070278414616596e-01	 1.413490643545382e+00	-1.657370366359469e+01
1	 1.769444837342633e-01	 1.417570801126571e+00	-1.666266459750425e+01
1	 1.469998697837135e-01	 1.420988164909963e+00	-1.672457090123088e+01
1	 1.172131470510590e-01	 1.423754685572272e+00	-1.675687277410280e+01
1	 8.760266799682477e-02	 1.425882919138332e+00	-1.675719435151089e+01
1	 5.818597496152627e-02	 1.427385974026783e+00	-1.672334601874766e+01
1	 2.897978863468519e-02	 1.428277458472723e+00	-1.665333468714006e+01
1	 0.000000000000000e+00	 1.428571428571429e+00	-1.654537207066472e+01
1	 1.428571428571429e+00	 0.000000000000000e+00	 8.355106236659225e+00
1	 1.428277458472724e+00	 2.897978863468439e-02	 7.886728809641720e+00
1	 1.427385974026783e+00	 5.818597496152556e-02	 7.422906854101567e+00
1	 1.425882919138332e+00	 8.760266799682419e-02	 6.964666716468460e+00
1	 1.423754685572271e+00	 1.172131470510585e-01	 6.513044189141694e+00
1	 1.420988164909963e+00	 1.469998697837131e-01	 6.069079060201430e+00
1	 1.417570801126570e+00	 1.769444837342630e-01	 5.633809258004499e+00
1	 1.413490643545382e+00	 2.070278414616595e-01	 5.208264610178240e+00
1	 1.408736399906886e+00	 2.372300194073238e-01	 4.793460242043826e+00
1	 1.403297489273513e+00	 2.675303405770419e-01	 4.390389645167116e+00
1	 1.397164094475425e+00	 2.979074011153084e-01	 4.000017452477763e+00
1	 1.442857142857143e+00	 0.000000000000000e+00	 8.062392174714349e+00
1	 1.442560233057450e+00	 2.926958652103124e-02	 7.602099104934590e+00
1	 1.441659833767051e+00	 5.876783471114080e-02	 7.146605052767959e+00
1	 1.440141748329715e+00	 8.847869467679245e-02	 6.696971227870504e+00
1	 1.437992232427994e+00	 1.183852785215691e-01	 6.254262615976014e+00
1	 1.435198046559063e+00	 1.484698684815503e-01	 5.819541969398205e+00
1	 1.431746509137836e+00	 1.787139285716057e-01	 5.393863402575343e+00
1	 1.427625549980836e+00	 2.090981198762760e-01	 4.978265617722917e+00
1	 1.422823763905955e+00	 2.396023196013970e-01	 4.573764791434387e+00
1	 1.417330464166248e+00	 2.702056439828123e-01	 4.181347158939532e+00
1	 1.411135735420179e+00	 3.008864751264615e-01	 3.801961338613693e+00
1	 1.457142857142858e+00	 0.000000000000000e+00	 7.780240242857188e+00
1	 1.456843007642178e+00	 2.955938440737808e-02	 7.328027647964363e+00
1	 1.455933693507319e+00	 5.934969446075608e-02	 6.880822425406708e+00
1	 1.454400577521098e+00	 8.935472135676069e-02	 6.439721620298025e+00
1	 1.452229779283718e+00	 1.195574099920797e-01	 6.005820066733162e+00
1	 1.449407928208162e+00	 1.499398671793874e-01	 5.580203796710105e+00
1	 1.445922217149102e+00	 1.804833734089483e-01	 5.163943065681673e+00
1	 1.441760456416289e+00	 2.111683982908926e-01	 4.758085025650379e+00
1	 1.436911127905023e+00	 2.419746197954702e-01	 4.363646082753782e+00
1	 1.431363439058983e+00	 2.728809473885828e-01	 3.981603982359966e+00
1	 1.425107376364934e+00	 3.038655491376146e-01	 3.612889670713414e+00
1	 1.471428571428572e+00	 0.000000000000000e+00	 7.508083153758749e+00
1	 1.471125782226905e+00	 2.984918229372493e-02	 7.063973152678790e+00
1	 1.470207553247587e+00	 5.993155421037134e-02	 6.625041980782006e+00
1	 1.468659406712482e+00	 9.023074803672892e-02	 6.192423487677357e+00
1	 1.466467326139441e+00	 1.207295414625903e-01	 5.767243013178282e+00
1	 1.463617809857262e+00	 1.514098658772245e-01	 5.350610192524173e+00
1	 1.460097925160368e+00	 1.822528182462910e-01	 4.943611391229884e+00
1	 1.455895362851744e+00	 2.132386767055092e-01	 4.547301806616740e+00
1	 1.450998491904092e+00	 2.443469199895434e-01	 4.162697279376017e+00
1	 1.445396413951718e+00	 2.755562507943533e-01	 3.790765864790270e+00
1	 1.439079017309688e+00	 3.068446231487676e-01	 3.432419219391043e+00
1	 1.485714285714286e+00	 0.000000000000000e+00	 7.245375438833468e+00
1	 1.485408556811632e+00	 3.013898018007177e-02	 6.809415151719972e+00
1	 1.484481412987855e+00	 6.051341395998658e-02	 6.378766611936328e+00
1	 1.482918235903865e+00	 9.110677471669716e-02	 5.954601439553088e+00
1	 1.480704872995163e+00	 1.219016729331009e-01	 5.538076139700952e+00
1	 1.477827691506361e+00	 1.528798645750617e-01	 5.130324282212583e+00
1	 1.474273633171633e+00	 1.840222630836336e-01	 4.732448325283817e+00
1	 1.470030269287198e+00	 2.153089551201259e-01	 4.345511126637489e+00
1	 1.465085855903161e+00	 2.467192201836167e-01	 3.970527192237654e+00
1	 1.459429388844453e+00	 2.782315542001237e-01	 3.608453719078351e+00
1	 1.453050658254442e+00	 3.098236971599208e-01	 3.260181494852477e+00
1	 1.500000000000000e+00	 0.000000000000000e+00	 6.991592409251426e+00
1	 1.499691331396359e+00	 3.042877806641861e-02	 6.563853005057895e+00
1	 1.498755272728122e+00	 6.109527370960183e-02	 6.141518149320051e+00
1	 1.497177065095249e+00	 9.198280139666540e-02	 5.725798195582369e+00
1	 1.494942419850886e+00	 1.230738044036114e-01	 5.317881476047315e+00
1	 1.492037573155461e+00	 1.543498632728988e-01	 4.918925833990463e+00
1	 1.488449341182899e+00	 1.857917079209762e-01	 4.530049815962029e+00
1	 1.484165175722651e+00	 2.173792335347424e-01	 4.152323573975145e+00
1	 1.479173219902230e+00	 2.490915203776899e-01	 3.786759534715767e+00
1	 1.473462363737188e+00	 2.809068576058941e-01	 3.434302899487450e+00
1	 1.467022299199197e+00	 3.128027711710740e-01	 3.095822045010044e+00
1	 1.514285714285714e+00	 0.000000000000000e+00	 6.746229175761183e+00
1	 1.513974105981087e+00	 3.071857595276545e-02	 6.326804964739172e+00
1	 1.513029132468391e+00	 6.167713345921709e-02	 5.912836467517501e+00
1	 1.511435894286631e+00	 9.285882807663365e-02	 5.505573731284358e+00
1	 1.509179966706608e+00	 1.242459358741220e-01	 5.106237579142929e+00
1	 1.506247454804561e+00	 1.558198619707359e-01	 4.716010473876143e+00
1	 1.502625049194165e+00	 1.875611527583188e-01	 4.336027058623880e+00
1	 1.498300082158104e+00	 2.194495119493590e-01	 3.967364431674776e+00
1	 1.493260583901299e+00	 2.514638205717633e-01	 3.611032219682622e+00
1	 1.487495338629923e+00	 2.835821610116644e-01	 3.267962520497291e+00
1	 1.480993940143951e+00	 3.157818451822269e-01	 2.938999793326557e+00
1	 1.528571428571428e+00	 0.000000000000000e+00	 6.508799723475844e+00
1	 1.528256880565814e+00	 3.100837383911230e-02	 6.097807292079692e+00
1	 1.527302992208658e+00	 6.225899320883235e-02	 5.692278642063133e+00
1	 1.525694723478015e+00	 9.373485475660187e-02	 5.293504471691489e+00
1	 1.523417513562331e+00	 1.254180673446326e-01	 4.902738760794617e+00
1	 1.520457336453660e+00	 1.572898606685730e-01	 4.521188944672317e+00
1	 1.516800757205431e+00	 1.893305975956615e-01	 4.150005783381649e+00
1	 1.512434988593558e+00	 2.215197903639755e-01	 3.790272990891915e+00
1	 1.507347947900368e+00	 2.538361207658364e-01	 3.442996695977876e+00
1	 1.501528313522658e+00	 2.862574644174349e-01	 3.109094813803298e+00
1	 1.494965581088705e+00	 3.187609191933800e-01	 2.789386413789583e+00
1	 1.542857142857143e+00	 0.000000000000000e+00	 6.278836038059878e+00
1	 1.542539655150540e+00	 3.129817172545914e-02	 5.876413423902164e+00
1	 1.541576851948926e+00	 6.284085295844760e-02	 5.479418153101244e+00
1	 1.539953552669398e+00	 9.461088143657012e-02	 5.089182529798002e+00
1	 1.537655060418053e+00	 1.265901988151432e-01	 4.706994358297861e+00
1	 1.534667218102760e+00	 1.587598593664102e-01	 4.334086406114915e+00
1	 1.530976465216696e+00	 1.911000424330040e-01	 3.971625582195317e+00
1	 1.526569895029013e+00	 2.235900687785922e-01	 3.620701902368918e+00
1	 1.521435311899436e+00	 2.562084209599096e-01	 3.282317321743432e+00
1	 1.515561288415394e+00	 2.889327678232053e-01	 2.957374521038108e+00
1	 1.508937222033459e+00	 3.217399932045332e-01	 2.646665740609369e+00
1	 1.557142857142857e+00	 0.000000000000000e+00	 6.055887280015749e+00
1	 1.556822429735268e+00	 3.158796961180598e-02	 5.662193184668836e+00
1	 1.555850711689194e+00	 6.342271270806285e-02	 5.273844132880891e+00
1	 1.554212381860781e+00	 9.548690811653834e-02	 4.892214986928586e+00
1	 1.551892607273777e+00	 1.277623302856538e-01	 4.518628045194161e+00
1	 1.548877099751860e+00	 1.602298580642473e-01	 4.154341773545886e+00
1	 1.545152173227962e+00	 1.928694872703466e-01	 3.800539273007978e+00
1	 1.540704801464466e+00	 2.256603471932087e-01	 3.458316563609905e+00
1	 1.535522675898505e+00	 2.585807211539828e-01	 3.128670772253596e+00
1	 1.529594263308129e+00	 2.916080712289758e-01	 2.812488319921236e+00
1	 1.522908862978213e+00	 3.247190672156862e-01	 2.510533210410462e+00
1	 1.571428571428571e+00	 0.000000000000000e+00	 5.839519004009484e+00
1	 1.571105204319995e+00	 3.187776749815283e-02	 5.454732041588775e+00
1	 1.570124571429462e+00	 6.400457245767810e-02	 5.075160654296662e+00
1	 1.568471211052165e+00	 9.636293479650661e-02	 4.702223212359769e+00
1	 1.566130154129499e+00	 1.289344617561644e-01	 4.337277179623519e+00
1	 1.563086981400960e+00	 1.616998567620844e-01	 3.981607092658375e+00
1	 1.559327881239227e+00	 1.946389321076893e-01	 3.636412298564794e+00
1	 1.554839707899920e+00	 2.277306256078254e-01	 3.302794539482471e+00
1	 1.549610039897574e+00	 2.609530213480561e-01	 2.981745480045423e+00
1	 1.543627238200864e+00	 2.942833746347461e-01	 2.674134281709658e+00
1	 1.536880503922968e+00	 3.276981412268393e-01	 2.380695334849250e+00
1	 1.397164094475425e+00	 2.979074011153084e-01	 4.000017452477763e+00
1	 1.390327213788976e+00	 3.283391008216903e-01	 3.613481845569805e+00
1	 1.382778711527682e+00	 3.588026776327858e-01	 3.221846302997564e+00
1	 1.374511367216089e+00	 3.892747460655148e-01	 2.825920434396084e+00
1	 1.365518923009963e+00	 4.197313395879828e-01	 2.426487350327957e+00
1	 1.355796129022145e+00	 4.501479568532779e-01	 2.024298667756689e+00
1	 1.345338786212305e+00	 4.804996116995440e-01	 1.620069588145997e+00
1	 1.334143786501033e+00	 5.107608867868584e-01	 1.214474095168327e+00
1	 1.322209149774204e+00	 5.409059907081718e-01	 8.081403199166518e-01
1	 1.309534057452725e+00	 5.709088183782204e-01	 4.016461218302541e-01
1	 1.296118882315409e+00	 6.007430144713033e-01	-4.485066771680757e-03
1	 1.411135735420179e+00	 3.008864751264615e-01	 3.801961338613693e+00
1	 1.404230485926865e+00	 3.316224918299072e-01	 3.426712050026990e+00
1	 1.396606498642959e+00	 3.623907044091137e-01	 3.046621863162012e+00
1	 1.388256480888250e+00	 3.931674935261700e-01	 2.662464436985292e+00
1	 1.379174112240063e+00	 4.239286529838625e-01	 2.274984398952229e+00
1	 1.369354090312366e+00	 4.546494364218107e-01	 1.884892447111286e+00
1	 1.358792174074429e+00	 4.853046078165394e-01	 1.492860546135175e+00
1	 1.347485224366043e+00	 5.158684956547271e-01	 1.099517264343643e+00
1	 1.335431241271946e+00	 5.463150506152535e-01	 7.054432994693000e-01
1	 1.322629398027253e+00	 5.766179065620027e-01	 3.111672409992573e-01
1	 1.309080071138563e+00	 6.067504446160162e-01	-8.283838363505674e-02
1	 1.425107376364934e+00	 3.038655491376146e-01	 3.612889670713414e+00
1	 1.418133758064755e+00	 3.349058828381240e-01	 3.248591581668220e+00
1	 1.410434285758235e+00	 3.659787311854414e-01	 2.879710108299916e+00
1	 1.402001594560410e+00	 3.970602409868251e-01	 2.506983358984137e+00
1	 1.392829301470162e+00	 4.281259663797424e-01	 2.131117944317959e+00
1	 1.382912051602587e+00	 4.591509159903434e-01	 1.752784177278470e+00
1	 1.372245561936552e+00	 4.901096039335346e-01	 1.372611388186290e+00
1	 1.360826662231054e+00	 5.209761045225957e-01	 9.911834015861716e-01
1	 1.348653332769689e+00	 5.517241105223354e-01	 6.090342226228109e-01
1	 1.335724738601779e+00	 5.823269947457846e-01	 2.266439803399418e-01
1	 1.322041259961716e+00	 6.127578747607294e-01	-1.555648254693936e-01
1	 1.439079017309688e+00	 3.068446231487676e-01	 3.432419219391043e+00
1	 1.432037030202645e+00	 3.381892738463410e-01	 3.078747646194977e+00
1	 1.424262072873512e+00	 3.695667579617692e-01	 2.720749036248381e+00
1	 1.415746708232571e+00	 4.009529884474801e-01	 2.359126338224567e+00
1	 1.406484490700262e+00	 4.323232797756222e-01	 1.994548601270502e+00
1	 1.396470012892809e+00	 4.636523955588763e-01	 1.627646274633745e+00
1	 1.385698949798675e+00	 4.949146000505303e-01	 1.259006642558532e+00
1	 1.374168100096065e+00	 5.260837133904644e-01	 8.891694415774862e-01
1	 1.361875424267430e+00	 5.571331704294170e-01	 5.186227075737729e-01
1	 1.348820079176306e+00	 5.880360829295668e-01	 1.477988996099848e-01
1	 1.335002448784871e+00	 6.187653049054423e-01	-2.229286535150206e-01
1	 1.453050658254442e+00	 3.098236971599208e-01	 3.260181494852477e+00
1	 1.445940302340535e+00	 3.414726648545580e-01	 2.916821787551021e+00
1	 1.438089859988789e+00	 3.731547847380973e-01	 2.569390568004654e+00
1	 1.429491821904732e+00	 4.048457359081353e-01	 2.218556007237280e+00
1	 1.420139679930362e+00	 4.365205931715021e-01	 1.864950037930378e+00
1	 1.410027974183030e+00	 4.681538751274089e-01	 1.509163754922814e+00
1	 1.399152337660797e+00	 4.997195961675255e-01	 1.151742971039571e+00
1	 1.387509537961075e+00	 5.311913222583329e-01	 7.931839753575542e-01
1	 1.375097515765172e+00	 5.625422303364987e-01	 4.339295410496801e-01
1	 1.361915419750835e+00	 5.937451711133493e-01	 7.436522934564987e-02
1	 1.347963637608025e+00	 6.247727350501554e-01	-2.851839651184390e-01
1	 1.467022299199197e+00	 3.128027711710740e-01	 3.095822045010044e+00
1	 1.459843574478425e+00	 3.447560558627747e-01	 2.762469205148905e+00
1	 1.451917647104066e+00	 3.767428115144250e-01	 2.425299884718449e+00
1	 1.443236935576893e+00	 4.087384833687905e-01	 2.084947850647045e+00
1	 1.433794869160461e+00	 4.407179065673819e-01	 1.742008354108763e+00
1	 1.423585935473252e+00	 4.726553546959417e-01	 1.397033633291511e+00
1	 1.412605725522921e+00	 5.045245922845211e-01	 1.050528591158511e+00
1	 1.400850975826085e+00	 5.362989311262013e-01	 7.029466952600785e-01
1	 1.388319607262914e+00	 5.679512902435803e-01	 3.546861464740914e-01
1	 1.375010760325361e+00	 5.994542592971315e-01	 6.086362729397887e-03
1	 1.360924826431179e+00	 6.307801651948685e-01	-3.425751777272089e-01
1	 1.480993940143951e+00	 3.157818451822269e-01	 2.938999793326557e+00
1	 1.473746846616314e+00	 3.480394468709916e-01	 2.615358109744096e+00
1	 1.465745434219343e+00	 3.803308382907529e-01	 2.288154802213066e+00
1	 1.456982049249054e+00	 4.126312308294457e-01	 1.957989598941873e+00
1	 1.447450058390561e+00	 4.449152199632617e-01	 1.625421494906965e+00
1	 1.437143896763473e+00	 4.771568342644744e-01	 1.290964358276412e+00
1	 1.426059113385044e+00	 5.093295884015167e-01	 9.550827311037382e-01
1	 1.414192413691095e+00	 5.414065399940700e-01	 6.181878712665345e-01
1	 1.401541698760657e+00	 5.733603501506621e-01	 2.806340822357519e-01
1	 1.388106100899888e+00	 6.051633474809135e-01	-5.728462378016130e-02
1	 1.373886015254333e+00	 6.367875953395814e-01	-3.953374854890093e-01
1	 1.494965581088705e+00	 3.187609191933800e-01	 2.789386413789583e+00
1	 1.487650118754204e+00	 3.513228378792086e-01	 2.475169115428329e+00
1	 1.479573221334619e+00	 3.839188650670807e-01	 2.157645180580123e+00
1	 1.470727162921215e+00	 4.165239782901008e-01	 1.837380656236347e+00
1	 1.461105247620661e+00	 4.491125333591415e-01	 1.514898697198229e+00
1	 1.450701858053695e+00	 4.816583138330074e-01	 1.190675277534220e+00
1	 1.439512501247167e+00	 5.141345845185119e-01	 8.651351152061203e-01
1	 1.427533851556106e+00	 5.465141488619385e-01	 5.386478567235710e-01
1	 1.414763790258398e+00	 5.787694100577438e-01	 2.115245680920262e-01
1	 1.401201441474416e+00	 6.108724356646956e-01	-1.159854229377935e-01
1	 1.386847204077487e+00	 6.427950254842945e-01	-4.436972902469037e-01
1	 1.508937222033459e+00	 3.217399932045332e-01	 2.646665740609369e+00
1	 1.501553390892094e+00	 3.546062288874254e-01	 2.341594665401034e+00
1	 1.493401008449896e+00	 3.875068918434086e-01	 2.033472366574479e+00
1	 1.484472276593376e+00	 4.204167257507561e-01	 1.722831559826035e+00
1	 1.474760436850760e+00	 4.533098467550212e-01	 1.410159966860464e+00
1	 1.464259819343916e+00	 4.861597934015401e-01	 1.095896133252874e+00
1	 1.452965889109290e+00	 5.189395806355074e-01	 7.804254780064813e-01
1	 1.440875289421116e+00	 5.516217577298071e-01	 4.640766215205622e-01
1	 1.427985881756140e+00	 5.841784699648255e-01	 1.471180378833581e-01
1	 1.414296782048943e+00	 6.165815238484779e-01	-1.702449240629682e-01
1	 1.399808392900641e+00	 6.488024556290075e-01	-4.878726085905337e-01
1	 1.522908862978213e+00	 3.247190672156862e-01	 2.510533210410462e+00
1	 1.515456663029983e+00	 3.578896198956423e-01	 2.214338489349737e+00
1	 1.507228795565173e+00	 3.910949186197364e-01	 1.915348666703137e+00
1	 1.498217390265536e+00	 4.243094732114112e-01	 1.614063469491038e+00
1	 1.488415626080860e+00	 4.575071601509011e-01	 1.310935584785260e+00
1	 1.477817780634138e+00	 4.906612729700729e-01	 1.006366585338170e+00
1	 1.466419276971413e+00	 5.237445767525029e-01	 7.007031050716965e-01
1	 1.454216727286126e+00	 5.567293665976758e-01	 3.942333109637821e-01
1	 1.441207973253882e+00	 5.895875298719072e-01	 8.718371686886844e-02
1	 1.427392122623470e+00	 6.222906120322600e-01	-2.202836168670423e-01
1	 1.412769581723795e+00	 6.548098857737206e-01	-5.280734565007308e-01
1	 1.536880503922968e+00	 3.276981412268393e-01	 2.380695334849250e+00
1	 1.529359935167873e+00	 3.611730109038592e-01	 2.093115090427882e+00
1	 1.521056582680450e+00	 3.946829453960644e-01	 1.802996849054638e+00
1	 1.511962503937697e+00	 4.282022206720662e-01	 1.510807684655838e+00
1	 1.502070815310960e+00	 4.617044735467811e-01	 1.216965639831777e+00
1	 1.491375741924359e+00	 4.951627525386056e-01	 9.218357606084409e-01
1	 1.479872664833536e+00	 5.285495728694983e-01	 6.257263988570984e-01
1	 1.467558165151136e+00	 5.618369754655443e-01	 3.288858287119991e-01
1	 1.454430064751624e+00	 5.949965897789888e-01	 3.149922211646361e-02
1	 1.440487463197997e+00	 6.279997002160423e-01	-2.663139732537106e-01
1	 1.425730770546949e+00	 6.608173159184335e-01	-5.645022130135657e-01
1	 1.296118882315409e+00	 6.007430144713033e-01	-4.485066771680757e-03
1	 1.281965214279104e+00	 6.303820396465493e-01	-4.164211132607548e-01
1	 1.267075881860162e+00	 6.597992392682079e-01	-8.399796569589042e-01
1	 1.251454969064823e+00	 6.889679142990441e-01	-1.274158603022121e+00
1	 1.235107827483028e+00	 7.178613940175128e-01	-1.717963918162570e+00
1	 1.218041083390269e+00	 7.464531101844722e-01	-2.170413779129445e+00
1	 1.200262639695199e+00	 7.747166722631734e-01	-2.630542611669670e+00
1	 1.181781672606443e+00	 8.026259432775211e-01	-3.097404984227612e+00
1	 1.162608622930107e+00	 8.301551158784557e-01	-3.570079321843234e+00
1	 1.142755181949402e+00	 8.572787881771037e-01	-4.047671407401314e+00
1	 1.122234271879162e+00	 8.839720388962876e-01	-4.529317639550753e+00
1	 1.309080071138563e+00	 6.067504446160162e-01	-8.283838363505674e-02
1	 1.294784866421895e+00	 6.366858600430149e-01	-4.827286623788310e-01
1	 1.279746640678763e+00	 6.663972316608902e-01	-8.942999412168658e-01
1	 1.263969518755471e+00	 6.958575934420344e-01	-1.316589194006673e+00
1	 1.247458905757858e+00	 7.250400079576877e-01	-1.748641112012669e+00
1	 1.230221494224172e+00	 7.539176412863171e-01	-2.189512089791056e+00
1	 1.212265266092151e+00	 7.824638389858052e-01	-2.638274102209445e+00
1	 1.193599489332507e+00	 8.106522027102963e-01	-3.094018438139199e+00
1	 1.174234709159408e+00	 8.384566670372404e-01	-3.555859257567795e+00
1	 1.154182733768895e+00	 8.658515760588743e-01	-4.022936940562027e+00
1	 1.133456614597953e+00	 8.928117592852505e-01	-4.494421198654863e+00
1	 1.322041259961716e+00	 6.127578747607294e-01	-1.555648254693936e-01
1	 1.307604518564686e+00	 6.429896804394803e-01	-5.437316077719313e-01
1	 1.292417399497365e+00	 6.729952240535723e-01	-9.436293447226023e-01
1	 1.276484068446120e+00	 7.027472725850251e-01	-1.354334412901738e+00
1	 1.259809984032689e+00	 7.322186218978631e-01	-1.774930598574256e+00
1	 1.242401905058074e+00	 7.613821723881616e-01	-2.204512916846881e+00
1	 1.224267892489103e+00	 7.902110057084371e-01	-2.642191322271206e+00
1	 1.205417306058571e+00	 8.186784621430717e-01	-3.087094277749285e+00
1	 1.185860795388709e+00	 8.467582181960245e-01	-3.538372149817858e+00
1	 1.165610285588389e+00	 8.744243639406458e-01	-3.995200400068780e+00
1	 1.144678957316745e+00	 9.016514796742134e-01	-4.456782544582203e+00
1	 1.335002448784871e+00	 6.187653049054423e-01	-2.229286535150206e-01
1	 1.320424170707476e+00	 6.492935008359457e-01	-5.996810352823753e-01
1	 1.305088158315966e+00	 6.795932164462539e-01	-9.882059994745075e-01
1	 1.288998618136768e+00	 7.096369517280152e-01	-1.387619645849471e+00
1	 1.272161062307519e+00	 7.393972358380383e-01	-1.797045211698783e+00
1	 1.254582315891977e+00	 7.688467034900063e-01	-2.215616720193887e+00
1	 1.236270518886055e+00	 7.979581724310687e-01	-2.642482520153282e+00
1	 1.217235122784636e+00	 8.267047215758466e-01	-3.076808685442125e+00
1	 1.197486881618010e+00	 8.550597693548092e-01	-3.517782243453574e+00
1	 1.177037837407883e+00	 8.829971518224162e-01	-3.964614203800876e+00
1	 1.155901300035536e+00	 9.104912000631761e-01	-4.416542360452078e+00
1	 1.347963637608025e+00	 6.247727350501554e-01	-2.851839651184390e-01
1	 1.333243822850268e+00	 6.555973212324112e-01	-6.508183736046766e-01
1	 1.317758917134568e+00	 6.861912088389360e-01	-1.028258878547896e+00
1	 1.301513167827416e+00	 7.165266308710059e-01	-1.416661610294296e+00
1	 1.284512140582349e+00	 7.465758497782133e-01	-1.815189599320327e+00
1	 1.266762726725879e+00	 7.763112345918509e-01	-2.223016249733086e+00
1	 1.248273145283007e+00	 8.057053391537005e-01	-2.639328703834747e+00
1	 1.229052939510700e+00	 8.347309810086222e-01	-3.063331067356398e+00
1	 1.209112967847312e+00	 8.633613205135937e-01	-3.494247466225073e+00
1	 1.188465389227377e+00	 8.915699397041872e-01	-3.931324907411570e+00
1	 1.167123642754328e+00	 9.193309204521392e-01	-4.373835918494579e+00
1	 1.360924826431179e+00	 6.307801651948685e-01	-3.425751777272089e-01
1	 1.346063474993059e+00	 6.619011416288769e-01	-6.973758541497775e-01
1	 1.330429675953170e+00	 6.927892012316184e-01	-1.064008232234344e+00
1	 1.314027717518065e+00	 7.234163100139962e-01	-1.441668767777977e+00
1	 1.296863218857180e+00	 7.537544637183885e-01	-1.829560613261186e+00
1	 1.278943137559783e+00	 7.837757656936957e-01	-2.226896912512091e+00
1	 1.260275771679959e+00	 8.134525058763322e-01	-2.632903985752701e+00
1	 1.240870756236765e+00	 8.427572404413971e-01	-3.046824376063638e+00
1	 1.220739054076613e+00	 8.716628716723784e-01	-3.467919729587324e+00
1	 1.199892941046871e+00	 9.001427275859587e-01	-3.895473483481526e+00
1	 1.178345985473120e+00	 9.281706408411020e-01	-4.328793337711971e+00
1	 1.373886015254333e+00	 6.367875953395814e-01	-3.953374854890093e-01
1	 1.358883127135850e+00	 6.682049620253423e-01	-7.395769448791234e-01
1	 1.343100434771771e+00	 6.993871936243004e-01	-1.095665999493634e+00
1	 1.326542267208712e+00	 7.303059891569865e-01	-1.462841713368993e+00
1	 1.309214297132010e+00	 7.609330776585637e-01	-1.840347676973021e+00
1	 1.291123548393686e+00	 7.912402967955404e-01	-2.227437119086115e+00
1	 1.272278398076911e+00	 8.211996725989640e-01	-2.623375908063545e+00
1	 1.252688572962829e+00	 8.507834998741723e-01	-3.027445414981685e+00
1	 1.232365140305914e+00	 8.799644228311629e-01	-3.438945212487488e+00
1	 1.211320492866365e+00	 9.087155154677291e-01	-3.857195584871417e+00
1	 1.189568328191911e+00	 9.370103612300648e-01	-4.281539826955502e+00
1	 1.386847204077487e+00	 6.427950254842945e-01	-4.436972902469037e-01
1	 1.371702779278641e+00	 6.745087824218076e-01	-7.776367598116904e-01
1	 1.355771193590373e+00	 7.059851860169823e-01	-1.123436196333763e+00
1	 1.339056816899361e+00	 7.371956682999771e-01	-1.480373543254804e+00
1	 1.321565375406840e+00	 7.681116915987388e-01	-1.847733132656906e+00
1	 1.303303959227588e+00	 7.987048278973852e-01	-2.224808610456970e+00
1	 1.284281024473862e+00	 8.289468393215954e-01	-2.610905749665502e+00
1	 1.264506389688894e+00	 8.588097593069473e-01	-3.005345125718427e+00
1	 1.243991226535215e+00	 8.882659739899472e-01	-3.407464629239198e+00
1	 1.222748044685859e+00	 9.172883033495005e-01	-3.816621793306938e+00
1	 1.200790670910703e+00	 9.458500816190278e-01	-4.232195914371734e+00
1	 1.399808392900641e+00	 6.488024556290075e-01	-4.878726085905337e-01
1	 1.384522431421432e+00	 6.808126028182733e-01	-8.117624457805597e-01
1	 1.368441952408974e+00	 7.125831784096643e-01	-1.147515282614315e+00
1	 1.351571366590009e+00	 7.440853474429676e-01	-1.494450201912164e+00
1	 1.333916453681670e+00	 7.752903055389139e-01	-1.851892569099169e+00
1	 1.315484370061490e+00	 8.061693589992297e-01	-2.219176766848575e+00
1	 1.296283650870814e+00	 8.366940060442271e-01	-2.595648816164295e+00
1	 1.276324206414958e+00	 8.668360187397227e-01	-2.980668859451765e+00
1	 1.255617312764516e+00	 8.965675251487321e-01	-3.373613482514878e+00
1	 1.234175596505353e+00	 9.258610912312717e-01	-3.773877854153601e+00
1	 1.212013013629494e+00	 9.546898020079905e-01	-4.180877664101772e+00
1	 1.412769581723795e+00	 6.548098857737206e-01	-5.280734565007308e-01
1	 1.397342083564223e+00	 6.871164232147388e-01	-8.421535479001862e-01
1	 1.381112711227576e+00	 7.191811708023466e-01	-1.168092508658715e+00
1	 1.364085916280657e+00	 7.509750265859578e-01	-1.505250810167345e+00
1	 1.346267531956501e+00	 7.824689194790889e-01	-1.852995131460836e+00
1	 1.327664780895393e+00	 8.136338901010746e-01	-2.210700899485826e+00
1	 1.308286277267767e+00	 8.444411727668589e-01	-2.577754713877347e+00
1	 1.288142023141023e+00	 8.748622781724978e-01	-2.953556633371470e+00
1	 1.267243398993817e+00	 9.048690763075167e-01	-3.337522302411778e+00
1	 1.245603148324847e+00	 9.344338791130424e-01	-3.729084898268035e+00
1	 1.223235356348286e+00	 9.635295223969533e-01	-4.127696881052157e+00
1	 1.425730770546949e+00	 6.608173159184335e-01	-5.645022130135657e-01
1	 1.410161735707014e+00	 6.934202436112044e-01	-8.690023550990104e-01
1	 1.393783470046178e+00	 7.257791631950287e-01	-1.185350242960474e+00
1	 1.376600465971305e+00	 7.578647057289485e-01	-1.512947975362007e+00
1	 1.358618610231331e+00	 7.896475334192641e-01	-1.851203814169894e+00
1	 1.339845191729296e+00	 8.210984212029193e-01	-2.199534526458161e+00
1	 1.320288903664719e+00	 8.521883394894908e-01	-2.557367608892354e+00
1	 1.299959839867087e+00	 8.828885376052731e-01	-2.924143373133129e+00
1	 1.278869485223118e+00	 9.131706274663013e-01	-3.299316872478177e+00
1	 1.257030700144342e+00	 9.430066669948136e-01	-3.682359651748466e+00
1	 1.234457699067077e+00	 9.723692427859159e-01	-4.072761304496509e+00
1	 1.122234271879162e+00	 8.839720388962876e-01	-4.529317639550753e+00
1	 1.101060020930392e+00	 9.102105013893090e-01	-5.015603185346187e+00
1	 1.079247733062707e+00	 9.359704360767072e-01	-5.506791113043404e+00
1	 1.056813852545254e+00	 9.612288008580839e-01	-6.001542496322443e+00
1	 1.033775923488758e+00	 9.859633190669812e-01	-6.498500838510057e+00
1	 1.010152544552211e+00	 1.010152544552211e+00	-6.996298491948481e+00
1	 9.859633190669811e-01	 1.033775923488758e+00	-7.493563171874115e+00
1	 9.612288008580840e-01	 1.056813852545254e+00	-7.988924510957207e+00
1	 9.359704360767074e-01	 1.079247733062706e+00	-8.481020600098269e+00
1	 9.102105013893093e-01	 1.101060020930392e+00	-8.968504461230200e+00
1	 8.839720388962875e-01	 1.122234271879162e+00	-9.450050398730495e+00
1	 1.133456614597953e+00	 8.928117592852505e-01	-4.494421198654863e+00
1	 1.112070621139696e+00	 9.193126064032021e-01	-4.970803282248057e+00
1	 1.090040210393333e+00	 9.453301404374740e-01	-5.452256123871916e+00
1	 1.067381991070706e+00	 9.708410888666645e-01	-5.937477878728567e+00
1	 1.044113682723645e+00	 9.958229522576511e-01	-6.425147894678016e+00
1	 1.020254069997733e+00	 1.020254069997733e+00	-6.913933017810669e+00
1	 9.958229522576508e-01	 1.044113682723645e+00	-7.402494002100793e+00
1	 9.708410888666648e-01	 1.067381991070707e+00	-7.889491969973221e+00
1	 9.453301404374745e-01	 1.090040210393333e+00	-8.373594869948848e+00
1	 9.193126064032022e-01	 1.112070621139695e+00	-8.853483877567648e+00
1	 8.928117592852507e-01	 1.133456614597953e+00	-9.327859686522080e+00
1	 1.144678957316745e+00	 9.016514796742134e-01	-4.456782544582203e+00
1	 1.123081221348999e+00	 9.284147114170951e-01	-4.923515866280870e+00
1	 1.100832687723960e+00	 9.546898447982411e-01	-5.395478924503437e+00
1	 1.077950129596159e+00	 9.804533768752455e-01	-5.871400664535011e+00
1	 1.054451441958533e+00	 1.005682585448321e+00	-6.349989349822776e+00
1	 1.030355595443255e+00	 1.030355595443255e+00	-6.829938803821849e+00
1	 1.005682585448321e+00	 1.054451441958533e+00	-7.309934770808232e+00
1	 9.804533768752451e-01	 1.077950129596159e+00	-7.788661342661174e+00
1	 9.546898447982416e-01	 1.100832687723960e+00	-8.264807397780350e+00
1	 9.284147114170953e-01	 1.123081221348999e+00	-8.737072998166330e+00
1	 9.016514796742131e-01	 1.144678957316745e+00	-9.204175691262728e+00
1	 1.155901300035536e+00	 9.104912000631761e-01	-4.416542360452078e+00
1	 1.134091821558303e+00	 9.375168164309883e-01	-4.873868488203615e+00
1	 1.111625165054588e+00	 9.640495491590083e-01	-5.336571161411472e+00
1	 1.088518268121612e+00	 9.900656648838261e-01	-5.803403988406124e+00
1	 1.064789201193421e+00	 1.015542218638991e+00	-6.273097396163710e+00
1	 1.040457120888777e+00	 1.040457120888777e+00	-6.744364857720123e+00
1	 1.015542218638990e+00	 1.064789201193420e+00	-7.215909258676073e+00
1	 9.900656648838260e-01	 1.088518268121612e+00	-7.686429349462647e+00
1	 9.640495491590085e-01	 1.111625165054588e+00	-8.154626228968544e+00
1	 9.375168164309888e-01	 1.134091821558303e+00	-8.619209804775679e+00
1	 9.104912000631760e-01	 1.155901300035536e+00	-9.078905175613604e+00
1	 1.167123642754328e+00	 9.193309204521392e-01	-4.373835918494579e+00
1	 1.145102421767607e+00	 9.466189214448812e-01	-4.821983792976878e+00
1	 1.122417642385215e+00	 9.734092535197754e-01	-5.275640186974369e+00
1	 1.099086406647064e+00	 9.996779528924072e-01	-5.733577402903776e+00
1	 1.075126960428308e+00	 1.025401851829660e+00	-6.194541449296490e+00
1	 1.050558646334299e+00	 1.050558646334299e+00	-6.657258302330511e+00
1	 1.025401851829661e+00	 1.075126960428308e+00	-7.120440331742405e+00
1	 9.996779528924071e-01	 1.099086406647064e+00	-7.582792836956235e+00
1	 9.734092535197755e-01	 1.122417642385215e+00	-8.043020637913289e+00
1	 9.466189214448816e-01	 1.145102421767607e+00	-8.499834664462504e+00
1	 9.193309204521390e-01	 1.167123642754328e+00	-8.951958488287332e+00
1	 1.178345985473120e+00	 9.281706408411020e-01	-4.328793337711971e+00
1	 1.156113021976911e+00	 9.557210264587743e-01	-4.767979753372234e+00
1	 1.133210119715842e+00	 9.827689578805423e-01	-5.212789263956053e+00
1	 1.109654545172517e+00	 1.009290240900988e+00	-5.662007049063673e+00
1	 1.085464719663195e+00	 1.035261485020330e+00	-6.114388280413059e+00
1	 1.060660171779821e+00	 1.060660171779821e+00	-6.568664465322932e+00
1	 1.035261485020330e+00	 1.085464719663195e+00	-7.023549984958162e+00
1	 1.009290240900988e+00	 1.109654545172517e+00	-7.477748771850680e+00
1	 9.827689578805424e-01	 1.133210119715841e+00	-7.929961069513465e+00
1	 9.557210264587747e-01	 1.156113021976911e+00	-8.378890216024386e+00
1	 9.281706408411020e-01	 1.178345985473120e+00	-8.823249393283680e+00
1	 1.189568328191911e+00	 9.370103612300648e-01	-4.281539826955502e+00
1	 1.167123622186215e+00	 9.648231314726673e-01	-4.711969890358530e+00
1	 1.144002597046469e+00	 9.921286622413095e-01	-5.148117758412400e+00
1	 1.120222683697969e+00	 1.018902528909569e+00	-5.588775817316455e+00
1	 1.095802478898083e+00	 1.045121118211000e+00	-6.032702141037728e+00
1	 1.070761697225343e+00	 1.070761697225343e+00	-6.478626963889057e+00
1	 1.045121118211000e+00	 1.095802478898083e+00	-6.925259383276162e+00
1	 1.018902528909569e+00	 1.120222683697969e+00	-7.371294235318670e+00
1	 9.921286622413097e-01	 1.144002597046469e+00	-7.815419083954779e+00
1	 9.648231314726675e-01	 1.167123622186215e+00	-8.256321262832548e+00
1	 9.370103612300645e-01	 1.189568328191911e+00	-8.692694908791159e+00
1	 1.200790670910703e+00	 9.458500816190278e-01	-4.232195914371734e+00
1	 1.178134222395519e+00	 9.739252364865605e-01	-4.654063481130159e+00
1	 1.154795074377095e+00	 1.001488366602076e+00	-5.081721321780380e+00
1	 1.130790822223422e+00	 1.028514816918149e+00	-5.513963499384944e+00
1	 1.106140238132971e+00	 1.054980751401670e+00	-5.949544880768733e+00
1	 1.080863222670865e+00	 1.080863222670865e+00	-6.387187784671460e+00
1	 1.054980751401670e+00	 1.106140238132971e+00	-6.825588900436021e+00
1	 1.028514816918149e+00	 1.130790822223422e+00	-7.263426417647888e+00
1	 1.001488366602077e+00	 1.154795074377096e+00	-7.699367304593583e+00
1	 9.739252364865609e-01	 1.178134222395519e+00	-8.132074671683664e+00
1	 9.458500816190276e-01	 1.200790670910703e+00	-8.560215155122025e+00
1	 1.212013013629494e+00	 9.546898020079905e-01	-4.180877664101772e+00
1	 1.189144822604823e+00	 9.830273415004536e-01	-4.594365755577963e+00
1	 1.165587551707723e+00	 1.010848070962844e+00	-5.013692062851085e+00
1	 1.141358960748874e+00	 1.038127104926730e+00	-5.437646931743073e+00
1	 1.116477997367858e+00	 1.064840384592340e+00	-5.864976058478400e+00
1	 1.090964748116387e+00	 1.090964748116387e+00	-6.294387359251813e+00
1	 1.064840384592340e+00	 1.116477997367858e+00	-6.724558155594329e+00
1	 1.038127104926731e+00	 1.141358960748874e+00	-7.154142613189501e+00
1	 1.010848070962844e+00	 1.165587551707723e+00	-7.581779368735962e+00
1	 9.830273415004539e-01	 1.189144822604823e+00	-8.006099277270781e+00
1	 9.546898020079907e-01	 1.212013013629495e+00	-8.425733211095471e+00
1	 1.223235356348286e+00	 9.635295223969533e-01	-4.127696881052157e+00
1	 1.200155422814127e+00	 9.921294465143466e-01	-4.532978081945408e+00
1	 1.176380029038349e+00	 1.020207775323611e+00	-4.944118710276573e+00
1	 1.151927099274327e+00	 1.047739392935311e+00	-5.359900131177668e+00
1	 1.126815756602746e+00	 1.074700017783009e+00	-5.779053047392369e+00
1	 1.101066273561909e+00	 1.101066273561909e+00	-6.200264635483980e+00
1	 1.074700017783009e+00	 1.126815756602746e+00	-6.622186047938750e+00
1	 1.047739392935311e+00	 1.151927099274327e+00	-7.043440215584476e+00
1	 1.020207775323611e+00	 1.176380029038349e+00	-7.462629881126388e+00
1	 9.921294465143470e-01	 1.200155422814127e+00	-7.878345791912835e+00
1	 9.635295223969534e-01	 1.223235356348286e+00	-8.289174978326395e+00
1	 1.234457699067077e+00	 9.723692427859159e-01	-4.072761304496509e+00
1	 1.211166023023431e+00	 1.001231551528240e+00	-4.469998142358064e+00
1	 1.187172506368977e+00	 1.029567479684378e+00	-4.873086766212417e+00
1	 1.162495237799779e+00	 1.057351680943892e+00	-5.280794422955950e+00
1	 1.137153515837634e+00	 1.084559650973679e+00	-5.691831134437177e+00
1	 1.111167799007432e+00	 1.111167799007432e+00	-6.104857144936329e+00
1	 1.084559650973679e+00	 1.137153515837633e+00	-6.518490789413685e+00
1	 1.057351680943892e+00	 1.162495237799779e+00	-6.931316713250463e+00
1	 1.029567479684378e+00	 1.187172506368976e+00	-7.341894369973066e+00
1	 1.001231551528240e+00	 1.211166023023430e+00	-7.748766720208189e+00
1	 9.723692427859164e-01	 1.234457699067078e+00	-8.150469052916323e+00
1	 8.839720388962875e-01	 1.122234271879162e+00	-9.450050398730498e+00
1	 8.572787881771033e-01	 1.142755181949402e+00	-9.923953657165146e+00
1	 8.301551158784558e-01	 1.162608622930107e+00	-1.038865498552719e+01
1	 8.026259432775211e-01	 1.181781672606442e+00	-1.084307574080956e+01
1	 7.747166722631738e-01	 1.200262639695199e+00	-1.128615442189319e+01
1	 7.464531101844724e-01	 1.218041083390269e+00	-1.171685279153161e+01
1	 7.178613940175135e-01	 1.235107827483028e+00	-1.213416179962650e+01
1	 6.889679142990445e-01	 1.251454969064822e+00	-1.253710725806620e+01
1	 6.597992392682085e-01	 1.267075881860161e+00	-1.292475522095704e+01
1	 6.303820396465504e-01	 1.281965214279103e+00	-1.329621702817222e+01
1	 6.007430144713030e-01	 1.296118882315408e+00	-1.365065397468637e+01
1	 8.928117592852507e-01	 1.133456614597953e+00	-9.327859686522082e+00
1	 8.658515760588741e-01	 1.154182733768895e+00	-9.794971856611472e+00
1	 8.384566670372403e-01	 1.174234709159408e+00	-1.025321315342310e+01
1	 8.106522027102964e-01	 1.193599489332507e+00	-1.070152390453326e+01
1	 7.824638389858054e-01	 1.212265266092150e+00	-1.113885812437148e+01
1	 7.539176412863172e-01	 1.230221494224171e+00	-1.156418970005640e+01
1	 7.250400079576885e-01	 1.247458905757858e+00	-1.197651840200084e+01
1	 6.958575934420352e-01	 1.263969518755471e+00	-1.237487566803517e+01
1	 6.663972316608908e-01	 1.279746640678763e+00	-1.275833011316069e+01
1	 6.366858600430156e-01	 1.294784866421894e+00	-1.312599272096618e+01
1	 6.067504446160161e-01	 1.309080071138563e+00	-1.347702167714847e+01
1	 9.016514796742131e-01	 1.144678957316745e+00	-9.204175691262728e+00
1	 8.744243639406456e-01	 1.165610285588389e+00	-9.664312332949994e+00
1	 8.467582181960247e-01	 1.185860795388709e+00	-1.011583804308164e+01
1	 8.186784621430718e-01	 1.205417306058571e+00	-1.055772959128410e+01
1	 7.902110057084374e-01	 1.224267892489103e+00	-1.098897534823223e+01
1	 7.613821723881621e-01	 1.242401905058074e+00	-1.140858135793442e+01
1	 7.322186218978637e-01	 1.259809984032688e+00	-1.181557725180430e+01
1	 7.027472725850255e-01	 1.276484068446119e+00	-1.220902195363540e+01
1	 6.729952240535729e-01	 1.292417399497365e+00	-1.258800912776612e+01
1	 6.429896804394812e-01	 1.307604518564685e+00	-1.295167232645633e+01
1	 6.127578747607291e-01	 1.322041259961716e+00	-1.329918979672157e+01
1	 9.104912000631760e-01	 1.155901300035536e+00	-9.078905175613604e+00
1	 8.829971518224164e-01	 1.177037837407884e+00	-9.531853877433676e+00
1	 8.550597693548094e-01	 1.197486881618010e+00	-9.976387621203594e+00
1	 8.267047215758470e-01	 1.217235122784636e+00	-1.041153655141744e+01
1	 7.979581724310690e-01	 1.236270518886055e+00	-1.083634167227387e+01
1	 7.688467034900066e-01	 1.254582315891977e+00	-1.124986063189731e+01
1	 7.393972358380387e-01	 1.272161062307518e+00	-1.165117335899443e+01
1	 7.096369517280160e-01	 1.288998618136767e+00	-1.203938750329150e+01
1	 6.795932164462547e-01	 1.305088158315966e+00	-1.241364363408782e+01
1	 6.492935008359467e-01	 1.320424170707476e+00	-1.277312015478435e+01
1	 6.187653049054422e-01	 1.335002448784871e+00	-1.311703789524965e+01
1	 9.193309204521390e-01	 1.167123642754328e+00	-8.951958488287332e+00
1	 8.915699397041873e-01	 1.188465389227377e+00	-9.397479943190264e+00
1	 8.633613205135939e-01	 1.209112967847312e+00	-9.834725317309063e+00
1	 8.347309810086225e-01	 1.229052939510700e+00	-1.026279454489044e+01
1	 8.057053391537007e-01	 1.248273145283006e+00	-1.068079899918713e+01
1	 7.763112345918516e-01	 1.266762726725880e+00	-1.108786681687942e+01
1	 7.465758497782141e-01	 1.284512140582349e+00	-1.148314807929946e+01
1	 7.165266308710065e-01	 1.301513167827415e+00	-1.186581980587327e+01
1	 6.861912088389368e-01	 1.317758917134567e+00	-1.223509071800505e+01
1	 6.555973212324122e-01	 1.333243822850267e+00	-1.259020573493269e+01
1	 6.247727350501552e-01	 1.347963637608025e+00	-1.293045016681336e+01
1	 9.281706408411020e-01	 1.178345985473120e+00	-8.823249393283684e+00
1	 9.001427275859586e-01	 1.199892941046871e+00	-9.261078423228472e+00
1	 8.716628716723785e-01	 1.220739054076613e+00	-9.690719763602988e+00
1	 8.427572404413972e-01	 1.240870756236764e+00	-1.011135905509038e+01
1	 8.134525058763323e-01	 1.260275771679958e+00	-1.052219525441741e+01
1	 7.837757656936962e-01	 1.278943137559783e+00	-1.092244532991267e+01
1	 7.537544637183889e-01	 1.296863218857179e+00	-1.131134881203913e+01
1	 7.234163100139969e-01	 1.314027717518063e+00	-1.168817216019833e+01
1	 6.927892012316189e-01	 1.330429675953169e+00	-1.205221290974468e+01
1	 6.619011416288779e-01	 1.346063474993059e+00	-1.240280356620816e+01
1	 6.307801651948685e-01	 1.360924826431180e+00	-1.273931521714744e+01
1	 9.370103612300645e-01	 1.189568328191911e+00	-8.692694908791157e+00
1	 9.087155154677293e-01	 1.211320492866365e+00	-9.122541441009457e+00
1	 8.799644228311632e-01	 1.232365140305914e+00	-9.544244549565686e+00
1	 8.507834998741728e-01	 1.252688572962829e+00	-9.957091018861652e+00
1	 8.211996725989641e-01	 1.272278398076910e+00	-1.036038410207249e+01
1	 7.912402967955408e-01	 1.291123548393684e+00	-1.075344742134869e+01
1	 7.609330776585642e-01	 1.309214297132009e+00	-1.113562871504922e+01
1	 7.303059891569875e-01	 1.326542267208712e+00	-1.150630340097795e+01
1	 6.993871936243012e-01	 1.343100434771771e+00	-1.186487792707191e+01
1	 6.682049620253433e-01	 1.358883127135849e+00	-1.221079288379293e+01
1	 6.367875953395813e-01	 1.373886015254333e+00	-1.254352585554378e+01
1	 9.458500816190276e-01	 1.200790670910703e+00	-8.560215155122025e+00
1	 9.172883033495004e-01	 1.222748044685859e+00	-8.981765152762105e+00
1	 8.882659739899476e-01	 1.243991226535214e+00	-9.395177990304239e+00
1	 8.588097593069477e-01	 1.264506389688894e+00	-9.799856571671272e+00
1	 8.289468393215963e-01	 1.284281024473862e+00	-1.019522467676092e+01
1	 7.987048278973854e-01	 1.303303959227587e+00	-1.058072990227353e+01
1	 7.681116915987394e-01	 1.321565375406839e+00	-1.095584643559235e+01
1	 7.371956682999777e-01	 1.339056816899360e+00	-1.132007764013052e+01
1	 7.059851860169833e-01	 1.355771193590372e+00	-1.167295843288254e+01
1	 6.745087824218086e-01	 1.371702779278640e+00	-1.201405743744162e+01
1	 6.427950254842943e-01	 1.386847204077487e+00	-1.234297889842356e+01
1	 9.546898020079907e-01	 1.212013013629495e+00	-8.425733211095471e+00
1	 9.258610912312716e-01	 1.234175596505353e+00	-8.838649560781043e+00
1	 8.965675251487322e-01	 1.255617312764516e+00	-9.243402907773808e+00
1	 8.668360187397230e-01	 1.276324206414958e+00	-9.639526806931990e+00
1	 8.366940060442277e-01	 1.296283650870814e+00	-1.002658133032777e+01
1	 8.061693589992303e-01	 1.315484370061490e+00	-1.040415488706640e+01
1	 7.752903055389145e-01	 1.333916453681670e+00	-1.077186585621765e+01
1	 7.440853474429683e-01	 1.351571366590008e+00	-1.112936402246625e+01
1	 7.125831784096652e-01	 1.368441952408973e+00	-1.147633180626113e+01
1	 6.808126028182739e-01	 1.384522431421431e+00	-1.181248528247374e+01
1	 6.488024556290073e-01	 1.399808392900641e+00	-1.213757498382206e+01
1	 9.635295223969534e-01	 1.223235356348286e+00	-8.289174978326395e+00
1	 9.344338791130427e-01	 1.245603148324847e+00	-8.693098337001368e+00
1	 9.048690763075167e-01	 1.267243398993816e+00	-9.088806424041111e+00
1	 8.748622781724982e-01	 1.288142023141022e+00	-9.475977548573438e+00
1	 8.444411727668591e-01	 1.308286277267766e+00	-9.854323392532296e+00
1	 8.136338901010751e-01	 1.327664780895393e+00	-1.022358955012926e+01
1	 7.824689194790896e-01	 1.346267531956500e+00	-1.058355585461001e+01
1	 7.509750265859586e-01	 1.364085916280657e+00	-1.093403649482071e+01
1	 7.191811708023473e-01	 1.381112711227575e+00	-1.127487992614248e+01
1	 6.871164232147396e-01	 1.397342083564222e+00	-1.160596858227023e+01
1	 6.548098857737203e-01	 1.412769581723795e+00	-1.192721839608507e+01
1	 9.723692427859164e-01	 1.234457699067078e+00	-8.150469052916323e+00
1	 9.430066669948137e-01	 1.257030700144342e+00	-8.545018656196964e+00
1	 9.131706274663016e-01	 1.278869485223118e+00	-8.931279765825071e+00
1	 8.828885376052734e-01	 1.299959839867087e+00	-9.309089136018779e+00
1	 8.521883394894909e-01	 1.320288903664719e+00	-9.678324944778650e+00
1	 8.210984212029198e-01	 1.339845191729296e+00	-1.003890589588584e+01
1	 7.896475334192649e-01	 1.358618610231331e+00	-1.039079007653861e+01
1	 7.578647057289489e-01	 1.376600465971305e+00	-1.073397358778092e+01
1	 7.257791631950296e-01	 1.393783470046177e+00	-1.106848896677292e+01
1	 6.934202436112055e-01	 1.410161735707014e+00	-1.139440342154374e+01
1	 6.608173159184336e-01	 1.425730770546950e+00	-1.171181690012770e+01
1	 6.007430144713030e-01	 1.296118882315408e+00	-1.365065397468637e+01
1	 5.709088183782203e-01	 1.309534057452725e+00	-1.398681287493928e+01
1	 5.409059907081718e-01	 1.322209149774204e+00	-1.430399387951047e+01
1	 5.107608867868586e-01	 1.334143786501033e+00	-1.460225506210726e+01
1	 4.804996116995442e-01	 1.345338786212305e+00	-1.488168944520360e+01
1	 4.501479568532782e-01	 1.355796129022144e+00	-1.514242406112118e+01
1	 4.197313395879832e-01	 1.365518923009963e+00	-1.538461888739639e+01
1	 3.892747460655154e-01	 1.374511367216089e+00	-1.560846566662307e+01
1	 3.588026776327866e-01	 1.382778711527682e+00	-1.581418662152612e+01
1	 3.283391008216911e-01	 1.390327213788976e+00	-1.600203307645488e+01
1	 2.979074011153085e-01	 1.397164094475425e+00	-1.617228399678461e+01
1	 6.067504446160161e-01	 1.309080071138563e+00	-1.347702167714847e+01
1	 5.766179065620025e-01	 1.322629398027252e+00	-1.381015898247194e+01
1	 5.463150506152535e-01	 1.335431241271946e+00	-1.412480023826221e+01
1	 5.158684956547273e-01	 1.347485224366044e+00	-1.442114760232044e+01
1	 4.853046078165397e-01	 1.358792174074429e+00	-1.469943564523493e+01
1	 4.546494364218110e-01	 1.369354090312366e+00	-1.495992936306846e+01
1	 4.239286529838629e-01	 1.379174112240062e+00	-1.520292212800369e+01
1	 3.931674935261704e-01	 1.388256480888249e+00	-1.542873359361450e+01
1	 3.623907044091144e-01	 1.396606498642958e+00	-1.563770757093774e+01
1	 3.316224918299081e-01	 1.404230485926865e+00	-1.583020989087365e+01
1	 3.008864751264616e-01	 1.411135735420179e+00	-1.600662626767029e+01
1	 6.127578747607291e-01	 1.322041259961716e+00	-1.329918979672158e+01
1	 5.823269947457845e-01	 1.335724738601779e+00	-1.362932419459465e+01
1	 5.517241105223354e-01	 1.348653332769689e+00	-1.394156356736532e+01
1	 5.209761045225958e-01	 1.360826662231054e+00	-1.423623421888803e+01
1	 4.901096039335350e-01	 1.372245561936551e+00	-1.451369183763286e+01
1	 4.591509159903437e-01	 1.382912051602587e+00	-1.477431862517884e+01
1	 4.281259663797430e-01	 1.392829301470162e+00	-1.501852042242772e+01
1	 3.970602409868257e-01	 1.402001594560410e+00	-1.524672385541833e+01
1	 3.659787311854421e-01	 1.410434285758235e+00	-1.545937352118191e+01
1	 3.349058828381249e-01	 1.418133758064755e+00	-1.565692923248407e+01
1	 3.038655491376146e-01	 1.425107376364933e+00	-1.583986333857697e+01
1	 6.187653049054422e-01	 1.335002448784871e+00	-1.311703789524965e+01
1	 5.880360829295668e-01	 1.348820079176306e+00	-1.344420193432539e+01
1	 5.571331704294170e-01	 1.361875424267430e+00	-1.375418689654089e+01
1	 5.260837133904646e-01	 1.374168100096065e+00	-1.404742390273938e+01
1	 4.949146000505306e-01	 1.385698949798674e+00	-1.432436994231177e+01
1	 4.636523955588766e-01	 1.396470012892809e+00	-1.458550427888254e+01
1	 4.323232797756227e-01	 1.406484490700262e+00	-1.483132490965131e+01
1	 4.009529884474808e-01	 1.415746708232571e+00	-1.506234510423385e+01
1	 3.695667579617701e-01	 1.424262072873512e+00	-1.527909004657580e+01
1	 3.381892738463418e-01	 1.432037030202645e+00	-1.548209360108750e+01
1	 3.068446231487678e-01	 1.439079017309688e+00	-1.567189522161143e+01
1	 6.247727350501552e-01	 1.347963637608025e+00	-1.293045016681336e+01
1	 5.937451711133491e-01	 1.361915419750834e+00	-1.325468972379700e+01
1	 5.625422303364987e-01	 1.375097515765172e+00	-1.356257698513620e+01
1	 5.311913222583332e-01	 1.387509537961075e+00	-1.385462914515252e+01
1	 4.997195961675259e-01	 1.399152337660797e+00	-1.413138526688152e+01
1	 4.681538751274092e-01	 1.410027974183030e+00	-1.439340212363180e+01
1	 4.365205931715027e-01	 1.420139679930362e+00	-1.464125014638871e+01
1	 4.048457359081360e-01	 1.429491821904732e+00	-1.487550950563749e+01
1	 3.731547847380980e-01	 1.438089859988789e+00	-1.509676635319377e+01
1	 3.414726648545588e-01	 1.445940302340534e+00	-1.530560924649287e+01
1	 3.098236971599208e-01	 1.453050658254442e+00	-1.550262577456855e+01
1	 6.307801651948685e-01	 1.360924826431180e+00	-1.273931521714744e+01
1	 5.994542592971314e-01	 1.375010760325361e+00	-1.306068898906104e+01
1	 5.679512902435805e-01	 1.388319607262914e+00	-1.336664414452329e+01
1	 5.362989311262015e-01	 1.400850975826085e+00	-1.365776577107112e+01
1	 5.045245922845213e-01	 1.412605725522921e+00	-1.393465634532876e+01
1	 4.726553546959421e-01	 1.423585935473252e+00	-1.419793116651875e+01
1	 4.407179065673824e-01	 1.433794869160461e+00	-1.444821394433638e+01
1	 4.087384833687913e-01	 1.443236935576893e+00	-1.468613257127891e+01
1	 3.767428115144258e-01	 1.451917647104065e+00	-1.491231510592614e+01
1	 3.447560558627756e-01	 1.459843574478424e+00	-1.512738598994498e+01
1	 3.128027711710739e-01	 1.467022299199197e+00	-1.533196251780341e+01
1	 6.367875953395813e-01	 1.373886015254333e+00	-1.254352585554378e+01
1	 6.051633474809133e-01	 1.388106100899889e+00	-1.286210487594055e+01
1	 5.733603501506623e-01	 1.401541698760656e+00	-1.316630207055082e+01
1	 5.414065399940703e-01	 1.414192413691095e+00	-1.345675278185611e+01
1	 5.093295884015170e-01	 1.426059113385044e+00	-1.373410478582922e+01
1	 4.771568342644750e-01	 1.437143896763473e+00	-1.399901347097155e+01
1	 4.449152199632624e-01	 1.447450058390561e+00	-1.425213721663637e+01
1	 4.126312308294463e-01	 1.456982049249054e+00	-1.449413300104745e+01
1	 3.803308382907538e-01	 1.465745434219343e+00	-1.472565226532806e+01
1	 3.480394468709926e-01	 1.473746846616314e+00	-1.494733705566049e+01
1	 3.157818451822270e-01	 1.480993940143951e+00	-1.515981646146904e+01
1	 6.427950254842943e-01	 1.386847204077487e+00	-1.234297889842356e+01
1	 6.108724356646957e-01	 1.401201441474416e+00	-1.265884607620935e+01
1	 5.787694100577438e-01	 1.414763790258398e+00	-1.296146768539083e+01
1	 5.465141488619386e-01	 1.427533851556105e+00	-1.325151220685487e+01
1	 5.141345845185123e-01	 1.439512501247167e+00	-1.352965512709436e+01
1	 4.816583138330077e-01	 1.450701858053694e+00	-1.379657401393535e+01
1	 4.491125333591421e-01	 1.461105247620660e+00	-1.405294383294871e+01
1	 4.165239782901014e-01	 1.470727162921214e+00	-1.429943253408884e+01
1	 3.839188650670816e-01	 1.479573221334619e+00	-1.453669693361593e+01
1	 3.513228378792095e-01	 1.487650118754204e+00	-1.476537891181064e+01
1	 3.187609191933802e-01	 1.494965581088705e+00	-1.498610194244175e+01
1	 6.488024556290073e-01	 1.399808392900641e+00	-1.213757498382207e+01
1	 6.165815238484779e-01	 1.414296782048943e+00	-1.245082466342721e+01
1	 5.841784699648256e-01	 1.427985881756140e+00	-1.275206098817195e+01
1	 5.516217577298074e-01	 1.440875289421115e+00	-1.304196896321684e+01
1	 5.189395806355078e-01	 1.452965889109289e+00	-1.332123470269793e+01
1	 4.861597934015404e-01	 1.464259819343916e+00	-1.359054055098656e+01
1	 4.533098467550220e-01	 1.474760436850760e+00	-1.385056048257563e+01
1	 4.204167257507567e-01	 1.484472276593376e+00	-1.410195580809899e+01
1	 3.875068918434094e-01	 1.493401008449896e+00	-1.434537120922051e+01
1	 3.546062288874263e-01	 1.501553390892093e+00	-1.458143112033803e+01
1	 3.217399932045332e-01	 1.508937222033459e+00	-1.481073647030608e+01
1	 6.548098857737203e-01	 1.412769581723795e+00	-1.192721839608507e+01
1	 6.222906120322599e-01	 1.427392122623470e+00	-1.223795593781237e+01
1	 5.895875298719073e-01	 1.441207973253882e+00	-1.253800491383458e+01
1	 5.567293665976759e-01	 1.454216727286126e+00	-1.282805072342530e+01
1	 5.237445767525033e-01	 1.466419276971413e+00	-1.310877351287173e+01
1	 4.906612729700732e-01	 1.477817780634137e+00	-1.338084348887343e+01
1	 4.575071601509016e-01	 1.488415626080859e+00	-1.364491654512016e+01
1	 4.243094732114117e-01	 1.498217390265536e+00	-1.390163022636301e+01
1	 3.910949186197373e-01	 1.507228795565172e+00	-1.415160004934558e+01
1	 3.578896198956433e-01	 1.515456663029984e+00	-1.439541619504064e+01
1	 3.247190672156863e-01	 1.522908862978213e+00	-1.463364058181777e+01
1	 6.608173159184336e-01	 1.425730770546950e+00	-1.171181690012770e+01
1	 6.279997002160421e-01	 1.440487463197997e+00	-1.202015827957510e+01
1	 5.949965897789892e-01	 1.454430064751624e+00	-1.231922519968495e+01
1	 5.618369754655447e-01	 1.467558165151136e+00	-1.260968779005509e+01
1	 5.285495728694986e-01	 1.479872664833536e+00	-1.289220410329347e+01
1	 4.951627525386059e-01	 1.491375741924358e+00	-1.316741576500782e+01
1	 4.617044735467815e-01	 1.502070815310959e+00	-1.343594396819990e+01
1	 4.282022206720670e-01	 1.511962503937697e+00	-1.369838583204651e+01
1	 3.946829453960652e-01	 1.521056582680450e+00	-1.395531114002406e+01
1	 3.611730109038602e-01	 1.529359935167873e+00	-1.420725946739649e+01
1	 3.276981412268394e-01	 1.536880503922968e+00	-1.445473770330515e+01
1	 2.979074011153085e-01	 1.397164094475425e+00	-1.617228399678461e+01
1	 2.675303405770418e-01	 1.403297489273513e+00	-1.632559851187775e+01
1	 2.372300194073238e-01	 1.408736399906886e+00	-1.646039746587293e+01
1	 2.070278414616596e-01	 1.413490643545382e+00	-1.657370366359469e+01
1	 1.769444837342633e-01	 1.417570801126571e+00	-1.666266459750425e+01
1	 1.469998697837135e-01	 1.420988164909963e+00	-1.672457090123088e+01
1	 1.172131470510590e-01	 1.423754685572272e+00	-1.675687277410280e+01
1	 8.760266799682477e-02	 1.425882919138332e+00	-1.675719435151089e+01
1	 5.818597496152627e-02	 1.427385974026783e+00	-1.672334601874766e+01
1	 2.897978863468519e-02	 1.428277458472723e+00	-1.665333468714006e+01
1	 0.000000000000000e+00	 1.428571428571429e+00	-1.654537207066472e+01
1	 3.008864751264616e-01	 1.411135735420179e+00	-1.600662626767029e+01
1	 2.702056439828123e-01	 1.417330464166248e+00	-1.616757007392706e+01
1	 2.396023196013971e-01	 1.422823763905955e+00	-1.631117470489229e+01
1	 2.090981198762763e-01	 1.427625549980836e+00	-1.643419853040791e+01
1	 1.787139285716060e-01	 1.431746509137837e+00	-1.653352319307506e+01
1	 1.484698684815507e-01	 1.435198046559063e+00	-1.660617429596873e+01
1	 1.183852785215696e-01	 1.437992232427994e+00	-1.664933992578852e+01
1	 8.847869467679305e-02	 1.440141748329715e+00	-1.666038697652020e+01
1	 5.876783471114152e-02	 1.441659833767051e+00	-1.663687526364897e+01
1	 2.926958652103205e-02	 1.442560233057451e+00	-1.657656944222962e+01
1	 0.000000000000000e+00	 1.442857142857143e+00	-1.647744876348209e+01
1	 3.038655491376146e-01	 1.425107376364933e+00	-1.583986333857697e+01
1	 2.728809473885828e-01	 1.431363439058983e+00	-1.600871263491063e+01
1	 2.419746197954702e-01	 1.436911127905023e+00	-1.616131966406844e+01
1	 2.111683982908927e-01	 1.441760456416289e+00	-1.629419945551821e+01
1	 1.804833734089485e-01	 1.445922217149102e+00	-1.640398840880849e+01
1	 1.499398671793878e-01	 1.449407928208162e+00	-1.648746711354370e+01
1	 1.195574099920802e-01	 1.452229779283718e+00	-1.654158087884355e+01
1	 8.935472135676129e-02	 1.454400577521098e+00	-1.656345792777933e+01
1	 5.934969446075680e-02	 1.455933693507319e+00	-1.655042523929129e+01
1	 2.955938440737890e-02	 1.456843007642178e+00	-1.650002204534463e+01
1	 0.000000000000000e+00	 1.457142857142858e+00	-1.641001101434335e+01
1	 3.068446231487678e-01	 1.439079017309688e+00	-1.567189522161143e+01
1	 2.755562507943531e-01	 1.445396413951718e+00	-1.584892509513075e+01
1	 2.443469199895435e-01	 1.450998491904093e+00	-1.601073150050481e+01
1	 2.132386767055093e-01	 1.455895362851743e+00	-1.615360660837706e+01
1	 1.822528182462912e-01	 1.460097925160367e+00	-1.627396158076159e+01
1	 1.514098658772249e-01	 1.463617809857261e+00	-1.636835142335534e+01
1	 1.207295414625908e-01	 1.466467326139440e+00	-1.643349743082618e+01
1	 9.023074803672951e-02	 1.468659406712482e+00	-1.646630717115544e+01
1	 5.993155421037206e-02	 1.470207553247587e+00	-1.646389198406873e+01
1	 2.984918229372574e-02	 1.471125782226905e+00	-1.642358199572817e+01
1	 0.000000000000000e+00	 1.471428571428572e+00	-1.634293867693056e+01
1	 3.098236971599208e-01	 1.453050658254442e+00	-1.550262577456855e+01
1	 2.782315542001235e-01	 1.459429388844453e+00	-1.568811024333977e+01
1	 2.467192201836167e-01	 1.465085855903161e+00	-1.585931324987743e+01
1	 2.153089551201260e-01	 1.470030269287197e+00	-1.601232399807225e+01
1	 1.840222630836339e-01	 1.474273633171634e+00	-1.614334783975828e+01
1	 1.528798645750621e-01	 1.477827691506361e+00	-1.624873306136480e+01
1	 1.219016729331014e-01	 1.480704872995163e+00	-1.632499515631181e+01
1	 9.110677471669777e-02	 1.482918235903865e+00	-1.636883851998244e+01
1	 6.051341395998732e-02	 1.484481412987854e+00	-1.637717553489873e+01
1	 3.013898018007261e-02	 1.485408556811632e+00	-1.634714304265257e+01
1	 0.000000000000000e+00	 1.485714285714286e+00	-1.627611622593805e+01
1	 3.128027711710739e-01	 1.467022299199197e+00	-1.533196251780341e+01
1	 2.809068576058939e-01	 1.473462363737188e+00	-1.552617457157568e+01
1	 2.490915203776900e-01	 1.479173219902230e+00	-1.570697164174163e+01
1	 2.173792335347426e-01	 1.484165175722651e+00	-1.587025929048829e+01
1	 1.857917079209765e-01	 1.488449341182899e+00	-1.601205593068635e+01
1	 1.543498632728992e-01	 1.492037573155461e+00	-1.612852145073476e+01
1	 1.230738044036120e-01	 1.494942419850886e+00	-1.621598322703485e+01
1	 9.198280139666601e-02	 1.497177065095249e+00	-1.627095945184819e+01
1	 6.109527370960258e-02	 1.498755272728123e+00	-1.629017973681604e+01
1	 3.042877806641945e-02	 1.499691331396360e+00	-1.627060298303694e+01
1	 0.000000000000000e+00	 1.500000000000000e+00	-1.620943253702413e+01
1	 3.157818451822270e-01	 1.480993940143951e+00	-1.515981646146904e+01
1	 2.835821610116643e-01	 1.487495338629923e+00	-1.536302810047870e+01
1	 2.514638205717633e-01	 1.493260583901299e+00	-1.555361692529207e+01
1	 2.194495119493592e-01	 1.498300082158105e+00	-1.572732363581590e+01
1	 1.875611527583191e-01	 1.502625049194165e+00	-1.587999804202287e+01
1	 1.558198619707364e-01	 1.506247454804561e+00	-1.600762943262173e+01
1	 1.242459358741226e-01	 1.509179966706608e+00	-1.610637424221138e+01
1	 9.285882807663430e-02	 1.511435894286632e+00	-1.617258093575218e+01
1	 6.167713345921785e-02	 1.513029132468391e+00	-1.620281206334467e+01
1	 3.071857595276631e-02	 1.513974105981087e+00	-1.619386347052026e+01
1	 0.000000000000000e+00	 1.514285714285714e+00	-1.614278067921848e+01
1	 3.187609191933802e-01	 1.494965581088705e+00	-1.498610194244175e+01
1	 2.862574644174347e-01	 1.501528313522658e+00	-1.519858421440358e+01
1	 2.538361207658364e-01	 1.507347947900368e+00	-1.539916270489358e+01
1	 2.215197903639757e-01	 1.512434988593559e+00	-1.558343150573399e+01
1	 1.893305975956618e-01	 1.516800757205431e+00	-1.574708964491855e+01
1	 1.572898606685734e-01	 1.520457336453660e+00	-1.588597310645677e+01
1	 1.254180673446331e-01	 1.523417513562331e+00	-1.599608406837657e+01
1	 9.373485475660252e-02	 1.525694723478015e+00	-1.607361726895578e+01
1	 6.225899320883311e-02	 1.527302992208658e+00	-1.611498344694253e+01
1	 3.100837383911315e-02	 1.528256880565813e+00	-1.611682983524118e+01
1	 0.000000000000000e+00	 1.528571428571428e+00	-1.607605771897027e+01
1	 3.217399932045332e-01	 1.508937222033459e+00	-1.481073647030608e+01
1	 2.889327678232051e-01	 1.515561288415394e+00	-1.503275950569168e+01
1	 2.562084209599097e-01	 1.521435311899436e+00	-1.524352578474957e+01
1	 2.235900687785924e-01	 1.526569895029013e+00	-1.543850053963725e+01
1	 1.911000424330044e-01	 1.530976465216696e+00	-1.561324934122223e+01
1	 1.587598593664106e-01	 1.534667218102759e+00	-1.576347167909941e+01
1	 1.265901988151437e-01	 1.537655060418054e+00	-1.588503168811987e+01
1	 9.461088143657075e-02	 1.539953552669398e+00	-1.597398592289586e+01
1	 6.284085295844836e-02	 1.541576851948926e+00	-1.602660811886516e+01
1	 3.129817172546000e-02	 1.542539655150541e+00	-1.603941091362951e+01
1	 0.000000000000000e+00	 1.542857142857143e+00	-1.600916453508237e+01
1	 3.247190672156863e-01	 1.522908862978213e+00	-1.463364058181777e+01
1	 2.916080712289756e-01	 1.529594263308129e+00	-1.486547362751618e+01
1	 2.585807211539830e-01	 1.535522675898505e+00	-1.508662602212000e+01
1	 2.256603471932089e-01	 1.540704801464466e+00	-1.529245139932758e+01
1	 1.928694872703469e-01	 1.545152173227962e+00	-1.547839871987090e+01
1	 1.602298580642477e-01	 1.548877099751859e+00	-1.564004732229495e+01
1	 1.277623302856543e-01	 1.551892607273776e+00	-1.577313905714651e+01
1	 9.548690811653901e-02	 1.554212381860782e+00	-1.587360739758021e+01
1	 6.342271270806363e-02	 1.555850711689194e+00	-1.593760345784507e+01
1	 3.158796961180686e-02	 1.556822429735268e+00	-1.596151888756693e+01
1	 0.000000000000000e+00	 1.557142857142857e+00	-1.594200564383282e+01
1	 3.276981412268394e-01	 1.536880503922968e+00	-1.445473770330515e+01
1	 2.942833746347460e-01	 1.543627238200864e+00	-1.469664915475288e+01
1	 2.609530213480562e-01	 1.549610039897574e+00	-1.492838618854642e+01
1	 2.277306256078256e-01	 1.554839707899921e+00	-1.514520763163251e+01
1	 1.946389321076896e-01	 1.559327881239228e+00	-1.534246222111287e+01
1	 1.616998567620849e-01	 1.563086981400959e+00	-1.551562503790727e+01
1	 1.289344617561649e-01	 1.566130154129499e+00	-1.566033096913646e+01
1	 9.636293479650726e-02	 1.568471211052165e+00	-1.577240508392571e+01
1	 6.400457245767889e-02	 1.570124571429461e+00	-1.584788984702442e+01
1	 3.187776749815371e-02	 1.571105204319996e+00	-1.588306913232149e+01
1	 0.000000000000000e+00	 1.571428571428571e+00	-1.587448903363498e+01
1	 1.571428571428571e+00	 0.000000000000000e+00	 5.839519004009484e+00
1	 1.571105204319995e+00	 3.187776749815283e-02	 5.454732041588774e+00
1	 1.570124571429462e+00	 6.400457245767810e-02	 5.075160654296662e+00
1	 1.568471211052165e+00	 9.636293479650661e-02	 4.702223212359769e+00
1	 1.566130154129499e+00	 1.289344617561644e-01	 4.337277179623518e+00
1	 1.563086981400960e+00	 1.616998567620844e-01	 3.981607092658376e+00
1	 1.559327881239227e+00	 1.946389321076893e-01	 3.636412298564794e+00
1	 1.554839707899920e+00	 2.277306256078254e-01	 3.302794539482471e+00
1	 1.549610039897574e+00	 2.609530213480561e-01	 2.981745480045423e+00
1	 1.543627238200864e+00	 2.942833746347461e-01	 2.674134281709659e+00
1	 1.536880503922968e+00	 3.276981412268393e-01	 2.380695334849250e+00
1	 1.585714285714286e+00	 0.000000000000000e+00	 5.629938272747298e+00
1	 1.585387978904722e+00	 3.216756538449967e-02	 5.254194674110488e+00
1	 1.584398431169730e+00	 6.458643220729335e-02	 4.883500993337258e+00
1	 1.582730040243548e+00	 9.723896147647484e-02	 4.519318405376287e+00
1	 1.580367700985222e+00	 1.301065932266749e-01	 4.163038628625773e+00
1	 1.577296863050059e+00	 1.631698554599215e-01	 3.815971146509091e+00
1	 1.573503589250493e+00	 1.964083769450319e-01	 3.479330211726895e+00
1	 1.568974614335374e+00	 2.298009040224420e-01	 3.154221729460987e+00
1	 1.563697403896643e+00	 2.633253215421293e-01	 2.841630124320922e+00
1	 1.557660213093599e+00	 2.969586780405165e-01	 2.542405303701252e+00
1	 1.550852144867722e+00	 3.306772152379924e-01	 2.257249837278185e+00
1	 1.600000000000000e+00	 0.000000000000000e+00	 5.427416715155640e+00
1	 1.599670753489450e+00	 3.245736327084651e-02	 5.060800122919934e+00
1	 1.598672290909998e+00	 6.516829195690864e-02	 4.699043487281094e+00
1	 1.596988869434932e+00	 9.811498815644311e-02	 4.343648488104011e+00
1	 1.594605247840945e+00	 1.312787246971855e-01	 3.996038659678650e+00
1	 1.591506744699159e+00	 1.646398541577587e-01	 3.657545864547768e+00
1	 1.587679297261759e+00	 1.981778217823746e-01	 3.329396575822063e+00
1	 1.583109520770828e+00	 2.318711824370586e-01	 3.012698072562744e+00
1	 1.577784767895711e+00	 2.656976217362025e-01	 2.708424661589000e+00
1	 1.571693187986334e+00	 2.996339814462870e-01	 2.417404047116685e+00
1	 1.564823785812476e+00	 3.336562892491454e-01	 2.140303976766783e+00
1	 1.614285714285714e+00	 0.000000000000000e+00	 5.231637231903558e+00
1	 1.613953528074177e+00	 3.274716115719337e-02	 4.874235242845000e+00
1	 1.612946150650265e+00	 6.575015170652387e-02	 4.521479029159307e+00
1	 1.611247698626314e+00	 9.899101483641133e-02	 4.174908555953318e+00
1	 1.608842794696668e+00	 1.324508561676961e-01	 3.835976816085067e+00
1	 1.605716626348258e+00	 1.661098528555958e-01	 3.506035565748038e+00
1	 1.601855005273025e+00	 1.999472666197172e-01	 3.186320896166515e+00
1	 1.597244427206282e+00	 2.339414608516752e-01	 2.877938754322431e+00
1	 1.591872131894781e+00	 2.680699219302758e-01	 2.581850534655886e+00
1	 1.585726162879069e+00	 3.023092848520574e-01	 2.298858871883070e+00
1	 1.578795426757230e+00	 3.366353632602985e-01	 2.029593772257907e+00
1	 1.628571428571428e+00	 0.000000000000000e+00	 5.042293849952404e+00
1	 1.628236302658904e+00	 3.303695904354021e-02	 4.694197876263464e+00
1	 1.627220010390533e+00	 6.633201145613912e-02	 4.350509357861607e+00
1	 1.625506527817698e+00	 9.986704151637955e-02	 4.012804402741249e+00
1	 1.623080341552390e+00	 1.336229876382067e-01	 3.682563183488171e+00
1	 1.619926507997358e+00	 1.675798515534329e-01	 3.361154943856364e+00
1	 1.616030713284290e+00	 2.017167114570599e-01	 3.049822870872379e+00
1	 1.611379333641735e+00	 2.360117392662917e-01	 2.749668953764746e+00
1	 1.605959495893850e+00	 2.704422221243490e-01	 2.461638960264446e+00
1	 1.599759137771804e+00	 3.049845882578278e-01	 2.186507669158136e+00
1	 1.592767067701984e+00	 3.396144372714515e-01	 1.924864505187673e+00
1	 1.642857142857143e+00	 0.000000000000000e+00	 4.859091238804009e+00
1	 1.642519077243632e+00	 3.332675692988706e-02	 4.520396375383456e+00
1	 1.641493870130801e+00	 6.691387120575437e-02	 4.185846586577188e+00
1	 1.639765357009081e+00	 1.007430681963478e-01	 3.857052055543375e+00
1	 1.637317888408113e+00	 1.347951191087173e-01	 3.535517931508768e+00
1	 1.634136389646457e+00	 1.690498502512701e-01	 3.222628616314999e+00
1	 1.630206421295556e+00	 2.034861562944024e-01	 2.919631947682678e+00
1	 1.625514240077189e+00	 2.380820176809083e-01	 2.627623408904820e+00
1	 1.620046859892919e+00	 2.728145223184222e-01	 2.347530504140398e+00
1	 1.613792112664539e+00	 3.076598916635982e-01	 2.080097446928914e+00
1	 1.606738708646739e+00	 3.425935112826046e-01	 1.825870316768331e+00
1	 1.657142857142857e+00	 0.000000000000000e+00	 4.681744251770487e+00
1	 1.656801851828358e+00	 3.361655481623389e-02	 4.352549149233488e+00
1	 1.655767729871068e+00	 6.749573095536965e-02	 4.027212755626644e+00
1	 1.654024186200464e+00	 1.016190948763160e-01	 3.707377333605100e+00
1	 1.651555435263836e+00	 1.359672505792279e-01	 3.394570879091057e+00
1	 1.648346271295556e+00	 1.705198489491072e-01	 3.090190696516464e+00
1	 1.644382129306822e+00	 2.052556011317451e-01	 2.795486903728595e+00
1	 1.639649146512643e+00	 2.401522960955249e-01	 2.511546004722791e+00
1	 1.634134223891987e+00	 2.751868225124955e-01	 2.239274678018919e+00
1	 1.627825087557275e+00	 3.103351950693686e-01	 1.979383937044949e+00
1	 1.620710349591493e+00	 3.455725852937577e-01	 1.732373826101362e+00
1	 1.671428571428571e+00	 0.000000000000000e+00	 4.509977490768665e+00
1	 1.671084626413086e+00	 3.390635270258074e-02	 4.190384233883864e+00
1	 1.670041589611336e+00	 6.807759070498488e-02	 3.874339408225594e+00
1	 1.668283015391848e+00	 1.024951215562843e-01	 3.563515429872807e+00
1	 1.665792982119558e+00	 1.371393820497384e-01	 3.259461082138422e+00
1	 1.662556152944656e+00	 1.719898476469443e-01	 2.963584387993693e+00
1	 1.658557837318088e+00	 2.070250459690877e-01	 2.677135446837694e+00
1	 1.653784052948096e+00	 2.422225745101414e-01	 2.401189382267843e+00
1	 1.648221587891056e+00	 2.775591227065688e-01	 2.136629557336540e+00
1	 1.641858062450009e+00	 3.130104984751390e-01	 1.884131222403665e+00
1	 1.634681990536247e+00	 3.485516593049109e-01	 1.644145767874517e+00
1	 1.685714285714285e+00	 0.000000000000000e+00	 4.343524893243616e+00
1	 1.685367400997813e+00	 3.419615058892758e-02	 4.033638884521128e+00
1	 1.684315449351604e+00	 6.865945045460013e-02	 3.726967187819645e+00
1	 1.682541844583231e+00	 1.033711482362525e-01	 3.425210513803196e+00
1	 1.680030528975281e+00	 1.383115135202490e-01	 3.129936442116856e+00
1	 1.676766034593755e+00	 1.734598463447814e-01	 2.842561599244629e+00
1	 1.672733545329353e+00	 2.087944908064303e-01	 2.564333837114559e+00
1	 1.667918959383551e+00	 2.442928529247581e-01	 2.296314567638353e+00
1	 1.662308951890125e+00	 2.799314229006420e-01	 2.039361418362461e+00
1	 1.655891037342745e+00	 3.156858018809094e-01	 1.794111383092404e+00
1	 1.648653631481001e+00	 3.515307333160639e-01	 1.560964648481047e+00
1	 1.699999999999999e+00	 0.000000000000000e+00	 4.182129339919554e+00
1	 1.699650175582540e+00	 3.448594847527441e-02	 3.882059188090279e+00
1	 1.698589309091872e+00	 6.924131020421538e-02	 3.584845455721761e+00
1	 1.696800673774614e+00	 1.042471749162208e-01	 3.292215354198940e+00
1	 1.694268075831003e+00	 1.394836449907596e-01	 3.005753334392632e+00
1	 1.690975916242855e+00	 1.749298450426185e-01	 2.726882577977342e+00
1	 1.686909253340619e+00	 2.105639356437730e-01	 2.456846527601447e+00
1	 1.682053865819004e+00	 2.463631313393747e-01	 2.196690619668870e+00
1	 1.676396315889194e+00	 2.823037230947152e-01	 1.947244393625744e+00
1	 1.669924012235480e+00	 3.183611052866799e-01	 1.709104160372046e+00
1	 1.662625272425756e+00	 3.545098073272170e-01	 1.482616419477467e+00
1	 1.714285714285714e+00	 0.000000000000000e+00	 4.025542282163244e+00
1	 1.713932950167268e+00	 3.477574636162127e-02	 3.735399695304778e+00
1	 1.712863168832140e+00	 6.982316995383066e-02	 3.447731927867825e+00
1	 1.711059502965998e+00	 1.051232015961890e-01	 3.164290960902649e+00
1	 1.708505622686727e+00	 1.406557764612702e-01	 2.886676255153158e+00
1	 1.705185797891956e+00	 1.763998437404557e-01	 2.616315563642988e+00
1	 1.701084961351885e+00	 2.123333804811157e-01	 2.354445822905869e+00
1	 1.696188772254459e+00	 2.484334097539913e-01	 2.102094295232797e+00
1	 1.690483679888263e+00	 2.846760232887885e-01	 1.860060144571129e+00
1	 1.683956987128216e+00	 3.210364086924503e-01	 1.628896637461433e+00
1	 1.676596913370510e+00	 3.574888813383701e-01	 1.408894167368386e+00
1	 1.536880503922968e+00	 3.276981412268393e-01	 2.380695334849250e+00
1	 1.529359935167873e+00	 3.611730109038592e-01	 2.093115090427882e+00
1	 1.521056582680450e+00	 3.946829453960644e-01	 1.802996849054638e+00
1	 1.511962503937697e+00	 4.282022206720662e-01	 1.510807684655839e+00
1	 1.502070815310960e+00	 4.617044735467811e-01	 1.216965639831777e+00
1	 1.491375741924359e+00	 4.951627525386056e-01	 9.218357606084409e-01
1	 1.479872664833536e+00	 5.285495728694983e-01	 6.257263988570984e-01
1	 1.467558165151136e+00	 5.618369754655443e-01	 3.288858287119991e-01
1	 1.454430064751624e+00	 5.949965897789888e-01	 3.149922211646405e-02
1	 1.440487463197997e+00	 6.279997002160423e-01	-2.663139732537111e-01
1	 1.425730770546949e+00	 6.608173159184335e-01	-5.645022130135657e-01
1	 1.550852144867722e+00	 3.306772152379924e-01	 2.257249837278185e+00
1	 1.543263207305763e+00	 3.644564019120761e-01	 1.978027449901898e+00
1	 1.534884369795726e+00	 3.982709721723922e-01	 1.696525413678762e+00
1	 1.525707617609859e+00	 4.320949681327215e-01	 1.413177753933160e+00
1	 1.515726004541059e+00	 4.659017869426607e-01	 1.128367476461869e+00
1	 1.504933703214580e+00	 4.996642321071384e-01	 8.424227167002467e-01
1	 1.493326052695659e+00	 5.333545689864937e-01	 5.556131745816570e-01
1	 1.480899603016147e+00	 5.669445843334130e-01	 2.681468811695099e-01
1	 1.467652156249367e+00	 6.004056496860709e-01	-1.983265826224512e-02
1	 1.453582803772525e+00	 6.337087883998246e-01	-3.082489021153216e-01
1	 1.438691959370104e+00	 6.668247460631467e-01	-5.970942515201838e-01
1	 1.564823785812476e+00	 3.336562892491454e-01	 2.140303976766783e+00
1	 1.557166479443652e+00	 3.677397929202930e-01	 1.869188384144921e+00
1	 1.548712156911003e+00	 4.018589989487200e-01	 1.596052759235801e+00
1	 1.539452731282019e+00	 4.359877155933766e-01	 1.321296977634705e+00
1	 1.529381193771159e+00	 4.700991003385406e-01	 1.045267860340027e+00
1	 1.518491664504802e+00	 5.041657116756713e-01	 7.682554464912938e-01
1	 1.506779440557782e+00	 5.381595651034889e-01	 4.904895706060531e-01
1	 1.494241040881157e+00	 5.720521932012815e-01	 2.121367900877660e-01
1	 1.480874247747108e+00	 6.058147095931524e-01	-6.670229284208307e-02
1	 1.466678144347052e+00	 6.394178765836067e-01	-3.459952729458700e-01
1	 1.451653148193258e+00	 6.728321762078596e-01	-6.257797086725089e-01
1	 1.578795426757230e+00	 3.366353632602985e-01	 2.029593772257907e+00
1	 1.571069751581543e+00	 3.710231839285100e-01	 1.766341916431527e+00
1	 1.562539944026279e+00	 4.054470257250479e-01	 1.501330827816131e+00
1	 1.553197844954180e+00	 4.398804630540316e-01	 1.234925161678610e+00
1	 1.543036383001258e+00	 4.742964137344203e-01	 9.674344375402542e-01
1	 1.532049625795023e+00	 5.086671912442039e-01	 6.991094445333239e-01
1	 1.520232828419905e+00	 5.429645612204846e-01	 4.301389708338937e-01
1	 1.507582478746167e+00	 5.771598020691500e-01	 1.606469025797813e-01
1	 1.494096339244851e+00	 6.112237695002342e-01	-1.093102641628564e-01
1	 1.479773484921579e+00	 6.451269647673891e-01	-3.797454573645019e-01
1	 1.464614337016412e+00	 6.788396063525726e-01	-6.507425711510821e-01
1	 1.592767067701984e+00	 3.396144372714515e-01	 1.924864505187673e+00
1	 1.584973023719432e+00	 3.743065749367267e-01	 1.669241051675765e+00
1	 1.576367731141557e+00	 4.090350525013756e-01	 1.412120265296420e+00
1	 1.566942958626341e+00	 4.437732105146868e-01	 1.153830539845533e+00
1	 1.556691572231358e+00	 4.784937271303002e-01	 8.946430069058896e-01
1	 1.545607587085245e+00	 5.131686708127365e-01	 6.347680827622496e-01
1	 1.533686216282028e+00	 5.477695573374801e-01	 3.743523597335606e-01
1	 1.520923916611178e+00	 5.822674109370186e-01	 1.134758869125083e-01
1	 1.507318430742593e+00	 6.166328294073159e-01	-1.478501167805379e-01
1	 1.492868825496106e+00	 6.508360529511709e-01	-4.096850771090070e-01
1	 1.477575525839566e+00	 6.848470364972855e-01	-6.721603699633748e-01
1	 1.606738708646739e+00	 3.425935112826046e-01	 1.825870316768331e+00
1	 1.598876295857322e+00	 3.775899659449437e-01	 1.577647385925117e+00
1	 1.590195518256833e+00	 4.126230792777034e-01	 1.328190042914152e+00
1	 1.580688072298502e+00	 4.476659579753420e-01	 1.077789407349848e+00
1	 1.570346761461457e+00	 4.826910405261801e-01	 8.266771655813653e-01
1	 1.559165548375466e+00	 5.176701503812695e-01	 5.750222680031523e-01
1	 1.547139604144151e+00	 5.525745534544754e-01	 3.229279918788788e-01
1	 1.534265354476188e+00	 5.873750198048872e-01	 7.042941419577442e-02
1	 1.520540522240334e+00	 6.220418893143975e-01	-1.825086632665357e-01
1	 1.505964166070634e+00	 6.565451411349534e-01	-4.359932975088777e-01
1	 1.490536714662720e+00	 6.908544666419987e-01	-6.902044611253529e-01
1	 1.620710349591493e+00	 3.455725852937577e-01	 1.732373826101362e+00
1	 1.612779567995212e+00	 3.808733569531607e-01	 1.491330736053017e+00
1	 1.604023305372110e+00	 4.162111060540314e-01	 1.249317098415867e+00
1	 1.594433185970663e+00	 4.515587054359971e-01	 1.006585773364061e+00
1	 1.584001950691557e+00	 4.868883539220599e-01	 7.633279728785698e-01
1	 1.572723509665688e+00	 5.221716299498023e-01	 5.196701171905913e-01
1	 1.560592992006274e+00	 5.573795495714710e-01	 2.756710785825257e-01
1	 1.547606792341198e+00	 5.924826286727556e-01	 3.131985653563529e-02
1	 1.533762613738076e+00	 6.274509492214794e-01	-2.134662743794450e-01
1	 1.519059506645160e+00	 6.622542293187352e-01	-4.588431057788245e-01
1	 1.503497903485874e+00	 6.968618967867117e-01	-7.050402918248092e-01
1	 1.634681990536247e+00	 3.485516593049109e-01	 1.644145767874517e+00
1	 1.626682840133101e+00	 3.841567479613774e-01	 1.410068788441488e+00
1	 1.617851092487387e+00	 4.197991328303592e-01	 1.175285995608044e+00
1	 1.608178299642824e+00	 4.554514528966522e-01	 9.400110313624590e-01
1	 1.597657139921657e+00	 4.910856673179397e-01	 7.043936313807474e-01
1	 1.586281470955909e+00	 5.266731095183350e-01	 4.685166492442848e-01
1	 1.574046379868397e+00	 5.621845456884662e-01	 2.323934905994626e-01
1	 1.560948230206208e+00	 5.975902375406242e-01	-4.033999333004079e-03
1	 1.546984705235818e+00	 6.328600091285610e-01	-2.408971543562071e-01
1	 1.532154847219687e+00	 6.679633175025174e-01	-4.784015750407338e-01
1	 1.516459092309028e+00	 7.028693269314247e-01	-7.168276529354343e-01
1	 1.648653631481001e+00	 3.515307333160639e-01	 1.560964648481047e+00
1	 1.640586112270991e+00	 3.874401389695944e-01	 1.333646765527415e+00
1	 1.631678879602664e+00	 4.233871596066871e-01	 1.105888601218984e+00
1	 1.621923413314984e+00	 4.593442003573073e-01	 8.778636462269902e-01
1	 1.611312329151756e+00	 4.952829807138194e-01	 6.496791842615708e-01
1	 1.599839432246130e+00	 5.311745890868675e-01	 4.213734926120803e-01
1	 1.587499767730520e+00	 5.669895418054617e-01	 1.929134759472031e-01
1	 1.574289668071219e+00	 6.026978464084928e-01	-3.580722385270307e-02
1	 1.560206796733560e+00	 6.382690690356425e-01	-2.649696022053933e-01
1	 1.545250187794215e+00	 6.736724056862997e-01	-4.948301149208303e-01
1	 1.529420281132182e+00	 7.088767570761374e-01	-7.257209186911455e-01
1	 1.662625272425756e+00	 3.545098073272170e-01	 1.482616419477467e+00
1	 1.654489384408881e+00	 3.907235299778112e-01	 1.261857109161554e+00
1	 1.645506666717941e+00	 4.269751863830149e-01	 1.040923778053342e+00
1	 1.635668526987145e+00	 4.632369478179624e-01	 8.199488571292783e-01
1	 1.624967518381856e+00	 4.994802941096994e-01	 5.989962278653199e-01
1	 1.613397393536351e+00	 5.356760686554004e-01	 3.780586075587183e-01
1	 1.600953155592644e+00	 5.717945379224573e-01	 1.570553919535919e-01
1	 1.587631105936229e+00	 6.078054552763614e-01	-6.416900274525572e-02
1	 1.573428888231302e+00	 6.436781289427244e-01	-2.858462598260378e-01
1	 1.558345528368742e+00	 6.793814938700821e-01	-5.082847095117013e-01
1	 1.542381469955336e+00	 7.148841872208506e-01	-7.318692742759577e-01
1	 1.676596913370510e+00	 3.574888813383701e-01	 1.408894167368386e+00
1	 1.668392656546771e+00	 3.940069209860282e-01	 1.194499179799638e+00
1	 1.659334453833218e+00	 4.305632131593429e-01	 9.801970934889542e-01
1	 1.649413640659306e+00	 4.671296952786177e-01	 7.660783952685722e-01
1	 1.638622707611956e+00	 5.036776075055792e-01	 5.521626386581544e-01
1	 1.626955354826573e+00	 5.401775482239333e-01	 3.383960223401026e-01
1	 1.614406543454767e+00	 5.765995340394527e-01	 1.246494507022157e-01
1	 1.600972543801240e+00	 6.129130641442300e-01	-8.928288220839486e-02
1	 1.586650979729045e+00	 6.490871888498062e-01	-3.036843477205415e-01
1	 1.571440868943270e+00	 6.850905820538644e-01	-5.189161434361568e-01
1	 1.555342658778490e+00	 7.208916173655637e-01	-7.354169320344410e-01
1	 1.425730770546949e+00	 6.608173159184335e-01	-5.645022130135657e-01
1	 1.410161735707014e+00	 6.934202436112044e-01	-8.690023550990098e-01
1	 1.393783470046178e+00	 7.257791631950287e-01	-1.185350242960474e+00
1	 1.376600465971305e+00	 7.578647057289485e-01	-1.512947975362005e+00
1	 1.358618610231331e+00	 7.896475334192641e-01	-1.851203814169895e+00
1	 1.339845191729296e+00	 8.210984212029193e-01	-2.199534526458161e+00
1	 1.320288903664719e+00	 8.521883394894908e-01	-2.557367608892354e+00
1	 1.299959839867087e+00	 8.828885376052731e-01	-2.924143373133130e+00
1	 1.278869485223118e+00	 9.131706274663013e-01	-3.299316872478177e+00
1	 1.257030700144342e+00	 9.430066669948136e-01	-3.682359651748466e+00
1	 1.234457699067077e+00	 9.723692427859159e-01	-4.072761304496508e+00
1	 1.438691959370104e+00	 6.668247460631467e-01	-5.970942515201838e-01
1	 1.422981387849805e+00	 6.997240640076697e-01	-8.922739127553889e-01
1	 1.406454228864779e+00	 7.323771555877107e-01	-1.199288604240182e+00
1	 1.389115015661953e+00	 7.647543848719386e-01	-1.517579695754528e+00
1	 1.370969688506161e+00	 7.968261473594389e-01	-1.846594416083300e+00
1	 1.352025602563199e+00	 8.285629523047642e-01	-2.185788008366844e+00
1	 1.332291530061670e+00	 8.599355062121224e-01	-2.534625767875621e+00
1	 1.311777656593151e+00	 8.909147970380484e-01	-2.892584942504386e+00
1	 1.290495571452419e+00	 9.214721786250853e-01	-3.259156477777269e+00
1	 1.268458251963835e+00	 9.515794548765845e-01	-3.633846589940211e+00
1	 1.245680041785870e+00	 9.812089631748793e-01	-4.016178152766913e+00
1	 1.451653148193258e+00	 6.728321762078596e-01	-6.257797086725089e-01
1	 1.435801039992596e+00	 7.060278844041350e-01	-9.119280622761743e-01
1	 1.419124987683381e+00	 7.389751479803927e-01	-1.209901075585755e+00
1	 1.401629565352602e+00	 7.716440640149292e-01	-1.519174520692582e+00
1	 1.383320766780991e+00	 8.040047612996142e-01	-1.839229181958045e+00
1	 1.364206013397101e+00	 8.360274834066088e-01	-2.169552850938050e+00
1	 1.344294156458623e+00	 8.676826729347542e-01	-2.509642208880816e+00
1	 1.323595473319216e+00	 8.989410564708233e-01	-2.859004578494256e+00
1	 1.302121657681720e+00	 9.297737297838702e-01	-3.217159528131597e+00
1	 1.279885803783329e+00	 9.601522427583558e-01	-3.583640313267427e+00
1	 1.256902384504661e+00	 9.900486835638418e-01	-3.957995142105491e+00
1	 1.464614337016412e+00	 6.788396063525726e-01	-6.507425711510821e-01
1	 1.448620692135387e+00	 7.123317048006008e-01	-9.281392838388285e-01
1	 1.431795746501982e+00	 7.455731403730749e-01	-1.217350653009662e+00
1	 1.414144115043250e+00	 7.785337431579197e-01	-1.517882095444161e+00
1	 1.395671845055821e+00	 8.111833752397896e-01	-1.829242660265786e+00
1	 1.376386424231004e+00	 8.434920145084532e-01	-2.150946889403511e+00
1	 1.356296782855575e+00	 8.754298396573859e-01	-2.482516575715989e+00
1	 1.335413290045280e+00	 9.069673159035985e-01	-2.823482401722002e+00
1	 1.313747743911021e+00	 9.380752809426548e-01	-3.173385443231026e+00
1	 1.291313355602823e+00	 9.687250306401264e-01	-3.531778523770138e+00
1	 1.268124727223453e+00	 9.988884039528049e-01	-3.898227407533773e+00
1	 1.477575525839566e+00	 6.848470364972855e-01	-6.721603699633748e-01
1	 1.461440344278178e+00	 7.186355251970660e-01	-9.410759355092874e-01
1	 1.444466505320585e+00	 7.521711327657569e-01	-1.221794613366043e+00
1	 1.426658664733898e+00	 7.854234223009101e-01	-1.513846814566136e+00
1	 1.408022923330651e+00	 8.183619891799643e-01	-1.816764678479166e+00
1	 1.388566835064907e+00	 8.509565456102980e-01	-2.130083824425416e+00
1	 1.368299409252526e+00	 8.831770063800175e-01	-2.453345015915171e+00
1	 1.347231106771345e+00	 9.149935753363739e-01	-2.786095721556987e+00
1	 1.325373830140322e+00	 9.463768321014391e-01	-3.127891557864035e+00
1	 1.302740907422317e+00	 9.772978185218976e-01	-3.478297600609748e+00
1	 1.279347069942244e+00	 1.007728124341767e+00	-3.836889553019866e+00
1	 1.490536714662720e+00	 6.908544666419987e-01	-6.902044611253529e-01
1	 1.474259996420969e+00	 7.249393455935317e-01	-9.509005194207818e-01
1	 1.457137264139186e+00	 7.587691251584391e-01	-1.223384763009771e+00
1	 1.439173214424546e+00	 7.923131014439005e-01	-1.507208050195970e+00
1	 1.420374001605482e+00	 8.255406031201394e-01	-1.801920548332615e+00
1	 1.400747245898809e+00	 8.584210767121424e-01	-2.107073401860295e+00
1	 1.380302035649479e+00	 8.909241731026496e-01	-2.422220332750383e+00
1	 1.359048923497409e+00	 9.230198347691492e-01	-2.746919158347120e+00
1	 1.336999916369623e+00	 9.546783832602238e-01	-3.080733212565591e+00
1	 1.314168459241811e+00	 9.858706064036686e-01	-3.423232657585548e+00
1	 1.290569412661036e+00	 1.016567844730730e+00	-3.773995674567804e+00
1	 1.503497903485874e+00	 6.968618967867117e-01	-7.050402918248092e-01
1	 1.487079648563760e+00	 7.312431659899971e-01	-9.577699341846964e-01
1	 1.469808022957787e+00	 7.653671175511210e-01	-1.222267673593805e+00
1	 1.451687764115194e+00	 7.992027805868908e-01	-1.498100368535384e+00
1	 1.432725079880312e+00	 8.327192170603147e-01	-1.784831260466325e+00
1	 1.412927656732712e+00	 8.658856078139876e-01	-2.082021583224817e+00
1	 1.392304662046431e+00	 8.986713398252809e-01	-2.389232129380757e+00
1	 1.370866740223474e+00	 9.310460942019244e-01	-2.706024759324816e+00
1	 1.348626002598924e+00	 9.629799344190080e-01	-3.031963839576300e+00
1	 1.325596011061305e+00	 9.944433942854394e-01	-3.366617597676162e+00
1	 1.301791755379827e+00	 1.025407565119693e+00	-3.709559382112507e+00
1	 1.516459092309028e+00	 7.028693269314247e-01	-7.168276529354343e-01
1	 1.499899300706551e+00	 7.375469863864624e-01	-9.618357143573470e-01
1	 1.482478781776389e+00	 7.719651099438031e-01	-1.218584905774444e+00
1	 1.464202313805843e+00	 8.060924597298814e-01	-1.486653735232194e+00
1	 1.445076158155143e+00	 8.398978310004899e-01	-1.765613669088284e+00
1	 1.425108067566615e+00	 8.733501389158324e-01	-2.055030707419698e+00
1	 1.404307288443382e+00	 9.064185065479126e-01	-2.354466945609604e+00
1	 1.382684556949538e+00	 9.390723536346993e-01	-2.663482108569280e+00
1	 1.360252088828225e+00	 9.712814855777927e-01	-2.981635044393570e+00
1	 1.337023562880800e+00	 1.003016182167210e+00	-3.308485164784025e+00
1	 1.313014098098619e+00	 1.034247285508656e+00	-3.643593820291968e+00
1	 1.529420281132182e+00	 7.088767570761374e-01	-7.257209186911455e-01
1	 1.512718952849342e+00	 7.438508067829279e-01	-9.632442577303946e-01
1	 1.495149540594990e+00	 7.785631023364850e-01	-1.212473221541666e+00
1	 1.476716863496491e+00	 8.129821388728719e-01	-1.472993710318994e+00
1	 1.457427236429973e+00	 8.470764449406649e-01	-1.744380667246955e+00
1	 1.437288478400517e+00	 8.808146700176768e-01	-2.026199644230357e+00
1	 1.416309914840334e+00	 9.141656732705443e-01	-2.318008387687597e+00
1	 1.394502373675602e+00	 9.470986130674746e-01	-2.619358431377329e+00
1	 1.371878175057526e+00	 9.795830367365774e-01	-2.929796683175883e+00
1	 1.348451114700293e+00	 1.011588970048982e+00	-3.248866992848758e+00
1	 1.324236440817411e+00	 1.043087005897619e+00	-3.576111688163218e+00
1	 1.542381469955336e+00	 7.148841872208506e-01	-7.318692742759577e-01
1	 1.525538604992133e+00	 7.501546271793936e-01	-9.621370411613600e-01
1	 1.507820299413592e+00	 7.851610947291672e-01	-1.204064785843768e+00
1	 1.489231413187139e+00	 8.198718180158620e-01	-1.457241633323139e+00
1	 1.469778314704803e+00	 8.542550588808401e-01	-1.721241353266427e+00
1	 1.449468889234420e+00	 8.882792011195216e-01	-1.995623940088087e+00
1	 1.428312541237287e+00	 9.219128399931762e-01	-2.279937251571208e+00
1	 1.406320190401667e+00	 9.551248725002499e-01	-2.573718693371983e+00
1	 1.383504261286827e+00	 9.878845878953617e-01	-2.876496936244474e+00
1	 1.359878666519787e+00	 1.020161757930753e+00	-3.187793652484301e+00
1	 1.335458783536202e+00	 1.051926726286582e+00	-3.507125257924278e+00
1	 1.555342658778490e+00	 7.208916173655637e-01	-7.354169320344410e-01
1	 1.538358257134925e+00	 7.564584475758592e-01	-9.586508256124834e-01
1	 1.520491058232194e+00	 7.917590871218493e-01	-1.193487358130770e+00
1	 1.501745962877788e+00	 8.267614971588527e-01	-1.439514799121015e+00
1	 1.482129392979634e+00	 8.614336728210154e-01	-1.696301188860017e+00
1	 1.461649300068323e+00	 8.957437322213666e-01	-1.963395956543152e+00
1	 1.440315167634239e+00	 9.296600067158080e-01	-2.240331640018409e+00
1	 1.418138007127731e+00	 9.631511319330253e-01	-2.526625694655455e+00
1	 1.395130347516129e+00	 9.961861390541467e-01	-2.821782377909821e+00
1	 1.371306218339282e+00	 1.028734545812524e+00	-3.125294695284126e+00
1	 1.346681126254994e+00	 1.060766446675545e+00	-3.436646392699836e+00
1	 1.234457699067077e+00	 9.723692427859159e-01	-4.072761304496508e+00
1	 1.211166023023431e+00	 1.001231551528240e+00	-4.469998142358064e+00
1	 1.187172506368977e+00	 1.029567479684378e+00	-4.873086766212419e+00
1	 1.162495237799779e+00	 1.057351680943892e+00	-5.280794422955950e+00
1	 1.137153515837634e+00	 1.084559650973679e+00	-5.691831134437177e+00
1	 1.111167799007432e+00	 1.111167799007432e+00	-6.104857144936328e+00
1	 1.084559650973679e+00	 1.137153515837633e+00	-6.518490789413685e+00
1	 1.057351680943892e+00	 1.162495237799779e+00	-6.931316713250464e+00
1	 1.029567479684378e+00	 1.187172506368976e+00	-7.341894369973066e+00
1	 1.001231551528240e+00	 1.211166023023430e+00	-7.748766720208189e+00
1	 9.723692427859164e-01	 1.234457699067078e+00	-8.150469052916323e+00
1	 1.245680041785870e+00	 9.812089631748793e-01	-4.016178152766913e+00
1	 1.222176623232734e+00	 1.010333656542133e+00	-4.405470763105910e+00
1	 1.197964983699604e+00	 1.038927184045144e+00	-4.800558965639624e+00
1	 1.173063376325232e+00	 1.066963968952472e+00	-5.200199441914444e+00
1	 1.147491275072521e+00	 1.094419284164349e+00	-5.603085582303060e+00
1	 1.121269324452954e+00	 1.121269324452954e+00	-6.007855214923369e+00
1	 1.094419284164349e+00	 1.147491275072521e+00	-6.413098806490764e+00
1	 1.066963968952473e+00	 1.173063376325232e+00	-6.817368062441918e+00
1	 1.038927184045145e+00	 1.197964983699604e+00	-7.219184848858627e+00
1	 1.010333656542133e+00	 1.222176623232734e+00	-7.617050354958912e+00
1	 9.812089631748793e-01	 1.245680041785870e+00	-8.009454412267878e+00
1	 1.256902384504661e+00	 9.900486835638418e-01	-3.957995142105491e+00
1	 1.233187223442039e+00	 1.019435761556026e+00	-4.339374304786656e+00
1	 1.208757461030231e+00	 1.048286888405912e+00	-4.726430291649826e+00
1	 1.183631514850685e+00	 1.076576256961054e+00	-5.117921153891609e+00
1	 1.157829034307408e+00	 1.104278917355019e+00	-5.512537103641969e+00
1	 1.131370849898476e+00	 1.131370849898476e+00	-5.908908421479940e+00
1	 1.104278917355019e+00	 1.157829034307408e+00	-6.305613875006514e+00
1	 1.076576256961054e+00	 1.183631514850685e+00	-6.701189573497313e+00
1	 1.048286888405912e+00	 1.208757461030231e+00	-7.094138178404639e+00
1	 1.019435761556027e+00	 1.233187223442038e+00	-7.482938385310218e+00
1	 9.900486835638419e-01	 1.256902384504661e+00	-7.866054589920254e+00
1	 1.268124727223453e+00	 9.988884039528049e-01	-3.898227407533773e+00
1	 1.244197823651342e+00	 1.028537866569919e+00	-4.271704211189729e+00
1	 1.219549938360858e+00	 1.057646592766679e+00	-4.650682776711158e+00
1	 1.194199653376137e+00	 1.086188544969634e+00	-5.033934128966444e+00
1	 1.168166793542296e+00	 1.114138550545689e+00	-5.420158397080691e+00
1	 1.141472375343998e+00	 1.141472375343998e+00	-5.807992799266936e+00
1	 1.114138550545689e+00	 1.168166793542297e+00	-6.196020165963232e+00
1	 1.086188544969634e+00	 1.194199653376137e+00	-6.582777925041048e+00
1	 1.057646592766679e+00	 1.219549938360858e+00	-6.966767467280940e+00
1	 1.028537866569919e+00	 1.244197823651342e+00	-7.346463805851980e+00
1	 9.988884039528049e-01	 1.268124727223452e+00	-7.720325440257749e+00
1	 1.279347069942244e+00	 1.007728124341767e+00	-3.836889553019866e+00
1	 1.255208423860646e+00	 1.037639971583812e+00	-4.202456085971571e+00
1	 1.230342415691486e+00	 1.067006297127446e+00	-4.573299083731467e+00
1	 1.204767791901590e+00	 1.095800832978215e+00	-4.948213829495872e+00
1	 1.178504552777184e+00	 1.123998183736358e+00	-5.325923119188964e+00
1	 1.151573900789520e+00	 1.151573900789520e+00	-5.705085223834293e+00
1	 1.123998183736358e+00	 1.178504552777183e+00	-6.084302405766666e+00
1	 1.095800832978215e+00	 1.204767791901590e+00	-6.462129912236946e+00
1	 1.067006297127446e+00	 1.230342415691485e+00	-6.837085364204063e+00
1	 1.037639971583813e+00	 1.255208423860646e+00	-7.207658453469023e+00
1	 1.007728124341768e+00	 1.279347069942244e+00	-7.572320857861662e+00
1	 1.290569412661036e+00	 1.016567844730730e+00	-3.773995674567804e+00
1	 1.266219024069950e+00	 1.046742076597705e+00	-4.131625685704916e+00
1	 1.241134893022112e+00	 1.076366001488213e+00	-4.494262478647923e+00
1	 1.215335930427042e+00	 1.105413120986796e+00	-4.860736571320039e+00
1	 1.188842312012071e+00	 1.133857816927028e+00	-5.229805842829723e+00
1	 1.161675426235042e+00	 1.161675426235042e+00	-5.600163375060599e+00
1	 1.133857816927028e+00	 1.188842312012071e+00	-5.970445852077966e+00
1	 1.105413120986796e+00	 1.215335930427042e+00	-6.339242441721490e+00
1	 1.076366001488213e+00	 1.241134893022111e+00	-6.705104077935342e+00
1	 1.046742076597705e+00	 1.266219024069950e+00	-7.066553057676408e+00
1	 1.016567844730730e+00	 1.290569412661036e+00	-7.422092862719174e+00
1	 1.301791755379827e+00	 1.025407565119693e+00	-3.709559382112507e+00
1	 1.277229624279254e+00	 1.055844181611598e+00	-4.059208913287598e+00
1	 1.251927370352739e+00	 1.085725705848980e+00	-4.413556804434315e+00
1	 1.225904068952494e+00	 1.115025408995377e+00	-4.771479486974331e+00
1	 1.199180071246959e+00	 1.143717450117698e+00	-5.131782017663729e+00
1	 1.171776951680564e+00	 1.171776951680564e+00	-5.493205702483908e+00
1	 1.143717450117698e+00	 1.199180071246959e+00	-5.854436270914871e+00
1	 1.115025408995377e+00	 1.225904068952494e+00	-6.214112526798807e+00
1	 1.085725705848981e+00	 1.251927370352739e+00	-6.570835396244123e+00
1	 1.055844181611599e+00	 1.277229624279254e+00	-6.923177288350557e+00
1	 1.025407565119693e+00	 1.301791755379828e+00	-7.269691681024794e+00
1	 1.313014098098619e+00	 1.034247285508656e+00	-3.643593820291968e+00
1	 1.288240224488558e+00	 1.064946286625491e+00	-3.985201811689294e+00
1	 1.262719847683366e+00	 1.095085410209747e+00	-4.331166456441379e+00
1	 1.236472207477947e+00	 1.124637697003957e+00	-4.680420490787641e+00
1	 1.209517830481846e+00	 1.153577083308367e+00	-5.031827932679571e+00
1	 1.181878477126086e+00	 1.181878477126086e+00	-5.384191392410074e+00
1	 1.153577083308368e+00	 1.209517830481846e+00	-5.736259914926974e+00
1	 1.124637697003958e+00	 1.236472207477947e+00	-6.086737282882278e+00
1	 1.095085410209748e+00	 1.262719847683366e+00	-6.434290703899226e+00
1	 1.064946286625492e+00	 1.288240224488557e+00	-6.777559801013343e+00
1	 1.034247285508656e+00	 1.313014098098619e+00	-7.115165821838179e+00
1	 1.324236440817411e+00	 1.043087005897619e+00	-3.576111688163218e+00
1	 1.299250824697862e+00	 1.074048391639384e+00	-3.909600558016317e+00
1	 1.273512325013993e+00	 1.104445114570514e+00	-4.247076358991063e+00
1	 1.247040346003400e+00	 1.134249985012538e+00	-4.587538245755844e+00
1	 1.219855589716734e+00	 1.163436716499038e+00	-4.929920680628983e+00
1	 1.191980002571608e+00	 1.191980002571608e+00	-5.273100336694014e+00
1	 1.163436716499038e+00	 1.219855589716734e+00	-5.615903502775675e+00
1	 1.134249985012539e+00	 1.247040346003399e+00	-5.957113923167940e+00
1	 1.104445114570514e+00	 1.273512325013993e+00	-6.295480999745062e+00
1	 1.074048391639385e+00	 1.299250824697862e+00	-6.629728279812884e+00
1	 1.043087005897619e+00	 1.324236440817410e+00	-6.958562149844060e+00
1	 1.335458783536202e+00	 1.051926726286582e+00	-3.507125257924278e+00
1	 1.310261424907166e+00	 1.083150496653277e+00	-3.832401457875623e+00
1	 1.284304802344620e+00	 1.113804818931281e+00	-4.161271943150762e+00
1	 1.257608484528852e+00	 1.143862273021119e+00	-4.492812132084958e+00
1	 1.230193348951621e+00	 1.173296349689707e+00	-4.826038124255168e+00
1	 1.202081528017131e+00	 1.202081528017130e+00	-5.159913103094629e+00
1	 1.173296349689708e+00	 1.230193348951621e+00	-5.493354199554003e+00
1	 1.143862273021120e+00	 1.257608484528852e+00	-5.825239754525842e+00
1	 1.113804818931282e+00	 1.284304802344620e+00	-6.154416912916986e+00
1	 1.083150496653278e+00	 1.310261424907165e+00	-6.479709478337730e+00
1	 1.051926726286582e+00	 1.335458783536202e+00	-6.799925954443728e+00
1	 1.346681126254994e+00	 1.060766446675545e+00	-3.436646392699836e+00
1	 1.321272025116470e+00	 1.092252601667171e+00	-3.753600940020572e+00
1	 1.295097279675248e+00	 1.123164523292048e+00	-4.073739125618945e+00
1	 1.268176623054305e+00	 1.153474561029700e+00	-4.396222217307475e+00
1	 1.240531108186509e+00	 1.183155982880377e+00	-4.720158864209971e+00
1	 1.212183053462653e+00	 1.212183053462653e+00	-5.044610907112206e+00
1	 1.183155982880377e+00	 1.240531108186509e+00	-5.368599598185170e+00
1	 1.153474561029701e+00	 1.268176623054305e+00	-5.691112173597086e+00
1	 1.123164523292049e+00	 1.295097279675247e+00	-6.011108718245876e+00
1	 1.092252601667171e+00	 1.321272025116470e+00	-6.327529258390170e+00
1	 1.060766446675545e+00	 1.346681126254994e+00	-6.639301015391658e+00
1	 9.723692427859164e-01	 1.234457699067078e+00	-8.150469052916323e+00
1	 9.430066669948137e-01	 1.257030700144342e+00	-8.545018656196964e+00
1	 9.131706274663016e-01	 1.278869485223118e+00	-8.931279765825069e+00
1	 8.828885376052734e-01	 1.299959839867087e+00	-9.309089136018780e+00
1	 8.521883394894909e-01	 1.320288903664719e+00	-9.678324944778652e+00
1	 8.210984212029198e-01	 1.339845191729296e+00	-1.003890589588584e+01
1	 7.896475334192649e-01	 1.358618610231331e+00	-1.039079007653861e+01
1	 7.578647057289489e-01	 1.376600465971305e+00	-1.073397358778092e+01
1	 7.257791631950296e-01	 1.393783470046177e+00	-1.106848896677292e+01
1	 6.934202436112055e-01	 1.410161735707014e+00	-1.139440342154374e+01
1	 6.608173159184336e-01	 1.425730770546950e+00	-1.171181690012770e+01
1	 9.812089631748793e-01	 1.245680041785870e+00	-8.009454412267877e+00
1	 9.515794548765846e-01	 1.268458251963835e+00	-8.394485862460192e+00
1	 9.214721786250856e-01	 1.290495571452418e+00	-8.771211516250458e+00
1	 8.909147970380484e-01	 1.311777656593151e+00	-9.139623370240443e+00
1	 8.599355062121232e-01	 1.332291530061670e+00	-9.499762562169394e+00
1	 8.285629523047646e-01	 1.352025602563199e+00	-9.851717053614680e+00
1	 7.968261473594400e-01	 1.370969688506161e+00	-1.019561903867028e+01
1	 7.647543848719395e-01	 1.389115015661953e+00	-1.053164211018393e+01
1	 7.323771555877113e-01	 1.406454228864779e+00	-1.085999821688486e+01
1	 6.997240640076707e-01	 1.422981387849804e+00	-1.118093444597967e+01
1	 6.668247460631466e-01	 1.438691959370104e+00	-1.149472966653561e+01
1	 9.900486835638419e-01	 1.256902384504661e+00	-7.866054589920254e+00
1	 9.601522427583559e-01	 1.279885803783329e+00	-8.241687240524081e+00
1	 9.297737297838703e-01	 1.302121657681720e+00	-8.609120138873919e+00
1	 8.989410564708238e-01	 1.323595473319216e+00	-8.968481074194761e+00
1	 8.676826729347549e-01	 1.344294156458623e+00	-9.319952864855217e+00
1	 8.360274834066094e-01	 1.364206013397101e+00	-9.663769811725594e+00
1	 8.040047612996150e-01	 1.383320766780991e+00	-1.000021385750644e+01
1	 7.716440640149302e-01	 1.401629565352601e+00	-1.032961049596805e+01
1	 7.389751479803938e-01	 1.419124987683381e+00	-1.065232447660369e+01
1	 7.060278844041363e-01	 1.435801039992596e+00	-1.096875535109729e+01
1	 6.728321762078597e-01	 1.451653148193258e+00	-1.127933290824603e+01
1	 9.988884039528049e-01	 1.268124727223452e+00	-7.720325440257749e+00
1	 9.687250306401261e-01	 1.291313355602823e+00	-8.086698347083255e+00
1	 9.380752809426548e-01	 1.313747743911021e+00	-8.445092284405236e+00
1	 9.069673159035991e-01	 1.335413290045280e+00	-8.795751937665758e+00
1	 8.754298396573863e-01	 1.356296782855575e+00	-9.138981110740906e+00
1	 8.434920145084538e-01	 1.376386424231004e+00	-9.475138136855767e+00
1	 8.111833752397901e-01	 1.395671845055821e+00	-9.804630984994018e+00
1	 7.785337431579205e-01	 1.414144115043249e+00	-1.012791211605803e+01
1	 7.455731403730758e-01	 1.431795746501982e+00	-1.044547314437326e+01
1	 7.123317048006017e-01	 1.448620692135387e+00	-1.075783936067370e+01
1	 6.788396063525725e-01	 1.464614337016411e+00	-1.106556417246198e+01
1	 1.007728124341768e+00	 1.279347069942244e+00	-7.572320857861664e+00
1	 9.772978185218977e-01	 1.302740907422317e+00	-7.929592087720245e+00
1	 9.463768321014395e-01	 1.325373830140322e+00	-8.279211563178212e+00
1	 9.149935753363746e-01	 1.347231106771345e+00	-8.621522503427531e+00
1	 8.831770063800182e-01	 1.368299409252526e+00	-8.956929566225725e+00
1	 8.509565456102984e-01	 1.388566835064906e+00	-9.285893400321751e+00
1	 8.183619891799651e-01	 1.408022923330651e+00	-9.608924892310007e+00
1	 7.854234223009112e-01	 1.426658664733898e+00	-9.926579170469079e+00
1	 7.521711327657579e-01	 1.444466505320584e+00	-1.023944942921845e+01
1	 7.186355251970672e-01	 1.461440344278178e+00	-1.054816063800287e+01
1	 6.848470364972853e-01	 1.477575525839566e+00	-1.085336319771269e+01
1	 1.016567844730730e+00	 1.290569412661036e+00	-7.422092862719175e+00
1	 9.858706064036687e-01	 1.314168459241811e+00	-7.770438832171234e+00
1	 9.546783832602239e-01	 1.336999916369622e+00	-8.111558677341337e+00
1	 9.230198347691496e-01	 1.359048923497409e+00	-8.445876304070655e+00
1	 8.909241731026497e-01	 1.380302035649478e+00	-8.773877636268981e+00
1	 8.584210767121432e-01	 1.400747245898808e+00	-9.096104490959604e+00
1	 8.255406031201403e-01	 1.420374001605481e+00	-9.413148155981633e+00
1	 7.923131014439014e-01	 1.439173214424546e+00	-9.725642739215873e+00
1	 7.587691251584401e-01	 1.457137264139186e+00	-1.003425835898062e+01
1	 7.249393455935327e-01	 1.474259996420969e+00	-1.033969424504648e+01
1	 6.908544666419983e-01	 1.490536714662719e+00	-1.064267181857854e+01
1	 1.025407565119693e+00	 1.301791755379828e+00	-7.269691681024794e+00
1	 9.944433942854396e-01	 1.325596011061305e+00	-7.609306523629778e+00
1	 9.629799344190084e-01	 1.348626002598924e+00	-7.942211546210341e+00
1	 9.310460942019247e-01	 1.370866740223473e+00	-8.268893991751645e+00
1	 8.986713398252816e-01	 1.392304662046430e+00	-8.589901987727863e+00
1	 8.658856078139883e-01	 1.412927656732712e+00	-8.905837922128192e+00
1	 8.327192170603155e-01	 1.432725079880312e+00	-9.217351539552476e+00
1	 7.992027805868919e-01	 1.451687764115194e+00	-9.525132830588403e+00
1	 7.653671175511222e-01	 1.469808022957787e+00	-9.829904788127289e+00
1	 7.312431659899982e-01	 1.487079648563759e+00	-1.013241610369882e+01
1	 6.968618967867116e-01	 1.503497903485874e+00	-1.043343387534402e+01
1	 1.034247285508656e+00	 1.313014098098619e+00	-7.115165821838179e+00
1	 1.003016182167211e+00	 1.337023562880799e+00	-7.446260782445250e+00
1	 9.712814855777929e-01	 1.360252088828225e+00	-7.771245425192596e+00
1	 9.390723536346998e-01	 1.382684556949537e+00	-8.090653461288252e+00
1	 9.064185065479133e-01	 1.404307288443382e+00	-8.405076666370597e+00
1	 8.733501389158328e-01	 1.425108067566614e+00	-8.715157933225418e+00
1	 8.398978310004906e-01	 1.445076158155142e+00	-9.021584071060364e+00
1	 8.060924597298820e-01	 1.464202313805842e+00	-9.325078426952230e+00
1	 7.719651099438040e-01	 1.482478781776388e+00	-9.626393405161219e+00
1	 7.375469863864635e-01	 1.499899300706550e+00	-9.926302959037180e+00
1	 7.028693269314246e-01	 1.516459092309028e+00	-1.022559512828397e+01
1	 1.043087005897619e+00	 1.324236440817410e+00	-6.958562149844060e+00
1	 1.011588970048982e+00	 1.348451114700293e+00	-7.281365004548332e+00
1	 9.795830367365774e-01	 1.371878175057526e+00	-7.598733018664834e+00
1	 9.470986130674751e-01	 1.394502373675602e+00	-7.911229966996014e+00
1	 9.141656732705449e-01	 1.416309914840334e+00	-8.219473207939226e+00
1	 8.808146700176775e-01	 1.437288478400517e+00	-8.524126586042581e+00
1	 8.470764449406656e-01	 1.457427236429972e+00	-8.825893116575715e+00
1	 8.129821388728727e-01	 1.476716863496490e+00	-9.125507528219901e+00
1	 7.785631023364860e-01	 1.495149540594990e+00	-9.423728739653018e+00
1	 7.438508067829290e-01	 1.512718952849342e+00	-9.721332344441288e+00
1	 7.088767570761375e-01	 1.529420281132182e+00	-1.001910317630793e+01
1	 1.051926726286582e+00	 1.335458783536202e+00	-6.799925954443728e+00
1	 1.020161757930753e+00	 1.359878666519787e+00	-7.114680454914067e+00
1	 9.878845878953622e-01	 1.383504261286827e+00	-7.424744587159180e+00
1	 9.551248725002501e-01	 1.406320190401667e+00	-7.730696233633542e+00
1	 9.219128399931764e-01	 1.428312541237286e+00	-8.033160743613070e+00
1	 8.882792011195221e-01	 1.449468889234420e+00	-8.332803856260140e+00
1	 8.542550588808409e-01	 1.469778314704802e+00	-8.630324450032084e+00
1	 8.198718180158628e-01	 1.489231413187139e+00	-8.926447193130313e+00
1	 7.851610947291682e-01	 1.507820299413591e+00	-9.221915168918644e+00
1	 7.501546271793946e-01	 1.525538604992132e+00	-9.517482548471499e+00
1	 7.148841872208505e-01	 1.542381469955336e+00	-9.813907379706563e+00
1	 1.060766446675545e+00	 1.346681126254994e+00	-6.639301015391658e+00
1	 1.028734545812524e+00	 1.371306218339282e+00	-6.946266356351716e+00
1	 9.961861390541472e-01	 1.395130347516129e+00	-7.249348049190008e+00
1	 9.631511319330257e-01	 1.418138007127731e+00	-7.549122561800917e+00
1	 9.296600067158087e-01	 1.440315167634238e+00	-7.846206100198791e+00
1	 8.957437322213671e-01	 1.461649300068322e+00	-8.141247720369380e+00
1	 8.614336728210163e-01	 1.482129392979633e+00	-8.434922319565370e+00
1	 8.267614971588537e-01	 1.501745962877787e+00	-8.727923578464505e+00
1	 7.917590871218502e-01	 1.520491058232193e+00	-9.020956924363665e+00
1	 7.564584475758603e-01	 1.538358257134924e+00	-9.314732583402714e+00
1	 7.208916173655637e-01	 1.555342658778490e+00	-9.609958786760963e+00
1	 6.608173159184336e-01	 1.425730770546950e+00	-1.171181690012770e+01
1	 6.279997002160421e-01	 1.440487463197997e+00	-1.202015827957510e+01
1	 5.949965897789892e-01	 1.454430064751624e+00	-1.231922519968495e+01
1	 5.618369754655447e-01	 1.467558165151136e+00	-1.260968779005509e+01
1	 5.285495728694986e-01	 1.479872664833536e+00	-1.289220410329347e+01
1	 4.951627525386059e-01	 1.491375741924358e+00	-1.316741576500782e+01
1	 4.617044735467815e-01	 1.502070815310959e+00	-1.343594396819990e+01
1	 4.282022206720670e-01	 1.511962503937697e+00	-1.369838583204651e+01
1	 3.946829453960652e-01	 1.521056582680450e+00	-1.395531114002406e+01
1	 3.611730109038602e-01	 1.529359935167873e+00	-1.420725946739649e+01
1	 3.276981412268394e-01	 1.536880503922968e+00	-1.445473770330515e+01
1	 6.668247460631466e-01	 1.438691959370104e+00	-1.149472966653561e+01
1	 6.337087883998245e-01	 1.453582803772524e+00	-1.180089534759779e+01
1	 6.004056496860710e-01	 1.467652156249367e+00	-1.209918409733150e+01
1	 5.669445843334131e-01	 1.480899603016147e+00	-1.239024714380171e+01
1	 5.333545689864940e-01	 1.493326052695659e+00	-1.267471744868071e+01
1	 4.996642321071389e-01	 1.504933703214580e+00	-1.295320569808912e+01
1	 4.659017869426613e-01	 1.515726004541059e+00	-1.322629666397518e+01
1	 4.320949681327221e-01	 1.525707617609859e+00	-1.349454595189285e+01
1	 3.982709721723930e-01	 1.534884369795726e+00	-1.375847714598406e+01
1	 3.644564019120771e-01	 1.543263207305763e+00	-1.401857935705233e+01
1	 3.306772152379925e-01	 1.550852144867721e+00	-1.427530517490609e+01
1	 6.728321762078597e-01	 1.451653148193258e+00	-1.127933290824603e+01
1	 6.394178765836066e-01	 1.466678144347052e+00	-1.158361836895826e+01
1	 6.058147095931525e-01	 1.480874247747109e+00	-1.188130971318277e+01
1	 5.720521932012816e-01	 1.494241040881157e+00	-1.217304718039996e+01
1	 5.381595651034895e-01	 1.506779440557782e+00	-1.245944826490028e+01
1	 5.041657116756717e-01	 1.518491664504802e+00	-1.274110391433972e+01
1	 4.700991003385412e-01	 1.529381193771159e+00	-1.301857511811853e+01
1	 4.359877155933772e-01	 1.539452731282019e+00	-1.329238989887217e+01
1	 4.018589989487209e-01	 1.548712156911003e+00	-1.356304071525531e+01
1	 3.677397929202940e-01	 1.557166479443652e+00	-1.383098227927218e+01
1	 3.336562892491454e-01	 1.564823785812476e+00	-1.409662978671087e+01
1	 6.788396063525725e-01	 1.464614337016411e+00	-1.106556417246198e+01
1	 6.451269647673888e-01	 1.479773484921579e+00	-1.136823190502559e+01
1	 6.112237695002343e-01	 1.494096339244850e+00	-1.166548186966198e+01
1	 5.771598020691503e-01	 1.507582478746167e+00	-1.195795096053117e+01
1	 5.429645612204850e-01	 1.520232828419904e+00	-1.224625053139635e+01
1	 5.086671912442046e-01	 1.532049625795023e+00	-1.253096267078928e+01
1	 4.742964137344209e-01	 1.543036383001258e+00	-1.281263687952017e+01
1	 4.398804630540324e-01	 1.553197844954180e+00	-1.309178716277292e+01
1	 4.054470257250487e-01	 1.562539944026279e+00	-1.336888954385758e+01
1	 3.710231839285109e-01	 1.571069751581542e+00	-1.364438000171072e+01
1	 3.366353632602986e-01	 1.578795426757230e+00	-1.391865282950954e+01
1	 6.848470364972853e-01	 1.477575525839566e+00	-1.085336319771269e+01
1	 6.508360529511710e-01	 1.492868825496106e+00	-1.115464386589298e+01
1	 6.166328294073158e-01	 1.507318430742592e+00	-1.145158460594919e+01
1	 5.822674109370189e-01	 1.520923916611177e+00	-1.174482634976501e+01
1	 5.477695573374803e-01	 1.533686216282028e+00	-1.203498335114124e+01
1	 5.131686708127371e-01	 1.545607587085244e+00	-1.232263940843141e+01
1	 4.784937271303007e-01	 1.556691572231357e+00	-1.260834449535458e+01
1	 4.437732105146876e-01	 1.566942958626341e+00	-1.289261181268937e+01
1	 4.090350525013766e-01	 1.576367731141557e+00	-1.317591526830142e+01
1	 3.743065749367279e-01	 1.584973023719432e+00	-1.345868738789450e+01
1	 3.396144372714516e-01	 1.592767067701985e+00	-1.374131765406432e+01
1	 6.908544666419983e-01	 1.490536714662719e+00	-1.064267181857854e+01
1	 6.565451411349532e-01	 1.505964166070633e+00	-1.094276536478062e+01
1	 6.220418893143977e-01	 1.520540522240335e+00	-1.123950599464456e+01
1	 5.873750198048873e-01	 1.534265354476187e+00	-1.153354580965139e+01
1	 5.525745534544757e-01	 1.547139604144151e+00	-1.182551072787345e+01
1	 5.176701503812700e-01	 1.559165548375466e+00	-1.211599652683367e+01
1	 4.826910405261807e-01	 1.570346761461457e+00	-1.240556529376427e+01
1	 4.476659579753428e-01	 1.580688072298502e+00	-1.269474229792121e+01
1	 4.126230792777045e-01	 1.590195518256833e+00	-1.298401329426207e+01
1	 3.775899659449447e-01	 1.598876295857322e+00	-1.327382226261853e+01
1	 3.425935112826048e-01	 1.606738708646739e+00	-1.356456958154574e+01
1	 6.968618967867116e-01	 1.503497903485874e+00	-1.043343387534402e+01
1	 6.622542293187351e-01	 1.519059506645161e+00	-1.073251057997025e+01
1	 6.274509492214794e-01	 1.533762613738076e+00	-1.102913796791350e+01
1	 5.924826286727558e-01	 1.547606792341198e+00	-1.132398619961776e+01
1	 5.573795495714714e-01	 1.560592992006274e+00	-1.161770135485781e+01
1	 5.221716299498026e-01	 1.572723509665687e+00	-1.191090117040627e+01
1	 4.868883539220605e-01	 1.584001950691557e+00	-1.220417117778343e+01
1	 4.515587054359978e-01	 1.594433185970662e+00	-1.249806125917151e+01
1	 4.162111060540324e-01	 1.604023305372110e+00	-1.279308263411569e+01
1	 3.808733569531617e-01	 1.612779567995211e+00	-1.308970528430580e+01
1	 3.455725852937579e-01	 1.620710349591493e+00	-1.338835581860134e+01
1	 7.028693269314246e-01	 1.516459092309028e+00	-1.022559512828397e+01
1	 6.679633175025173e-01	 1.532154847219687e+00	-1.052379662381931e+01
1	 6.328600091285610e-01	 1.546984705235819e+00	-1.082037615254841e+01
1	 5.975902375406245e-01	 1.560948230206208e+00	-1.111602858902567e+01
1	 5.621845456884668e-01	 1.574046379868397e+00	-1.141142841447825e+01
1	 5.266731095183355e-01	 1.586281470955908e+00	-1.170722502563084e+01
1	 4.910856673179403e-01	 1.597657139921656e+00	-1.200403842982956e+01
1	 4.554514528966531e-01	 1.608178299642824e+00	-1.230245534942709e+01
1	 4.197991328303602e-01	 1.617851092487387e+00	-1.260302575280679e+01
1	 3.841567479613786e-01	 1.626682840133101e+00	-1.290625982391170e+01
1	 3.485516593049110e-01	 1.634681990536247e+00	-1.321262537677939e+01
1	 7.088767570761375e-01	 1.529420281132182e+00	-1.001910317630793e+01
1	 6.736724056862996e-01	 1.545250187794215e+00	-1.031654341843594e+01
1	 6.382690690356427e-01	 1.560206796733560e+00	-1.061311971341653e+01
1	 6.026978464084930e-01	 1.574289668071218e+00	-1.090955807878385e+01
1	 5.669895418054623e-01	 1.587499767730520e+00	-1.120656938802097e+01
1	 5.311745890868682e-01	 1.599839432246130e+00	-1.150484412859974e+01
1	 4.952829807138202e-01	 1.611312329151756e+00	-1.180504752613659e+01
1	 4.593442003573082e-01	 1.621923413314984e+00	-1.210781506394630e+01
1	 4.233871596066879e-01	 1.631678879602664e+00	-1.241374842155288e+01
1	 3.874401389695955e-01	 1.640586112270991e+00	-1.272341184998636e+01
1	 3.515307333160640e-01	 1.648653631481002e+00	-1.303732899605042e+01
1	 7.148841872208505e-01	 1.542381469955336e+00	-9.813907379706563e+00
1	 6.793814938700818e-01	 1.558345528368742e+00	-1.011067357762209e+01
1	 6.436781289427244e-01	 1.573428888231302e+00	-1.040727120480117e+01
1	 6.078054552763618e-01	 1.587631105936229e+00	-1.070446363195518e+01
1	 5.717945379224576e-01	 1.600953155592643e+00	-1.100300587504824e+01
1	 5.356760686554010e-01	 1.613397393536351e+00	-1.130363868225953e+01
1	 4.994802941096999e-01	 1.624967518381855e+00	-1.160708296054405e+01
1	 4.632369478179631e-01	 1.635668526987144e+00	-1.191403457881924e+01
1	 4.269751863830159e-01	 1.645506666717941e+00	-1.222515957892551e+01
1	 3.907235299778124e-01	 1.654489384408881e+00	-1.254108981953210e+01
1	 3.545098073272172e-01	 1.662625272425756e+00	-1.286241907218417e+01
1	 7.208916173655637e-01	 1.555342658778490e+00	-9.609958786760963e+00
1	 6.850905820538642e-01	 1.571440868943270e+00	-9.906112294719595e+00
1	 6.490871888498062e-01	 1.586650979729045e+00	-1.020273642917633e+01
1	 6.129130641442304e-01	 1.600972543801240e+00	-1.050063791283388e+01
1	 5.765995340394531e-01	 1.614406543454766e+00	-1.080062342180360e+01
1	 5.401775482239338e-01	 1.626955354826574e+00	-1.110349288279165e+01
1	 5.036776075055799e-01	 1.638622707611955e+00	-1.141003307709675e+01
1	 4.671296952786185e-01	 1.649413640659306e+00	-1.172101159759960e+01
1	 4.305632131593439e-01	 1.659334453833218e+00	-1.203717119887726e+01
1	 3.940069209860292e-01	 1.668392656546771e+00	-1.235922457431772e+01
1	 3.574888813383703e-01	 1.676596913370510e+00	-1.268784958775809e+01
1	 3.276981412268394e-01	 1.536880503922968e+00	-1.445473770330515e+01
1	 2.942833746347460e-01	 1.543627238200864e+00	-1.469664915475288e+01
1	 2.609530213480562e-01	 1.549610039897574e+00	-1.492838618854642e+01
1	 2.277306256078256e-01	 1.554839707899921e+00	-1.514520763163251e+01
1	 1.946389321076896e-01	 1.559327881239228e+00	-1.534246222111287e+01
1	 1.616998567620849e-01	 1.563086981400959e+00	-1.551562503790727e+01
1	 1.289344617561649e-01	 1.566130154129499e+00	-1.566033096913647e+01
1	 9.636293479650726e-02	 1.568471211052165e+00	-1.577240508392571e+01
1	 6.400457245767889e-02	 1.570124571429461e+00	-1.584788984702442e+01
1	 3.187776749815371e-02	 1.571105204319996e+00	-1.588306913232149e+01
1	 0.000000000000000e+00	 1.571428571428571e+00	-1.587448903363498e+01
1	 3.306772152379925e-01	 1.550852144867721e+00	-1.427530517490609e+01
1	 2.969586780405165e-01	 1.557660213093599e+00	-1.452725151432977e+01
1	 2.633253215421294e-01	 1.563697403896643e+00	-1.476950338902666e+01
1	 2.298009040224422e-01	 1.568974614335374e+00	-1.499725526188663e+01
1	 1.964083769450323e-01	 1.573503589250493e+00	-1.520578452030034e+01
1	 1.631698554599220e-01	 1.577296863050058e+00	-1.539048916892843e+01
1	 1.301065932266755e-01	 1.580367700985222e+00	-1.554692251542117e+01
1	 9.723896147647550e-02	 1.582730040243548e+00	-1.567082472523007e+01
1	 6.458643220729415e-02	 1.584398431169730e+00	-1.575815116241320e+01
1	 3.216756538450056e-02	 1.585387978904722e+00	-1.580509747210209e+01
1	 0.000000000000000e+00	 1.585714285714286e+00	-1.580812139666472e+01
1	 3.336562892491454e-01	 1.564823785812476e+00	-1.409662978671087e+01
1	 2.996339814462869e-01	 1.571693187986334e+00	-1.435827649306350e+01
1	 2.656976217362026e-01	 1.577784767895711e+00	-1.461072154770897e+01
1	 2.318711824370587e-01	 1.583109520770827e+00	-1.484913870834815e+01
1	 1.981778217823749e-01	 1.587679297261759e+00	-1.506877496607997e+01
1	 1.646398541577591e-01	 1.591506744699158e+00	-1.526498933820579e+01
1	 1.312787246971861e-01	 1.594605247840945e+00	-1.543328864746380e+01
1	 9.811498815644375e-02	 1.596988869434931e+00	-1.556936015462503e+01
1	 6.516829195690942e-02	 1.598672290909997e+00	-1.566910095296807e+01
1	 3.245736327084742e-02	 1.599670753489450e+00	-1.572864407277329e+01
1	 0.000000000000000e+00	 1.600000000000000e+00	-1.574438128123288e+01
1	 3.366353632602986e-01	 1.578795426757230e+00	-1.391865282950954e+01
1	 3.023092848520573e-01	 1.585726162879069e+00	-1.418969510770908e+01
1	 2.680699219302758e-01	 1.591872131894781e+00	-1.445203590100697e+01
1	 2.339414608516754e-01	 1.597244427206281e+00	-1.470087084130866e+01
1	 1.999472666197175e-01	 1.601855005273025e+00	-1.493145644517891e+01
1	 1.661098528555962e-01	 1.605716626348258e+00	-1.513914984994778e+01
1	 1.324508561676967e-01	 1.608842794696667e+00	-1.531944555858651e+01
1	 9.899101483641200e-02	 1.611247698626315e+00	-1.546800905043527e+01
1	 6.575015170652469e-02	 1.612946150650265e+00	-1.558070715702861e+01
1	 3.274716115719427e-02	 1.613953528074177e+00	-1.565363514253760e+01
1	 0.000000000000000e+00	 1.614285714285714e+00	-1.568314046629956e+01
1	 3.396144372714516e-01	 1.592767067701985e+00	-1.374131765406433e+01
1	 3.049845882578276e-01	 1.599759137771804e+00	-1.402147939197753e+01
1	 2.704422221243490e-01	 1.605959495893849e+00	-1.429344185247765e+01
1	 2.360117392662919e-01	 1.611379333641735e+00	-1.455246407947061e+01
1	 2.017167114570602e-01	 1.616030713284290e+00	-1.479385104128119e+01
1	 1.675798515534334e-01	 1.619926507997358e+00	-1.501299415558328e+01
1	 1.336229876382073e-01	 1.623080341552390e+00	-1.520540887392475e+01
1	 9.986704151638025e-02	 1.625506527817698e+00	-1.536676917244777e+01
1	 6.633201145613994e-02	 1.627220010390533e+00	-1.549293883790531e+01
1	 3.303695904354111e-02	 1.628236302658904e+00	-1.557999947878330e+01
1	 0.000000000000000e+00	 1.628571428571428e+00	-1.562427522980874e+01
1	 3.425935112826048e-01	 1.606738708646739e+00	-1.356456958154574e+01
1	 3.076598916635981e-01	 1.613792112664539e+00	-1.385360235232031e+01
1	 2.728145223184223e-01	 1.620046859892918e+00	-1.413493496555450e+01
1	 2.380820176809085e-01	 1.625514240077189e+00	-1.440393040958151e+01
1	 2.034861562944028e-01	 1.630206421295556e+00	-1.465598006994285e+01
1	 1.690498502512705e-01	 1.634136389646457e+00	-1.488654489083952e+01
1	 1.347951191087179e-01	 1.637317888408113e+00	-1.509119367513098e+01
1	 1.007430681963485e-01	 1.639765357009081e+00	-1.526563835836996e+01
1	 6.691387120575519e-02	 1.641493870130801e+00	-1.540576613496712e+01
1	 3.332675692988796e-02	 1.642519077243632e+00	-1.550766835551143e+01
1	 0.000000000000000e+00	 1.642857142857143e+00	-1.556766615308020e+01
1	 3.455725852937579e-01	 1.620710349591493e+00	-1.338835581860134e+01
1	 3.103351950693684e-01	 1.627825087557274e+00	-1.368603792600109e+01
1	 2.751868225124956e-01	 1.634134223891988e+00	-1.397651095665574e+01
1	 2.401522960955250e-01	 1.639649146512643e+00	-1.425528140505272e+01
1	 2.052556011317454e-01	 1.644382129306822e+00	-1.451786411170058e+01
1	 1.705198489491076e-01	 1.648346271295556e+00	-1.475982391090140e+01
1	 1.359672505792285e-01	 1.651555435263836e+00	-1.497681452380069e+01
1	 1.016190948763167e-01	 1.654024186200465e+00	-1.516461452047104e+01
1	 6.749573095537045e-02	 1.655767729871069e+00	-1.531916021726008e+01
1	 3.361655481623482e-02	 1.656801851828358e+00	-1.543657541658471e+01
1	 0.000000000000000e+00	 1.657142857142857e+00	-1.551319793531931e+01
1	 3.485516593049110e-01	 1.634681990536247e+00	-1.321262537677939e+01
1	 3.130104984751388e-01	 1.641858062450009e+00	-1.351876094131697e+01
1	 2.775591227065688e-01	 1.648221587891056e+00	-1.381816568864693e+01
1	 2.422225745101416e-01	 1.653784052948096e+00	-1.410652824362354e+01
1	 2.070250459690880e-01	 1.658557837318087e+00	-1.437952304348306e+01
1	 1.719898476469448e-01	 1.662556152944656e+00	-1.463285232376790e+01
1	 1.371393820497390e-01	 1.665792982119558e+00	-1.486228548369713e+01
1	 1.024951215562850e-01	 1.668283015391848e+00	-1.506369564239573e+01
1	 6.807759070498574e-02	 1.670041589611337e+00	-1.523309323950384e+01
1	 3.390635270258167e-02	 1.671084626413085e+00	-1.536665657445209e+01
1	 0.000000000000000e+00	 1.671428571428571e+00	-1.546075921763889e+01
1	 3.515307333160640e-01	 1.648653631481002e+00	-1.303732899605042e+01
1	 3.156858018809093e-01	 1.655891037342745e+00	-1.335174707984334e+01
1	 2.799314229006420e-01	 1.662308951890124e+00	-1.365989516463566e+01
1	 2.442928529247582e-01	 1.667918959383550e+00	-1.395768172412682e+01
1	 2.087944908064307e-01	 1.672733545329353e+00	-1.424097606842479e+01
1	 1.734598463447819e-01	 1.676766034593756e+00	-1.450565052191262e+01
1	 1.383115135202496e-01	 1.680030528975281e+00	-1.474762014184560e+01
1	 1.033711482362532e-01	 1.682541844583231e+00	-1.496287977613969e+01
1	 6.865945045460098e-02	 1.684315449351604e+00	-1.514753830032577e+01
1	 3.419615058892853e-02	 1.685367400997813e+00	-1.529784991402179e+01
1	 0.000000000000000e+00	 1.685714285714285e+00	-1.541024241602937e+01
1	 3.545098073272172e-01	 1.662625272425756e+00	-1.286241907218417e+01
1	 3.183611052866797e-01	 1.669924012235480e+00	-1.318497284058141e+01
1	 2.823037230947152e-01	 1.676396315889193e+00	-1.350169552207859e+01
1	 2.463631313393748e-01	 1.682053865819005e+00	-1.380875228240937e+01
1	 2.105639356437733e-01	 1.686909253340619e+00	-1.410224174417676e+01
1	 1.749298450426190e-01	 1.690975916242855e+00	-1.437823821234799e+01
1	 1.394836449907602e-01	 1.694268075831003e+00	-1.463283162856484e+01
1	 1.042471749162215e-01	 1.696800673774614e+00	-1.486216503917769e+01
1	 6.924131020421623e-02	 1.698589309091872e+00	-1.506246940260123e+01
1	 3.448594847527537e-02	 1.699650175582540e+00	-1.523009560138148e+01
1	 0.000000000000000e+00	 1.699999999999999e+00	-1.536154356275025e+01
1	 3.574888813383703e-01	 1.676596913370510e+00	-1.268784958775809e+01
1	 3.210364086924502e-01	 1.683956987128215e+00	-1.301841550589934e+01
1	 2.846760232887887e-01	 1.690483679888263e+00	-1.334356302718401e+01
1	 2.484334097539916e-01	 1.696188772254459e+00	-1.365975000645638e+01
1	 2.123333804811160e-01	 1.701084961351885e+00	-1.396333800980155e+01
1	 1.763998437404562e-01	 1.705185797891955e+00	-1.425063444518591e+01
1	 1.406557764612708e-01	 1.708505622686726e+00	-1.451793263649634e+01
1	 1.051232015961897e-01	 1.711059502965998e+00	-1.476154961173543e+01
1	 6.982316995383152e-02	 1.712863168832140e+00	-1.497786141577630e+01
1	 3.477574636162224e-02	 1.713932950167268e+00	-1.516333579708272e+01
1	 0.000000000000000e+00	 1.714285714285714e+00	-1.531456215565261e+01
1	 1.714285714285714e+00	 0.000000000000000e+00	 4.025542282163244e+00
1	 1.713932950167268e+00	 3.477574636162127e-02	 3.735399695304778e+00
1	 1.712863168832140e+00	 6.982316995383066e-02	 3.447731927867825e+00
1	 1.711059502965998e+00	 1.051232015961890e-01	 3.164290960902650e+00
1	 1.708505622686727e+00	 1.406557764612702e-01	 2.886676255153158e+00
1	 1.705185797891956e+00	 1.763998437404557e-01	 2.616315563642988e+00
1	 1.701084961351885e+00	 2.123333804811157e-01	 2.354445822905870e+00
1	 1.696188772254459e+00	 2.484334097539913e-01	 2.102094295232797e+00
1	 1.690483679888263e+00	 2.846760232887885e-01	 1.860060144571130e+00
1	 1.683956987128216e+00	 3.210364086924503e-01	 1.628896637461433e+00
1	 1.676596913370510e+00	 3.574888813383701e-01	 1.408894167368386e+00
1	 1.728571428571429e+00	 0.000000000000000e+00	 3.874364690798139e+00
1	 1.728215724751995e+00	 3.506554424796810e-02	 3.593975470333378e+00
1	 1.727137028572408e+00	 7.040502970344592e-02	 3.315731870989611e+00
1	 1.725318332157382e+00	 1.059992282761573e-01	 3.041400504536738e+00
1	 1.722743169542449e+00	 1.418279079317808e-01	 2.772585022880541e+00
1	 1.719395679541055e+00	 1.778698424382929e-01	 2.510706298280476e+00
1	 1.715260669363150e+00	 2.141028253184583e-01	 2.256982729850550e+00
1	 1.710323678689913e+00	 2.505036881686079e-01	 2.012410857390094e+00
1	 1.704571043887331e+00	 2.870483234828617e-01	 1.777746473901458e+00
1	 1.697989962020950e+00	 3.237117120982207e-01	 1.553486436839725e+00
1	 1.690568554315264e+00	 3.604679553495232e-01	 1.339851384927718e+00
1	 1.742857142857143e+00	 0.000000000000000e+00	 3.729267476284674e+00
1	 1.742498499336722e+00	 3.535534213431496e-02	 3.458169101906728e+00
1	 1.741410888312676e+00	 7.098688945306120e-02	 3.189013915424550e+00
1	 1.739577161348765e+00	 1.068752549561255e-01	 2.923564904486039e+00
1	 1.736980716398172e+00	 1.430000394022914e-01	 2.663410439882167e+00
1	 1.733605561190154e+00	 1.793398411361300e-01	 2.409943907620179e+00
1	 1.729436377374416e+00	 2.158722701558009e-01	 2.164343528824308e+00
1	 1.724458585125366e+00	 2.525739665832245e-01	 1.927552557265435e+00
1	 1.718658407886400e+00	 2.894206236769349e-01	 1.700260054534566e+00
1	 1.712022936913685e+00	 3.263870155039911e-01	 1.482882451344291e+00
1	 1.704540195260018e+00	 3.634470293606763e-01	 1.275546109883627e+00
1	 1.757142857142857e+00	 0.000000000000000e+00	 3.590116565001426e+00
1	 1.756781273921449e+00	 3.564514002066180e-02	 3.327845930306345e+00
1	 1.755684748052944e+00	 7.156874920267643e-02	 3.067440323071168e+00
1	 1.753835990540148e+00	 1.077512816360937e-01	 2.810641339033602e+00
1	 1.751218263253894e+00	 1.441721708728019e-01	 2.559003100812316e+00
1	 1.747815442839254e+00	 1.808098398339671e-01	 2.313871424834863e+00
1	 1.743612085385682e+00	 2.176417149931436e-01	 2.076363251379767e+00
1	 1.738593491560819e+00	 2.546442449978411e-01	 1.847346536369732e+00
1	 1.732745771885470e+00	 2.917929238710082e-01	 1.627420813525227e+00
1	 1.726055911806421e+00	 3.290623189097615e-01	 1.416898643585569e+00
1	 1.718511836204773e+00	 3.664261033718293e-01	 1.215788173234570e+00
1	 1.771428571428571e+00	 0.000000000000000e+00	 3.456782208282510e+00
1	 1.771064048506176e+00	 3.593493790700865e-02	 3.202875639675634e+00
1	 1.769958607793211e+00	 7.215060895229167e-02	 2.950877798992535e+00
1	 1.768094819731531e+00	 1.086273083160620e-01	 2.702491593614613e+00
1	 1.765455810109618e+00	 1.453443023433125e-01	 2.459218419852569e+00
1	 1.762025324488354e+00	 1.822798385318042e-01	 2.222336946543293e+00
1	 1.757787793396948e+00	 2.194111598304861e-01	 1.992882250632368e+00
1	 1.752728397996273e+00	 2.567145234124576e-01	 1.771625512294178e+00
1	 1.746833135884538e+00	 2.941652240650814e-01	 1.559054486732887e+00
1	 1.740088886699156e+00	 3.317376223155319e-01	 1.355354977380116e+00
1	 1.732483477149527e+00	 3.694051773829823e-01	 1.160393540462931e+00
1	 1.785714285714285e+00	 0.000000000000000e+00	 3.329138809419350e+00
1	 1.785346823090904e+00	 3.622473579335549e-02	 3.083132084265394e+00
1	 1.784232467533479e+00	 7.273246870190694e-02	 2.839197313689719e+00
1	 1.782353648922915e+00	 1.095033349960302e-01	 2.598981876530373e+00
1	 1.779693356965340e+00	 1.465164338138231e-01	 2.363916437930671e+00
1	 1.776235206137453e+00	 1.837498372296414e-01	 2.135193430272463e+00
1	 1.771963501408213e+00	 2.211806046678288e-01	 1.913745988397867e+00
1	 1.766863304431727e+00	 2.587848018270742e-01	 1.700227555667071e+00
1	 1.760920499883607e+00	 2.965375242591547e-01	 1.494992386469507e+00
1	 1.754121861591891e+00	 3.344129257213024e-01	 1.298077177702349e+00
1	 1.746455118094281e+00	 3.723842513941356e-01	 1.109184066155645e+00
1	 1.800000000000000e+00	 0.000000000000000e+00	 3.207064758900465e+00
1	 1.799629597675631e+00	 3.651453367970232e-02	 2.968493122953405e+00
1	 1.798506327273747e+00	 7.331432845152218e-02	 2.732273933838359e+00
1	 1.796612478114298e+00	 1.103793616759985e-01	 2.499982643437667e+00
1	 1.793930903821063e+00	 1.476885652843337e-01	 2.272961639119528e+00
1	 1.790445087786553e+00	 1.852198359274785e-01	 2.052298501564383e+00
1	 1.786139209419479e+00	 2.229500495051713e-01	 1.838804832466109e+00
1	 1.780998210867181e+00	 2.608550802416908e-01	 1.632995877731656e+00
1	 1.775007863882676e+00	 2.989098244532278e-01	 1.435071180211734e+00
1	 1.768154836484626e+00	 3.370882291270728e-01	 1.244896502067187e+00
1	 1.760426759039036e+00	 3.753633254052886e-01	 1.061987260309595e+00
1	 1.814285714285714e+00	 0.000000000000000e+00	 3.090442277435207e+00
1	 1.813912372260358e+00	 3.680433156604918e-02	 2.858840461581902e+00
1	 1.812780187014015e+00	 7.389618820113744e-02	 2.629986661021920e+00
1	 1.810871307305681e+00	 1.112553883559667e-01	 2.405368430130080e+00
1	 1.808168450676785e+00	 1.488606967548443e-01	 2.186222775710241e+00
1	 1.804654969435653e+00	 1.866898346253157e-01	 1.973514270195949e+00
1	 1.800314917430745e+00	 2.247194943425140e-01	 1.767913863452466e+00
1	 1.795133117302635e+00	 2.629253586563075e-01	 1.569778627959758e+00
1	 1.789095227881745e+00	 3.012821246473012e-01	 1.379132679767677e+00
1	 1.782187811377361e+00	 3.397635325328432e-01	 1.195649522713490e+00
1	 1.774398399983790e+00	 3.783423994164416e-01	 1.018636065677662e+00
1	 1.828571428571428e+00	 0.000000000000000e+00	 2.979157266335771e+00
1	 1.828195146845086e+00	 3.709412945239601e-02	 2.754059502685569e+00
1	 1.827054046754282e+00	 7.447804795075269e-02	 2.532218278024423e+00
1	 1.825130136497064e+00	 1.121314150359349e-01	 2.315017693157665e+00
1	 1.822405997532508e+00	 1.500328282253548e-01	 2.103572701484782e+00
1	 1.818864851084752e+00	 1.881598333231528e-01	 1.898707155013532e+00
1	 1.814490625442010e+00	 2.264889391798566e-01	 1.700932690703082e+00
1	 1.809268023738089e+00	 2.649956370709240e-01	 1.510428701152196e+00
1	 1.803182591880814e+00	 3.036544248413743e-01	 1.327023640326414e+00
1	 1.796220786270096e+00	 3.424388359386136e-01	 1.150177918997654e+00
1	 1.788370040928544e+00	 3.813214734275946e-01	 9.789686455517080e-01
1	 1.842857142857143e+00	 0.000000000000000e+00	 2.873099164858142e+00
1	 1.842477921429813e+00	 3.738392733874286e-02	 2.654039202208871e+00
1	 1.841327906494550e+00	 7.505990770036795e-02	 2.438855202272211e+00
1	 1.839388965688448e+00	 1.130074417159032e-01	 2.228812657859596e+00
1	 1.836643544388231e+00	 1.512049596958655e-01	 2.024888212743534e+00
1	 1.833074732733852e+00	 1.896298320209898e-01	 1.827747716914779e+00
1	 1.828666333453276e+00	 2.282583840171993e-01	 1.637725276762658e+00
1	 1.823402930173542e+00	 2.670659154855406e-01	 1.454803553511319e+00
1	 1.817269955879882e+00	 3.060267250354475e-01	 1.278595568854130e+00
1	 1.810253761162831e+00	 3.451141393443841e-01	 1.108328279443310e+00
1	 1.802341681873298e+00	 3.843005474387477e-01	 9.428281814160843e-01
1	 1.857142857142857e+00	 0.000000000000000e+00	 2.772160814127358e+00
1	 1.856760696014540e+00	 3.767372522508970e-02	 2.558671932836424e+00
1	 1.855601766234818e+00	 7.564176744998323e-02	 2.349787346040071e+00
1	 1.853647794879831e+00	 1.138834683958714e-01	 2.146639173410776e+00
1	 1.850881091243954e+00	 1.523770911663761e-01	 1.950049896669926e+00
1	 1.847284614382952e+00	 1.910998307188271e-01	 1.760510499538951e+00
1	 1.842842041464542e+00	 2.300278288545419e-01	 1.578159769943759e+00
1	 1.837537836608996e+00	 2.691361939001572e-01	 1.402765027202481e+00
1	 1.831357319878951e+00	 3.083990252295208e-01	 1.233704541333424e+00
1	 1.824286736055566e+00	 3.477894427501544e-01	 1.069951912927217e+00
1	 1.816313322818053e+00	 3.872796214499010e-01	 9.100626799402467e-01
1	 1.676596913370510e+00	 3.574888813383701e-01	 1.408894167368386e+00
1	 1.668392656546771e+00	 3.940069209860282e-01	 1.194499179799638e+00
1	 1.659334453833218e+00	 4.305632131593429e-01	 9.801970934889545e-01
1	 1.649413640659306e+00	 4.671296952786177e-01	 7.660783952685721e-01
1	 1.638622707611956e+00	 5.036776075055792e-01	 5.521626386581542e-01
1	 1.626955354826573e+00	 5.401775482239333e-01	 3.383960223401028e-01
1	 1.614406543454767e+00	 5.765995340394527e-01	 1.246494507022158e-01
1	 1.600972543801240e+00	 6.129130641442300e-01	-8.928288220839486e-02
1	 1.586650979729045e+00	 6.490871888498062e-01	-3.036843477205418e-01
1	 1.571440868943270e+00	 6.850905820538644e-01	-5.189161434361567e-01
1	 1.555342658778490e+00	 7.208916173655637e-01	-7.354169320344409e-01
1	 1.690568554315264e+00	 3.604679553495232e-01	 1.339851384927718e+00
1	 1.682295928684661e+00	 3.972903119942450e-01	 1.131668729994015e+00
1	 1.673162240948495e+00	 4.341512399356706e-01	 9.238316372318791e-01
1	 1.663158754331468e+00	 4.710224427392730e-01	 7.163891128650757e-01
1	 1.652277896842055e+00	 5.078749209014590e-01	 5.093170426639504e-01
1	 1.640513316116795e+00	 5.446790277924662e-01	 3.025159680059464e-01
1	 1.627859931316890e+00	 5.814045301564480e-01	 9.580936745453156e-02
1	 1.614313981666250e+00	 6.180206730120988e-01	-1.110575156355623e-01
1	 1.599873071226787e+00	 6.544962487568878e-01	-3.184182630168674e-01
1	 1.584536209517797e+00	 6.907996702376465e-01	-5.266852572494034e-01
1	 1.568303847601644e+00	 7.268990475102770e-01	-7.363490169653586e-01
1	 1.704540195260018e+00	 3.634470293606763e-01	 1.275546109883627e+00
1	 1.696199200822550e+00	 4.005737030024619e-01	 1.073460481917880e+00
1	 1.686990028063771e+00	 4.377392667119985e-01	 8.719450465882134e-01
1	 1.676903868003628e+00	 4.749151901999280e-01	 6.710090889028464e-01
1	 1.665933086072156e+00	 5.120722342973388e-01	 4.705870157971047e-01
1	 1.654071277407016e+00	 5.491805073609990e-01	 2.705363303453520e-01
1	 1.641313319179012e+00	 5.862095262734434e-01	 7.063613163098725e-02
1	 1.627655419531260e+00	 6.231282818799673e-01	-1.294138201913481e-01
1	 1.613095162724529e+00	 6.599053086639695e-01	-3.299934384073844e-01
1	 1.597631550092324e+00	 6.965087584214290e-01	-5.315620136234971e-01
1	 1.581265036424798e+00	 7.329064776549900e-01	-7.346572625306160e-01
1	 1.718511836204773e+00	 3.664261033718293e-01	 1.215788173234570e+00
1	 1.710102472960440e+00	 4.038570940106789e-01	 1.019682075449922e+00
1	 1.700817815179048e+00	 4.413272934883264e-01	 8.243443943320681e-01
1	 1.690648981675789e+00	 4.788079376605831e-01	 6.297463995428945e-01
1	 1.679588275302255e+00	 5.162695476932188e-01	 4.357831477066526e-01
1	 1.667629238697238e+00	 5.536819869295316e-01	 2.422716553667046e-01
1	 1.654766707041136e+00	 5.910145223904388e-01	 4.894961447059099e-02
1	 1.640996857396271e+00	 6.282358907478361e-01	-1.445253111923491e-01
1	 1.626317254222270e+00	 6.653143685710513e-01	-3.385755747081333e-01
1	 1.610726890666851e+00	 7.022178466052109e-01	-5.337031912731056e-01
1	 1.594226225247952e+00	 7.389139077997031e-01	-7.304885172479021e-01
1	 1.732483477149527e+00	 3.694051773829823e-01	 1.160393540462931e+00
1	 1.724005745098330e+00	 4.071404850188958e-01	 9.701473556340225e-01
1	 1.714645602294325e+00	 4.449153202646543e-01	 7.808429766964536e-01
1	 1.704394095347949e+00	 4.827006851212383e-01	 5.924153120378041e-01
1	 1.693243464532354e+00	 5.204668610890986e-01	 4.047221380529507e-01
1	 1.681187199987459e+00	 5.581834664980645e-01	 2.175424714652157e-01
1	 1.668220094903258e+00	 5.958195185074344e-01	 3.057549781753699e-02
1	 1.654338295261281e+00	 6.333434996157044e-01	-1.565599066868826e-01
1	 1.639539345720013e+00	 6.707234284781328e-01	-3.443250275475562e-01
1	 1.623822231241378e+00	 7.079269347889933e-01	-5.332605115350237e-01
1	 1.607187414071107e+00	 7.449213379444160e-01	-7.239848925859529e-01
1	 1.746455118094281e+00	 3.723842513941356e-01	 1.109184066155645e+00
1	 1.737909017236220e+00	 4.104238760271128e-01	 9.246761244726708e-01
1	 1.728473389409602e+00	 4.485033470409822e-01	 7.412600644349246e-01
1	 1.718139209020110e+00	 4.865934325818933e-01	 5.588360370880781e-01
1	 1.706898653762454e+00	 5.246641744849783e-01	 3.772265521072287e-01
1	 1.694745161277681e+00	 5.626849460665971e-01	 1.961750501274467e-01
1	 1.681673482765381e+00	 6.006245146244299e-01	 1.534504169700546e-02
1	 1.667679733126291e+00	 6.384511084835731e-01	-1.656801513457186e-01
1	 1.652761437217755e+00	 6.761324883852148e-01	-3.473970211739807e-01
1	 1.636917571815907e+00	 7.136360229727752e-01	-5.303808406632599e-01
1	 1.620148602894261e+00	 7.509287680891290e-01	-7.152839524465112e-01
1	 1.760426759039036e+00	 3.753633254052886e-01	 1.061987260309595e+00
1	 1.751812289374109e+00	 4.137072670353297e-01	 8.830939045396946e-01
1	 1.742301176524879e+00	 4.520913738173099e-01	 7.054206657374288e-01
1	 1.731884322692272e+00	 4.904861800425485e-01	 5.288344929910390e-01
1	 1.720553842992553e+00	 5.288614878808581e-01	 3.531245879892502e-01
1	 1.708303122567902e+00	 5.671864256351300e-01	 1.780011780308648e-01
1	 1.695126870627504e+00	 6.054295107414253e-01	 3.094862958786249e-03
1	 1.681021170991301e+00	 6.435587173514415e-01	-1.720434296913600e-01
1	 1.665983528715497e+00	 6.815415482922965e-01	-3.479418520818111e-01
1	 1.650012912390433e+00	 7.193451111565574e-01	-5.252063824910495e-01
1	 1.633109791717414e+00	 7.569361982338418e-01	-7.045188936233089e-01
1	 1.774398399983790e+00	 3.783423994164416e-01	 1.018636065677662e+00
1	 1.765715561511999e+00	 4.169906580435464e-01	 8.452317137609331e-01
1	 1.756128963640156e+00	 4.556794005936378e-01	 6.731553003469901e-01
1	 1.745629436364432e+00	 4.943789275032036e-01	 5.022420809322660e-01
1	 1.734209032222652e+00	 5.330588012767379e-01	 3.322498549016136e-01
1	 1.721861083858123e+00	 5.716879052036626e-01	 1.628579399103424e-01
1	 1.708580258489627e+00	 6.102345068584206e-01	-6.333275621357437e-03
1	 1.694362608856312e+00	 6.486663262193102e-01	-1.758021692534593e-01
1	 1.679205620213238e+00	 6.869506081993780e-01	-3.461050830176076e-01
1	 1.663108252964960e+00	 7.250541993403397e-01	-5.178748619907574e-01
1	 1.646070980540568e+00	 7.629436283785549e-01	-6.918187177354940e-01
1	 1.788370040928544e+00	 3.813214734275946e-01	 9.789686455517080e-01
1	 1.779618833649888e+00	 4.202740490517633e-01	 8.109258507520402e-01
1	 1.769956750755433e+00	 4.592674273699658e-01	 6.442997842646578e-01
1	 1.759374550036592e+00	 4.982716749638587e-01	 4.788954708103012e-01
1	 1.747864221452752e+00	 5.372561146726177e-01	 3.144411617593435e-01
1	 1.735419045148345e+00	 5.761893847721955e-01	 1.505875116027817e-01
1	 1.722033646351751e+00	 6.150395029754161e-01	-1.309266635439343e-02
1	 1.707704046721322e+00	 6.537739350871786e-01	-1.771040342013709e-01
1	 1.692427711710980e+00	 6.923596681064600e-01	-3.420277278920927e-01
1	 1.676203593539487e+00	 7.307632875241218e-01	-5.085197002293464e-01
1	 1.659032169363722e+00	 7.689510585232679e-01	-6.773083951016049e-01
1	 1.802341681873298e+00	 3.843005474387477e-01	 9.428281814160843e-01
1	 1.793522105787778e+00	 4.235574400599802e-01	 7.800176901405914e-01
1	 1.783784537870709e+00	 4.628554541462934e-01	 6.186950244681941e-01
1	 1.773119663708754e+00	 5.021644224245138e-01	 4.586363970229527e-01
1	 1.761519410682852e+00	 5.414534280684974e-01	 2.995423156506348e-01
1	 1.748977006438566e+00	 5.806908643407283e-01	 1.410369627175883e-01
1	 1.735487034213874e+00	 6.198444990924115e-01	-1.733184830134088e-02
1	 1.721045484586332e+00	 6.588815439550472e-01	-1.760921099705304e-01
1	 1.705649803208722e+00	 6.977687280135416e-01	-3.358464280916316e-01
1	 1.689298934114015e+00	 7.364723757079041e-01	-4.972701811864438e-01
1	 1.671993358186877e+00	 7.749584886679810e-01	-6.611090209915399e-01
1	 1.816313322818053e+00	 3.872796214499010e-01	 9.100626799402467e-01
1	 1.807425377925668e+00	 4.268408310681971e-01	 7.523534873348461e-01
1	 1.797612324985986e+00	 4.664434809226215e-01	 5.961868231052803e-01
1	 1.786864777380915e+00	 5.060571698851692e-01	 4.413114636788654e-01
1	 1.775174599912952e+00	 5.456507414643776e-01	 2.874019295994372e-01
1	 1.762534967728788e+00	 5.851923439092610e-01	 1.340580684146433e-01
1	 1.748940422075997e+00	 6.246494952094070e-01	-1.919479009057024e-02
1	 1.734386922451343e+00	 6.639891528229159e-01	-1.729050793675687e-01
1	 1.718871894706465e+00	 7.031777879206232e-01	-3.276936206522324e-01
1	 1.702394274688542e+00	 7.421814638916866e-01	-4.842516108730627e-01
1	 1.684954547010031e+00	 7.809659188126941e-01	-6.433379646669044e-01
1	 1.555342658778490e+00	 7.208916173655637e-01	-7.354169320344409e-01
1	 1.538358257134925e+00	 7.564584475758592e-01	-9.586508256124836e-01
1	 1.520491058232194e+00	 7.917590871218493e-01	-1.193487358130770e+00
1	 1.501745962877788e+00	 8.267614971588527e-01	-1.439514799121015e+00
1	 1.482129392979634e+00	 8.614336728210154e-01	-1.696301188860015e+00
1	 1.461649300068323e+00	 8.957437322213666e-01	-1.963395956543152e+00
1	 1.440315167634239e+00	 9.296600067158080e-01	-2.240331640018409e+00
1	 1.418138007127731e+00	 9.631511319330253e-01	-2.526625694655455e+00
1	 1.395130347516129e+00	 9.961861390541467e-01	-2.821782377909821e+00
1	 1.371306218339282e+00	 1.028734545812524e+00	-3.125294695284127e+00
1	 1.346681126254994e+00	 1.060766446675545e+00	-3.436646392699835e+00
1	 1.568303847601644e+00	 7.268990475102770e-01	-7.363490169653586e-01
1	 1.551177909277715e+00	 7.627622679723246e-01	-9.527900493156710e-01
1	 1.533161817050795e+00	 7.983570795145313e-01	-1.180759783448805e+00
1	 1.514260512568436e+00	 8.336511763018434e-01	-1.419843046309377e+00
1	 1.494480471254464e+00	 8.686122867611905e-01	-1.669599299243733e+00
1	 1.473829710902226e+00	 9.032082633232112e-01	-1.929564309241284e+00
1	 1.452317794031190e+00	 9.374071734384397e-01	-2.199251967376466e+00
1	 1.429955823853795e+00	 9.711773913658003e-01	-2.478156242166769e+00
1	 1.406756433745430e+00	 1.004487690212931e+00	-2.765753254006926e+00
1	 1.382733770158776e+00	 1.037307333694295e+00	-3.061503455428002e+00
1	 1.357903468973786e+00	 1.069606167064508e+00	-3.364853900689378e+00
1	 1.581265036424798e+00	 7.329064776549900e-01	-7.346572625306160e-01
1	 1.563997561420507e+00	 7.690660883687901e-01	-9.445635078588247e-01
1	 1.545832575869397e+00	 8.049550719072134e-01	-1.165904048741377e+00
1	 1.526775062259084e+00	 8.405408554448337e-01	-1.398259125407709e+00
1	 1.506831549529293e+00	 8.757909007013653e-01	-1.641178422119961e+00
1	 1.486010121736128e+00	 9.106727944250558e-01	-1.894182797845953e+00
1	 1.464320420428143e+00	 9.451543401610712e-01	-2.156766210502940e+00
1	 1.441773640579860e+00	 9.792036507985753e-01	-2.428397822587636e+00
1	 1.418382519974731e+00	 1.012789241371716e+00	-2.708524273900206e+00
1	 1.394161321978270e+00	 1.045880121576066e+00	-2.996572105097617e+00
1	 1.369125811692577e+00	 1.078445887453471e+00	-3.291950314008377e+00
1	 1.594226225247952e+00	 7.389139077997031e-01	-7.304885172479021e-01
1	 1.576817213563297e+00	 7.753699087652558e-01	-9.341076675562707e-01
1	 1.558503334687998e+00	 8.115530642998954e-01	-1.149046279188784e+00
1	 1.539289611949733e+00	 8.474305345878239e-01	-1.374878870941472e+00
1	 1.519182627804124e+00	 8.829695146415405e-01	-1.611144161293618e+00
1	 1.498190532570031e+00	 9.181373255269004e-01	-1.857346864833260e+00
1	 1.476323046825095e+00	 9.529015068837030e-01	-2.112959729353407e+00
1	 1.453591457305925e+00	 9.872299102313508e-01	-2.377425801492407e+00
1	 1.430008606204032e+00	 1.021090792530500e+00	-2.650160906123237e+00
1	 1.405588873797764e+00	 1.054452909457837e+00	-2.930556322152948e+00
1	 1.380348154411368e+00	 1.087285607842434e+00	-3.217981635018437e+00
1	 1.607187414071107e+00	 7.449213379444160e-01	-7.239848925859529e-01
1	 1.589636865706088e+00	 7.816737291617211e-01	-9.215545925831667e-01
1	 1.571174093506600e+00	 8.181510566925775e-01	-1.130308531417113e+00
1	 1.551804161640380e+00	 8.543202137308142e-01	-1.349814380838569e+00
1	 1.531533706078954e+00	 8.901481285817157e-01	-1.579598713995263e+00
1	 1.510370943403934e+00	 9.256018566287455e-01	-1.819148873889818e+00
1	 1.488325673222046e+00	 9.606486736063348e-01	-2.067915130336523e+00
1	 1.465409274031989e+00	 9.952561696641259e-01	-2.325313113307864e+00
1	 1.441634692433333e+00	 1.029392343689285e+00	-2.590726507321453e+00
1	 1.417016425617257e+00	 1.063025697339608e+00	-2.863509988393991e+00
1	 1.391570497130161e+00	 1.096125328231396e+00	-3.142992382133962e+00
1	 1.620148602894261e+00	 7.509287680891290e-01	-7.152839524465112e-01
1	 1.602456517848880e+00	 7.879775495581867e-01	-9.070321210610580e-01
1	 1.583844852325202e+00	 8.247490490852598e-01	-1.109808956240427e+00
1	 1.564318711331028e+00	 8.612098928738048e-01	-1.323174165893189e+00
1	 1.543884784353785e+00	 8.973267425218909e-01	-1.546641007144094e+00
1	 1.522551354237836e+00	 9.330663877305899e-01	-1.779678233064224e+00
1	 1.500328299618998e+00	 9.683958403289665e-01	-2.021712376455814e+00
1	 1.477227090758053e+00	 1.003282429096901e+00	-2.272130358559148e+00
1	 1.453260778662633e+00	 1.037693894848069e+00	-2.530282406727603e+00
1	 1.428443977436752e+00	 1.071598485221379e+00	-2.795485261403102e+00
1	 1.402792839848952e+00	 1.104965048620359e+00	-3.067025649180163e+00
1	 1.633109791717414e+00	 7.569361982338418e-01	-7.045188936233089e-01
1	 1.615276169991670e+00	 7.942813699546521e-01	-8.906640327584302e-01
1	 1.596515611143803e+00	 8.313470414779417e-01	-1.087661953653277e+00
1	 1.576833261021677e+00	 8.680995720167953e-01	-1.295063292112411e+00
1	 1.556235862628615e+00	 9.045053564620659e-01	-1.512366827122186e+00
1	 1.534731765071739e+00	 9.405309188324346e-01	-1.739021512054339e+00
1	 1.512330926015951e+00	 9.761430070515982e-01	-1.974428892206775e+00
1	 1.489044907484118e+00	 1.011308688529676e+00	-2.217945896484867e+00
1	 1.464886864891935e+00	 1.045995446006854e+00	-2.468887986614683e+00
1	 1.439871529256245e+00	 1.080171273103150e+00	-2.726532642966430e+00
1	 1.414015182567744e+00	 1.113804769009322e+00	-2.990123161924264e+00
1	 1.646070980540568e+00	 7.629436283785549e-01	-6.918187177354940e-01
1	 1.628095822134461e+00	 8.005851903511175e-01	-8.725702088683939e-01
1	 1.609186369962404e+00	 8.379450338706237e-01	-1.063978320500796e+00
1	 1.589347810712325e+00	 8.749892511597857e-01	-1.265583516337746e+00
1	 1.568586940903445e+00	 9.116839704022413e-01	-1.476868943417679e+00
1	 1.546912175905641e+00	 9.479954499342793e-01	-1.697262553953378e+00
1	 1.524333552412902e+00	 9.838901737742300e-01	-1.926139663518157e+00
1	 1.500862724210182e+00	 1.019334947962451e+00	-2.162825933276769e+00
1	 1.476512951121236e+00	 1.054296997165638e+00	-2.406600758947851e+00
1	 1.451299081075740e+00	 1.088744060984921e+00	-2.656701044262649e+00
1	 1.425237525286535e+00	 1.122644489398285e+00	-2.912325331936105e+00
1	 1.659032169363722e+00	 7.689510585232679e-01	-6.773083951016049e-01
1	 1.640915474277252e+00	 8.068890107475829e-01	-8.528667842967541e-01
1	 1.621857128781007e+00	 8.445430262633060e-01	-1.038865391226705e+00
1	 1.601862360402973e+00	 8.818789303027761e-01	-1.234833415509384e+00
1	 1.580938019178275e+00	 9.188625843424161e-01	-1.440237226472215e+00
1	 1.559092586739545e+00	 9.554599810361241e-01	-1.654482581757877e+00
1	 1.536336178809854e+00	 9.916373404968616e-01	-1.876917333008363e+00
1	 1.512680540936246e+00	 1.027361207395227e+00	-2.106834606183079e+00
1	 1.488139037350537e+00	 1.062598548324423e+00	-2.343476438443412e+00
1	 1.462726632895233e+00	 1.097316848866692e+00	-2.586037847996111e+00
1	 1.436459868005327e+00	 1.131484209787248e+00	-2.833671307923967e+00
1	 1.671993358186877e+00	 7.749584886679810e-01	-6.611090209915399e-01
1	 1.653735126420044e+00	 8.131928311440486e-01	-8.316662928669842e-01
1	 1.634527887599609e+00	 8.511410186559879e-01	-1.012427172074908e+00
1	 1.614376910093621e+00	 8.887686094457664e-01	-1.202908509918224e+00
1	 1.593289097453105e+00	 9.260411982825911e-01	-1.402558760047085e+00
1	 1.571272997573447e+00	 9.629245121379688e-01	-1.610760299921847e+00
1	 1.548338805206807e+00	 9.993845072194939e-01	-1.826832290811557e+00
1	 1.524498357662311e+00	 1.035387466828002e+00	-2.050034063700188e+00
1	 1.499765123579838e+00	 1.070900099483207e+00	-2.279569012229477e+00
1	 1.474154184714727e+00	 1.105889636748463e+00	-2.514588967640013e+00
1	 1.447682210724119e+00	 1.140323930176210e+00	-2.754199024682700e+00
1	 1.684954547010031e+00	 7.809659188126941e-01	-6.433379646669044e-01
1	 1.666554778562835e+00	 8.194966515405140e-01	-8.090778058233581e-01
1	 1.647198646418210e+00	 8.577390110486701e-01	-9.847644690971949e-01
1	 1.626891459784270e+00	 8.956582885887572e-01	-1.169901380769289e+00
1	 1.605640175727937e+00	 9.332198122227667e-01	-1.363917948403213e+00
1	 1.583453408407349e+00	 9.703890432398138e-01	-1.566171991223796e+00
1	 1.560341431603759e+00	 1.007131673942125e+00	-1.775952761211615e+00
1	 1.536316174388376e+00	 1.043413726260777e+00	-1.992484542062990e+00
1	 1.511391209809139e+00	 1.079201650641992e+00	-2.214930806291841e+00
1	 1.485581736534221e+00	 1.114462424630234e+00	-2.442398903945300e+00
1	 1.458904553442911e+00	 1.149163650565174e+00	-2.673945249782701e+00
1	 1.346681126254994e+00	 1.060766446675545e+00	-3.436646392699835e+00
1	 1.321272025116470e+00	 1.092252601667171e+00	-3.753600940020572e+00
1	 1.295097279675248e+00	 1.123164523292048e+00	-4.073739125618945e+00
1	 1.268176623054305e+00	 1.153474561029700e+00	-4.396222217307476e+00
1	 1.240531108186509e+00	 1.183155982880377e+00	-4.720158864209970e+00
1	 1.212183053462653e+00	 1.212183053462653e+00	-5.044610907112207e+00
1	 1.183155982880377e+00	 1.240531108186509e+00	-5.368599598185171e+00
1	 1.153474561029701e+00	 1.268176623054305e+00	-5.691112173597086e+00
1	 1.123164523292049e+00	 1.295097279675247e+00	-6.011108718245875e+00
1	 1.092252601667171e+00	 1.321272025116470e+00	-6.327529258390169e+00
1	 1.060766446675545e+00	 1.346681126254994e+00	-6.639301015391657e+00
1	 1.357903468973786e+00	 1.069606167064508e+00	-3.364853900689378e+00
1	 1.332282625325774e+00	 1.101354706681063e+00	-3.673440093834310e+00
1	 1.305889757005875e+00	 1.132524227652816e+00	-3.984798789234727e+00
1	 1.278744761579758e+00	 1.163086849038281e+00	-4.298183667059255e+00
1	 1.250868867421397e+00	 1.193015616071047e+00	-4.612803469689596e+00
1	 1.222284578908175e+00	 1.222284578908175e+00	-4.927827153540652e+00
1	 1.193015616071047e+00	 1.250868867421397e+00	-5.242389390434611e+00
1	 1.163086849038282e+00	 1.278744761579758e+00	-5.555596368555054e+00
1	 1.132524227652816e+00	 1.305889757005875e+00	-5.866531839361292e+00
1	 1.101354706681064e+00	 1.332282625325773e+00	-6.174263353929993e+00
1	 1.069606167064508e+00	 1.357903468973785e+00	-6.477848630059433e+00
1	 1.369125811692577e+00	 1.078445887453471e+00	-3.291950314008377e+00
1	 1.343293225535078e+00	 1.110456811694957e+00	-3.592187939249711e+00
1	 1.316682234336502e+00	 1.141883932013583e+00	-3.894802201988618e+00
1	 1.289312900105210e+00	 1.172699137046862e+00	-4.199142835914646e+00
1	 1.261206626656284e+00	 1.202875249261717e+00	-4.504522960456157e+00
1	 1.232386104353697e+00	 1.232386104353697e+00	-4.810223532823350e+00
1	 1.202875249261717e+00	 1.261206626656284e+00	-5.115498084310795e+00
1	 1.172699137046862e+00	 1.289312900105210e+00	-5.419577697847688e+00
1	 1.141883932013583e+00	 1.316682234336501e+00	-5.721676180837672e+00
1	 1.110456811694957e+00	 1.343293225535077e+00	-6.020995385011159e+00
1	 1.078445887453471e+00	 1.369125811692577e+00	-6.316730623362026e+00
1	 1.380348154411368e+00	 1.087285607842434e+00	-3.217981635018437e+00
1	 1.354303825744382e+00	 1.119558916708850e+00	-3.509881953202610e+00
1	 1.327474711667129e+00	 1.151243636374349e+00	-3.803780433644695e+00
1	 1.299881038630663e+00	 1.182311425055443e+00	-4.099126406070552e+00
1	 1.271544385891172e+00	 1.212734882452386e+00	-4.395341542835797e+00
1	 1.242487629799219e+00	 1.242487629799219e+00	-4.691823570410965e+00
1	 1.212734882452387e+00	 1.271544385891172e+00	-4.987950194413429e+00
1	 1.182311425055443e+00	 1.299881038630663e+00	-5.283083202584175e+00
1	 1.151243636374350e+00	 1.327474711667128e+00	-5.576572707921053e+00
1	 1.119558916708850e+00	 1.354303825744381e+00	-5.867761492510232e+00
1	 1.087285607842434e+00	 1.380348154411368e+00	-6.155989411470976e+00
1	 1.391570497130161e+00	 1.096125328231396e+00	-3.142992382133962e+00
1	 1.365314425953686e+00	 1.128661021722743e+00	-3.426558403695364e+00
1	 1.338267188997756e+00	 1.160603340735117e+00	-3.711763551716547e+00
1	 1.310449177156115e+00	 1.191923713064023e+00	-3.998160199007875e+00
1	 1.281882145126060e+00	 1.222594515643057e+00	-4.285282642305418e+00
1	 1.252589155244741e+00	 1.252589155244741e+00	-4.572650032868631e+00
1	 1.222594515643057e+00	 1.281882145126059e+00	-4.859769444548736e+00
1	 1.191923713064023e+00	 1.310449177156114e+00	-5.146139051579859e+00
1	 1.160603340735117e+00	 1.338267188997755e+00	-5.431251386978618e+00
1	 1.128661021722744e+00	 1.365314425953685e+00	-5.714596651469109e+00
1	 1.096125328231397e+00	 1.391570497130161e+00	-5.995666042294263e+00
1	 1.402792839848952e+00	 1.104965048620359e+00	-3.067025649180163e+00
1	 1.376325026162989e+00	 1.137763126736636e+00	-3.342252398154272e+00
1	 1.349059666328383e+00	 1.169963045095884e+00	-3.618780661557356e+00
1	 1.321017315681568e+00	 1.201536001072604e+00	-3.896269209920110e+00
1	 1.292219904360947e+00	 1.232454148833726e+00	-4.174368934726719e+00
1	 1.262690680690263e+00	 1.262690680690263e+00	-4.452724958231471e+00
1	 1.232454148833726e+00	 1.292219904360947e+00	-4.730978799361117e+00
1	 1.201536001072604e+00	 1.321017315681567e+00	-5.008770576247985e+00
1	 1.169963045095884e+00	 1.349059666328382e+00	-5.285741225453778e+00
1	 1.137763126736637e+00	 1.376325026162989e+00	-5.561534717728302e+00
1	 1.104965048620359e+00	 1.402792839848952e+00	-5.835800250206766e+00
1	 1.414015182567744e+00	 1.113804769009322e+00	-2.990123161924264e+00
1	 1.387335626372293e+00	 1.146865231750529e+00	-3.256997929484200e+00
1	 1.359852143659010e+00	 1.179322749456650e+00	-3.524859944540831e+00
1	 1.331585454207021e+00	 1.211148289081185e+00	-3.793477640502558e+00
1	 1.302557663595835e+00	 1.242313782024396e+00	-4.062622376092682e+00
1	 1.272792206135785e+00	 1.272792206135785e+00	-4.332069684914388e+00
1	 1.242313782024396e+00	 1.302557663595835e+00	-4.601600494458643e+00
1	 1.211148289081185e+00	 1.331585454207020e+00	-4.871002303829962e+00
1	 1.179322749456651e+00	 1.359852143659010e+00	-5.140070309918721e+00
1	 1.146865231750529e+00	 1.387335626372293e+00	-5.408608472339742e+00
1	 1.113804769009322e+00	 1.414015182567743e+00	-5.676430508174668e+00
1	 1.425237525286535e+00	 1.122644489398285e+00	-2.912325331936105e+00
1	 1.398346226581598e+00	 1.155967336764422e+00	-3.170827919947298e+00
1	 1.370644620989637e+00	 1.188682453817418e+00	-3.430028694438341e+00
1	 1.342153592732473e+00	 1.220760577089766e+00	-3.689808930192406e+00
1	 1.312895422830722e+00	 1.252173415215065e+00	-3.950064230869026e+00
1	 1.282893731581308e+00	 1.282893731581307e+00	-4.210704879256227e+00
1	 1.252173415215066e+00	 1.312895422830722e+00	-4.471656065115266e+00
1	 1.220760577089767e+00	 1.342153592732473e+00	-4.732857989055624e+00
1	 1.188682453817418e+00	 1.370644620989637e+00	-4.994265842329222e+00
1	 1.155967336764423e+00	 1.398346226581597e+00	-5.255849663881247e+00
1	 1.122644489398285e+00	 1.425237525286535e+00	-5.517594077417175e+00
1	 1.436459868005327e+00	 1.131484209787248e+00	-2.833671307923967e+00
1	 1.409356826790901e+00	 1.165069441778315e+00	-3.083774262985048e+00
1	 1.381437098320264e+00	 1.198042158178185e+00	-3.334313352090931e+00
1	 1.352721731257925e+00	 1.230372865098347e+00	-3.585285785944422e+00
1	 1.323233182065610e+00	 1.262033048405736e+00	-3.836715099006905e+00
1	 1.292995257026830e+00	 1.292995257026829e+00	-4.088650561772785e+00
1	 1.262033048405736e+00	 1.323233182065610e+00	-4.341166373627643e+00
1	 1.230372865098347e+00	 1.352721731257925e+00	-4.594360644319568e+00
1	 1.198042158178185e+00	 1.381437098320263e+00	-4.848354174579907e+00
1	 1.165069441778316e+00	 1.409356826790900e+00	-5.103289048787672e+00
1	 1.131484209787248e+00	 1.436459868005326e+00	-5.359327054740353e+00
1	 1.447682210724119e+00	 1.140323930176210e+00	-2.754199024682700e+00
1	 1.420367427000205e+00	 1.174171546792208e+00	-2.995867863094986e+00
1	 1.392229575650891e+00	 1.207401862538952e+00	-3.237739538468579e+00
1	 1.363289869783378e+00	 1.239985153106927e+00	-3.479930210621750e+00
1	 1.333570941300497e+00	 1.271892681596405e+00	-3.722594941699270e+00
1	 1.303096782472351e+00	 1.303096782472351e+00	-3.965926132188602e+00
1	 1.271892681596406e+00	 1.333570941300497e+00	-4.210151635399500e+00
1	 1.239985153106928e+00	 1.363289869783378e+00	-4.455532568453698e+00
1	 1.207401862538952e+00	 1.392229575650890e+00	-4.702360841452371e+00
1	 1.174171546792209e+00	 1.420367427000204e+00	-4.950956429805879e+00
1	 1.140323930176211e+00	 1.447682210724118e+00	-5.201664417669537e+00
1	 1.458904553442911e+00	 1.149163650565174e+00	-2.673945249782701e+00
1	 1.431378027209509e+00	 1.183273651806101e+00	-2.907138673867053e+00
1	 1.403022052981518e+00	 1.216761566899719e+00	-3.140332086203744e+00
1	 1.373858008308830e+00	 1.249597441115509e+00	-3.373763530076349e+00
1	 1.343908700535385e+00	 1.281752314787076e+00	-3.607723105948523e+00
1	 1.313198307917874e+00	 1.313198307917874e+00	-3.842550393313690e+00
1	 1.281752314787075e+00	 1.343908700535385e+00	-4.078631443822117e+00
1	 1.249597441115509e+00	 1.373858008308831e+00	-4.316395374172052e+00
1	 1.216761566899719e+00	 1.403022052981518e+00	-4.556310592042680e+00
1	 1.183273651806102e+00	 1.431378027209509e+00	-4.798880692675173e+00
1	 1.149163650565174e+00	 1.458904553442910e+00	-5.044640067498458e+00
1	 1.060766446675545e+00	 1.346681126254994e+00	-6.639301015391658e+00
1	 1.028734545812524e+00	 1.371306218339282e+00	-6.946266356351716e+00
1	 9.961861390541472e-01	 1.395130347516129e+00	-7.249348049190006e+00
1	 9.631511319330257e-01	 1.418138007127731e+00	-7.549122561800918e+00
1	 9.296600067158087e-01	 1.440315167634238e+00	-7.846206100198791e+00
1	 8.957437322213671e-01	 1.461649300068322e+00	-8.141247720369378e+00
1	 8.614336728210163e-01	 1.482129392979633e+00	-8.434922319565370e+00
1	 8.267614971588537e-01	 1.501745962877787e+00	-8.727923578464505e+00
1	 7.917590871218502e-01	 1.520491058232193e+00	-9.020956924363665e+00
1	 7.564584475758603e-01	 1.538358257134924e+00	-9.314732583402716e+00
1	 7.208916173655637e-01	 1.555342658778490e+00	-9.609958786760961e+00
1	 1.069606167064508e+00	 1.357903468973785e+00	-6.477848630059433e+00
1	 1.037307333694295e+00	 1.382733770158775e+00	-6.777346876774069e+00
1	 1.004487690212931e+00	 1.406756433745429e+00	-7.073804225778891e+00
1	 9.711773913658011e-01	 1.429955823853795e+00	-7.367782218612403e+00
1	 9.374071734384403e-01	 1.452317794031190e+00	-7.659873171048001e+00
1	 9.032082633232120e-01	 1.473829710902225e+00	-7.950693617411297e+00
1	 8.686122867611914e-01	 1.494480471254463e+00	-8.240877693895463e+00
1	 8.336511763018440e-01	 1.514260512568435e+00	-8.531070527441486e+00
1	 7.983570795145323e-01	 1.533161817050795e+00	-8.821921695010493e+00
1	 7.627622679723256e-01	 1.551177909277714e+00	-9.114078815485792e+00
1	 7.268990475102767e-01	 1.568303847601644e+00	-9.408181333072079e+00
1	 1.078445887453471e+00	 1.369125811692577e+00	-6.316730623362025e+00
1	 1.045880121576066e+00	 1.394161321978270e+00	-6.609140058701149e+00
1	 1.012789241371716e+00	 1.418382519974730e+00	-6.899363189675448e+00
1	 9.792036507985761e-01	 1.441773640579860e+00	-7.187935051161610e+00
1	 9.451543401610719e-01	 1.464320420428142e+00	-7.475411622289035e+00
1	 9.106727944250566e-01	 1.486010121736128e+00	-7.762363722795348e+00
1	 8.757909007013664e-01	 1.506831549529293e+00	-8.049370912104653e+00
1	 8.405408554448347e-01	 1.526775062259083e+00	-8.337015451566199e+00
1	 8.049550719072148e-01	 1.545832575869397e+00	-8.625876388053156e+00
1	 7.690660883687913e-01	 1.563997561420506e+00	-8.916523814136541e+00
1	 7.329064776549898e-01	 1.581265036424798e+00	-9.209513356389220e+00
1	 1.087285607842434e+00	 1.380348154411368e+00	-6.155989411470976e+00
1	 1.054452909457837e+00	 1.405588873797764e+00	-6.441693272035205e+00
1	 1.021090792530500e+00	 1.430008606204031e+00	-6.726073817117284e+00
1	 9.872299102313512e-01	 1.453591457305924e+00	-7.009628291696459e+00
1	 9.529015068837035e-01	 1.476323046825094e+00	-7.292864200557743e+00
1	 9.181373255269011e-01	 1.498190532570030e+00	-7.576293774698753e+00
1	 8.829695146415416e-01	 1.519182627804124e+00	-7.860428508315930e+00
1	 8.474305345878251e-01	 1.539289611949732e+00	-8.145773819414567e+00
1	 8.115530642998967e-01	 1.558503334687998e+00	-8.432823884347986e+00
1	 7.753699087652568e-01	 1.576817213563297e+00	-8.722056693223649e+00
1	 7.389139077997030e-01	 1.594226225247952e+00	-9.013929369196875e+00
1	 1.096125328231397e+00	 1.391570497130161e+00	-5.995666042294262e+00
1	 1.063025697339608e+00	 1.417016425617257e+00	-6.275052358617128e+00
1	 1.029392343689285e+00	 1.441634692433333e+00	-6.553983407689199e+00
1	 9.952561696641264e-01	 1.465409274031988e+00	-6.832907648843962e+00
1	 9.606486736063353e-01	 1.488325673222046e+00	-7.112272273566182e+00
1	 9.256018566287459e-01	 1.510370943403933e+00	-7.392518358454318e+00
1	 8.901481285817167e-01	 1.531533706078954e+00	-7.674076160712802e+00
1	 8.543202137308155e-01	 1.551804161640380e+00	-7.957360600576186e+00
1	 8.181510566925788e-01	 1.571174093506600e+00	-8.242766971820329e+00
1	 7.816737291617224e-01	 1.589636865706088e+00	-8.530666917781438e+00
1	 7.449213379444161e-01	 1.607187414071107e+00	-8.821404706157445e+00
1	 1.104965048620359e+00	 1.402792839848952e+00	-5.835800250206768e+00
1	 1.071598485221379e+00	 1.428443977436751e+00	-6.109261693348873e+00
1	 1.037693894848070e+00	 1.453260778662634e+00	-6.383137747389263e+00
1	 1.003282429096902e+00	 1.477227090758053e+00	-6.657817368555032e+00
1	 9.683958403289671e-01	 1.500328299618997e+00	-6.933675885259696e+00
1	 9.330663877305905e-01	 1.522551354237836e+00	-7.211070952664149e+00
1	 8.973267425218917e-01	 1.543884784353784e+00	-7.490338725776979e+00
1	 8.612098928738057e-01	 1.564318711331028e+00	-7.771790285613926e+00
1	 8.247490490852607e-01	 1.583844852325201e+00	-8.055708349182083e+00
1	 7.879775495581880e-01	 1.602456517848879e+00	-8.342344289962940e+00
1	 7.509287680891289e-01	 1.620148602894261e+00	-8.631915491224126e+00
1	 1.113804769009322e+00	 1.414015182567743e+00	-5.676430508174668e+00
1	 1.080171273103150e+00	 1.439871529256245e+00	-5.944364242405410e+00
1	 1.045995446006854e+00	 1.464886864891934e+00	-6.213581168691872e+00
1	 1.011308688529677e+00	 1.489044907484117e+00	-6.484400292147298e+00
1	 9.761430070515988e-01	 1.512330926015950e+00	-6.757113808347150e+00
1	 9.405309188324353e-01	 1.534731765071738e+00	-7.031983973117642e+00
1	 9.045053564620669e-01	 1.556235862628615e+00	-7.309240270895375e+00
1	 8.680995720167961e-01	 1.576833261021676e+00	-7.589076905072568e+00
1	 8.313470414779427e-01	 1.596515611143802e+00	-7.871650629471693e+00
1	 7.942813699546533e-01	 1.615276169991670e+00	-8.157078935662561e+00
1	 7.569361982338417e-01	 1.633109791717414e+00	-8.445438606319836e+00
1	 1.122644489398285e+00	 1.425237525286535e+00	-5.517594077417175e+00
1	 1.088744060984921e+00	 1.451299081075740e+00	-5.780401618696290e+00
1	 1.054296997165639e+00	 1.476512951121236e+00	-6.045356607772879e+00
1	 1.019334947962452e+00	 1.500862724210182e+00	-6.312697911605432e+00
1	 9.838901737742304e-01	 1.524333552412902e+00	-6.582623594349857e+00
1	 9.479954499342802e-01	 1.546912175905641e+00	-6.855288814634411e+00
1	 9.116839704022418e-01	 1.568586940903445e+00	-7.130804105427092e+00
1	 8.749892511597867e-01	 1.589347810712324e+00	-7.409234047590108e+00
1	 8.379450338706251e-01	 1.609186369962404e+00	-7.690596343427107e+00
1	 8.005851903511185e-01	 1.628095822134461e+00	-7.974861291770027e+00
1	 7.629436283785549e-01	 1.646070980540568e+00	-8.261951661495939e+00
1	 1.131484209787248e+00	 1.436459868005326e+00	-5.359327054740353e+00
1	 1.097316848866692e+00	 1.462726632895233e+00	-5.617414134727696e+00
1	 1.062598548324423e+00	 1.488139037350537e+00	-5.878505659052747e+00
1	 1.027361207395227e+00	 1.512680540936246e+00	-6.142750422289691e+00
1	 9.916373404968621e-01	 1.536336178809854e+00	-6.410241621304017e+00
1	 9.554599810361248e-01	 1.559092586739544e+00	-6.681015890945979e+00
1	 9.188625843424173e-01	 1.580938019178275e+00	-6.955052810313759e+00
1	 8.818789303027772e-01	 1.601862360402972e+00	-7.232274877159596e+00
1	 8.445430262633069e-01	 1.621857128781006e+00	-7.512547942700847e+00
1	 8.068890107475842e-01	 1.640915474277252e+00	-7.795682094022299e+00
1	 7.689510585232677e-01	 1.659032169363722e+00	-8.081432966489700e+00
1	 1.140323930176211e+00	 1.447682210724118e+00	-5.201664417669536e+00
1	 1.105889636748463e+00	 1.474154184714728e+00	-5.455440853005523e+00
1	 1.070900099483208e+00	 1.499765123579838e+00	-5.713068627202446e+00
1	 1.035387466828002e+00	 1.524498357662311e+00	-5.974596773192530e+00
1	 9.993845072194940e-01	 1.548338805206806e+00	-6.240003139244735e+00
1	 9.629245121379696e-01	 1.571272997573446e+00	-6.509194672722412e+00
1	 9.260411982825920e-01	 1.593289097453106e+00	-6.782008266312669e+00
1	 8.887686094457674e-01	 1.614376910093621e+00	-7.058212149588237e+00
1	 8.511410186559888e-01	 1.634527887599607e+00	-7.337507802925113e+00
1	 8.131928311440497e-01	 1.653735126420043e+00	-7.619532365420323e+00
1	 7.749584886679808e-01	 1.671993358186876e+00	-7.903861503604618e+00
1	 1.149163650565174e+00	 1.458904553442910e+00	-5.044640067498458e+00
1	 1.114462424630234e+00	 1.485581736534222e+00	-5.294519634112547e+00
1	 1.079201650641992e+00	 1.511391209809139e+00	-5.549084576749209e+00
1	 1.043413726260778e+00	 1.536316174388376e+00	-5.808274714875832e+00
1	 1.007131673942126e+00	 1.560341431603758e+00	-6.071942313590606e+00
1	 9.703890432398143e-01	 1.583453408407350e+00	-6.339853723843908e+00
1	 9.332198122227675e-01	 1.605640175727936e+00	-6.611691680927128e+00
1	 8.956582885887581e-01	 1.626891459784269e+00	-6.887058228196831e+00
1	 8.577390110486710e-01	 1.647198646418209e+00	-7.165478226635752e+00
1	 8.194966515405154e-01	 1.666554778562834e+00	-7.446403405180344e+00
1	 7.809659188126938e-01	 1.684954547010031e+00	-7.729216901842579e+00
1	 7.208916173655637e-01	 1.555342658778490e+00	-9.609958786760961e+00
1	 6.850905820538642e-01	 1.571440868943270e+00	-9.906112294719595e+00
1	 6.490871888498062e-01	 1.586650979729045e+00	-1.020273642917633e+01
1	 6.129130641442304e-01	 1.600972543801240e+00	-1.050063791283388e+01
1	 5.765995340394531e-01	 1.614406543454766e+00	-1.080062342180359e+01
1	 5.401775482239338e-01	 1.626955354826574e+00	-1.110349288279165e+01
1	 5.036776075055799e-01	 1.638622707611955e+00	-1.141003307709675e+01
1	 4.671296952786185e-01	 1.649413640659306e+00	-1.172101159759960e+01
1	 4.305632131593439e-01	 1.659334453833218e+00	-1.203717119887726e+01
1	 3.940069209860292e-01	 1.668392656546771e+00	-1.235922457431772e+01
1	 3.574888813383703e-01	 1.676596913370510e+00	-1.268784958775809e+01
1	 7.268990475102767e-01	 1.568303847601644e+00	-9.408181333072079e+00
1	 6.907996702376463e-01	 1.584536209517797e+00	-9.703716311836002e+00
1	 6.544962487568879e-01	 1.599873071226787e+00	-1.000031034075139e+01
1	 6.180206730120991e-01	 1.614313981666250e+00	-1.029881391517171e+01
1	 5.814045301564486e-01	 1.627859931316890e+00	-1.060008669276941e+01
1	 5.446790277924667e-01	 1.640513316116795e+00	-1.090498995189387e+01
1	 5.078749209014598e-01	 1.652277896842055e+00	-1.121437931942387e+01
1	 4.710224427392737e-01	 1.663158754331467e+00	-1.152909782413254e+01
1	 4.341512399356717e-01	 1.673162240948494e+00	-1.184996932537378e+01
1	 3.972903119942462e-01	 1.682295928684661e+00	-1.217779236036163e+01
1	 3.604679553495234e-01	 1.690568554315264e+00	-1.251333444657443e+01
1	 7.329064776549898e-01	 1.581265036424798e+00	-9.209513356389220e+00
1	 6.965087584214289e-01	 1.597631550092325e+00	-9.504363415918371e+00
1	 6.599053086639698e-01	 1.613095162724529e+00	-9.800811467732014e+00
1	 6.231282818799674e-01	 1.627655419531260e+00	-1.009974682857817e+01
1	 5.862095262734439e-01	 1.641313319179012e+00	-1.040207748221056e+01
1	 5.491805073609994e-01	 1.654071277407016e+00	-1.070872171819348e+01
1	 5.120722342973396e-01	 1.665933086072155e+00	-1.102060000006788e+01
1	 4.749151901999289e-01	 1.676903868003628e+00	-1.133862712870479e+01
1	 4.377392667119995e-01	 1.686990028063771e+00	-1.166370476033147e+01
1	 4.005737030024631e-01	 1.696199200822550e+00	-1.199671433192882e+01
1	 3.634470293606764e-01	 1.704540195260018e+00	-1.233851043959686e+01
1	 7.389139077997030e-01	 1.594226225247952e+00	-9.013929369196877e+00
1	 7.022178466052109e-01	 1.610726890666851e+00	-9.308013246739904e+00
1	 6.653143685710514e-01	 1.626317254222271e+00	-9.604184706124730e+00
1	 6.282358907478365e-01	 1.640996857396271e+00	-9.903367034978757e+00
1	 5.910145223904391e-01	 1.654766707041136e+00	-1.020651198745514e+01
1	 5.536819869295322e-01	 1.667629238697238e+00	-1.051459062234566e+01
1	 5.162695476932192e-01	 1.679588275302254e+00	-1.082858432762754e+01
1	 4.788079376605839e-01	 1.690648981675789e+00	-1.114947610705014e+01
1	 4.413272934883275e-01	 1.700817815179048e+00	-1.147824219792577e+01
1	 4.038570940106800e-01	 1.710102472960439e+00	-1.181584408228230e+01
1	 3.664261033718295e-01	 1.718511836204773e+00	-1.216322094609844e+01
1	 7.449213379444161e-01	 1.607187414071107e+00	-8.821404706157445e+00
1	 7.079269347889930e-01	 1.623822231241378e+00	-9.114626746016638e+00
1	 6.707234284781328e-01	 1.639539345720012e+00	-9.410376729484138e+00
1	 6.333434996157046e-01	 1.654338295261281e+00	-9.709607162043234e+00
1	 5.958195185074345e-01	 1.668220094903258e+00	-1.001330910914313e+01
1	 5.581834664980648e-01	 1.681187199987459e+00	-1.032250225208100e+01
1	 5.204668610890992e-01	 1.693243464532354e+00	-1.063822508461775e+01
1	 4.827006851212390e-01	 1.704394095347949e+00	-1.096152533568527e+01
1	 4.449153202646553e-01	 1.714645602294325e+00	-1.129345069703615e+01
1	 4.071404850188969e-01	 1.724005745098329e+00	-1.163503992748291e+01
1	 3.694051773829825e-01	 1.732483477149527e+00	-1.198731439763382e+01
1	 7.509287680891289e-01	 1.620148602894261e+00	-8.631915491224126e+00
1	 7.136360229727752e-01	 1.636917571815906e+00	-8.924166105329720e+00
1	 6.761324883852148e-01	 1.652761437217755e+00	-9.219335917811200e+00
1	 6.384511084835732e-01	 1.667679733126291e+00	-9.518401993356010e+00
1	 6.006245146244302e-01	 1.681673482765381e+00	-9.822390343093996e+00
1	 5.626849460665977e-01	 1.694745161277680e+00	-1.013236521632299e+01
1	 5.246641744849790e-01	 1.706898653762454e+00	-1.044941848451301e+01
1	 4.865934325818942e-01	 1.718139209020110e+00	-1.077465921267830e+01
1	 4.485033470409830e-01	 1.728473389409602e+00	-1.110920350665783e+01
1	 4.104238760271138e-01	 1.737909017236219e+00	-1.145416471747758e+01
1	 3.723842513941356e-01	 1.746455118094281e+00	-1.181064407594797e+01
1	 7.569361982338417e-01	 1.633109791717414e+00	-8.445438606319836e+00
1	 7.193451111565575e-01	 1.650012912390433e+00	-8.736594716527454e+00
1	 6.815415482922965e-01	 1.665983528715497e+00	-9.031012289836926e+00
1	 6.435587173514418e-01	 1.681021170991301e+00	-9.329688382863770e+00
1	 6.054295107414257e-01	 1.695126870627504e+00	-9.633679677323570e+00
1	 5.671864256351304e-01	 1.708303122567901e+00	-9.944091025298983e+00
1	 5.288614878808590e-01	 1.720553842992553e+00	-1.026206403559807e+01
1	 4.904861800425494e-01	 1.731884322692271e+00	-1.058876580599998e+01
1	 4.520913738173108e-01	 1.742301176524878e+00	-1.092537789962762e+01
1	 4.137072670353307e-01	 1.751812289374108e+00	-1.127308565618328e+01
1	 3.753633254052887e-01	 1.760426759039036e+00	-1.163306792050810e+01
1	 7.629436283785549e-01	 1.646070980540568e+00	-8.261951661495939e+00
1	 7.250541993403395e-01	 1.663108252964961e+00	-8.551877124470952e+00
1	 6.869506081993783e-01	 1.679205620213238e+00	-8.845357438505532e+00
1	 6.486663262193104e-01	 1.694362608856311e+00	-9.143405173365432e+00
1	 6.102345068584211e-01	 1.708580258489627e+00	-9.447103493925765e+00
1	 5.716879052036633e-01	 1.721861083858123e+00	-9.757593976315796e+00
1	 5.330588012767387e-01	 1.734209032222653e+00	-1.007606441125114e+01
1	 4.943789275032046e-01	 1.745629436364432e+00	-1.040373670903924e+01
1	 4.556794005936389e-01	 1.756128963640155e+00	-1.074185501420467e+01
1	 4.169906580435476e-01	 1.765715561511998e+00	-1.109167413007067e+01
1	 3.783423994164417e-01	 1.774398399983790e+00	-1.145444834512906e+01
1	 7.689510585232677e-01	 1.659032169363722e+00	-8.081432966489700e+00
1	 7.307632875241217e-01	 1.676203593539487e+00	-8.369978981994263e+00
1	 6.923596681064599e-01	 1.692427711710981e+00	-8.662324469481824e+00
1	 6.537739350871791e-01	 1.707704046721322e+00	-8.959493118822317e+00
1	 6.150395029754165e-01	 1.722033646351750e+00	-9.262590475554170e+00
1	 5.761893847721959e-01	 1.735419045148344e+00	-9.572791044889392e+00
1	 5.372561146726186e-01	 1.747864221452752e+00	-9.891325326307316e+00
1	 4.982716749638598e-01	 1.759374550036593e+00	-1.021946690289163e+01
1	 4.592674273699666e-01	 1.769956750755432e+00	-1.055851970307753e+01
1	 4.202740490517646e-01	 1.779618833649889e+00	-1.090980554478321e+01
1	 3.813214734275949e-01	 1.788370040928544e+00	-1.127465206319391e+01
1	 7.749584886679808e-01	 1.671993358186876e+00	-7.903861503604618e+00
1	 7.364723757079040e-01	 1.689298934114015e+00	-8.190867006959987e+00
1	 6.977687280135416e-01	 1.705649803208722e+00	-8.481867942518353e+00
1	 6.588815439550476e-01	 1.721045484586332e+00	-8.777894810282289e+00
1	 6.198444990924119e-01	 1.735487034213874e+00	-9.080071516252890e+00
1	 5.806908643407288e-01	 1.748977006438566e+00	-9.389601780938412e+00
1	 5.414534280684983e-01	 1.761519410682852e+00	-9.707755419172726e+00
1	 5.021644224245149e-01	 1.773119663708754e+00	-1.003585462505290e+01
1	 4.628554541462946e-01	 1.783784537870709e+00	-1.037526038939413e+01
1	 4.235574400599815e-01	 1.793522105787778e+00	-1.072735916935533e+01
1	 3.843005474387480e-01	 1.802341681873299e+00	-1.109354992100403e+01
1	 7.809659188126938e-01	 1.684954547010031e+00	-7.729216901842579e+00
1	 7.421814638916863e-01	 1.702394274688543e+00	-8.014508941296334e+00
1	 7.031777879206234e-01	 1.718871894706465e+00	-8.303943815529236e+00
1	 6.639891528229160e-01	 1.734386922451343e+00	-8.598554605222477e+00
1	 6.246494952094075e-01	 1.748940422075997e+00	-8.899479636403147e+00
1	 5.851923439092619e-01	 1.762534967728788e+00	-9.207948209768553e+00
1	 5.456507414643782e-01	 1.775174599912952e+00	-9.525266139379427e+00
1	 5.060571698851701e-01	 1.786864777380915e+00	-9.852801244172646e+00
1	 4.664434809226226e-01	 1.797612324985986e+00	-1.019196892943619e+01
1	 4.268408310681985e-01	 1.807425377925668e+00	-1.054421798762029e+01
1	 3.872796214499012e-01	 1.816313322818053e+00	-1.091101673882080e+01
1	 3.574888813383703e-01	 1.676596913370510e+00	-1.268784958775809e+01
1	 3.210364086924502e-01	 1.683956987128215e+00	-1.301841550589934e+01
1	 2.846760232887887e-01	 1.690483679888263e+00	-1.334356302718401e+01
1	 2.484334097539916e-01	 1.696188772254459e+00	-1.365975000645638e+01
1	 2.123333804811160e-01	 1.701084961351885e+00	-1.396333800980156e+01
1	 1.763998437404562e-01	 1.705185797891955e+00	-1.425063444518591e+01
1	 1.406557764612708e-01	 1.708505622686726e+00	-1.451793263649634e+01
1	 1.051232015961897e-01	 1.711059502965998e+00	-1.476154961173543e+01
1	 6.982316995383152e-02	 1.712863168832140e+00	-1.497786141577630e+01
1	 3.477574636162224e-02	 1.713932950167268e+00	-1.516333579708272e+01
1	 0.000000000000000e+00	 1.714285714285714e+00	-1.531456215565261e+01
1	 3.604679553495234e-01	 1.690568554315264e+00	-1.251333444657443e+01
1	 3.237117120982206e-01	 1.697989962020950e+00	-1.285147584009122e+01
1	 2.870483234828618e-01	 1.704571043887332e+00	-1.318458213845636e+01
1	 2.505036881686081e-01	 1.710323678689912e+00	-1.350950092083775e+01
1	 2.141028253184586e-01	 1.715260669363150e+00	-1.382295191573012e+01
1	 1.778698424382933e-01	 1.719395679541055e+00	-1.412156840542650e+01
1	 1.418279079317814e-01	 1.722743169542450e+00	-1.440193684085096e+01
1	 1.059992282761580e-01	 1.725318332157382e+00	-1.466063442517534e+01
1	 7.040502970344679e-02	 1.727137028572408e+00	-1.489426446256584e+01
1	 3.506554424796907e-02	 1.728215724751995e+00	-1.509948930598731e+01
1	 0.000000000000000e+00	 1.728571428571429e+00	-1.527306077470924e+01
1	 3.634470293606764e-01	 1.704540195260018e+00	-1.233851043959686e+01
1	 3.263870155039911e-01	 1.712022936913685e+00	-1.268346298383201e+01
1	 2.894206236769351e-01	 1.718658407886401e+00	-1.302374679691018e+01
1	 2.525739665832247e-01	 1.724458585125366e+00	-1.335675515753250e+01
1	 2.158722701558012e-01	 1.729436377374416e+00	-1.367972066152459e+01
1	 1.793398411361305e-01	 1.733605561190154e+00	-1.398975478876949e+01
1	 1.430000394022920e-01	 1.736980716398172e+00	-1.428388602528570e+01
1	 1.068752549561262e-01	 1.739577161348765e+00	-1.455909629072276e+01
1	 7.098688945306204e-02	 1.741410888312676e+00	-1.481235545663789e+01
1	 3.535534213431592e-02	 1.742498499336722e+00	-1.504065377600255e+01
1	 0.000000000000000e+00	 1.742857142857143e+00	-1.524103207895910e+01
1	 3.664261033718295e-01	 1.718511836204773e+00	-1.216322094609844e+01
1	 3.290623189097613e-01	 1.726055911806420e+00	-1.251422124432148e+01
1	 2.917929238710082e-01	 1.732745771885470e+00	-1.286092098627054e+01
1	 2.546442449978413e-01	 1.738593491560819e+00	-1.320141125010143e+01
1	 2.176417149931439e-01	 1.743612085385682e+00	-1.353358835868038e+01
1	 1.808098398339676e-01	 1.747815442839254e+00	-1.385519051219918e+01
1	 1.441721708728026e-01	 1.751218263253894e+00	-1.416383339760003e+01
1	 1.077512816360945e-01	 1.753835990540148e+00	-1.445704452107465e+01
1	 7.156874920267729e-02	 1.755684748052943e+00	-1.473229604105516e+01
1	 3.564514002066279e-02	 1.756781273921450e+00	-1.498703591064576e+01
1	 0.000000000000000e+00	 1.757142857142857e+00	-1.521871716986929e+01
1	 3.694051773829825e-01	 1.732483477149527e+00	-1.198731439763382e+01
1	 3.317376223155319e-01	 1.740088886699155e+00	-1.234359995110808e+01
1	 2.941652240650815e-01	 1.746833135884538e+00	-1.269597307788413e+01
1	 2.567145234124579e-01	 1.752728397996273e+00	-1.304337100521606e+01
1	 2.194111598304865e-01	 1.757787793396947e+00	-1.338450092154797e+01
1	 1.822798385318048e-01	 1.762025324488354e+00	-1.371787259215185e+01
1	 1.453443023433132e-01	 1.765455810109617e+00	-1.404183044921267e+01
1	 1.086273083160627e-01	 1.768094819731531e+00	-1.435458490271207e+01
1	 7.215060895229257e-02	 1.769958607793211e+00	-1.465424264458817e+01
1	 3.593493790700963e-02	 1.771064048506176e+00	-1.493883574557918e+01
1	 0.000000000000000e+00	 1.771428571428571e+00	-1.520634937144021e+01
1	 3.723842513941356e-01	 1.746455118094281e+00	-1.181064407594797e+01
1	 3.344129257213023e-01	 1.754121861591890e+00	-1.217145325519432e+01
1	 2.965375242591547e-01	 1.760920499883607e+00	-1.252877565521473e+01
1	 2.587848018270745e-01	 1.766863304431727e+00	-1.288253937173468e+01
1	 2.211806046678291e-01	 1.771963501408213e+00	-1.323240599521838e+01
1	 1.837498372296419e-01	 1.776235206137454e+00	-1.357779814053783e+01
1	 1.465164338138238e-01	 1.779693356965340e+00	-1.391792702381722e+01
1	 1.095033349960310e-01	 1.782353648922915e+00	-1.425181983694860e+01
1	 7.273246870190783e-02	 1.784232467533479e+00	-1.457834669028673e+01
1	 3.622473579335649e-02	 1.785346823090904e+00	-1.489624691532387e+01
1	 0.000000000000000e+00	 1.785714285714285e+00	-1.520415454130427e+01
1	 3.753633254052887e-01	 1.760426759039036e+00	-1.163306792050810e+01
1	 3.370882291270726e-01	 1.768154836484625e+00	-1.199763993770985e+01
1	 2.989098244532279e-01	 1.775007863882676e+00	-1.235920534669543e+01
1	 2.608550802416911e-01	 1.780998210867182e+00	-1.271882431601193e+01
1	 2.229500495051717e-01	 1.786139209419479e+00	-1.307725288684355e+01
1	 1.852198359274790e-01	 1.790445087786553e+00	-1.343496436095284e+01
1	 1.476885652843344e-01	 1.793930903821063e+00	-1.379217138276747e+01
1	 1.103793616759992e-01	 1.796612478114298e+00	-1.414884847426246e+01
1	 7.331432845152309e-02	 1.798506327273746e+00	-1.450475479411965e+01
1	 3.651453367970334e-02	 1.799629597675631e+00	-1.485945690727280e+01
1	 0.000000000000000e+00	 1.800000000000000e+00	-1.521235136701032e+01
1	 3.783423994164417e-01	 1.774398399983790e+00	-1.145444834512906e+01
1	 3.397635325328431e-01	 1.782187811377361e+00	-1.182202322762279e+01
1	 3.012821246473013e-01	 1.789095227881745e+00	-1.218714266647799e+01
1	 2.629253586563077e-01	 1.795133117302635e+00	-1.255213670310000e+01
1	 2.247194943425144e-01	 1.800314917430744e+00	-1.291899250020036e+01
1	 1.866898346253162e-01	 1.804654969435653e+00	-1.328936854506841e+01
1	 1.488606967548450e-01	 1.808168450676785e+00	-1.366461026737483e+01
1	 1.112553883559674e-01	 1.810871307305681e+00	-1.404576684228219e+01
1	 7.389618820113837e-02	 1.812780187014014e+00	-1.443360895423006e+01
1	 3.680433156605019e-02	 1.813912372260358e+00	-1.482864730370477e+01
1	 0.000000000000000e+00	 1.814285714285714e+00	-1.523115164831036e+01
1	 3.813214734275949e-01	 1.788370040928544e+00	-1.127465206319391e+01
1	 3.424388359386135e-01	 1.796220786270096e+00	-1.164447062799585e+01
1	 3.036544248413745e-01	 1.803182591880814e+00	-1.201247186264686e+01
1	 2.649956370709242e-01	 1.809268023738089e+00	-1.238239018351828e+01
1	 2.264889391798570e-01	 1.814490625442010e+00	-1.275757727332265e+01
1	 1.881598333231533e-01	 1.818864851084752e+00	-1.314100806919121e+01
1	 1.500328282253555e-01	 1.822405997532508e+00	-1.353528895828455e+01
1	 1.121314150359357e-01	 1.825130136497064e+00	-1.394266796777297e+01
1	 7.447804795075362e-02	 1.827054046754282e+00	-1.436504673131901e+01
1	 3.709412945239704e-02	 1.828195146845085e+00	-1.480399401245208e+01
1	 0.000000000000000e+00	 1.828571428571428e+00	-1.526076056621423e+01
1	 3.843005474387480e-01	 1.802341681873299e+00	-1.109354992100403e+01
1	 3.451141393443839e-01	 1.810253761162831e+00	-1.146485375032407e+01
1	 3.060267250354476e-01	 1.817269955879882e+00	-1.183508077249335e+01
1	 2.670659154855408e-01	 1.823402930173542e+00	-1.220950108528934e+01
1	 2.282583840171996e-01	 1.828666333453276e+00	-1.259296111903408e+01
1	 1.896298320209904e-01	 1.833074732733851e+00	-1.298988039098279e+01
1	 1.512049596958661e-01	 1.836643544388231e+00	-1.340425133209095e+01
1	 1.130074417159039e-01	 1.839388965688447e+00	-1.383964199294898e+01
1	 7.505990770036886e-02	 1.841327906494550e+00	-1.429920142063957e+01
1	 3.738392733874390e-02	 1.842477921429813e+00	-1.478566748684048e+01
1	 0.000000000000000e+00	 1.842857142857143e+00	-1.530137693952978e+01
1	 3.872796214499012e-01	 1.816313322818053e+00	-1.091101673882080e+01
1	 3.477894427501543e-01	 1.824286736055566e+00	-1.128304815651783e+01
1	 3.083990252295210e-01	 1.831357319878951e+00	-1.165486068446874e+01
1	 2.691361939001575e-01	 1.837537836608996e+00	-1.203338831095815e+01
1	 2.300278288545423e-01	 1.842842041464542e+00	-1.242509936822513e+01
1	 1.910998307188276e-01	 1.847284614382951e+00	-1.283598304633054e+01
1	 1.523770911663767e-01	 1.850881091243954e+00	-1.327153991533930e+01
1	 1.138834683958722e-01	 1.853647794879832e+00	-1.373677628641806e+01
1	 7.564176744998415e-02	 1.855601766234818e+00	-1.423620221605231e+01
1	 3.767372522509075e-02	 1.856760696014540e+00	-1.477383293547830e+01
1	 0.000000000000000e+00	 1.857142857142857e+00	-1.535319346956316e+01
1	 1.857142857142857e+00	 0.000000000000000e+00	 2.772160814127359e+00
1	 1.856760696014540e+00	 3.767372522508970e-02	 2.558671932836424e+00
1	 1.855601766234818e+00	 7.564176744998323e-02	 2.349787346040071e+00
1	 1.853647794879831e+00	 1.138834683958714e-01	 2.146639173410776e+00
1	 1.850881091243954e+00	 1.523770911663761e-01	 1.950049896669926e+00
1	 1.847284614382952e+00	 1.910998307188271e-01	 1.760510499538951e+00
1	 1.842842041464542e+00	 2.300278288545419e-01	 1.578159769943759e+00
1	 1.837537836608996e+00	 2.691361939001572e-01	 1.402765027202481e+00
1	 1.831357319878951e+00	 3.083990252295208e-01	 1.233704541333424e+00
1	 1.824286736055566e+00	 3.477894427501544e-01	 1.069951912927217e+00
1	 1.816313322818053e+00	 3.872796214499010e-01	 9.100626799402469e-01
1	 1.871428571428572e+00	 0.000000000000000e+00	 2.677024095563682e+00
1	 1.871043470599267e+00	 3.796352311143655e-02	 2.468187023484895e+00
1	 1.869875625975086e+00	 7.622362719959845e-02	 2.264984390493878e+00
1	 1.867906624071215e+00	 1.147594950758397e-01	 2.068350015241417e+00
1	 1.865118638099676e+00	 1.535492226368867e-01	 1.878891441598272e+00
1	 1.861494496032051e+00	 1.925698294166642e-01	 1.696868843560176e+00
1	 1.857017749475808e+00	 2.317972736918846e-01	 1.522175265109106e+00
1	 1.851672743044450e+00	 2.712064723147739e-01	 1.354318461413574e+00
1	 1.845444683878020e+00	 3.107713254235941e-01	 1.192404610526980e+00
1	 1.838319710948301e+00	 3.504647461559249e-01	 1.035124164258013e+00
1	 1.830284963762807e+00	 3.902586954610540e-01	 8.807401028609138e-01
1	 1.885714285714286e+00	 0.000000000000000e+00	 2.589360810950865e+00
1	 1.885326245183995e+00	 3.825332099778341e-02	 2.383480225094870e+00
1	 1.884149485715354e+00	 7.680548694921373e-02	 2.184799644759131e+00
1	 1.882165453262598e+00	 1.156355217558080e-01	 1.993940885273564e+00
1	 1.879356184955399e+00	 1.547213541073972e-01	 1.811192133515167e+00
1	 1.875704377681151e+00	 1.940398281145013e-01	 1.636488892458629e+00
1	 1.871193457487073e+00	 2.335667185292272e-01	 1.469396431488675e+00
1	 1.865807649479904e+00	 2.732767507293904e-01	 1.309094001022963e+00
1	 1.859532047877089e+00	 3.131436256176673e-01	 1.154361070420889e+00
1	 1.852352685841037e+00	 3.531400495616954e-01	 1.003565845255989e+00
1	 1.844256604707561e+00	 3.932377694722071e-01	 8.546563135619644e-01
1	 1.900000000000000e+00	 0.000000000000000e+00	 2.510520022648036e+00
1	 1.899609019768722e+00	 3.854311888413024e-02	 2.305425850640888e+00
1	 1.898423345455622e+00	 7.738734669882900e-02	 2.109690449520172e+00
1	 1.896424282453981e+00	 1.165115484357762e-01	 1.923512336222384e+00
1	 1.893593731811122e+00	 1.558934855779079e-01	 1.746758183807767e+00
1	 1.889914259330250e+00	 1.955098268123384e-01	 1.578947064199468e+00
1	 1.885369165498339e+00	 2.353361633665698e-01	 1.419236365603627e+00
1	 1.879942555915358e+00	 2.753470291440070e-01	 1.266409623960281e+00
1	 1.873619411876158e+00	 3.155159258117405e-01	 1.118866505138128e+00
1	 1.866385660733772e+00	 3.558153529674657e-01	 9.746151686626789e-01
1	 1.858228245652316e+00	 3.962168434833602e-01	 8.312672343608332e-01
1	 1.914285714285714e+00	 0.000000000000000e+00	 2.441810522496172e+00
1	 1.913891794353449e+00	 3.883291677047709e-02	 2.234872114202709e+00
1	 1.912697205195890e+00	 7.796920644844424e-02	 2.040100493500671e+00
1	 1.910683111645364e+00	 1.173875751157444e-01	 1.857161919229469e+00
1	 1.907831278666844e+00	 1.570656170484184e-01	 1.685401588597966e+00
1	 1.904124140979350e+00	 1.969798255101755e-01	 1.523832420987698e+00
1	 1.899544873509605e+00	 2.371056082039125e-01	 1.371125683481947e+00
1	 1.894077462350812e+00	 2.774173075586236e-01	 1.225603667022918e+00
1	 1.887706775875227e+00	 3.178882260058138e-01	 1.085234615693514e+00
1	 1.880418635626507e+00	 3.584906563732363e-01	 9.476301020631281e-01
1	 1.872199886597070e+00	 3.991959174945133e-01	 8.100450286998016e-01
1	 1.928571428571428e+00	 0.000000000000000e+00	 2.384502323318697e+00
1	 1.928174568938176e+00	 3.912271465682392e-02	 2.172642097591081e+00
1	 1.926971064936157e+00	 7.855106619805947e-02	 1.976460319091708e+00
1	 1.924941940836748e+00	 1.182636017957127e-01	 1.794984295032211e+00
1	 1.922068825522567e+00	 1.582377485189289e-01	 1.626939914492934e+00
1	 1.918334022628450e+00	 1.984498242080127e-01	 1.470746200962980e+00
1	 1.913720581520870e+00	 2.388750530412551e-01	 1.324511871787824e+00
1	 1.908212368786266e+00	 2.794875859732402e-01	 1.186034071843916e+00
1	 1.901794139874295e+00	 3.202605261998870e-01	 1.052799437886612e+00
1	 1.894451610519242e+00	 3.611659597790065e-01	 9.219876362250625e-01
1	 1.886171527541824e+00	 4.021749915056664e-01	 7.904774996228712e-01
1	 1.942857142857142e+00	 0.000000000000000e+00	 2.339828084620738e+00
1	 1.942457343522903e+00	 3.941251254317078e-02	 2.119534674328174e+00
1	 1.941244924676425e+00	 7.913292594767478e-02	 1.919187805672880e+00
1	 1.939200770028131e+00	 1.191396284756809e-01	 1.737071340228654e+00
1	 1.936306372378290e+00	 1.594098799894396e-01	 1.571196093787835e+00
1	 1.932543904277549e+00	 1.999198229058498e-01	 1.419301370554998e+00
1	 1.927896289532136e+00	 2.406444978785977e-01	 1.278858667577679e+00
1	 1.922347275221719e+00	 2.815578643878568e-01	 1.147077664125925e+00
1	 1.915881503873364e+00	 3.226328263939603e-01	 1.020914594699364e+00
1	 1.908484585411977e+00	 3.638412631847770e-01	 8.970830857171401e-01
1	 1.900143168486578e+00	 4.051540655168194e-01	 7.720675147903859e-01
1	 1.957142857142857e+00	 0.000000000000000e+00	 2.308984475848853e+00
1	 1.956740118107630e+00	 3.970231042951762e-02	 2.076325393161803e+00
1	 1.955518784416693e+00	 7.971478569729003e-02	 1.868688631765962e+00
1	 1.953459599219514e+00	 1.200156551556491e-01	 1.683512248888437e+00
1	 1.950543919234012e+00	 1.605820114599502e-01	 1.517998228637873e+00
1	 1.946753785926649e+00	 2.013898216036869e-01	 1.369122196443649e+00
1	 1.942071997543402e+00	 2.424139427159403e-01	 1.233645465220161e+00
1	 1.936482181657173e+00	 2.836281428024734e-01	 1.108129464441582e+00
1	 1.929968867872432e+00	 3.250051265880335e-01	 9.889525814353961e-01
1	 1.922517560304712e+00	 3.665165665905474e-01	 8.723294201571252e-01
1	 1.914114809431332e+00	 4.081331395279725e-01	 7.543324566755281e-01
1	 1.971428571428571e+00	 0.000000000000000e+00	 2.293133480378694e+00
1	 1.971022892692358e+00	 3.999210831586446e-02	 2.043767323165948e+00
1	 1.969792644156961e+00	 8.029664544690526e-02	 1.825356717095052e+00
1	 1.967718428410897e+00	 1.208916818356174e-01	 1.634393629745890e+00
1	 1.964781466089736e+00	 1.617541429304608e-01	 1.467179403744441e+00
1	 1.960963667575749e+00	 2.028598203015241e-01	 1.319843836129723e+00
1	 1.956247705554667e+00	 2.441833875532830e-01	 1.188366749102213e+00
1	 1.950617088092627e+00	 2.856984212170900e-01	 1.068602028999123e+00
1	 1.944056231871502e+00	 3.273774267821068e-01	 9.563040819402615e-01
1	 1.936550535197447e+00	 3.691918699963179e-01	 8.471566245361767e-01
1	 1.928086450376086e+00	 4.111122135391256e-01	 7.368036966653085e-01
1	 1.985714285714285e+00	 0.000000000000000e+00	 2.293403643215389e+00
1	 1.985305667277085e+00	 4.028190620221130e-02	 2.022591862362070e+00
1	 1.984066503897229e+00	 8.087850519652053e-02	 1.789574645564729e+00
1	 1.981977257602281e+00	 1.217677085155856e-01	 1.589799599197576e+00
1	 1.979019012945458e+00	 1.629262744009713e-01	 1.418577507126889e+00
1	 1.975173549224848e+00	 2.043298189993612e-01	 1.271111946178700e+00
1	 1.970423413565933e+00	 2.459528323906256e-01	 1.142531550822658e+00
1	 1.964751994528080e+00	 2.877686996317065e-01	 1.027924818864068e+00
1	 1.958143595870570e+00	 3.297497269761800e-01	 9.223773143373475e-01
1	 1.950583510090182e+00	 3.718671734020883e-01	 8.210110871550660e-01
1	 1.942058091320841e+00	 4.140912875502787e-01	 7.190260918622093e-01
1	 2.000000000000000e+00	 0.000000000000000e+00	 2.310891265221064e+00
1	 1.999588441861812e+00	 4.057170408855815e-02	 2.013509511685347e+00
1	 1.998340363637497e+00	 8.146036494613579e-02	 1.761714070111025e+00
1	 1.996236086793665e+00	 1.226437351955539e-01	 1.549811870314549e+00
1	 1.993256559801181e+00	 1.640984058714819e-01	 1.372035058575453e+00
1	 1.989383430873948e+00	 2.057998176971984e-01	 1.222582307254231e+00
1	 1.984599121577199e+00	 2.477222772279683e-01	 1.095662929648956e+00
1	 1.978886900963535e+00	 2.898389780463232e-01	 9.855435962143800e-01
1	 1.972230959869640e+00	 3.321220271702533e-01	 8.865974048036318e-01
1	 1.964616484982918e+00	 3.745424768078588e-01	 7.933550137916645e-01
1	 1.956029732265595e+00	 4.170703615614318e-01	 7.005575034515017e-01
1	 1.816313322818053e+00	 3.872796214499010e-01	 9.100626799402469e-01
1	 1.807425377925668e+00	 4.268408310681971e-01	 7.523534873348462e-01
1	 1.797612324985986e+00	 4.664434809226215e-01	 5.961868231052804e-01
1	 1.786864777380915e+00	 5.060571698851692e-01	 4.413114636788653e-01
1	 1.775174599912952e+00	 5.456507414643776e-01	 2.874019295994374e-01
1	 1.762534967728788e+00	 5.851923439092610e-01	 1.340580684146432e-01
1	 1.748940422075997e+00	 6.246494952094070e-01	-1.919479009057007e-02
1	 1.734386922451343e+00	 6.639891528229159e-01	-1.729050793675687e-01
1	 1.718871894706465e+00	 7.031777879206232e-01	-3.276936206522325e-01
1	 1.702394274688542e+00	 7.421814638916866e-01	-4.842516108730628e-01
1	 1.684954547010031e+00	 7.809659188126941e-01	-6.433379646669044e-01
1	 1.830284963762807e+00	 3.902586954610540e-01	 8.807401028609138e-01
1	 1.821328650063559e+00	 4.301242220764143e-01	 7.279652086909052e-01
1	 1.811440112101263e+00	 4.700315076989492e-01	 5.767490177862167e-01
1	 1.800609891053076e+00	 5.099499173458243e-01	 4.268279127570036e-01
1	 1.788829789143052e+00	 5.498480548602573e-01	 2.778637589185490e-01
1	 1.776092929019010e+00	 5.896938234777940e-01	 1.294435316707006e-01
1	 1.762393809938120e+00	 6.294544913264023e-01	-1.892048059654622e-02
1	 1.747728360316353e+00	 6.690967616907845e-01	-1.677898713450209e-01
1	 1.732093986204207e+00	 7.085868478277051e-01	-3.177986871068196e-01
1	 1.715489615263070e+00	 7.478905520754687e-01	-4.696513596660613e-01
1	 1.697915735833185e+00	 7.869733489574072e-01	-6.241199902915604e-01
1	 1.844256604707561e+00	 3.932377694722071e-01	 8.546563135619644e-01
1	 1.835231922201447e+00	 4.334076130846310e-01	 7.067132533627275e-01
1	 1.825267899216540e+00	 4.736195344752773e-01	 5.602719810542177e-01
1	 1.814355004725237e+00	 5.138426648064794e-01	 4.150848932944885e-01
1	 1.802484978373151e+00	 5.540453682561373e-01	 2.708258506127605e-01
1	 1.789650890309231e+00	 5.941953030463267e-01	 1.270895329791641e-01
1	 1.775847197800243e+00	 6.342594874433982e-01	-1.660860683372539e-02
1	 1.761069798181364e+00	 6.742043705586529e-01	-1.608317618749233e-01
1	 1.745316077701950e+00	 7.139959077347867e-01	-3.062205368598309e-01
1	 1.728584955837597e+00	 7.535996402592509e-01	-4.534910425839208e-01
1	 1.710876924656339e+00	 7.929807791021203e-01	-6.034323069626426e-01
1	 1.858228245652316e+00	 3.962168434833602e-01	 8.312672343608332e-01
1	 1.849135194339338e+00	 4.366910040928479e-01	 6.881992667069577e-01
1	 1.839095686331816e+00	 4.772075612516050e-01	 5.464860977564560e-01
1	 1.828100118397398e+00	 5.177354122671347e-01	 4.059240639239404e-01
1	 1.816140167603251e+00	 5.582426816520172e-01	 2.662232477947032e-01
1	 1.803208851599452e+00	 5.986967826148596e-01	 1.270062494908099e-01
1	 1.789300585662366e+00	 6.390644835603934e-01	-1.219240303595220e-02
1	 1.774411236046374e+00	 6.793119794265218e-01	-1.519261673877111e-01
1	 1.758538169199691e+00	 7.194049676418685e-01	-2.928356920053829e-01
1	 1.741680296412124e+00	 7.593087284430331e-01	-4.356472879613395e-01
1	 1.723838113479493e+00	 7.989882092468331e-01	-5.811706489524064e-01
1	 1.872199886597070e+00	 3.991959174945133e-01	 8.100450286998016e-01
1	 1.863038466477227e+00	 4.399743951010648e-01	 6.720367852636064e-01
1	 1.852923473447093e+00	 4.807955880279328e-01	 5.351298009536158e-01
1	 1.841845232069558e+00	 5.216281597277898e-01	 3.991918098859684e-01
1	 1.829795356833351e+00	 5.624399950478969e-01	 2.639929325885697e-01
1	 1.816766812889674e+00	 6.031982621833923e-01	 1.292035545608664e-01
1	 1.802753973524489e+00	 6.438694796773888e-01	-5.607096445016613e-03
1	 1.787752673911384e+00	 6.844195882943902e-01	-1.409716262114170e-01
1	 1.771760260697433e+00	 7.248140275489501e-01	-2.775243605452357e-01
1	 1.754775636986651e+00	 7.650178166268151e-01	-4.160004068693088e-01
1	 1.736799302302648e+00	 8.049956393915464e-01	-5.572338629428772e-01
1	 1.886171527541824e+00	 4.021749915056664e-01	 7.904774996228712e-01
1	 1.876941738615117e+00	 4.432577861092817e-01	 6.578507963418903e-01
1	 1.866751260562370e+00	 4.843836148042608e-01	 5.259492738379210e-01
1	 1.855590345741720e+00	 5.255209071884449e-01	 3.947390679696013e-01
1	 1.843450546063450e+00	 5.666373084437768e-01	 2.640737543148761e-01
1	 1.830324774179895e+00	 6.076997417519249e-01	 1.336910290007061e-01
1	 1.816207361386612e+00	 6.486744757943843e-01	 3.210166504456602e-03
1	 1.801094111776395e+00	 6.895271971622586e-01	-1.278696829458397e-01
1	 1.784982352195175e+00	 7.302230874560320e-01	-2.601702998736862e-01
1	 1.767870977561179e+00	 7.707269048105972e-01	-3.944342567174442e-01
1	 1.749760491125801e+00	 8.110030695362590e-01	-5.315237927514412e-01
1	 1.900143168486578e+00	 4.051540655168194e-01	 7.720675147903859e-01
1	 1.890845010753007e+00	 4.465411771174986e-01	 6.452773170360346e-01
1	 1.880579047677646e+00	 4.879716415805885e-01	 5.186981648018231e-01
1	 1.869335459413880e+00	 5.294136546491001e-01	 3.924211591759597e-01
1	 1.857105735293550e+00	 5.708346218396565e-01	 2.664063608435319e-01
1	 1.843882735470116e+00	 6.122012213204578e-01	 1.404779718331285e-01
1	 1.829660749248735e+00	 6.534794719113795e-01	 1.432039074356412e-02
1	 1.814435549641405e+00	 6.946348060301275e-01	-1.125247779378344e-01
1	 1.798204443692917e+00	 7.356321473631136e-01	-2.406606862852016e-01
1	 1.780966318135706e+00	 7.764359929943796e-01	-3.708361108739137e-01
1	 1.762721679948956e+00	 8.170104996809723e-01	-5.039451691420288e-01
1	 1.914114809431332e+00	 4.081331395279725e-01	 7.543324566755281e-01
1	 1.904748282890896e+00	 4.498245681257155e-01	 6.339629916783975e-01
1	 1.894406834792923e+00	 4.915596683569164e-01	 5.131373149854341e-01
1	 1.883080573086041e+00	 5.333064021097551e-01	 3.920976287105061e-01
1	 1.870760924523649e+00	 5.750319352355362e-01	 2.709331329533562e-01
1	 1.857440696760338e+00	 6.167027008889905e-01	 1.495734105766214e-01
1	 1.843114137110859e+00	 6.582844680283750e-01	 2.778280003753203e-02
1	 1.827776987506415e+00	 6.997424148979960e-01	-9.484414159713156e-02
1	 1.811426535190659e+00	 7.410412072701953e-01	-2.188859901970338e-01
1	 1.794061658710233e+00	 7.821450811781617e-01	-3.450965339953981e-01
1	 1.775682868772110e+00	 8.230179298256854e-01	-4.744055044621077e-01
1	 1.928086450376086e+00	 4.111122135391256e-01	 7.368036966653085e-01
1	 1.918651555028787e+00	 4.531079591339324e-01	 6.235647067945924e-01
1	 1.908234621908200e+00	 4.951476951332443e-01	 5.090344976697411e-01
1	 1.896825686758202e+00	 5.371991495704104e-01	 3.936320929321759e-01
1	 1.884416113753749e+00	 5.792292486314160e-01	 2.775981215455202e-01
1	 1.870998658050559e+00	 6.212041804575233e-01	 1.609861110824674e-01
1	 1.856567524972981e+00	 6.630894641453706e-01	 4.365490152071366e-02
1	 1.841118425371425e+00	 7.048500237658645e-01	-7.473769330708424e-02
1	 1.824648626688401e+00	 7.464502671772769e-01	-1.947398567969579e-01
1	 1.807156999284760e+00	 7.878541693619439e-01	-3.171092627775132e-01
1	 1.788644057595264e+00	 8.290253599703984e-01	-4.428149918606529e-01
1	 1.942058091320841e+00	 4.140912875502787e-01	 7.190260918622093e-01
1	 1.932554827166676e+00	 4.563913501421493e-01	 6.137492226792951e-01
1	 1.922062409023478e+00	 4.987357219095723e-01	 5.061641689190051e-01
1	 1.910570800430363e+00	 5.410918970310654e-01	 3.968920929089924e-01
1	 1.898071302983849e+00	 5.834265620272959e-01	 2.863469875672077e-01
1	 1.884556619340781e+00	 6.257056600260561e-01	 1.747245869472372e-01
1	 1.870020912835105e+00	 6.678944602623660e-01	 6.199254744589117e-02
1	 1.854459863236436e+00	 7.099576326337331e-01	-5.211794469901176e-02
1	 1.837870718186143e+00	 7.518593270843589e-01	-1.681189918428770e-01
1	 1.820252339859287e+00	 7.935632575457262e-01	-2.867710918526981e-01
1	 1.801605246418418e+00	 8.350327901151113e-01	-4.090864088564746e-01
1	 1.956029732265595e+00	 4.170703615614318e-01	 7.005575034515017e-01
1	 1.946458099304566e+00	 4.596747411503663e-01	 6.041928207616067e-01
1	 1.935890196138754e+00	 5.023237486859001e-01	 5.043072289099449e-01
1	 1.924315914102524e+00	 5.449846444917207e-01	 4.017489542498865e-01
1	 1.911726492213948e+00	 5.876238754231758e-01	 2.971269445099620e-01
1	 1.898114580631002e+00	 6.302071395945890e-01	 1.907971085218873e-01
1	 1.883474300697228e+00	 6.726994563793616e-01	 8.284999428720563e-02
1	 1.867801301101446e+00	 7.150652415016019e-01	-2.689990707190837e-02
1	 1.851092809683886e+00	 7.572683869914406e-01	-1.389230523567570e-01
1	 1.833347680433815e+00	 7.992723457295086e-01	-2.539817645781732e-01
1	 1.814566435241572e+00	 8.410402202598246e-01	-3.731350250392620e-01
1	 1.684954547010031e+00	 7.809659188126941e-01	-6.433379646669044e-01
1	 1.666554778562835e+00	 8.194966515405140e-01	-8.090778058233581e-01
1	 1.647198646418210e+00	 8.577390110486701e-01	-9.847644690971949e-01
1	 1.626891459784270e+00	 8.956582885887572e-01	-1.169901380769289e+00
1	 1.605640175727937e+00	 9.332198122227667e-01	-1.363917948403213e+00
1	 1.583453408407349e+00	 9.703890432398138e-01	-1.566171991223796e+00
1	 1.560341431603759e+00	 1.007131673942125e+00	-1.775952761211615e+00
1	 1.536316174388376e+00	 1.043413726260777e+00	-1.992484542062990e+00
1	 1.511391209809139e+00	 1.079201650641992e+00	-2.214930806291841e+00
1	 1.485581736534221e+00	 1.114462424630234e+00	-2.442398903945300e+00
1	 1.458904553442911e+00	 1.149163650565174e+00	-2.673945249782702e+00
1	 1.697915735833185e+00	 7.869733489574072e-01	-6.241199902915604e-01
1	 1.679374430705627e+00	 8.258004719369799e-01	-7.851480692095909e-01
1	 1.659869405236812e+00	 8.643370034413524e-01	-9.558362468995240e-01
1	 1.639406009474919e+00	 9.025479677317478e-01	-1.135680432669010e+00
1	 1.617991254002767e+00	 9.403984261629419e-01	-1.324097135624702e+00
1	 1.595633819241253e+00	 9.778535743416581e-01	-1.520425969041239e+00
1	 1.572344058000711e+00	 1.014878840664757e+00	-1.723932795285652e+00
1	 1.548133991114441e+00	 1.051439985693553e+00	-1.933813498505028e+00
1	 1.523017296038441e+00	 1.087503201800777e+00	-2.149198364813504e+00
1	 1.497009288353716e+00	 1.123035212512005e+00	-2.369157042301185e+00
1	 1.470126896161702e+00	 1.158003370954136e+00	-2.592704045955266e+00
1	 1.710876924656339e+00	 7.929807791021203e-01	-6.034323069626426e-01
1	 1.692194082848417e+00	 8.321042923334450e-01	-7.598017146620756e-01
1	 1.672540164055414e+00	 8.709349958340343e-01	-9.255057635146808e-01
1	 1.651920559165566e+00	 9.094376468747377e-01	-1.100045593697875e+00
1	 1.630342332277597e+00	 9.475770401031167e-01	-1.282838091037339e+00
1	 1.607814230075155e+00	 9.853181054435031e-01	-1.473218390039240e+00
1	 1.584346684397663e+00	 1.022626007387389e+00	-1.670443061955898e+00
1	 1.559951807840505e+00	 1.059466245126328e+00	-1.873693975748949e+00
1	 1.534643382267742e+00	 1.095804752959561e+00	-2.082082811814821e+00
1	 1.508436840173210e+00	 1.131608000393776e+00	-2.294656200378912e+00
1	 1.481349238880494e+00	 1.166843091343100e+00	-2.510401448679267e+00
1	 1.723838113479493e+00	 7.989882092468331e-01	-5.811706489524064e-01
1	 1.705013734991208e+00	 8.384081127299104e-01	-7.329638529973366e-01
1	 1.685210922874015e+00	 8.775329882267161e-01	-8.937289556856467e-01
1	 1.664435108856215e+00	 9.163273260177285e-01	-1.062984870551213e+00
1	 1.642693410552427e+00	 9.547556540432919e-01	-1.240161921883785e+00
1	 1.619994640909058e+00	 9.927826365453479e-01	-1.424604271916642e+00
1	 1.596349310794615e+00	 1.030373174110020e+00	-1.615573072228699e+00
1	 1.571769624566569e+00	 1.067492504559103e+00	-1.812250328473143e+00
1	 1.546269468497042e+00	 1.104106304118346e+00	-2.013743459088877e+00
1	 1.519864391992704e+00	 1.140180788275547e+00	-2.219090520211314e+00
1	 1.492571581599285e+00	 1.175682811732062e+00	-2.427266060715709e+00
1	 1.736799302302648e+00	 8.049956393915464e-01	-5.572338629428772e-01
1	 1.717833387133999e+00	 8.447119331263760e-01	-7.045618305299183e-01
1	 1.697881681692616e+00	 8.841309806193980e-01	-8.604630754764885e-01
1	 1.676949658546863e+00	 9.232170051607189e-01	-1.024486627933464e+00
1	 1.655044488827258e+00	 9.619342679834672e-01	-1.196089105339763e+00
1	 1.632175051742961e+00	 1.000247167647193e+00	-1.374636990052918e+00
1	 1.608351937191566e+00	 1.038120340832652e+00	-1.559409665140066e+00
1	 1.583587441292633e+00	 1.075518763991878e+00	-1.749603199276048e+00
1	 1.557895554726344e+00	 1.112407855277130e+00	-1.944334862852843e+00
1	 1.531291943812198e+00	 1.148753576157318e+00	-2.142648348546710e+00
1	 1.503793924318077e+00	 1.184522532121025e+00	-2.343519660862557e+00
1	 1.749760491125801e+00	 8.110030695362590e-01	-5.315237927514412e-01
1	 1.730653039276790e+00	 8.510157535228415e-01	-6.745251462761556e-01
1	 1.710552440511218e+00	 8.907289730120804e-01	-8.256666415567815e-01
1	 1.689464208237511e+00	 9.301066843037094e-01	-9.845395752985538e-01
1	 1.667395567102088e+00	 9.691128819236425e-01	-1.150639511849838e+00
1	 1.644355462576863e+00	 1.007711698749037e+00	-1.323368338334808e+00
1	 1.620354563588519e+00	 1.045867507555284e+00	-1.502037106717540e+00
1	 1.595405258018698e+00	 1.083545023424654e+00	-1.685869656160580e+00
1	 1.569521640955645e+00	 1.120709406435915e+00	-1.874006999880425e+00
1	 1.542719495631692e+00	 1.157326364039089e+00	-2.065512451488967e+00
1	 1.515016267036868e+00	 1.193362252509988e+00	-2.259377456694146e+00
1	 1.762721679948956e+00	 8.170104996809723e-01	-5.039451691420288e-01
1	 1.743472691419581e+00	 8.573195739193069e-01	-6.427853728107239e-01
1	 1.723223199329819e+00	 8.973269654047624e-01	-7.892993926352437e-01
1	 1.701978757928159e+00	 9.369963634466999e-01	-9.431327541752950e-01
1	 1.679746645376918e+00	 9.762914958638175e-01	-1.103832427433766e+00
1	 1.656535873410766e+00	 1.015176229850882e+00	-1.270848587299452e+00
1	 1.632357189985470e+00	 1.053614674277916e+00	-1.443537184576092e+00
1	 1.607223074744762e+00	 1.091571282857428e+00	-1.621163323953119e+00
1	 1.581147727184946e+00	 1.129010957594699e+00	-1.802905435863746e+00
1	 1.554147047451186e+00	 1.165899151920861e+00	-1.987860219668361e+00
1	 1.526238609755660e+00	 1.202201972898951e+00	-2.175048326150298e+00
1	 1.775682868772110e+00	 8.230179298256854e-01	-4.744055044621077e-01
1	 1.756292343562372e+00	 8.636233943157723e-01	-6.092760805893237e-01
1	 1.735893958148422e+00	 9.039249577974445e-01	-7.513222429327351e-01
1	 1.714493307618807e+00	 9.438860425896902e-01	-9.002555260478611e-01
1	 1.692097723651748e+00	 9.834701098039924e-01	-1.055686575015811e+00
1	 1.668716284244668e+00	 1.022640760952727e+00	-1.217126539731081e+00
1	 1.644359816382422e+00	 1.061361841000548e+00	-1.383989298371120e+00
1	 1.619040891470826e+00	 1.099597542290204e+00	-1.555594509966860e+00
1	 1.592773813414247e+00	 1.137312508753484e+00	-1.731171486401713e+00
1	 1.565574599270680e+00	 1.174471939802631e+00	-1.909863864426661e+00
1	 1.537460952474451e+00	 1.211041693287914e+00	-2.090735048544815e+00
1	 1.788644057595264e+00	 8.290253599703984e-01	-4.428149918606529e-01
1	 1.769111995705163e+00	 8.699272147122379e-01	-5.739327655617087e-01
1	 1.748564716967023e+00	 9.105229501901266e-01	-7.116972395912561e-01
1	 1.727007857309455e+00	 9.507757217326804e-01	-8.558975607632122e-01
1	 1.704448801926579e+00	 9.906487237441676e-01	-1.006220134826798e+00
1	 1.680896695078571e+00	 1.030105292054571e+00	-1.162249583840445e+00
1	 1.656362442779374e+00	 1.069109007723179e+00	-1.323470546318742e+00
1	 1.630858708196891e+00	 1.107623801722979e+00	-1.489270324201524e+00
1	 1.604399899643548e+00	 1.145614059912269e+00	-1.658942370988957e+00
1	 1.577002151090173e+00	 1.183044727684402e+00	-1.831690605472550e+00
1	 1.548683295193243e+00	 1.219881413676877e+00	-2.006634525530222e+00
1	 1.801605246418418e+00	 8.350327901151113e-01	-4.090864088564746e-01
1	 1.781931647847955e+00	 8.762310351087036e-01	-5.366927799092830e-01
1	 1.761235475785625e+00	 9.171209425828086e-01	-6.703875219213844e-01
1	 1.739522407000104e+00	 9.576654008756710e-01	-8.100488254388964e-01
1	 1.716799880201409e+00	 9.978273376843427e-01	-9.554507639254275e-01
1	 1.693077105912474e+00	 1.037569823156416e+00	-1.106263744148826e+00
1	 1.668365069176326e+00	 1.076856174445811e+00	-1.262055807981359e+00
1	 1.642676524922955e+00	 1.115650061155754e+00	-1.422294794354787e+00
1	 1.616025985872849e+00	 1.153915611071053e+00	-1.586351360357619e+00
1	 1.588429702909667e+00	 1.191617515566173e+00	-1.753502850436759e+00
1	 1.559905637912035e+00	 1.228721134065840e+00	-1.922937992524504e+00
1	 1.814566435241572e+00	 8.410402202598246e-01	-3.731350250392620e-01
1	 1.794751299990746e+00	 8.825348555051692e-01	-4.974952657511277e-01
1	 1.773906234604226e+00	 9.237189349754910e-01	-6.273572823962434e-01
1	 1.752036956690753e+00	 9.645550800186617e-01	-7.626995738462197e-01
1	 1.729150958476239e+00	 1.005005951624518e+00	-9.033956148830142e-01
1	 1.705257516746377e+00	 1.045034354258261e+00	-1.049213730191136e+00
1	 1.680367695573278e+00	 1.084603341168443e+00	-1.199817823505353e+00
1	 1.654494341649020e+00	 1.123676320588530e+00	-1.354768975904281e+00
1	 1.627652072102150e+00	 1.162217162229838e+00	-1.513527917504683e+00
1	 1.599857254729162e+00	 1.200190303447945e+00	-1.675458366732015e+00
1	 1.571127980630826e+00	 1.237560854454803e+00	-1.839831221076498e+00
1	 1.458904553442911e+00	 1.149163650565174e+00	-2.673945249782702e+00
1	 1.431378027209509e+00	 1.183273651806101e+00	-2.907138673867053e+00
1	 1.403022052981518e+00	 1.216761566899719e+00	-3.140332086203744e+00
1	 1.373858008308830e+00	 1.249597441115509e+00	-3.373763530076348e+00
1	 1.343908700535385e+00	 1.281752314787076e+00	-3.607723105948523e+00
1	 1.313198307917874e+00	 1.313198307917874e+00	-3.842550393313689e+00
1	 1.281752314787075e+00	 1.343908700535385e+00	-4.078631443822118e+00
1	 1.249597441115509e+00	 1.373858008308831e+00	-4.316395374172052e+00
1	 1.216761566899719e+00	 1.403022052981518e+00	-4.556310592042679e+00
1	 1.183273651806102e+00	 1.431378027209509e+00	-4.798880692675174e+00
1	 1.149163650565174e+00	 1.458904553442910e+00	-5.044640067498458e+00
1	 1.470126896161702e+00	 1.158003370954136e+00	-2.592704045955266e+00
1	 1.442388627418814e+00	 1.192375756819995e+00	-2.817541826360881e+00
1	 1.413814530312146e+00	 1.226121271260486e+00	-3.042256051491462e+00
1	 1.384426146834283e+00	 1.259209729124089e+00	-3.267197442638859e+00
1	 1.354246459770273e+00	 1.291611947977745e+00	-3.492779831718076e+00
1	 1.323299833363396e+00	 1.323299833363396e+00	-3.719476639945946e+00
1	 1.291611947977745e+00	 1.354246459770273e+00	-3.947816837461120e+00
1	 1.259209729124090e+00	 1.384426146834283e+00	-4.178380422046333e+00
1	 1.226121271260486e+00	 1.413814530312145e+00	-4.411793460887599e+00
1	 1.192375756819996e+00	 1.442388627418813e+00	-4.648722744466379e+00
1	 1.158003370954136e+00	 1.470126896161702e+00	-4.889870106144606e+00
1	 1.481349238880494e+00	 1.166843091343100e+00	-2.510401448679267e+00
1	 1.453399227628117e+00	 1.201477861833888e+00	-2.727186574893588e+00
1	 1.424607007642773e+00	 1.235480975621253e+00	-2.943840635341184e+00
1	 1.394994285359735e+00	 1.268822017132670e+00	-3.160806062458166e+00
1	 1.364584219005160e+00	 1.301471581168415e+00	-3.378594726621094e+00
1	 1.333401358808918e+00	 1.333401358808918e+00	-3.597783649756602e+00
1	 1.301471581168416e+00	 1.364584219005160e+00	-3.819010147991664e+00
1	 1.268822017132670e+00	 1.394994285359735e+00	-4.042966449244076e+00
1	 1.235480975621254e+00	 1.424607007642772e+00	-4.270393837976067e+00
1	 1.201477861833888e+00	 1.453399227628116e+00	-4.502076384928602e+00
1	 1.166843091343100e+00	 1.481349238880494e+00	-4.738834324429127e+00
1	 1.492571581599285e+00	 1.175682811732062e+00	-2.427266060715709e+00
1	 1.464409827837421e+00	 1.210579966847780e+00	-2.636327491954969e+00
1	 1.435399484973399e+00	 1.244840679982020e+00	-2.845350213565989e+00
1	 1.405562423885188e+00	 1.278434305141251e+00	-3.054847881773052e+00
1	 1.374921978240047e+00	 1.311331214359085e+00	-3.265405262544888e+00
1	 1.343502884254441e+00	 1.343502884254441e+00	-3.477673355957436e+00
1	 1.311331214359085e+00	 1.374921978240047e+00	-3.692363935692430e+00
1	 1.278434305141251e+00	 1.405562423885188e+00	-3.910243555395781e+00
1	 1.244840679982020e+00	 1.435399484973399e+00	-4.132127080062776e+00
1	 1.210579966847781e+00	 1.464409827837421e+00	-4.358870806251009e+00
1	 1.175682811732063e+00	 1.492571581599285e+00	-4.591365239649273e+00
1	 1.503793924318077e+00	 1.184522532121025e+00	-2.343519660862557e+00
1	 1.475420428046725e+00	 1.219682071861674e+00	-2.545211550855993e+00
1	 1.446191962304027e+00	 1.254200384342787e+00	-2.747041270163602e+00
1	 1.416130562410641e+00	 1.288046593149832e+00	-2.949573676636030e+00
1	 1.385259737474935e+00	 1.321190847549754e+00	-3.153441822663727e+00
1	 1.353604409699962e+00	 1.353604409699962e+00	-3.359341663903090e+00
1	 1.321190847549754e+00	 1.385259737474935e+00	-3.568026206803923e+00
1	 1.288046593149832e+00	 1.416130562410641e+00	-3.780299150590748e+00
1	 1.254200384342788e+00	 1.446191962304026e+00	-3.997008085491871e+00
1	 1.219682071861674e+00	 1.475420428046724e+00	-4.219037314288731e+00
1	 1.184522532121025e+00	 1.503793924318077e+00	-4.447300368585885e+00
1	 1.515016267036868e+00	 1.193362252509988e+00	-2.259377456694146e+00
1	 1.486431028256029e+00	 1.228784176875567e+00	-2.454078407179889e+00
1	 1.456984439634653e+00	 1.263560088703555e+00	-2.649162689605912e+00
1	 1.426698700936093e+00	 1.297658881158413e+00	-2.845226792698126e+00
1	 1.395597496709823e+00	 1.331050480740424e+00	-3.042927963983753e+00
1	 1.363705935145484e+00	 1.363705935145484e+00	-3.242978674345196e+00
1	 1.331050480740424e+00	 1.395597496709823e+00	-3.446140582196599e+00
1	 1.297658881158414e+00	 1.426698700936093e+00	-3.653218054989733e+00
1	 1.263560088703555e+00	 1.456984439634653e+00	-3.865051311175056e+00
1	 1.228784176875568e+00	 1.486431028256028e+00	-4.082509250279018e+00
1	 1.193362252509988e+00	 1.515016267036868e+00	-4.306482042337462e+00
1	 1.526238609755660e+00	 1.202201972898951e+00	-2.175048326150298e+00
1	 1.497441628465332e+00	 1.237886281889460e+00	-2.363160667816235e+00
1	 1.467776916965281e+00	 1.272919793064321e+00	-2.551956036233277e+00
1	 1.437266839461546e+00	 1.307271169166994e+00	-2.742043418385269e+00
1	 1.405935255944711e+00	 1.340910113931094e+00	-2.934080668305033e+00
1	 1.373807460591006e+00	 1.373807460591007e+00	-3.128768896836768e+00
1	 1.340910113931094e+00	 1.405935255944710e+00	-3.326846458597595e+00
1	 1.307271169166994e+00	 1.437266839461545e+00	-3.529082594042865e+00
1	 1.272919793064322e+00	 1.467776916965280e+00	-3.736270788820682e+00
1	 1.237886281889461e+00	 1.497441628465332e+00	-3.949221916010882e+00
1	 1.202201972898951e+00	 1.526238609755659e+00	-4.168757229323094e+00
1	 1.537460952474451e+00	 1.211041693287914e+00	-2.090735048544815e+00
1	 1.508452228674637e+00	 1.246988386903353e+00	-2.272684148212663e+00
1	 1.478569394295908e+00	 1.282279497425088e+00	-2.455655821412600e+00
1	 1.447834977986998e+00	 1.316883457175574e+00	-2.640252846110998e+00
1	 1.416273015179598e+00	 1.350769747121764e+00	-2.827110582192627e+00
1	 1.383908986036529e+00	 1.383908986036529e+00	-3.016891453790582e+00
1	 1.350769747121764e+00	 1.416273015179598e+00	-3.210279162756688e+00
1	 1.316883457175575e+00	 1.447834977986998e+00	-3.407972689537435e+00
1	 1.282279497425089e+00	 1.478569394295907e+00	-3.610680140452292e+00
1	 1.246988386903354e+00	 1.508452228674636e+00	-3.819112502272332e+00
1	 1.211041693287913e+00	 1.537460952474451e+00	-4.033977366037274e+00
1	 1.548683295193243e+00	 1.219881413676877e+00	-2.006634525530222e+00
1	 1.519462828883940e+00	 1.256090491917246e+00	-2.182868118441412e+00
1	 1.489361871626535e+00	 1.291639201785856e+00	-2.360489759079904e+00
1	 1.458403116512451e+00	 1.326495745184155e+00	-2.540077722131936e+00
1	 1.426610774414486e+00	 1.360629380312434e+00	-2.722222246514012e+00
1	 1.394010511482051e+00	 1.394010511482051e+00	-2.907520275665390e+00
1	 1.360629380312434e+00	 1.426610774414485e+00	-3.096570098909114e+00
1	 1.326495745184155e+00	 1.458403116512450e+00	-3.289965946687332e+00
1	 1.291639201785856e+00	 1.489361871626534e+00	-3.488292593252046e+00
1	 1.256090491917246e+00	 1.519462828883940e+00	-3.692120020408125e+00
1	 1.219881413676876e+00	 1.548683295193243e+00	-3.901998195163071e+00
1	 1.559905637912035e+00	 1.228721134065840e+00	-1.922937992524504e+00
1	 1.530473429093244e+00	 1.265192596931139e+00	-2.093925538644677e+00
1	 1.500154348957162e+00	 1.300998906146623e+00	-2.266679010252105e+00
1	 1.468971255037903e+00	 1.336108033192736e+00	-2.441734285618123e+00
1	 1.436948533649373e+00	 1.370489013503104e+00	-2.619614316068556e+00
1	 1.404112036927572e+00	 1.404112036927573e+00	-2.800824287726991e+00
1	 1.370489013503104e+00	 1.436948533649373e+00	-2.985846889873325e+00
1	 1.336108033192736e+00	 1.468971255037903e+00	-3.175137737462728e+00
1	 1.300998906146623e+00	 1.500154348957161e+00	-3.369120993763946e+00
1	 1.265192596931140e+00	 1.530473429093244e+00	-3.568185236832247e+00
1	 1.228721134065839e+00	 1.559905637912034e+00	-3.772679610673105e+00
1	 1.571127980630826e+00	 1.237560854454803e+00	-1.839831221076498e+00
1	 1.541484029302548e+00	 1.274294701945033e+00	-2.006063284389079e+00
1	 1.510946826287789e+00	 1.310358610507390e+00	-2.174438417060006e+00
1	 1.479539393563356e+00	 1.345720321201318e+00	-2.345432597477738e+00
1	 1.447286292884261e+00	 1.380348646693774e+00	-2.519479769804235e+00
1	 1.414213562373095e+00	 1.414213562373095e+00	-2.696967588804887e+00
1	 1.380348646693774e+00	 1.447286292884261e+00	-2.878233512101439e+00
1	 1.345720321201318e+00	 1.479539393563356e+00	-3.063561280349048e+00
1	 1.310358610507390e+00	 1.510946826287789e+00	-3.253177821487690e+00
1	 1.274294701945033e+00	 1.541484029302548e+00	-3.447250610346904e+00
1	 1.237560854454803e+00	 1.571127980630826e+00	-3.645885509569553e+00
1	 1.149163650565174e+00	 1.458904553442910e+00	-5.044640067498459e+00
1	 1.114462424630234e+00	 1.485581736534222e+00	-5.294519634112547e+00
1	 1.079201650641992e+00	 1.511391209809139e+00	-5.549084576749211e+00
1	 1.043413726260778e+00	 1.536316174388376e+00	-5.808274714875832e+00
1	 1.007131673942126e+00	 1.560341431603758e+00	-6.071942313590604e+00
1	 9.703890432398143e-01	 1.583453408407350e+00	-6.339853723843908e+00
1	 9.332198122227675e-01	 1.605640175727936e+00	-6.611691680927128e+00
1	 8.956582885887581e-01	 1.626891459784269e+00	-6.887058228196832e+00
1	 8.577390110486710e-01	 1.647198646418209e+00	-7.165478226635751e+00
1	 8.194966515405154e-01	 1.666554778562834e+00	-7.446403405180343e+00
1	 7.809659188126938e-01	 1.684954547010031e+00	-7.729216901842578e+00
1	 1.158003370954136e+00	 1.470126896161702e+00	-4.889870106144606e+00
1	 1.123035212512005e+00	 1.497009288353715e+00	-5.136087184765058e+00
1	 1.087503201800777e+00	 1.523017296038440e+00	-5.387691181780559e+00
1	 1.051439985693553e+00	 1.548133991114440e+00	-5.644528892185102e+00
1	 1.014878840664758e+00	 1.572344058000710e+00	-5.906347338843894e+00
1	 9.778535743416589e-01	 1.595633819241252e+00	-6.172796546448108e+00
1	 9.403984261629427e-01	 1.617991254002766e+00	-6.443433041707317e+00
1	 9.025479677317487e-01	 1.639406009474918e+00	-6.717724033783772e+00
1	 8.643370034413534e-01	 1.659869405236811e+00	-6.995052222289715e+00
1	 8.258004719369808e-01	 1.679374430705626e+00	-7.274721174374624e+00
1	 7.869733489574070e-01	 1.697915735833185e+00	-7.555961207588955e+00
1	 1.166843091343100e+00	 1.481349238880494e+00	-4.738834324429127e+00
1	 1.131608000393776e+00	 1.508436840173209e+00	-4.981383386122477e+00
1	 1.095804752959562e+00	 1.534643382267741e+00	-5.229792865351853e+00
1	 1.059466245126328e+00	 1.559951807840504e+00	-5.483857469084053e+00
1	 1.022626007387389e+00	 1.584346684397662e+00	-5.743268906332242e+00
1	 9.853181054435035e-01	 1.607814230075155e+00	-6.007619247667814e+00
1	 9.475770401031175e-01	 1.630342332277596e+00	-6.276405019862723e+00
1	 9.094376468747392e-01	 1.651920559165566e+00	-6.549031983677331e+00
1	 8.709349958340354e-01	 1.672540164055413e+00	-6.824820536245396e+00
1	 8.321042923334465e-01	 1.692194082848416e+00	-7.103011673909521e+00
1	 7.929807791021201e-01	 1.710876924656339e+00	-7.382773446785869e+00
1	 1.175682811732063e+00	 1.492571581599285e+00	-4.591365239649273e+00
1	 1.140180788275547e+00	 1.519864391992704e+00	-4.830155811947195e+00
1	 1.104106304118346e+00	 1.546269468497042e+00	-5.075084945084766e+00
1	 1.067492504559103e+00	 1.571769624566569e+00	-5.325935111358032e+00
1	 1.030373174110021e+00	 1.596349310794614e+00	-5.582391421236947e+00
1	 9.927826365453484e-01	 1.619994640909057e+00	-5.844045027404286e+00
1	 9.547556540432930e-01	 1.642693410552427e+00	-6.110397214389517e+00
1	 9.163273260177298e-01	 1.664435108856214e+00	-6.380864122727603e+00
1	 8.775329882267175e-01	 1.685210922874014e+00	-6.654782050554104e+00
1	 8.384081127299120e-01	 1.705013734991207e+00	-6.931413270462896e+00
1	 7.989882092468330e-01	 1.723838113479493e+00	-7.209952295349060e+00
1	 1.184522532121025e+00	 1.503793924318077e+00	-4.447300368585884e+00
1	 1.148753576157318e+00	 1.531291943812197e+00	-4.682159571113211e+00
1	 1.112407855277130e+00	 1.557895554726343e+00	-4.923271833597412e+00
1	 1.075518763991879e+00	 1.583587441292633e+00	-5.170446196261388e+00
1	 1.038120340832653e+00	 1.608351937191566e+00	-5.423408709480242e+00
1	 1.000247167647193e+00	 1.632175051742960e+00	-5.681805348248253e+00
1	 9.619342679834680e-01	 1.655044488827257e+00	-5.945205504910822e+00
1	 9.232170051607199e-01	 1.676949658546862e+00	-6.213106016833967e+00
1	 8.841309806193993e-01	 1.697881681692616e+00	-6.484935680638640e+00
1	 8.447119331263774e-01	 1.717833387133998e+00	-6.760060200364072e+00
1	 8.049956393915462e-01	 1.736799302302648e+00	-7.037787513495288e+00
1	 1.193362252509988e+00	 1.515016267036868e+00	-4.306482042337461e+00
1	 1.157326364039089e+00	 1.542719495631692e+00	-4.537157028527832e+00
1	 1.120709406435915e+00	 1.569521640955645e+00	-4.774066701652518e+00
1	 1.083545023424654e+00	 1.595405258018697e+00	-5.017084452833537e+00
1	 1.045867507555284e+00	 1.620354563588517e+00	-5.266023668808849e+00
1	 1.007711698749038e+00	 1.644355462576863e+00	-5.520639629454573e+00
1	 9.691128819236432e-01	 1.667395567102087e+00	-5.780631819060876e+00
1	 9.301066843037101e-01	 1.689464208237511e+00	-6.045646622535789e+00
1	 8.907289730120815e-01	 1.710552440511217e+00	-6.315280374057577e+00
1	 8.510157535228425e-01	 1.730653039276789e+00	-6.589082722569547e+00
1	 8.110030695362590e-01	 1.749760491125801e+00	-6.866560275953427e+00
1	 1.202201972898951e+00	 1.526238609755659e+00	-4.168757229323094e+00
1	 1.165899151920860e+00	 1.554147047451186e+00	-4.394917538365859e+00
1	 1.129010957594699e+00	 1.581147727184945e+00	-4.627191156166872e+00
1	 1.091571282857428e+00	 1.607223074744761e+00	-4.865552618083362e+00
1	 1.053614674277916e+00	 1.632357189985470e+00	-5.109947935270960e+00
1	 1.015176229850882e+00	 1.656535873410765e+00	-5.360294954417461e+00
1	 9.762914958638181e-01	 1.679746645376917e+00	-5.616483910131825e+00
1	 9.369963634467007e-01	 1.701978757928158e+00	-5.878378162356605e+00
1	 8.973269654047638e-01	 1.723223199329819e+00	-6.145815109323465e+00
1	 8.573195739193085e-01	 1.743472691419580e+00	-6.418607264890171e+00
1	 8.170104996809723e-01	 1.762721679948956e+00	-6.696543487607380e+00
1	 1.211041693287913e+00	 1.537460952474451e+00	-4.033977366037274e+00
1	 1.174471939802632e+00	 1.565574599270680e+00	-4.255217188986757e+00
1	 1.137312508753484e+00	 1.592773813414247e+00	-4.482374932322446e+00
1	 1.099597542290204e+00	 1.619040891470826e+00	-4.715562108231168e+00
1	 1.061361841000548e+00	 1.644359816382422e+00	-4.954901564300449e+00
1	 1.022640760952727e+00	 1.668716284244668e+00	-5.200525790957728e+00
1	 9.834701098039931e-01	 1.692097723651747e+00	-5.452575144458329e+00
1	 9.438860425896912e-01	 1.714493307618807e+00	-5.711196005607574e+00
1	 9.039249577974455e-01	 1.735893958148421e+00	-5.976538894773454e+00
1	 8.636233943157737e-01	 1.756292343562371e+00	-6.248756563813737e+00
1	 8.230179298256852e-01	 1.775682868772110e+00	-6.528002085315288e+00
1	 1.219881413676876e+00	 1.548683295193243e+00	-3.901998195163071e+00
1	 1.183044727684402e+00	 1.577002151090174e+00	-4.117838558942430e+00
1	 1.145614059912269e+00	 1.604399899643547e+00	-4.339355599064036e+00
1	 1.107623801722979e+00	 1.630858708196891e+00	-4.566832704244378e+00
1	 1.069109007723180e+00	 1.656362442779374e+00	-4.800612725666203e+00
1	 1.030105292054572e+00	 1.680896695078571e+00	-5.041093723770912e+00
1	 9.906487237441680e-01	 1.704448801926578e+00	-5.288724298046541e+00
1	 9.507757217326818e-01	 1.727007857309455e+00	-5.543998554373503e+00
1	 9.105229501901277e-01	 1.748564716967022e+00	-5.807450767488520e+00
1	 8.699272147122393e-01	 1.769111995705162e+00	-6.079649798248661e+00
1	 8.290253599703982e-01	 1.788644057595263e+00	-6.361193326606034e+00
1	 1.228721134065839e+00	 1.559905637912034e+00	-3.772679610673105e+00
1	 1.191617515566173e+00	 1.588429702909667e+00	-3.982570483517119e+00
1	 1.153915611071053e+00	 1.616025985872848e+00	-4.197878277309319e+00
1	 1.115650061155755e+00	 1.642676524922955e+00	-4.419092250947612e+00
1	 1.076856174445811e+00	 1.668365069176326e+00	-4.646817411589994e+00
1	 1.037569823156417e+00	 1.693077105912473e+00	-4.881767198424557e+00
1	 9.978273376843434e-01	 1.716799880201408e+00	-5.124755361981543e+00
1	 9.576654008756720e-01	 1.739522407000103e+00	-5.376687134420013e+00
1	 9.171209425828099e-01	 1.761235475785623e+00	-5.638549792259481e+00
1	 8.762310351087046e-01	 1.781931647847953e+00	-5.911402717494676e+00
1	 8.350327901151112e-01	 1.801605246418418e+00	-6.196367065914053e+00
1	 1.237560854454803e+00	 1.571127980630826e+00	-3.645885509569553e+00
1	 1.200190303447945e+00	 1.599857254729162e+00	-3.849207831272729e+00
1	 1.162217162229838e+00	 1.627652072102150e+00	-4.057695370235377e+00
1	 1.123676320588530e+00	 1.654494341649020e+00	-4.272076369027630e+00
1	 1.084603341168443e+00	 1.680367695573278e+00	-4.493259157372789e+00
1	 1.045034354258262e+00	 1.705257516746376e+00	-4.722321276327197e+00
1	 1.005005951624519e+00	 1.729150958476239e+00	-4.960497356174525e+00
1	 9.645550800186625e-01	 1.752036956690751e+00	-5.209165890776701e+00
1	 9.237189349754922e-01	 1.773906234604226e+00	-5.469835060597440e+00
1	 8.825348555051705e-01	 1.794751299990745e+00	-5.744127763728377e+00
1	 8.410402202598244e-01	 1.814566435241572e+00	-6.033766018975809e+00
1	 7.809659188126938e-01	 1.684954547010031e+00	-7.729216901842578e+00
1	 7.421814638916863e-01	 1.702394274688543e+00	-8.014508941296333e+00
1	 7.031777879206234e-01	 1.718871894706465e+00	-8.303943815529236e+00
1	 6.639891528229160e-01	 1.734386922451343e+00	-8.598554605222477e+00
1	 6.246494952094075e-01	 1.748940422075997e+00	-8.899479636403147e+00
1	 5.851923439092619e-01	 1.762534967728788e+00	-9.207948209768553e+00
1	 5.456507414643782e-01	 1.775174599912952e+00	-9.525266139379427e+00
1	 5.060571698851701e-01	 1.786864777380915e+00	-9.852801244172646e+00
1	 4.664434809226226e-01	 1.797612324985986e+00	-1.019196892943619e+01
1	 4.268408310681985e-01	 1.807425377925668e+00	-1.054421798762029e+01
1	 3.872796214499012e-01	 1.816313322818053e+00	-1.091101673882080e+01
1	 7.869733489574070e-01	 1.697915735833185e+00	-7.555961207588955e+00
1	 7.478905520754687e-01	 1.715489615263070e+00	-7.839637843222508e+00
1	 7.085868478277054e-01	 1.732093986204207e+00	-8.127759534977802e+00
1	 6.690967616907848e-01	 1.747728360316354e+00	-8.421310410136984e+00
1	 6.294544913264030e-01	 1.762393809938120e+00	-8.721384238626388e+00
1	 5.896938234777944e-01	 1.776092929019010e+00	-9.029170200203930e+00
1	 5.498480548602581e-01	 1.788829789143052e+00	-9.345938424835568e+00
1	 5.099499173458253e-01	 1.800609891053076e+00	-9.673025451500843e+00
1	 4.700315076989505e-01	 1.811440112101263e+00	-1.001181974464190e+01
1	 4.301242220764153e-01	 1.821328650063558e+00	-1.036374739993692e+01
1	 3.902586954610542e-01	 1.830284963762807e+00	-1.073025816223677e+01
1	 7.929807791021201e-01	 1.710876924656339e+00	-7.382773446785870e+00
1	 7.535996402592507e-01	 1.728584955837597e+00	-7.665305344940750e+00
1	 7.139959077347867e-01	 1.745316077701949e+00	-7.952899420164242e+00
1	 6.742043705586536e-01	 1.761069798181364e+00	-8.246393711958152e+00
1	 6.342594874433986e-01	 1.775847197800243e+00	-8.546725270011741e+00
1	 5.941953030463272e-01	 1.789650890309230e+00	-8.854917365038808e+00
1	 5.540453682561378e-01	 1.802484978373151e+00	-9.172066490420361e+00
1	 5.138426648064803e-01	 1.814355004725237e+00	-9.499329286108456e+00
1	 4.736195344752783e-01	 1.825267899216539e+00	-9.837909510819292e+00
1	 4.334076130846323e-01	 1.835231922201447e+00	-1.018904518174531e+01
1	 3.932377694722073e-01	 1.844256604707561e+00	-1.055399599302671e+01
1	 7.989882092468330e-01	 1.723838113479493e+00	-7.209952295349060e+00
1	 7.593087284430330e-01	 1.741680296412124e+00	-7.491947725786281e+00
1	 7.194049676418686e-01	 1.758538169199691e+00	-7.779873973782601e+00
1	 6.793119794265220e-01	 1.774411236046374e+00	-8.074328432378111e+00
1	 6.390644835603936e-01	 1.789300585662365e+00	-8.375982052060097e+00
1	 5.986967826148601e-01	 1.803208851599452e+00	-8.685569383130204e+00
1	 5.582426816520176e-01	 1.816140167603251e+00	-9.003878479742312e+00
1	 5.177354122671355e-01	 1.828100118397398e+00	-9.331740767872011e+00
1	 4.772075612516061e-01	 1.839095686331816e+00	-9.670020974960323e+00
1	 4.366910040928493e-01	 1.849135194339337e+00	-1.001960721340417e+01
1	 3.962168434833604e-01	 1.858228245652315e+00	-1.038140130358700e+01
1	 8.049956393915462e-01	 1.736799302302648e+00	-7.037787513495290e+00
1	 7.650178166268149e-01	 1.754775636986651e+00	-7.319988241830456e+00
1	 7.248140275489502e-01	 1.771760260697433e+00	-7.609178459640348e+00
1	 6.844195882943905e-01	 1.787752673911384e+00	-7.905622853635442e+00
1	 6.438694796773894e-01	 1.802753973524490e+00	-8.209619598167901e+00
1	 6.031982621833930e-01	 1.816766812889674e+00	-8.521494599637860e+00
1	 5.624399950478975e-01	 1.829795356833350e+00	-8.841595726152988e+00
1	 5.216281597277908e-01	 1.841845232069558e+00	-9.170287080254058e+00
1	 4.807955880279339e-01	 1.852923473447093e+00	-9.507943369221467e+00
1	 4.399743951010661e-01	 1.863038466477227e+00	-9.854944423619834e+00
1	 3.991959174945134e-01	 1.872199886597070e+00	-1.021166991042188e+01
1	 8.110030695362590e-01	 1.749760491125801e+00	-6.866560275953426e+00
1	 7.707269048105972e-01	 1.767870977561179e+00	-7.149837608224152e+00
1	 7.302230874560319e-01	 1.784982352195175e+00	-7.441293467061982e+00
1	 6.895271971622591e-01	 1.801094111776394e+00	-7.740770197754305e+00
1	 6.486744757943846e-01	 1.816207361386613e+00	-8.048089143556910e+00
1	 6.076997417519256e-01	 1.830324774179894e+00	-8.363050445791007e+00
1	 5.666373084437774e-01	 1.843450546063450e+00	-8.685433004978607e+00
1	 5.255209071884458e-01	 1.855590345741720e+00	-9.014994601281021e+00
1	 4.843836148042617e-01	 1.866751260562369e+00	-9.351472170732073e+00
1	 4.432577861092830e-01	 1.876941738615117e+00	-9.694582232099796e+00
1	 4.021749915056664e-01	 1.886171527541824e+00	-1.004402145769443e+01
1	 8.170104996809723e-01	 1.762721679948956e+00	-6.696543487607379e+00
1	 7.764359929943795e-01	 1.780966318135706e+00	-6.981894460260794e+00
1	 7.356321473631138e-01	 1.798204443692917e+00	-7.276685450391685e+00
1	 6.946348060301275e-01	 1.814435549641404e+00	-7.580249180228779e+00
1	 6.534794719113801e-01	 1.829660749248735e+00	-7.891828651824709e+00
1	 6.122012213204584e-01	 1.843882735470117e+00	-8.210583840135511e+00
1	 5.708346218396572e-01	 1.857105735293550e+00	-8.535598774624253e+00
1	 5.294136546491010e-01	 1.869335459413880e+00	-8.865888933155277e+00
1	 4.879716415805896e-01	 1.880579047677646e+00	-9.200408872000281e+00
1	 4.465411771174999e-01	 1.890845010753007e+00	-9.538060016795550e+00
1	 4.051540655168196e-01	 1.900143168486578e+00	-9.877698541210147e+00
1	 8.230179298256852e-01	 1.775682868772110e+00	-6.528002085315289e+00
1	 7.821450811781615e-01	 1.794061658710233e+00	-6.816545794247162e+00
1	 7.410412072701955e-01	 1.811426535190659e+00	-7.115807244868741e+00
1	 6.997424148979963e-01	 1.827776987506415e+00	-7.424524539458115e+00
1	 6.582844680283753e-01	 1.843114137110858e+00	-7.741263299310520e+00
1	 6.167027008889912e-01	 1.857440696760338e+00	-8.064431572208687e+00
1	 5.750319352355371e-01	 1.870760924523649e+00	-8.392295407117944e+00
1	 5.333064021097560e-01	 1.883080573086040e+00	-8.722994930569289e+00
1	 4.915596683569175e-01	 1.894406834792923e+00	-9.054560761373359e+00
1	 4.498245681257169e-01	 1.904748282890896e+00	-9.384930604477518e+00
1	 4.081331395279726e-01	 1.914114809431332e+00	-9.711965870765532e+00
1	 8.290253599703982e-01	 1.788644057595263e+00	-6.361193326606034e+00
1	 7.878541693619437e-01	 1.807156999284760e+00	-6.654167389205832e+00
1	 7.464502671772770e-01	 1.824648626688401e+00	-6.959098560073497e+00
1	 7.048500237658647e-01	 1.841118425371425e+00	-7.274047543163357e+00
1	 6.630894641453710e-01	 1.856567524972981e+00	-7.596805938401737e+00
1	 6.212041804575239e-01	 1.870998658050559e+00	-7.924920669532264e+00
1	 5.792292486314167e-01	 1.884416113753749e+00	-8.255719408632032e+00
1	 5.371991495704113e-01	 1.896825686758201e+00	-8.586336727790000e+00
1	 4.951476951332454e-01	 1.908234621908200e+00	-8.913740713043497e+00
1	 4.531079591339337e-01	 1.918651555028786e+00	-9.234759783458896e+00
1	 4.111122135391259e-01	 1.928086450376087e+00	-9.546109468916713e+00
1	 8.350327901151112e-01	 1.801605246418418e+00	-6.196367065914053e+00
1	 7.935632575457260e-01	 1.820252339859287e+00	-6.495124210374258e+00
1	 7.518593270843588e-01	 1.837870718186143e+00	-6.806986452072965e+00
1	 7.099576326337335e-01	 1.854459863236435e+00	-7.129256472944129e+00
1	 6.678944602623664e-01	 1.870020912835104e+00	-7.458857540841450e+00
1	 6.257056600260567e-01	 1.884556619340780e+00	-7.792368748763943e+00
1	 5.834265620272967e-01	 1.898071302983848e+00	-8.126061630484832e+00
1	 5.410918970310664e-01	 1.910570800430362e+00	-8.455937764572726e+00
1	 4.987357219095733e-01	 1.922062409023477e+00	-8.777766986118317e+00
1	 4.563913501421506e-01	 1.932554827166675e+00	-9.087125837353346e+00
1	 4.140912875502789e-01	 1.942058091320841e+00	-9.379435904333167e+00
1	 8.410402202598244e-01	 1.814566435241572e+00	-6.033766018975810e+00
1	 7.992723457295084e-01	 1.833347680433815e+00	-6.339770795412115e+00
1	 7.572683869914407e-01	 1.851092809683886e+00	-6.659885775332239e+00
1	 7.150652415016021e-01	 1.867801301101446e+00	-6.990577088068563e+00
1	 6.726994563793620e-01	 1.883474300697228e+00	-7.327807622037363e+00
1	 6.302071395945896e-01	 1.898114580631002e+00	-7.667084351800025e+00
1	 5.876238754231766e-01	 1.911726492213948e+00	-8.003507471100072e+00
1	 5.449846444917216e-01	 1.924315914102524e+00	-8.331820810965922e+00
1	 5.023237486859014e-01	 1.935890196138754e+00	-8.646463032302115e+00
1	 4.596747411503677e-01	 1.946458099304566e+00	-8.941619098814057e+00
1	 4.170703615614320e-01	 1.956029732265595e+00	-9.211271558008219e+00
1	 3.872796214499012e-01	 1.816313322818053e+00	-1.091101673882080e+01
1	 3.477894427501543e-01	 1.824286736055566e+00	-1.128304815651783e+01
1	 3.083990252295210e-01	 1.831357319878951e+00	-1.165486068446874e+01
1	 2.691361939001575e-01	 1.837537836608996e+00	-1.203338831095815e+01
1	 2.300278288545423e-01	 1.842842041464542e+00	-1.242509936822513e+01
1	 1.910998307188276e-01	 1.847284614382951e+00	-1.283598304633054e+01
1	 1.523770911663767e-01	 1.850881091243954e+00	-1.327153991533930e+01
1	 1.138834683958722e-01	 1.853647794879832e+00	-1.373677628641806e+01
1	 7.564176744998415e-02	 1.855601766234818e+00	-1.423620221605231e+01
1	 3.767372522509075e-02	 1.856760696014540e+00	-1.477383293547830e+01
1	 0.000000000000000e+00	 1.857142857142857e+00	-1.535319346956316e+01
1	 3.902586954610542e-01	 1.830284963762807e+00	-1.073025816223677e+01
1	 3.504647461559247e-01	 1.838319710948301e+00	-1.110171430162647e+01
1	 3.107713254235941e-01	 1.845444683878020e+00	-1.147362782728295e+01
1	 2.712064723147741e-01	 1.851672743044451e+00	-1.185483040623989e+01
1	 2.317972736918850e-01	 1.857017749475808e+00	-1.225365957939178e+01
1	 1.925698294166647e-01	 1.861494496032051e+00	-1.267793240667539e+01
1	 1.535492226368874e-01	 1.865118638099676e+00	-1.313492412117240e+01
1	 1.147594950758405e-01	 1.867906624071215e+00	-1.363135166464357e+01
1	 7.622362719959944e-02	 1.869875625975086e+00	-1.417336193718280e+01
1	 3.796352311143760e-02	 1.871043470599267e+00	-1.476652455878931e+01
1	 0.000000000000000e+00	 1.871428571428572e+00	-1.541582891078750e+01
1	 3.932377694722073e-01	 1.844256604707561e+00	-1.055399599302671e+01
1	 3.531400495616952e-01	 1.852352685841036e+00	-1.092285120404854e+01
1	 3.131436256176673e-01	 1.859532047877089e+00	-1.129245886877001e+01
1	 2.732767507293907e-01	 1.865807649479905e+00	-1.167388379165722e+01
1	 2.335667185292276e-01	 1.871193457487073e+00	-1.207769601012522e+01
1	 1.940398281145019e-01	 1.875704377681151e+00	-1.251392734908221e+01
1	 1.547213541073980e-01	 1.879356184955399e+00	-1.299203404323762e+01
1	 1.156355217558087e-01	 1.882165453262598e+00	-1.352086537373672e+01
1	 7.680548694921467e-02	 1.884149485715354e+00	-1.410863820935524e+01
1	 3.825332099778447e-02	 1.885326245183995e+00	-1.476291729161405e+01
1	 0.000000000000000e+00	 1.885714285714286e+00	-1.549060105802299e+01
1	 3.962168434833604e-01	 1.858228245652315e+00	-1.038140130358700e+01
1	 3.558153529674657e-01	 1.866385660733772e+00	-1.074537026390259e+01
1	 3.155159258117406e-01	 1.873619411876158e+00	-1.111016568308487e+01
1	 2.753470291440072e-01	 1.879942555915358e+00	-1.148941227330550e+01
1	 2.353361633665702e-01	 1.885369165498339e+00	-1.189626680588883e+01
1	 1.955098268123390e-01	 1.889914259330250e+00	-1.234335340478678e+01
1	 1.558934855779085e-01	 1.893593731811122e+00	-1.284270602416427e+01
1	 1.165115484357770e-01	 1.896424282453981e+00	-1.340571816252824e+01
1	 7.738734669882996e-02	 1.898423345455622e+00	-1.404309978994917e+01
1	 3.854311888413130e-02	 1.899609019768721e+00	-1.476484139488845e+01
1	 0.000000000000000e+00	 1.900000000000000e+00	-1.558018499347681e+01
1	 3.991959174945134e-01	 1.872199886597070e+00	-1.021166991042188e+01
1	 3.584906563732360e-01	 1.880418635626507e+00	-1.056821537682603e+01
1	 3.178882260058138e-01	 1.887706775875227e+00	-1.092559561082560e+01
1	 2.774173075586239e-01	 1.894077462350812e+00	-1.130031357351615e+01
1	 2.371056082039129e-01	 1.899544873509605e+00	-1.170845822720683e+01
1	 1.969798255101761e-01	 1.904124140979350e+00	-1.216561444737602e+01
1	 1.570656170484191e-01	 1.907831278666844e+00	-1.268678129187592e+01
1	 1.173875751157452e-01	 1.910683111645365e+00	-1.328629881719705e+01
1	 7.796920644844518e-02	 1.912697205195890e+00	-1.397778353313892e+01
1	 3.883291677047816e-02	 1.913891794353449e+00	-1.477407249489393e+01
1	 0.000000000000000e+00	 1.914285714285714e+00	-1.568717594615623e+01
1	 4.021749915056664e-01	 1.886171527541824e+00	-1.004402145769443e+01
1	 3.611659597790064e-01	 1.894451610519242e+00	-1.039036173043732e+01
1	 3.202605261998870e-01	 1.901794139874295e+00	-1.073763014546133e+01
1	 2.794875859732404e-01	 1.908212368786265e+00	-1.110551807469946e+01
1	 2.388750530412555e-01	 1.913720581520870e+00	-1.151338360836574e+01
1	 1.984498242080132e-01	 1.918334022628450e+00	-1.198013201344174e+01
1	 1.582377485189297e-01	 1.922068825522567e+00	-1.252410577865408e+01
1	 1.182636017957135e-01	 1.924941940836748e+00	-1.316298460433183e+01
1	 7.855106619806047e-02	 1.926971064936157e+00	-1.391369557149371e+01
1	 3.912271465682501e-02	 1.928174568938176e+00	-1.479233360676257e+01
1	 0.000000000000000e+00	 1.928571428571428e+00	-1.581409224939382e+01
1	 4.051540655168196e-01	 1.900143168486578e+00	-9.877698541210147e+00
1	 3.638412631847768e-01	 1.908484585411977e+00	-1.021081465389556e+01
1	 3.226328263939603e-01	 1.915881503873364e+00	-1.054518367771218e+01
1	 2.815578643878570e-01	 1.922347275221719e+00	-1.090398761860677e+01
1	 2.406444978785980e-01	 1.927896289532136e+00	-1.131018236205534e+01
1	 1.999198229058504e-01	 1.932543904277549e+00	-1.178634465320528e+01
1	 1.594098799894403e-01	 1.936306372378290e+00	-1.235452994818391e+01
1	 1.191396284756817e-01	 1.939200770028131e+00	-1.303614169444479e+01
1	 7.913292594767572e-02	 1.941244924676425e+00	-1.385181244544795e+01
1	 3.941251254317185e-02	 1.942457343522903e+00	-1.482129706871091e+01
1	 0.000000000000000e+00	 1.942857142857142e+00	-1.596337816789509e+01
1	 4.081331395279726e-01	 1.914114809431332e+00	-9.711965870765532e+00
1	 3.665165665905473e-01	 1.922517560304712e+00	-1.002860851784434e+01
1	 3.250051265880335e-01	 1.929968867872433e+00	-1.034720229491952e+01
1	 2.836281428024737e-01	 1.936482181657173e+00	-1.069471435817905e+01
1	 2.424139427159407e-01	 1.942071997543402e+00	-1.109801902760217e+01
1	 2.013898216036875e-01	 1.946753785926649e+00	-1.158370730958240e+01
1	 1.605820114599509e-01	 1.950543919234012e+00	-1.217790863017412e+01
1	 1.200156551556500e-01	 1.953459599219514e+00	-1.290612556693842e+01
1	 7.971478569729099e-02	 1.955518784416693e+00	-1.379308218330726e+01
1	 3.970231042951870e-02	 1.956740118107630e+00	-1.486258639156222e+01
1	 0.000000000000000e+00	 1.957142857142857e+00	-1.613740660097246e+01
1	 4.111122135391259e-01	 1.928086450376087e+00	-9.546109468916713e+00
1	 3.691918699963176e-01	 1.936550535197447e+00	-9.842805682183856e+00
1	 3.273774267821067e-01	 1.944056231871502e+00	-1.014266263261789e+01
1	 2.856984212170902e-01	 1.950617088092627e+00	-1.047671965931558e+01
1	 2.441833875532833e-01	 1.956247705554667e+00	-1.087608236058434e+01
1	 2.028598203015246e-01	 1.960963667575748e+00	-1.137169072424492e+01
1	 1.617541429304614e-01	 1.964781466089735e+00	-1.199410086216815e+01
1	 1.208916818356182e-01	 1.967718428410897e+00	-1.277328139746468e+01
1	 8.029664544690623e-02	 1.969792644156961e+00	-1.373842533429531e+01
1	 3.999210831586556e-02	 1.971022892692357e+00	-1.491777802785525e+01
1	 0.000000000000000e+00	 1.971428571428571e+00	-1.633848166824824e+01
1	 4.140912875502789e-01	 1.942058091320841e+00	-9.379435904333167e+00
1	 3.718671734020881e-01	 1.950583510090182e+00	-9.652495489263199e+00
1	 3.297497269761800e-01	 1.958143595870570e+00	-9.930570775678781e+00
1	 2.877686996317068e-01	 1.964751994528080e+00	-1.024905305004786e+01
1	 2.459528323906260e-01	 1.970423413565933e+00	-1.064358446174305e+01
1	 2.043298189993618e-01	 1.975173549224848e+00	-1.114978086932005e+01
1	 1.629262744009720e-01	 1.979019012945457e+00	-1.180296973818291e+01
1	 1.217677085155864e-01	 1.981977257602280e+00	-1.263794442856284e+01
1	 8.087850519652148e-02	 1.984066503897228e+00	-1.368873595701108e+01
1	 4.028190620221241e-02	 1.985305667277085e+00	-1.498840306458783e+01
1	 0.000000000000000e+00	 1.985714285714285e+00	-1.656884118374402e+01
1	 4.170703615614320e-01	 1.956029732265595e+00	-9.211271558008217e+00
1	 3.745424768078587e-01	 1.964616484982918e+00	-9.456793300221792e+00
1	 3.321220271702534e-01	 1.972230959869640e+00	-9.709961206548888e+00
1	 2.898389780463234e-01	 1.978886900963535e+00	-1.001079121474980e+01
1	 2.477222772279686e-01	 1.984599121577199e+00	-1.039975994322674e+01
1	 2.057998176971989e-01	 1.989383430873948e+00	-1.091747840344556e+01
1	 1.640984058714827e-01	 1.993256559801181e+00	-1.160438226383473e+01
1	 1.226437351955547e-01	 1.996236086793665e+00	-1.250044032441399e+01
1	 8.146036494613679e-02	 1.998340363637497e+00	-1.364488256552183e+01
1	 4.057170408855926e-02	 1.999588441861812e+00	-1.507594884341512e+01
1	 0.000000000000000e+00	 2.000000000000000e+00	-1.683065902393800e+01
