x	y	stress_yy
 1.000000000000000e+00	 0.000000000000000e+00	-2.333766138242263e+01
 1.008823457328410e+00	 0.000000000000000e+00	-1.450678070326170e+01
 1.017646782159778e+00	 0.000000000000000e+00	-7.935007534776469e+00
 1.026469991993312e+00	 0.000000000000000e+00	-3.316315075373439e+00
 1.035293104328222e+00	 0.000000000000000e+00	-3.550975441194542e-01
 1.044116136663715e+00	 0.000000000000000e+00	 1.234270588314040e+00
 1.052939106499000e+00	 0.000000000000000e+00	 1.727853098256961e+00
 1.061762031333285e+00	 0.000000000000000e+00	 1.392549539035830e+00
 1.070584928665779e+00	 0.000000000000000e+00	 4.864730179479295e-01
 1.079407815995689e+00	 0.000000000000000e+00	-7.406906440716519e-01
 1.088230710822225e+00	 0.000000000000000e+00	-2.047341308388013e+00
 1.088230710822225e+00	 0.000000000000000e+00	-2.047341308388013e+00
 1.097055127299335e+00	 0.000000000000000e+00	-3.123721982292917e+00
 1.105879566280446e+00	 0.000000000000000e+00	-3.779196999073609e+00
 1.114704025265223e+00	 0.000000000000000e+00	-3.959139258718725e+00
 1.123528501753334e+00	 0.000000000000000e+00	-3.613539442677610e+00
 1.132352993244445e+00	 0.000000000000000e+00	-2.689746232140831e+00
 1.141177497238223e+00	 0.000000000000000e+00	-1.135624345792351e+00
 1.150002011234334e+00	 0.000000000000000e+00	 1.099439654449238e+00
 1.158826532732445e+00	 0.000000000000000e+00	 4.064595337658258e+00
 1.167651059232224e+00	 0.000000000000000e+00	 7.807583751069661e+00
 1.176475588233336e+00	 0.000000000000000e+00	 1.237479027800820e+01
 1.176475588233336e+00	 0.000000000000000e+00	 1.237479027800818e+01
 1.185298617647136e+00	 0.000000000000000e+00	 1.696738690652300e+01
 1.194121647061736e+00	 0.000000000000000e+00	 2.073831425274481e+01
 1.202944676476936e+00	 0.000000000000000e+00	 2.365878188898653e+01
 1.211767705892536e+00	 0.000000000000000e+00	 2.570091117681715e+01
 1.220590735308335e+00	 0.000000000000000e+00	 2.683770231042750e+01
 1.229413764724135e+00	 0.000000000000000e+00	 2.704300277898450e+01
 1.238236794139735e+00	 0.000000000000000e+00	 2.629147717719773e+01
 1.247059823554935e+00	 0.000000000000000e+00	 2.455857829732538e+01
 1.255882852969535e+00	 0.000000000000000e+00	 2.182051943960462e+01
 1.264705882383334e+00	 0.000000000000000e+00	 1.805424788160334e+01
 1.264705882383334e+00	 0.000000000000000e+00	 1.805424788160334e+01
 1.273528911796184e+00	 0.000000000000000e+00	 1.419238964497233e+01
 1.282351941208134e+00	 0.000000000000000e+00	 1.119530874192208e+01
 1.291174970619284e+00	 0.000000000000000e+00	 9.081754786972107e+00
 1.299998000029734e+00	 0.000000000000000e+00	 7.870036665827398e+00
 1.308821029439584e+00	 0.000000000000000e+00	 7.578037387376819e+00
 1.317644058848934e+00	 0.000000000000000e+00	 8.223228338886784e+00
 1.326467088257884e+00	 0.000000000000000e+00	 9.822682972178486e+00
 1.335290117666534e+00	 0.000000000000000e+00	 1.239308994710634e+01
 1.344113147074984e+00	 0.000000000000000e+00	 1.595076575727631e+01
 1.352936176483334e+00	 0.000000000000000e+00	 2.051166686163752e+01
 1.352936176483334e+00	 0.000000000000000e+00	 2.051166686163752e+01
 1.361760705896667e+00	 0.000000000000000e+00	 2.508377561432084e+01
 1.370585235310001e+00	 0.000000000000000e+00	 2.863779807013686e+01
 1.379409764723334e+00	 0.000000000000000e+00	 3.113686854630475e+01
 1.388234294136667e+00	 0.000000000000000e+00	 3.254512268126766e+01
 1.397058823550000e+00	 0.000000000000000e+00	 3.282766580645038e+01
 1.405883352963333e+00	 0.000000000000000e+00	 3.195054250907220e+01
 1.414707882376666e+00	 0.000000000000000e+00	 2.988070733400879e+01
 1.423532411789999e+00	 0.000000000000000e+00	 2.658599657527626e+01
 1.432356941203333e+00	 0.000000000000000e+00	 2.203510111014723e+01
 1.441181470616666e+00	 0.000000000000000e+00	 1.619754023120871e+01
 1.441181470616666e+00	 0.000000000000000e+00	 1.619754023120871e+01
 1.450004500024999e+00	 0.000000000000000e+00	 1.001734469625665e+01
 1.458827529433332e+00	 0.000000000000000e+00	 4.494421529180466e+00
 1.467650558841666e+00	 0.000000000000000e+00	-3.149667079479821e-01
 1.476473588250000e+00	 0.000000000000000e+00	-4.355842249428584e+00
 1.485296617658333e+00	 0.000000000000000e+00	-7.577363655487923e+00
 1.494119647066666e+00	 0.000000000000000e+00	-9.952289374522497e+00
 1.502942676475000e+00	 0.000000000000000e+00	-1.144029761681279e+01
 1.511765705883333e+00	 0.000000000000000e+00	-1.199754434304180e+01
 1.520588735291667e+00	 0.000000000000000e+00	-1.158129237512224e+01
 1.529411764700000e+00	 0.000000000000000e+00	-1.014987946979882e+01
 1.529411764700000e+00	 0.000000000000000e+00	-1.014987946979882e+01
 1.538234794108333e+00	 0.000000000000000e+00	-8.166151200472150e+00
 1.547057823516667e+00	 0.000000000000000e+00	-6.133373898139787e+00
 1.555880852925000e+00	 0.000000000000000e+00	-4.071033380986316e+00
 1.564703882333334e+00	 0.000000000000000e+00	-1.998262710776050e+00
 1.573526911741667e+00	 0.000000000000000e+00	 6.614791654515528e-02
 1.582349941150001e+00	 0.000000000000000e+00	 2.103741611075050e+00
 1.591172970558334e+00	 0.000000000000000e+00	 4.096385547165063e+00
 1.599995999966668e+00	 0.000000000000000e+00	 6.026262027344599e+00
 1.608819029375000e+00	 0.000000000000000e+00	 7.875859840217608e+00
 1.617642058783334e+00	 0.000000000000000e+00	 9.627965901114520e+00
 1.617642058783334e+00	 0.000000000000000e+00	 9.627965901114514e+00
 1.626466587363230e+00	 0.000000000000000e+00	 1.132698761893144e+01
 1.635291110942501e+00	 0.000000000000000e+00	 1.297378623283462e+01
 1.644115624520522e+00	 0.000000000000000e+00	 1.448816339315738e+01
 1.652940123096667e+00	 0.000000000000000e+00	 1.579155104766292e+01
 1.661764601670313e+00	 0.000000000000000e+00	 1.680696816258591e+01
 1.670589055240833e+00	 0.000000000000000e+00	 1.745897881176199e+01
 1.679413478807604e+00	 0.000000000000000e+00	 1.767365158368051e+01
 1.688237867370000e+00	 0.000000000000000e+00	 1.737852025838242e+01
 1.697062215927397e+00	 0.000000000000000e+00	 1.650254570812450e+01
 1.705886519479168e+00	 0.000000000000000e+00	 1.497607897762653e+01
 1.705886519479168e+00	 0.000000000000000e+00	 1.497607897762653e+01
 1.714709275570436e+00	 0.000000000000000e+00	 1.296901283298952e+01
 1.723531991670303e+00	 0.000000000000000e+00	 1.081285710509986e+01
 1.732354677776619e+00	 0.000000000000000e+00	 8.679634905365939e+00
 1.741177343887234e+00	 0.000000000000000e+00	 6.737802406177345e+00
 1.750000000000000e+00	 0.000000000000000e+00	 5.152338682789660e+00
 1.758822656112766e+00	 0.000000000000000e+00	 4.084832829895622e+00
 1.767645322223381e+00	 0.000000000000000e+00	 3.693568448792430e+00
 1.776468008329698e+00	 0.000000000000000e+00	 4.133605597223305e+00
 1.785290724429565e+00	 0.000000000000000e+00	 5.556860290302100e+00
 1.794113480520832e+00	 0.000000000000000e+00	 8.112181637425461e+00
 1.794113480520832e+00	 0.000000000000000e+00	 8.112181637425461e+00
 1.802937784072603e+00	 0.000000000000000e+00	 1.149107402984727e+01
 1.811762132630000e+00	 0.000000000000000e+00	 1.516576458079467e+01
 1.820586521192396e+00	 0.000000000000000e+00	 1.895811894808086e+01
 1.829410944759166e+00	 0.000000000000000e+00	 2.269336416031506e+01
 1.838235398329687e+00	 0.000000000000000e+00	 2.620000797094996e+01
 1.847059876903333e+00	 0.000000000000000e+00	 2.930976051452982e+01
 1.855884375479479e+00	 0.000000000000000e+00	 3.186128566619106e+01
 1.864708889057499e+00	 0.000000000000000e+00	 3.372232010348689e+01
 1.873533412636770e+00	 0.000000000000000e+00	 3.474463918681476e+01
 1.882357941216666e+00	 0.000000000000000e+00	 3.477763643725758e+01
 1.882357941216666e+00	 0.000000000000000e+00	 3.477763643725758e+01
 1.891180970624999e+00	 0.000000000000000e+00	 3.407472360659501e+01
 1.900004000033333e+00	 0.000000000000000e+00	 3.303854617588330e+01
 1.908827029441666e+00	 0.000000000000000e+00	 3.174372632286214e+01
 1.917650058849999e+00	 0.000000000000000e+00	 3.026354534144012e+01
 1.926473088258333e+00	 0.000000000000000e+00	 2.866997434718278e+01
 1.935296117666666e+00	 0.000000000000000e+00	 2.703370414287898e+01
 1.944119147074999e+00	 0.000000000000000e+00	 2.542417427086831e+01
 1.952942176483333e+00	 0.000000000000000e+00	 2.390960127784827e+01
 1.961765205891666e+00	 0.000000000000000e+00	 2.255700621695409e+01
 1.970588235300000e+00	 0.000000000000000e+00	 2.143224141101634e+01
 1.970588235300000e+00	 0.000000000000000e+00	 2.143224141101634e+01
 1.979411264708333e+00	 0.000000000000000e+00	 2.015865543151276e+01
 1.988234294116667e+00	 0.000000000000000e+00	 1.835784136903897e+01
 1.997057323525000e+00	 0.000000000000000e+00	 1.609135434683335e+01
 2.005880352933334e+00	 0.000000000000000e+00	 1.341969749014198e+01
 2.014703382341667e+00	 0.000000000000000e+00	 1.040234496139589e+01
 2.023526411750000e+00	 0.000000000000000e+00	 7.097764392761212e+00
 2.032349441158334e+00	 0.000000000000000e+00	 3.563438734375521e+00
 2.041172470566667e+00	 0.000000000000000e+00	-1.441124640498401e-01
 2.049995499975000e+00	 0.000000000000000e+00	-3.969312321190632e+00
 2.058818529383334e+00	 0.000000000000000e+00	-7.857506425147470e+00
 2.058818529383334e+00	 0.000000000000000e+00	-7.857506425147466e+00
 2.067643058796667e+00	 0.000000000000000e+00	-1.101019055289206e+01
 2.076467588210001e+00	 0.000000000000000e+00	-1.274142521934138e+01
 2.085292117623334e+00	 0.000000000000000e+00	-1.316656708491623e+01
 2.094116647036667e+00	 0.000000000000000e+00	-1.239899863924384e+01
 2.102941176450000e+00	 0.000000000000000e+00	-1.055016962204172e+01
 2.111765705863333e+00	 0.000000000000000e+00	-7.729637405471106e+00
 2.120590235276666e+00	 0.000000000000000e+00	-4.045106368209655e+00
 2.129414764689999e+00	 0.000000000000000e+00	 3.975337095057050e-01
 2.138239294103332e+00	 0.000000000000000e+00	 5.494170201582651e+00
 2.147063823516666e+00	 0.000000000000000e+00	 1.114243111517164e+01
 2.147063823516666e+00	 0.000000000000000e+00	 1.114243111517164e+01
 2.155886852925016e+00	 0.000000000000000e+00	 1.648557205519731e+01
 2.164709882333466e+00	 0.000000000000000e+00	 2.076835692088826e+01
 2.173532911742116e+00	 0.000000000000000e+00	 2.403839126587999e+01
 2.182355941151066e+00	 0.000000000000000e+00	 2.634253930185466e+01
 2.191178970560415e+00	 0.000000000000000e+00	 2.772693882401132e+01
 2.200001999970266e+00	 0.000000000000000e+00	 2.823701577739046e+01
 2.208825029380716e+00	 0.000000000000000e+00	 2.791749847409520e+01
 2.217648058791865e+00	 0.000000000000000e+00	 2.681243147113177e+01
 2.226471088203815e+00	 0.000000000000000e+00	 2.496347289299866e+01
 2.235294117616666e+00	 0.000000000000000e+00	 2.240179950371463e+01
 2.235294117616666e+00	 0.000000000000000e+00	 2.240179950371463e+01
 2.244117147030466e+00	 0.000000000000000e+00	 1.962885786813099e+01
 2.252940176445066e+00	 0.000000000000000e+00	 1.712062189147365e+01
 2.261763205860265e+00	 0.000000000000000e+00	 1.487666448799245e+01
 2.270586235275865e+00	 0.000000000000000e+00	 1.289656661742724e+01
 2.279409264691664e+00	 0.000000000000000e+00	 1.117991712930040e+01
 2.288232294107464e+00	 0.000000000000000e+00	 9.726312610811602e+00
 2.297055323523064e+00	 0.000000000000000e+00	 8.535357238238278e+00
 2.305878352938263e+00	 0.000000000000000e+00	 7.606662631747346e+00
 2.314701382352864e+00	 0.000000000000000e+00	 6.939847713527495e+00
 2.323524411766664e+00	 0.000000000000000e+00	 6.534538569154135e+00
 2.323524411766664e+00	 0.000000000000000e+00	 6.534538569154137e+00
 2.332348940767776e+00	 0.000000000000000e+00	 6.005362423208771e+00
 2.341173467267554e+00	 0.000000000000000e+00	 5.020476797474368e+00
 2.349997988765666e+00	 0.000000000000000e+00	 3.658770022159636e+00
 2.358822502761778e+00	 0.000000000000000e+00	 1.997950478955142e+00
 2.367647006755555e+00	 0.000000000000000e+00	 1.145685783150512e-01
 2.376471498246666e+00	 0.000000000000000e+00	-1.915961751347627e+00
 2.385295974734777e+00	 0.000000000000000e+00	-4.019342049952769e+00
 2.394120433719554e+00	 0.000000000000000e+00	-6.122368775303130e+00
 2.402944872700665e+00	 0.000000000000000e+00	-8.152913204022447e+00
 2.411769289177776e+00	 0.000000000000000e+00	-1.003990177235558e+01
 2.411769289177776e+00	 0.000000000000000e+00	-1.003990177235557e+01
 2.420592184004311e+00	 0.000000000000000e+00	-1.131977524391863e+01
 2.429415071334221e+00	 0.000000000000000e+00	-1.166192711997734e+01
 2.438237968666715e+00	 0.000000000000000e+00	-1.119318940099534e+01
 2.447060893501001e+00	 0.000000000000000e+00	-1.003856806525839e+01
 2.455883863336285e+00	 0.000000000000000e+00	-8.321275965196728e+00
 2.464706895671778e+00	 0.000000000000000e+00	-6.162764999650587e+00
 2.473530008006687e+00	 0.000000000000000e+00	-3.682757580584864e+00
 2.482353217840222e+00	 0.000000000000000e+00	-9.992774122211752e-01
 2.491176542671590e+00	 0.000000000000000e+00	 1.771320399965849e+00
 2.500000000000000e+00	 0.000000000000000e+00	 4.514319893444963e+00
