x	y	stress_xx
 1.0000000000e+00	 0.0000000000e+00	-1.1039934559e+00
 9.9996528199e-01	 8.3330488405e-03	-2.5351105107e+01
 9.9986065485e-01	 1.6693912862e-02	-4.2220507474e+01
 9.9968541457e-01	 2.5081865916e-02	-5.2653256729e+01
 9.9943886492e-01	 3.3496165499e-02	-5.7601346799e+01
 9.9912031795e-01	 4.1936052786e-02	-5.8026780974e+01
 9.9872909431e-01	 5.0400752668e-02	-5.4900606224e+01
 9.9826452377e-01	 5.8889473803e-02	-4.9201910596e+01
 9.9772594558e-01	 6.7401408683e-02	-4.1916784138e+01
 9.9711270890e-01	 7.5935733705e-02	-3.4037243883e+01
 9.9642417327e-01	 8.4491609256e-02	-2.6560123510e+01
 1.0088234573e+00	 0.0000000000e+00	-7.0087011886e+00
 1.0087884330e+00	 8.4065751451e-03	-2.0287594246e+01
 1.0086828827e+00	 1.6841210896e-02	-2.9377704097e+01
 1.0085060962e+00	 2.5303174698e-02	-3.4815413984e+01
 1.0082573711e+00	 3.3791717495e-02	-3.7142041412e+01
 1.0079360134e+00	 4.2306073768e-02	-3.6903269675e+01
 1.0075413379e+00	 5.0845461567e-02	-3.4648558556e+01
 1.0070726682e+00	 5.9409082570e-02	-3.0930534473e+01
 1.0065293379e+00	 6.7996122144e-02	-2.6304360405e+01
 1.0059106903e+00	 7.6605749417e-02	-2.1327085994e+01
 1.0052160794e+00	 8.5237117371e-02	-1.6556978254e+01
 1.0176467822e+00	 0.0000000000e+00	-1.3006883756e+01
 1.0176114515e+00	 8.4801003449e-03	-1.6661040761e+01
 1.0175049780e+00	 1.6988506717e-02	-1.8875796342e+01
 1.0173266453e+00	 2.5524480155e-02	-1.9843020698e+01
 1.0170757449e+00	 3.4087265052e-02	-1.9754425439e+01
 1.0167515765e+00	 4.2676089192e-02	-1.8801305509e+01
 1.0163534491e+00	 5.1290163788e-02	-1.7174274394e+01
 1.0158806804e+00	 5.9928683534e-02	-1.5062992809e+01
 1.0153325980e+00	 6.8590826674e-02	-1.2655891125e+01
 1.0147085397e+00	 7.7275755068e-02	-1.0139885763e+01
 1.0140078536e+00	 8.5982614290e-02	-7.7000898559e+00
 1.0264699920e+00	 0.0000000000e+00	-1.8967298498e+01
 1.0264343550e+00	 8.5536245858e-03	-1.4362817531e+01
 1.0263269584e+00	 1.7135800618e-02	-1.0632779669e+01
 1.0261470795e+00	 2.5745782726e-02	-7.6831094704e+00
 1.0258940037e+00	 3.4382808755e-02	-5.4153722770e+00
 1.0255670248e+00	 4.3046099791e-02	-3.7267777537e+00
 1.0251654454e+00	 5.1734860210e-02	-2.5101885121e+00
 1.0246885777e+00	 6.0448277725e-02	-1.6541339705e+00
 1.0241357434e+00	 6.9185523451e-02	-1.0428295978e+00
 1.0235062743e+00	 7.7945751986e-02	-5.5620168706e-01
 1.0227995132e+00	 8.6728101492e-02	-6.9917803062e-02
 1.0352931043e+00	 0.0000000000e+00	-2.4763178827e+01
 1.0352571610e+00	 8.6271480136e-03	-1.3287991407e+01
 1.0351488413e+00	 1.7283092889e-02	-4.5694282594e+00
 1.0349674162e+00	 2.5967082851e-02	 1.7155029243e+00
 1.0347121651e+00	 3.4678349190e-02	 5.8974798693e+00
 1.0343823756e+00	 4.3416106301e-02	 8.3146486277e+00
 1.0339773444e+00	 5.2179551718e-02	 9.3123918581e+00
 1.0334963778e+00	 6.0967866172e-02	 9.2430823889e+00
 1.0329387915e+00	 6.9780213656e-02	 8.4658219890e+00
 1.0323039118e+00	 7.8615741499e-02	 7.3461652917e+00
 1.0315910756e+00	 8.7473580456e-02	 6.2558288427e+00
 1.0441161367e+00	 0.0000000000e+00	-3.0272045322e+01
 1.0440798870e+00	 8.7006707743e-03	-1.3335166648e+01
 1.0439706441e+00	 1.7430383825e-02	-6.0917662852e-01
 1.0437876729e+00	 2.6188380968e-02	 8.4022922101e+00
 1.0435302465e+00	 3.4973886945e-02	 1.4205761749e+01
 1.0431976464e+00	 4.3786109454e-02	 1.7317524983e+01
 1.0427891635e+00	 5.2624239192e-02	 1.8263240800e+01
 1.0423040979e+00	 6.1487449908e-02	 1.7577506793e+01
 1.0417417598e+00	 7.0374898468e-02	 1.5803410082e+01
 1.0411014694e+00	 7.9285724937e-02	 1.3492056184e+01
 1.0403825583e+00	 8.8219052661e-02	 1.1202075974e+01
 1.0529391065e+00	 0.0000000000e+00	-3.5375526381e+01
 1.0529025505e+00	 8.7741930137e-03	-1.4406336270e+01
 1.0527923845e+00	 1.7577673716e-02	 1.3219927755e+00
 1.0526078672e+00	 2.6409677516e-02	 1.2425099414e+01
 1.0523482654e+00	 3.5269422605e-02	 1.9530405122e+01
 1.0520128549e+00	 4.4156109986e-02	 2.3276611376e+01
 1.0516009202e+00	 5.3068923516e-02	 2.4313169816e+01
 1.0511117557e+00	 6.2007029962e-02	 2.3299725381e+01
 1.0505446657e+00	 7.0969579067e-02	 2.0905532470e+01
 1.0498989648e+00	 7.9955703628e-02	 1.7808844185e+01
 1.0491739787e+00	 8.8964519584e-02	 1.4696274800e+01
 1.0617620313e+00	 0.0000000000e+00	-3.9959187846e+01
 1.0617251691e+00	 8.8477148777e-03	-1.6406740846e+01
 1.0616140799e+00	 1.7724962855e-02	 1.2956563450e+00
 1.0614280165e+00	 2.6630972935e-02	 1.3830200018e+01
 1.0611662394e+00	 3.5564956757e-02	 2.1891673209e+01
 1.0608280183e+00	 4.4526108629e-02	 2.6186869373e+01
 1.0604126319e+00	 5.3513605570e-02	 2.7433986125e+01
 1.0599193686e+00	 6.2526607365e-02	 2.6361989083e+01
 1.0593475267e+00	 7.1564256632e-02	 2.3709945870e+01
 1.0586964153e+00	 8.0625678901e-02	 2.0226330415e+01
 1.0579653543e+00	 8.9709982704e-02	 1.6668297703e+01
 1.0705849287e+00	 0.0000000000e+00	-4.3912371104e+01
 1.0705477601e+00	 8.9212365123e-03	-1.9244734318e+01
 1.0704357479e+00	 1.7872251535e-02	-6.1894922140e-01
 1.0702481382e+00	 2.6852267663e-02	 1.2662369678e+01
 1.0699841859e+00	 3.5860489987e-02	 2.1309189628e+01
 1.0696431543e+00	 4.4896106119e-02	 2.6043455180e+01
 1.0692243162e+00	 5.3958286238e-02	 2.7598453044e+01
 1.0687269540e+00	 6.3046183148e-02	 2.6718146309e+01
 1.0681503603e+00	 7.2158932343e-02	 2.4156478098e+01
 1.0674938383e+00	 8.1295652086e-02	 2.0676644831e+01
 1.0667567025e+00	 9.0455443500e-02	 1.7050339277e+01
 1.0794078160e+00	 0.0000000000e+00	-4.7128039162e+01
 1.0793703411e+00	 8.9947580632e-03	-2.2831656428e+01
 1.0792574058e+00	 1.8019540047e-02	-4.3548304543e+00
 1.0790682500e+00	 2.7073562140e-02	 8.9649467025e+00
 1.0788021224e+00	 3.6156022882e-02	 1.7801965906e+01
 1.0784582803e+00	 4.5266103188e-02	 2.2841713128e+01
 1.0780359905e+00	 5.4402966401e-02	 2.4780252313e+01
 1.0775345294e+00	 6.3565758341e-02	 2.4323578964e+01
 1.0769531839e+00	 7.2753607379e-02	 2.2186944574e+01
 1.0762912514e+00	 8.1965624510e-02	 1.9094152031e+01
 1.0755480407e+00	 9.1200903452e-02	 1.5776822229e+01
 1.0882307108e+00	 0.0000000000e+00	-4.9502630246e+01
 1.0881929296e+00	 9.0682796764e-03	-2.7081711375e+01
 1.0880790712e+00	 1.8166828684e-02	-9.8471453643e+00
 1.0878883693e+00	 2.7294856805e-02	 2.7798914715e+00
 1.0876200664e+00	 3.6451556027e-02	 1.1388427639e+01
 1.0872734138e+00	 4.5636100571e-02	 1.6577169470e+01
 1.0868476722e+00	 5.4847646941e-02	 1.8953948258e+01
 1.0863421123e+00	 6.4085333976e-02	 1.9135141579e+01
 1.0857560150e+00	 7.3348282920e-02	 1.7745068906e+01
 1.0850886720e+00	 8.2635597504e-02	 1.5415361661e+01
 1.0843393864e+00	 9.1946364036e-02	 1.2784307899e+01
 9.9642417327e-01	 8.4491609256e-02	-2.6560123510e+01
 9.9565957252e-01	 9.3069636226e-02	-2.0130115042e+01
 9.9481839835e-01	 1.0166747288e-01	-1.4694606563e+01
 9.9390004351e-01	 1.1028421068e-01	-1.0202834426e+01
 9.9290391285e-01	 1.1891892497e-01	-6.6026933459e+00
 9.9182942379e-01	 1.2757067517e-01	-3.8407770118e+00
 9.9067600676e-01	 1.3623850489e-01	-1.8624212288e+00
 9.8944310564e-01	 1.4492144212e-01	-6.1174959967e-01
 9.8813017818e-01	 1.5361849940e-01	-3.1721788116e-02
 9.8673669648e-01	 1.6232867404e-01	-6.4184386331e-02
 9.8526214738e-01	 1.7105094831e-01	-6.4992441340e-01
 1.0052160794e+00	 8.5237117371e-02	-1.6556978254e+01
 1.0044447323e+00	 9.3890832195e-02	-1.2392670266e+01
 1.0035961360e+00	 1.0256453149e-01	-8.8464840207e+00
 1.0026696781e+00	 1.1125729871e-01	-5.8947665680e+00
 1.0016647582e+00	 1.1996820103e-01	-3.5129821761e+00
 1.0005807884e+00	 1.2869628959e-01	-1.6757269745e+00
 9.9941719423e-01	 1.3744059953e-01	-3.5674495136e-01
 9.9817341465e-01	 1.4620015028e-01	 4.7105465216e-01
 9.9684890263e-01	 1.5497394568e-01	 8.3557850477e-01
 9.9544312560e-01	 1.6376097417e-01	 7.6552886079e-01
 9.9395556588e-01	 1.7256020906e-01	 2.9038170413e-01
 1.0140078536e+00	 8.5982614290e-02	-7.7000898559e+00
 1.0132297601e+00	 9.4712015832e-02	-5.5062601856e+00
 1.0123737419e+00	 1.0346157664e-01	-3.6064706799e+00
 1.0114391811e+00	 1.1223037213e-01	-2.0002256097e+00
 1.0104254719e+00	 1.2101746134e-01	-6.8654000844e-01
 1.0093320216e+00	 1.2982188710e-01	 3.3606820330e-01
 1.0081582504e+00	 1.3864267612e-01	 1.0695857465e+00
 1.0069035926e+00	 1.4747883925e-01	 1.5165111095e+00
 1.0055674962e+00	 1.5632937160e-01	 1.6798612138e+00
 1.0041494240e+00	 1.6519325279e-01	 1.5631775591e+00
 1.0026488538e+00	 1.7406944714e-01	 1.1705317857e+00
 1.0227995132e+00	 8.6728101492e-02	-6.9917803062e-02
 1.0220146734e+00	 9.5533188766e-02	 4.5422373779e-01
 1.0211512334e+00	 1.0435861009e-01	 9.5662906995e-01
 1.0202085697e+00	 1.1320343286e-01	 1.4184837247e+00
 1.0191860715e+00	 1.2206670797e-01	 1.8211330289e+00
 1.0180831407e+00	 1.3094746993e-01	 2.1461090959e+00
 1.0168991927e+00	 1.3984473704e-01	 2.3751583228e+00
 1.0156336567e+00	 1.4875751154e-01	 2.4902693269e+00
 1.0142859761e+00	 1.5768477986e-01	 2.4737012536e+00
 1.0128556089e+00	 1.6662551275e-01	 2.3080123802e+00
 1.0113420285e+00	 1.7557866555e-01	 1.9760889387e+00
 1.0315910756e+00	 8.7473580456e-02	 6.2558288427e+00
 1.0307994897e+00	 9.6354352626e-02	 5.4164475024e+00
 1.0299286279e+00	 1.0525563362e-01	 4.7763583028e+00
 1.0289778614e+00	 1.1417648284e-01	 4.3011807279e+00
 1.0279465742e+00	 1.2311594301e-01	 3.9564275437e+00
 1.0268341631e+00	 1.3207304034e-01	 3.7075475553e+00
 1.0256400384e+00	 1.4104678467e-01	 3.5199695701e+00
 1.0243636244e+00	 1.5003616971e-01	 3.3591474941e+00
 1.0230043596e+00	 1.5904017314e-01	 3.1906064793e+00
 1.0215616976e+00	 1.6805775688e-01	 2.9799900381e+00
 1.0200351071e+00	 1.7708786729e-01	 2.6931080320e+00
 1.0403825583e+00	 8.8219052661e-02	 1.1202075974e+01
 1.0395842263e+00	 9.7175509039e-02	 9.3105271143e+00
 1.0387059428e+00	 1.0615264903e-01	 7.7885088734e+00
 1.0377470737e+00	 1.1514952401e-01	 6.5897193887e+00
 1.0367069976e+00	 1.2416516854e-01	 5.6675453599e+00
 1.0355851062e+00	 1.3319860053e-01	 4.9751172732e+00
 1.0343808048e+00	 1.4224882141e-01	 4.4653663835e+00
 1.0330935129e+00	 1.5131481628e-01	 4.0910833722e+00
 1.0317226641e+00	 1.6039555413e-01	 3.8049785919e+00
 1.0302677074e+00	 1.6948998802e-01	 3.5597438016e+00
 1.0287281069e+00	 1.7859705534e-01	 3.3081152895e+00
 1.0491739787e+00	 8.8964519584e-02	 1.4696274800e+01
 1.0483689007e+00	 9.7996659635e-02	 1.2068926566e+01
 1.0474831955e+00	 1.0704965808e-01	 9.9310277218e+00
 1.0465162238e+00	 1.1612255827e-01	 8.2279035860e+00
 1.0454673588e+00	 1.2521438663e-01	 6.9044240172e+00
 1.0443359873e+00	 1.3432415275e-01	 5.9050678545e+00
 1.0431215094e+00	 1.4345084964e-01	 5.1739895230e+00
 1.0418233396e+00	 1.5259345380e-01	 4.6550877102e+00
 1.0404409069e+00	 1.6175092552e-01	 4.2920760200e+00
 1.0389736555e+00	 1.7092220902e-01	 4.0285554982e+00
 1.0374210451e+00	 1.8010623270e-01	 3.8080889166e+00
 1.0579653543e+00	 8.9709982704e-02	 1.6668297703e+01
 1.0571535302e+00	 9.8817806043e-02	 1.3626360930e+01
 1.0562604034e+00	 1.0794666255e-01	 1.1143927874e+01
 1.0552853291e+00	 1.1709558758e-01	 9.1614065339e+00
 1.0542276754e+00	 1.2626359937e-01	 7.6186650561e+00
 1.0530868237e+00	 1.3544969924e-01	 6.4551021955e+00
 1.0518621693e+00	 1.4465287173e-01	 5.6097201963e+00
 1.0505531217e+00	 1.5387208479e-01	 5.0211999977e+00
 1.0491591052e+00	 1.6310629000e-01	 4.6279786635e+00
 1.0476795592e+00	 1.7235442272e-01	 4.3683289221e+00
 1.0461139390e+00	 1.8161540236e-01	 4.1804406984e+00
 1.0667567025e+00	 9.0455443500e-02	 1.7050339277e+01
 1.0659381324e+00	 9.9638949891e-02	 1.3919704264e+01
 1.0650375840e+00	 1.0884366423e-01	 1.1369203866e+01
 1.0640544072e+00	 1.1806861385e-01	 9.3376942309e+00
 1.0629879647e+00	 1.2731280884e-01	 7.7634658680e+00
 1.0618376329e+00	 1.3657524221e-01	 6.5843169753e+00
 1.0606028020e+00	 1.4585489007e-01	 5.7376292969e+00
 1.0592828766e+00	 1.5515071180e-01	 5.1604464186e+00
 1.0578772763e+00	 1.6446165025e-01	 4.7895543912e+00
 1.0563854358e+00	 1.7378663194e-01	 4.5615645656e+00
 1.0548068057e+00	 1.8312456732e-01	 4.4129985139e+00
 1.0755480407e+00	 9.1200903452e-02	 1.5776822229e+01
 1.0747227247e+00	 1.0046009281e-01	 1.2887902063e+01
 1.0738147547e+00	 1.0974066489e-01	 1.0550751340e+01
 1.0728234753e+00	 1.1904163902e-01	 8.7059526838e+00
 1.0717482441e+00	 1.2836201712e-01	 7.2935549057e+00
 1.0705884322e+00	 1.3770078391e-01	 6.2531460828e+00
 1.0693434248e+00	 1.4705690705e-01	 5.5239291471e+00
 1.0680126217e+00	 1.5642933736e-01	 5.0447998782e+00
 1.0665954375e+00	 1.6581700897e-01	 4.7544271909e+00
 1.0650913025e+00	 1.7521883955e-01	 4.5913355974e+00
 1.0634996626e+00	 1.8463373057e-01	 4.4939897130e+00
 1.0843393864e+00	 9.1946364036e-02	 1.2784307899e+01
 1.0835073244e+00	 1.0128123642e-01	 1.0471887984e+01
 1.0825919328e+00	 1.1063766632e-01	 8.6342905651e+00
 1.0815925508e+00	 1.2001466501e-01	 7.2170186904e+00
 1.0805085309e+00	 1.2941122629e-01	 6.1651300623e+00
 1.0793392389e+00	 1.3882632656e-01	 5.4233068100e+00
 1.0780840550e+00	 1.4825892506e-01	 4.9359276006e+00
 1.0767423742e+00	 1.5770796401e-01	 4.6471419870e+00
 1.0753136062e+00	 1.6717236883e-01	 4.5009468792e+00
 1.0737971766e+00	 1.7665104837e-01	 4.4412650163e+00
 1.0721925270e+00	 1.8614289510e-01	 4.4120253082e+00
 9.8526214738e-01	 1.7105094831e-01	-6.4992441340e-01
 9.8370630427e-01	 1.7978280468e-01	-1.6209956378e+00
 9.8206844073e-01	 1.8852468015e-01	-2.7929467155e+00
 9.8034808995e-01	 1.9727551623e-01	-4.0796812465e+00
 9.7854480164e-01	 2.0603424041e-01	-5.3939194567e+00
 9.7665814235e-01	 2.1479976648e-01	-6.6472800721e+00
 9.7468769596e-01	 2.2357099480e-01	-7.7503656568e+00
 9.7263306406e-01	 2.3234681259e-01	-8.6128514070e+00
 9.7049386637e-01	 2.4112609427e-01	-9.1435773881e+00
 9.6826974115e-01	 2.4990770180e-01	-9.2506441938e+00
 9.6596034556e-01	 2.5869048500e-01	-8.8415119999e+00
 9.9395556588e-01	 1.7256020906e-01	 2.9038170413e-01
 9.9238599486e-01	 1.8136911059e-01	-4.5057208872e-01
 9.9073367969e-01	 1.9018811962e-01	-1.3003786722e+00
 9.8899814948e-01	 1.9901616833e-01	-2.2015707191e+00
 9.8717894993e-01	 2.0785217474e-01	-3.0959354285e+00
 9.8527564378e-01	 2.1669504306e-01	-3.9245679677e+00
 9.8328781124e-01	 2.2554366393e-01	-4.6279272513e+00
 9.8121505038e-01	 2.3439691478e-01	-5.1458940693e+00
 9.7905697758e-01	 2.4325366008e-01	-5.4178315759e+00
 9.7681322788e-01	 2.5211275175e-01	-5.3826481458e+00
 9.7448345545e-01	 2.6097302946e-01	-4.9788625966e+00
 1.0026488538e+00	 1.7406944714e-01	 1.1705317857e+00
 1.0010655551e+00	 1.8295539268e-01	 6.1315506016e-01
 9.9939878854e-01	 1.9185153412e-01	 2.1266246315e-02
 9.9764807911e-01	 2.0075679429e-01	-5.7160780151e-01
 9.9581296856e-01	 2.0967008177e-01	-1.1315585035e+00
 9.9389301581e-01	 2.1859029117e-01	-1.6243248897e+00
 9.9188779738e-01	 2.2751630344e-01	-2.0153243267e+00
 9.8979690784e-01	 2.3644698618e-01	-2.2696846669e+00
 9.8761996020e-01	 2.4538119393e-01	-2.3522778542e+00
 9.8535658633e-01	 2.5431776858e-01	-2.2277550132e+00
 9.8300643735e-01	 2.6325553964e-01	-1.8605830493e+00
 1.0113420285e+00	 1.7557866555e-01	 1.9760889387e+00
 1.0097450022e+00	 1.8454165409e-01	 1.5622536816e+00
 1.0080637845e+00	 1.9351492693e-01	 1.1713085935e+00
 1.0062978960e+00	 2.0249739757e-01	 8.1741000540e-01
 1.0044468747e+00	 2.1148796511e-01	 5.1480492051e-01
 1.0025102755e+00	 2.2048551459e-01	 2.7782152519e-01
 1.0004876714e+00	 2.2948891725e-01	 1.2085907537e-01
 9.9837865345e-01	 2.3849703086e-01	 5.8377108064e-02
 9.9618283122e-01	 2.4750870006e-01	 1.0488392868e-01
 9.9389983343e-01	 2.5652275667e-01	 2.7492432491e-01
 9.9152930816e-01	 2.6553802007e-01	 5.8306645915e-01
 1.0200351071e+00	 1.7708786729e-01	 2.6931080320e+00
 1.0184243535e+00	 1.8612789797e-01	 2.3890627448e+00
 1.0167286846e+00	 1.9517830137e-01	 2.1490939696e+00
 1.0149476173e+00	 2.0423798161e-01	 1.9724427980e+00
 1.0130806854e+00	 2.1330582836e-01	 1.8582212279e+00
 1.0111274400e+00	 2.2238071706e-01	 1.8054183235e+00
 1.0090874505e+00	 2.3146150925e-01	 1.8129063398e+00
 1.0069603042e+00	 2.4054705289e-01	 1.8794467466e+00
 1.0047456076e+00	 2.4963618268e-01	 2.0036960865e+00
 1.0024429861e+00	 2.5872772040e-01	 2.1842116022e+00
 1.0000520848e+00	 2.6782047528e-01	 2.4194565660e+00
 1.0287281069e+00	 1.7859705534e-01	 3.3081152895e+00
 1.0271036260e+00	 1.8771412747e-01	 3.0861812662e+00
 1.0253935062e+00	 1.9684166072e-01	 2.9539924061e+00
 1.0235972602e+00	 2.0597854987e-01	 2.9002189935e+00
 1.0217144178e+00	 2.1512367513e-01	 2.9132523798e+00
 1.0197445264e+00	 2.2427590234e-01	 2.9812226567e+00
 1.0176871515e+00	 2.3343408337e-01	 3.0920167074e+00
 1.0155418772e+00	 2.4259705633e-01	 3.2332965590e+00
 1.0133083064e+00	 2.5176364600e-01	 3.3925179584e+00
 1.0109860614e+00	 2.6093266413e-01	 3.5569490930e+00
 1.0085747842e+00	 2.7010290979e-01	 3.7136893731e+00
 1.0374210451e+00	 1.8010623270e-01	 3.8080889166e+00
 1.0357828370e+00	 1.8930034574e-01	 3.6464578194e+00
 1.0340582665e+00	 1.9850500829e-01	 3.5853977817e+00
 1.0322468419e+00	 2.0771910580e-01	 3.6072455110e+00
 1.0303480891e+00	 2.1694150902e-01	 3.6939775553e+00
 1.0283615517e+00	 2.2617107421e-01	 3.8272354116e+00
 1.0262867917e+00	 2.3540664351e-01	 3.9883512536e+00
 1.0241233894e+00	 2.4464704525e-01	 4.1583741928e+00
 1.0218709445e+00	 2.5389109426e-01	 4.3180969846e+00
 1.0195290761e+00	 2.6313759225e-01	 4.4480830898e+00
 1.0170974231e+00	 2.7238532814e-01	 4.5286939982e+00
 1.0461139390e+00	 1.8161540236e-01	 4.1804406984e+00
 1.0444620038e+00	 1.9088655592e-01	 4.0629805720e+00
 1.0427229825e+00	 2.0016834737e-01	 4.0427272677e+00
 1.0408963794e+00	 2.0945965286e-01	 4.0998174428e+00
 1.0389817163e+00	 2.1875933364e-01	 4.2140137085e+00
 1.0369785331e+00	 2.2806623640e-01	 4.3647331543e+00
 1.0348863879e+00	 2.3737919359e-01	 4.5310765620e+00
 1.0327048578e+00	 2.4669702371e-01	 4.6918582158e+00
 1.0304335389e+00	 2.5601853167e-01	 4.8256362155e+00
 1.0280720472e+00	 2.6534250911e-01	 4.9107431925e+00
 1.0256200187e+00	 2.7466773484e-01	 4.9253173297e+00
 1.0548068057e+00	 1.8312456732e-01	 4.4129985139e+00
 1.0531411436e+00	 1.9247276115e-01	 4.3290678179e+00
 1.0513876715e+00	 2.0183168127e-01	 4.3254208022e+00
 1.0495458899e+00	 2.1120019449e-01	 4.3840272446e+00
 1.0476153166e+00	 2.2057715259e-01	 4.4865351019e+00
 1.0455954876e+00	 2.2996139269e-01	 4.6142984847e+00
 1.0434859574e+00	 2.3935173753e-01	 4.7484062238e+00
 1.0412862995e+00	 2.4874699579e-01	 4.8697109321e+00
 1.0389961067e+00	 2.5814596244e-01	 4.9588584612e+00
 1.0366149917e+00	 2.6754741911e-01	 4.9963176508e+00
 1.0341425876e+00	 2.7695013443e-01	 4.9624102649e+00
 1.0634996626e+00	 1.8463373057e-01	 4.4939897130e+00
 1.0618202734e+00	 1.9405896458e-01	 4.4382589782e+00
 1.0600523507e+00	 2.0349501329e-01	 4.4329405902e+00
 1.0581953907e+00	 2.1294073414e-01	 4.4657734734e+00
 1.0562489071e+00	 2.2239496948e-01	 4.5242918781e+00
 1.0542124324e+00	 2.3185654683e-01	 4.5958488937e+00
 1.0520855171e+00	 2.4132427923e-01	 4.6676402906e+00
 1.0498677314e+00	 2.5079696554e-01	 4.7267285925e+00
 1.0475586647e+00	 2.6027339081e-01	 4.7600672750e+00
 1.0451579266e+00	 2.6975232661e-01	 4.7545249873e+00
 1.0426651469e+00	 2.7923253144e-01	 4.6969096893e+00
 1.0721925270e+00	 1.8614289510e-01	 4.4120253082e+00
 1.0704994107e+00	 1.9564516936e-01	 4.3843060423e+00
 1.0687170373e+00	 2.0515834672e-01	 4.3647706286e+00
 1.0668448987e+00	 2.1468127528e-01	 4.3507690974e+00
 1.0648825050e+00	 2.2421278792e-01	 4.3396277214e+00
 1.0628293844e+00	 2.3375170258e-01	 4.3286642082e+00
 1.0606850842e+00	 2.4329682261e-01	 4.3152027952e+00
 1.0584491706e+00	 2.5284693703e-01	 4.2965891466e+00
 1.0561212300e+00	 2.6240082098e-01	 4.2702049507e+00
 1.0537008686e+00	 2.7195723598e-01	 4.2334821130e+00
 1.0511877135e+00	 2.8151493038e-01	 4.1839164415e+00
 9.6596034556e-01	 2.5869048500e-01	-8.8415119999e+00
 9.6356535632e-01	 2.6747328204e-01	-7.9472153573e+00
 9.6108447067e-01	 2.7625492019e-01	-6.7130739132e+00
 9.5851740614e-01	 2.8503421588e-01	-5.2202247826e+00
 9.5586390071e-01	 2.9380997494e-01	-3.5533242669e+00
 9.5312371316e-01	 3.0258099304e-01	-1.8004951839e+00
 9.5029662344e-01	 3.1134605611e-01	-5.3269211927e-02
 9.4738243296e-01	 3.2010394073e-01	 1.5934757312e+00
 9.4438096497e-01	 3.2885341468e-01	 3.0415830458e+00
 9.4129206486e-01	 3.3759323727e-01	 4.1896899113e+00
 9.3811560045e-01	 3.4632215993e-01	 4.9333046081e+00
 9.7448345545e-01	 2.6097302946e-01	-4.9788625966e+00
 9.7206733412e-01	 2.6983332113e-01	-4.2835684568e+00
 9.6956455848e-01	 2.7869244369e-01	-3.4448474638e+00
 9.6697484357e-01	 2.8754920312e-01	-2.5089924532e+00
 9.6429792505e-01	 2.9640239472e-01	-1.5243313980e+00
 9.6153355958e-01	 3.0525080353e-01	-5.4119655418e-01
 9.5868152515e-01	 3.1409320475e-01	 3.8810898992e-01
 9.5574162144e-01	 3.2292836420e-01	 1.2093473255e+00
 9.5271367013e-01	 3.3175503876e-01	 1.8663842622e+00
 9.4959751524e-01	 3.4057197680e-01	 2.3012303556e+00
 9.4639302343e-01	 3.4937791874e-01	 2.4540843816e+00
 9.8300643735e-01	 2.6325553964e-01	-1.8605830493e+00
 9.8056918426e-01	 2.7219332478e-01	-1.3574048973e+00
 9.7804451896e-01	 2.8112993059e-01	-8.5964064329e-01
 9.7543215400e-01	 2.9006415260e-01	-3.8440936031e-01
 9.7273182274e-01	 2.9899477557e-01	 5.0376854949e-02
 9.6994327971e-01	 3.0792057392e-01	 4.2602524733e-01
 9.6706630095e-01	 3.1684031214e-01	 7.2307534455e-01
 9.6410068439e-01	 3.2575274526e-01	 9.2131243113e-01
 9.6104625015e-01	 3.3465661926e-01	 9.9978151239e-01
 9.5790284089e-01	 3.4355067160e-01	 9.3680172690e-01
 9.5467032212e-01	 3.5243363166e-01	 7.0998116782e-01
 9.9152930816e-01	 2.6553802007e-01	 5.8306645915e-01
 9.8907092358e-01	 2.7455329767e-01	 9.0706097010e-01
 9.8652436891e-01	 2.8356738572e-01	 1.1191810236e+00
 9.8388935420e-01	 2.9257906930e-01	 1.2259477214e+00
 9.8116561051e-01	 3.0158712263e-01	 1.2340937948e+00
 9.7835289023e-01	 3.1059030952e-01	 1.1505607612e+00
 9.7545096747e-01	 3.1958738373e-01	 9.8249500578e-01
 9.7245963839e-01	 3.2857708950e-01	 7.3724273340e-01
 9.6937872157e-01	 3.3755816195e-01	 4.2234374346e-01
 9.6620805830e-01	 3.4652932758e-01	 4.5523982192e-02
 9.6294751292e-01	 3.5548930476e-01	-3.8531316624e-01
 1.0000520848e+00	 2.6782047528e-01	 2.4194565660e+00
 9.9757256896e-01	 2.7691324449e-01	 2.5830390367e+00
 9.9500412515e-01	 2.8600481391e-01	 2.5656464596e+00
 9.9234646095e-01	 2.9509395820e-01	 2.3920388170e+00
 9.8959930508e-01	 3.0417944105e-01	 2.0879592356e+00
 9.8676240782e-01	 3.1326001561e-01	 1.6801191763e+00
 9.8383554133e-01	 3.2233442496e-01	 1.1961812575e+00
 9.8081850002e-01	 3.3140140253e-01	 6.6473965007e-01
 9.7771110092e-01	 3.4045967257e-01	 1.1529799172e-01
 9.7451318394e-01	 3.4950795064e-01	-4.2175522823e-01
 9.7122461225e-01	 3.5854494408e-01	-9.1517385158e-01
 1.0085747842e+00	 2.7010290979e-01	 3.7136893731e+00
 1.0060741373e+00	 2.7927316990e-01	 3.7412727490e+00
 1.0034838045e+00	 2.8844222001e-01	 3.5512895202e+00
 1.0008034910e+00	 2.9760882431e-01	 3.1814651082e+00
 9.9803292319e-01	 3.0677173596e-01	 2.6710506377e+00
 9.9517184916e-01	 3.1592969750e-01	 2.0607993593e+00
 9.9222003916e-01	 3.2508144128e-01	 1.3929397720e+00
 9.8917728587e-01	 3.3422568995e-01	 7.1114537648e-01
 9.8604340471e-01	 3.4336115689e-01	 6.0501001816e-02
 9.8281823426e-01	 3.5248654669e-01	-5.1253434357e-01
 9.7950163653e-01	 3.6160055570e-01	-9.6016813743e-01
 1.0170974231e+00	 2.7238532814e-01	 4.5286939982e+00
 1.0145756453e+00	 2.8163307860e-01	 4.4501428892e+00
 1.0119634238e+00	 2.9087960883e-01	 4.1452538840e+00
 1.0092604612e+00	 3.0012367260e-01	 3.6595680044e+00
 1.0064664815e+00	 3.0936401251e-01	 3.0404696221e+00
 1.0035812309e+00	 3.1859936047e-01	 2.3371572770e+00
 1.0006044776e+00	 3.2782843815e-01	 1.6006106114e+00
 9.9753601250e-01	 3.3704995737e-01	 8.8355334856e-01
 9.9437564948e-01	 3.4626262065e-01	 2.4041225302e-01
 9.9112322576e-01	 3.5546512164e-01	-2.7272797784e-01
 9.8777860218e-01	 3.6465614567e-01	-5.9817393305e-01
 1.0256200187e+00	 2.7466773484e-01	 4.9253173297e+00
 1.0230771100e+00	 2.8399297526e-01	 4.7757661454e+00
 1.0204429998e+00	 2.9331698523e-01	 4.4143926758e+00
 1.0177173882e+00	 3.0263850806e-01	 3.8895232347e+00
 1.0148999969e+00	 3.1195627583e-01	 3.2514241339e+00
 1.0119905698e+00	 3.2126900983e-01	 2.5522700221e+00
 1.0089888733e+00	 3.3057542100e-01	 1.8461081028e+00
 1.0058946965e+00	 3.3987421038e-01	 1.1888181576e+00
 1.0027078517e+00	 3.4916406961e-01	 6.3806831008e-01
 9.9942817490e-01	 3.5844368140e-01	 2.5326647651e-01
 9.9605552561e-01	 3.6771172006e-01	 9.5507461658e-02
 1.0341425876e+00	 2.7695013443e-01	 4.9624102649e+00
 1.0315785482e+00	 2.8635286457e-01	 4.7820887741e+00
 1.0289225495e+00	 2.9575435403e-01	 4.4233631283e+00
 1.0261742889e+00	 3.0515333568e-01	 3.9324302517e+00
 1.0233334860e+00	 3.1454853108e-01	 3.3573065064e+00
 1.0203998825e+00	 3.2393865087e-01	 2.7477966386e+00
 1.0173732428e+00	 3.3332239529e-01	 2.1554587116e+00
 1.0142533544e+00	 3.4269845458e-01	 1.6335649490e+00
 1.0110400280e+00	 3.5206550952e-01	 1.2370584220e+00
 1.0077330981e+00	 3.6142223187e-01	 1.0225055247e+00
 1.0043324232e+00	 3.7076728492e-01	 1.0480562876e+00
 1.0426651469e+00	 2.7923253144e-01	 4.6969096893e+00
 1.0400799768e+00	 2.8871275120e-01	 4.5309756379e+00
 1.0374020895e+00	 2.9819172007e-01	 4.2347165662e+00
 1.0346311799e+00	 3.0766816045e-01	 3.8473972155e+00
 1.0317669655e+00	 3.1714078338e-01	 3.4097676635e+00
 1.0288091856e+00	 3.2660828888e-01	 2.9640359321e+00
 1.0257576029e+00	 3.3606936646e-01	 2.5538370273e+00
 1.0226120029e+00	 3.4552269558e-01	 2.2241983337e+00
 1.0193721949e+00	 3.5496694615e-01	 2.0215012970e+00
 1.0160380120e+00	 3.6440077897e-01	 1.9934393370e+00
 1.0126093115e+00	 3.7382284632e-01	 2.1901043610e+00
 1.0511877135e+00	 2.8151493038e-01	 4.1839164415e+00
 1.0485814126e+00	 2.9107263984e-01	 4.0822948799e+00
 1.0458816367e+00	 3.0062908817e-01	 3.9089839813e+00
 1.0430880782e+00	 3.1018298736e-01	 3.6916218099e+00
 1.0402004521e+00	 3.1973303789e-01	 3.4587876782e+00
 1.0372184959e+00	 3.2927792916e-01	 3.2399814359e+00
 1.0341419700e+00	 3.3881633997e-01	 3.0655999702e+00
 1.0309706585e+00	 3.4834693899e-01	 2.9669108413e+00
 1.0277043688e+00	 3.5786838524e-01	 2.9760229861e+00
 1.0243429329e+00	 3.6737932860e-01	 3.1258544306e+00
 1.0208862068e+00	 3.7687841031e-01	 3.4544388891e+00
 9.3811560045e-01	 3.4632215993e-01	 4.9333046081e+00
 9.3485089983e-01	 3.5504040738e-01	 5.2148966783e+00
 9.3149840861e-01	 3.6374523066e-01	 5.0951273473e+00
 9.2805806304e-01	 3.7243535926e-01	 4.6480797054e+00
 9.2452982293e-01	 3.8110951670e-01	 3.9538909786e+00
 9.2091367195e-01	 3.8976642107e-01	 3.0936323979e+00
 9.1720961780e-01	 3.9840478557e-01	 2.1511130809e+00
 9.1341769248e-01	 4.0702331907e-01	 1.2142111683e+00
 9.0953795245e-01	 4.1562072663e-01	 3.7480850583e-01
 9.0557047888e-01	 4.2419571008e-01	-2.7128106254e-01
 9.0151537777e-01	 4.3274696861e-01	-6.2438976836e-01
 9.4639302343e-01	 3.4937791874e-01	 2.4540843816e+00
 9.4309951687e-01	 3.5817309127e-01	 2.3573983698e+00
 9.3971744509e-01	 3.6695472120e-01	 2.1116232220e+00
 9.3624674377e-01	 3.7572152678e-01	 1.7600872550e+00
 9.3268737239e-01	 3.8447222027e-01	 1.3495881126e+00
 9.2903931446e-01	 3.9320550847e-01	 9.2434485584e-01
 9.2530257775e-01	 4.0192009321e-01	 5.3015673521e-01
 9.2147719453e-01	 4.1061467198e-01	 2.1479980336e-01
 9.1756322178e-01	 4.1928793839e-01	 2.7987114476e-02
 9.1356074138e-01	 4.2793858285e-01	 2.1325740611e-02
 9.0946986025e-01	 4.3656529304e-01	 2.4827062952e-01
 9.5467032212e-01	 3.5243363166e-01	 7.0998116782e-01
 9.5134801004e-01	 3.6130572813e-01	 4.0408068632e-01
 9.4793635814e-01	 3.7016416353e-01	 1.2998050228e-01
 9.4443530154e-01	 3.7900764494e-01	-9.3304027333e-02
 9.4084479935e-01	 3.8783487335e-01	-2.4803648141e-01
 9.3716483494e-01	 3.9664454422e-01	-3.2013922012e-01
 9.3339541616e-01	 4.0543534806e-01	-2.9526054949e-01
 9.2953657555e-01	 4.1420597095e-01	-1.5879004240e-01
 9.2558837060e-01	 4.2295509508e-01	 1.0412323941e-01
 9.2155088388e-01	 4.3168139940e-01	 5.0855198898e-01
 9.1742422329e-01	 4.4038356013e-01	 1.0697713913e+00
 9.6294751292e-01	 3.5548930476e-01	-3.8531316624e-01
 9.5959639570e-01	 3.6443832415e-01	-7.6426959226e-01
 9.5615516407e-01	 3.7337356404e-01	-9.9266400881e-01
 9.5262375257e-01	 3.8229372027e-01	-1.0703780745e+00
 9.4900211999e-01	 3.9119748259e-01	-1.0040248698e+00
 9.4529024952e-01	 4.0008353515e-01	-8.0320321913e-01
 9.4148814909e-01	 4.0895055710e-01	-4.7860185900e-01
 9.3759585153e-01	 4.1779722311e-01	-4.2001505456e-02
 9.3361341482e-01	 4.2662220398e-01	 4.9372461441e-01
 9.2954092225e-01	 4.3542416717e-01	 1.1146117973e+00
 9.2537848265e-01	 4.4420177745e-01	 1.8056064946e+00
 9.7122461225e-01	 3.5854494408e-01	-9.1517385158e-01
 9.6784469021e-01	 3.6757088555e-01	-1.2628136057e+00
 9.6437387917e-01	 3.7658292907e-01	-1.3939531741e+00
 9.6081211312e-01	 3.8557975929e-01	-1.3240038658e+00
 9.5715935048e-01	 3.9456005467e-01	-1.0777726535e+00
 9.5341557431e-01	 4.0352248808e-01	-6.8263939238e-01
 9.4958079259e-01	 4.1246572728e-01	-1.6807606814e-01
 9.4565503845e-01	 4.2138843558e-01	 4.3436343017e-01
 9.4163837035e-01	 4.3028927234e-01	 1.0910566306e+00
 9.3753087232e-01	 4.3916689358e-01	 1.7663289255e+00
 9.3333265411e-01	 4.4801995257e-01	 2.4224731749e+00
 9.7950163653e-01	 3.6160055570e-01	-9.6016813743e-01
 9.7609290993e-01	 3.7070341855e-01	-1.2028268800e+00
 9.7259251976e-01	 3.7979226501e-01	-1.2072689475e+00
 9.6900039943e-01	 3.8886576851e-01	-1.0018643936e+00
 9.6531650701e-01	 3.9792259627e-01	-6.2326771302e-01
 9.6154082542e-01	 4.0696140982e-01	-1.1088523776e-01
 9.5767336271e-01	 4.1598086559e-01	 4.9314004942e-01
 9.5371415229e-01	 4.2497961549e-01	 1.1439477782e+00
 9.4966325312e-01	 4.3395630746e-01	 1.7939835731e+00
 9.4552074994e-01	 4.4290958605e-01	 2.3930265890e+00
 9.4128675344e-01	 4.5183809307e-01	 2.8882212292e+00
 9.8777860218e-01	 3.6465614567e-01	-5.9817393305e-01
 9.8434107123e-01	 3.7383592935e-01	-6.9105442645e-01
 9.8081110212e-01	 3.8300157821e-01	-5.6150727211e-01
 9.7718862773e-01	 3.9215175446e-01	-2.4667408512e-01
 9.7347360575e-01	 4.0128511404e-01	 2.1068308401e-01
 9.6966601897e-01	 4.1040030719e-01	 7.6475203268e-01
 9.6576587551e-01	 4.1949597900e-01	 1.3666909063e+00
 9.6177320904e-01	 4.2857076996e-01	 1.9646532782e+00
 9.5768807905e-01	 4.3762331660e-01	 2.5038178500e+00
 9.5351057097e-01	 4.4665225201e-01	 2.9264228067e+00
 9.4924079643e-01	 4.5565620653e-01	 3.1718048499e+00
 9.9605552561e-01	 3.6771172006e-01	 9.5507461658e-02
 9.9258919045e-01	 3.7696842418e-01	 1.6933434163e-01
 9.8902964256e-01	 3.8621087504e-01	 4.1873767055e-01
 9.8537681426e-01	 3.9543772364e-01	 8.0361464507e-01
 9.8163066289e-01	 4.0464761466e-01	 1.2802385089e+00
 9.7779117108e-01	 4.1383918703e-01	 1.8018822459e+00
 9.7385834702e-01	 4.2301107448e-01	 2.3188417273e+00
 9.6983222469e-01	 4.3216190611e-01	 2.7784634280e+00
 9.6571286404e-01	 4.4129030703e-01	 3.1251767468e+00
 9.6150035124e-01	 4.5039489888e-01	 3.3005309620e+00
 9.5719479885e-01	 4.5947430050e-01	 3.2432368411e+00
 1.0043324232e+00	 3.7076728492e-01	 1.0480562876e+00
 1.0008372840e+00	 3.8010090925e-01	 1.2781295186e+00
 9.9724815739e-01	 3.8942016187e-01	 1.6129961190e+00
 9.9356497527e-01	 3.9872368258e-01	 2.0156150818e+00
 9.8978769460e-01	 4.0801010480e-01	 2.4463182752e+00
 9.8591629786e-01	 4.1727805615e-01	 2.8628295910e+00
 9.8195079332e-01	 4.2652615900e-01	 3.2202881045e+00
 9.7789121521e-01	 4.3575303107e-01	 3.4712752823e+00
 9.7373762401e-01	 4.4495728603e-01	 3.5658462692e+00
 9.6949010660e-01	 4.5413753408e-01	 3.4515652752e+00
 9.6514877647e-01	 4.6329238258e-01	 3.0735450789e+00
 1.0126093115e+00	 3.7382284632e-01	 2.1901043610e+00
 1.0090853681e+00	 3.8323339076e-01	 2.5384139291e+00
 1.0054666629e+00	 3.9262944505e-01	 2.9047541072e+00
 1.0017531270e+00	 4.0200963779e-01	 3.2603195469e+00
 9.9794471706e-01	 4.1137259112e-01	 3.5744084044e+00
 9.9404141543e-01	 4.2071692137e-01	 3.8144399054e+00
 9.9004323043e-01	 4.3004123953e-01	 3.9459749113e+00
 9.8595019660e-01	 4.3934415195e-01	 3.9327395123e+00
 9.8176237489e-01	 4.4862426087e-01	 3.7366516675e+00
 9.7747985291e-01	 4.5788016503e-01	 3.3178509043e+00
 9.7310274507e-01	 4.6711046032e-01	 2.6347310866e+00
 1.0208862068e+00	 3.7687841031e-01	 3.4544388891e+00
 1.0173334593e+00	 3.8636587493e-01	 3.8564296123e+00
 1.0136851754e+00	 3.9583873097e-01	 4.1812930597e+00
 1.0099412857e+00	 4.0529559579e-01	 4.4129218374e+00
 1.0061017465e+00	 4.1473508031e-01	 4.5343760814e+00
 1.0021665399e+00	 4.2415578950e-01	 4.5278973543e+00
 9.9813567443e-01	 4.3355632305e-01	 4.3749240413e+00
 9.9400918483e-01	 4.4293527589e-01	 4.0561082559e+00
 9.8978713259e-01	 4.5229123883e-01	 3.5513342617e+00
 9.8546960600e-01	 4.6162279917e-01	 2.8397384112e+00
 9.8105672044e-01	 4.7092854131e-01	 1.8997306044e+00
 9.0151537777e-01	 4.3274696861e-01	-6.2438976836e-01
 8.9737349163e-01	 4.4127175214e-01	-6.5705739661e-01
 8.9314429419e-01	 4.4977021217e-01	-4.4141713887e-01
 8.8882796619e-01	 4.5824104362e-01	-2.5915306235e-02
 8.8442471375e-01	 4.6668294105e-01	 5.3883292625e-01
 8.7993476851e-01	 4.7509459936e-01	 1.2000893653e+00
 8.7535838762e-01	 4.8347471433e-01	 1.9030422601e+00
 8.7069585389e-01	 4.9182198323e-01	 2.5908593463e+00
 8.6594747579e-01	 5.0013510550e-01	 3.2047444364e+00
 8.6111358749e-01	 5.0841278331e-01	 3.6839975091e+00
 8.5619454885e-01	 5.1665372221e-01	 3.9660782431e+00
 9.0946986025e-01	 4.3656529304e-01	 2.4827062952e-01
 9.0529142836e-01	 4.4516529463e-01	 6.5731555065e-01
 9.0102491477e-01	 4.5373874046e-01	 1.1444744548e+00
 8.9667050184e-01	 4.6228431392e-01	 1.6851181425e+00
 8.9222839749e-01	 4.7080069808e-01	 2.2539215103e+00
 8.8769883541e-01	 4.7928657630e-01	 2.8248889241e+00
 8.8308207502e-01	 4.8774063285e-01	 3.3713809513e+00
 8.7837840162e-01	 4.9616155352e-01	 3.8661424288e+00
 8.7358812641e-01	 5.0454802626e-01	 4.2813318416e+00
 8.6871158650e-01	 5.1289874181e-01	 4.5885519846e+00
 8.6374914493e-01	 5.2121239428e-01	 4.7588818749e+00
 9.1742422329e-01	 4.4038356013e-01	 1.0697713913e+00
 9.1320924619e-01	 4.4905877865e-01	 1.6965929677e+00
 9.0890541702e-01	 4.5770720916e-01	 2.2841203291e+00
 9.0451291972e-01	 4.6632752351e-01	 2.8272386083e+00
 9.0003196405e-01	 4.7491839327e-01	 3.3213204411e+00
 8.9546278571e-01	 4.8347849028e-01	 3.7622340801e+00
 8.9080564643e-01	 4.9200648731e-01	 4.1463510384e+00
 8.8606083398e-01	 5.0050105864e-01	 4.4705532515e+00
 8.8122866229e-01	 5.0896088076e-01	 4.7322397436e+00
 8.7630947141e-01	 5.1738463294e-01	 4.9293327847e+00
 8.7130362757e-01	 5.2577099790e-01	 5.0602835283e+00
 9.2537848265e-01	 4.4420177745e-01	 1.8056064946e+00
 9.2112696081e-01	 4.5295221193e-01	 2.4679248863e+00
 9.1678581655e-01	 4.6167562613e-01	 3.0197199510e+00
 9.1235523538e-01	 4.7037068041e-01	 3.4712041234e+00
 9.0783542889e-01	 4.7903603480e-01	 3.8339764007e+00
 9.0322663483e-01	 4.8767034963e-01	 4.1210163585e+00
 8.9852911717e-01	 4.9627228617e-01	 4.3466762950e+00
 8.9374316621e-01	 5.0484050721e-01	 4.5266714973e+00
 8.8886909858e-01	 5.1337367775e-01	 4.6780686275e+00
 8.8390725729e-01	 5.2187046562e-01	 4.8192722296e+00
 8.7885801174e-01	 5.3032954210e-01	 4.9700093610e+00
 9.3333265411e-01	 4.4801995257e-01	 2.4224731749e+00
 9.2904458795e-01	 4.5684560217e-01	 2.9782451569e+00
 9.2466612900e-01	 4.6564399924e-01	 3.3920621927e+00
 9.2019746438e-01	 4.7441379262e-01	 3.6853888303e+00
 9.1563880750e-01	 4.8315363082e-01	 3.8816959191e+00
 9.1099039814e-01	 4.9186216266e-01	 4.0064436465e+00
 9.0625250257e-01	 5.0053803789e-01	 4.0870617180e+00
 9.0142541355e-01	 5.0917990782e-01	 4.1529266811e+00
 8.9650945044e-01	 5.1778642597e-01	 4.2353364019e+00
 8.9150495921e-01	 5.2635624872e-01	 4.3674817053e+00
 8.8641231243e-01	 5.3488803594e-01	 4.5844151964e+00
 9.4128675344e-01	 4.5183809307e-01	 2.8882212292e+00
 9.3696214329e-01	 4.6073895712e-01	 3.2342807852e+00
 9.3254636999e-01	 4.6961233637e-01	 3.4405851736e+00
 9.2803962227e-01	 4.7845686817e-01	 3.5358839662e+00
 9.2344211535e-01	 4.8727118950e-01	 3.5512783158e+00
 9.1875409106e-01	 4.9605393768e-01	 3.5201960872e+00
 9.1397581793e-01	 5.0480375093e-01	 3.4783635585e+00
 9.0910759122e-01	 5.1351926909e-01	 3.4637737017e+00
 9.0414973303e-01	 5.2219913419e-01	 3.5166510576e+00
 8.9910259224e-01	 5.3084199115e-01	 3.6794132272e+00
 8.9396654463e-01	 5.3944648844e-01	 3.9966290076e+00
 9.4924079643e-01	 4.5565620653e-01	 3.1718048499e+00
 9.4487964254e-01	 4.6463228448e-01	 3.2425607653e+00
 9.4042655516e-01	 4.7358064539e-01	 3.2034330456e+00
 9.3588172461e-01	 4.8249991508e-01	 3.0865937122e+00
 9.3124536793e-01	 4.9138871902e-01	 2.9266418898e+00
 9.2651772899e-01	 5.0024568300e-01	 2.7605740611e+00
 9.2169907858e-01	 5.0906943376e-01	 2.6277507269e+00
 9.1678971448e-01	 5.1785859961e-01	 2.5698594870e+00
 9.1178996149e-01	 5.2661181114e-01	 2.6308745645e+00
 9.0670017145e-01	 5.3532770181e-01	 2.8570128015e+00
 9.0152072331e-01	 5.4400490865e-01	 3.2966861633e+00
 9.5719479885e-01	 4.5947430050e-01	 3.2432368411e+00
 9.5279710140e-01	 4.6852559198e-01	 3.0094244390e+00
 9.4830670014e-01	 4.7754893417e-01	 2.7175098995e+00
 9.4372378695e-01	 4.8654294136e-01	 2.3993262050e+00
 9.3904858070e-01	 4.9550622753e-01	 2.0889437517e+00
 9.3428132731e-01	 5.0443740694e-01	 1.8226387178e+00
 9.2942229984e-01	 5.1333509482e-01	 1.6388580727e+00
 9.2447179856e-01	 5.2219790801e-01	 1.5781812512e+00
 9.1943015098e-01	 5.3102446559e-01	 1.6832785189e+00
 9.1429771191e-01	 5.3981338958e-01	 1.9988660644e+00
 9.0907486346e-01	 5.4856330561e-01	 2.5716578590e+00
 9.6514877647e-01	 4.6329238258e-01	 3.0735450789e+00
 9.6071453559e-01	 4.7241888735e-01	 2.5410294059e+00
 9.5618682055e-01	 4.8151721057e-01	 2.0185309611e+00
 9.5156582484e-01	 4.9058595505e-01	 1.5338799934e+00
 9.4685176915e-01	 4.9962372321e-01	 1.1166936669e+00
 9.4204490143e-01	 5.0862911782e-01	 7.9834548864e-01
 9.3714549703e-01	 5.1760074259e-01	 6.1193201349e-01
 9.3215385868e-01	 5.2653720287e-01	 5.9223685267e-01
 9.2707031665e-01	 5.3543710628e-01	 7.7569201895e-01
 9.2189522869e-01	 5.4429906338e-01	 1.2003366462e+00
 9.1662898006e-01	 5.5312168836e-01	 1.9057731257e+00
 9.7310274507e-01	 4.6711046032e-01	 2.6347310866e+00
 9.6863196080e-01	 4.7631217830e-01	 1.8433590143e+00
 9.6406693203e-01	 4.8548548248e-01	 1.1410712305e+00
 9.5940785384e-01	 4.9462896414e-01	 5.4812620052e-01
 9.5465494875e-01	 5.0374121422e-01	 8.5862254542e-02
 9.4980846675e-01	 5.1282082394e-01	-2.2332901447e-01
 9.4486868545e-01	 5.2186638553e-01	-3.5603105008e-01
 9.3983591010e-01	 5.3087649282e-01	-2.8783229536e-01
 9.3471047367e-01	 5.3984974197e-01	 6.6422158450e-03
 9.2949273685e-01	 5.4878473208e-01	 5.5369767869e-01
 9.2418308810e-01	 5.5768006594e-01	 1.3805347900e+00
 9.8105672044e-01	 4.7092854131e-01	 1.8997306044e+00
 9.7654939274e-01	 4.8020547255e-01	 9.2222945297e-01
 9.7194705020e-01	 4.8945375776e-01	 1.1861171299e-01
 9.6724988951e-01	 4.9867197668e-01	-5.0191336360e-01
 9.6245813498e-01	 5.0785870872e-01	-9.3001613643e-01
 9.5757203867e-01	 5.1701253362e-01	-1.1562663384e+00
 9.5259188044e-01	 5.2613203208e-01	-1.1711531194e+00
 9.4751796805e-01	 5.3521578645e-01	-9.6510533523e-01
 9.4235063717e-01	 5.4426238140e-01	-5.2851204256e-01
 9.3709025147e-01	 5.5327040460e-01	 1.4825683735e-01
 9.3173720256e-01	 5.6223844740e-01	 1.0748297254e+00
 8.5619454885e-01	 5.1665372221e-01	 3.9660782431e+00
 8.5119074566e-01	 5.2485663194e-01	 4.0085145275e+00
 8.4610259018e-01	 5.3302022751e-01	 3.8390690728e+00
 8.4093052051e-01	 5.4114322943e-01	 3.4988134203e+00
 8.3567500029e-01	 5.4922436409e-01	 3.0282361663e+00
 8.3033651862e-01	 5.5726236447e-01	 2.4671812773e+00
 8.2491558997e-01	 5.6525597072e-01	 1.8547869674e+00
 8.1941275406e-01	 5.7320393083e-01	 1.2294252442e+00
 8.1382857572e-01	 5.8110500120e-01	 6.2864222510e-01
 8.0816364470e-01	 5.8895794732e-01	 8.9099329628e-02
 8.0241857555e-01	 5.9676154436e-01	-3.5348455336e-01
 8.6374914493e-01	 5.2121239428e-01	 4.7588818749e+00
 8.5870119090e-01	 5.2948768203e-01	 4.7768141370e+00
 8.5356814030e-01	 5.3772330874e-01	 4.6570871355e+00
 8.4835043509e-01	 5.4591798361e-01	 4.4153119879e+00
 8.4304854300e-01	 5.5407042182e-01	 4.0664610006e+00
 8.3766295747e-01	 5.6217934515e-01	 3.6248422584e+00
 8.3219419749e-01	 5.7024348265e-01	 3.1040751102e+00
 8.2664280754e-01	 5.7826157124e-01	 2.5170665989e+00
 8.2100935744e-01	 5.8623235637e-01	 1.8759888805e+00
 8.1529444214e-01	 5.9415459263e-01	 1.1922576754e+00
 8.0949868162e-01	 6.0202704437e-01	 4.7651179359e-01
 8.7130362757e-01	 5.2577099790e-01	 5.0602835283e+00
 8.6621152335e-01	 5.3411866258e-01	 5.1204426832e+00
 8.6103357830e-01	 5.4242631935e-01	 5.1028301685e+00
 8.5577023824e-01	 5.5069266610e-01	 5.0023004085e+00
 8.5042197499e-01	 5.5891640678e-01	 4.8130436397e+00
 8.4498928630e-01	 5.6709625200e-01	 4.5285905023e+00
 8.3947269570e-01	 5.7523091968e-01	 4.1418177772e+00
 8.3387275245e-01	 5.8331913571e-01	 3.6449552691e+00
 8.2819003132e-01	 5.9135963455e-01	 3.0295938310e+00
 8.2242513250e-01	 5.9935115990e-01	 2.2866945241e+00
 8.1657868137e-01	 6.0729246531e-01	 1.4065989039e+00
 8.7885801174e-01	 5.3032954210e-01	 4.9700093610e+00
 8.7372175792e-01	 5.3874958278e-01	 5.1234205555e+00
 8.6849891900e-01	 5.4712926866e-01	 5.2449641948e+00
 8.6318994468e-01	 5.5546728636e-01	 5.3133147186e+00
 8.5779531088e-01	 5.6376232859e-01	 5.3064869127e+00
 8.5231551964e-01	 5.7201309477e-01	 5.2018643265e+00
 8.4675109905e-01	 5.8021829172e-01	 4.9762290025e+00
 8.4110260312e-01	 5.8837663426e-01	 4.6057924790e+00
 8.3537061162e-01	 5.9648684590e-01	 4.0662280227e+00
 8.2955572993e-01	 6.0454765944e-01	 3.3327040469e+00
 8.2365858884e-01	 6.1255781763e-01	 2.3799186634e+00
 8.8641231243e-01	 5.3488803594e-01	 4.5844151964e+00
 8.8123190949e-01	 5.4338045181e-01	 4.8669338214e+00
 8.7596417721e-01	 5.5183216601e-01	 5.1498451242e+00
 8.7060956914e-01	 5.6024185387e-01	 5.4000975390e+00
 8.6516856529e-01	 5.6860819685e-01	 5.5840137313e+00
 8.5964167202e-01	 5.7692988321e-01	 5.6673367583e+00
 8.5402942198e-01	 5.8520560864e-01	 5.6152776262e+00
 8.4833237391e-01	 5.9343407693e-01	 5.3925641737e+00
 8.4255111257e-01	 6.0161400060e-01	 4.9634912135e+00
 8.3668624855e-01	 6.0974410157e-01	 4.2919718525e+00
 8.3073841808e-01	 6.1782311177e-01	 3.3415899137e+00
 8.9396654463e-01	 5.3944648844e-01	 3.9966290076e+00
 8.8874199297e-01	 5.4801127884e-01	 4.4294540292e+00
 8.8342936772e-01	 5.5653502071e-01	 4.8816163830e+00
 8.7802912632e-01	 5.6501637808e-01	 5.3126738558e+00
 8.7254175284e-01	 5.7345402118e-01	 5.6816211616e+00
 8.6696775798e-01	 5.8184662707e-01	 5.9469478522e+00
 8.6130767891e-01	 5.9019288035e-01	 6.0666976265e+00
 8.5556207914e-01	 5.9849147375e-01	 5.9985289512e+00
 8.4973154842e-01	 6.0674110882e-01	 5.6997769002e+00
 8.4381670253e-01	 6.1494049658e-01	 5.1275161194e+00
 8.3781818312e-01	 6.2308835817e-01	 4.2386248134e+00
 9.0152072331e-01	 5.4400490865e-01	 3.2966861633e+00
 8.9625202324e-01	 5.5264207308e-01	 3.8868519189e+00
 8.9089450536e-01	 5.6123784211e-01	 4.5023015703e+00
 8.8544863094e-01	 5.6979086847e-01	 5.0994229304e+00
 8.7991488817e-01	 5.7829981118e-01	 5.6341317219e+00
 8.7429379204e-01	 5.8676333611e-01	 6.0619353321e+00
 8.6858588428e-01	 5.9518011673e-01	 6.3379978886e+00
 8.6279173315e-01	 6.0354883474e-01	 6.4172065593e+00
 8.5691193340e-01	 6.1186818072e-01	 6.2542389735e+00
 8.5094710599e-01	 6.2013685478e-01	 5.8036316585e+00
 8.4489789802e-01	 6.2835356728e-01	 5.0198493824e+00
 9.0907486346e-01	 5.4856330561e-01	 2.5716578590e+00
 9.0376201521e-01	 5.5727284370e-01	 3.3125053940e+00
 8.9835960492e-01	 5.6594063951e-01	 4.0718924314e+00
 8.9286809771e-01	 5.7456533452e-01	 4.8071465669e+00
 8.8728798588e-01	 5.8314557646e-01	 5.4752420693e+00
 8.8161978874e-01	 5.9168002007e-01	 6.0328636571e+00
 8.7586405253e-01	 6.0016732768e-01	 6.4364714403e+00
 8.7002135030e-01	 6.0860616994e-01	 6.6423669282e+00
 8.6409228175e-01	 6.1699522646e-01	 6.6067600007e+00
 8.5807747309e-01	 6.2533318649e-01	 6.2858367359e+00
 8.5197757680e-01	 6.3361874953e-01	 5.6358279834e+00
 9.1662898006e-01	 5.5312168836e-01	 1.9057731257e+00
 9.1127198378e-01	 5.6190359988e-01	 2.7774020902e+00
 9.0582468120e-01	 5.7064342226e-01	 3.6484324199e+00
 9.0028754136e-01	 5.7933978568e-01	 4.4811339456e+00
 8.9466106062e-01	 5.8799132664e-01	 5.2375692253e+00
 8.8894576260e-01	 5.9659668870e-01	 5.8796516011e+00
 8.8314219809e-01	 6.0515452308e-01	 6.3692041882e+00
 8.7725094490e-01	 6.1366348937e-01	 6.6680197042e+00
 8.7127260773e-01	 6.2212225623e-01	 6.7379210427e+00
 8.6520781796e-01	 6.3052950199e-01	 6.5408224942e+00
 8.5905723351e-01	 6.3888391537e-01	 6.0387915125e+00
 9.2418308810e-01	 5.5768006594e-01	 1.3805347900e+00
 9.1878194382e-01	 5.6653435081e-01	 2.3502368503e+00
 9.1328974903e-01	 5.7534619968e-01	 3.2880961021e+00
 9.0770697660e-01	 5.8411423142e-01	 4.1652232225e+00
 9.0203412699e-01	 5.9283707133e-01	 4.9526944841e+00
 8.9627172815e-01	 6.0151335176e-01	 5.6215984321e+00
 8.9042033540e-01	 6.1014171282e-01	 6.1430831811e+00
 8.8448053131e-01	 6.1872080308e-01	 6.4884042585e+00
 8.7845292556e-01	 6.2724928019e-01	 6.6289729151e+00
 8.7233815474e-01	 6.3572581161e-01	 6.5364048242e+00
 8.6613688220e-01	 6.4414907524e-01	 6.1825690859e+00
 9.3173720256e-01	 5.6223844740e-01	 1.0748297254e+00
 9.2629191025e-01	 5.7116510568e-01	 2.0975043948e+00
 9.2075482320e-01	 5.8004898109e-01	 3.0452646412e+00
 9.1512641814e-01	 5.8888868122e-01	 3.9018600766e+00
 9.0940719963e-01	 5.9768282013e-01	 4.6512051327e+00
 9.0359769993e-01	 6.0643001899e-01	 5.2774087713e+00
 8.9769847889e-01	 6.1512890680e-01	 5.7648044282e+00
 8.9171012387e-01	 6.2377812107e-01	 6.0979801415e+00
 8.8563324950e-01	 6.3237630850e-01	 6.2618088125e+00
 8.7946849759e-01	 6.4092212563e-01	 6.2414785473e+00
 8.7321653691e-01	 6.4941423958e-01	 6.0225230234e+00
 8.0241857555e-01	 5.9676154436e-01	-3.5348455336e-01
 7.9659301098e-01	 6.0451589078e-01	-5.9434843095e-01
 7.9068858747e-01	 6.1221844773e-01	-6.0048691101e-01
 7.8470599631e-01	 6.1986801809e-01	-4.4253881597e-01
 7.7864595270e-01	 6.2746341682e-01	-1.8810064431e-01
 7.7250919548e-01	 6.3500347160e-01	 9.8386901746e-02
 7.6629648686e-01	 6.4248702340e-01	 3.5574851719e-01
 7.6000861212e-01	 6.4991292707e-01	 5.2617981638e-01
 7.5364637927e-01	 6.5728005194e-01	 5.5534857558e-01
 7.4721061873e-01	 6.6458728233e-01	 3.9249150184e-01
 7.4070218296e-01	 6.7183351817e-01	-9.4936600592e-03
 8.0949868162e-01	 6.0202704437e-01	 4.7651179359e-01
 8.0362171543e-01	 6.0984981093e-01	-1.4031556767e-01
 7.9766519449e-01	 6.1762033107e-01	-5.5375655632e-01
 7.9162981619e-01	 6.2533739709e-01	-7.9260130831e-01
 7.8551630204e-01	 6.3299981350e-01	-8.8395100026e-01
 7.7932539740e-01	 6.4060639762e-01	-8.5316670273e-01
 7.7305787122e-01	 6.4815598022e-01	-7.2382039273e-01
 7.6671451568e-01	 6.5564740604e-01	-5.1764822521e-01
 7.6029614594e-01	 6.6307953443e-01	-2.5450615985e-01
 7.5380359974e-01	 6.7045123986e-01	 4.7671964092e-02
 7.4723773707e-01	 6.7776141254e-01	 3.7291381640e-01
 8.1657868137e-01	 6.0729246531e-01	 1.4065989039e+00
 8.1065031433e-01	 6.1518365099e-01	 5.3132038211e-01
 8.0464169675e-01	 6.2302213329e-01	-1.8664387073e-01
 7.9855353210e-01	 6.3080669396e-01	-7.4175207604e-01
 7.9238654822e-01	 6.3853612703e-01	-1.1279049604e+00
 7.8614149698e-01	 6.4620923952e-01	-1.3384462587e+00
 7.7981915404e-01	 6.5382485192e-01	-1.3661639373e+00
 7.7342031854e-01	 6.6138179891e-01	-1.2032921484e+00
 7.6694581276e-01	 6.6887892983e-01	-8.4151392356e-01
 7.6039648175e-01	 6.7631510933e-01	-2.7196461771e-01
 7.5377319304e-01	 6.8368921791e-01	 5.1476389172e-01
 8.2365858884e-01	 6.1255781763e-01	 2.3799186634e+00
 8.1767882162e-01	 6.2051742153e-01	 1.3488796998e+00
 8.1161810807e-01	 6.2842386512e-01	 4.1990929399e-01
 8.0547715777e-01	 6.3627591954e-01	-3.7444248037e-01
 7.9925670485e-01	 6.4407236842e-01	-1.0019815671e+00
 7.9295750771e-01	 6.5181200839e-01	-1.4309115667e+00
 7.8658034874e-01	 6.5949364974e-01	-1.6298749260e+00
 7.8012603401e-01	 6.6711611703e-01	-1.5679936175e+00
 7.7359539291e-01	 6.7467824964e-01	-1.2149092496e+00
 7.6698927784e-01	 6.8217890237e-01	-5.4082254821e-01
 7.6030856382e-01	 6.8961694601e-01	 4.8346784665e-01
 8.3073841808e-01	 6.1782311177e-01	 3.3415899137e+00
 8.2470725125e-01	 6.2585113314e-01	 2.2431655180e+00
 8.1859444231e-01	 6.3382553725e-01	 1.1877601745e+00
 8.1240070693e-01	 6.4174508470e-01	 2.2779525983e-01
 8.0612678556e-01	 6.4960854863e-01	-5.8536324279e-01
 7.9977344313e-01	 6.5741471535e-01	-1.2014771608e+00
 7.9334146873e-01	 6.6516238492e-01	-1.5715071973e+00
 7.8683167537e-01	 6.7285037179e-01	-1.6476825281e+00
 7.8024489958e-01	 6.8047750537e-01	-1.3835688203e+00
 7.7358200107e-01	 6.8804263062e-01	-7.3413456390e-01
 7.6684386240e-01	 6.9554460861e-01	 3.4418438941e-01
 8.3781818312e-01	 6.2308835817e-01	 4.2386248134e+00
 8.3173561715e-01	 6.3118479639e-01	 3.1473587713e+00
 8.2557071329e-01	 6.3922716041e-01	 2.0414466530e+00
 8.1932419332e-01	 6.4721420026e-01	 9.8622452679e-01
 8.1299680399e-01	 6.5514467864e-01	 4.5484140283e-02
 8.0658931674e-01	 6.6301737151e-01	-7.1862006988e-01
 8.0010252742e-01	 6.7083106870e-01	-1.2456619739e+00
 7.9353725594e-01	 6.7858457456e-01	-1.4770326002e+00
 7.8689434596e-01	 6.8627670852e-01	-1.3560266963e+00
 7.8017466452e-01	 6.9390630570e-01	-8.2792685643e-01
 7.7337910171e-01	 7.0147221747e-01	 1.5991491980e-01
 8.4489789802e-01	 6.2835356728e-01	 5.0198493824e+00
 8.3876393326e-01	 6.3651842186e-01	 3.9969184114e+00
 8.3254693485e-01	 6.4462874530e-01	 2.9080747540e+00
 8.2624763066e-01	 6.5268327709e-01	 1.8247869601e+00
 8.1986677375e-01	 6.6068076944e-01	 8.1669721186e-01
 8.1340514208e-01	 6.6861998798e-01	-4.8482178970e-02
 8.0686353822e-01	 6.7649971233e-01	-7.0506989766e-01
 8.0024278900e-01	 6.8431873672e-01	-1.0895142076e+00
 7.9354374523e-01	 6.9207587060e-01	-1.1404888223e+00
 7.8676728128e-01	 6.9976993924e-01	-7.9898590818e-01
 7.7991429473e-01	 7.0739978433e-01	-8.4060669963e-03
 8.5197757680e-01	 6.3361874953e-01	 5.6358279834e+00
 8.4579221352e-01	 6.4185202013e-01	 4.7294865773e+00
 8.3952312083e-01	 6.5003030265e-01	 3.7172117347e+00
 8.3317103268e-01	 6.5815232602e-01	 2.6699909483e+00
 8.2673670846e-01	 6.6621683200e-01	 1.6569067261e+00
 8.2022093265e-01	 6.7422257588e-01	 7.4503249356e-01
 8.1362451452e-01	 6.8216832704e-01	-6.6900021502e-04
 8.0694828787e-01	 6.9005286962e-01	-5.1744460460e-01
 8.0019311059e-01	 6.9787500309e-01	-7.4484685026e-01
 7.9335986441e-01	 7.0563354288e-01	-6.2482703387e-01
 7.8644945442e-01	 7.1332732096e-01	-1.0182515076e-01
 8.5905723351e-01	 6.3888391537e-01	 6.0387915125e+00
 8.5282047188e-01	 6.4718560177e-01	 5.2847984347e+00
 8.4649928506e-01	 6.5543184316e-01	 4.4007844434e+00
 8.4009441313e-01	 6.6362135790e-01	 3.4508056178e+00
 8.3360662177e-01	 6.7175287731e-01	 2.4971345248e+00
 8.2703670197e-01	 6.7982514632e-01	 1.6001653089e+00
 8.2038546976e-01	 6.8783692409e-01	 8.1832115763e-01
 8.1365376583e-01	 6.9578698465e-01	 2.0796429900e-01
 8.0684245523e-01	 7.0367411751e-01	-1.7669132022e-01
 7.9995242698e-01	 7.1149712824e-01	-2.8366452961e-01
 7.9298459374e-01	 7.1925483912e-01	-6.3288465523e-02
 8.6613688220e-01	 6.4414907524e-01	 6.1825690859e+00
 8.5984872227e-01	 6.5251917737e-01	 5.6045964154e+00
 8.5347544139e-01	 6.6083337755e-01	 4.8929826442e+00
 8.4701778573e-01	 6.6909038359e-01	 4.0985600019e+00
 8.4047652728e-01	 6.7728891634e-01	 3.2706955355e+00
 8.3385246357e-01	 6.8542771040e-01	 2.4572150345e+00
 8.2714641733e-01	 6.9350551471e-01	 1.7043289561e+00
 8.2035923619e-01	 7.0152109318e-01	 1.0565604732e+00
 8.1349179232e-01	 7.0947322535e-01	 5.5667576525e-01
 8.0654498209e-01	 7.1736070696e-01	 2.4561666328e-01
 7.9951972565e-01	 7.2518235056e-01	 1.6243575988e-01
 8.7321653691e-01	 6.4941423958e-01	 6.0225230234e+00
 8.6687697863e-01	 6.5785275749e-01	 5.6325486055e+00
 8.6045160364e-01	 6.6623491653e-01	 5.1301670236e+00
 8.5394116421e-01	 6.7455941392e-01	 4.5468470964e+00
 8.4734643864e-01	 6.8282496008e-01	 3.9131045159e+00
 8.4066823096e-01	 6.9103027925e-01	 3.2584541282e+00
 8.3390737064e-01	 6.9917411015e-01	 2.6113635907e+00
 8.2706471224e-01	 7.0725520659e-01	 1.9992084824e+00
 8.2014113507e-01	 7.1527233812e-01	 1.4482289372e+00
 8.1313754280e-01	 7.2322429065e-01	 9.8348786591e-01
 8.0605486311e-01	 7.3110986703e-01	 6.2883083169e-01
 7.4070218296e-01	 6.7183351817e-01	-9.4936600592e-03
 7.3412306872e-01	 6.7901646159e-01	-7.8067505405e-01
 7.2747306107e-01	 6.8613629255e-01	-1.9411762410e+00
 7.2075306414e-01	 6.9319197316e-01	-3.3746417695e+00
 7.1396400252e-01	 7.0018248325e-01	-4.9708705899e+00
 7.0710682082e-01	 7.0710682082e-01	-6.6259780056e+00
 7.0018248325e-01	 7.1396400252e-01	-8.2425488530e+00
 6.9319197316e-01	 7.2075306414e-01	-9.7297816521e+00
 6.8613629255e-01	 7.2747306107e-01	-1.1003623488e+01
 6.7901646159e-01	 7.3412306872e-01	-1.1986895400e+01
 6.7183351817e-01	 7.4070218296e-01	-1.2609408078e+01
 7.4723773707e-01	 6.7776141254e-01	 3.7291381640e-01
 7.4060057230e-01	 6.8500773437e-01	 5.1860314403e-01
 7.3389188859e-01	 6.9219038685e-01	 3.2789611973e-01
 7.2711259805e-01	 6.9930832296e-01	-1.4602961786e-01
 7.2026363343e-01	 7.0636051352e-01	-8.5001707576e-01
 7.1334594768e-01	 7.1334594768e-01	-1.7346470679e+00
 7.0636051352e-01	 7.2026363343e-01	-2.7543147159e+00
 6.9930832296e-01	 7.2711259805e-01	-3.8673007013e+00
 6.9219038685e-01	 7.3389188859e-01	-5.0358371533e+00
 6.8500773437e-01	 7.4060057230e-01	-6.2261680640e+00
 6.7776141254e-01	 7.4723773707e-01	-7.4084460625e+00
 7.5377319304e-01	 6.8368921791e-01	 5.1476389172e-01
 7.4707797860e-01	 6.9099891717e-01	 1.2816723015e+00
 7.4031061972e-01	 6.9824439023e-01	 1.7915493668e+00
 7.3347203646e-01	 7.0542458091e-01	 2.0475067924e+00
 7.2656316974e-01	 7.1253845101e-01	 2.0516121814e+00
 7.1958498085e-01	 7.1958498085e-01	 1.8079898136e+00
 7.1253845101e-01	 7.2656316974e-01	 1.3191880277e+00
 7.0542458091e-01	 7.3347203646e-01	 5.8616914899e-01
 6.9824439023e-01	 7.4031061972e-01	-3.9169852198e-01
 6.9099891717e-01	 7.4707797860e-01	-1.6165276610e+00
 6.8368921791e-01	 7.5377319304e-01	-3.0919214942e+00
 7.6030856382e-01	 6.8961694601e-01	 4.8346784665e-01
 7.5355530049e-01	 6.9699002189e-01	 1.6204103498e+00
 7.4672926719e-01	 7.0429831472e-01	 2.5923610979e+00
 7.3983139199e-01	 7.1154075915e-01	 3.3672898539e+00
 7.3286262395e-01	 7.1871630798e-01	 3.9077300694e+00
 7.2582393271e-01	 7.2582393271e-01	 4.1780829695e+00
 7.1871630798e-01	 7.3286262395e-01	 4.1463700677e+00
 7.1154075915e-01	 7.3983139199e-01	 3.7809055973e+00
 7.0429831472e-01	 7.4672926719e-01	 3.0504081503e+00
 6.9699002189e-01	 7.5355530049e-01	 1.9240930583e+00
 6.8961694601e-01	 7.6030856382e-01	 3.7153948570e-01
 7.6684386240e-01	 6.9554460861e-01	 3.4418438941e-01
 7.6003255079e-01	 7.0298106041e-01	 1.6394070598e+00
 7.5314784373e-01	 7.1035217231e-01	 2.8694803360e+00
 7.4619067724e-01	 7.1765686980e-01	 3.9721014470e+00
 7.3916200855e-01	 7.2489409669e-01	 4.8861977034e+00
 7.3206281563e-01	 7.3206281563e-01	 5.5458501157e+00
 7.2489409669e-01	 7.3916200855e-01	 5.8899753705e+00
 7.1765686980e-01	 7.4619067724e-01	 5.8621673750e+00
 7.1035217231e-01	 7.5314784373e-01	 5.4079665690e+00
 7.0298106041e-01	 7.6003255079e-01	 4.4748447240e+00
 6.9554460861e-01	 7.6684386240e-01	 3.0122657921e+00
 7.7337910171e-01	 7.0147221747e-01	 1.5991491980e-01
 7.6650974237e-01	 7.0897204461e-01	 1.4397628819e+00
 7.5956636207e-01	 7.1640597500e-01	 2.7535031663e+00
 7.5254990483e-01	 7.2377292499e-01	 4.0177419151e+00
 7.4546133604e-01	 7.3107182938e-01	 5.1515169695e+00
 7.3830164197e-01	 7.3830164197e-01	 6.0758323967e+00
 7.3107182938e-01	 7.4546133604e-01	 6.7073190785e+00
 7.2377292499e-01	 7.5254990483e-01	 6.9703034861e+00
 7.1640597500e-01	 7.5956636207e-01	 6.7943905281e+00
 7.0897204461e-01	 7.6650974237e-01	 6.1122277905e+00
 7.0147221747e-01	 7.7337910171e-01	 4.8595858979e+00
 7.7991429473e-01	 7.0739978433e-01	-8.4060669963e-03
 7.7298688807e-01	 7.1496298637e-01	 1.1192362199e+00
 7.6598483495e-01	 7.2245973482e-01	 2.3706833674e+00
 7.5890908738e-01	 7.2988893686e-01	 3.6504816842e+00
 7.5176061890e-01	 7.3724951831e-01	 4.8662143190e+00
 7.4454042413e-01	 7.4454042413e-01	 5.9286067744e+00
 7.3724951831e-01	 7.5176061890e-01	 6.7504096852e+00
 7.2988893686e-01	 7.5890908738e-01	 7.2408866192e+00
 7.2245973482e-01	 7.6598483495e-01	 7.3193177894e+00
 7.1496298637e-01	 7.7298688807e-01	 6.9102040131e+00
 7.0739978433e-01	 7.7991429473e-01	 5.9418700600e+00
 7.8644945442e-01	 7.1332732096e-01	-1.0182515076e-01
 7.7946400072e-01	 7.2095389757e-01	 7.7238234143e-01
 7.7240327509e-01	 7.2851346375e-01	 1.8431266459e+00
 7.6526823749e-01	 7.3600491754e-01	 3.0117104725e+00
 7.5805986963e-01	 7.4342717574e-01	 4.1826963402e+00
 7.5077917446e-01	 7.5077917446e-01	 5.2638838047e+00
 7.4342717574e-01	 7.5805986963e-01	 6.1669357760e+00
 7.3600491754e-01	 7.6526823749e-01	 6.8050079567e+00
 7.2851346375e-01	 7.7240327509e-01	 7.0887677448e+00
 7.2095389757e-01	 7.7946400072e-01	 6.9403022762e+00
 7.1332732096e-01	 7.8644945442e-01	 6.2865704003e+00
 7.9298459374e-01	 7.1925483912e-01	-6.3288465523e-02
 7.8594109319e-01	 7.2694479010e-01	 4.9068534162e-01
 7.7882169522e-01	 7.3456717382e-01	 1.2889616315e+00
 7.7162736778e-01	 7.4212087915e-01	 2.2381979566e+00
 7.6435910073e-01	 7.4960481390e-01	 3.2479177219e+00
 7.5701790534e-01	 7.5701790534e-01	 4.2312595335e+00
 7.4960481390e-01	 7.6435910073e-01	 5.1050404159e+00
 7.4212087915e-01	 7.7162736778e-01	 5.7896745570e+00
 7.3456717382e-01	 7.7882169522e-01	 6.2052908500e+00
 7.2694479010e-01	 7.8594109319e-01	 6.2717191359e+00
 7.1925483912e-01	 7.9298459374e-01	 5.9202589683e+00
 7.9951972565e-01	 7.2518235056e-01	 1.6243575988e-01
 7.9241817832e-01	 7.3293567584e-01	 3.6268355969e-01
 7.8524010808e-01	 7.4062087702e-01	 8.2250240245e-01
 7.7798649087e-01	 7.4823683383e-01	 1.4619765270e+00
 7.7065832468e-01	 7.5578244507e-01	 2.2040244552e+00
 7.6325662916e-01	 7.6325662916e-01	 2.9748770008e+00
 7.5578244507e-01	 7.7065832468e-01	 3.7037611478e+00
 7.4823683383e-01	 7.7798649087e-01	 4.3230005456e+00
 7.4062087702e-01	 7.8524010808e-01	 4.7681106682e+00
 7.3293567584e-01	 7.9241817832e-01	 4.9714143804e+00
 7.2518235056e-01	 7.9951972565e-01	 4.8686638994e+00
 8.0605486311e-01	 7.3110986703e-01	 6.2883083169e-01
 7.9889526895e-01	 7.3892656667e-01	 4.7408882204e-01
 7.9165852639e-01	 7.4667458537e-01	 5.5411211438e-01
 7.8434561935e-01	 7.5435279371e-01	 8.1075614006e-01
 7.7695755399e-01	 7.6196008148e-01	 1.1885688949e+00
 7.6949535827e-01	 7.6949535827e-01	 1.6341973159e+00
 7.6196008148e-01	 7.7695755399e-01	 2.0964372814e+00
 7.5435279371e-01	 7.8434561935e-01	 2.5263074142e+00
 7.4667458537e-01	 7.9165852639e-01	 2.8771195400e+00
 7.3892656667e-01	 7.9889526895e-01	 3.1042018925e+00
 7.3110986703e-01	 8.0605486311e-01	 3.1567037787e+00
 6.7183351817e-01	 7.4070218296e-01	-1.2609408078e+01
 6.6458728233e-01	 7.4721061873e-01	-1.2724759185e+01
 6.5728005194e-01	 7.5364637927e-01	-1.2309550999e+01
 6.4991292707e-01	 7.6000861212e-01	-1.1478446693e+01
 6.4248702340e-01	 7.6629648686e-01	-1.0339099146e+01
 6.3500347160e-01	 7.7250919548e-01	-8.9920241398e+00
 6.2746341682e-01	 7.7864595270e-01	-7.5304841063e+00
 6.1986801809e-01	 7.8470599631e-01	-6.0403825826e+00
 6.1221844773e-01	 7.9068858747e-01	-4.6001694716e+00
 6.0451589078e-01	 7.9659301098e-01	-3.2807572127e+00
 5.9676154436e-01	 8.0241857555e-01	-2.1454479289e+00
 6.7776141254e-01	 7.4723773707e-01	-7.4084460625e+00
 6.7045123986e-01	 7.5380359974e-01	-8.3294157824e+00
 6.6307953443e-01	 7.6029614594e-01	-8.7991593052e+00
 6.5564740604e-01	 7.6671451568e-01	-8.8829058652e+00
 6.4815598022e-01	 7.7305787122e-01	-8.6412182206e+00
 6.4060639762e-01	 7.7932539740e-01	-8.1299218545e+00
 6.3299981350e-01	 7.8551630204e-01	-7.4000411950e+00
 6.2533739709e-01	 7.9162981619e-01	-6.4977429183e+00
 6.1762033107e-01	 7.9766519449e-01	-5.4642863826e+00
 6.0984981093e-01	 8.0362171543e-01	-4.3359812311e+00
 6.0202704437e-01	 8.0949868162e-01	-3.1441521820e+00
 6.8368921791e-01	 7.5377319304e-01	-3.0919214942e+00
 6.7631510933e-01	 7.6039648175e-01	-4.5087861056e+00
 6.6887892983e-01	 7.6694581276e-01	-5.5712182399e+00
 6.6138179891e-01	 7.7342031854e-01	-6.3027374504e+00
 6.5382485192e-01	 7.7981915404e-01	-6.7241982378e+00
 6.4620923952e-01	 7.8614149698e-01	-6.8537668311e+00
 6.3853612703e-01	 7.9238654822e-01	-6.7069019565e+00
 6.3080669396e-01	 7.9855353210e-01	-6.2963395937e+00
 6.2302213329e-01	 8.0464169675e-01	-5.6320817139e+00
 6.1518365099e-01	 8.1065031433e-01	-4.7213889851e+00
 6.0729246531e-01	 8.1657868137e-01	-3.5687774232e+00
 6.8961694601e-01	 7.6030856382e-01	 3.7153948570e-01
 6.8217890237e-01	 7.6698927784e-01	-1.2837593043e+00
 6.7467824964e-01	 7.7359539291e-01	-2.6910594247e+00
 6.6711611703e-01	 7.8012603401e-01	-3.8397149865e+00
 6.5949364974e-01	 7.8658034874e-01	-4.7180803890e+00
 6.5181200839e-01	 7.9295750771e-01	-5.3135263763e+00
 6.4407236842e-01	 7.9925670485e-01	-5.6124575510e+00
 6.3627591954e-01	 8.0547715777e-01	-5.6003312963e+00
 6.2842386512e-01	 8.1161810807e-01	-5.2616780503e+00
 6.2051742153e-01	 8.1767882162e-01	-4.5801228790e+00
 6.1255781763e-01	 8.2365858884e-01	-3.5384082911e+00
 6.9554460861e-01	 7.6684386240e-01	 3.0122657921e+00
 6.8804263062e-01	 7.7358200107e-01	 1.3255113784e+00
 6.8047750537e-01	 7.8024489958e-01	-2.2176464520e-01
 6.7285037179e-01	 7.8683167537e-01	-1.5921212389e+00
 6.6516238492e-01	 7.9334146873e-01	-2.7484530071e+00
 6.5741471535e-01	 7.9977344313e-01	-3.6540373450e+00
 6.4960854863e-01	 8.0612678556e-01	-4.2725810092e+00
 6.4174508470e-01	 8.1240070693e-01	-4.5682660194e+00
 6.3382553725e-01	 8.1859444231e-01	-4.5057948017e+00
 6.2585113314e-01	 8.2470725125e-01	-4.0504344854e+00
 6.1782311177e-01	 8.3073841808e-01	-3.1680602681e+00
 7.0147221747e-01	 7.7337910171e-01	 4.8595858979e+00
 6.9390630570e-01	 7.8017466452e-01	 3.2995777303e+00
 6.8627670852e-01	 7.8689434596e-01	 1.7757391722e+00
 6.7858457456e-01	 7.9353725594e-01	 3.4510426049e-01
 6.7083106870e-01	 8.0010252742e-01	-9.3663987842e-01
 6.6301737151e-01	 8.0658931674e-01	-2.0152231961e+00
 6.5514467864e-01	 8.1299680399e-01	-2.8378607673e+00
 6.4721420026e-01	 8.1932419332e-01	-3.3533185908e+00
 6.3922716041e-01	 8.2557071329e-01	-3.5119770271e+00
 6.3118479639e-01	 8.3173561715e-01	-3.2658917633e+00
 6.2308835817e-01	 8.3781818312e-01	-2.5688521963e+00
 7.0739978433e-01	 7.7991429473e-01	 5.9418700600e+00
 6.9976993924e-01	 7.8676728128e-01	 4.6196672258e+00
 6.9207587060e-01	 7.9354374523e-01	 3.2425897543e+00
 6.8431873672e-01	 8.0024278900e-01	 1.8802251000e+00
 6.7649971233e-01	 8.0686353822e-01	 6.0012092881e-01
 6.6861998798e-01	 8.1340514208e-01	-5.3230011111e-01
 6.6068076944e-01	 8.1986677375e-01	-1.4538224341e+00
 6.5268327709e-01	 8.2624763066e-01	-2.1035162327e+00
 6.4462874530e-01	 8.3254693485e-01	-2.4228127296e+00
 6.3651842186e-01	 8.3876393326e-01	-2.3555758377e+00
 6.2835356728e-01	 8.4489789802e-01	-1.8481701100e+00
 7.1332732096e-01	 7.8644945442e-01	 6.2865704003e+00
 7.0563354288e-01	 7.9335986441e-01	 5.2676551232e+00
 6.9787500309e-01	 8.0019311059e-01	 4.1219037656e+00
 6.9005286962e-01	 8.0694828787e-01	 2.9245748650e+00
 6.8216832704e-01	 8.1362451452e-01	 1.7485071671e+00
 6.7422257588e-01	 8.2022093265e-01	 6.6402718380e-01
 6.6621683200e-01	 8.2673670846e-01	-2.6113947616e-01
 6.5815232602e-01	 8.3317103268e-01	-9.6195285002e-01
 6.5003030265e-01	 8.3952312083e-01	-1.3761392942e+00
 6.4185202013e-01	 8.4579221352e-01	-1.4442679521e+00
 6.3361874953e-01	 8.5197757680e-01	-1.1098228910e+00
 7.1925483912e-01	 7.9298459374e-01	 5.9202589683e+00
 7.1149712824e-01	 7.9995242698e-01	 5.2260379200e+00
 7.0367411751e-01	 8.0684245523e-01	 4.3586953219e+00
 6.9578698465e-01	 8.1365376583e-01	 3.3924306004e+00
 6.8783692409e-01	 8.2038546976e-01	 2.3989509242e+00
 6.7982514632e-01	 8.2703670197e-01	 1.4473792960e+00
 6.7175287731e-01	 8.3360662177e-01	 6.0416653412e-01
 6.6362135790e-01	 8.4009441313e-01	-6.6992702295e-02
 6.5543184316e-01	 8.4649928506e-01	-5.0523970096e-01
 6.4718560177e-01	 8.5282047188e-01	-6.5262716280e-01
 6.3888391537e-01	 8.5905723351e-01	-4.5419022203e-01
 7.2518235056e-01	 7.9951972565e-01	 4.8686638994e+00
 7.1736070696e-01	 8.0654498209e-01	 4.4779080883e+00
 7.0947322535e-01	 8.1349179232e-01	 3.8997984927e+00
 7.0152109318e-01	 8.2035923619e-01	 3.2008924799e+00
 6.9350551471e-01	 8.2714641733e-01	 2.4454850663e+00
 6.8542771040e-01	 8.3385246357e-01	 1.6955251871e+00
 6.7728891634e-01	 8.4047652728e-01	 1.0105355091e+00
 6.6909038359e-01	 8.4701778573e-01	 4.4753593084e-01
 6.6083337755e-01	 8.5347544139e-01	 6.0970902294e-02
 6.5251917737e-01	 8.5984872227e-01	-9.7359307469e-02
 6.4414907524e-01	 8.6613688220e-01	 2.1636719747e-02
 7.3110986703e-01	 8.0605486311e-01	 3.1567037787e+00
 7.2322429065e-01	 8.1313754280e-01	 3.0069300169e+00
 7.1527233812e-01	 8.2014113507e-01	 2.6937935617e+00
 7.0725520659e-01	 8.2706471224e-01	 2.2697693279e+00
 6.9917411015e-01	 8.3390737064e-01	 1.7855971576e+00
 6.9103027925e-01	 8.4066823096e-01	 1.2902138139e+00
 6.8282496008e-01	 8.4734643864e-01	 8.3068771362e-01
 6.7455941392e-01	 8.5394116421e-01	 4.5215652011e-01
 6.6623491653e-01	 8.6045160364e-01	 1.9776771473e-01
 6.5785275749e-01	 8.6687697863e-01	 1.0862225398e-01
 6.4941423958e-01	 8.7321653691e-01	 2.2372141501e-01
 5.9676154436e-01	 8.0241857555e-01	-2.1454479289e+00
 5.8895794732e-01	 8.0816364470e-01	-1.2973083273e+00
 5.8110500120e-01	 8.1382857572e-01	-7.6150210106e-01
 5.7320393083e-01	 8.1941275406e-01	-4.8181532039e-01
 5.6525597072e-01	 8.2491558997e-01	-4.0549371980e-01
 5.5726236447e-01	 8.3033651862e-01	-4.8329250592e-01
 5.4922436409e-01	 8.3567500029e-01	-6.6952075928e-01
 5.4114322943e-01	 8.4093052051e-01	-9.2208038935e-01
 5.3302022751e-01	 8.4610259018e-01	-1.2024996138e+00
 5.2485663194e-01	 8.5119074566e-01	-1.4759609445e+00
 5.1665372221e-01	 8.5619454885e-01	-1.7113236751e+00
 6.0202704437e-01	 8.0949868162e-01	-3.1441521820e+00
 5.9415459263e-01	 8.1529444214e-01	-2.0764797561e+00
 5.8623235637e-01	 8.2100935744e-01	-1.2764120883e+00
 5.7826157124e-01	 8.2664280754e-01	-7.0763660362e-01
 5.7024348265e-01	 8.3219419749e-01	-3.3633322324e-01
 5.6217934515e-01	 8.3766295747e-01	-1.3120636172e-01
 5.5407042182e-01	 8.4304854300e-01	-6.3513006787e-02
 5.4591798361e-01	 8.4835043509e-01	-1.0708685397e-01
 5.3772330874e-01	 8.5356814030e-01	-2.3835847859e-01
 5.2948768203e-01	 8.5870119090e-01	-4.3637153627e-01
 5.2121239428e-01	 8.6374914493e-01	-6.8279499168e-01
 6.0729246531e-01	 8.1657868137e-01	-3.5687774232e+00
 5.9935115990e-01	 8.2242513250e-01	-2.4124253449e+00
 5.9135963455e-01	 8.2819003132e-01	-1.4746303295e+00
 5.8331913571e-01	 8.3387275245e-01	-7.3590667606e-01
 5.7523091968e-01	 8.3947269570e-01	-1.7842259392e-01
 5.6709625200e-01	 8.4498928630e-01	 2.1398274475e-01
 5.5891640678e-01	 8.5042197499e-01	 4.5578478340e-01
 5.5069266610e-01	 8.5577023824e-01	 5.5976180512e-01
 5.4242631935e-01	 8.6103357830e-01	 5.3698581103e-01
 5.3411866258e-01	 8.6621152335e-01	 3.9681605570e-01
 5.2577099790e-01	 8.7130362757e-01	 1.4689523571e-01
 6.1255781763e-01	 8.2365858884e-01	-3.5384082911e+00
 6.0454765944e-01	 8.2955572993e-01	-2.3969974621e+00
 5.9648684590e-01	 8.3537061162e-01	-1.4236279334e+00
 5.8837663426e-01	 8.4110260312e-01	-6.1263461965e-01
 5.8021829172e-01	 8.4675109905e-01	 4.0706064460e-02
 5.7201309477e-01	 8.5231551964e-01	 5.4017127245e-01
 5.6376232859e-01	 8.5779531088e-01	 8.8858833510e-01
 5.5546728636e-01	 8.6318994468e-01	 1.0878329155e+00
 5.4712926866e-01	 8.6849891900e-01	 1.1388287127e+00
 5.3874958278e-01	 8.7372175792e-01	 1.0415487112e+00
 5.3032954210e-01	 8.7885801174e-01	 7.9501797127e-01
 6.1782311177e-01	 8.3073841808e-01	-3.1680602681e+00
 6.0974410157e-01	 8.3668624855e-01	-2.1189090352e+00
 6.0161400060e-01	 8.4255111257e-01	-1.1885689005e+00
 5.9343407693e-01	 8.4833237391e-01	-3.8225505490e-01
 5.8520560864e-01	 8.5402942198e-01	 2.9446437236e-01
 5.7692988321e-01	 8.5964167202e-01	 8.3567271691e-01
 5.6860819685e-01	 8.6516856529e-01	 1.2351098271e+00
 5.6024185387e-01	 8.7060956914e-01	 1.4861777555e+00
 5.5183216601e-01	 8.7596417721e-01	 1.5819470926e+00
 5.4338045181e-01	 8.8123190949e-01	 1.5151639366e+00
 5.3488803594e-01	 8.8641231243e-01	 1.2782574940e+00
 6.2308835817e-01	 8.3781818312e-01	-2.5688521963e+00
 6.1494049658e-01	 8.4381670253e-01	-1.6638667845e+00
 6.0674110882e-01	 8.4973154842e-01	-8.3240818537e-01
 5.9849147375e-01	 8.5556207914e-01	-8.7695240117e-02
 5.9019288035e-01	 8.6130767891e-01	 5.5716723383e-01
 5.8184662707e-01	 8.6696775798e-01	 1.0891994323e+00
 5.7345402118e-01	 8.7254175284e-01	 1.4955574936e+00
 5.6501637808e-01	 8.7802912632e-01	 1.7635443643e+00
 5.5653502071e-01	 8.8342936772e-01	 1.8806205961e+00
 5.4801127884e-01	 8.8874199297e-01	 1.8344150693e+00
 5.3944648844e-01	 8.9396654463e-01	 1.6127356364e+00
 6.2835356728e-01	 8.4489789802e-01	-1.8481701100e+00
 6.2013685478e-01	 8.5094710599e-01	-1.1146977581e+00
 6.1186818072e-01	 8.5691193340e-01	-4.1598483692e-01
 6.0354883474e-01	 8.6279173315e-01	 2.2956118653e-01
 5.9518011673e-01	 8.6858588428e-01	 8.0399440597e-01
 5.8676333611e-01	 8.7429379204e-01	 1.2898453385e+00
 5.7829981118e-01	 8.7991488817e-01	 1.6701352118e+00
 5.6979086847e-01	 8.8544863094e-01	 1.9283896716e+00
 5.6123784211e-01	 8.9089450536e-01	 2.0486519052e+00
 5.5264207308e-01	 8.9625202324e-01	 2.0154951760e+00
 5.4400490865e-01	 9.0152072331e-01	 1.8140347658e+00
 6.3361874953e-01	 8.5197757680e-01	-1.1098228910e+00
 6.2533318649e-01	 8.5807747309e-01	-5.5146955972e-01
 6.1699522646e-01	 8.6409228175e-01	 1.8894950642e-03
 6.0860616994e-01	 8.7002135030e-01	 5.2941362583e-01
 6.0016732768e-01	 8.7586405253e-01	 1.0109539609e+00
 5.9168002007e-01	 8.8161978874e-01	 1.4270694616e+00
 5.8314557646e-01	 8.8728798588e-01	 1.7590420760e+00
 5.7456533452e-01	 8.9286809771e-01	 1.9888909863e+00
 5.6594063951e-01	 8.9835960492e-01	 2.0993859482e+00
 5.5727284370e-01	 9.0376201521e-01	 2.0740597198e+00
 5.4856330561e-01	 9.0907486346e-01	 1.8972195806e+00
 6.3888391537e-01	 8.5905723351e-01	-4.5419022203e-01
 6.3052950199e-01	 8.6520781796e-01	-5.1604633956e-02
 6.2212225623e-01	 8.7127260773e-01	 3.6434641909e-01
 6.1366348937e-01	 8.7725094490e-01	 7.7308691386e-01
 6.0515452308e-01	 8.8314219809e-01	 1.1548475305e+00
 5.9659668870e-01	 8.8894576260e-01	 1.4906802593e+00
 5.8799132664e-01	 8.9466106062e-01	 1.7624719613e+00
 5.7933978568e-01	 9.0028754136e-01	 1.9529568816e+00
 5.7064342226e-01	 9.0582468120e-01	 2.0457281214e+00
 5.6190359988e-01	 9.1127198378e-01	 2.0252480684e+00
 5.5312168836e-01	 9.1662898006e-01	 1.8768577917e+00
 6.4414907524e-01	 8.6613688220e-01	 2.1636719747e-02
 6.3572581161e-01	 8.7233815474e-01	 3.1001104782e-01
 6.2724928019e-01	 8.7845292556e-01	 6.1638077523e-01
 6.1872080308e-01	 8.8448053131e-01	 9.2307652473e-01
 6.1014171282e-01	 8.9042033540e-01	 1.2132372311e+00
 6.0151335176e-01	 8.9627172815e-01	 1.4708206861e+00
 5.9283707133e-01	 9.0203412699e-01	 1.6806130745e+00
 5.8411423142e-01	 9.0770697660e-01	 1.8282375100e+00
 5.7534619968e-01	 9.1328974903e-01	 1.9001615804e+00
 5.6653435081e-01	 9.1878194382e-01	 1.8837039099e+00
 5.5768006594e-01	 9.2418308810e-01	 1.7670397509e+00
 6.4941423958e-01	 8.7321653691e-01	 2.2372141501e-01
 6.4092212563e-01	 8.7946849759e-01	 4.6092458278e-01
 6.3237630850e-01	 8.8563324950e-01	 7.0477448820e-01
 6.2377812107e-01	 8.9171012387e-01	 9.4309641952e-01
 6.1512890680e-01	 8.9769847889e-01	 1.1644141732e+00
 6.0643001899e-01	 9.0359769993e-01	 1.3579539557e+00
 5.9768282013e-01	 9.0940719963e-01	 1.5136474957e+00
 5.8888868122e-01	 9.1512641814e-01	 1.6221343830e+00
 5.8004898109e-01	 9.2075482320e-01	 1.6747636537e+00
 5.7116510568e-01	 9.2629191025e-01	 1.6635946381e+00
 5.6223844740e-01	 9.3173720256e-01	 1.5813970893e+00
 5.1665372221e-01	 8.5619454885e-01	-1.7113236751e+00
 5.0841278331e-01	 8.6111358749e-01	-1.8931611659e+00
 5.0013510550e-01	 8.6594747579e-01	-2.0329612217e+00
 4.9182198323e-01	 8.7069585389e-01	-2.1422906447e+00
 4.8347471433e-01	 8.7535838762e-01	-2.2321329405e+00
 4.7509459936e-01	 8.7993476851e-01	-2.3128806232e+00
 4.6668294105e-01	 8.8442471375e-01	-2.3943282535e+00
 4.5824104362e-01	 8.8882796619e-01	-2.4856662093e+00
 4.4977021217e-01	 8.9314429419e-01	-2.5954751899e+00
 4.4127175214e-01	 8.9737349163e-01	-2.7317214529e+00
 4.3274696861e-01	 9.0151537777e-01	-2.9017527830e+00
 5.2121239428e-01	 8.6374914493e-01	-6.8279499168e-01
 5.1289874181e-01	 8.6871158650e-01	-9.2910674884e-01
 5.0454802626e-01	 8.7358812641e-01	-1.1419186506e+00
 4.9616155352e-01	 8.7837840162e-01	-1.3272448165e+00
 4.8774063285e-01	 8.8308207502e-01	-1.4906575127e+00
 4.7928657630e-01	 8.8769883541e-01	-1.6372853718e+00
 4.7080069808e-01	 8.9222839749e-01	-1.7718120697e+00
 4.6228431392e-01	 8.9667050184e-01	-1.8984754561e+00
 4.5373874046e-01	 9.0102491477e-01	-2.0210671331e+00
 4.4516529463e-01	 9.0529142836e-01	-2.1429324766e+00
 4.3656529304e-01	 9.0946986025e-01	-2.2669710960e+00
 5.2577099790e-01	 8.7130362757e-01	 1.4689523571e-01
 5.1738463294e-01	 8.7630947141e-01	-1.4208500492e-01
 5.0896088076e-01	 8.8122866229e-01	-4.0489978825e-01
 5.0050105864e-01	 8.8606083398e-01	-6.4315718840e-01
 4.9200648731e-01	 8.9080564643e-01	-8.5815034669e-01
 4.8347849028e-01	 8.9546278571e-01	-1.0508602638e+00
 4.7491839327e-01	 9.0003196405e-01	-1.2219588107e+00
 4.6632752351e-01	 9.0451291972e-01	-1.3718119492e+00
 4.5770720916e-01	 9.0890541702e-01	-1.5004831533e+00
 4.4905877865e-01	 9.1320924619e-01	-1.6077370234e+00
 4.4038356013e-01	 9.1742422329e-01	-1.6930430860e+00
 5.3032954210e-01	 8.7885801174e-01	 7.9501797127e-01
 5.2187046562e-01	 8.8390725729e-01	 4.8291433602e-01
 5.1337367775e-01	 8.8886909858e-01	 1.9105429248e-01
 5.0484050721e-01	 8.9374316621e-01	-7.8882351303e-02
 4.9627228617e-01	 8.9852911717e-01	-3.2501355895e-01
 4.8767034963e-01	 9.0322663483e-01	-5.4526110955e-01
 4.7903603480e-01	 9.0783542889e-01	-7.3735665515e-01
 4.7037068041e-01	 9.1235523538e-01	-8.9884778029e-01
 4.6167562613e-01	 9.1678581655e-01	-1.0271040526e+00
 4.5295221193e-01	 9.2112696081e-01	-1.1193230553e+00
 4.4420177745e-01	 9.2537848265e-01	-1.1725363928e+00
 5.3488803594e-01	 8.8641231243e-01	 1.2782574940e+00
 5.2635624872e-01	 8.9150495921e-01	 9.6039159359e-01
 5.1778642597e-01	 8.9650945044e-01	 6.5846218491e-01
 5.0917990782e-01	 9.0142541355e-01	 3.7634630845e-01
 5.0053803789e-01	 9.0625250257e-01	 1.1802444699e-01
 4.9186216266e-01	 9.1099039814e-01	-1.1242746741e-01
 4.8315363082e-01	 9.1563880750e-01	-3.1084588872e-01
 4.7441379262e-01	 9.2019746438e-01	-4.7298732213e-01
 4.6564399924e-01	 9.2466612900e-01	-5.9453580756e-01
 4.5684560217e-01	 9.2904458795e-01	-6.7111021223e-01
 4.4801995257e-01	 9.3333265411e-01	-6.9827132385e-01
 5.3944648844e-01	 8.9396654463e-01	 1.6127356364e+00
 5.3084199115e-01	 8.9910259224e-01	 1.3043581237e+00
 5.2219913419e-01	 9.0414973303e-01	 1.0094201852e+00
 5.1351926909e-01	 9.0910759122e-01	 7.3293203798e-01
 5.0480375093e-01	 9.1397581793e-01	 4.7992218581e-01
 4.9605393768e-01	 9.1875409106e-01	 2.5542876146e-01
 4.8727118950e-01	 9.2344211535e-01	 6.4491164302e-02
 4.7845686817e-01	 9.2803962227e-01	-8.7857994089e-02
 4.6961233637e-01	 9.3254636999e-01	-1.9660062671e-01
 4.6073895712e-01	 9.3696214329e-01	-2.5674058184e-01
 4.5183809307e-01	 9.4128675344e-01	-2.6331072128e-01
 5.4400490865e-01	 9.0152072331e-01	 1.8140347658e+00
 5.3532770181e-01	 9.0670017145e-01	 1.5283562123e+00
 5.2661181114e-01	 9.1178996149e-01	 1.2556193850e+00
 5.1785859961e-01	 9.1678971448e-01	 1.0009293350e+00
 5.0906943376e-01	 9.2169907858e-01	 7.6933759635e-01
 5.0024568300e-01	 9.2651772899e-01	 5.6583413020e-01
 4.9138871902e-01	 9.3124536793e-01	 3.9533966962e-01
 4.8249991508e-01	 9.3588172461e-01	 2.6269847531e-01
 4.7358064539e-01	 9.4042655516e-01	 1.7267150941e-01
 4.6463228448e-01	 9.4487964254e-01	 1.2993003298e-01
 4.5565620653e-01	 9.4924079643e-01	 1.3904963035e-01
 5.4856330561e-01	 9.0907486346e-01	 1.8972195806e+00
 5.3981338958e-01	 9.1429771191e-01	 1.6454779388e+00
 5.3102446559e-01	 9.1943015098e-01	 1.4083618747e+00
 5.2219790801e-01	 9.2447179856e-01	 1.1900578002e+00
 5.1333509482e-01	 9.2942229984e-01	 9.9463988890e-01
 5.0443740694e-01	 9.3428132731e-01	 8.2606387091e-01
 4.9550622753e-01	 9.3904858070e-01	 6.8816130286e-01
 4.8654294136e-01	 9.4372378695e-01	 5.8463431708e-01
 4.7754893417e-01	 9.4830670014e-01	 5.1905085421e-01
 4.6852559198e-01	 9.5279710140e-01	 4.9484038007e-01
 4.5947430050e-01	 9.5719479885e-01	 5.1529008595e-01
 5.5312168836e-01	 9.1662898006e-01	 1.8768577917e+00
 5.4429906338e-01	 9.2189522869e-01	 1.6683830708e+00
 5.3543710628e-01	 9.2707031665e-01	 1.4785761098e+00
 5.2653720287e-01	 9.3215385868e-01	 1.3097152697e+00
 5.1760074259e-01	 9.3714549703e-01	 1.1639207723e+00
 5.0862911782e-01	 9.4204490143e-01	 1.0431515798e+00
 4.9962372321e-01	 9.4685176915e-01	 9.4920279030e-01
 4.9058595505e-01	 9.5156582484e-01	 8.8370354913e-01
 4.8151721057e-01	 9.5618682055e-01	 8.4811547302e-01
 4.7241888735e-01	 9.6071453559e-01	 8.4373158338e-01
 4.6329238258e-01	 9.6514877647e-01	 8.7167574157e-01
 5.5768006594e-01	 9.2418308810e-01	 1.7670397509e+00
 5.4878473208e-01	 9.2949273685e-01	 1.6093160438e+00
 5.3984974197e-01	 9.3471047367e-01	 1.4768314876e+00
 5.3087649282e-01	 9.3983591010e-01	 1.3689902675e+00
 5.2186638553e-01	 9.4486868545e-01	 1.2850050960e+00
 5.1282082394e-01	 9.4980846675e-01	 1.2238983938e+00
 5.0374121422e-01	 9.5465494875e-01	 1.1845039980e+00
 4.9462896414e-01	 9.5940785384e-01	 1.1654693875e+00
 4.8548548248e-01	 9.6406693203e-01	 1.1652584178e+00
 4.7631217830e-01	 9.6863196080e-01	 1.1821545533e+00
 4.6711046032e-01	 9.7310274507e-01	 1.2142645834e+00
 5.6223844740e-01	 9.3173720256e-01	 1.5813970893e+00
 5.5327040460e-01	 9.3709025147e-01	 1.4801220792e+00
 5.4426238140e-01	 9.4235063717e-01	 1.4133521798e+00
 5.3521578645e-01	 9.4751796805e-01	 1.3766738193e+00
 5.2613203208e-01	 9.5259188044e-01	 1.3654609410e+00
 5.1701253362e-01	 9.5757203867e-01	 1.3748816882e+00
 5.0785870872e-01	 9.6245813498e-01	 1.3999055950e+00
 4.9867197668e-01	 9.6724988951e-01	 1.4353112651e+00
 4.8945375776e-01	 9.7194705020e-01	 1.4756945212e+00
 4.8020547255e-01	 9.7654939274e-01	 1.5154770058e+00
 4.7092854131e-01	 9.8105672044e-01	 1.5489152095e+00
 4.3274696861e-01	 9.0151537777e-01	-2.9017527830e+00
 4.2419571008e-01	 9.0557047888e-01	-3.0787913417e+00
 4.1562072663e-01	 9.0953795245e-01	-3.2271153287e+00
 4.0702331907e-01	 9.1341769248e-01	-3.3405874092e+00
 3.9840478557e-01	 9.1720961780e-01	-3.4134733607e+00
 3.8976642107e-01	 9.2091367195e-01	-3.4404449665e+00
 3.8110951670e-01	 9.2452982293e-01	-3.4165821687e+00
 3.7243535926e-01	 9.2805806304e-01	-3.3373744962e+00
 3.6374523066e-01	 9.3149840861e-01	-3.1928949862e+00
 3.5504040738e-01	 9.3485089983e-01	-2.9661271829e+00
 3.4632215993e-01	 9.3811560045e-01	-2.6535812350e+00
 4.3656529304e-01	 9.0946986025e-01	-2.2669710960e+00
 4.2793858285e-01	 9.1356074138e-01	-2.3735015177e+00
 4.1928793839e-01	 9.1756322178e-01	-2.4396168434e+00
 4.1061467198e-01	 9.2147719453e-01	-2.4633534542e+00
 4.0192009321e-01	 9.2530257775e-01	-2.4430728541e+00
 3.9320550847e-01	 9.2903931446e-01	-2.3774601067e+00
 3.8447222027e-01	 9.3268737239e-01	-2.2655216973e+00
 3.7572152678e-01	 9.3624674377e-01	-2.1065828385e+00
 3.6695472120e-01	 9.3971744509e-01	-1.8987148428e+00
 3.5817309127e-01	 9.4309951687e-01	-1.6269654944e+00
 3.4937791874e-01	 9.4639302343e-01	-1.2881728608e+00
 4.4038356013e-01	 9.1742422329e-01	-1.6930430860e+00
 4.3168139940e-01	 9.2155088388e-01	-1.7422084931e+00
 4.2295509508e-01	 9.2558837060e-01	-1.7422676258e+00
 4.1420597095e-01	 9.2953657555e-01	-1.6945404755e+00
 4.0543534806e-01	 9.3339541616e-01	-1.6005977526e+00
 3.9664454422e-01	 9.3716483494e-01	-1.4622559584e+00
 3.8783487335e-01	 9.4084479935e-01	-1.2815720264e+00
 3.7900764494e-01	 9.4443530154e-01	-1.0608375543e+00
 3.7016416353e-01	 9.4793635814e-01	-8.0256521359e-01
 3.6130572813e-01	 9.5134801004e-01	-4.9862765198e-01
 3.5243363166e-01	 9.5467032212e-01	-1.4243816798e-01
 4.4420177745e-01	 9.2537848265e-01	-1.1725363928e+00
 4.3542416717e-01	 9.2954092225e-01	-1.1765971973e+00
 4.2662220398e-01	 9.3361341482e-01	-1.1258049954e+00
 4.1779722311e-01	 9.3759585153e-01	-1.0238957655e+00
 4.0895055710e-01	 9.4148814909e-01	-8.7478528082e-01
 4.0008353515e-01	 9.4529024952e-01	-6.8256189239e-01
 3.9119748259e-01	 9.4900211999e-01	-4.5147900533e-01
 3.8229372027e-01	 9.5262375257e-01	-1.8594726978e-01
 3.7337356404e-01	 9.5615516407e-01	 1.0947348918e-01
 3.6443832415e-01	 9.5959639570e-01	 4.3477727095e-01
 3.5548930476e-01	 9.6294751292e-01	 8.0019712575e-01
 4.4801995257e-01	 9.3333265411e-01	-6.9827132385e-01
 4.3916689358e-01	 9.3753087232e-01	-6.6863507123e-01
 4.3028927234e-01	 9.4163837035e-01	-5.8128075429e-01
 4.2138843558e-01	 9.4565503845e-01	-4.4151444124e-01
 4.1246572728e-01	 9.4958079259e-01	-2.5475444853e-01
 4.0352248808e-01	 9.5341557431e-01	-2.6522896974e-02
 3.9456005467e-01	 9.5715935048e-01	 2.3756293808e-01
 3.8557975929e-01	 9.6081211312e-01	 5.3179945928e-01
 3.7658292907e-01	 9.6437387917e-01	 8.5040573821e-01
 3.6757088555e-01	 9.6784469021e-01	 1.1885924174e+00
 3.5854494408e-01	 9.7122461225e-01	 1.5557383007e+00
 4.5183809307e-01	 9.4128675344e-01	-2.6331072128e-01
 4.4290958605e-01	 9.4552074994e-01	-2.1056065174e-01
 4.3395630746e-01	 9.4966325312e-01	-1.0004839523e-01
 4.2497961549e-01	 9.5371415229e-01	 6.2174785213e-02
 4.1598086559e-01	 9.5767336271e-01	 2.7000964429e-01
 4.0696140982e-01	 9.6154082542e-01	 5.1731757983e-01
 3.9792259627e-01	 9.6531650701e-01	 7.9792938342e-01
 3.8886576851e-01	 9.6900039943e-01	 1.1056540934e+00
 3.7979226501e-01	 9.7259251976e-01	 1.4342879268e+00
 3.7070341855e-01	 9.7609290993e-01	 1.7776232671e+00
 3.6160055570e-01	 9.7950163653e-01	 2.1396448640e+00
 4.5565620653e-01	 9.4924079643e-01	 1.3904963035e-01
 4.4665225201e-01	 9.5351057097e-01	 2.0512723883e-01
 4.3762331660e-01	 9.5768807905e-01	 3.2624901610e-01
 4.2857076996e-01	 9.6177320904e-01	 4.9642308924e-01
 4.1949597900e-01	 9.6576587551e-01	 7.0967068292e-01
 4.1040030719e-01	 9.6966601897e-01	 9.6003389518e-01
 4.0128511404e-01	 9.7347360575e-01	 1.2415835380e+00
 3.9215175446e-01	 9.7718862773e-01	 1.5484270220e+00
 3.8300157821e-01	 9.8081110212e-01	 1.8747162630e+00
 3.7383592935e-01	 9.8434107123e-01	 2.2146555904e+00
 3.6465614567e-01	 9.8777860218e-01	 2.5668525766e+00
 4.5947430050e-01	 9.5719479885e-01	 5.1529008595e-01
 4.5039489888e-01	 9.6150035124e-01	 5.8567973258e-01
 4.4129030703e-01	 9.6571286404e-01	 7.0569032329e-01
 4.3216190611e-01	 9.6983222469e-01	 8.7017431352e-01
 4.2301107448e-01	 9.7385834702e-01	 1.0740552410e+00
 4.1383918703e-01	 9.7779117108e-01	 1.3123336349e+00
 4.0464761466e-01	 9.8163066289e-01	 1.5800929493e+00
 3.9543772364e-01	 9.8537681426e-01	 1.8725055042e+00
 3.8621087504e-01	 9.8902964256e-01	 2.1848384139e+00
 3.7696842418e-01	 9.9258919045e-01	 2.5124594868e+00
 3.6771172006e-01	 9.9605552561e-01	 2.8517943503e+00
 4.6329238258e-01	 9.6514877647e-01	 8.7167574157e-01
 4.5413753408e-01	 9.6949010660e-01	 9.3810761864e-01
 4.4495728603e-01	 9.7373762401e-01	 1.0460871629e+00
 4.3575303107e-01	 9.7789121521e-01	 1.1920770853e+00
 4.2652615900e-01	 9.8195079332e-01	 1.3726661563e+00
 4.1727805615e-01	 9.8591629786e-01	 1.5845722447e+00
 4.0801010480e-01	 9.8978769460e-01	 1.8246453613e+00
 3.9872368258e-01	 9.9356497527e-01	 2.0898706929e+00
 3.8942016187e-01	 9.9724815739e-01	 2.3773716135e+00
 3.8010090925e-01	 1.0008372840e+00	 2.6844126585e+00
 3.7076728492e-01	 1.0043324232e+00	 3.0084024459e+00
 4.6711046032e-01	 9.7310274507e-01	 1.2142645834e+00
 4.5788016503e-01	 9.7747985291e-01	 1.2691905393e+00
 4.4862426087e-01	 9.8176237489e-01	 1.3549942843e+00
 4.3934415195e-01	 9.8595019660e-01	 1.4704963096e+00
 4.3004123953e-01	 9.9004323043e-01	 1.6146952204e+00
 4.2071692137e-01	 9.9404141543e-01	 1.7867669143e+00
 4.1137259112e-01	 9.9794471706e-01	 1.9860637641e+00
 4.0200963779e-01	 1.0017531270e+00	 2.2121137958e+00
 3.9262944505e-01	 1.0054666629e+00	 2.4646198549e+00
 3.8323339076e-01	 1.0090853681e+00	 2.7434587504e+00
 3.7382284632e-01	 1.0126093115e+00	 3.0486803680e+00
 4.7092854131e-01	 9.8105672044e-01	 1.5489152095e+00
 4.6162279917e-01	 9.8546960600e-01	 1.5854857085e+00
 4.5229123883e-01	 9.8978713259e-01	 1.6397193370e+00
 4.4293527589e-01	 9.9400918483e-01	 1.7135240734e+00
 4.3355632305e-01	 9.9813567443e-01	 1.8090352225e+00
 4.2415578950e-01	 1.0021665399e+00	 1.9286097577e+00
 4.1473508031e-01	 1.0061017465e+00	 2.0748206836e+00
 4.0529559579e-01	 1.0099412857e+00	 2.2504514223e+00
 3.9583873097e-01	 1.0136851754e+00	 2.4584902179e+00
 3.8636587493e-01	 1.0173334593e+00	 2.7021245590e+00
 3.7687841031e-01	 1.0208862068e+00	 2.9847356145e+00
 3.4632215993e-01	 9.3811560045e-01	-2.6535812350e+00
 3.3759323727e-01	 9.4129206486e-01	-2.3294879930e+00
 3.2885341468e-01	 9.4438096497e-01	-2.0711135977e+00
 3.2010394073e-01	 9.4738243296e-01	-1.8804682314e+00
 3.1134605611e-01	 9.5029662344e-01	-1.7594441763e+00
 3.0258099304e-01	 9.5312371316e-01	-1.7098165002e+00
 2.9380997494e-01	 9.5586390071e-01	-1.7332440219e+00
 2.8503421588e-01	 9.5851740614e-01	-1.8312705504e+00
 2.7625492019e-01	 9.6108447067e-01	-2.0053263885e+00
 2.6747328204e-01	 9.6356535632e-01	-2.2567300904e+00
 2.5869048500e-01	 9.6596034556e-01	-2.5866904634e+00
 3.4937791874e-01	 9.4639302343e-01	-1.2881728608e+00
 3.4057197680e-01	 9.4959751524e-01	-9.5395189077e-01
 3.3175503876e-01	 9.5271367013e-01	-6.9655741517e-01
 3.2292836420e-01	 9.5574162144e-01	-5.1783306642e-01
 3.1409320475e-01	 9.5868152515e-01	-4.1943973173e-01
 3.0525080353e-01	 9.6153355958e-01	-4.0285737535e-01
 2.9640239472e-01	 9.6429792505e-01	-4.6938721785e-01
 2.8754920312e-01	 9.6697484357e-01	-6.2015426162e-01
 2.7869244369e-01	 9.6956455848e-01	-8.5611014993e-01
 2.6983332113e-01	 9.7206733412e-01	-1.1780363465e+00
 2.6097302946e-01	 9.7448345545e-01	-1.5865476206e+00
 3.5243363166e-01	 9.5467032212e-01	-1.4243816798e-01
 3.4355067160e-01	 9.5790284089e-01	 1.9737804294e-01
 3.3465661926e-01	 9.6104625015e-01	 4.5333915579e-01
 3.2575274526e-01	 9.6410068439e-01	 6.2367261094e-01
 3.1684031214e-01	 9.6706630095e-01	 7.0683320337e-01
 3.0792057392e-01	 9.6994327971e-01	 7.0150058138e-01
 2.9899477557e-01	 9.7273182274e-01	 6.0657632945e-01
 2.9006415260e-01	 9.7543215400e-01	 4.2118064890e-01
 2.8112993059e-01	 9.7804451896e-01	 1.4464865066e-01
 2.7219332478e-01	 9.8056918426e-01	-2.2347372363e-01
 2.6325553964e-01	 9.8300643735e-01	-6.8343413539e-01
 3.5548930476e-01	 9.6294751292e-01	 8.0019712575e-01
 3.4652932758e-01	 9.6620805830e-01	 1.1414234872e+00
 3.3755816195e-01	 9.6937872157e-01	 1.3953021253e+00
 3.2857708950e-01	 9.7245963839e-01	 1.5600393104e+00
 3.1958738373e-01	 9.7545096747e-01	 1.6340933863e+00
 3.1059030952e-01	 9.7835289023e-01	 1.6161720409e+00
 3.0158712263e-01	 9.8116561051e-01	 1.5052291200e+00
 2.9257906930e-01	 9.8388935420e-01	 1.3004609989e+00
 2.8356738572e-01	 9.8652436891e-01	 1.0013025274e+00
 2.7455329767e-01	 9.8907092358e-01	 6.0742256547e-01
 2.6553802007e-01	 9.9152930816e-01	 1.1871912924e-01
 3.5854494408e-01	 9.7122461225e-01	 1.5557383007e+00
 3.4950795064e-01	 9.7451318394e-01	 1.8945272382e+00
 3.4045967257e-01	 9.7771110092e-01	 2.1454871317e+00
 3.3140140253e-01	 9.8081850002e-01	 2.3067139609e+00
 3.2233442496e-01	 9.8383554133e-01	 2.3765609404e+00
 3.1326001561e-01	 9.8676240782e-01	 2.3536360080e+00
 3.0417944105e-01	 9.8959930508e-01	 2.2367988306e+00
 2.9509395820e-01	 9.9234646095e-01	 2.0251573452e+00
 2.8600481391e-01	 9.9500412515e-01	 1.7180638485e+00
 2.7691324449e-01	 9.9757256896e-01	 1.3151106547e+00
 2.6782047528e-01	 1.0000520848e+00	 8.1612533993e-01
 3.6160055570e-01	 9.7950163653e-01	 2.1396448640e+00
 3.5248654669e-01	 9.8281823426e-01	 2.4724769394e+00
 3.4336115689e-01	 9.8604340471e-01	 2.7195028929e+00
 3.3422568995e-01	 9.8917728587e-01	 2.8786223052e+00
 3.2508144128e-01	 9.9222003916e-01	 2.9479779211e+00
 3.1592969750e-01	 9.9517184916e-01	 2.9259537921e+00
 3.0677173596e-01	 9.9803292319e-01	 2.8111729308e+00
 2.9760882431e-01	 1.0008034910e+00	 2.6024944914e+00
 2.8844222001e-01	 1.0034838045e+00	 2.2990104900e+00
 2.7927316990e-01	 1.0060741373e+00	 1.9000420843e+00
 2.7010290979e-01	 1.0085747842e+00	 1.4051354286e+00
 3.6465614567e-01	 9.8777860218e-01	 2.5668525766e+00
 3.5546512164e-01	 9.9112322576e-01	 2.8905275884e+00
 3.4626262065e-01	 9.9437564948e-01	 3.1324334481e+00
 3.3704995737e-01	 9.9753601250e-01	 3.2901901401e+00
 3.2782843815e-01	 1.0006044776e+00	 3.3616278211e+00
 3.1859936047e-01	 1.0035812309e+00	 3.3447860507e+00
 3.0936401251e-01	 1.0064664815e+00	 3.2379125423e+00
 3.0012367260e-01	 1.0092604612e+00	 3.0394614476e+00
 2.9087960883e-01	 1.0119634238e+00	 2.7480911870e+00
 2.8163307860e-01	 1.0145756453e+00	 2.3626618426e+00
 2.7238532814e-01	 1.0170974231e+00	 1.8822321302e+00
 3.6771172006e-01	 9.9605552561e-01	 2.8517943503e+00
 3.5844368140e-01	 9.9942817490e-01	 3.1634228885e+00
 3.4916406961e-01	 1.0027078517e+00	 3.3988592612e+00
 3.3987421038e-01	 1.0058946965e+00	 3.5553634690e+00
 3.3057542100e-01	 1.0089888733e+00	 3.6303540768e+00
 3.2126900983e-01	 1.0119905698e+00	 3.6214089578e+00
 3.1195627583e-01	 1.0148999969e+00	 3.5262655843e+00
 3.0263850806e-01	 1.0177173882e+00	 3.3428208734e+00
 2.9331698523e-01	 1.0204429998e+00	 3.0691306001e+00
 2.8399297526e-01	 1.0230771100e+00	 2.7034083899e+00
 2.7466773484e-01	 1.0256200187e+00	 2.2440243050e+00
 3.7076728492e-01	 1.0043324232e+00	 3.0084024459e+00
 3.6142223187e-01	 1.0077330981e+00	 3.3054155151e+00
 3.5206550952e-01	 1.0110400280e+00	 3.5328772511e+00
 3.4269845458e-01	 1.0142533544e+00	 3.6876276313e+00
 3.3332239529e-01	 1.0173732428e+00	 3.7665776340e+00
 3.2393865087e-01	 1.0203998825e+00	 3.7667295499e+00
 3.1454853108e-01	 1.0233334860e+00	 3.6851792475e+00
 3.0515333568e-01	 1.0261742889e+00	 3.5191180338e+00
 2.9575435403e-01	 1.0289225495e+00	 3.2658341148e+00
 2.8635286457e-01	 1.0315785482e+00	 2.9227136670e+00
 2.7695013443e-01	 1.0341425876e+00	 2.4872415296e+00
 3.7382284632e-01	 1.0126093115e+00	 3.0486803680e+00
 3.6440077897e-01	 1.0160380120e+00	 3.3302863575e+00
 3.5496694615e-01	 1.0193721949e+00	 3.5481198111e+00
 3.4552269558e-01	 1.0226120029e+00	 3.7000254654e+00
 3.3606936646e-01	 1.0257576029e+00	 3.7823136267e+00
 3.2660828888e-01	 1.0288091856e+00	 3.7913002946e+00
 3.1714078338e-01	 1.0317669655e+00	 3.7233118344e+00
 3.0766816045e-01	 1.0346311799e+00	 3.5746892969e+00
 2.9819172007e-01	 1.0374020895e+00	 3.3417923873e+00
 2.8871275120e-01	 1.0400799768e+00	 3.0210030877e+00
 2.7923253144e-01	 1.0426651469e+00	 2.6087289398e+00
 3.7687841031e-01	 1.0208862068e+00	 2.9847356145e+00
 3.6737932860e-01	 1.0243429329e+00	 3.2513627946e+00
 3.5786838524e-01	 1.0277043688e+00	 3.4577728747e+00
 3.4834693899e-01	 1.0309706585e+00	 3.6051745626e+00
 3.3881633997e-01	 1.0341419700e+00	 3.6891872192e+00
 3.2927792916e-01	 1.0372184959e+00	 3.7053329287e+00
 3.1973303789e-01	 1.0402004521e+00	 3.6490440025e+00
 3.1018298736e-01	 1.0430880782e+00	 3.5156701988e+00
 3.0062908817e-01	 1.0458816367e+00	 3.3004856525e+00
 2.9107263984e-01	 1.0485814126e+00	 2.9986955164e+00
 2.8151493038e-01	 1.0511877135e+00	 2.6054423124e+00
 2.5869048500e-01	 9.6596034556e-01	-2.5866904634e+00
 2.4990770180e-01	 9.6826974115e-01	-2.9100347577e+00
 2.4112609427e-01	 9.7049386637e-01	-3.1461272877e+00
 2.3234681259e-01	 9.7263306406e-01	-3.3026740292e+00
 2.2357099480e-01	 9.7468769596e-01	-3.3870742484e+00
 2.1479976648e-01	 9.7665814235e-01	-3.4064167089e+00
 2.0603424041e-01	 9.7854480164e-01	-3.3674765112e+00
 1.9727551623e-01	 9.8034808995e-01	-3.2767125470e+00
 1.8852468015e-01	 9.8206844073e-01	-3.1402655517e+00
 1.7978280468e-01	 9.8370630427e-01	-2.9639567376e+00
 1.7105094831e-01	 9.8526214738e-01	-2.7532869872e+00
 2.6097302946e-01	 9.7448345545e-01	-1.5865476206e+00
 2.5211275175e-01	 9.7681322788e-01	-1.9944393630e+00
 2.4325366008e-01	 9.7905697758e-01	-2.3173605691e+00
 2.3439691478e-01	 9.8121505038e-01	-2.5599843718e+00
 2.2554366393e-01	 9.8328781124e-01	-2.7268484946e+00
 2.1669504306e-01	 9.8527564378e-01	-2.8223517756e+00
 2.0785217474e-01	 9.8717894993e-01	-2.8507511042e+00
 1.9901616833e-01	 9.8899814948e-01	-2.8161587578e+00
 1.9018811962e-01	 9.9073367969e-01	-2.7225401267e+00
 1.8136911059e-01	 9.9238599486e-01	-2.5737118137e+00
 1.7256020906e-01	 9.9395556588e-01	-2.3733400936e+00
 2.6325553964e-01	 9.8300643735e-01	-6.8343413539e-01
 2.5431776858e-01	 9.8535658633e-01	-1.1485975706e+00
 2.4538119393e-01	 9.8761996020e-01	-1.5336700744e+00
 2.3644698618e-01	 9.8979690784e-01	-1.8407625746e+00
 2.2751630344e-01	 9.9188779738e-01	-2.0719882626e+00
 2.1859029117e-01	 9.9389301581e-01	-2.2294595465e+00
 2.0967008177e-01	 9.9581296856e-01	-2.3152852375e+00
 2.0075679429e-01	 9.9764807911e-01	-2.3315679627e+00
 1.9185153412e-01	 9.9939878854e-01	-2.2804017918e+00
 1.8295539268e-01	 1.0010655551e+00	-2.1638700722e+00
 1.7406944714e-01	 1.0026488538e+00	-1.9840434590e+00
 2.6553802007e-01	 9.9152930816e-01	 1.1871912924e-01
 2.5652275667e-01	 9.9389983343e-01	-3.8070282828e-01
 2.4750870006e-01	 9.9618283122e-01	-8.0673518451e-01
 2.3849703086e-01	 9.9837865345e-01	-1.1593881332e+00
 2.2948891725e-01	 1.0004876714e+00	-1.4387787696e+00
 2.2048551459e-01	 1.0025102755e+00	-1.6451285828e+00
 2.1148796511e-01	 1.0044468747e+00	-1.7787610424e+00
 2.0249739757e-01	 1.0062978960e+00	-1.8400992750e+00
 1.9351492693e-01	 1.0080637845e+00	-1.8296638219e+00
 1.8454165409e-01	 1.0097450022e+00	-1.7480704718e+00
 1.7557866555e-01	 1.0113420285e+00	-1.5960281605e+00
 2.6782047528e-01	 1.0000520848e+00	 8.1612533993e-01
 2.5872772040e-01	 1.0024429861e+00	 3.0134147085e-01
 2.4963618268e-01	 1.0047456076e+00	-1.4782579687e-01
 2.4054705289e-01	 1.0069603042e+00	-5.2973853443e-01
 2.3146150925e-01	 1.0090874505e+00	-8.4293789038e-01
 2.2238071706e-01	 1.0111274400e+00	-1.0861422289e+00
 2.1330582836e-01	 1.0130806854e+00	-1.2582452649e+00
 2.0423798161e-01	 1.0149476173e+00	-1.3583141894e+00
 1.9517830137e-01	 1.0167286846e+00	-1.3855877817e+00
 1.8612789797e-01	 1.0184243535e+00	-1.3394744993e+00
 1.7708786729e-01	 1.0200351071e+00	-1.2195505412e+00
 2.7010290979e-01	 1.0085747842e+00	 1.4051354286e+00
 2.6093266413e-01	 1.0109860614e+00	 8.8990959205e-01
 2.5176364600e-01	 1.0133083064e+00	 4.3218026844e-01
 2.4259705633e-01	 1.0155418772e+00	 3.4789461799e-02
 2.3343408337e-01	 1.0176871515e+00	-2.9964016760e-01
 2.2427590234e-01	 1.0197445264e+00	-5.6870419308e-01
 2.1512367513e-01	 1.0217144178e+00	-7.7021524865e-01
 2.0597854987e-01	 1.0235972602e+00	-9.0220178758e-01
 1.9684166072e-01	 1.0253935062e+00	-9.6290676668e-01
 1.8771412747e-01	 1.0271036260e+00	-9.5078625014e-01
 1.7859705534e-01	 1.0287281069e+00	-8.6450792673e-01
 2.7238532814e-01	 1.0170974231e+00	 1.8822321302e+00
 2.6313759225e-01	 1.0195290761e+00	 1.3776416765e+00
 2.5389109426e-01	 1.0218709445e+00	 9.2278073037e-01
 2.4464704525e-01	 1.0241233894e+00	 5.2125960548e-01
 2.3540664351e-01	 1.0262867917e+00	 1.7646038063e-01
 2.2617107421e-01	 1.0283615517e+00	-1.0846284507e-01
 2.1694150902e-01	 1.0303480891e+00	-3.3058361331e-01
 2.0771910580e-01	 1.0322468419e+00	-4.8720267742e-01
 1.9850500829e-01	 1.0340582665e+00	-5.7584747571e-01
 1.8930034574e-01	 1.0357828370e+00	-5.9427150005e-01
 1.8010623270e-01	 1.0374210451e+00	-5.4045355247e-01
 2.7466773484e-01	 1.0256200187e+00	 2.2440243050e+00
 2.6534250911e-01	 1.0280720472e+00	 1.7574325363e+00
 2.5601853167e-01	 1.0304335389e+00	 1.3138331251e+00
 2.4669702371e-01	 1.0327048578e+00	 9.1717694107e-01
 2.3737919359e-01	 1.0348863879e+00	 5.7120858623e-01
 2.2806623640e-01	 1.0369785331e+00	 2.7946569423e-01
 2.1875933364e-01	 1.0389817163e+00	 4.5278295796e-02
 2.0945965286e-01	 1.0408963794e+00	-1.2823174094e-01
 2.0016834737e-01	 1.0427229825e+00	-2.3815118560e-01
 1.9088655592e-01	 1.0444620038e+00	-2.8177582663e-01
 1.8161540236e-01	 1.0461139390e+00	-2.5661074861e-01
 2.7695013443e-01	 1.0341425876e+00	 2.4872415296e+00
 2.6754741911e-01	 1.0366149917e+00	 2.0224209927e+00
 2.5814596244e-01	 1.0389961067e+00	 1.5955398535e+00
 2.4874699579e-01	 1.0412862995e+00	 1.2104695361e+00
 2.3935173753e-01	 1.0434859574e+00	 8.7092752360e-01
 2.2996139269e-01	 1.0455954876e+00	 5.8047560178e-01
 2.2057715259e-01	 1.0476153166e+00	 3.4251811454e-01
 2.1120019449e-01	 1.0495458899e+00	 1.6030024135e-01
 2.0183168127e-01	 1.0513876715e+00	 3.6906310781e-02
 1.9247276115e-01	 1.0531411436e+00	-2.4741836955e-02
 1.8312456732e-01	 1.0548068057e+00	-2.1886425449e-02
 2.7923253144e-01	 1.0426651469e+00	 2.6087289398e+00
 2.6975232661e-01	 1.0451579266e+00	 2.1659797280e+00
 2.6027339081e-01	 1.0475586647e+00	 1.7584339541e+00
 2.5079696554e-01	 1.0498677314e+00	 1.3894710998e+00
 2.4132427923e-01	 1.0520855171e+00	 1.0623989078e+00
 2.3185654683e-01	 1.0542124324e+00	 7.8045047409e-01
 2.2239496948e-01	 1.0562489071e+00	 5.4678125762e-01
 2.1294073414e-01	 1.0581953907e+00	 3.6446602411e-01
 2.0349501329e-01	 1.0600523507e+00	 2.3649574204e-01
 1.9405896458e-01	 1.0618202734e+00	 1.6577444816e-01
 1.8463373057e-01	 1.0634996626e+00	 1.5511610057e-01
 2.8151493038e-01	 1.0511877135e+00	 2.6054423124e+00
 2.7195723598e-01	 1.0537008686e+00	 2.1817056199e+00
 2.6240082098e-01	 1.0561212300e+00	 1.7933655595e+00
 2.5284693703e-01	 1.0584491706e+00	 1.4429044397e+00
 2.4329682261e-01	 1.0606850842e+00	 1.1328444409e+00
 2.3375170258e-01	 1.0628293844e+00	 8.6574346056e-01
 2.2421278792e-01	 1.0648825050e+00	 6.4419074443e-01
 2.1468127528e-01	 1.0668448987e+00	 4.7080232901e-01
 2.0515834672e-01	 1.0687170373e+00	 3.4821631621e-01
 1.9564516936e-01	 1.0704994107e+00	 2.7908800488e-01
 1.8614289510e-01	 1.0721925270e+00	 2.6608490262e-01
 1.7105094831e-01	 9.8526214738e-01	-2.7532869872e+00
 1.6232867404e-01	 9.8673669648e-01	-2.5581512035e+00
 1.5361849940e-01	 9.8813017818e-01	-2.4217405789e+00
 1.4492144212e-01	 9.8944310564e-01	-2.3389473400e+00
 1.3623850489e-01	 9.9067600676e-01	-2.3044107287e+00
 1.2757067517e-01	 9.9182942379e-01	-2.3125297055e+00
 1.1891892497e-01	 9.9290391285e-01	-2.3574757185e+00
 1.1028421068e-01	 9.9390004351e-01	-2.4332055096e+00
 1.0166747288e-01	 9.9481839835e-01	-2.5334739301e+00
 9.3069636226e-02	 9.9565957252e-01	-2.6518467374e+00
 8.4491609256e-02	 9.9642417327e-01	-2.7817133482e+00
 1.7256020906e-01	 9.9395556588e-01	-2.3733400936e+00
 1.6376097417e-01	 9.9544312560e-01	-2.1687992828e+00
 1.5497394568e-01	 9.9684890263e-01	-2.0034000191e+00
 1.4620015028e-01	 9.9817341465e-01	-1.8742827644e+00
 1.3744059953e-01	 9.9941719423e-01	-1.7783268018e+00
 1.2869628959e-01	 1.0005807884e+00	-1.7121606682e+00
 1.1996820103e-01	 1.0016647582e+00	-1.6721727212e+00
 1.1125729871e-01	 1.0026696781e+00	-1.6545218125e+00
 1.0256453149e-01	 1.0035961360e+00	-1.6551480414e+00
 9.3890832195e-02	 1.0044447323e+00	-1.6697835619e+00
 8.5237117371e-02	 1.0052160794e+00	-1.6939634164e+00
 1.7406944714e-01	 1.0026488538e+00	-1.9840434590e+00
 1.6519325279e-01	 1.0041494240e+00	-1.7843395031e+00
 1.5632937160e-01	 1.0055674962e+00	-1.6063260160e+00
 1.4747883925e-01	 1.0069035926e+00	-1.4489826861e+00
 1.3864267612e-01	 1.0081582504e+00	-1.3110314319e+00
 1.2982188710e-01	 1.0093320216e+00	-1.1909447662e+00
 1.2101746134e-01	 1.0104254719e+00	-1.0869543438e+00
 1.1223037213e-01	 1.0114391811e+00	-9.9705966758e-01
 1.0346157664e-01	 1.0123737419e+00	-9.1903692639e-01
 9.4712015832e-02	 1.0132297601e+00	-8.5044793856e-01
 8.5982614290e-02	 1.0140078536e+00	-7.8864917712e-01
 1.7557866555e-01	 1.0113420285e+00	-1.5960281605e+00
 1.6662551275e-01	 1.0128556089e+00	-1.4120649637e+00
 1.5768477986e-01	 1.0142859761e+00	-1.2346572411e+00
 1.4875751154e-01	 1.0156336567e+00	-1.0642235973e+00
 1.3984473704e-01	 1.0168991927e+00	-9.0093966578e-01
 1.3094746993e-01	 1.0180831407e+00	-7.4474460428e-01
 1.2206670797e-01	 1.0191860715e+00	-5.9534780606e-01
 1.1320343286e-01	 1.0202085697e+00	-4.5223580089e-01
 1.0435861009e-01	 1.0211512334e+00	-3.1467932169e-01
 9.5533188766e-02	 1.0220146734e+00	-1.8174051190e-01
 8.6728101492e-02	 1.0227995132e+00	-5.2280249944e-02
 1.7708786729e-01	 1.0200351071e+00	-1.2195505412e+00
 1.6805775688e-01	 1.0215616976e+00	-1.0590080994e+00
 1.5904017314e-01	 1.0230043596e+00	-8.9237959015e-01
 1.5003616971e-01	 1.0243636244e+00	-7.2113062591e-01
 1.4104678467e-01	 1.0256400384e+00	-5.4650982978e-01
 1.3207304034e-01	 1.0268341631e+00	-3.6955366127e-01
 1.2311594301e-01	 1.0279465742e+00	-1.9109147002e-01
 1.1417648284e-01	 1.0289778614e+00	-1.1750753553e-02
 1.0525563362e-01	 1.0299286279e+00	 1.6803740404e-01
 9.6354352626e-02	 1.0307994897e+00	 3.4803273576e-01
 8.7473580456e-02	 1.0315910756e+00	 5.2818006007e-01
 1.7859705534e-01	 1.0287281069e+00	-8.6450792673e-01
 1.6948998802e-01	 1.0302677074e+00	-7.3195155471e-01
 1.6039555413e-01	 1.0317226641e+00	-5.8333247976e-01
 1.5131481628e-01	 1.0330935129e+00	-4.2077953061e-01
 1.4224882141e-01	 1.0343808048e+00	-2.4624151256e-01
 1.3319860053e-01	 1.0355851062e+00	-6.1490559566e-02
 1.2416516854e-01	 1.0367069976e+00	 1.3187429145e-01
 1.1514952401e-01	 1.0377470737e+00	 3.3242332634e-01
 1.0615264903e-01	 1.0387059428e+00	 5.3889220103e-01
 9.7175509039e-02	 1.0395842263e+00	 7.5017783198e-01
 8.8219052661e-02	 1.0403825583e+00	 9.6533415052e-01
 1.8010623270e-01	 1.0374210451e+00	-5.4045355247e-01
 1.7092220902e-01	 1.0389736555e+00	-4.3743851508e-01
 1.6175092552e-01	 1.0404409069e+00	-3.1121483130e-01
 1.5259345380e-01	 1.0418233396e+00	-1.6419859980e-01
 1.4345084964e-01	 1.0431215094e+00	 1.3263476252e-03
 1.3432415275e-01	 1.0443359873e+00	 1.8320637323e-01
 1.2521438663e-01	 1.0454673588e+00	 3.7941576215e-01
 1.1612255827e-01	 1.0465162238e+00	 5.8805427328e-01
 1.0704965808e-01	 1.0474831955e+00	 8.0734453194e-01
 9.7996659635e-02	 1.0483689007e+00	 1.0356292838e+00
 8.8964519584e-02	 1.0491739787e+00	 1.2713685293e+00
 1.8161540236e-01	 1.0461139390e+00	-2.5661074861e-01
 1.7235442272e-01	 1.0476795592e+00	-1.8178252396e-01
 1.6310629000e-01	 1.0491591052e+00	-7.9590758435e-02
 1.5387208479e-01	 1.0505531217e+00	 4.7629541556e-02
 1.4465287173e-01	 1.0518621693e+00	 1.9761727643e-01
 1.3544969924e-01	 1.0530868237e+00	 3.6818426732e-01
 1.2626359937e-01	 1.0542276754e+00	 5.5721411345e-01
 1.1709558758e-01	 1.0552853291e+00	 7.6266091125e-01
 1.0794666255e-01	 1.0562604034e+00	 9.8254785275e-01
 9.8817806043e-02	 1.0571535302e+00	 1.2149657210e+00
 8.9709982704e-02	 1.0579653543e+00	 1.4580712988e+00
 1.8312456732e-01	 1.0548068057e+00	-2.1886425449e-02
 1.7378663194e-01	 1.0563854358e+00	 2.8923182686e-02
 1.6446165025e-01	 1.0578772763e+00	 1.0810502361e-01
 1.5515071180e-01	 1.0592828766e+00	 2.1376621116e-01
 1.4585489007e-01	 1.0606028020e+00	 3.4401898381e-01
 1.3657524221e-01	 1.0618376329e+00	 4.9698061463e-01
 1.2731280884e-01	 1.0629879647e+00	 6.7077322408e-01
 1.1806861385e-01	 1.0640544072e+00	 8.6352351172e-01
 1.0884366423e-01	 1.0650375840e+00	 1.0733624221e+00
 9.9638949891e-02	 1.0659381324e+00	 1.2984247602e+00
 9.0455443500e-02	 1.0667567025e+00	 1.5368487705e+00
 1.8463373057e-01	 1.0634996626e+00	 1.5511610057e-01
 1.7521883955e-01	 1.0650913025e+00	 1.8879679742e-01
 1.6581700897e-01	 1.0665954375e+00	 2.4856205132e-01
 1.5642933736e-01	 1.0680126217e+00	 3.3331502975e-01
 1.4705690705e-01	 1.0693434248e+00	 4.4188499646e-01
 1.3770078391e-01	 1.0705884322e+00	 5.7302792832e-01
 1.2836201712e-01	 1.0717482441e+00	 7.2542711212e-01
 1.1904163902e-01	 1.0728234753e+00	 8.9769373449e-01
 1.0974066489e-01	 1.0738147547e+00	 1.0883674780e+00
 1.0046009281e-01	 1.0747227247e+00	 1.2959171363e+00
 9.1200903452e-02	 1.0755480407e+00	 1.5187412591e+00
 1.8614289510e-01	 1.0721925270e+00	 2.6608490262e-01
 1.7665104837e-01	 1.0737971766e+00	 2.9215949175e-01
 1.6717236883e-01	 1.0753136062e+00	 3.3858921369e-01
 1.5770796401e-01	 1.0767423742e+00	 4.0542035825e-01
 1.4825892506e-01	 1.0780840550e+00	 4.9253620744e-01
 1.3882632656e-01	 1.0793392389e+00	 5.9965817193e-01
 1.2941122629e-01	 1.0805085309e+00	 7.2634700160e-01
 1.2001466501e-01	 1.0815925508e+00	 8.7200408060e-01
 1.1063766632e-01	 1.0825919328e+00	 1.0358728175e+00
 1.0128123642e-01	 1.0835073244e+00	 1.2170401402e+00
 9.1946364036e-02	 1.0843393864e+00	 1.4144381046e+00
 8.4491609256e-02	 9.9642417327e-01	-2.7817133482e+00
 7.5935733705e-02	 9.9711270890e-01	-2.8457335579e+00
 6.7401408683e-02	 9.9772594558e-01	-2.7688903591e+00
 5.8889473803e-02	 9.9826452377e-01	-2.5494092870e+00
 5.0400752668e-02	 9.9872909431e-01	-2.1875378193e+00
 4.1936052786e-02	 9.9912031795e-01	-1.6854983785e+00
 3.3496165499e-02	 9.9943886492e-01	-1.0474400464e+00
 2.5081865916e-02	 9.9968541457e-01	-2.7938908968e-01
 1.6693912862e-02	 9.9986065485e-01	 6.1080160547e-01
 8.3330488405e-03	 9.9996528199e-01	 1.6135040913e+00
 0.0000000000e+00	 1.0000000000e+00	 2.7173678133e+00
 8.5237117371e-02	 1.0052160794e+00	-1.6939634164e+00
 7.6605749417e-02	 1.0059106903e+00	-1.6818493768e+00
 6.7996122144e-02	 1.0065293379e+00	-1.5865447967e+00
 5.9409082570e-02	 1.0070726682e+00	-1.4030884528e+00
 5.0845461567e-02	 1.0075413379e+00	-1.1281552650e+00
 4.2306073768e-02	 1.0079360134e+00	-7.6002266447e-01
 3.3791717495e-02	 1.0082573711e+00	-2.9853579581e-01
 2.5303174698e-02	 1.0085060962e+00	 2.5492836874e-01
 1.6841210896e-02	 1.0086828827e+00	 8.9749792801e-01
 8.4065751451e-03	 1.0087884330e+00	 1.6248438881e+00
 0.0000000000e+00	 1.0088234573e+00	 2.4312188616e+00
 8.5982614290e-02	 1.0140078536e+00	-7.8864917712e-01
 7.7275755068e-02	 1.0147085397e+00	-7.1283892047e-01
 6.8590826674e-02	 1.0153325980e+00	-5.9847224948e-01
 5.9928683534e-02	 1.0158806804e+00	-4.3814763258e-01
 5.1290163788e-02	 1.0163534491e+00	-2.2574687371e-01
 4.2676089192e-02	 1.0167515765e+00	 4.3586785968e-02
 3.4087265052e-02	 1.0170757449e+00	 3.7347160459e-01
 2.5524480155e-02	 1.0173266453e+00	 7.6631125942e-01
 1.6988506717e-02	 1.0175049780e+00	 1.2233196949e+00
 8.4801003449e-03	 1.0176114515e+00	 1.7445468433e+00
 0.0000000000e+00	 1.0176467822e+00	 2.3289051636e+00
 8.6728101492e-02	 1.0227995132e+00	-5.2280249944e-02
 7.7945751986e-02	 1.0235062743e+00	 7.5359319725e-02
 6.9185523451e-02	 1.0241357434e+00	 2.0858688602e-01
 6.0448277725e-02	 1.0246885777e+00	 3.5652018124e-01
 5.1734860210e-02	 1.0251654454e+00	 5.2731399764e-01
 4.3046099791e-02	 1.0255670248e+00	 7.2817195480e-01
 3.4382808755e-02	 1.0258940037e+00	 9.6535917616e-01
 2.5745782726e-02	 1.0261470795e+00	 1.2442158389e+00
 1.7135800618e-02	 1.0263269584e+00	 1.5691715603e+00
 8.5536245858e-03	 1.0264343550e+00	 1.9437605833e+00
 0.0000000000e+00	 1.0264699920e+00	 2.3706377238e+00
 8.7473580456e-02	 1.0315910756e+00	 5.2818006007e-01
 7.8615741499e-02	 1.0323039118e+00	 6.9633271385e-01
 6.9780213656e-02	 1.0329387915e+00	 8.4744438804e-01
 6.0967866172e-02	 1.0334963778e+00	 9.9164650114e-01
 5.2179551718e-02	 1.0339773444e+00	 1.1383960732e+00
 4.3416106301e-02	 1.0343823756e+00	 1.2964789396e+00
 3.4678349190e-02	 1.0347121651e+00	 1.4740137430e+00
 2.5967082851e-02	 1.0349674162e+00	 1.6784566833e+00
 1.7283092889e-02	 1.0351488413e+00	 1.9166070062e+00
 8.6271480136e-03	 1.0352571610e+00	 2.1946132077e+00
 0.0000000000e+00	 1.0352931043e+00	 2.5179799348e+00
 8.8219052661e-02	 1.0403825583e+00	 9.6533415052e-01
 7.9285724937e-02	 1.0411014694e+00	 1.1632147397e+00
 7.0374898468e-02	 1.0417417598e+00	 1.3304833326e+00
 6.1487449908e-02	 1.0423040979e+00	 1.4776033944e+00
 5.2624239192e-02	 1.0427891635e+00	 1.6146212192e+00
 4.3786109454e-02	 1.0431976464e+00	 1.7511621436e+00
 3.4973886945e-02	 1.0435302465e+00	 1.8964274030e+00
 2.6188380968e-02	 1.0437876729e+00	 2.0591916281e+00
 1.7430383825e-02	 1.0439706441e+00	 2.2478009738e+00
 8.7006707743e-03	 1.0440798870e+00	 2.4701718736e+00
 0.0000000000e+00	 1.0441161367e+00	 2.7337904116e+00
 8.8964519584e-02	 1.0491739787e+00	 1.2713685293e+00
 7.9955703628e-02	 1.0498989648e+00	 1.4887042051e+00
 7.0969579067e-02	 1.0505446657e+00	 1.6696762493e+00
 6.2007029962e-02	 1.0511117557e+00	 1.8244187216e+00
 5.3068923516e-02	 1.0516009202e+00	 1.9628749465e+00
 4.4156109986e-02	 1.0520128549e+00	 2.0947882539e+00
 3.5269422605e-02	 1.0523482654e+00	 2.2296932276e+00
 2.6409677516e-02	 1.0526078672e+00	 2.3769074685e+00
 1.7577673716e-02	 1.0527923845e+00	 2.5455238784e+00
 8.7741930137e-03	 1.0529025505e+00	 2.7444034712e+00
 0.0000000000e+00	 1.0529391065e+00	 2.9821687125e+00
 8.9709982704e-02	 1.0579653543e+00	 1.4580712988e+00
 8.0625678901e-02	 1.0586964153e+00	 1.6850835063e+00
 7.1564256632e-02	 1.0593475267e+00	 1.8766023671e+00
 6.2526607365e-02	 1.0599193686e+00	 2.0417906118e+00
 5.3513605570e-02	 1.0604126319e+00	 2.1898163854e+00
 4.4526108629e-02	 1.0608280183e+00	 2.3298400200e+00
 3.5564956757e-02	 1.0611662394e+00	 2.4710011772e+00
 2.6630972935e-02	 1.0614280165e+00	 2.6224063761e+00
 1.7724962855e-02	 1.0616140799e+00	 2.7931169251e+00
 8.8477148777e-03	 1.0617251691e+00	 2.9921372711e+00
 0.0000000000e+00	 1.0617620313e+00	 3.2284037809e+00
 9.0455443500e-02	 1.0667567025e+00	 1.5368487705e+00
 8.1295652086e-02	 1.0674938383e+00	 1.7642359788e+00
 7.2158932343e-02	 1.0681503603e+00	 1.9624640020e+00
 6.3046183148e-02	 1.0687269540e+00	 2.1391012168e+00
 5.3958286238e-02	 1.0692243162e+00	 2.3018877656e+00
 4.4896106119e-02	 1.0696431543e+00	 2.4587198443e+00
 3.5860489987e-02	 1.0699841859e+00	 2.6176342183e+00
 2.6852267663e-02	 1.0702481382e+00	 2.7867929909e+00
 1.7872251535e-02	 1.0704357479e+00	 2.9744686518e+00
 8.9212365123e-03	 1.0705477601e+00	 3.1890294264e+00
 0.0000000000e+00	 1.0705849287e+00	 3.4389249481e+00
 9.1200903452e-02	 1.0755480407e+00	 1.5187412591e+00
 8.1965624510e-02	 1.0762912514e+00	 1.7376623908e+00
 7.2753607379e-02	 1.0769531839e+00	 1.9381021369e+00
 6.3565758341e-02	 1.0775345294e+00	 2.1254297880e+00
 5.4402966401e-02	 1.0780359905e+00	 2.3053234277e+00
 4.5266103188e-02	 1.0784582803e+00	 2.4837531954e+00
 3.6156022882e-02	 1.0788021224e+00	 2.6669646329e+00
 2.7073562140e-02	 1.0790682500e+00	 2.8614621484e+00
 1.8019540047e-02	 1.0792574058e+00	 3.0739926282e+00
 8.9947580632e-03	 1.0793703411e+00	 3.3115292247e+00
 0.0000000000e+00	 1.0794078160e+00	 3.5812553506e+00
 9.1946364036e-02	 1.0843393864e+00	 1.4144381046e+00
 8.2635597504e-02	 1.0850886720e+00	 1.6164966316e+00
 7.3348282920e-02	 1.0857560150e+00	 1.8140112390e+00
 6.4085333976e-02	 1.0863421123e+00	 2.0095651131e+00
 5.4847646941e-02	 1.0868476722e+00	 2.2061583946e+00
 4.5636100571e-02	 1.0872734138e+00	 2.4071918541e+00
 3.6451556027e-02	 1.0876200664e+00	 2.6164505077e+00
 2.7294856805e-02	 1.0878883693e+00	 2.8380872075e+00
 1.8166828684e-02	 1.0880790712e+00	 3.0766062436e+00
 9.0682796764e-03	 1.0881929296e+00	 3.3368469893e+00
 0.0000000000e+00	 1.0882307108e+00	 3.6239676248e+00
 1.0882307108e+00	 0.0000000000e+00	-4.9502630246e+01
 1.0881929296e+00	 9.0682796764e-03	-2.7081711375e+01
 1.0880790712e+00	 1.8166828684e-02	-9.8471453643e+00
 1.0878883693e+00	 2.7294856805e-02	 2.7798914715e+00
 1.0876200664e+00	 3.6451556027e-02	 1.1388427639e+01
 1.0872734138e+00	 4.5636100571e-02	 1.6577169470e+01
 1.0868476722e+00	 5.4847646941e-02	 1.8953948258e+01
 1.0863421123e+00	 6.4085333976e-02	 1.9135141579e+01
 1.0857560150e+00	 7.3348282920e-02	 1.7745068906e+01
 1.0850886720e+00	 8.2635597504e-02	 1.5415361661e+01
 1.0843393864e+00	 9.1946364036e-02	 1.2784307899e+01
 1.0970551273e+00	 0.0000000000e+00	-5.0704256627e+01
 1.0970170397e+00	 9.1418139695e-03	-3.0919736643e+01
 1.0969022580e+00	 1.8314142723e-02	-1.5500124010e+01
 1.0967100097e+00	 2.7516189635e-02	-3.9717803305e+00
 1.0964395312e+00	 3.6747140141e-02	 4.1472251030e+00
 1.0960900676e+00	 4.6006161766e-02	 9.3466697103e+00
 1.0956608737e+00	 5.5292404174e-02	 1.2123710567e+01
 1.0951512142e+00	 6.4604999219e-02	 1.2982395939e+01
 1.0945603642e+00	 7.3943061023e-02	 1.2433155513e+01
 1.0938876098e+00	 8.3305686045e-02	 1.0992269430e+01
 1.0931322483e+00	 9.2691953187e-02	 9.1813163185e+00
 1.1058795663e+00	 0.0000000000e+00	-5.0451628642e+01
 1.1058411723e+00	 9.2153484500e-03	-3.3313172973e+01
 1.1057254673e+00	 1.8461457137e-02	-1.9749915819e+01
 1.1055316727e+00	 2.7737523030e-02	-9.3884632547e+00
 1.1052590185e+00	 3.7042725009e-02	-1.8489413135e+00
 1.1049067439e+00	 4.6376223905e-02	 3.2546372093e+00
 1.1044740977e+00	 5.5737162540e-02	 6.3139887211e+00
 1.1039603386e+00	 6.5124665788e-02	 7.7261576174e+00
 1.1033647360e+00	 7.4537840642e-02	 7.8930979733e+00
 1.1026865701e+00	 8.3975776295e-02	 7.2212382501e+00
 1.1019251326e+00	 9.3437544239e-02	 6.1210291621e+00
 1.1147040253e+00	 0.0000000000e+00	-4.8722243793e+01
 1.1146653250e+00	 9.2888830972e-03	-3.4245775717e+01
 1.1145486967e+00	 1.8608771886e-02	-2.2585218715e+01
 1.1143533556e+00	 2.7958856926e-02	-1.3462626701e+01
 1.1140785257e+00	 3.7338310547e-02	-6.5952813452e+00
 1.1137234401e+00	 4.6746286882e-02	-1.6959808163e+00
 1.1132873416e+00	 5.6181921914e-02	 1.5266577504e+00
 1.1127694829e+00	 6.5644333534e-02	 3.3678821365e+00
 1.1121691277e+00	 7.5132621609e-02	 4.1264753740e+00
 1.1114855503e+00	 8.4645868064e-02	 4.1044126551e+00
 1.1107180368e+00	 9.4183136981e-02	 3.6064977848e+00
 1.1235285018e+00	 0.0000000000e+00	-4.5502708587e+01
 1.1234894951e+00	 9.3624178902e-03	-3.3708309577e+01
 1.1233719435e+00	 1.8756086927e-02	-2.3999825812e+01
 1.1231750561e+00	 2.8180191261e-02	-1.6190083377e+01
 1.1228980505e+00	 3.7633896670e-02	-1.0088744063e+01
 1.1225401539e+00	 4.7116350593e-02	-5.5025207104e+00
 1.1221006030e+00	 5.6626682171e-02	-2.2354024516e+00
 1.1215786448e+00	 6.6164002311e-02	-8.8889767861e-02
 1.1209735368e+00	 7.5727403755e-02	 1.1377607236e+00
 1.1202845479e+00	 8.5315961161e-02	 1.6472818623e+00
 1.1195109585e+00	 9.4928731201e-02	 1.6441320457e+00
 1.1323529932e+00	 0.0000000000e+00	-4.0772362475e+01
 1.1323136802e+00	 9.4359528082e-03	-3.1685757559e+01
 1.1321952054e+00	 1.8903402218e-02	-2.3983198971e+01
 1.1319967715e+00	 2.8401525972e-02	-1.7563682305e+01
 1.1317175903e+00	 3.7929483297e-02	-1.2324551742e+01
 1.1313568826e+00	 4.7486414933e-02	-8.1616445194e+00
 1.1309138794e+00	 5.7071443183e-02	-4.9694416249e+00
 1.1303878216e+00	 6.6683671971e-02	-2.6412246493e+00
 1.1297779609e+00	 7.6322186913e-02	-1.0692387250e+00
 1.1290835605e+00	 8.5986055398e-02	-1.4486145200e-01
 1.1283038952e+00	 9.5674326689e-02	 2.4122229064e-01
 1.1411774972e+00	 0.0000000000e+00	-3.4508864319e+01
 1.1411378778e+00	 9.5094878304e-03	-2.8161719753e+01
 1.1410184797e+00	 1.9050717718e-02	-2.2523690112e+01
 1.1408184994e+00	 2.8622860997e-02	-1.7575444693e+01
 1.1405371425e+00	 3.8225070342e-02	-1.3297421001e+01
 1.1401736239e+00	 4.7856479797e-02	-9.6699008027e+00
 1.1397271683e+00	 5.7516204826e-02	-6.6730889135e+00
 1.1391970108e+00	 6.7203342368e-02	-4.2871946653e+00
 1.1385823975e+00	 7.6916970913e-02	-2.4925159722e+00
 1.1378825856e+00	 8.6656150583e-02	-1.2695259293e+00
 1.1370968443e+00	 9.6419923233e-02	-5.9896186016e-01
 1.1500020112e+00	 0.0000000000e+00	-2.6690523105e+01
 1.1499620855e+00	 9.5830229361e-03	-2.3120269729e+01
 1.1498417640e+00	 1.9198033385e-02	-1.9609984323e+01
 1.1496402374e+00	 2.8844196273e-02	-1.6217617657e+01
 1.1493567048e+00	 3.8520657722e-02	-1.3002216795e+01
 1.1489903751e+00	 4.8226545081e-02	-1.0023935168e+01
 1.1485404671e+00	 5.7960966972e-02	-7.3440420617e+00
 1.1480062101e+00	 6.7723013353e-02	-5.0249314568e+00
 1.1473868441e+00	 7.7511755587e-02	-3.1301301622e+00
 1.1466816207e+00	 8.7326246528e-02	-1.7243051901e+00
 1.1458898033e+00	 9.7165520622e-02	-8.7327031396e-01
 1.1588265327e+00	 0.0000000000e+00	-1.7296273094e+01
 1.1587863006e+00	 9.6565581045e-03	-1.6545936524e+01
 1.1586650559e+00	 1.9345349177e-02	-1.5231087294e+01
 1.1584619828e+00	 2.9065531737e-02	-1.3482665820e+01
 1.1581762745e+00	 3.8816245354e-02	-1.1433947046e+01
 1.1578071338e+00	 4.8596610680e-02	-9.2204869368e+00
 1.1573537735e+00	 5.8405729497e-02	-6.9800652283e+00
 1.1568154168e+00	 6.8242684780e-02	-4.8526243632e+00
 1.1561912981e+00	 7.8106540766e-02	-2.9802045864e+00
 1.1554806632e+00	 8.7996343042e-02	-1.5068751527e+00
 1.1546827698e+00	 9.7911118644e-02	-5.7866161746e-01
 1.1676510592e+00	 0.0000000000e+00	-6.3056501038e+00
 1.1676105207e+00	 9.7300933146e-03	-8.4236874414e+00
 1.1674883527e+00	 1.9492665053e-02	-9.3763133135e+00
 1.1672837332e+00	 2.9286867327e-02	-9.3632633010e+00
 1.1669958493e+00	 3.9111833154e-02	-8.5877575331e+00
 1.1666238976e+00	 4.8966676488e-02	-7.2563859638e+00
 1.1661670849e+00	 5.8850492274e-02	-5.5789868970e+00
 1.1656246286e+00	 6.8762356501e-02	-3.7685187139e+00
 1.1649957572e+00	 7.8701326282e-02	-2.0409247736e+00
 1.1642797107e+00	 8.8666439936e-02	-6.1499146597e-01
 1.1634757414e+00	 9.8656717088e-02	 2.8780058743e-01
 1.1764755882e+00	 0.0000000000e+00	 6.3012311470e+00
 1.1764347433e+00	 9.8036285459e-03	 1.2610883708e+00
 1.1763116521e+00	 1.9639980971e-02	-2.0352738028e+00
 1.1761054862e+00	 2.9508202981e-02	-3.8522860539e+00
 1.1758154265e+00	 3.9407421038e-02	-4.4589270024e+00
 1.1754406638e+00	 4.9336742402e-02	-4.1285495910e+00
 1.1749803987e+00	 5.9295255177e-02	-3.1386978771e+00
 1.1744338428e+00	 6.9282028370e-02	-1.7709141928e+00
 1.1738002187e+00	 7.9296111967e-02	-3.1053665880e-01
 1.1730787607e+00	 8.9336537019e-02	 9.5351294827e-01
 1.1722687154e+00	 9.9402315743e-02	 1.7289509567e+00
 1.0843393864e+00	 9.1946364036e-02	 1.2784307899e+01
 1.0835073244e+00	 1.0128123642e-01	 1.0471887984e+01
 1.0825919328e+00	 1.1063766632e-01	 8.6342905651e+00
 1.0815925508e+00	 1.2001466501e-01	 7.2170186904e+00
 1.0805085309e+00	 1.2941122629e-01	 6.1651300623e+00
 1.0793392389e+00	 1.3882632656e-01	 5.4233068100e+00
 1.0780840550e+00	 1.4825892506e-01	 4.9359276006e+00
 1.0767423742e+00	 1.5770796401e-01	 4.6471419870e+00
 1.0753136062e+00	 1.6717236883e-01	 4.5009468792e+00
 1.0737971766e+00	 1.7665104837e-01	 4.4412650163e+00
 1.0721925270e+00	 1.8614289510e-01	 4.4120253082e+00
 1.0931322483e+00	 9.2691953187e-02	 9.1813163185e+00
 1.0922934391e+00	 1.0210252166e-01	 7.5650147875e+00
 1.0913706247e+00	 1.1153482244e-01	 6.3267831777e+00
 1.0903631388e+00	 1.2098785882e-01	 5.4186655675e+00
 1.0892703285e+00	 1.3046061641e-01	 4.7923728262e+00
 1.0880915548e+00	 1.3995206333e-01	 4.3993474033e+00
 1.0868261927e+00	 1.4946115037e-01	 4.1908302230e+00
 1.0854736322e+00	 1.5898681117e-01	 4.1179295785e+00
 1.0840332784e+00	 1.6852796246e-01	 4.1316919119e+00
 1.0825045521e+00	 1.7808350420e-01	 4.1831743567e+00
 1.0808868905e+00	 1.8765231991e-01	 4.2235189093e+00
 1.1019251326e+00	 9.3437544239e-02	 6.1210291621e+00
 1.1010795762e+00	 1.0292380898e-01	 5.1028192741e+00
 1.1001493389e+00	 1.1243198086e-01	 4.3744924480e+00
 1.0991337491e+00	 1.2196105511e-01	 3.8947322584e+00
 1.0980321485e+00	 1.3151000921e-01	 3.6219925551e+00
 1.0968438930e+00	 1.4107780297e-01	 3.5145569653e+00
 1.0955683527e+00	 1.5066337875e-01	 3.5306002673e+00
 1.0942049125e+00	 1.6026566160e-01	 3.6282515327e+00
 1.0927529729e+00	 1.6988355953e-01	 3.7656589188e+00
 1.0912119499e+00	 1.7951596368e-01	 3.9010559897e+00
 1.0895812762e+00	 1.8916174857e-01	 3.9928294308e+00
 1.1107180368e+00	 9.4183136981e-02	 3.6064977848e+00
 1.1098657333e+00	 1.0374509817e-01	 3.0892576496e+00
 1.1089280731e+00	 1.1332914130e-01	 2.7820316895e+00
 1.1079043792e+00	 1.2293425361e-01	 2.6502392070e+00
 1.1067939884e+00	 1.3255940439e-01	 2.6591647142e+00
 1.1055962511e+00	 1.4220354517e-01	 2.7740118467e+00
 1.1043105325e+00	 1.5186560985e-01	 2.9599589197e+00
 1.1029362126e+00	 1.6154451493e-01	 3.1822160224e+00
 1.1014726871e+00	 1.7123915968e-01	 3.4060835327e+00
 1.0999193674e+00	 1.8094842641e-01	 3.5970119293e+00
 1.0982756816e+00	 1.9067118065e-01	 3.7206627672e+00
 1.1195109585e+00	 9.4928731201e-02	 1.6441320457e+00
 1.1186519078e+00	 1.0456638899e-01	 1.5313535683e+00
 1.1177068246e+00	 1.1422630353e-01	 1.5565825770e+00
 1.1166750268e+00	 1.2390745403e-01	 1.6921454846e+00
 1.1155558456e+00	 1.3360880165e-01	 1.9103287147e+00
 1.1143486265e+00	 1.4332928959e-01	 2.1834240169e+00
 1.1130527296e+00	 1.5306784333e-01	 2.4837750860e+00
 1.1116675300e+00	 1.6282337079e-01	 2.7838254513e+00
 1.1101924186e+00	 1.7259476252e-01	 3.0560985134e+00
 1.1086268022e+00	 1.8238089199e-01	 3.2730781120e+00
 1.1069701042e+00	 1.9218061573e-01	 3.4077037858e+00
 1.1283038952e+00	 9.5674326689e-02	 2.4122229064e-01
 1.1274380972e+00	 1.0538768121e-01	 4.3845905453e-01
 1.1264855911e+00	 1.1512346728e-01	 7.0926920684e-01
 1.1254456893e+00	 1.2488065612e-01	 1.0329283241e+00
 1.1243177177e+00	 1.3465820069e-01	 1.3887548724e+00
 1.1231010168e+00	 1.4445503593e-01	 1.7561485962e+00
 1.1217949416e+00	 1.5427007886e-01	 2.1146299686e+00
 1.1203988623e+00	 1.6410222882e-01	 2.4438806769e+00
 1.1189121650e+00	 1.7395036767e-01	 2.7237851122e+00
 1.1173342518e+00	 1.8381335999e-01	 2.9344728299e+00
 1.1156645417e+00	 1.9369005337e-01	 3.0563619402e+00
 1.1370968443e+00	 9.6419923233e-02	-5.9896186016e-01
 1.1362242991e+00	 1.0620897458e-01	-1.8531703756e-01
 1.1352643700e+00	 1.1602063230e-01	 2.4494183913e-01
 1.1342163642e+00	 1.2585385957e-01	 6.7813885929e-01
 1.1330796023e+00	 1.3570760123e-01	 1.1007157547e+00
 1.1318534195e+00	 1.4558078387e-01	 1.4992630192e+00
 1.1305371660e+00	 1.5547231610e-01	 1.8605518500e+00
 1.1291302069e+00	 1.6538108867e-01	 2.1715668901e+00
 1.1276319237e+00	 1.7530597473e-01	 2.4195397478e+00
 1.1260417137e+00	 1.8524583003e-01	 2.5919832652e+00
 1.1243589914e+00	 1.9519949315e-01	 2.6767265044e+00
 1.1458898033e+00	 9.7165520622e-02	-8.7327031396e-01
 1.1450105109e+00	 1.0703026889e-01	-3.3608975970e-01
 1.1440431589e+00	 1.1691779834e-01	 1.6800032940e-01
 1.1429870490e+00	 1.2682706414e-01	 6.3247042516e-01
 1.1418414967e+00	 1.3675700294e-01	 1.0509753525e+00
 1.1406058321e+00	 1.4670653308e-01	 1.4173777994e+00
 1.1392794002e+00	 1.5667455469e-01	 1.7257724103e+00
 1.1378615615e+00	 1.6665994997e-01	 1.9705104503e+00
 1.1363516922e+00	 1.7666158333e-01	 2.1462250209e+00
 1.1347491855e+00	 1.8667830168e-01	 2.2478568091e+00
 1.1330534510e+00	 1.9670893464e-01	 2.2706803444e+00
 1.1546827698e+00	 9.7911118644e-02	-5.7866161746e-01
 1.1537967302e+00	 1.0785156390e-01	-1.0108583505e-02
 1.1528219553e+00	 1.1781496514e-01	 4.8269133282e-01
 1.1517577413e+00	 1.2780026952e-01	 9.0045142763e-01
 1.1506033987e+00	 1.3780640555e-01	 1.2441280988e+00
 1.1493582522e+00	 1.4783228325e-01	 1.5149364074e+00
 1.1480216420e+00	 1.5787679431e-01	 1.7143659874e+00
 1.1465929234e+00	 1.6793881235e-01	 1.8441972965e+00
 1.1450714682e+00	 1.7801719308e-01	 1.9065181994e+00
 1.1434566647e+00	 1.8811077456e-01	 1.9037408699e+00
 1.1417479180e+00	 1.9821837741e-01	 1.8386189964e+00
 1.1634757414e+00	 9.8656717088e-02	 2.8780058743e-01
 1.1625829545e+00	 1.0867285937e-01	 7.9624711202e-01
 1.1616007566e+00	 1.1871213245e-01	 1.1931135327e+00
 1.1605284386e+00	 1.2877347546e-01	 1.4864510340e+00
 1.1593653055e+00	 1.3885580876e-01	 1.6846047652e+00
 1.1581106772e+00	 1.4895803405e-01	 1.7962211170e+00
 1.1567638886e+00	 1.5907903460e-01	 1.8302551126e+00
 1.1553242903e+00	 1.6921767546e-01	 1.7959779141e+00
 1.1537912492e+00	 1.7937280360e-01	 1.7029844441e+00
 1.1521641488e+00	 1.8954324825e-01	 1.5612011162e+00
 1.1504423900e+00	 1.9972782104e-01	 1.3808936707e+00
 1.1722687154e+00	 9.9402315743e-02	 1.7289509567e+00
 1.1713691813e+00	 1.0949415507e-01	 2.0864723602e+00
 1.1703795604e+00	 1.1960930001e-01	 2.3032226464e+00
 1.1692991383e+00	 1.2974668168e-01	 2.3946846222e+00
 1.1681272149e+00	 1.3990521226e-01	 2.3766781107e+00
 1.1668631048e+00	 1.5008378517e-01	 2.2653586075e+00
 1.1655061378e+00	 1.6028127524e-01	 2.0772158205e+00
 1.1640556597e+00	 1.7049653892e-01	 1.8290721030e+00
 1.1625110326e+00	 1.8072841450e-01	 1.5380807856e+00
 1.1608716354e+00	 1.9097572234e-01	 1.2217244141e+00
 1.1591368644e+00	 2.0123726509e-01	 8.9781289565e-01
 1.0721925270e+00	 1.8614289510e-01	 4.4120253082e+00
 1.0704994107e+00	 1.9564516936e-01	 4.3843060423e+00
 1.0687170373e+00	 2.0515834672e-01	 4.3647706286e+00
 1.0668448987e+00	 2.1468127528e-01	 4.3507690974e+00
 1.0648825050e+00	 2.2421278792e-01	 4.3396277214e+00
 1.0628293844e+00	 2.3375170258e-01	 4.3286642082e+00
 1.0606850842e+00	 2.4329682261e-01	 4.3152027952e+00
 1.0584491706e+00	 2.5284693703e-01	 4.2965891466e+00
 1.0561212300e+00	 2.6240082098e-01	 4.2702049507e+00
 1.0537008686e+00	 2.7195723598e-01	 4.2334821130e+00
 1.0511877135e+00	 2.8151493038e-01	 4.1839164415e+00
 1.0808868905e+00	 1.8765231991e-01	 4.2235189093e+00
 1.0791800448e+00	 1.9723164771e-01	 4.2220194309e+00
 1.0773832182e+00	 2.0682196701e-01	 4.1856310118e+00
 1.0754958986e+00	 2.1642211660e-01	 4.1222143428e+00
 1.0735175919e+00	 2.2603091987e-01	 4.0398050564e+00
 1.0714478226e+00	 2.3564718519e-01	 3.9466196778e+00
 1.0692861343e+00	 2.4526970618e-01	 3.8510610076e+00
 1.0670320899e+00	 2.5489726208e-01	 3.7617228344e+00
 1.0646852721e+00	 2.6452861806e-01	 3.6873938769e+00
 1.0622452841e+00	 2.7416252562e-01	 3.6370608529e+00
 1.0597117498e+00	 2.8379772296e-01	 3.6199105722e+00
 1.0895812762e+00	 1.8916174857e-01	 3.9928294308e+00
 1.0878607011e+00	 1.9881813010e-01	 4.0096775824e+00
 1.0860494213e+00	 2.0848559156e-01	 3.9587271866e+00
 1.0841469205e+00	 2.1816296236e-01	 3.8563952085e+00
 1.0821527008e+00	 2.2784905645e-01	 3.7194450770e+00
 1.0800662828e+00	 2.3754267262e-01	 3.5649853665e+00
 1.0778872064e+00	 2.4724259478e-01	 3.4104675108e+00
 1.0756150310e+00	 2.5694759235e-01	 3.2736824475e+00
 1.0732493360e+00	 2.6665642057e-01	 3.1727560899e+00
 1.0707897214e+00	 2.7636782089e-01	 3.1261435253e+00
 1.0682358080e+00	 2.8608052136e-01	 3.1526218356e+00
 1.0982756816e+00	 1.9067118065e-01	 3.7206627672e+00
 1.0965413770e+00	 2.0040461609e-01	 3.7463432493e+00
 1.0947156439e+00	 2.1014921987e-01	 3.6812777100e+00
 1.0927979620e+00	 2.1990381206e-01	 3.5485305956e+00
 1.0907878292e+00	 2.2966719716e-01	 3.3716576769e+00
 1.0886847625e+00	 2.3943816435e-01	 3.1746994076e+00
 1.0864882980e+00	 2.4921548786e-01	 2.9821729895e+00
 1.0841979916e+00	 2.5899792727e-01	 2.8190630379e+00
 1.0818134193e+00	 2.6878422790e-01	 2.7108107441e+00
 1.0793341780e+00	 2.7857312116e-01	 2.6833014264e+00
 1.0767598854e+00	 2.8836332494e-01	 2.7628503706e+00
 1.1069701042e+00	 1.9218061573e-01	 3.4077037858e+00
 1.1052220702e+00	 2.0199110523e-01	 3.4311109471e+00
 1.1033818838e+00	 2.1181285148e-01	 3.3505919586e+00
 1.1014490207e+00	 2.2164466522e-01	 3.1939940870e+00
 1.0994229748e+00	 2.3148534148e-01	 2.9897746205e+00
 1.0973032594e+00	 2.4133365985e-01	 2.7669908287e+00
 1.0950894067e+00	 2.5118838485e-01	 2.5552883745e+00
 1.0927809692e+00	 2.6104826626e-01	 2.3848880663e+00
 1.0903775196e+00	 2.7091203946e-01	 2.2865708423e+00
 1.0878786515e+00	 2.8077842580e-01	 2.2916608764e+00
 1.0852839798e+00	 2.9064613305e-01	 2.4320066990e+00
 1.1156645417e+00	 1.9369005337e-01	 3.0563619402e+00
 1.1139027781e+00	 2.0357759706e-01	 3.0637609129e+00
 1.1120481384e+00	 2.1347648592e-01	 2.9641406597e+00
 1.1101000940e+00	 2.2338552134e-01	 2.7883082561e+00
 1.1080581351e+00	 2.3330348888e-01	 2.5673412324e+00
 1.1059217708e+00	 2.4322915856e-01	 2.3333685445e+00
 1.1036905300e+00	 2.5316128520e-01	 2.1192711195e+00
 1.1013639614e+00	 2.6309860874e-01	 1.9585929986e+00
 1.0989416345e+00	 2.7303985463e-01	 1.8855242518e+00
 1.0964231396e+00	 2.8298373420e-01	 1.9348818115e+00
 1.0938080886e+00	 2.9292894504e-01	 2.1420881106e+00
 1.1243589914e+00	 1.9519949315e-01	 2.6767265044e+00
 1.1225834983e+00	 2.0516409114e-01	 2.6524411776e+00
 1.1207144053e+00	 2.1514012271e-01	 2.5267857218e+00
 1.1187511797e+00	 2.2512637992e-01	 2.3318788932e+00
 1.1166933076e+00	 2.3512163886e-01	 2.1005899252e+00
 1.1145402945e+00	 2.4512465996e-01	 1.8665259104e+00
 1.1122916654e+00	 2.5513418834e-01	 1.6640181844e+00
 1.1099469657e+00	 2.6514895412e-01	 1.5280096610e+00
 1.1075057615e+00	 2.7516767281e-01	 1.4936155961e+00
 1.1049676398e+00	 2.8518904571e-01	 1.5971373621e+00
 1.1023322096e+00	 2.9521176026e-01	 1.8756561343e+00
 1.1330534510e+00	 1.9670893464e-01	 2.2706803444e+00
 1.1312642283e+00	 2.0675058702e-01	 2.1990015308e+00
 1.1293806820e+00	 2.1680376139e-01	 2.0407711958e+00
 1.1274022751e+00	 2.2686724048e-01	 1.8276053539e+00
 1.1253284899e+00	 2.3693979090e-01	 1.5919097641e+00
 1.1231588279e+00	 2.4702016351e-01	 1.3668687772e+00
 1.1208928106e+00	 2.5710709371e-01	 1.1864331858e+00
 1.1185299798e+00	 2.6719930182e-01	 1.0853070523e+00
 1.1160698982e+00	 2.7729549341e-01	 1.0989334923e+00
 1.1135121497e+00	 2.8739435973e-01	 1.2634793875e+00
 1.1108563401e+00	 2.9749457807e-01	 1.6158150390e+00
 1.1417479180e+00	 1.9821837741e-01	 1.8386189964e+00
 1.1399449658e+00	 2.0833708425e-01	 1.7023772285e+00
 1.1380469660e+00	 2.1846740149e-01	 1.5034032600e+00
 1.1360533779e+00	 2.2860810251e-01	 1.2711179916e+00
 1.1339636796e+00	 2.3875794449e-01	 1.0357465399e+00
 1.1317773687e+00	 2.4891566867e-01	 8.2831033635e-01
 1.1294939632e+00	 2.5908000077e-01	 6.8061829649e-01
 1.1271130012e+00	 2.6924965126e-01	 6.2525703501e-01
 1.1246340422e+00	 2.7942331581e-01	 6.9558009830e-01
 1.1220566669e+00	 2.8959967562e-01	 9.2569618391e-01
 1.1193804780e+00	 2.9977739782e-01	 1.3504563146e+00
 1.1504423900e+00	 1.9972782104e-01	 1.3808936707e+00
 1.1486257081e+00	 2.0992358237e-01	 1.1615032460e+00
 1.1467132550e+00	 2.2013104253e-01	 9.1203728539e-01
 1.1447044856e+00	 2.3034896554e-01	 6.5806728146e-01
 1.1425988741e+00	 2.4057609910e-01	 4.2595901976e-01
 1.1403959144e+00	 2.5081117490e-01	 2.4286969046e-01
 1.1380951206e+00	 2.6105290894e-01	 1.3674421071e-01
 1.1356960275e+00	 2.7130000187e-01	 1.3631072709e-01
 1.1331981910e+00	 2.8155113943e-01	 2.7107526479e-01
 1.1306011888e+00	 2.9180499276e-01	 5.7131548698e-01
 1.1279046207e+00	 3.0206021886e-01	 1.0680735256e+00
 1.1591368644e+00	 2.0123726509e-01	 8.9781289565e-01
 1.1573064529e+00	 2.1151008095e-01	 5.7531439369e-01
 1.1553795464e+00	 2.2179468403e-01	 2.6407623128e-01
 1.1533555958e+00	 2.3208982905e-01	-1.5796872458e-02
 1.1512340711e+00	 2.4239425423e-01	-2.4343983807e-01
 1.1490144625e+00	 2.5270668167e-01	-3.9722335831e-01
 1.1466962804e+00	 2.6302581766e-01	-4.5475061179e-01
 1.1442790561e+00	 2.7335035306e-01	-3.9285459430e-01
 1.1417623423e+00	 2.8367896364e-01	-1.8759610817e-01
 1.1391457133e+00	 2.9401031052e-01	 1.8573754663e-01
 1.1364287657e+00	 3.0434304055e-01	 7.5263313249e-01
 1.0511877135e+00	 2.8151493038e-01	 4.1839164415e+00
 1.0485814126e+00	 2.9107263984e-01	 4.0822948799e+00
 1.0458816367e+00	 3.0062908817e-01	 3.9089839813e+00
 1.0430880782e+00	 3.1018298736e-01	 3.6916218099e+00
 1.0402004521e+00	 3.1973303789e-01	 3.4587876782e+00
 1.0372184959e+00	 3.2927792916e-01	 3.2399814359e+00
 1.0341419700e+00	 3.3881633997e-01	 3.0655999702e+00
 1.0309706585e+00	 3.4834693899e-01	 2.9669108413e+00
 1.0277043688e+00	 3.5786838524e-01	 2.9760229861e+00
 1.0243429329e+00	 3.6737932860e-01	 3.1258544306e+00
 1.0208862068e+00	 3.7687841031e-01	 3.4544388891e+00
 1.0597117498e+00	 2.8379772296e-01	 3.6199105722e+00
 1.0570843146e+00	 2.9343293548e-01	 3.6084136011e+00
 1.0543626463e+00	 3.0306687665e-01	 3.5784406152e+00
 1.0515464350e+00	 3.1269824800e-01	 3.5446938386e+00
 1.0486353933e+00	 3.2232573948e-01	 3.5222189604e+00
 1.0456292565e+00	 3.3194802986e-01	 3.5263921645e+00
 1.0425277832e+00	 3.4156378724e-01	 3.5729052402e+00
 1.0393307556e+00	 3.5117166948e-01	 3.6777487019e+00
 1.0360379798e+00	 3.6077032473e-01	 3.8571928457e+00
 1.0326492861e+00	 3.7035839192e-01	 4.1277666857e+00
 1.0291645295e+00	 3.7993450129e-01	 4.5162715177e+00
 1.0682358080e+00	 2.8608052136e-01	 3.1526218356e+00
 1.0655872383e+00	 2.9579323714e-01	 3.2293736593e+00
 1.0628436776e+00	 3.0550467133e-01	 3.3234795020e+00
 1.0600048134e+00	 3.1521351505e-01	 3.4386866041e+00
 1.0570703559e+00	 3.2491844768e-01	 3.5785872743e+00
 1.0540400385e+00	 3.3461813737e-01	 3.7466127865e+00
 1.0509136178e+00	 3.4431124151e-01	 3.9460260799e+00
 1.0476908741e+00	 3.5399640717e-01	 4.1799131908e+00
 1.0443716120e+00	 3.6367227163e-01	 4.4511733421e+00
 1.0409556605e+00	 3.7333746285e-01	 4.7635757959e+00
 1.0374428734e+00	 3.8299060006e-01	 5.1350374111e+00
 1.0767598854e+00	 2.8836332494e-01	 2.7628503706e+00
 1.0740901813e+00	 2.9815354415e-01	 2.9253251665e+00
 1.0713247281e+00	 3.0794247155e-01	 3.1256056099e+00
 1.0684632109e+00	 3.1772878780e-01	 3.3584214774e+00
 1.0655053377e+00	 3.2751116175e-01	 3.6179469708e+00
 1.0624508397e+00	 3.3728825094e-01	 3.8978006173e+00
 1.0592994714e+00	 3.4705870202e-01	 4.1910445535e+00
 1.0560510115e+00	 3.5682115127e-01	 4.4901831125e+00
 1.0527052631e+00	 3.6657422510e-01	 4.7871606426e+00
 1.0492620537e+00	 3.7631654053e-01	 5.0779477976e+00
 1.0457212360e+00	 3.8604670575e-01	 5.3701500930e+00
 1.0852839798e+00	 2.9064613305e-01	 2.4320066990e+00
 1.0825931411e+00	 3.0051385584e-01	 2.6770484681e+00
 1.0798057954e+00	 3.1038027660e-01	 2.9669107000e+00
 1.0769216252e+00	 3.2024406554e-01	 3.2892012387e+00
 1.0739403363e+00	 3.3010388097e-01	 3.6306678811e+00
 1.0708616575e+00	 3.3995836980e-01	 3.9772034324e+00
 1.0676853416e+00	 3.4980616797e-01	 4.3138505775e+00
 1.0644111655e+00	 3.5964590097e-01	 4.6248064849e+00
 1.0610389307e+00	 3.6947618433e-01	 4.8934270665e+00
 1.0575684634e+00	 3.7929562411e-01	 5.1131947486e+00
 1.0539996151e+00	 3.8910281751e-01	 5.2791762663e+00
 1.0938080886e+00	 2.9292894504e-01	 2.1420881106e+00
 1.0910961154e+00	 3.0287417155e-01	 2.4659296930e+00
 1.0882868771e+00	 3.1281808580e-01	 2.8300504971e+00
 1.0853800539e+00	 3.2275934755e-01	 3.2167912699e+00
 1.0823753491e+00	 3.3269660460e-01	 3.6074228803e+00
 1.0792724896e+00	 3.4262849320e-01	 3.9821556912e+00
 1.0760712260e+00	 3.5255363860e-01	 4.3201490371e+00
 1.0727713337e+00	 3.6247065548e-01	 4.5995207197e+00
 1.0693726125e+00	 3.7237814849e-01	 4.7979515069e+00
 1.0658748872e+00	 3.8227471277e-01	 4.9103290090e+00
 1.0622780082e+00	 3.9215893447e-01	 4.9179077910e+00
 1.1023322096e+00	 2.9521176026e-01	 1.8756561343e+00
 1.0995991017e+00	 3.0523449060e-01	 2.2739374278e+00
 1.0967679709e+00	 3.1525589845e-01	 2.6982229075e+00
 1.0938384946e+00	 3.2527463313e-01	 3.1274016075e+00
 1.0908103739e+00	 3.3528933190e-01	 3.5391760123e+00
 1.0876833336e+00	 3.4529862039e-01	 3.9100749193e+00
 1.0844571224e+00	 3.5530111312e-01	 4.2154665539e+00
 1.0811315138e+00	 3.6529541398e-01	 4.4295718458e+00
 1.0777063061e+00	 3.7528011676e-01	 4.5292849918e+00
 1.0741813228e+00	 3.8525380564e-01	 4.5091137248e+00
 1.0705564131e+00	 3.9521505575e-01	 4.3404303039e+00
 1.1108563401e+00	 2.9749457807e-01	 1.6158150390e+00
 1.1081020977e+00	 3.0759481232e-01	 2.0836004549e+00
 1.1052490742e+00	 3.1769371386e-01	 2.5551472281e+00
 1.1022969449e+00	 3.2778992156e-01	 3.0076698071e+00
 1.0992454083e+00	 3.3788206214e-01	 3.4171711458e+00
 1.0960941871e+00	 3.4796875060e-01	 3.7584582394e+00
 1.0928430283e+00	 3.5804859075e-01	 4.0051579220e+00
 1.0894917034e+00	 3.6812017569e-01	 4.1297328255e+00
 1.0860400091e+00	 3.7818208832e-01	 4.1136564013e+00
 1.0824877678e+00	 3.8823290189e-01	 3.9481107674e+00
 1.0788348274e+00	 3.9827118050e-01	 3.5991886623e+00
 1.1193804780e+00	 2.9977739782e-01	 1.3504563146e+00
 1.1166051009e+00	 3.0995513605e-01	 1.8797877888e+00
 1.1137301848e+00	 3.2013153135e-01	 2.3854363689e+00
 1.1107554023e+00	 3.3030521213e-01	 2.8446445782e+00
 1.1076804498e+00	 3.4047479458e-01	 3.2329211338e+00
 1.1045050478e+00	 3.5063888308e-01	 3.5248790442e+00
 1.1012289412e+00	 3.6079607072e-01	 3.6944122310e+00
 1.0978519000e+00	 3.7094493980e-01	 3.7143746932e+00
 1.0943737193e+00	 3.8108406235e-01	 3.5763947134e+00
 1.0907942199e+00	 3.9121200067e-01	 3.2647264647e+00
 1.0871132486e+00	 4.0132730785e-01	 2.7450493778e+00
 1.1279046207e+00	 3.0206021886e-01	 1.0680735256e+00
 1.1251081089e+00	 3.1231546112e-01	 1.6520637947e+00
 1.1222113002e+00	 3.2256935021e-01	 2.1794506941e+00
 1.1192138646e+00	 3.3282050413e-01	 2.6292490961e+00
 1.1161154962e+00	 3.4306752849e-01	 2.9794685942e+00
 1.1129159133e+00	 3.5330901707e-01	 3.2071432133e+00
 1.1096148590e+00	 3.6354355225e-01	 3.2882586932e+00
 1.1062121014e+00	 3.7376970551e-01	 3.1993648864e+00
 1.1027074341e+00	 3.8398603803e-01	 2.9420820469e+00
 1.0991006766e+00	 3.9419110114e-01	 2.4952552404e+00
 1.0953916746e+00	 4.0438343693e-01	 1.8273602015e+00
 1.1364287657e+00	 3.0434304055e-01	 7.5263313249e-01
 1.1336111194e+00	 3.1467578686e-01	 1.3844101892e+00
 1.1306924180e+00	 3.2500716977e-01	 1.9237102362e+00
 1.1276723292e+00	 3.3533579683e-01	 2.3529853567e+00
 1.1245505449e+00	 3.4566026314e-01	 2.6539129349e+00
 1.1213267811e+00	 3.5597915182e-01	 2.8074255868e+00
 1.1180007791e+00	 3.6629103455e-01	 2.7937427268e+00
 1.1145723051e+00	 3.7659447202e-01	 2.5999866033e+00
 1.1110411513e+00	 3.8688801453e-01	 2.2345816599e+00
 1.1074071358e+00	 3.9717020246e-01	 1.6749212721e+00
 1.1036701029e+00	 4.0743956688e-01	 8.9400700990e-01
 1.0208862068e+00	 3.7687841031e-01	 3.4544388891e+00
 1.0173334593e+00	 3.8636587493e-01	 3.8564296123e+00
 1.0136851754e+00	 3.9583873097e-01	 4.1812930597e+00
 1.0099412857e+00	 4.0529559579e-01	 4.4129218374e+00
 1.0061017465e+00	 4.1473508031e-01	 4.5343760814e+00
 1.0021665399e+00	 4.2415578950e-01	 4.5278973543e+00
 9.9813567443e-01	 4.3355632305e-01	 4.3749240413e+00
 9.9400918483e-01	 4.4293527589e-01	 4.0561082559e+00
 9.8978713259e-01	 4.5229123883e-01	 3.5513342617e+00
 9.8546960600e-01	 4.6162279917e-01	 2.8397384112e+00
 9.8105672044e-01	 4.7092854131e-01	 1.8997306044e+00
 1.0291645295e+00	 3.7993450129e-01	 4.5162715177e+00
 1.0255829730e+00	 3.8949889935e-01	 4.8964440908e+00
 1.0219051053e+00	 3.9904857037e-01	 5.1199574078e+00
 1.0181308566e+00	 4.0858212051e-01	 5.1846217111e+00
 1.0142601827e+00	 4.1809814941e-01	 5.0885369814e+00
 1.0102930657e+00	 4.2759525073e-01	 4.8301020308e+00
 1.0062295141e+00	 4.3707201281e-01	 4.4080234938e+00
 1.0020695630e+00	 4.4652701917e-01	 3.8213247080e+00
 9.9781327428e-01	 4.5595884921e-01	 3.0693544784e+00
 9.9346073706e-01	 4.6536607878e-01	 2.1517957171e+00
 9.8901206759e-01	 4.7474728079e-01	 1.0686739525e+00
 1.0374428734e+00	 3.8299060006e-01	 5.1350374111e+00
 1.0338325077e+00	 3.9263193177e-01	 5.4335200596e+00
 1.0301250562e+00	 4.0225841797e-01	 5.5277827197e+00
 1.0263204483e+00	 4.1186865362e-01	 5.4276231513e+00
 1.0224186397e+00	 4.2146122708e-01	 5.1440395529e+00
 1.0184196122e+00	 4.3103472073e-01	 4.6892346601e+00
 1.0143233744e+00	 4.4058771152e-01	 4.0766184199e+00
 1.0101299617e+00	 4.5011877161e-01	 3.3208092225e+00
 1.0058394364e+00	 4.5962646895e-01	 2.4376336751e+00
 1.0014518885e+00	 4.6910936794e-01	 1.4441249038e+00
 9.9696743504e-01	 4.7856603001e-01	 3.5851937108e-01
 1.0457212360e+00	 3.8604670575e-01	 5.3701500930e+00
 1.0420820611e+00	 3.9576497128e-01	 5.5412807022e+00
 1.0383450257e+00	 4.0546827284e-01	 5.4879616369e+00
 1.0345100586e+00	 4.1515519417e-01	 5.2300899050e+00
 1.0305771152e+00	 4.2482431238e-01	 4.7894656308e+00
 1.0265461771e+00	 4.3447419853e-01	 4.1897909710e+00
 1.0224172531e+00	 4.4410341821e-01	 3.4566665624e+00
 1.0181903786e+00	 4.5371053220e-01	 2.6175854795e+00
 1.0138656168e+00	 4.6329409701e-01	 1.7019246782e+00
 1.0094430580e+00	 4.7285266558e-01	 7.4093391026e-01
 1.0049228205e+00	 4.8238478788e-01	-2.3227790397e-01
 1.0539996151e+00	 3.8910281751e-01	 5.2791762663e+00
 1.0503316309e+00	 3.9889801701e-01	 5.2910561554e+00
 1.0465650115e+00	 4.0867813407e-01	 5.0810933067e+00
 1.0426996852e+00	 4.1844174124e-01	 4.6774362430e+00
 1.0387356069e+00	 4.2818740435e-01	 4.1106346338e+00
 1.0346727582e+00	 4.3791368315e-01	 3.4136328447e+00
 1.0305111478e+00	 4.4761913188e-01	 2.6217602520e+00
 1.0262508116e+00	 4.5730229990e-01	 1.7727182959e+00
 1.0218918131e+00	 4.6696173234e-01	 9.0656424963e-01
 1.0174342434e+00	 4.7659597065e-01	 6.5691689135e-02
 1.0128782218e+00	 4.8620355333e-01	-7.0519234744e-01
 1.0622780082e+00	 3.9215893447e-01	 4.9179077910e+00
 1.0585812147e+00	 4.0203106806e-01	 4.7519728442e+00
 1.0547850113e+00	 4.1188800077e-01	 4.3852843955e+00
 1.0508893257e+00	 4.2172829390e-01	 3.8524340235e+00
 1.0468941124e+00	 4.3155050204e-01	 3.1907111057e+00
 1.0427993530e+00	 4.4135317361e-01	 2.4400908224e+00
 1.0386050562e+00	 4.5113485152e-01	 1.6432184311e+00
 1.0343112582e+00	 4.6089407372e-01	 8.4538978465e-01
 1.0299180230e+00	 4.7062937390e-01	 9.4528075385e-02
 1.0254254424e+00	 4.8033928208e-01	-5.5884320734e-01
 1.0208336366e+00	 4.9002232527e-01	-1.0616311112e+00
 1.0705564131e+00	 3.9521505575e-01	 4.3404303039e+00
 1.0668308102e+00	 4.0516412356e-01	 3.9910386531e+00
 1.0630050227e+00	 4.1509787201e-01	 3.4762453956e+00
 1.0590789777e+00	 4.2501485122e-01	 2.8353147677e+00
 1.0550526295e+00	 4.3491360449e-01	 2.1103072464e+00
 1.0509259594e+00	 4.4479266895e-01	 1.3460618338e+00
 1.0466989762e+00	 4.5465057614e-01	 5.9017438468e-01
 1.0423717163e+00	 4.6448585262e-01	-1.0702804236e-01
 1.0379442443e+00	 4.7429702066e-01	-6.9251682251e-01
 1.0334166527e+00	 4.8408259882e-01	-1.1105953949e+00
 1.0287890626e+00	 4.9384110262e-01	-1.3029368826e+00
 1.0788348274e+00	 3.9827118050e-01	 3.5991886623e+00
 1.0750804151e+00	 4.0829718260e-01	 3.0732241583e+00
 1.0712250434e+00	 4.1830774689e-01	 2.4273824801e+00
 1.0672686391e+00	 4.2830141226e-01	 1.7038670174e+00
 1.0632111559e+00	 4.3827671075e-01	 9.4758070266e-01
 1.0590525750e+00	 4.4823216819e-01	 2.0610240571e-01
 1.0547929053e+00	 4.5816630474e-01	-4.7034059001e-01
 1.0504321835e+00	 4.6807763560e-01	-1.0289040389e+00
 1.0459704747e+00	 4.7796467158e-01	-1.4141621135e+00
 1.0414078721e+00	 4.8782591980e-01	-1.5681467062e+00
 1.0367444977e+00	 4.9765988430e-01	-1.4303906409e+00
 1.0871132486e+00	 4.0132730785e-01	 2.7450493778e+00
 1.0833300269e+00	 4.1143024431e-01	 2.0615401293e+00
 1.0794450712e+00	 4.2151762450e-01	 1.3098851413e+00
 1.0754583074e+00	 4.3158797609e-01	 5.3352922418e-01
 1.0713696892e+00	 4.4163981988e-01	-2.2167213021e-01
 1.0671791975e+00	 4.5167167035e-01	-9.0748240944e-01
 1.0628868413e+00	 4.6168203634e-01	-1.4733173597e+00
 1.0584926576e+00	 4.7166942163e-01	-1.8662818765e+00
 1.0539967119e+00	 4.8163232562e-01	-2.0312104944e+00
 1.0493990983e+00	 4.9156924396e-01	-1.9107114536e+00
 1.0446999395e+00	 5.0147866923e-01	-1.4452143173e+00
 1.0953916746e+00	 4.0438343693e-01	 1.8273602015e+00
 1.0915796435e+00	 4.1456330780e-01	 1.0171114981e+00
 1.0876651036e+00	 4.2472750393e-01	 1.9280983670e-01
 1.0836479804e+00	 4.3487454179e-01	-6.0252159304e-01
 1.0795282271e+00	 4.4500293091e-01	-1.3239270578e+00
 1.0753058246e+00	 4.5511117446e-01	-1.9245541597e+00
 1.0709807819e+00	 4.6519776993e-01	-2.3556927733e+00
 1.0665531362e+00	 4.7526120969e-01	-2.5668170148e+00
 1.0620229537e+00	 4.8529998173e-01	-2.5056302127e+00
 1.0573903290e+00	 4.9531257024e-01	-2.1181128397e+00
 1.0526553859e+00	 5.0529745632e-01	-1.3485733632e+00
 1.1036701029e+00	 4.0743956688e-01	 8.9400700990e-01
 1.0998292624e+00	 4.1769637217e-01	-7.5201919990e-04
 1.0958851383e+00	 4.2793738427e-01	-8.5684014894e-01
 1.0918376557e+00	 4.3816110842e-01	-1.6332851999e+00
 1.0876867674e+00	 4.4836604289e-01	-2.2878470641e+00
 1.0834324540e+00	 4.5855067955e-01	-2.7770599605e+00
 1.0790747247e+00	 4.6871350451e-01	-3.0562769319e+00
 1.0746136171e+00	 4.7885299878e-01	-3.0797165338e+00
 1.0700491977e+00	 4.8896763889e-01	-2.8005116618e+00
 1.0653815619e+00	 4.9905589759e-01	-2.1707604578e+00
 1.0606108344e+00	 5.0911624449e-01	-1.1415792319e+00
 9.8105672044e-01	 4.7092854131e-01	 1.8997306044e+00
 9.7654939274e-01	 4.8020547255e-01	 9.2222945297e-01
 9.7194705020e-01	 4.8945375776e-01	 1.1861171299e-01
 9.6724988951e-01	 4.9867197668e-01	-5.0191336360e-01
 9.6245813498e-01	 5.0785870872e-01	-9.3001613643e-01
 9.5757203867e-01	 5.1701253362e-01	-1.1562663384e+00
 9.5259188044e-01	 5.2613203208e-01	-1.1711531194e+00
 9.4751796805e-01	 5.3521578645e-01	-9.6510533523e-01
 9.4235063717e-01	 5.4426238140e-01	-5.2851204256e-01
 9.3709025147e-01	 5.5327040460e-01	 1.4825683735e-01
 9.3173720256e-01	 5.6223844740e-01	 1.0748297254e+00
 9.8901206759e-01	 4.7474728079e-01	 1.0686739525e+00
 9.8446819017e-01	 4.8409943827e-01	 2.5912972717e-02
 9.7982852743e-01	 4.9342271743e-01	-7.7259292876e-01
 9.7509327766e-01	 5.0271568649e-01	-1.3296464068e+00
 9.7026266700e-01	 5.1197691336e-01	-1.6489140761e+00
 9.6533694954e-01	 5.2120496623e-01	-1.7349381071e+00
 9.6031640743e-01	 5.3039841432e-01	-1.5931466355e+00
 9.5520135089e-01	 5.3955582847e-01	-1.2298629447e+00
 9.4999211835e-01	 5.4867578187e-01	-6.5231338102e-01
 9.4468907640e-01	 5.5775685075e-01	 1.3136603204e-01
 9.3929261984e-01	 5.6679761502e-01	 1.1121243149e+00
 9.9696743504e-01	 4.7856603001e-01	 3.5851937108e-01
 9.9238700779e-01	 4.8799341392e-01	-6.1935149467e-01
 9.8771002475e-01	 4.9739168722e-01	-1.3108690469e+00
 9.8293668581e-01	 5.0675940662e-01	-1.7293765999e+00
 9.7806721892e-01	 5.1609512849e-01	-1.8898676402e+00
 9.7310188022e-01	 5.2539740954e-01	-1.8089894555e+00
 9.6804095411e-01	 5.3466480743e-01	-1.5050443821e+00
 9.6288475333e-01	 5.4389588155e-01	-9.9798862872e-01
 9.5763361901e-01	 5.5308919359e-01	-3.0942864036e-01
 9.5228792071e-01	 5.6224330833e-01	 5.3738502971e-01
 9.4684805640e-01	 5.7135679427e-01	 1.5175663663e+00
 1.0049228205e+00	 4.8238478788e-01	-2.3227790397e-01
 1.0003058434e+00	 4.9188739840e-01	-1.0407659753e+00
 9.9559153995e-01	 5.0136066601e-01	-1.5447558337e+00
 9.9078011175e-01	 5.1080313591e-01	-1.7666975646e+00
 9.8587178854e-01	 5.2021335296e-01	-1.7312827713e+00
 9.8086682850e-01	 5.2958986234e-01	-1.4654404328e+00
 9.7576551830e-01	 5.3893121022e-01	-9.9832945571e-01
 9.7056817318e-01	 5.4823594446e-01	-3.6132787892e-01
 9.6527513700e-01	 5.5750261532e-01	 4.1198129991e-01
 9.5988678225e-01	 5.6672977608e-01	 1.2858277031e+00
 9.5440351008e-01	 5.7591598385e-01	 2.2222745755e+00
 1.0128782218e+00	 4.8620355333e-01	-7.0519234744e-01
 1.0082246946e+00	 4.9578139060e-01	-1.2646559263e+00
 1.0034730708e+00	 5.0532965267e-01	-1.5212453497e+00
 9.9862355324e-01	 5.1484687322e-01	-1.5051197668e+00
 9.9367637363e-01	 5.2433158560e-01	-1.2490794895e+00
 9.8863179217e-01	 5.3378232346e-01	-7.8855427334e-01
 9.8349009781e-01	 5.4319762147e-01	-1.6158763380e-01
 9.7825160827e-01	 5.5257601599e-01	 5.9118283713e-01
 9.7291667014e-01	 5.6191604579e-01	 1.4265491803e+00
 9.6748565886e-01	 5.7121625274e-01	 2.2987608233e+00
 9.6195897875e-01	 5.8047518247e-01	 3.1595563894e+00
 1.0208336366e+00	 4.9002232527e-01	-1.0616311112e+00
 1.0161435594e+00	 4.9967538942e-01	-1.3165046379e+00
 1.0113546150e+00	 5.0929864608e-01	-1.2858430742e+00
 1.0064670081e+00	 5.1889061741e-01	-1.0061519738e+00
 1.0014809720e+00	 5.2844982524e-01	-5.1678906498e-01
 9.9639676905e-01	 5.3797479171e-01	 1.4005485418e-01
 9.9121469045e-01	 5.4746403997e-01	 9.1937938004e-01
 9.8593505643e-01	 5.5691609490e-01	 1.7734023534e+00
 9.8055821627e-01	 5.6632948378e-01	 2.6515921146e+00
 9.7508454838e-01	 5.7570273701e-01	 3.5007041727e+00
 9.6951446026e-01	 5.8503438884e-01	 4.2648222891e+00
 1.0287890626e+00	 4.9384110262e-01	-1.3029368826e+00
 1.0240624354e+00	 5.0356939376e-01	-1.2209860712e+00
 1.0192361704e+00	 5.1326764511e-01	-8.8262568000e-01
 1.0143104740e+00	 5.2293436733e-01	-3.2937896762e-01
 1.0092855814e+00	 5.3256807072e-01	 3.9435328138e-01
 1.0041617569e+00	 5.4216726590e-01	 1.2413190586e+00
 9.9893929404e-01	 5.5173046451e-01	 2.1614459260e+00
 9.9361851547e-01	 5.6125617995e-01	 3.1018763196e+00
 9.8819977323e-01	 5.7074292801e-01	 4.0070073720e+00
 9.8268344868e-01	 5.8018922765e-01	 4.8185352519e+00
 9.7706995248e-01	 5.8959360168e-01	 5.4755040092e+00
 1.0367444977e+00	 4.9765988430e-01	-1.4303906409e+00
 1.0319813203e+00	 5.0746340251e-01	-1.0019962163e+00
 1.0271177347e+00	 5.1723664864e-01	-3.5429618237e-01
 1.0221539488e+00	 5.2697812183e-01	 4.6746428391e-01
 1.0170901997e+00	 5.3668632086e-01	 1.4153199089e+00
 1.0119267536e+00	 5.4635974484e-01	 2.4386186336e+00
 1.0066639064e+00	 5.5599689390e-01	 3.4840592934e+00
 1.0013019832e+00	 5.6559626992e-01	 4.4957336706e+00
 9.9584133886e-01	 5.7515637725e-01	 5.4151729174e+00
 9.9028235758e-01	 5.8467572337e-01	 6.1813983344e+00
 9.8462545326e-01	 5.9415281968e-01	 6.7309764826e+00
 1.0446999395e+00	 5.0147866923e-01	-1.4452143173e+00
 1.0399002120e+00	 5.1135741457e-01	-6.8268304773e-01
 1.0349993057e+00	 5.2120565554e-01	 2.5776339958e-01
 1.0299974303e+00	 5.3102187977e-01	 1.3284218115e+00
 1.0248948246e+00	 5.4080457451e-01	 2.4792062943e+00
 1.0196917569e+00	 5.5055222734e-01	 3.6576884094e+00
 1.0143885253e+00	 5.6026332690e-01	 4.8091412985e+00
 1.0089854575e+00	 5.6993636358e-01	 5.8765877883e+00
 1.0034829110e+00	 5.7956983023e-01	 6.8008524572e+00
 9.9788127295e-01	 5.8916222290e-01	 7.5206176368e+00
 9.9218096046e-01	 5.9871204156e-01	 7.9724833117e+00
 1.0526553859e+00	 5.0529745632e-01	-1.3485733632e+00
 1.0478191081e+00	 5.1525142884e-01	-2.8547515376e-01
 1.0428808812e+00	 5.2517466470e-01	 9.1344173639e-01
 1.0378409163e+00	 5.3506564000e-01	 2.1992490048e+00
 1.0326994539e+00	 5.4492283048e-01	 3.5211503635e+00
 1.0274567646e+00	 5.5474471222e-01	 4.8265283150e+00
 1.0221131486e+00	 5.6452976233e-01	 6.0609942884e+00
 1.0166689361e+00	 5.7427645971e-01	 7.1684421067e+00
 1.0111244874e+00	 5.8398328573e-01	 8.0911047523e+00
 1.0054801926e+00	 5.9364872498e-01	 8.7696143876e+00
 9.9973647194e-01	 6.0327126602e-01	 9.1430655806e+00
 1.0606108344e+00	 5.0911624449e-01	-1.1415792319e+00
 1.0557380065e+00	 5.1914544421e-01	 1.6789089268e-01
 1.0507624590e+00	 5.2914367498e-01	 1.5738501136e+00
 1.0456844044e+00	 5.3910940138e-01	 3.0273479844e+00
 1.0405040854e+00	 5.4904108763e-01	 4.4782554192e+00
 1.0352217745e+00	 5.5893719829e-01	 5.8753179290e+00
 1.0298377741e+00	 5.6879619897e-01	 7.1662113371e+00
 1.0243524169e+00	 5.7861655706e-01	 8.2975999276e+00
 1.0187660660e+00	 5.8839674247e-01	 9.2151969742e+00
 1.0130791144e+00	 5.9813522833e-01	 9.8638275898e+00
 1.0072919856e+00	 6.0783049177e-01	 1.0187493832e+01
 9.3173720256e-01	 5.6223844740e-01	 1.0748297254e+00
 9.2629191025e-01	 5.7116510568e-01	 2.0975043948e+00
 9.2075482320e-01	 5.8004898109e-01	 3.0452646412e+00
 9.1512641814e-01	 5.8888868122e-01	 3.9018600766e+00
 9.0940719963e-01	 5.9768282013e-01	 4.6512051327e+00
 9.0359769993e-01	 6.0643001899e-01	 5.2774087713e+00
 8.9769847889e-01	 6.1512890680e-01	 5.7648044282e+00
 8.9171012387e-01	 6.2377812107e-01	 6.0979801415e+00
 8.8563324950e-01	 6.3237630850e-01	 6.2618088125e+00
 8.7946849759e-01	 6.4092212563e-01	 6.2414785473e+00
 8.7321653691e-01	 6.4941423958e-01	 6.0225230234e+00
 9.3929261984e-01	 5.6679761502e-01	 1.1121243149e+00
 9.3380317190e-01	 5.7579665919e-01	 2.1295260622e+00
 9.2822118484e-01	 5.8475257357e-01	 3.0275977288e+00
 9.2254713929e-01	 5.9366395446e-01	 3.8035534053e+00
 9.1678154388e-01	 6.0252940466e-01	 4.4549642878e+00
 9.1092493519e-01	 6.1134753419e-01	 4.9797699742e+00
 9.0497787762e-01	 6.2011696091e-01	 5.3762896071e+00
 8.9894096328e-01	 6.2883631129e-01	 5.6432328406e+00
 8.9281481179e-01	 6.3750422105e-01	 5.7797106095e+00
 8.8660007018e-01	 6.4611933585e-01	 5.7852456775e+00
 8.8029741261e-01	 6.5468031199e-01	 5.6597829403e+00
 9.4684805640e-01	 5.7135679427e-01	 1.5175663663e+00
 9.4131445269e-01	 5.8042822451e-01	 2.4753462200e+00
 9.3568756552e-01	 5.8945617804e-01	 3.2778550860e+00
 9.2996787936e-01	 5.9843923987e-01	 3.9337211234e+00
 9.2415590693e-01	 6.0737600155e-01	 4.4520823376e+00
 9.1825218913e-01	 6.1626506192e-01	 4.8425820844e+00
 9.1225729491e-01	 6.2510502773e-01	 5.1153641068e+00
 9.0617182113e-01	 6.3389451440e-01	 5.2810671055e+00
 8.9999639240e-01	 6.4263214667e-01	 5.3508188470e+00
 8.9373166095e-01	 6.5131655932e-01	 5.3362298100e+00
 8.8737830637e-01	 6.5994639782e-01	 5.2493863744e+00
 9.5440351008e-01	 5.7591598385e-01	 2.2222745755e+00
 9.4882575052e-01	 5.8505980033e-01	 3.0792491440e+00
 9.4315396313e-01	 5.9415979318e-01	 3.7527545555e+00
 9.3738863625e-01	 6.0321453610e-01	 4.2608355135e+00
 9.3153028670e-01	 6.1222260943e-01	 4.6221604352e+00
 9.2557945969e-01	 6.2118260080e-01	 4.8560037477e+00
 9.1953672871e-01	 6.3009310586e-01	 4.9822274752e+00
 9.1340269537e-01	 6.3895272898e-01	 5.0212621387e+00
 9.0717798930e-01	 6.4776008392e-01	 4.9940869914e+00
 9.0086326789e-01	 6.5651379457e-01	 4.9222096160e+00
 8.9445921619e-01	 6.6521249560e-01	 4.8276449054e+00
 9.6195897875e-01	 5.8047518247e-01	 3.1595563894e+00
 9.5633706324e-01	 5.8969138534e-01	 3.8872947285e+00
 9.5062037554e-01	 5.9886341764e-01	 4.4103995124e+00
 9.4480940786e-01	 6.0798984180e-01	 4.7543856877e+00
 9.3890468109e-01	 6.1706922691e-01	 4.9454675596e+00
 9.3290674478e-01	 6.2610014943e-01	 5.0105304280e+00
 9.2681617694e-01	 6.3508119388e-01	 4.9771013430e+00
 9.2063358396e-01	 6.4401095359e-01	 4.8733190206e+00
 9.1435960043e-01	 6.5288803134e-01	 4.7279029571e+00
 9.0799488897e-01	 6.6171104013e-01	 4.5701217864e+00
 9.0154014004e-01	 6.7047860381e-01	 4.4297609194e+00
 9.6951446026e-01	 5.8503438884e-01	 4.2648222891e+00
 9.6384838874e-01	 5.9432297822e-01	 4.8472488500e+00
 9.5808680065e-01	 6.0356705010e-01	 5.2102244117e+00
 9.5223019208e-01	 6.1276515563e-01	 5.3848374882e+00
 9.4627908802e-01	 6.2191585264e-01	 5.4029140047e+00
 9.4023404232e-01	 6.3101770642e-01	 5.2969807846e+00
 9.3409563755e-01	 6.4006929039e-01	 5.1002280567e+00
 9.2786448484e-01	 6.4906918680e-01	 4.8464710354e+00
 9.2154122378e-01	 6.5801598748e-01	 4.5701106277e+00
 9.1512652218e-01	 6.6690829452e-01	 4.3060933210e+00
 9.0862107594e-01	 6.7574472098e-01	 4.0898703091e+00
 9.7706995248e-01	 5.8959360168e-01	 5.4755040092e+00
 9.7135972488e-01	 5.9895457766e-01	 5.9085169205e+00
 9.6555323634e-01	 6.0827068923e-01	 6.1129428222e+00
 9.5965098682e-01	 6.1754047621e-01	 6.1235952091e+00
 9.5365350540e-01	 6.2676248523e-01	 5.9760260576e+00
 9.4756135025e-01	 6.3593527038e-01	 5.7064836411e+00
 9.4137510847e-01	 6.4505739396e-01	 5.3518693354e+00
 9.3509539596e-01	 6.5412742717e-01	 4.9496934773e+00
 9.2872285730e-01	 6.6314395088e-01	 4.5380303388e+00
 9.2225816550e-01	 6.7210555628e-01	 4.1554722809e+00
 9.1570202187e-01	 6.8101084561e-01	 3.8410831538e+00
 9.8462545326e-01	 5.9415281968e-01	 6.7309764826e+00
 9.7887106952e-01	 6.0358618236e-01	 7.0220804604e+00
 9.7301968049e-01	 6.1297433368e-01	 7.0804978123e+00
 9.6707178997e-01	 6.2231580221e-01	 6.9429650391e+00
 9.6102793114e-01	 6.3160912332e-01	 6.6469218029e+00
 9.5488866648e-01	 6.4085283991e-01	 6.2304655144e+00
 9.4865458764e-01	 6.5004550318e-01	 5.7323049496e+00
 9.4232631528e-01	 6.5918567328e-01	 5.1917129647e+00
 9.3590449895e-01	 6.6827192009e-01	 4.6484783771e+00
 9.2938981689e-01	 6.7730282392e-01	 4.1428570838e+00
 9.2278297582e-01	 6.8627697621e-01	 3.7155224865e+00
 9.9218096046e-01	 5.9871204156e-01	 7.9724833117e+00
 9.8638242056e-01	 6.0821779099e-01	 8.1404365302e+00
 9.8048613099e-01	 6.1767798214e-01	 8.0760145638e+00
 9.7449259942e-01	 6.2709113227e-01	 7.8161201359e+00
 9.6840236314e-01	 6.3645576553e-01	 7.3982879927e+00
 9.6221598894e-01	 6.4577041363e-01	 6.8606386738e+00
 9.5593407300e-01	 6.5503361664e-01	 6.2418314203e+00
 9.4955724074e-01	 6.6424392369e-01	 5.5810162897e+00
 9.4308614672e-01	 6.7339989367e-01	 4.9177855497e+00
 9.3652147435e-01	 6.8250009599e-01	 4.2921244221e+00
 9.2986393579e-01	 6.9154311128e-01	 3.7443612498e+00
 9.9973647194e-01	 6.0327126602e-01	 9.1430655806e+00
 9.9389377585e-01	 6.1284940224e-01	 9.2175398688e+00
 9.8795258571e-01	 6.2238163326e-01	 9.0637550951e+00
 9.8191341308e-01	 6.3186646504e-01	 8.7170672449e+00
 9.7577679933e-01	 6.4130241048e-01	 8.2133579260e+00
 9.6954331555e-01	 6.5068799013e-01	 7.5889897019e+00
 9.6321356248e-01	 6.6002173293e-01	 6.8807607377e+00
 9.5678817031e-01	 6.6930217696e-01	 6.1258588274e+00
 9.5026779855e-01	 6.7852787015e-01	 5.3618148714e+00
 9.4365313585e-01	 6.8769737100e-01	 4.6264558749e+00
 9.3694489977e-01	 6.9680924934e-01	 3.9578575366e+00
 1.0072919856e+00	 6.0783049177e-01	 1.0187493832e+01
 1.0014051333e+00	 6.1748101481e-01	 1.0208747598e+01
 9.9541904256e-01	 6.2708528571e-01	 1.0009074982e+01
 9.8933422885e-01	 6.3664179916e-01	 9.6206147807e+00
 9.8315123760e-01	 6.4614905681e-01	 9.0758902854e+00
 9.7687064424e-01	 6.5560556802e-01	 8.4077685316e+00
 9.7049305402e-01	 6.6500985064e-01	 7.6494190983e+00
 9.6401910192e-01	 6.7436043167e-01	 6.8342725259e+00
 9.5744945241e-01	 6.8365584808e-01	 5.9959784170e+00
 9.5078479937e-01	 6.9289464749e-01	 5.1683632840e+00
 9.4402586576e-01	 7.0207538890e-01	 4.3853882066e+00
 8.7321653691e-01	 6.4941423958e-01	 6.0225230234e+00
 8.6687697863e-01	 6.5785275749e-01	 5.6325486055e+00
 8.6045160364e-01	 6.6623491653e-01	 5.1301670236e+00
 8.5394116421e-01	 6.7455941392e-01	 4.5468470964e+00
 8.4734643864e-01	 6.8282496008e-01	 3.9131045159e+00
 8.4066823096e-01	 6.9103027925e-01	 3.2584541282e+00
 8.3390737064e-01	 6.9917411015e-01	 2.6113635907e+00
 8.2706471224e-01	 7.0725520659e-01	 1.9992084824e+00
 8.2014113507e-01	 7.1527233812e-01	 1.4482289372e+00
 8.1313754280e-01	 7.2322429065e-01	 9.8348786591e-01
 8.0605486311e-01	 7.3110986703e-01	 6.2883083169e-01
 8.8029741261e-01	 6.5468031199e-01	 5.6597829403e+00
 8.7390644713e-01	 6.6318725748e-01	 5.4277608107e+00
 8.6742896905e-01	 6.7163738709e-01	 5.1209926910e+00
 8.6086573674e-01	 6.8002938747e-01	 4.7504231055e+00
 8.5421753482e-01	 6.8836195859e-01	 4.3265981060e+00
 8.4748517384e-01	 6.9663381435e-01	 3.8596480034e+00
 8.4066948999e-01	 7.0484368322e-01	 3.3592707979e+00
 8.3377134477e-01	 7.1299030893e-01	 2.8347163307e+00
 8.2679162460e-01	 7.2107245104e-01	 2.2947711748e+00
 8.1973124050e-01	 7.2908888562e-01	 1.7477442829e+00
 8.1259112766e-01	 7.3703840580e-01	 1.2014534060e+00
 8.8737830637e-01	 6.5994639782e-01	 5.2493863744e+00
 8.8093593355e-01	 6.6852177107e-01	 5.1157261453e+00
 8.7440635224e-01	 6.7703987142e-01	 4.9484702107e+00
 8.6779032693e-01	 6.8549937497e-01	 4.7417054691e+00
 8.6108864852e-01	 6.9389897123e-01	 4.4895694717e+00
 8.5430213410e-01	 7.0223736374e-01	 4.1862583986e+00
 8.4743162659e-01	 7.1051327076e-01	 3.8260351881e+00
 8.4047799440e-01	 7.1872542590e-01	 3.4032377940e+00
 8.3344213109e-01	 7.2687257876e-01	 2.9122875487e+00
 8.2632495501e-01	 7.3495349554e-01	 2.3476976067e+00
 8.1912740888e-01	 7.4296695969e-01	 1.7040189578e+00
 8.9445921619e-01	 6.6521249560e-01	 4.8276449054e+00
 8.8796543591e-01	 6.7385629676e-01	 4.7399875955e+00
 8.8138375126e-01	 6.8244236800e-01	 4.6609636910e+00
 8.7471493281e-01	 6.9096937488e-01	 4.5713823579e+00
 8.6795977780e-01	 6.9943599641e-01	 4.4524487226e+00
 8.6111910982e-01	 7.0784092583e-01	 4.2857919625e+00
 8.5419377851e-01	 7.1618287114e-01	 4.0534931284e+00
 8.4718465923e-01	 7.2446055587e-01	 3.7381126437e+00
 8.4009265266e-01	 7.3267271962e-01	 3.3227174210e+00
 8.3291868447e-01	 7.4081811876e-01	 2.7909073609e+00
 8.2566370492e-01	 7.4889552701e-01	 2.1258958757e+00
 9.0154014004e-01	 6.7047860381e-01	 4.4297609194e+00
 8.9499495221e-01	 6.7919083302e-01	 4.3427526590e+00
 8.8836116411e-01	 6.8784487530e-01	 4.3053512119e+00
 8.8163955243e-01	 6.9643938563e-01	 4.2885838577e+00
 8.7483092070e-01	 7.0497303258e-01	 4.2641169868e+00
 8.6793609906e-01	 7.1344449903e-01	 4.2042992420e+00
 8.6095594385e-01	 7.2185248277e-01	 4.0822041011e+00
 8.5389133736e-01	 7.3019569721e-01	 3.8716718194e+00
 8.4674318742e-01	 7.3847287198e-01	 3.5473506461e+00
 8.3951242701e-01	 7.4668275360e-01	 3.0841533902e+00
 8.3220001392e-01	 7.5482410610e-01	 2.4570088201e+00
 9.0862107594e-01	 6.7574472098e-01	 4.0898703091e+00
 9.0202448046e-01	 6.8452537835e-01	 3.9649448638e+00
 8.9533858883e-01	 6.9324739178e-01	 3.9270822123e+00
 8.8856418382e-01	 7.0190940568e-01	 3.9409421703e+00
 8.8170207529e-01	 7.1051007816e-01	 3.9719662637e+00
 8.7475309988e-01	 7.1904808176e-01	 3.9864309269e+00
 8.6771812068e-01	 7.2752210404e-01	 3.9514999787e+00
 8.6059802689e-01	 7.3593084830e-01	 3.8352762746e+00
 8.5339373348e-01	 7.4427303421e-01	 3.6066158420e+00
 8.4610618077e-01	 7.5254739842e-01	 3.2337753369e+00
 8.3873633404e-01	 7.6075269526e-01	 2.6877214378e+00
 9.1570202187e-01	 6.8101084561e-01	 3.8410831538e+00
 9.0905401867e-01	 6.8985993124e-01	 3.6462528573e+00
 9.0231602343e-01	 6.9864991592e-01	 3.5702321754e+00
 8.9548882502e-01	 7.0737943348e-01	 3.5746489804e+00
 8.8857323962e-01	 7.1604713159e-01	 3.6219564599e+00
 8.8157011037e-01	 7.2465167243e-01	 3.6754914438e+00
 8.7448030709e-01	 7.3319173335e-01	 3.6995319701e+00
 8.6730472593e-01	 7.4166600752e-01	 3.6593347995e+00
 8.6004428897e-01	 7.5007320465e-01	 3.5194622672e+00
 8.5269994386e-01	 7.5841205155e-01	 3.2463049742e+00
 8.4527266341e-01	 7.6668129283e-01	 2.8086837834e+00
 9.2278297582e-01	 6.8627697621e-01	 3.7155224865e+00
 9.1608356484e-01	 6.9519449018e-01	 3.4251771954e+00
 9.0929346594e-01	 7.0405244618e-01	 3.2775547558e+00
 9.0241347407e-01	 7.1284946748e-01	 3.2345101415e+00
 8.9544441173e-01	 7.2158419129e-01	 3.2586697592e+00
 8.8838712858e-01	 7.3025526945e-01	 3.3134900423e+00
 8.8124250117e-01	 7.3886136908e-01	 3.3633153666e+00
 8.7401143257e-01	 7.4740117324e-01	 3.3723974467e+00
 8.6669485199e-01	 7.5587338167e-01	 3.3048311179e+00
 8.5929371442e-01	 7.6427671132e-01	 3.1280620572e+00
 8.5180900020e-01	 7.7260989711e-01	 2.8108211095e+00
 9.2986393579e-01	 6.9154311128e-01	 3.7443612498e+00
 9.2311311700e-01	 7.0052905365e-01	 3.3390749536e+00
 9.1627091438e-01	 7.0945498103e-01	 3.0905314862e+00
 9.0933812901e-01	 7.1831950613e-01	 2.9639978236e+00
 9.0231558968e-01	 7.2712125570e-01	 2.9253624683e+00
 8.9520415258e-01	 7.3585887124e-01	 2.9411895076e+00
 8.8800470099e-01	 7.4453100962e-01	 2.9783994343e+00
 8.8071814491e-01	 7.5313634384e-01	 3.0022420737e+00
 8.7334542067e-01	 7.6167356361e-01	 2.9811551520e+00
 8.6588749059e-01	 7.7014137608e-01	 2.8851622002e+00
 8.5834534253e-01	 7.7853850643e-01	 2.6853232042e+00
 9.3694489977e-01	 6.9680924934e-01	 3.9578575366e+00
 9.3014267313e-01	 7.0586362015e-01	 3.4242022770e+00
 9.2324836677e-01	 7.1485751894e-01	 3.0494191900e+00
 9.1626278787e-01	 7.2378954788e-01	 2.8053002569e+00
 9.0918677152e-01	 7.3265832325e-01	 2.6640144717e+00
 9.0202118045e-01	 7.4146247620e-01	 2.5981367761e+00
 8.9476690465e-01	 7.5020065339e-01	 2.5782531678e+00
 8.8742486104e-01	 7.5887151769e-01	 2.5762086656e+00
 8.7999599312e-01	 7.6747374885e-01	 2.5662984330e+00
 8.7248127050e-01	 7.7600604416e-01	 2.5235244321e+00
 8.6488168858e-01	 7.8446711912e-01	 2.4236342492e+00
 9.4402586576e-01	 7.0207538890e-01	 4.3853882066e+00
 9.3717223126e-01	 7.1119818816e-01	 3.7157549755e+00
 9.3022582114e-01	 7.2026005839e-01	 3.1932952214e+00
 9.2318744869e-01	 7.2925959118e-01	 2.7993691975e+00
 9.1605795531e-01	 7.3819539237e-01	 2.5153764222e+00
 9.0883821025e-01	 7.4706608275e-01	 2.3215606308e+00
 9.0152911022e-01	 7.5587029875e-01	 2.1961635790e+00
 8.9413157908e-01	 7.6460669316e-01	 2.1208056306e+00
 8.8664656745e-01	 7.7327393573e-01	 2.0775775251e+00
 8.7907505228e-01	 7.8187071391e-01	 2.0488784486e+00
 8.7141803647e-01	 7.9039573348e-01	 2.0174431693e+00
 8.0605486311e-01	 7.3110986703e-01	 6.2883083169e-01
 7.9889526895e-01	 7.3892656667e-01	 4.7408882204e-01
 7.9165852639e-01	 7.4667458537e-01	 5.5411211438e-01
 7.8434561935e-01	 7.5435279371e-01	 8.1075614006e-01
 7.7695755399e-01	 7.6196008148e-01	 1.1885688949e+00
 7.6949535827e-01	 7.6949535827e-01	 1.6341973159e+00
 7.6196008148e-01	 7.7695755399e-01	 2.0964372814e+00
 7.5435279371e-01	 7.8434561935e-01	 2.5263074142e+00
 7.4667458537e-01	 7.9165852639e-01	 2.8771195400e+00
 7.3892656667e-01	 7.9889526895e-01	 3.1042018925e+00
 7.3110986703e-01	 8.0605486311e-01	 3.1567037787e+00
 8.1259112766e-01	 7.3703840580e-01	 1.2014534060e+00
 8.0537347665e-01	 7.4491849072e-01	 7.6208876074e-01
 7.9807805166e-01	 7.5272933778e-01	 5.0704824400e-01
 7.9070584457e-01	 7.6046980838e-01	 4.0272221506e-01
 7.8325786970e-01	 7.6813878332e-01	 4.1675150749e-01
 7.7573516335e-01	 7.7573516335e-01	 5.1793470753e-01
 7.6813878332e-01	 7.8325786970e-01	 6.7627442750e-01
 7.6046980838e-01	 7.9070584457e-01	 8.6302170146e-01
 7.5272933778e-01	 7.9807805166e-01	 1.0507184233e+00
 7.4491849072e-01	 8.0537347665e-01	 1.2132377516e+00
 7.3703840580e-01	 8.1259112766e-01	 1.3243512596e+00
 8.1912740888e-01	 7.4296695969e-01	 1.7040189578e+00
 8.1185170088e-01	 7.5091043005e-01	 1.0888556861e+00
 8.0449759330e-01	 7.5878410563e-01	 6.0448948928e-01
 7.9706608601e-01	 7.6658683865e-01	 2.3721247228e-01
 7.8955820148e-01	 7.7431750092e-01	-2.6304231420e-02
 7.8197498435e-01	 7.8197498435e-01	-1.9898900368e-01
 7.7431750092e-01	 7.8955820148e-01	-2.9334901075e-01
 7.6658683865e-01	 7.9706608601e-01	-3.2145023890e-01
 7.5878410563e-01	 8.0449759330e-01	-2.9489833590e-01
 7.5091043005e-01	 8.1185170088e-01	-2.2482029509e-01
 7.4296695969e-01	 8.1912740888e-01	-1.2184701674e-01
 8.2566370492e-01	 7.4889552701e-01	 2.1258958757e+00
 8.1832993980e-01	 7.5690238297e-01	 1.4267050043e+00
 8.1091714950e-01	 7.6483888720e-01	 8.0462663769e-01
 8.0342634186e-01	 7.7270388279e-01	 2.6162149087e-01
 7.9585854754e-01	 7.8049623253e-01	-2.0055243268e-01
 7.8821481949e-01	 7.8821481949e-01	-5.8033964781e-01
 7.8049623253e-01	 7.9585854754e-01	-8.7638686755e-01
 7.7270388279e-01	 8.0342634186e-01	-1.0875425630e+00
 7.6483888720e-01	 8.1091714950e-01	-1.2128564101e+00
 7.5690238297e-01	 8.1832993980e-01	-1.2515786289e+00
 7.4889552701e-01	 8.2566370492e-01	-1.2031592213e+00
 8.3220001392e-01	 7.5482410610e-01	 2.4570088201e+00
 8.2480819156e-01	 7.6289434777e-01	 1.7488364979e+00
 8.1733671842e-01	 7.7089368078e-01	 1.0669521512e+00
 8.0978661033e-01	 7.7882093906e-01	 4.2498442632e-01
 8.0215890609e-01	 7.8667497639e-01	-1.6407604427e-01
 7.9445466701e-01	 7.9445466701e-01	-6.8789243636e-01
 7.8667497639e-01	 8.0215890609e-01	-1.1347967634e+00
 7.7882093906e-01	 8.0978661033e-01	-1.4938041212e+00
 7.7089368078e-01	 8.1733671842e-01	-1.7546261297e+00
 7.6289434777e-01	 8.2480819156e-01	-1.9076835556e+00
 7.5482410610e-01	 8.3220001392e-01	-1.9441180991e+00
 8.3873633404e-01	 7.6075269526e-01	 2.6877214378e+00
 8.3128645434e-01	 7.6888632276e-01	 2.0292736121e+00
 8.2375629826e-01	 7.7694848466e-01	 1.3522091728e+00
 8.1614688962e-01	 7.8493800573e-01	 6.7791282263e-01
 8.0845927536e-01	 7.9285373076e-01	 2.6839985557e-02
 8.0069452513e-01	 8.0069452513e-01	-5.8150977228e-01
 7.9285373076e-01	 8.0845927536e-01	-1.1286181278e+00
 7.8493800573e-01	 8.1614688962e-01	-1.5969721560e+00
 7.7694848466e-01	 8.2375629826e-01	-1.9700872198e+00
 7.6888632276e-01	 8.3128645434e-01	-2.2325285632e+00
 7.6075269526e-01	 8.3873633404e-01	-2.3699315756e+00
 8.4527266341e-01	 7.6668129283e-01	 2.8086837834e+00
 8.3776472629e-01	 7.7487830623e-01	 2.2428313620e+00
 8.3017588720e-01	 7.8300329711e-01	 1.6223429349e+00
 8.2250717791e-01	 7.9105508106e-01	 9.7253343864e-01
 8.1475965355e-01	 7.9903249388e-01	 3.1763897560e-01
 8.0693439210e-01	 8.0693439210e-01	-3.1921541393e-01
 7.9903249388e-01	 8.1475965355e-01	-9.1604656542e-01
 7.9105508106e-01	 8.2250717791e-01	-1.4520425442e+00
 7.8300329711e-01	 8.3017588720e-01	-1.9075904970e+00
 7.7487830623e-01	 8.3776472629e-01	-2.2643029598e+00
 7.6668129283e-01	 8.4527266341e-01	-2.5050425848e+00
 8.5180900020e-01	 7.7260989711e-01	 2.8108211095e+00
 8.4424300559e-01	 7.8087029650e-01	 2.3650857524e+00
 8.3659548341e-01	 7.8905811643e-01	 1.8404544410e+00
 8.2886747342e-01	 7.9717216333e-01	 1.2624299265e+00
 8.2106003889e-01	 8.0521126400e-01	 6.5542602536e-01
 8.1317426614e-01	 8.1317426614e-01	 4.2734811404e-02
 8.0521126400e-01	 8.2106003889e-01	-5.5350476266e-01
 7.9717216333e-01	 8.2886747342e-01	-1.1123367687e+00
 7.8905811643e-01	 8.3659548341e-01	-1.6140166878e+00
 7.8087029650e-01	 8.4424300559e-01	-2.0400382348e+00
 7.7260989711e-01	 8.5180900020e-01	-2.3731585837e+00
 8.5834534253e-01	 7.7853850643e-01	 2.6853232042e+00
 8.5072129039e-01	 7.8686229187e-01	 2.3723446317e+00
 8.4301508508e-01	 7.9511294089e-01	 1.9707562991e+00
 8.3522777433e-01	 8.0328925080e-01	 1.5025872104e+00
 8.2736042958e-01	 8.1139003938e-01	 9.8890460205e-01
 8.1941414548e-01	 8.1941414548e-01	 4.4978556073e-01
 8.1139003938e-01	 8.2736042958e-01	-9.5710118176e-02
 8.0328925080e-01	 8.3522777433e-01	-6.2956579313e-01
 7.9511294089e-01	 8.4301508508e-01	-1.1348325231e+00
 7.8686229187e-01	 8.5072129039e-01	-1.5956522636e+00
 7.7853850643e-01	 8.5834534253e-01	-1.9972796794e+00
 8.6488168858e-01	 7.8446711912e-01	 2.4236342492e+00
 8.5719957887e-01	 7.9285429062e-01	 2.2416199025e+00
 8.4943469038e-01	 8.0116776879e-01	 1.9785305940e+00
 8.4158807884e-01	 8.0940634174e-01	 1.6493384233e+00
 8.3366082384e-01	 8.1756881826e-01	 1.2683160386e+00
 8.2565402836e-01	 8.2565402836e-01	 8.4901762247e-01
 8.1756881826e-01	 8.3366082384e-01	 4.0426072903e-01
 8.0940634174e-01	 8.4158807884e-01	-5.3891004901e-02
 8.0116776879e-01	 8.4943469038e-01	-5.1414425230e-01
 7.9285429062e-01	 8.5719957887e-01	-9.6599147134e-01
 7.8446711912e-01	 8.6488168858e-01	-1.3997254438e+00
 8.7141803647e-01	 7.9039573348e-01	 2.0174431693e+00
 8.6367786918e-01	 7.9884629108e-01	 1.9506010188e+00
 8.5585429751e-01	 8.0722259840e-01	 1.8300886901e+00
 8.4794838516e-01	 8.1552343441e-01	 1.6603142665e+00
 8.3996121988e-01	 8.2374759889e-01	 1.4453817899e+00
 8.3189391300e-01	 8.3189391300e-01	 1.1890864954e+00
 8.2374759889e-01	 8.3996121988e-01	 8.9491031147e-01
 8.1552343441e-01	 8.4794838516e-01	 5.6601762143e-01
 8.0722259840e-01	 8.5585429751e-01	 2.0525128784e-01
 7.9884629108e-01	 8.6367786918e-01	-1.8487106103e-01
 7.9039573348e-01	 8.7141803647e-01	-6.0216048226e-01
 7.3110986703e-01	 8.0605486311e-01	 3.1567037787e+00
 7.2322429065e-01	 8.1313754280e-01	 3.0069300169e+00
 7.1527233812e-01	 8.2014113507e-01	 2.6937935617e+00
 7.0725520659e-01	 8.2706471224e-01	 2.2697693279e+00
 6.9917411015e-01	 8.3390737064e-01	 1.7855971576e+00
 6.9103027925e-01	 8.4066823096e-01	 1.2902138139e+00
 6.8282496008e-01	 8.4734643864e-01	 8.3068771362e-01
 6.7455941392e-01	 8.5394116421e-01	 4.5215652011e-01
 6.6623491653e-01	 8.6045160364e-01	 1.9776771473e-01
 6.5785275749e-01	 8.6687697863e-01	 1.0862225398e-01
 6.4941423958e-01	 8.7321653691e-01	 2.2372141501e-01
 7.3703840580e-01	 8.1259112766e-01	 1.3243512596e+00
 7.2908888562e-01	 8.1973124050e-01	 1.3263820327e+00
 7.2107245104e-01	 8.2679162460e-01	 1.2106290917e+00
 7.1299030893e-01	 8.3377134477e-01	 1.0136708858e+00
 7.0484368322e-01	 8.4066948999e-01	 7.7097565136e-01
 6.9663381435e-01	 8.4748517384e-01	 5.1685133279e-01
 6.8836195859e-01	 8.5421753482e-01	 2.8439728541e-01
 6.8002938747e-01	 8.6086573674e-01	 1.0545785928e-01
 6.7163738709e-01	 8.6742896905e-01	 1.0577959990e-02
 6.6318725748e-01	 8.7390644713e-01	 2.8960676338e-02
 6.5468031199e-01	 8.8029741261e-01	 1.8842705964e-01
 7.4296695969e-01	 8.1912740888e-01	-1.2184701674e-01
 7.3495349554e-01	 8.2632495501e-01	-4.6671780340e-02
 7.2687257876e-01	 8.3344213109e-01	-4.3598892069e-02
 7.1872542590e-01	 8.4047799440e-01	-8.9822761538e-02
 7.1051327076e-01	 8.4743162659e-01	-1.6255873528e-01
 7.0223736374e-01	 8.5430213410e-01	-2.3964076153e-01
 6.9389897123e-01	 8.6108864852e-01	-2.9955562255e-01
 6.8549937497e-01	 8.6779032693e-01	-3.2147611119e-01
 6.7703987142e-01	 8.7440635224e-01	-2.8529307340e-01
 6.6852177107e-01	 8.8093593355e-01	-1.7164624173e-01
 6.5994639782e-01	 8.8737830637e-01	 3.8046211287e-02
 7.4889552701e-01	 8.2566370492e-01	-1.2031592213e+00
 7.4081811876e-01	 8.3291868447e-01	-1.1231336833e+00
 7.3267271962e-01	 8.4009265266e-01	-1.0657040344e+00
 7.2446055587e-01	 8.4718465923e-01	-1.0255197144e+00
 7.1618287114e-01	 8.5419377851e-01	-9.8994900866e-01
 7.0784092583e-01	 8.6111910982e-01	-9.4653514397e-01
 6.9943599641e-01	 8.6795977780e-01	-8.8302067887e-01
 6.9096937488e-01	 8.7471493281e-01	-7.8737015557e-01
 6.8244236800e-01	 8.8138375126e-01	-6.4779230437e-01
 6.7385629676e-01	 8.8796543591e-01	-4.5276173752e-01
 6.6521249560e-01	 8.9445921619e-01	-1.9104007173e-01
 7.5482410610e-01	 8.3220001392e-01	-1.9441180991e+00
 7.4668275360e-01	 8.3951242701e-01	-1.9095822954e+00
 7.3847287198e-01	 8.4674318742e-01	-1.8525883438e+00
 7.3019569721e-01	 8.5389133736e-01	-1.7786949195e+00
 7.2185248277e-01	 8.6095594385e-01	-1.6869162500e+00
 7.1344449903e-01	 8.6793609906e-01	-1.5721248237e+00
 7.0497303258e-01	 8.7483092070e-01	-1.4290395174e+00
 6.9643938563e-01	 8.8163955243e-01	-1.2522404028e+00
 6.8784487530e-01	 8.8836116411e-01	-1.0361836391e+00
 6.7919083302e-01	 8.9499495221e-01	-7.7521639438e-01
 6.7047860381e-01	 9.0154014004e-01	-4.6359174482e-01
 7.6075269526e-01	 8.3873633404e-01	-2.3699315756e+00
 7.5254739842e-01	 8.4610618077e-01	-2.4124587145e+00
 7.4427303421e-01	 8.5339373348e-01	-2.3998230804e+00
 7.3593084830e-01	 8.6059802689e-01	-2.3350724399e+00
 7.2752210404e-01	 8.6771812068e-01	-2.2299298019e+00
 7.1904808176e-01	 8.7475309988e-01	-2.0856839328e+00
 7.1051007816e-01	 8.8170207529e-01	-1.9017998775e+00
 7.0190940568e-01	 8.8856418382e-01	-1.6773446510e+00
 6.9324739178e-01	 8.9533858883e-01	-1.4109973115e+00
 6.8452537835e-01	 9.0202448046e-01	-1.1010594482e+00
 6.7574472098e-01	 9.0862107594e-01	-7.4546603481e-01
 7.6668129283e-01	 8.4527266341e-01	-2.5050425848e+00
 7.5841205155e-01	 8.5269994386e-01	-2.6415458374e+00
 7.5007320465e-01	 8.6004428897e-01	-2.6989165280e+00
 7.4166600752e-01	 8.6730472593e-01	-2.6807063213e+00
 7.3319173335e-01	 8.7448030709e-01	-2.5961788653e+00
 7.2465167243e-01	 8.8157011037e-01	-2.4574303610e+00
 7.1604713159e-01	 8.8857323962e-01	-2.2665918997e+00
 7.0737943348e-01	 8.9548882502e-01	-2.0251350049e+00
 6.9864991592e-01	 9.0231602343e-01	-1.7339816023e+00
 6.8985993124e-01	 9.0905401867e-01	-1.3935123813e+00
 6.8101084561e-01	 9.1570202187e-01	-1.0035757557e+00
 7.7260989711e-01	 8.5180900020e-01	-2.3731585837e+00
 7.6427671132e-01	 8.5929371442e-01	-2.6063415093e+00
 7.5587338167e-01	 8.6669485199e-01	-2.7463896935e+00
 7.4740117324e-01	 8.7401143257e-01	-2.7974749379e+00
 7.3886136908e-01	 8.8124250117e-01	-2.7635454314e+00
 7.3025526945e-01	 8.8838712858e-01	-2.6584901384e+00
 7.2158419129e-01	 8.9544441173e-01	-2.4897664605e+00
 7.1284946748e-01	 9.0241347407e-01	-2.2592127219e+00
 7.0405244618e-01	 9.0929346594e-01	-1.9680568078e+00
 6.9519449018e-01	 9.1608356484e-01	-1.6169246806e+00
 6.8627697621e-01	 9.2278297582e-01	-1.2058495717e+00
 7.7853850643e-01	 8.5834534253e-01	-1.9972796794e+00
 7.7014137608e-01	 8.6588749059e-01	-2.3160695062e+00
 7.6167356361e-01	 8.7334542067e-01	-2.5394219599e+00
 7.5313634384e-01	 8.8071814491e-01	-2.6697648875e+00
 7.4453100962e-01	 8.8800470099e-01	-2.7089524045e+00
 7.3585887124e-01	 8.9520415258e-01	-2.6608634721e+00
 7.2712125570e-01	 9.0231558968e-01	-2.5386954381e+00
 7.1831950613e-01	 9.0933812901e-01	-2.3442851477e+00
 7.0945498103e-01	 9.1627091438e-01	-2.0772713404e+00
 7.0052905365e-01	 9.2311311700e-01	-1.7367316458e+00
 6.9154311128e-01	 9.2986393579e-01	-1.3211941049e+00
 7.8446711912e-01	 8.6488168858e-01	-1.3997254438e+00
 7.7600604416e-01	 8.7248127050e-01	-1.7796899822e+00
 7.6747374885e-01	 8.7999599312e-01	-2.0752936848e+00
 7.5887151769e-01	 8.8742486104e-01	-2.2849042114e+00
 7.5020065339e-01	 8.9476690465e-01	-2.4064309371e+00
 7.4146247620e-01	 9.0202118045e-01	-2.4373292364e+00
 7.3265832325e-01	 9.0918677152e-01	-2.3817338067e+00
 7.2378954788e-01	 9.1626278787e-01	-2.2461246324e+00
 7.1485751894e-01	 9.2324836677e-01	-2.0267598467e+00
 7.0586362015e-01	 9.3014267313e-01	-1.7194141376e+00
 6.9680924934e-01	 9.3694489977e-01	-1.3194577883e+00
 7.9039573348e-01	 8.7141803647e-01	-6.0216048226e-01
 7.8187071391e-01	 8.7907505228e-01	-1.0059094058e+00
 7.7327393573e-01	 8.8664656745e-01	-1.3513824701e+00
 7.6460669316e-01	 8.9413157908e-01	-1.6306173325e+00
 7.5587029875e-01	 9.0152911022e-01	-1.8353947698e+00
 7.4706608275e-01	 9.0883821025e-01	-1.9572507205e+00
 7.3819539237e-01	 9.1605795531e-01	-1.9881834636e+00
 7.2925959118e-01	 9.2318744869e-01	-1.9315293228e+00
 7.2026005839e-01	 9.3022582114e-01	-1.7827032372e+00
 7.1119818816e-01	 9.3717223126e-01	-1.5324601655e+00
 7.0207538890e-01	 9.4402586576e-01	-1.1713963746e+00
 6.4941423958e-01	 8.7321653691e-01	 2.2372141501e-01
 6.4092212563e-01	 8.7946849759e-01	 4.6092458278e-01
 6.3237630850e-01	 8.8563324950e-01	 7.0477448820e-01
 6.2377812107e-01	 8.9171012387e-01	 9.4309641952e-01
 6.1512890680e-01	 8.9769847889e-01	 1.1644141732e+00
 6.0643001899e-01	 9.0359769993e-01	 1.3579539557e+00
 5.9768282013e-01	 9.0940719963e-01	 1.5136474957e+00
 5.8888868122e-01	 9.1512641814e-01	 1.6221343830e+00
 5.8004898109e-01	 9.2075482320e-01	 1.6747636537e+00
 5.7116510568e-01	 9.2629191025e-01	 1.6635946381e+00
 5.6223844740e-01	 9.3173720256e-01	 1.5813970893e+00
 6.5468031199e-01	 8.8029741261e-01	 1.8842705964e-01
 6.4611933585e-01	 8.8660007018e-01	 4.2324632268e-01
 6.3750422105e-01	 8.9281481179e-01	 6.4565253653e-01
 6.2883631129e-01	 8.9894096328e-01	 8.4964167662e-01
 6.2011696091e-01	 9.0497787762e-01	 1.0297527784e+00
 6.1134753419e-01	 9.1092493519e-01	 1.1810646127e+00
 6.0252940466e-01	 9.1678154388e-01	 1.2991918607e+00
 5.9366395446e-01	 9.2254713929e-01	 1.3802808155e+00
 5.8475257357e-01	 9.2822118484e-01	 1.4210046366e+00
 5.7579665919e-01	 9.3380317190e-01	 1.4185581852e+00
 5.6679761502e-01	 9.3929261984e-01	 1.3706524622e+00
 6.5994639782e-01	 8.8737830637e-01	 3.8046211287e-02
 6.5131655932e-01	 8.9373166095e-01	 2.8753920931e-01
 6.4263214667e-01	 8.9999639240e-01	 5.0780425475e-01
 6.3389451440e-01	 9.0617182113e-01	 6.9782277027e-01
 6.2510502773e-01	 9.1225729491e-01	 8.5698249226e-01
 6.1626506192e-01	 9.1825218913e-01	 9.8506830260e-01
 6.0737600155e-01	 9.2415590693e-01	 1.0822528128e+00
 5.9843923987e-01	 9.2996787936e-01	 1.1490867359e+00
 5.8945617804e-01	 9.3568756552e-01	 1.1864890796e+00
 5.8042822451e-01	 9.4131445269e-01	 1.1957371935e+00
 5.7135679427e-01	 9.4684805640e-01	 1.1784567015e+00
 6.6521249560e-01	 8.9445921619e-01	-1.9104007173e-01
 6.5651379457e-01	 9.0086326789e-01	 8.5046831261e-02
 6.4776008392e-01	 9.0717798930e-01	 3.1765665493e-01
 6.3895272898e-01	 9.1340269537e-01	 5.0959724068e-01
 6.3009310586e-01	 9.1953672871e-01	 6.6396435063e-01
 6.2118260080e-01	 9.2557945969e-01	 7.8412801969e-01
 6.1222260943e-01	 9.3153028670e-01	 8.7371887719e-01
 6.0321453610e-01	 9.3738863625e-01	 9.3661447925e-01
 5.9415979318e-01	 9.4315396313e-01	 9.7692569139e-01
 5.8505980033e-01	 9.4882575052e-01	 9.9898315841e-01
 5.7591598385e-01	 9.5440351008e-01	 1.0073238966e+00
 6.7047860381e-01	 9.0154014004e-01	-4.6359174482e-01
 6.6171104013e-01	 9.0799488897e-01	-1.5396785889e-01
 6.5288803134e-01	 9.1435960043e-01	 1.0080647272e-01
 6.4401095359e-01	 9.2063358396e-01	 3.0623187151e-01
 6.3508119388e-01	 9.2681617694e-01	 4.6799650207e-01
 6.2610014943e-01	 9.3290674478e-01	 5.9195929012e-01
 6.1706922691e-01	 9.3890468109e-01	 6.8413329202e-01
 6.0798984180e-01	 9.4480940786e-01	 7.5066926100e-01
 5.9886341764e-01	 9.5062037554e-01	 7.9783945319e-01
 5.8969138534e-01	 9.5633706324e-01	 8.3202171378e-01
 5.8047518247e-01	 9.6195897875e-01	 8.5968388099e-01
 6.7574472098e-01	 9.0862107594e-01	-7.4546603481e-01
 6.6690829452e-01	 9.1512652218e-01	-4.0018507707e-01
 6.5801598748e-01	 9.2154122378e-01	-1.1794824721e-01
 6.4906918680e-01	 9.2786448484e-01	 1.0832881816e-01
 6.4006929039e-01	 9.3409563755e-01	 2.8583533545e-01
 6.3101770642e-01	 9.4023404232e-01	 4.2184678629e-01
 6.2191585264e-01	 9.4627908802e-01	 5.2370662797e-01
 6.1276515563e-01	 9.5223019208e-01	 5.9880835013e-01
 6.0356705010e-01	 9.5808680065e-01	 6.5457792227e-01
 5.9432297822e-01	 9.6384838874e-01	 6.9845667425e-01
 5.8503438884e-01	 9.6951446026e-01	 7.3788464843e-01
 6.8101084561e-01	 9.1570202187e-01	-1.0035757557e+00
 6.7210555628e-01	 9.2225816550e-01	-6.2519250769e-01
 6.6314395088e-01	 9.2872285730e-01	-3.1457806066e-01
 6.5412742717e-01	 9.3509539596e-01	-6.4149506092e-02
 6.4505739396e-01	 9.4137510847e-01	 1.3371559713e-01
 6.3593527038e-01	 9.4756135025e-01	 2.8666013999e-01
 6.2676248523e-01	 9.5365350540e-01	 4.0232879140e-01
 6.1754047621e-01	 9.5965098682e-01	 4.8834978550e-01
 6.0827068923e-01	 9.6555323634e-01	 5.5231721319e-01
 5.9895457766e-01	 9.7135972488e-01	 6.0177385992e-01
 5.8959360168e-01	 9.7706995248e-01	 6.4419462783e-01
 6.8627697621e-01	 9.2278297582e-01	-1.2058495717e+00
 6.7730282392e-01	 9.2938981689e-01	-8.0145127605e-01
 6.6827192009e-01	 9.3590449895e-01	-4.6579344791e-01
 6.5918567328e-01	 9.4232631528e-01	-1.9185671911e-01
 6.5004550318e-01	 9.4865458764e-01	 2.7369552093e-02
 6.4085283991e-01	 9.5488866648e-01	 1.9886899749e-01
 6.3160912332e-01	 9.6102793114e-01	 3.2958044489e-01
 6.2231580221e-01	 9.6707178997e-01	 4.2638066074e-01
 6.1297433368e-01	 9.7301968049e-01	 4.9606767303e-01
 6.0358618236e-01	 9.7887106952e-01	 5.4534471444e-01
 5.9415281968e-01	 9.8462545326e-01	 5.8080482243e-01
 6.9154311128e-01	 9.2986393579e-01	-1.3211941049e+00
 6.8250009599e-01	 9.3652147435e-01	-9.0226350419e-01
 6.7339989367e-01	 9.4308614672e-01	-5.4901747714e-01
 6.6424392369e-01	 9.4955724074e-01	-2.5603987181e-01
 6.5503361664e-01	 9.5593407300e-01	-1.7954759929e-02
 6.4577041363e-01	 9.6221598894e-01	 1.7055735693e-01
 6.3645576553e-01	 9.6840236314e-01	 3.1474387599e-01
 6.2709113227e-01	 9.7449259942e-01	 4.1976500067e-01
 6.1767798214e-01	 9.8048613099e-01	 4.9067926727e-01
 6.0821779099e-01	 9.8638242056e-01	 5.3242972772e-01
 5.9871204156e-01	 9.9218096046e-01	 5.4983082152e-01
 6.9680924934e-01	 9.3694489977e-01	-1.3194577883e+00
 6.8769737100e-01	 9.4365313585e-01	-9.0174136646e-01
 6.7852787015e-01	 9.5026779855e-01	-5.4235973616e-01
 6.6930217696e-01	 9.5678817031e-01	-2.3851790382e-01
 6.6002173293e-01	 9.6321356248e-01	 1.2523874306e-02
 6.5068799013e-01	 9.6954331555e-01	 2.1343722592e-01
 6.4130241048e-01	 9.7577679933e-01	 3.6681334337e-01
 6.3186646504e-01	 9.8191341308e-01	 4.7515125053e-01
 6.2238163326e-01	 9.8795258571e-01	 5.4084669159e-01
 6.1284940224e-01	 9.9389377585e-01	 5.6618167362e-01
 6.0327126602e-01	 9.9973647194e-01	 5.5331469112e-01
 7.0207538890e-01	 9.4402586576e-01	-1.1713963746e+00
 6.9289464749e-01	 9.5078479937e-01	-7.7477756618e-01
 6.8365584808e-01	 9.5744945241e-01	-4.2459146616e-01
 6.7436043167e-01	 9.6401910192e-01	-1.2166109788e-01
 6.6500985064e-01	 9.7049305402e-01	 1.3313642810e-01
 6.5560556802e-01	 9.7687064424e-01	 3.3886163508e-01
 6.4614905681e-01	 9.8315123760e-01	 4.9450492769e-01
 6.3664179916e-01	 9.8933422885e-01	 5.9897939864e-01
 6.2708528571e-01	 9.9541904256e-01	 6.5111422395e-01
 6.1748101481e-01	 1.0014051333e+00	 6.4964867229e-01
 6.0783049177e-01	 1.0072919856e+00	 5.9322675003e-01
 5.6223844740e-01	 9.3173720256e-01	 1.5813970893e+00
 5.5327040460e-01	 9.3709025147e-01	 1.4801220792e+00
 5.4426238140e-01	 9.4235063717e-01	 1.4133521798e+00
 5.3521578645e-01	 9.4751796805e-01	 1.3766738193e+00
 5.2613203208e-01	 9.5259188044e-01	 1.3654609410e+00
 5.1701253362e-01	 9.5757203867e-01	 1.3748816882e+00
 5.0785870872e-01	 9.6245813498e-01	 1.3999055950e+00
 4.9867197668e-01	 9.6724988951e-01	 1.4353112651e+00
 4.8945375776e-01	 9.7194705020e-01	 1.4756945212e+00
 4.8020547255e-01	 9.7654939274e-01	 1.5154770058e+00
 4.7092854131e-01	 9.8105672044e-01	 1.5489152095e+00
 5.6679761502e-01	 9.3929261984e-01	 1.3706524622e+00
 5.5775685075e-01	 9.4468907640e-01	 1.3236889264e+00
 5.4867578187e-01	 9.4999211835e-01	 1.3199824771e+00
 5.3955582847e-01	 9.5520135089e-01	 1.3513250800e+00
 5.3039841432e-01	 9.6031640743e-01	 1.4092876620e+00
 5.2120496623e-01	 9.6533694954e-01	 1.4852321787e+00
 5.1197691336e-01	 9.7026266700e-01	 1.5703241509e+00
 5.0271568649e-01	 9.7509327766e-01	 1.6555456448e+00
 4.9342271743e-01	 9.7982852743e-01	 1.7317086707e+00
 4.8409943827e-01	 9.8446819017e-01	 1.7894689706e+00
 4.7474728079e-01	 9.8901206759e-01	 1.8193401661e+00
 5.7135679427e-01	 9.4684805640e-01	 1.1784567015e+00
 5.6224330833e-01	 9.5228792071e-01	 1.1763869940e+00
 5.5308919359e-01	 9.5763361901e-01	 1.2227674061e+00
 5.4389588155e-01	 9.6288475333e-01	 1.3065564927e+00
 5.3466480743e-01	 9.6804095411e-01	 1.4164958528e+00
 5.2539740954e-01	 9.7310188022e-01	 1.5411261560e+00
 5.1609512849e-01	 9.7806721892e-01	 1.6688036024e+00
 5.0675940662e-01	 9.8293668581e-01	 1.7877167830e+00
 4.9739168722e-01	 9.8771002475e-01	 1.8859039106e+00
 4.8799341392e-01	 9.9238700779e-01	 1.9512703848e+00
 4.7856603001e-01	 9.9696743504e-01	 1.9716066586e+00
 5.7591598385e-01	 9.5440351008e-01	 1.0073238966e+00
 5.6672977608e-01	 9.5988678225e-01	 1.0398694916e+00
 5.5750261532e-01	 9.6527513700e-01	 1.1229017480e+00
 5.4823594446e-01	 9.7056817318e-01	 1.2434835701e+00
 5.3893121022e-01	 9.7576551830e-01	 1.3884774462e+00
 5.2958986234e-01	 9.8086682850e-01	 1.5445640312e+00
 5.2021335296e-01	 9.8587178854e-01	 1.6982611249e+00
 5.1080313591e-01	 9.9078011175e-01	 1.8359430125e+00
 5.0136066601e-01	 9.9559153995e-01	 1.9438601292e+00
 4.9188739840e-01	 1.0003058434e+00	 2.0081590138e+00
 4.8238478788e-01	 1.0049228205e+00	 2.0149025103e+00
 5.8047518247e-01	 9.6195897875e-01	 8.5968388099e-01
 5.7121625274e-01	 9.6748565886e-01	 9.1573207670e-01
 5.6191604579e-01	 9.7291667014e-01	 1.0215368621e+00
 5.5257601599e-01	 9.7825160827e-01	 1.1631806924e+00
 5.4319762147e-01	 9.8349009781e-01	 1.3265744298e+00
 5.3378232346e-01	 9.8863179217e-01	 1.4974770966e+00
 5.2433158560e-01	 9.9367637363e-01	 1.6615159886e+00
 5.1484687322e-01	 9.9862355324e-01	 1.8042071111e+00
 5.0532965267e-01	 1.0034730708e+00	 1.9109759006e+00
 4.9578139060e-01	 1.0082246946e+00	 1.9671781943e+00
 4.8620355333e-01	 1.0128782218e+00	 1.9581214044e+00
 5.8503438884e-01	 9.6951446026e-01	 7.3788464843e-01
 5.7570273701e-01	 9.7508454838e-01	 8.0551422852e-01
 5.6632948378e-01	 9.8055821627e-01	 9.1978150906e-01
 5.5691609490e-01	 9.8593505643e-01	 1.0666818437e+00
 5.4746403997e-01	 9.9121469045e-01	 1.2320799293e+00
 5.3797479171e-01	 9.9639676905e-01	 1.4017293637e+00
 5.2844982524e-01	 1.0014809720e+00	 1.5612925268e+00
 5.1889061741e-01	 1.0064670081e+00	 1.6963607485e+00
 5.0929864608e-01	 1.0113546150e+00	 1.7924747277e+00
 4.9967538942e-01	 1.0161435594e+00	 1.8351451634e+00
 4.9002232527e-01	 1.0208336366e+00	 1.8098735575e+00
 5.8959360168e-01	 9.7706995248e-01	 6.4419462783e-01
 5.8018922765e-01	 9.8268344868e-01	 7.1070052780e-01
 5.7074292801e-01	 9.8819977323e-01	 8.1870260573e-01
 5.6125617995e-01	 9.9361851547e-01	 9.5498128386e-01
 5.5173046451e-01	 9.9893929404e-01	 1.1062392129e+00
 5.4216726590e-01	 1.0041617569e+00	 1.2591192857e+00
 5.3256807072e-01	 1.0092855814e+00	 1.4002229371e+00
 5.2293436733e-01	 1.0143104740e+00	 1.5161286977e+00
 5.1326764511e-01	 1.0192361704e+00	 1.5934109674e+00
 5.0356939376e-01	 1.0240624354e+00	 1.6186589725e+00
 4.9384110262e-01	 1.0287890626e+00	 1.5784958702e+00
 5.9415281968e-01	 9.8462545326e-01	 5.8080482243e-01
 5.8467572337e-01	 9.9028235758e-01	 6.3272184790e-01
 5.7515637725e-01	 9.9584133886e-01	 7.1932591557e-01
 5.6559626992e-01	 1.0013019832e+00	 8.2903416025e-01
 5.5599689390e-01	 1.0066639064e+00	 9.5025061973e-01
 5.4635974484e-01	 1.0119267536e+00	 1.0713813727e+00
 5.3668632086e-01	 1.0170901997e+00	 1.1808499259e+00
 5.2697812183e-01	 1.0221539488e+00	 1.2671128247e+00
 5.1723664864e-01	 1.0271177347e+00	 1.3186754552e+00
 5.0746340251e-01	 1.0319813203e+00	 1.3241080104e+00
 4.9765988430e-01	 1.0367444977e+00	 1.2720615840e+00
 5.9871204156e-01	 9.9218096046e-01	 5.4983082152e-01
 5.8916222290e-01	 9.9788127295e-01	 5.7295646148e-01
 5.7956983023e-01	 1.0034829110e+00	 6.2263667775e-01
 5.6993636358e-01	 1.0089854575e+00	 6.8975706178e-01
 5.6026332690e-01	 1.0143885253e+00	 7.6526641653e-01
 5.5055222734e-01	 1.0196917569e+00	 8.4018770346e-01
 5.4080457451e-01	 1.0248948246e+00	 9.0562920293e-01
 5.3102187977e-01	 1.0299974303e+00	 9.5279586752e-01
 5.2120565554e-01	 1.0349993057e+00	 9.7300084636e-01
 5.1135741457e-01	 1.0399002120e+00	 9.5767715588e-01
 5.0147866923e-01	 1.0446999395e+00	 8.9838947125e-01
 6.0327126602e-01	 9.9973647194e-01	 5.5331469112e-01
 5.9364872498e-01	 1.0054801926e+00	 5.3273106740e-01
 5.8398328573e-01	 1.0111244874e+00	 5.2958017828e-01
 5.7427645971e-01	 1.0166689361e+00	 5.3802851880e-01
 5.6452976233e-01	 1.0221131486e+00	 5.5239358691e-01
 5.5474471222e-01	 1.0274567646e+00	 5.6714934106e-01
 5.4492283048e-01	 1.0326994539e+00	 5.7693183478e-01
 5.3506564000e-01	 1.0378409163e+00	 5.7654501714e-01
 5.2517466470e-01	 1.0428808812e+00	 5.6096668597e-01
 5.1525142884e-01	 1.0478191081e+00	 5.2535457837e-01
 5.0529745632e-01	 1.0526553859e+00	 4.6505258129e-01
 6.0783049177e-01	 1.0072919856e+00	 5.9322675003e-01
 5.9813522833e-01	 1.0130791144e+00	 5.1332174198e-01
 5.8839674247e-01	 1.0187660660e+00	 4.4106226632e-01
 5.7861655706e-01	 1.0243524169e+00	 3.7468945152e-01
 5.6879619897e-01	 1.0298377741e+00	 3.1269455642e-01
 5.5893719829e-01	 1.0352217745e+00	 2.5381765551e-01
 5.4904108763e-01	 1.0405040854e+00	 1.9704646481e-01
 5.3910940138e-01	 1.0456844044e+00	 1.4161530867e-01
 5.2914367498e-01	 1.0507624590e+00	 8.7004225370e-02
 5.1914544421e-01	 1.0557380065e+00	 3.2938207116e-02
 5.0911624449e-01	 1.0606108344e+00	-2.0613432385e-02
 4.7092854131e-01	 9.8105672044e-01	 1.5489152095e+00
 4.6162279917e-01	 9.8546960600e-01	 1.5854857085e+00
 4.5229123883e-01	 9.8978713259e-01	 1.6397193370e+00
 4.4293527589e-01	 9.9400918483e-01	 1.7135240734e+00
 4.3355632305e-01	 9.9813567443e-01	 1.8090352225e+00
 4.2415578950e-01	 1.0021665399e+00	 1.9286097577e+00
 4.1473508031e-01	 1.0061017465e+00	 2.0748206836e+00
 4.0529559579e-01	 1.0099412857e+00	 2.2504514223e+00
 3.9583873097e-01	 1.0136851754e+00	 2.4584902179e+00
 3.8636587493e-01	 1.0173334593e+00	 2.7021245590e+00
 3.7687841031e-01	 1.0208862068e+00	 2.9847356145e+00
 4.7474728079e-01	 9.8901206759e-01	 1.8193401661e+00
 4.6536607878e-01	 9.9346073706e-01	 1.8335665699e+00
 4.5595884921e-01	 9.9781327428e-01	 1.8539589983e+00
 4.4652701917e-01	 1.0020695630e+00	 1.8854920397e+00
 4.3707201281e-01	 1.0062295141e+00	 1.9334022107e+00
 4.2759525073e-01	 1.0102930657e+00	 2.0031776551e+00
 4.1809814941e-01	 1.0142601827e+00	 2.1005479028e+00
 4.0858212051e-01	 1.0181308566e+00	 2.2314736920e+00
 3.9904857037e-01	 1.0219051053e+00	 2.4021368596e+00
 3.8949889935e-01	 1.0255829730e+00	 2.6189303035e+00
 3.7993450129e-01	 1.0291645295e+00	 2.8884480173e+00
 4.7856603001e-01	 9.9696743504e-01	 1.9716066586e+00
 4.6910936794e-01	 1.0014518885e+00	 1.9630388764e+00
 4.5962646895e-01	 1.0058394364e+00	 1.9546066824e+00
 4.5011877161e-01	 1.0101299617e+00	 1.9536031750e+00
 4.4058771152e-01	 1.0143233744e+00	 1.9675917830e+00
 4.3103472073e-01	 1.0184196122e+00	 2.0043926737e+00
 4.2146122708e-01	 1.0224186397e+00	 2.0720692722e+00
 4.1186865362e-01	 1.0263204483e+00	 2.1789148990e+00
 4.0225841797e-01	 1.0301250562e+00	 2.3334395359e+00
 3.9263193177e-01	 1.0338325077e+00	 2.5443567238e+00
 3.8299060006e-01	 1.0374428734e+00	 2.8205706008e+00
 4.8238478788e-01	 1.0049228205e+00	 2.0149025103e+00
 4.7285266558e-01	 1.0094430580e+00	 1.9847380304e+00
 4.6329409701e-01	 1.0138656168e+00	 1.9534360988e+00
 4.5371053220e-01	 1.0181903786e+00	 1.9298791611e+00
 4.4410341821e-01	 1.0224172531e+00	 1.9232025674e+00
 4.3447419853e-01	 1.0265461771e+00	 1.9427790221e+00
 4.2482431238e-01	 1.0305771152e+00	 1.9982032107e+00
 4.1515519417e-01	 1.0345100586e+00	 2.0992766140e+00
 4.0546827284e-01	 1.0383450257e+00	 2.2559925180e+00
 3.9576497128e-01	 1.0420820611e+00	 2.4785212284e+00
 3.8604670575e-01	 1.0457212360e+00	 2.7771954941e+00
 4.8620355333e-01	 1.0128782218e+00	 1.9581214044e+00
 4.7659597065e-01	 1.0174342434e+00	 1.9091538957e+00
 4.6696173234e-01	 1.0218918131e+00	 1.8618463657e+00
 4.5730229990e-01	 1.0262508116e+00	 1.8259597820e+00
 4.4761913188e-01	 1.0305111478e+00	 1.8114651223e+00
 4.3791368315e-01	 1.0346727582e+00	 1.8285271799e+00
 4.2818740435e-01	 1.0387356069e+00	 1.8874886279e+00
 4.1844174124e-01	 1.0426996852e+00	 1.9988543516e+00
 4.0867813407e-01	 1.0465650115e+00	 2.1732760567e+00
 3.9889801701e-01	 1.0503316309e+00	 2.4215371594e+00
 3.8910281751e-01	 1.0539996151e+00	 2.7545379631e+00
 4.9002232527e-01	 1.0208336366e+00	 1.8098735575e+00
 4.8033928208e-01	 1.0254254424e+00	 1.7464434935e+00
 4.7062937390e-01	 1.0299180230e+00	 1.6908758600e+00
 4.6089407372e-01	 1.0343112582e+00	 1.6531170836e+00
 4.5113485152e-01	 1.0386050562e+00	 1.6432555845e+00
 4.4135317361e-01	 1.0427993530e+00	 1.6715062360e+00
 4.3155050204e-01	 1.0468941124e+00	 1.7481951784e+00
 4.2172829390e-01	 1.0508893257e+00	 1.8837449948e+00
 4.1188800077e-01	 1.0547850113e+00	 2.0886602526e+00
 4.0203106806e-01	 1.0585812147e+00	 2.3735134128e+00
 3.9215893447e-01	 1.0622780082e+00	 2.7489311084e+00
 4.9384110262e-01	 1.0287890626e+00	 1.5784958702e+00
 4.8408259882e-01	 1.0334166527e+00	 1.5064430833e+00
 4.7429702066e-01	 1.0379442443e+00	 1.4512154005e+00
 4.6448585262e-01	 1.0423717163e+00	 1.4222688517e+00
 4.5465057614e-01	 1.0466989762e+00	 1.4291086589e+00
 4.4479266895e-01	 1.0509259594e+00	 1.4812756298e+00
 4.3491360449e-01	 1.0550526295e+00	 1.5883330184e+00
 4.2501485122e-01	 1.0590789777e+00	 1.7598538525e+00
 4.1509787201e-01	 1.0630050227e+00	 2.0054087259e+00
 4.0516412356e-01	 1.0668308102e+00	 2.3345540545e+00
 3.9521505575e-01	 1.0705564131e+00	 2.7568207880e+00
 4.9765988430e-01	 1.0367444977e+00	 1.2720615840e+00
 4.8782591980e-01	 1.0414078721e+00	 1.1986796612e+00
 4.7796467158e-01	 1.0459704747e+00	 1.1532207976e+00
 4.6807763560e-01	 1.0504321835e+00	 1.1439914451e+00
 4.5816630474e-01	 1.0547929053e+00	 1.1792299864e+00
 4.4823216819e-01	 1.0590525750e+00	 1.2670963288e+00
 4.3827671075e-01	 1.0632111559e+00	 1.4156620899e+00
 4.2830141226e-01	 1.0672686391e+00	 1.6329013690e+00
 4.1830774689e-01	 1.0712250434e+00	 1.9266820939e+00
 4.0829718260e-01	 1.0750804151e+00	 2.3047579322e+00
 3.9827118050e-01	 1.0788348274e+00	 2.7747607526e+00
 5.0147866923e-01	 1.0446999395e+00	 8.9838947125e-01
 4.9156924396e-01	 1.0493990983e+00	 8.3238190778e-01
 4.8163232562e-01	 1.0539967119e+00	 8.0692480478e-01
 4.7166942163e-01	 1.0584926576e+00	 8.2853201647e-01
 4.6168203634e-01	 1.0628868413e+00	 9.0350792276e-01
 4.5167167035e-01	 1.0671791975e+00	 1.0379414719e+00
 4.4163981988e-01	 1.0713696892e+00	 1.2377009563e+00
 4.3158797609e-01	 1.0754583074e+00	 1.5084295046e+00
 4.2151762450e-01	 1.0794450712e+00	 1.8555412683e+00
 4.1143024431e-01	 1.0833300269e+00	 2.2842182837e+00
 4.0132730785e-01	 1.0871132486e+00	 2.7994079831e+00
 5.0529745632e-01	 1.0526553859e+00	 4.6505258129e-01
 4.9531257024e-01	 1.0573903290e+00	 4.1649061329e-01
 4.8529998173e-01	 1.0620229537e+00	 4.2204850325e-01
 4.7526120969e-01	 1.0665531362e+00	 4.8582015622e-01
 4.6519776993e-01	 1.0709807819e+00	 6.1152475895e-01
 4.5511117446e-01	 1.0753058246e+00	 8.0250650640e-01
 4.4500293091e-01	 1.0795282271e+00	 1.0617352168e+00
 4.3487454179e-01	 1.0836479804e+00	 1.3918078049e+00
 4.2472750393e-01	 1.0876651036e+00	 1.7949505812e+00
 4.1456330780e-01	 1.0915796435e+00	 2.2730223425e+00
 4.0438343693e-01	 1.0953916746e+00	 2.8275182174e+00
 5.0911624449e-01	 1.0606108344e+00	-2.0613432385e-02
 4.9905589759e-01	 1.0653815619e+00	-4.0331391609e-02
 4.8896763889e-01	 1.0700491977e+00	 8.0121490682e-03
 4.7885299878e-01	 1.0746136171e+00	 1.2547898658e-01
 4.6871350451e-01	 1.0790747247e+00	 3.1256741294e-01
 4.5855067955e-01	 1.0834324540e+00	 5.6921884582e-01
 4.4836604289e-01	 1.0876867674e+00	 8.9482551708e-01
 4.3816110842e-01	 1.0918376557e+00	 1.2882391743e+00
 4.2793738427e-01	 1.0958851383e+00	 1.7477807486e+00
 4.1769637217e-01	 1.0998292624e+00	 2.2712509383e+00
 4.0743956688e-01	 1.1036701029e+00	 2.8559416591e+00
 3.7687841031e-01	 1.0208862068e+00	 2.9847356145e+00
 3.6737932860e-01	 1.0243429329e+00	 3.2513627946e+00
 3.5786838524e-01	 1.0277043688e+00	 3.4577728747e+00
 3.4834693899e-01	 1.0309706585e+00	 3.6051745626e+00
 3.3881633997e-01	 1.0341419700e+00	 3.6891872192e+00
 3.2927792916e-01	 1.0372184959e+00	 3.7053329287e+00
 3.1973303789e-01	 1.0402004521e+00	 3.6490440025e+00
 3.1018298736e-01	 1.0430880782e+00	 3.5156701988e+00
 3.0062908817e-01	 1.0458816367e+00	 3.3004856525e+00
 2.9107263984e-01	 1.0485814126e+00	 2.9986955164e+00
 2.8151493038e-01	 1.0511877135e+00	 2.6054423124e+00
 3.7993450129e-01	 1.0291645295e+00	 2.8884480173e+00
 3.7035839192e-01	 1.0326492861e+00	 3.1511860753e+00
 3.6077032473e-01	 1.0360379798e+00	 3.3523105668e+00
 3.5117166948e-01	 1.0393307556e+00	 3.4988411738e+00
 3.4156378724e-01	 1.0425277832e+00	 3.5857600245e+00
 3.3194802986e-01	 1.0456292565e+00	 3.6078565912e+00
 3.2232573948e-01	 1.0486353933e+00	 3.5597378287e+00
 3.1269824800e-01	 1.0515464350e+00	 3.4358380874e+00
 3.0306687665e-01	 1.0543626463e+00	 3.2304287940e+00
 2.9343293548e-01	 1.0570843146e+00	 2.9376278936e+00
 2.8379772296e-01	 1.0597117498e+00	 2.5514090480e+00
 3.8299060006e-01	 1.0374428734e+00	 2.8205706008e+00
 3.7333746285e-01	 1.0409556605e+00	 3.0972226836e+00
 3.6367227163e-01	 1.0443716120e+00	 3.3062434418e+00
 3.5399640717e-01	 1.0476908741e+00	 3.4596457105e+00
 3.4431124151e-01	 1.0509136178e+00	 3.5530765656e+00
 3.3461813737e-01	 1.0540400385e+00	 3.5808163284e+00
 3.2491844768e-01	 1.0570703559e+00	 3.5369013135e+00
 3.1521351505e-01	 1.0600048134e+00	 3.4151355971e+00
 3.0550467133e-01	 1.0628436776e+00	 3.2091025833e+00
 2.9579323714e-01	 1.0655872383e+00	 2.9121763583e+00
 2.8608052136e-01	 1.0682358080e+00	 2.5175328250e+00
 3.8604670575e-01	 1.0457212360e+00	 2.7771954941e+00
 3.7631654053e-01	 1.0492620537e+00	 3.0804909427e+00
 3.6657422510e-01	 1.0527052631e+00	 3.3086751693e+00
 3.5682115127e-01	 1.0560510115e+00	 3.4744197023e+00
 3.4705870202e-01	 1.0592994714e+00	 3.5764827711e+00
 3.3728825094e-01	 1.0624508397e+00	 3.6088516024e+00
 3.2751116175e-01	 1.0655053377e+00	 3.5652387148e+00
 3.1772878780e-01	 1.0684632109e+00	 3.4390947157e+00
 3.0794247155e-01	 1.0713247281e+00	 3.2236209000e+00
 2.9815354415e-01	 1.0740901813e+00	 2.9117816402e+00
 2.8836332494e-01	 1.0767598854e+00	 2.4963165590e+00
 3.8910281751e-01	 1.0539996151e+00	 2.7545379631e+00
 3.7929562411e-01	 1.0575684634e+00	 3.0934401002e+00
 3.6947618433e-01	 1.0610389307e+00	 3.3490423650e+00
 3.5964590097e-01	 1.0644111655e+00	 3.5304012753e+00
 3.4980616797e-01	 1.0676853416e+00	 3.6417799812e+00
 3.3995836980e-01	 1.0708616575e+00	 3.6770814964e+00
 3.3010388097e-01	 1.0739403363e+00	 3.6299337610e+00
 3.2024406554e-01	 1.0769216252e+00	 3.4937026505e+00
 3.1038027660e-01	 1.0798057954e+00	 3.2615047659e+00
 3.0051385584e-01	 1.0825931411e+00	 2.9262199955e+00
 2.9064613305e-01	 1.0852839798e+00	 2.4805038400e+00
 3.9215893447e-01	 1.0622780082e+00	 2.7489311084e+00
 3.8227471277e-01	 1.0658748872e+00	 3.1287556427e+00
 3.7237814849e-01	 1.0693726125e+00	 3.4166090362e+00
 3.6247065548e-01	 1.0727713337e+00	 3.6152184732e+00
 3.5255363860e-01	 1.0760712260e+00	 3.7352064448e+00
 3.4262849320e-01	 1.0792724896e+00	 3.7710853442e+00
 3.3269660460e-01	 1.0823753491e+00	 3.7166303583e+00
 3.2275934755e-01	 1.0853800539e+00	 3.5653835482e+00
 3.1281808580e-01	 1.0882868771e+00	 3.3106660023e+00
 3.0287417155e-01	 1.0910961154e+00	 2.9455897163e+00
 2.9292894504e-01	 1.0938080886e+00	 2.4630691956e+00
 3.9521505575e-01	 1.0705564131e+00	 2.7568207880e+00
 3.8525380564e-01	 1.0741813228e+00	 3.1793494501e+00
 3.7528011676e-01	 1.0777063061e+00	 3.4999412422e+00
 3.6529541398e-01	 1.0811315138e+00	 3.7168733308e+00
 3.5530111312e-01	 1.0844571224e+00	 3.8434196550e+00
 3.4529862039e-01	 1.0876833336e+00	 3.8768842381e+00
 3.3528933190e-01	 1.0908103739e+00	 3.8114141730e+00
 3.2527463313e-01	 1.0938384946e+00	 3.6409810454e+00
 3.1525589845e-01	 1.0967679709e+00	 3.3593916306e+00
 3.0523449060e-01	 1.0995991017e+00	 2.9602982505e+00
 2.9521176026e-01	 1.1023322096e+00	 2.4372087915e+00
 3.9827118050e-01	 1.0788348274e+00	 2.7747607526e+00
 3.8823290189e-01	 1.0824877678e+00	 3.2383506073e+00
 3.7818208832e-01	 1.0860400091e+00	 3.5893419022e+00
 3.6812017569e-01	 1.0894917034e+00	 3.8237266591e+00
 3.5804859075e-01	 1.0928430283e+00	 3.9534794776e+00
 3.4796875060e-01	 1.0960941871e+00	 3.9809233699e+00
 3.3788206214e-01	 1.0992454083e+00	 3.9007950456e+00
 3.2778992156e-01	 1.1022969449e+00	 3.7077416055e+00
 3.1769371386e-01	 1.1052490742e+00	 3.3963289734e+00
 3.0759481232e-01	 1.1081020977e+00	 2.9610499008e+00
 2.9749457807e-01	 1.1108563401e+00	 2.3963315469e+00
 4.0132730785e-01	 1.0871132486e+00	 2.7994079831e+00
 3.9121200067e-01	 1.0907942199e+00	 3.2990966144e+00
 3.8108406235e-01	 1.0943737193e+00	 3.6755143178e+00
 3.7094493980e-01	 1.0978519000e+00	 3.9244473833e+00
 3.6079607072e-01	 1.1012289412e+00	 4.0528320295e+00
 3.5063888308e-01	 1.1045050478e+00	 4.0700551586e+00
 3.4047479458e-01	 1.1076804498e+00	 3.9716901890e+00
 3.3030521213e-01	 1.1107554023e+00	 3.7532986001e+00
 3.2013153135e-01	 1.1137301848e+00	 3.4103417955e+00
 3.0995513605e-01	 1.1166051009e+00	 2.9382950286e+00
 2.9977739782e-01	 1.1193804780e+00	 2.3329070595e+00
 4.0438343693e-01	 1.0953916746e+00	 2.8275182174e+00
 3.9419110114e-01	 1.0991006766e+00	 3.3551249756e+00
 3.8398603803e-01	 1.1027074341e+00	 3.7494423345e+00
 3.7376970551e-01	 1.1062121014e+00	 4.0068085242e+00
 3.6354355225e-01	 1.1096148590e+00	 4.1292942689e+00
 3.5330901707e-01	 1.1129159133e+00	 4.1314510381e+00
 3.4306752849e-01	 1.1161154962e+00	 4.0108686357e+00
 3.3282050413e-01	 1.1192138646e+00	 3.7642883324e+00
 3.2256935021e-01	 1.1222113002e+00	 3.3886801212e+00
 3.1231546112e-01	 1.1251081089e+00	 2.8811887002e+00
 3.0206021886e-01	 1.1279046207e+00	 2.2391289585e+00
 4.0743956688e-01	 1.1036701029e+00	 2.8559416591e+00
 3.9717020246e-01	 1.1074071358e+00	 3.4001651467e+00
 3.8688801453e-01	 1.1110411513e+00	 3.8023793052e+00
 3.7659447202e-01	 1.1145723051e+00	 4.0593046475e+00
 3.6629103455e-01	 1.1180007791e+00	 4.1699297812e+00
 3.5597915182e-01	 1.1213267811e+00	 4.1505364329e+00
 3.4566026314e-01	 1.1245505449e+00	 4.0035469656e+00
 3.3533579683e-01	 1.1276723292e+00	 3.7271520271e+00
 3.2500716977e-01	 1.1306924180e+00	 3.3198818594e+00
 3.1467578686e-01	 1.1336111194e+00	 2.7805969323e+00
 3.0434304055e-01	 1.1364287657e+00	 2.1084784001e+00
 2.8151493038e-01	 1.0511877135e+00	 2.6054423124e+00
 2.7195723598e-01	 1.0537008686e+00	 2.1817056199e+00
 2.6240082098e-01	 1.0561212300e+00	 1.7933655595e+00
 2.5284693703e-01	 1.0584491706e+00	 1.4429044397e+00
 2.4329682261e-01	 1.0606850842e+00	 1.1328444409e+00
 2.3375170258e-01	 1.0628293844e+00	 8.6574346056e-01
 2.2421278792e-01	 1.0648825050e+00	 6.4419074443e-01
 2.1468127528e-01	 1.0668448987e+00	 4.7080232901e-01
 2.0515834672e-01	 1.0687170373e+00	 3.4821631621e-01
 1.9564516936e-01	 1.0704994107e+00	 2.7908800488e-01
 1.8614289510e-01	 1.0721925270e+00	 2.6608490262e-01
 2.8379772296e-01	 1.0597117498e+00	 2.5514090480e+00
 2.7416252562e-01	 1.0622452841e+00	 2.1352854952e+00
 2.6452861806e-01	 1.0646852721e+00	 1.7577583791e+00
 2.5489726208e-01	 1.0670320899e+00	 1.4202987559e+00
 2.4526970618e-01	 1.0692861343e+00	 1.1245314882e+00
 2.3564718519e-01	 1.0714478226e+00	 8.7222993807e-01
 2.2603091987e-01	 1.0735175919e+00	 6.6531031122e-01
 2.1642211660e-01	 1.0754958986e+00	 5.0582568063e-01
 2.0682196701e-01	 1.0773832182e+00	 3.9595971802e-01
 1.9723164771e-01	 1.0791800448e+00	 3.3802016289e-01
 1.8765231991e-01	 1.0808868905e+00	 3.3443205867e-01
 2.8608052136e-01	 1.0682358080e+00	 2.5175328250e+00
 2.7636782089e-01	 1.0707897214e+00	 2.0936076847e+00
 2.6665642057e-01	 1.0732493360e+00	 1.7137775042e+00
 2.5694759235e-01	 1.0756150310e+00	 1.3786735103e+00
 2.4724259478e-01	 1.0778872064e+00	 1.0891704414e+00
 2.3754267262e-01	 1.0800662828e+00	 8.4638037271e-01
 2.2784905645e-01	 1.0821527008e+00	 6.5164608048e-01
 2.1816296236e-01	 1.0841469205e+00	 5.0653397818e-01
 2.0848559156e-01	 1.0860494213e+00	 4.1282665784e-01
 1.9881813010e-01	 1.0878607011e+00	 3.7251507123e-01
 1.8916174857e-01	 1.0895812762e+00	 3.8779038517e-01
 2.8836332494e-01	 1.0767598854e+00	 2.4963165590e+00
 2.7857312116e-01	 1.0793341780e+00	 2.0523192598e+00
 2.6878422790e-01	 1.0818134193e+00	 1.6596479226e+00
 2.5899792727e-01	 1.0841979916e+00	 1.3182634727e+00
 2.4921548786e-01	 1.0864882980e+00	 1.0284362223e+00
 2.3943816435e-01	 1.0886847625e+00	 7.9073910681e-01
 2.2966719716e-01	 1.0907878292e+00	 6.0604037076e-01
 2.1990381206e-01	 1.0927979620e+00	 4.7549574250e-01
 2.1014921987e-01	 1.0947156439e+00	 4.0054013292e-01
 2.0040461609e-01	 1.0965413770e+00	 3.8287889719e-01
 1.9067118065e-01	 1.0982756816e+00	 4.2447869778e-01
 2.9064613305e-01	 1.0852839798e+00	 2.4805038400e+00
 2.8077842580e-01	 1.0878786515e+00	 2.0072104055e+00
 2.7091203946e-01	 1.0903775196e+00	 1.5936578292e+00
 2.6104826626e-01	 1.0927809692e+00	 1.2393044292e+00
 2.5118838485e-01	 1.0950894067e+00	 9.4396034256e-01
 2.4133365985e-01	 1.0973032594e+00	 7.0778044558e-01
 2.3148534148e-01	 1.0994229748e+00	 5.3125666057e-01
 2.2164466522e-01	 1.1014490207e+00	 4.1520968821e-01
 2.1181285148e-01	 1.1033818838e+00	 3.6078020580e-01
 2.0199110523e-01	 1.1052220702e+00	 3.6941957231e-01
 1.9218061573e-01	 1.1069701042e+00	 4.4288008139e-01
 2.9292894504e-01	 1.0938080886e+00	 2.4630691956e+00
 2.8298373420e-01	 1.0964231396e+00	 1.9542085379e+00
 2.7303985463e-01	 1.0989416345e+00	 1.5141559089e+00
 2.6309860874e-01	 1.1013639614e+00	 1.1420329369e+00
 2.5316128520e-01	 1.1036905300e+00	 8.3733243311e-01
 2.4322915856e-01	 1.1059217708e+00	 5.9991126545e-01
 2.3330348888e-01	 1.1080581351e+00	 4.2998257782e-01
 2.2338552134e-01	 1.1101000940e+00	 3.2810739587e-01
 2.1347648592e-01	 1.1120481384e+00	 2.9518390961e-01
 2.0357759706e-01	 1.1139027781e+00	 3.3244287853e-01
 1.9369005337e-01	 1.1156645417e+00	 4.4145932282e-01
 2.9521176026e-01	 1.1023322096e+00	 2.4372087915e+00
 2.8518904571e-01	 1.1049676398e+00	 1.8893726838e+00
 2.7516767281e-01	 1.1075057615e+00	 1.4195487341e+00
 2.6514895412e-01	 1.1099469657e+00	 1.0266860780e+00
 2.5513418834e-01	 1.1122916654e+00	 7.1008904350e-01
 2.4512465996e-01	 1.1145402945e+00	 4.6938494893e-01
 2.3512163886e-01	 1.1166933076e+00	 3.0464580665e-01
 2.2512637992e-01	 1.1187511797e+00	 2.1629567795e-01
 2.1514012271e-01	 1.1207144053e+00	 2.0508686500e-01
 2.0516409114e-01	 1.1225834983e+00	 2.7208989942e-01
 1.9519949315e-01	 1.1243589914e+00	 4.1868334327e-01
 2.9749457807e-01	 1.1108563401e+00	 2.3963315469e+00
 2.8739435973e-01	 1.1135121497e+00	 1.8088053309e+00
 2.7729549341e-01	 1.1160698982e+00	 1.3079786354e+00
 2.6719930182e-01	 1.1185299798e+00	 8.9286354185e-01
 2.5710709371e-01	 1.1208928106e+00	 5.6281061973e-01
 2.4702016351e-01	 1.1231588279e+00	 3.1749943121e-01
 2.3693979090e-01	 1.1253284899e+00	 1.5692976269e-01
 2.2686724048e-01	 1.1274022751e+00	 8.1412638824e-02
 2.1680376139e-01	 1.1293806820e+00	 9.1561137809e-02
 2.0675058702e-01	 1.1312642283e+00	 1.8828102600e-01
 1.9670893464e-01	 1.1330534510e+00	 3.7276122902e-01
 2.9977739782e-01	 1.1193804780e+00	 2.3329070595e+00
 2.8959967562e-01	 1.1220566669e+00	 1.7072063634e+00
 2.7942331581e-01	 1.1246340422e+00	 1.1763331072e+00
 2.6924965126e-01	 1.1271130012e+00	 7.3945853434e-01
 2.5908000077e-01	 1.1294939632e+00	 3.9604063500e-01
 2.4891566867e-01	 1.1317773687e+00	 1.4581640914e-01
 2.3875794449e-01	 1.1339636796e+00	-1.1206051810e-02
 2.2860810251e-01	 1.1360533779e+00	-7.4755648593e-02
 2.1846740149e-01	 1.1380469660e+00	-4.4306506829e-02
 2.0833708425e-01	 1.1399449658e+00	 8.0913656433e-02
 1.9821837741e-01	 1.1417479180e+00	 3.0191504660e-01
 3.0206021886e-01	 1.1279046207e+00	 2.2391289585e+00
 2.9180499276e-01	 1.1306011888e+00	 1.5799884831e+00
 2.8155113943e-01	 1.1331981910e+00	 1.0225109902e+00
 2.7130000187e-01	 1.1356960275e+00	 5.6618492423e-01
 2.6105290894e-01	 1.1380951206e+00	 2.1071273297e-01
 2.5081117490e-01	 1.1403959144e+00	-4.3995814509e-02
 2.4057609910e-01	 1.1425988741e+00	-1.9783041295e-01
 2.3034896554e-01	 1.1447044856e+00	-2.5048709623e-01
 2.2013104253e-01	 1.1467132550e+00	-2.0147519043e-01
 2.0992358237e-01	 1.1486257081e+00	-5.0124333369e-02
 1.9972782104e-01	 1.1504423900e+00	 2.0440844990e-01
 3.0434304055e-01	 1.1364287657e+00	 2.1084784001e+00
 2.9401031052e-01	 1.1391457133e+00	 1.4231675715e+00
 2.8367896364e-01	 1.1417623423e+00	 8.4460865084e-01
 2.7335035306e-01	 1.1442790561e+00	 3.7276476471e-01
 2.6302581766e-01	 1.1466962804e+00	 7.7186431102e-03
 2.5270668167e-01	 1.1490144625e+00	-2.5033275202e-01
 2.4239425423e-01	 1.1512340711e+00	-4.0108359924e-01
 2.3208982905e-01	 1.1533555958e+00	-4.4412458272e-01
 2.2179468403e-01	 1.1553795464e+00	-3.7894824239e-01
 2.1151008095e-01	 1.1573064529e+00	-2.0495430267e-01
 2.0123726509e-01	 1.1591368644e+00	 7.8545025893e-02
 1.8614289510e-01	 1.0721925270e+00	 2.6608490262e-01
 1.7665104837e-01	 1.0737971766e+00	 2.9215949175e-01
 1.6717236883e-01	 1.0753136062e+00	 3.3858921369e-01
 1.5770796401e-01	 1.0767423742e+00	 4.0542035825e-01
 1.4825892506e-01	 1.0780840550e+00	 4.9253620744e-01
 1.3882632656e-01	 1.0793392389e+00	 5.9965817193e-01
 1.2941122629e-01	 1.0805085309e+00	 7.2634700160e-01
 1.2001466501e-01	 1.0815925508e+00	 8.7200408060e-01
 1.1063766632e-01	 1.0825919328e+00	 1.0358728175e+00
 1.0128123642e-01	 1.0835073244e+00	 1.2170401402e+00
 9.1946364036e-02	 1.0843393864e+00	 1.4144381046e+00
 1.8765231991e-01	 1.0808868905e+00	 3.3443205867e-01
 1.7808350420e-01	 1.0825045521e+00	 3.6446061043e-01
 1.6852796246e-01	 1.0840332784e+00	 4.0662810563e-01
 1.5898681117e-01	 1.0854736322e+00	 4.6215679395e-01
 1.4946115037e-01	 1.0868261927e+00	 5.3202373437e-01
 1.3995206333e-01	 1.0880915548e+00	 6.1696225408e-01
 1.3046061641e-01	 1.0892703285e+00	 7.1746357140e-01
 1.2098785882e-01	 1.0903631388e+00	 8.3377859146e-01
 1.1153482244e-01	 1.0913706247e+00	 9.6591988252e-01
 1.0210252166e-01	 1.0922934391e+00	 1.1136638405e+00
 9.2691953187e-02	 1.0931322483e+00	 1.2765530480e+00
 1.8916174857e-01	 1.0895812762e+00	 3.8779038517e-01
 1.7951596368e-01	 1.0912119499e+00	 4.3228492810e-01
 1.6988355953e-01	 1.0927529729e+00	 4.7962708549e-01
 1.6026566160e-01	 1.0942049125e+00	 5.3194092286e-01
 1.5066337875e-01	 1.0955683527e+00	 5.9104671448e-01
 1.4107780297e-01	 1.0968438930e+00	 6.5846251818e-01
 1.3151000921e-01	 1.0980321485e+00	 7.3540597975e-01
 1.2196105511e-01	 1.0991337491e+00	 8.2279637419e-01
 1.1243198086e-01	 1.1001493389e+00	 9.2125689081e-01
 1.0292380898e-01	 1.1010795762e+00	 1.0311171681e+00
 9.3437544239e-02	 1.1019251326e+00	 1.1524160834e+00
 1.9067118065e-01	 1.0982756816e+00	 4.2447869778e-01
 1.8094842641e-01	 1.0999193674e+00	 4.9194011095e-01
 1.7123915968e-01	 1.1014726871e+00	 5.5240901084e-01
 1.6154451493e-01	 1.1029362126e+00	 6.0864186934e-01
 1.5186560985e-01	 1.1043105325e+00	 6.6305597324e-01
 1.4220354517e-01	 1.1055962511e+00	 7.1773091156e-01
 1.3255940439e-01	 1.1067939884e+00	 7.7441033342e-01
 1.2293425361e-01	 1.1079043792e+00	 8.3450398375e-01
 1.1332914130e-01	 1.1089280731e+00	 8.9909002337e-01
 1.0374509817e-01	 1.1098657333e+00	 9.6891763900e-01
 9.4183136981e-02	 1.1107180368e+00	 1.0444099482e+00
 1.9218061573e-01	 1.1069701042e+00	 4.4288008139e-01
 1.8238089199e-01	 1.1086268022e+00	 5.3986123269e-01
 1.7259476252e-01	 1.1101924186e+00	 6.1997063822e-01
 1.6282337079e-01	 1.1116675300e+00	 6.8633413487e-01
 1.5306784333e-01	 1.1130527296e+00	 7.4174435257e-01
 1.4332928959e-01	 1.1143486265e+00	 7.8863348167e-01
 1.3360880165e-01	 1.1155558456e+00	 8.2907605545e-01
 1.2390745403e-01	 1.1166750268e+00	 8.6479502471e-01
 1.1422630353e-01	 1.1177068246e+00	 8.9716453878e-01
 1.0456638899e-01	 1.1186519078e+00	 9.2721309564e-01
 9.4928731201e-02	 1.1195109585e+00	 9.5562704343e-01
 1.9369005337e-01	 1.1156645417e+00	 4.4145932282e-01
 1.8381335999e-01	 1.1173342518e+00	 5.7269767563e-01
 1.7395036767e-01	 1.1189121650e+00	 6.7770261718e-01
 1.6410222882e-01	 1.1203988623e+00	 7.5971302228e-01
 1.5427007886e-01	 1.1217949416e+00	 8.2161915213e-01
 1.4445503593e-01	 1.1231010168e+00	 8.6596394631e-01
 1.3465820069e-01	 1.1243177177e+00	 8.9494473466e-01
 1.2488065612e-01	 1.1254456893e+00	 9.1041535260e-01
 1.1512346728e-01	 1.1264855911e+00	 9.1388864296e-01
 1.0538768121e-01	 1.1274380972e+00	 9.0653932690e-01
 9.5674326689e-02	 1.1283038952e+00	 8.8920722652e-01
 1.9519949315e-01	 1.1243589914e+00	 4.1868334327e-01
 1.8524583003e-01	 1.1260417137e+00	 5.8720541189e-01
 1.7530597473e-01	 1.1276319237e+00	 7.2107240321e-01
 1.6538108867e-01	 1.1291302069e+00	 8.2336160862e-01
 1.5547231610e-01	 1.1305371660e+00	 8.9683264750e-01
 1.4558078387e-01	 1.1318534195e+00	 9.4392829961e-01
 1.3570760123e-01	 1.1330796023e+00	 9.6677573441e-01
 1.2585385957e-01	 1.1342163642e+00	 9.6718812170e-01
 1.1602063230e-01	 1.1352643700e+00	 9.4666660736e-01
 1.0620897458e-01	 1.1362242991e+00	 9.0640263785e-01
 9.6419923233e-02	 1.1370968443e+00	 8.4728061676e-01
 1.9670893464e-01	 1.1330534510e+00	 3.7276122902e-01
 1.8667830168e-01	 1.1347491855e+00	 5.7983443756e-01
 1.7666158333e-01	 1.1363516922e+00	 7.4523191030e-01
 1.6665994997e-01	 1.1378615615e+00	 8.7161498309e-01
 1.5667455469e-01	 1.1392794002e+00	 9.6137993742e-01
 1.4670653308e-01	 1.1406058321e+00	 1.0166581967e+00
 1.3675700294e-01	 1.1418414967e+00	 1.0393168735e+00
 1.2682706414e-01	 1.1429870490e+00	 1.0309596539e+00
 1.1691779834e-01	 1.1440431589e+00	 9.9292800437e-01
 1.0703026889e-01	 1.1450105109e+00	 9.2630268648e-01
 9.7165520622e-02	 1.1458898033e+00	 8.3190556493e-01
 1.9821837741e-01	 1.1417479180e+00	 3.0191504660e-01
 1.8811077456e-01	 1.1434566647e+00	 5.4711267161e-01
 1.7801719308e-01	 1.1450714682e+00	 7.4546614292e-01
 1.6793881235e-01	 1.1465929234e+00	 8.9897040882e-01
 1.5787679431e-01	 1.1480216420e+00	 1.0094293285e+00
 1.4783228325e-01	 1.1493582522e+00	 1.0784550587e+00
 1.3780640555e-01	 1.1506033987e+00	 1.1074677229e+00
 1.2780026952e-01	 1.1517577413e+00	 1.0976953509e+00
 1.1781496514e-01	 1.1528219553e+00	 1.0501740783e+00
 1.0785156390e-01	 1.1537967302e+00	 9.6574859264e-01
 9.7911118644e-02	 1.1546827698e+00	 8.4507281355e-01
 1.9972782104e-01	 1.1504423900e+00	 2.0440844990e-01
 1.8954324825e-01	 1.1521641488e+00	 4.8566135177e-01
 1.7937280360e-01	 1.1537912492e+00	 7.1719156550e-01
 1.6921767546e-01	 1.1553242903e+00	 9.0008103848e-01
 1.5907903460e-01	 1.1567638886e+00	 1.0353156229e+00
 1.4895803405e-01	 1.1581106772e+00	 1.1237834826e+00
 1.3885580876e-01	 1.1593653055e+00	 1.1662736907e+00
 1.2877347546e-01	 1.1605284386e+00	 1.1634750113e+00
 1.1871213245e-01	 1.1616007566e+00	 1.1159748551e+00
 1.0867285937e-01	 1.1625829545e+00	 1.0242584014e+00
 9.8656717088e-02	 1.1634757414e+00	 8.8870787808e-01
 2.0123726509e-01	 1.1591368644e+00	 7.8545025893e-02
 1.9097572234e-01	 1.1608716354e+00	 3.9219141877e-01
 1.8072841450e-01	 1.1625110326e+00	 6.5595103831e-01
 1.7049653892e-01	 1.1640556597e+00	 8.6974991906e-01
 1.6028127524e-01	 1.1655061378e+00	 1.0335337136e+00
 1.5008378517e-01	 1.1668631048e+00	 1.1472649520e+00
 1.3990521226e-01	 1.1681272149e+00	 1.2109203785e+00
 1.2974668168e-01	 1.1692991383e+00	 1.2244883634e+00
 1.1960930001e-01	 1.1703795604e+00	 1.1879663844e+00
 1.0949415507e-01	 1.1713691813e+00	 1.1013585730e+00
 9.9402315743e-02	 1.1722687154e+00	 9.6467332313e-01
 9.1946364036e-02	 1.0843393864e+00	 1.4144381046e+00
 8.2635597504e-02	 1.0850886720e+00	 1.6164966316e+00
 7.3348282920e-02	 1.0857560150e+00	 1.8140112390e+00
 6.4085333976e-02	 1.0863421123e+00	 2.0095651131e+00
 5.4847646941e-02	 1.0868476722e+00	 2.2061583946e+00
 4.5636100571e-02	 1.0872734138e+00	 2.4071918541e+00
 3.6451556027e-02	 1.0876200664e+00	 2.6164505077e+00
 2.7294856805e-02	 1.0878883693e+00	 2.8380872075e+00
 1.8166828684e-02	 1.0880790712e+00	 3.0766062436e+00
 9.0682796764e-03	 1.0881929296e+00	 3.3368469893e+00
 0.0000000000e+00	 1.0882307108e+00	 3.6239676248e+00
 9.2691953187e-02	 1.0931322483e+00	 1.2765530480e+00
 8.3305686045e-02	 1.0938876098e+00	 1.4524837471e+00
 7.3943061023e-02	 1.0945603642e+00	 1.6394536820e+00
 6.4604999219e-02	 1.0951512142e+00	 1.8372754902e+00
 5.5292404174e-02	 1.0956608737e+00	 2.0462544943e+00
 4.6006161766e-02	 1.0960900676e+00	 2.2671735995e+00
 3.6747140141e-02	 1.0964395312e+00	 2.5012780029e+00
 2.7516189635e-02	 1.0967100097e+00	 2.7502597547e+00
 1.8314142723e-02	 1.0969022580e+00	 3.0162422075e+00
 9.1418139695e-03	 1.0970170397e+00	 3.3017643925e+00
 0.0000000000e+00	 1.0970551273e+00	 3.6097653557e+00
 9.3437544239e-02	 1.1019251326e+00	 1.1524160834e+00
 8.3975776295e-02	 1.1026865701e+00	 1.2936902341e+00
 7.4537840642e-02	 1.1033647360e+00	 1.4617941519e+00
 6.5124665788e-02	 1.1039603386e+00	 1.6543700417e+00
 5.5737162540e-02	 1.1044740977e+00	 1.8695926069e+00
 4.6376223905e-02	 1.1049067439e+00	 2.1061553540e+00
 3.7042725009e-02	 1.1052590185e+00	 2.3632566229e+00
 2.7737523030e-02	 1.1055316727e+00	 2.6405853807e+00
 1.8461457137e-02	 1.1057254673e+00	 2.9383068216e+00
 9.2153484500e-03	 1.1058411723e+00	 3.2570478066e+00
 0.0000000000e+00	 1.1058795663e+00	 3.5978821835e+00
 9.4183136981e-02	 1.1107180368e+00	 1.0444099482e+00
 8.4645868064e-02	 1.1114855503e+00	 1.1452626534e+00
 7.5132621609e-02	 1.1121691277e+00	 1.2881845766e+00
 6.5644333534e-02	 1.1127694829e+00	 1.4692336568e+00
 5.6181921914e-02	 1.1132873416e+00	 1.6850030535e+00
 4.6746286882e-02	 1.1137234401e+00	 1.9326111860e+00
 3.7338310547e-02	 1.1140785257e+00	 2.2096897073e+00
 2.7958856926e-02	 1.1143533556e+00	 2.5143711080e+00
 1.8608771886e-02	 1.1145486967e+00	 2.8452759761e+00
 9.2888830972e-03	 1.1146653250e+00	 3.2014999372e+00
 0.0000000000e+00	 1.1147040253e+00	 3.5826003048e+00
 9.4928731201e-02	 1.1195109585e+00	 9.5562704343e-01
 8.5315961161e-02	 1.1202845479e+00	 1.0131264755e+00
 7.5727403755e-02	 1.1209735368e+00	 1.1265923043e+00
 6.6164002311e-02	 1.1215786448e+00	 1.2910700279e+00
 5.6626682171e-02	 1.1221006030e+00	 1.5021129106e+00
 4.7116350593e-02	 1.1225401539e+00	 1.7557723115e+00
 3.7633896670e-02	 1.1228980505e+00	 2.0485875997e+00
 2.8180191261e-02	 1.1231750561e+00	 2.3775756772e+00
 1.8756086927e-02	 1.1233719435e+00	 2.7402201361e+00
 9.3624178902e-03	 1.1234894951e+00	 3.1344600709e+00
 0.0000000000e+00	 1.1235285018e+00	 3.5586785727e+00
 9.5674326689e-02	 1.1283038952e+00	 8.8920722652e-01
 8.5986055398e-02	 1.1290835605e+00	 9.0290280628e-01
 7.6322186913e-02	 1.1297779609e+00	 9.8441005422e-01
 6.6683671971e-02	 1.1303878216e+00	 1.1283289549e+00
 5.7071443183e-02	 1.1309138794e+00	 1.3297039694e+00
 4.7486414933e-02	 1.1313568826e+00	 1.5840165125e+00
 3.7929483297e-02	 1.1317175903e+00	 1.8871770340e+00
 2.8401525972e-02	 1.1319967715e+00	 2.2355167272e+00
 1.8903402218e-02	 1.1321952054e+00	 2.6257788800e+00
 9.4359528082e-03	 1.1323136802e+00	 3.0551098919e+00
 0.0000000000e+00	 1.1323529932e+00	 3.5210499757e+00
 9.6419923233e-02	 1.1370968443e+00	 8.4728061676e-01
 8.6656150583e-02	 1.1378825856e+00	 8.1926545532e-01
 7.6916970913e-02	 1.1385823975e+00	 8.6815888447e-01
 6.7203342368e-02	 1.1391970108e+00	 9.8867046082e-01
 5.7516204826e-02	 1.1397271683e+00	 1.1758572988e+00
 4.7856479797e-02	 1.1401736239e+00	 1.4251188816e+00
 3.8225070342e-02	 1.1405371425e+00	 1.7321915353e+00
 2.8622860997e-02	 1.1408184994e+00	 2.0931425799e+00
 1.9050717718e-02	 1.1410184797e+00	 2.5043641703e+00
 9.5094878304e-03	 1.1411378778e+00	 2.9625668446e+00
 0.0000000000e+00	 1.1411774972e+00	 3.4647727917e+00
 9.7165520622e-02	 1.1458898033e+00	 8.3190556493e-01
 8.7326246528e-02	 1.1466816207e+00	 7.6674089085e-01
 7.7511755587e-02	 1.1473868441e+00	 7.8415671295e-01
 6.7723013353e-02	 1.1480062101e+00	 8.7951738117e-01
 5.7960966972e-02	 1.1485404671e+00	 1.0484047758e+00
 4.8226545081e-02	 1.1489903751e+00	 1.2866156369e+00
 3.8520657722e-02	 1.1493567048e+00	 1.5901586504e+00
 2.8844196273e-02	 1.1496402374e+00	 1.9552512986e+00
 1.9198033385e-02	 1.1498417640e+00	 2.3783164813e+00
 9.5830229361e-03	 1.1499620855e+00	 2.8559789168e+00
 0.0000000000e+00	 1.1500020112e+00	 3.3850613312e+00
 9.7911118644e-02	 1.1546827698e+00	 8.4507281355e-01
 8.7996343042e-02	 1.1554806632e+00	 7.4971368106e-01
 7.8106540766e-02	 1.1561912981e+00	 7.3852589376e-01
 6.8242684780e-02	 1.1568154168e+00	 8.0806424932e-01
 5.8405729497e-02	 1.1573537735e+00	 9.5493844457e-01
 4.8596610680e-02	 1.1578071338e+00	 1.1758131043e+00
 3.8816245354e-02	 1.1581762745e+00	 1.4674076969e+00
 2.9065531737e-02	 1.1584619828e+00	 1.8264963367e+00
 1.9345349177e-02	 1.1586650559e+00	 2.2499074709e+00
 9.6565581045e-03	 1.1587863006e+00	 2.7345234521e+00
 0.0000000000e+00	 1.1588265327e+00	 3.2772799974e+00
 9.8656717088e-02	 1.1634757414e+00	 8.8870787808e-01
 8.8666439936e-02	 1.1642797107e+00	 7.7243169058e-01
 7.8701326282e-02	 1.1649957572e+00	 7.3720045187e-01
 6.8762356501e-02	 1.1656246286e+00	 7.8128578090e-01
 5.8850492274e-02	 1.1661670849e+00	 9.0281945039e-01
 4.8966676488e-02	 1.1666238976e+00	 1.0997962931e+00
 3.9111833154e-02	 1.1669958493e+00	 1.3700771615e+00
 2.9286867327e-02	 1.1672837332e+00	 1.7113919305e+00
 1.9492665053e-02	 1.1674883527e+00	 2.1213425322e+00
 9.7300933146e-03	 1.1676105207e+00	 2.5974060147e+00
 0.0000000000e+00	 1.1676510592e+00	 3.1369376150e+00
 9.9402315743e-02	 1.1722687154e+00	 9.6467332313e-01
 8.9336537019e-02	 1.1730787607e+00	 8.3901104495e-01
 7.9296111967e-02	 1.1738002187e+00	 7.8593299367e-01
 6.9282028370e-02	 1.1744338428e+00	 8.0594497760e-01
 5.9295255177e-02	 1.1749803987e+00	 8.9918657374e-01
 4.9336742402e-02	 1.1754406638e+00	 1.0654370872e+00
 3.9407421038e-02	 1.1758154265e+00	 1.3041217660e+00
 2.9508202981e-02	 1.1761054862e+00	 1.6143182494e+00
 1.9639980971e-02	 1.1763116521e+00	 1.9947632299e+00
 9.8036285459e-03	 1.1764347433e+00	 2.4438593069e+00
 0.0000000000e+00	 1.1764755882e+00	 2.9596820145e+00
 1.1764755882e+00	 0.0000000000e+00	 6.3012311470e+00
 1.1764347433e+00	 9.8036285459e-03	 1.2610883708e+00
 1.1763116521e+00	 1.9639980971e-02	-2.0352738028e+00
 1.1761054862e+00	 2.9508202981e-02	-3.8522860539e+00
 1.1758154265e+00	 3.9407421038e-02	-4.4589270024e+00
 1.1754406638e+00	 4.9336742402e-02	-4.1285495910e+00
 1.1749803987e+00	 5.9295255177e-02	-3.1386978771e+00
 1.1744338428e+00	 6.9282028370e-02	-1.7709141928e+00
 1.1738002187e+00	 7.9296111967e-02	-3.1053665880e-01
 1.1730787607e+00	 8.9336537019e-02	 9.5351294827e-01
 1.1722687154e+00	 9.9402315743e-02	 1.7289509567e+00
 1.1852986176e+00	 0.0000000000e+00	 1.8597868973e+01
 1.1852574664e+00	 9.8771512812e-03	 1.0854711531e+01
 1.1851334520e+00	 1.9787271856e-02	 5.3698605965e+00
 1.1849257400e+00	 2.9729501022e-02	 1.8228761469e+00
 1.1846335050e+00	 3.9702958691e-02	-1.1214623206e-01
 1.1842559317e+00	 4.9706745429e-02	-7.6634964137e-01
 1.1837922149e+00	 5.9739942500e-02	-4.7587807758e-01
 1.1832415601e+00	 6.9801611929e-02	 4.1837347475e-01
 1.1826031841e+00	 7.9890796577e-02	 1.5710210710e+00
 1.1818763155e+00	 9.0006520230e-02	 2.6324659360e+00
 1.1810601952e+00	 1.0014778769e-01	 3.2491806559e+00
 1.1941216471e+00	 0.0000000000e+00	 2.8640921232e+01
 1.1940801895e+00	 9.9506740167e-03	 1.8690148824e+01
 1.1939552520e+00	 1.9934562741e-02	 1.1407144788e+01
 1.1937459938e+00	 2.9950799063e-02	 6.4285681642e+00
 1.1934515835e+00	 3.9998496345e-02	 3.3849026822e+00
 1.1930711997e+00	 5.0076748456e-02	 1.9007233695e+00
 1.1926040311e+00	 6.0184629823e-02	 1.5949772013e+00
 1.1920492773e+00	 7.0321195488e-02	 2.0812778243e+00
 1.1914061494e+00	 8.0485481187e-02	 2.9682143461e+00
 1.1906738703e+00	 9.0676503440e-02	 3.8596741598e+00
 1.1898516750e+00	 1.0089325965e-01	 4.3551797446e+00
 1.2029446765e+00	 0.0000000000e+00	 3.6418049067e+01
 1.2029029126e+00	 1.0024196752e-02	 2.4756596679e+01
 1.2027770520e+00	 2.0081853626e-02	 1.6068169727e+01
 1.2025662476e+00	 3.0172097105e-02	 9.9593365505e+00
 1.2022696620e+00	 4.0294033999e-02	 6.0299812829e+00
 1.2018864676e+00	 5.0446751484e-02	 3.8736003040e+00
 1.2014158472e+00	 6.0629317146e-02	 3.0776141759e+00
 1.2008569946e+00	 7.0840779046e-02	 3.2236950821e+00
 1.2002091148e+00	 8.1080165797e-02	 3.8881097584e+00
 1.1994714250e+00	 9.1346486650e-02	 4.6420778728e+00
 1.1986431547e+00	 1.0163873160e-01	 5.0521457864e+00
 1.2117677059e+00	 0.0000000000e+00	 4.1917304376e+01
 1.2117256357e+00	 1.0097719488e-02	 2.9043591582e+01
 1.2115988519e+00	 2.0229144511e-02	 1.9344790932e+01
 1.2113865014e+00	 3.0393395146e-02	 1.2409900841e+01
 1.2110877405e+00	 4.0589571654e-02	 7.8209252202e+00
 1.2107017356e+00	 5.0816754512e-02	 5.1531888627e+00
 1.2102276634e+00	 6.1074004469e-02	 3.9756692286e+00
 1.2096647118e+00	 7.1360362605e-02	 3.8513446474e+00
 1.2090120802e+00	 8.1674850407e-02	 4.3375589218e+00
 1.2082689798e+00	 9.2016469860e-02	 4.9864022873e+00
 1.2074346345e+00	 1.0238420355e-01	 5.3451086484e+00
 1.2205907353e+00	 0.0000000000e+00	 4.5127115685e+01
 1.2205483588e+00	 1.0171242224e-02	 3.1540997681e+01
 1.2204206519e+00	 2.0376435397e-02	 2.1229118735e+01
 1.2202067552e+00	 3.0614693188e-02	 1.3775147031e+01
 1.2199058190e+00	 4.0885109308e-02	 8.7556412335e+00
 1.2195170035e+00	 5.1186757540e-02	 5.7403740234e+00
 1.2190394796e+00	 6.1518691792e-02	 4.2926724321e+00
 1.2184724291e+00	 7.1879946164e-02	 3.9697749997e+00
 1.2178150455e+00	 8.2269535017e-02	 4.3232057341e+00
 1.2170665345e+00	 9.2686453070e-02	 4.8991648257e+00
 1.2162261143e+00	 1.0312967550e-01	 5.2389360391e+00
 1.2294137647e+00	 0.0000000000e+00	 4.6036274632e+01
 1.2293710819e+00	 1.0244764960e-02	 3.2238994931e+01
 1.2292424519e+00	 2.0523726282e-02	 2.1713508948e+01
 1.2290270091e+00	 3.0835991230e-02	 1.4050121335e+01
 1.2287238975e+00	 4.1180646962e-02	 8.8321042652e+00
 1.2283322715e+00	 5.1556760567e-02	 5.6360184626e+00
 1.2278512958e+00	 6.1963379116e-02	 4.0320509233e+00
 1.2272801463e+00	 7.2399529723e-02	 3.5843693576e+00
 1.2266180109e+00	 8.2864219627e-02	 3.8514933314e+00
 1.2258640893e+00	 9.3356436280e-02	 4.3866820658e+00
 1.2250175941e+00	 1.0387514745e-01	 4.7383388165e+00
 1.2382367941e+00	 0.0000000000e+00	 4.4633923030e+01
 1.2381938050e+00	 1.0318287695e-02	 3.1128067741e+01
 1.2380642518e+00	 2.0671017167e-02	 2.0790553930e+01
 1.2378472629e+00	 3.1057289272e-02	 1.3230024214e+01
 1.2375419760e+00	 4.1476184617e-02	 8.0483546984e+00
 1.2371475394e+00	 5.1926763595e-02	 4.8409629619e+00
 1.2366631119e+00	 6.2408066439e-02	 3.1971321372e+00
 1.2360878636e+00	 7.2919113282e-02	 2.7003510977e+00
 1.2354209763e+00	 8.3458904237e-02	 2.9286707506e+00
 1.2346616440e+00	 9.4026419490e-02	 3.4550763948e+00
 1.2338090739e+00	 1.0462061940e-01	 3.8478760768e+00
 1.2470598236e+00	 0.0000000000e+00	 4.0909540479e+01
 1.2470165281e+00	 1.0391810431e-02	 2.8198994107e+01
 1.2468860518e+00	 2.0818308052e-02	 1.8453074035e+01
 1.2466675167e+00	 3.1278587314e-02	 1.1310204660e+01
 1.2463600545e+00	 4.1771722271e-02	 6.4024957134e+00
 1.2459628074e+00	 5.2296766623e-02	 3.3560267981e+00
 1.2454749281e+00	 6.2852753762e-02	 1.7911469050e+00
 1.2448955809e+00	 7.3438696840e-02	 1.3227889484e+00
 1.2442239416e+00	 8.4053588847e-02	 1.5607993130e+00
 1.2434591988e+00	 9.4696402700e-02	 2.1102823885e+00
 1.2426005537e+00	 1.0536609135e-01	 2.5719600351e+00
 1.2558828530e+00	 0.0000000000e+00	 3.4852932494e+01
 1.2558392512e+00	 1.0465333166e-02	 2.3442835203e+01
 1.2557078518e+00	 2.0965598937e-02	 1.4694109418e+01
 1.2554877705e+00	 3.1499885355e-02	 8.2861547107e+00
 1.2551781330e+00	 4.2067259925e-02	 3.8926907567e+00
 1.2547780753e+00	 5.2666769650e-02	 1.1820081191e+00
 1.2542867443e+00	 6.3297441085e-02	-1.8276757477e-01
 1.2537032981e+00	 7.3958280399e-02	-5.4339803240e-01
 1.2530269070e+00	 8.4648273457e-02	-2.4624125538e-01
 1.2522567536e+00	 9.5366385910e-02	 3.5805292641e-01
 1.2513920335e+00	 1.0611156330e-01	 9.1486070817e-01
 1.2647058824e+00	 0.0000000000e+00	 2.6454219140e+01
 1.2646619743e+00	 1.0538855902e-02	 1.6850925402e+01
 1.2645296518e+00	 2.1112889822e-02	 9.5069121846e+00
 1.2643080243e+00	 3.1721183396e-02	 4.1535042109e+00
 1.2639962115e+00	 4.2362797579e-02	 5.1716111667e-01
 1.2635933433e+00	 5.3036772677e-02	-1.6803156939e+00
 1.2630985605e+00	 6.3742128408e-02	-2.7215648873e+00
 1.2625110154e+00	 7.4477863958e-02	-2.8934356834e+00
 1.2618298723e+00	 8.5242958067e-02	-2.4867469552e+00
 1.2610543083e+00	 9.6036369121e-02	-1.7960349421e+00
 1.2601835133e+00	 1.0685703526e-01	-1.1192895913e+00
 1.1722687154e+00	 9.9402315743e-02	 1.7289509567e+00
 1.1713691813e+00	 1.0949415507e-01	 2.0864723602e+00
 1.1703795604e+00	 1.1960930001e-01	 2.3032226464e+00
 1.1692991383e+00	 1.2974668168e-01	 2.3946846222e+00
 1.1681272149e+00	 1.3990521226e-01	 2.3766781107e+00
 1.1668631048e+00	 1.5008378517e-01	 2.2653586075e+00
 1.1655061378e+00	 1.6028127524e-01	 2.0772158205e+00
 1.1640556597e+00	 1.7049653892e-01	 1.8290721030e+00
 1.1625110326e+00	 1.8072841450e-01	 1.5380807856e+00
 1.1608716354e+00	 1.9097572234e-01	 1.2217244141e+00
 1.1591368644e+00	 2.0123726509e-01	 8.9781289565e-01
 1.1810601952e+00	 1.0014778769e-01	 3.2491806559e+00
 1.1801539149e+00	 1.1031531121e-01	 3.4362850031e+00
 1.1791568724e+00	 1.2050631511e-01	 3.4606552495e+00
 1.1780683476e+00	 1.3071972251e-01	 3.3440523764e+00
 1.1768876353e+00	 1.4095443743e-01	 3.1086063437e+00
 1.1756140449e+00	 1.5120934499e-01	 2.7768072982e+00
 1.1742469013e+00	 1.6148331157e-01	 2.3714964743e+00
 1.1727855453e+00	 1.7177518507e-01	 1.9158568057e+00
 1.1712293342e+00	 1.8208379504e-01	 1.4334032635e+00
 1.1695776423e+00	 1.9240795300e-01	 9.4797293312e-01
 1.1678298613e+00	 2.0274645264e-01	 4.8371484376e-01
 1.1898516750e+00	 1.0089325965e-01	 4.3551797446e+00
 1.1889386486e+00	 1.1113646734e-01	 4.4215014617e+00
 1.1879341844e+00	 1.2140333021e-01	 4.3113025257e+00
 1.1868375570e+00	 1.3169276334e-01	 4.0502611723e+00
 1.1856480558e+00	 1.4200366260e-01	 3.6644423694e+00
 1.1843649851e+00	 1.5233490480e-01	 3.1802842247e+00
 1.1829876649e+00	 1.6268534791e-01	 2.6245839785e+00
 1.1815154309e+00	 1.7305383121e-01	 2.0244836033e+00
 1.1799476358e+00	 1.8343917558e-01	 1.4074550320e+00
 1.1782836492e+00	 1.9384018366e-01	 8.0128503420e-01
 1.1765228582e+00	 2.0425564018e-01	 2.3405976054e-01
 1.1986431547e+00	 1.0163873160e-01	 5.0521457864e+00
 1.1977233823e+00	 1.1195762348e-01	 5.0448157840e+00
 1.1967114963e+00	 1.2230034531e-01	 4.8557002899e+00
 1.1956067663e+00	 1.3266580417e-01	 4.5120871413e+00
 1.1944084762e+00	 1.4305288777e-01	 4.0416547255e+00
 1.1931159253e+00	 1.5346046462e-01	 3.4724562040e+00
 1.1917284284e+00	 1.6388738424e-01	 2.8329032934e+00
 1.1902453166e+00	 1.7433247735e-01	 2.1517496264e+00
 1.1886659375e+00	 1.8479455611e-01	 1.4580737200e+00
 1.1869896561e+00	 1.9527241433e-01	 7.8126157500e-01
 1.1852158551e+00	 2.0576482773e-01	 1.5098892900e-01
 1.2074346345e+00	 1.0238420355e-01	 5.3451086484e+00
 1.2065081160e+00	 1.1277877961e-01	 5.3088241635e+00
 1.2054888083e+00	 1.2319736041e-01	 5.0943466364e+00
 1.2043759756e+00	 1.3363884500e-01	 4.7283175744e+00
 1.2031688966e+00	 1.4410211294e-01	 4.2377591828e+00
 1.2018668655e+00	 1.5458602443e-01	 3.6500589907e+00
 1.2004691920e+00	 1.6508942057e-01	 2.9929540824e+00
 1.1989752022e+00	 1.7561112350e-01	 2.2945149604e+00
 1.1973842391e+00	 1.8614993665e-01	 1.5831290690e+00
 1.1956956630e+00	 1.9670464499e-01	 8.8748400429e-01
 1.1939088520e+00	 2.0727401527e-01	 2.3655043397e-01
 1.2162261143e+00	 1.0312967550e-01	 5.2389360391e+00
 1.2152928497e+00	 1.1359993575e-01	 5.2160279637e+00
 1.2142661203e+00	 1.2409437551e-01	 5.0277028131e+00
 1.2131451849e+00	 1.3461188583e-01	 4.6977500656e+00
 1.2119293170e+00	 1.4515133811e-01	 4.2503166330e+00
 1.2106178056e+00	 1.5571158425e-01	 3.7098944409e+00
 1.2092099555e+00	 1.6629145690e-01	 3.1013077416e+00
 1.2077050878e+00	 1.7688976964e-01	 2.4497001869e+00
 1.2061025407e+00	 1.8750531718e-01	 1.7805216883e+00
 1.2044016699e+00	 1.9813687565e-01	 1.1195150906e+00
 1.2026018489e+00	 2.0878320282e-01	 4.9270268248e-01
 1.2250175941e+00	 1.0387514745e-01	 4.7383388165e+00
 1.2240775834e+00	 1.1442109188e-01	 4.7688366228e+00
 1.2230434323e+00	 1.2499139061e-01	 4.6561940700e+00
 1.2219143942e+00	 1.3558492667e-01	 4.4191917061e+00
 1.2206897375e+00	 1.4620056328e-01	 4.0769310834e+00
 1.2193687458e+00	 1.5683714407e-01	 3.6488278169e+00
 1.2179507190e+00	 1.6749349324e-01	 3.1546045783e+00
 1.2164349734e+00	 1.7816841578e-01	 2.6142840537e+00
 1.2148208423e+00	 1.8886069772e-01	 2.0481818895e+00
 1.2131076767e+00	 1.9956910631e-01	 1.4768996496e+00
 1.2112948458e+00	 2.1029239036e-01	 9.2131780582e-01
 1.2338090739e+00	 1.0462061940e-01	 3.8478760768e+00
 1.2328623171e+00	 1.1524224802e-01	 3.9695704433e+00
 1.2318207443e+00	 1.2588840571e-01	 3.9802104832e+00
 1.2306836035e+00	 1.3655796750e-01	 3.8914583261e+00
 1.2294501579e+00	 1.4724978844e-01	 3.7152477532e+00
 1.2281196860e+00	 1.5796270388e-01	 3.4637852258e+00
 1.2266914826e+00	 1.6869552957e-01	 3.1495511310e+00
 1.2251648591e+00	 1.7944706192e-01	 2.7853012683e+00
 1.2235391440e+00	 1.9021607825e-01	 2.3840685980e+00
 1.2218136836e+00	 2.0100133697e-01	 1.9591652701e+00
 1.2199878427e+00	 2.1180157791e-01	 1.5241849493e+00
 1.2426005537e+00	 1.0536609135e-01	 2.5719600351e+00
 1.2416470508e+00	 1.1606340415e-01	 2.8204632727e+00
 1.2405980563e+00	 1.2678542081e-01	 3.0001077546e+00
 1.2394528128e+00	 1.3753100833e-01	 3.1133737829e+00
 1.2382105783e+00	 1.4829901361e-01	 3.1629512665e+00
 1.2368706262e+00	 1.5908826370e-01	 3.1517511845e+00
 1.2354322461e+00	 1.6989756590e-01	 3.0829176240e+00
 1.2338947447e+00	 1.8072570807e-01	 2.9598404089e+00
 1.2322574456e+00	 1.9157145879e-01	 2.7861683375e+00
 1.2305196905e+00	 2.0243356764e-01	 2.5658230386e+00
 1.2286808396e+00	 2.1331076545e-01	 2.3030134554e+00
 1.2513920335e+00	 1.0611156330e-01	 9.1486070817e-01
 1.2504317845e+00	 1.1688456029e-01	 1.3236650810e+00
 1.2493753683e+00	 1.2768243591e-01	 1.7162079901e+00
 1.2482220222e+00	 1.3850404916e-01	 2.0837692917e+00
 1.2469709987e+00	 1.4934823878e-01	 2.4177639367e+00
 1.2456215664e+00	 1.6021382351e-01	 2.7097663056e+00
 1.2441730097e+00	 1.7109960223e-01	 2.9515355494e+00
 1.2426246303e+00	 1.8200435421e-01	 3.1350419462e+00
 1.2409757472e+00	 1.9292683932e-01	 3.2524942826e+00
 1.2392256974e+00	 2.0386579830e-01	 3.2963682633e+00
 1.2373738365e+00	 2.1481995300e-01	 3.2594359450e+00
 1.2601835133e+00	 1.0685703526e-01	-1.1192895913e+00
 1.2592165182e+00	 1.1770571642e-01	-5.1875556051e-01
 1.2581526803e+00	 1.2857945101e-01	 1.2880045591e-01
 1.2569912315e+00	 1.3947708999e-01	 8.0148279818e-01
 1.2557314192e+00	 1.5039746395e-01	 1.4774441385e+00
 1.2543725065e+00	 1.6133938333e-01	 2.1349250978e+00
 1.2529137732e+00	 1.7230163857e-01	 2.7522953718e+00
 1.2513545159e+00	 1.8328300036e-01	 3.3080963720e+00
 1.2496940488e+00	 1.9428221986e-01	 3.7810853783e+00
 1.2479317043e+00	 2.0529802896e-01	 4.1502811959e+00
 1.2460668334e+00	 2.1632914054e-01	 4.3950113022e+00
 1.1591368644e+00	 2.0123726509e-01	 8.9781289565e-01
 1.1573064529e+00	 2.1151008095e-01	 5.7531439369e-01
 1.1553795464e+00	 2.2179468403e-01	 2.6407623128e-01
 1.1533555958e+00	 2.3208982905e-01	-1.5796872458e-02
 1.1512340711e+00	 2.4239425423e-01	-2.4343983807e-01
 1.1490144625e+00	 2.5270668167e-01	-3.9722335831e-01
 1.1466962804e+00	 2.6302581766e-01	-4.5475061179e-01
 1.1442790561e+00	 2.7335035306e-01	-3.9285459430e-01
 1.1417623423e+00	 2.8367896364e-01	-1.8759610817e-01
 1.1391457133e+00	 2.9401031052e-01	 1.8573754663e-01
 1.1364287657e+00	 3.0434304055e-01	 7.5263313249e-01
 1.1678298613e+00	 2.0274645264e-01	 4.8371484376e-01
 1.1659857226e+00	 2.1309630992e-01	 5.9538850669e-02
 1.1640443652e+00	 2.2345804283e-01	-3.1271678320e-01
 1.1620052358e+00	 2.3383039673e-01	-6.1853071371e-01
 1.1598678006e+00	 2.4421210040e-01	-8.4267330153e-01
 1.1576315460e+00	 2.5460186633e-01	-9.6919611197e-01
 1.1552959786e+00	 2.6499839113e-01	-9.8142176396e-01
 1.1528606263e+00	 2.7540035582e-01	-8.6193417016e-01
 1.1503250382e+00	 2.8580642626e-01	-5.9256921453e-01
 1.1476887857e+00	 2.9621525352e-01	-1.5440591786e-01
 1.1449514623e+00	 3.0662547430e-01	 4.7224185397e-01
 1.1765228582e+00	 2.0425564018e-01	 2.3405976054e-01
 1.1746649922e+00	 2.1468253889e-01	-2.6630471756e-01
 1.1727091839e+00	 2.2512140163e-01	-6.8440901325e-01
 1.1706548758e+00	 2.3557096441e-01	-1.0099787013e+00
 1.1685015302e+00	 2.4602994656e-01	-1.2320955656e+00
 1.1662486295e+00	 2.5649705099e-01	-1.3391824223e+00
 1.1638956768e+00	 2.6697096459e-01	-1.3189880797e+00
 1.1614421964e+00	 2.7745035858e-01	-1.1585724816e+00
 1.1588877341e+00	 2.8793388888e-01	-8.4429208164e-01
 1.1562318581e+00	 2.9842019653e-01	-3.6178550476e-01
 1.1534741588e+00	 3.0890790806e-01	 3.0404044546e-01
 1.1852158551e+00	 2.0576482773e-01	 1.5098892900e-01
 1.1833442619e+00	 2.1626876786e-01	-3.9741667977e-01
 1.1813740027e+00	 2.2678476042e-01	-8.4414025173e-01
 1.1793045158e+00	 2.3731153209e-01	-1.1818493930e+00
 1.1771352598e+00	 2.4784779272e-01	-1.4026447420e+00
 1.1748657130e+00	 2.5839223564e-01	-1.4980420460e+00
 1.1724953750e+00	 2.6894353805e-01	-1.4589541837e+00
 1.1700237665e+00	 2.7950036134e-01	-1.2756731790e+00
 1.1674504301e+00	 2.9006135150e-01	-9.3785225538e-01
 1.1647749305e+00	 3.0062513953e-01	-4.3448798843e-01
 1.1619968554e+00	 3.1119034182e-01	 2.4609738407e-01
 1.1939088520e+00	 2.0727401527e-01	 2.3655043397e-01
 1.1920235315e+00	 2.1785499683e-01	-3.2916746177e-01
 1.1900388214e+00	 2.2844811922e-01	-7.8527943710e-01
 1.1879541559e+00	 2.3905209977e-01	-1.1261208968e+00
 1.1857689893e+00	 2.4966563888e-01	-1.3455493040e+00
 1.1834827965e+00	 2.6028742030e-01	-1.4369254172e+00
 1.1810950732e+00	 2.7091611151e-01	-1.3930943006e+00
 1.1786053367e+00	 2.8155036410e-01	-1.2063661524e+00
 1.1760131260e+00	 2.9218881412e-01	-8.6849699636e-01
 1.1733180029e+00	 3.0283008253e-01	-3.7066929450e-01
 1.1705195519e+00	 3.1347277557e-01	 2.9652746154e-01
 1.2026018489e+00	 2.0878320282e-01	 4.9270268248e-01
 1.2007028012e+00	 2.1944122580e-01	-5.7091110866e-02
 1.1987036401e+00	 2.3011147801e-01	-5.0141593251e-01
 1.1966037959e+00	 2.4079266745e-01	-8.3503052752e-01
 1.1944027189e+00	 2.5148348504e-01	-1.0523168175e+00
 1.1920998801e+00	 2.6218260495e-01	-1.1472621804e+00
 1.1896947714e+00	 2.7288868497e-01	-1.1134413523e+00
 1.1871869068e+00	 2.8360036685e-01	-9.4399798693e-01
 1.1845758219e+00	 2.9431627674e-01	-6.3162591941e-01
 1.1818610753e+00	 3.0503502553e-01	-1.6855018197e-01
 1.1790422484e+00	 3.1575520933e-01	 4.5349216967e-01
 1.2112948458e+00	 2.1029239036e-01	 9.2131780582e-01
 1.2093820709e+00	 2.2102745477e-01	 4.2312089942e-01
 1.2073684589e+00	 2.3177483681e-01	 1.3648860170e-02
 1.2052534359e+00	 2.4253323513e-01	-3.0106486447e-01
 1.2030364485e+00	 2.5330133120e-01	-5.1472310729e-01
 1.2007169636e+00	 2.6407778961e-01	-6.2075016460e-01
 1.1982944697e+00	 2.7486125843e-01	-6.1227646692e-01
 1.1957684769e+00	 2.8565036961e-01	-4.8212276727e-01
 1.1931385178e+00	 2.9644373936e-01	-2.2278388377e-01
 1.1904041477e+00	 3.0723996853e-01	 1.7358795981e-01
 1.1875649450e+00	 3.1803764309e-01	 7.1520014519e-01
 1.2199878427e+00	 2.1180157791e-01	 1.5241849493e+00
 1.2180613405e+00	 2.2261368374e-01	 1.1156256364e+00
 1.2160332776e+00	 2.3343819560e-01	 7.6590956804e-01
 1.2139030760e+00	 2.4427380281e-01	 4.8304980999e-01
 1.2116701780e+00	 2.5511917736e-01	 2.7519816015e-01
 1.2093340471e+00	 2.6597297426e-01	 1.5065522428e-01
 1.2068941679e+00	 2.7683383189e-01	 1.1788111960e-01
 1.2043500471e+00	 2.8770037237e-01	 1.8550678610e-01
 1.2017012138e+00	 2.9857120198e-01	 3.6234587855e-01
 1.1989472201e+00	 3.0944491153e-01	 6.5740720514e-01
 1.1960876415e+00	 3.2032007684e-01	 1.0799076712e+00
 1.2286808396e+00	 2.1331076545e-01	 2.3030134554e+00
 1.2267406102e+00	 2.2419991271e-01	 2.0244344581e+00
 1.2246980963e+00	 2.3510155439e-01	 1.7611646124e+00
 1.2225527160e+00	 2.4601437049e-01	 1.5243567098e+00
 1.2203039076e+00	 2.5693702352e-01	 1.3251655005e+00
 1.2179511306e+00	 2.6786815891e-01	 1.1747512116e+00
 1.2154938661e+00	 2.7880640535e-01	 1.0842837902e+00
 1.2129316172e+00	 2.8975037513e-01	 1.0649478647e+00
 1.2102639097e+00	 3.0069866460e-01	 1.1279484082e+00
 1.2074902925e+00	 3.1164985453e-01	 1.2845170822e+00
 1.2046103380e+00	 3.2260251060e-01	 1.5459192323e+00
 1.2373738365e+00	 2.1481995300e-01	 3.2594359450e+00
 1.2354198798e+00	 2.2578614168e-01	 3.1534185573e+00
 1.2333629151e+00	 2.3676491319e-01	 3.0050236864e+00
 1.2312023560e+00	 2.4775493816e-01	 2.8296774003e+00
 1.2289376372e+00	 2.5875486968e-01	 2.6426592600e+00
 1.2265682141e+00	 2.6976334357e-01	 2.4590974840e+00
 1.2240935643e+00	 2.8077897881e-01	 2.2939649186e+00
 1.2215131873e+00	 2.9180037789e-01	 2.1620758201e+00
 1.2188266056e+00	 3.0282612722e-01	 2.0780834483e+00
 1.2160333649e+00	 3.1385479753e-01	 2.0564784649e+00
 1.2131330346e+00	 3.2488494435e-01	 2.1115881210e+00
 1.2460668334e+00	 2.1632914054e-01	 4.3950113022e+00
 1.2440991495e+00	 2.2737237065e-01	 4.5063143089e+00
 1.2420277338e+00	 2.3842827199e-01	 4.5029149588e+00
 1.2398519961e+00	 2.4949550584e-01	 4.4056203258e+00
 1.2375713667e+00	 2.6057271584e-01	 4.2349309069e+00
 1.2351852976e+00	 2.7165852822e-01	 4.0110256594e+00
 1.2326932625e+00	 2.8275155227e-01	 3.7537479051e+00
 1.2300947574e+00	 2.9385038065e-01	 3.4825921263e+00
 1.2273893016e+00	 3.0495358983e-01	 3.2166916700e+00
 1.2245764373e+00	 3.1605974053e-01	 2.9748073706e+00
 1.2216557311e+00	 3.2716737810e-01	 2.7753170924e+00
 1.1364287657e+00	 3.0434304055e-01	 7.5263313249e-01
 1.1336111194e+00	 3.1467578686e-01	 1.3844101892e+00
 1.1306924180e+00	 3.2500716977e-01	 1.9237102362e+00
 1.1276723292e+00	 3.3533579683e-01	 2.3529853567e+00
 1.1245505449e+00	 3.4566026314e-01	 2.6539129349e+00
 1.1213267811e+00	 3.5597915182e-01	 2.8074255868e+00
 1.1180007791e+00	 3.6629103455e-01	 2.7937427268e+00
 1.1145723051e+00	 3.7659447202e-01	 2.5999866033e+00
 1.1110411513e+00	 3.8688801453e-01	 2.2345816599e+00
 1.1074071358e+00	 3.9717020246e-01	 1.6749212721e+00
 1.1036701029e+00	 4.0743956688e-01	 8.9400700990e-01
 1.1449514623e+00	 3.0662547430e-01	 4.7224185397e-01
 1.1421126848e+00	 3.1703571149e-01	 1.1409160335e+00
 1.1391720945e+00	 3.2744457506e-01	 1.6830943815e+00
 1.1361293565e+00	 3.3785066210e-01	 2.0855537296e+00
 1.1329841602e+00	 3.4825255719e-01	 2.3345716197e+00
 1.1297362197e+00	 3.5864883283e-01	 2.4159559702e+00
 1.1263852741e+00	 3.6903804996e-01	 2.3150760352e+00
 1.1229310882e+00	 3.7941875851e-01	 2.0336489105e+00
 1.1193734524e+00	 3.8978949788e-01	 1.5814878626e+00
 1.1157121833e+00	 4.0014879752e-01	 9.3948273521e-01
 1.1119471245e+00	 4.1049517748e-01	 8.7445009678e-02
 1.1534741588e+00	 3.0890790806e-01	 3.0404044546e-01
 1.1506142503e+00	 3.1939563612e-01	 9.9215918854e-01
 1.1476517711e+00	 3.2988198034e-01	 1.5253829129e+00
 1.1445863837e+00	 3.4036552737e-01	 1.8949379991e+00
 1.1414177755e+00	 3.5084485124e-01	 2.0918308353e+00
 1.1381456582e+00	 3.6131851383e-01	 2.1068770545e+00
 1.1347697692e+00	 3.7178506537e-01	 1.9311518599e+00
 1.1312898713e+00	 3.8224304499e-01	 1.5839984917e+00
 1.1277057534e+00	 3.9269098123e-01	 1.0709081375e+00
 1.1240172309e+00	 4.0312739258e-01	 3.7846579794e-01
 1.1202241460e+00	 4.1355078809e-01	-5.0716851856e-01
 1.1619968554e+00	 3.1119034182e-01	 2.4609738407e-01
 1.1591158158e+00	 3.2175556076e-01	 9.3194897129e-01
 1.1561314476e+00	 3.3231938563e-01	 1.4401598342e+00
 1.1530434110e+00	 3.4288039264e-01	 1.7665264089e+00
 1.1498513908e+00	 3.5343714529e-01	 1.9069082584e+00
 1.1465550968e+00	 3.6398819483e-01	 1.8572567168e+00
 1.1431542643e+00	 3.7453208078e-01	 1.6175303135e+00
 1.1396486543e+00	 3.8506733148e-01	 1.2202668877e+00
 1.1360380544e+00	 3.9559246458e-01	 6.6800030304e-01
 1.1323222785e+00	 4.0610598765e-01	-4.6453651212e-02
 1.1285011675e+00	 4.1660639869e-01	-9.3043975808e-01
 1.1705195519e+00	 3.1347277557e-01	 2.9652746154e-01
 1.1676173813e+00	 3.2411548539e-01	 9.5426880970e-01
 1.1646111242e+00	 3.3475679091e-01	 1.4173103131e+00
 1.1615004383e+00	 3.4539525791e-01	 1.6861347840e+00
 1.1582850061e+00	 3.5602943934e-01	 1.7615750342e+00
 1.1549645353e+00	 3.6665787583e-01	 1.6448417683e+00
 1.1515387593e+00	 3.7727909619e-01	 1.3487251254e+00
 1.1480074374e+00	 3.8789161796e-01	 9.1261693387e-01
 1.1443703554e+00	 3.9849394793e-01	 3.3897333195e-01
 1.1406273260e+00	 4.0908458271e-01	-3.7301957715e-01
 1.1367781891e+00	 4.1966200929e-01	-1.2240689327e+00
 1.1790422484e+00	 3.1575520933e-01	 4.5349216967e-01
 1.1761189468e+00	 3.2647541002e-01	 1.0532722595e+00
 1.1730908007e+00	 3.3719419620e-01	 1.4470123667e+00
 1.1699574655e+00	 3.4791012318e-01	 1.6399939149e+00
 1.1667186214e+00	 3.5862173339e-01	 1.6381388882e+00
 1.1633739739e+00	 3.6932755683e-01	 1.4480368162e+00
 1.1599232544e+00	 3.8002611160e-01	 1.0996403925e+00
 1.1563662205e+00	 3.9071590445e-01	 6.3210964700e-01
 1.1527026565e+00	 4.0139543128e-01	 5.1050014797e-02
 1.1489323736e+00	 4.1206317777e-01	-6.3784667096e-01
 1.1450552106e+00	 4.2271761990e-01	-1.4285115963e+00
 1.1875649450e+00	 3.1803764309e-01	 7.1520014519e-01
 1.1846205122e+00	 3.2883533466e-01	 1.2232792740e+00
 1.1815704773e+00	 3.3963160148e-01	 1.5197289901e+00
 1.1784144928e+00	 3.5042498845e-01	 1.6147375772e+00
 1.1751522367e+00	 3.6121402744e-01	 1.5194280615e+00
 1.1717834124e+00	 3.7199723783e-01	 1.2465396092e+00
 1.1683077494e+00	 3.8277312701e-01	 8.4593495408e-01
 1.1647250035e+00	 3.9354019093e-01	 3.5067250055e-01
 1.1610349575e+00	 4.0429691463e-01	-2.2756898179e-01
 1.1572374212e+00	 4.1504177283e-01	-8.7646050818e-01
 1.1533322321e+00	 4.2577323050e-01	-1.5830230113e+00
 1.1960876415e+00	 3.2032007684e-01	 1.0799076712e+00
 1.1931220777e+00	 3.3119525929e-01	 1.4587727139e+00
 1.1900501538e+00	 3.4206900677e-01	 1.6262007088e+00
 1.1868715201e+00	 3.5293985372e-01	 1.5973911542e+00
 1.1835858520e+00	 3.6380632149e-01	 1.3887760307e+00
 1.1801928510e+00	 3.7466691883e-01	 1.0228782226e+00
 1.1766922445e+00	 3.8552014242e-01	 5.6399602999e-01
 1.1730837866e+00	 3.9636447741e-01	 4.1069019118e-02
 1.1693672585e+00	 4.0719839798e-01	-5.2773955989e-01
 1.1655424687e+00	 4.1802036789e-01	-1.1233360324e+00
 1.1616092537e+00	 4.2882884110e-01	-1.7257006742e+00
 1.2046103380e+00	 3.2260251060e-01	 1.5459192323e+00
 1.2016236432e+00	 3.3355518392e-01	 1.7543950856e+00
 1.1985298304e+00	 3.4450641205e-01	 1.7574385312e+00
 1.1953285473e+00	 3.5545471899e-01	 1.5753608337e+00
 1.1920194673e+00	 3.6639861554e-01	 1.2300069713e+00
 1.1886022895e+00	 3.7733659983e-01	 7.5795732061e-01
 1.1850767395e+00	 3.8826715783e-01	 2.3091394380e-01
 1.1814425697e+00	 3.9918876390e-01	-3.2313037306e-01
 1.1776995595e+00	 4.1009988133e-01	-8.7940721214e-01
 1.1738475163e+00	 4.2099896296e-01	-1.4119344468e+00
 1.1698862752e+00	 4.3188445171e-01	-1.8935250813e+00
 1.2131330346e+00	 3.2488494435e-01	 2.1115881210e+00
 1.2101252087e+00	 3.3591510855e-01	 2.1049454960e+00
 1.2070095069e+00	 3.4694381733e-01	 1.9047172840e+00
 1.2037855746e+00	 3.5796958425e-01	 1.5364233492e+00
 1.2004530826e+00	 3.6899090959e-01	 1.0274219303e+00
 1.1970117281e+00	 3.8000628083e-01	 4.3297326148e-01
 1.1934612346e+00	 3.9101417324e-01	-1.7554212290e-01
 1.1898013527e+00	 4.0201305038e-01	-7.6757631142e-01
 1.1860318606e+00	 4.1300136468e-01	-1.3116386906e+00
 1.1821525639e+00	 4.2397755802e-01	-1.7747385925e+00
 1.1781632967e+00	 4.3494006231e-01	-2.1223988186e+00
 1.2216557311e+00	 3.2716737810e-01	 2.7753170924e+00
 1.2186267741e+00	 3.3827503318e-01	 2.5053768145e+00
 1.2154891835e+00	 3.4938122261e-01	 2.0595693095e+00
 1.2122426019e+00	 3.6048444952e-01	 1.4687162406e+00
 1.2088866979e+00	 3.7158320363e-01	 7.6619619208e-01
 1.2054211666e+00	 3.8267596183e-01	 2.9681098225e-02
 1.2018457296e+00	 3.9376118865e-01	-6.7694739526e-01
 1.1981601358e+00	 4.0483733686e-01	-1.3171673163e+00
 1.1943641616e+00	 4.1590284802e-01	-1.8526523887e+00
 1.1904576115e+00	 4.2695615308e-01	-2.2432868870e+00
 1.1864403182e+00	 4.3799567291e-01	-2.4471840611e+00
 1.1036701029e+00	 4.0743956688e-01	 8.9400700990e-01
 1.0998292624e+00	 4.1769637217e-01	-7.5201919990e-04
 1.0958851383e+00	 4.2793738427e-01	-8.5684014894e-01
 1.0918376557e+00	 4.3816110842e-01	-1.6332851999e+00
 1.0876867674e+00	 4.4836604289e-01	-2.2878470641e+00
 1.0834324540e+00	 4.5855067955e-01	-2.7770599605e+00
 1.0790747247e+00	 4.6871350451e-01	-3.0562769319e+00
 1.0746136171e+00	 4.7885299878e-01	-3.0797165338e+00
 1.0700491977e+00	 4.8896763889e-01	-2.8005116618e+00
 1.0653815619e+00	 4.9905589759e-01	-2.1707604578e+00
 1.0606108344e+00	 5.0911624449e-01	-1.1415792319e+00
 1.1119471245e+00	 4.1049517748e-01	 8.7445009678e-02
 1.1080774793e+00	 4.2082890413e-01	-8.4742045714e-01
 1.1041037761e+00	 4.3114671914e-01	-1.6993751770e+00
 1.1000259393e+00	 4.4144711655e-01	-2.4307102174e+00
 1.0958439212e+00	 4.5172858337e-01	-3.0031345326e+00
 1.0915577024e+00	 4.6198960015e-01	-3.3778525793e+00
 1.0871672922e+00	 4.7222864165e-01	-3.5156132920e+00
 1.0826727283e+00	 4.8244417749e-01	-3.3767603242e+00
 1.0780740778e+00	 4.9263467278e-01	-2.9212834773e+00
 1.0733714369e+00	 5.0279858882e-01	-2.1088712396e+00
 1.0685649311e+00	 5.1293438373e-01	-8.9896435246e-01
 1.1202241460e+00	 4.1355078809e-01	-5.0716851856e-01
 1.1163256963e+00	 4.2396143609e-01	-1.4473793427e+00
 1.1123224140e+00	 4.3435605401e-01	-2.2711829743e+00
 1.1082142229e+00	 4.4473312468e-01	-2.9450269004e+00
 1.1040010750e+00	 4.5509112384e-01	-3.4361878407e+00
 1.0996829508e+00	 4.6542852075e-01	-3.7111841480e+00
 1.0952598596e+00	 4.7574377880e-01	-3.7366555131e+00
 1.0907318395e+00	 4.8603535621e-01	-3.4794782282e+00
 1.0860989579e+00	 4.9630170668e-01	-2.9068173478e+00
 1.0813613118e+00	 5.0654128004e-01	-1.9861790806e+00
 1.0765190278e+00	 5.1675252296e-01	-6.8546331615e-01
 1.1285011675e+00	 4.1660639869e-01	-9.3043975808e-01
 1.1245739133e+00	 4.2709396805e-01	-1.8424086475e+00
 1.1205410518e+00	 4.3756538888e-01	-2.6158071427e+00
 1.1164025065e+00	 4.4801913281e-01	-3.2214741709e+00
 1.1121582288e+00	 4.5845366432e-01	-3.6308107103e+00
 1.1078081992e+00	 4.6886744135e-01	-3.8163393811e+00
 1.1033524270e+00	 4.7925891594e-01	-3.7521412475e+00
 1.0987909506e+00	 4.8962653493e-01	-3.4120682425e+00
 1.0941238380e+00	 4.9996874058e-01	-2.7707659757e+00
 1.0893511868e+00	 5.1028397127e-01	-1.8037740698e+00
 1.0844731245e+00	 5.2057066219e-01	-4.8757598817e-01
 1.1367781891e+00	 4.1966200929e-01	-1.2240689327e+00
 1.1328221303e+00	 4.3022650000e-01	-2.0768582321e+00
 1.1287596897e+00	 4.4077472375e-01	-2.7770521401e+00
 1.1245907900e+00	 4.5130514094e-01	-3.3009588305e+00
 1.1203153826e+00	 4.6181620480e-01	-3.6259191059e+00
 1.1159334476e+00	 4.7230636194e-01	-3.7303572567e+00
 1.1114449944e+00	 4.8277405308e-01	-3.5938320021e+00
 1.1068500618e+00	 4.9321771364e-01	-3.1980066933e+00
 1.1021487181e+00	 5.0363577447e-01	-2.5263676790e+00
 1.0973410618e+00	 5.1402666250e-01	-1.5626979389e+00
 1.0924272212e+00	 5.2438880143e-01	-2.9217893859e-01
 1.1450552106e+00	 4.2271761990e-01	-1.4285115963e+00
 1.1410703473e+00	 4.3335903196e-01	-2.1941360487e+00
 1.1369783275e+00	 4.4398405862e-01	-2.7994812038e+00
 1.1327790736e+00	 4.5459114907e-01	-3.2270167908e+00
 1.1284725364e+00	 4.6517874528e-01	-3.4606377675e+00
 1.1240586961e+00	 4.7574528254e-01	-3.4857120228e+00
 1.1195375619e+00	 4.8628919022e-01	-3.2891276180e+00
 1.1149091730e+00	 4.9680889236e-01	-2.8593394876e+00
 1.1101735982e+00	 5.0730280837e-01	-2.1864617993e+00
 1.1053309367e+00	 5.1776935373e-01	-1.2639462738e+00
 1.1003813179e+00	 5.2820694066e-01	-8.6512323918e-02
 1.1533322321e+00	 4.2577323050e-01	-1.5830230113e+00
 1.1493185642e+00	 4.3649156392e-01	-2.2363642481e+00
 1.1451969654e+00	 4.4719339349e-01	-2.7263380103e+00
 1.1409673572e+00	 4.5787715720e-01	-3.0422501497e+00
 1.1366296903e+00	 4.6854128575e-01	-3.1751474824e+00
 1.1321839445e+00	 4.7918420314e-01	-3.1178603077e+00
 1.1276301293e+00	 4.8980432737e-01	-2.8650440049e+00
 1.1229682841e+00	 5.0040007108e-01	-2.4132196240e+00
 1.1181984783e+00	 5.1096984227e-01	-1.7608133880e+00
 1.1133208117e+00	 5.2151204496e-01	-9.0819501420e-01
 1.1083354146e+00	 5.3202507990e-01	 1.4183263900e-01
 1.1616092537e+00	 4.2882884110e-01	-1.7257006742e+00
 1.1575667812e+00	 4.3962409588e-01	-2.2444248392e+00
 1.1534156033e+00	 4.5040272836e-01	-2.5995936303e+00
 1.1491556408e+00	 4.6116316533e-01	-2.7880063532e+00
 1.1447868441e+00	 4.7190382623e-01	-2.8084432275e+00
 1.1403091929e+00	 4.8262312374e-01	-2.6617007243e+00
 1.1357226967e+00	 4.9331946451e-01	-2.3506255923e+00
 1.1310273953e+00	 5.0399124980e-01	-1.8801474987e+00
 1.1262233584e+00	 5.1463687617e-01	-1.2573102039e+00
 1.1213106867e+00	 5.2525473618e-01	-4.9130118899e-01
 1.1162895113e+00	 5.3584321913e-01	 4.0652035274e-01
 1.1698862752e+00	 4.3188445171e-01	-1.8935250813e+00
 1.1658149982e+00	 4.4275662783e-01	-2.2580034576e+00
 1.1616342411e+00	 4.5361206322e-01	-2.4599915408e+00
 1.1573439244e+00	 4.6444917346e-01	-2.5044226716e+00
 1.1529439979e+00	 4.7526636670e-01	-2.3983763176e+00
 1.1484344413e+00	 4.8606204434e-01	-2.1511042527e+00
 1.1438152642e+00	 4.9683460165e-01	-1.7740551139e+00
 1.1390865064e+00	 5.0758242851e-01	-1.2808972714e+00
 1.1342482385e+00	 5.1830391006e-01	-6.8753994206e-01
 1.1293005616e+00	 5.2899742741e-01	-1.2152475396e-02
 1.1242436080e+00	 5.3966135836e-01	 7.2481826350e-01
 1.1781632967e+00	 4.3494006231e-01	-2.1223988186e+00
 1.1740632152e+00	 4.4588915979e-01	-2.3156313356e+00
 1.1698528790e+00	 4.5682139809e-01	-2.3470907887e+00
 1.1655322079e+00	 4.6773518159e-01	-2.2304688549e+00
 1.1611011517e+00	 4.7862890718e-01	-1.9816948312e+00
 1.1565596897e+00	 4.8950096493e-01	-1.6189507044e+00
 1.1519078316e+00	 5.0034973879e-01	-1.1626843611e+00
 1.1471456176e+00	 5.1117360723e-01	-6.3562088882e-01
 1.1422731186e+00	 5.2197094396e-01	-6.2771914868e-02
 1.1372904366e+00	 5.3274011864e-01	 5.2855707486e-01
 1.1321977046e+00	 5.4347949760e-01	 1.1087614960e+00
 1.1864403182e+00	 4.3799567291e-01	-2.4471840611e+00
 1.1823114322e+00	 4.4902169174e-01	-2.4547255622e+00
 1.1780715168e+00	 4.6003073296e-01	-2.2993073976e+00
 1.1737204915e+00	 4.7102118972e-01	-2.0039880536e+00
 1.1692583055e+00	 4.8199144765e-01	-1.5940823997e+00
 1.1646849381e+00	 4.9293988553e-01	-1.0971637175e+00
 1.1600003990e+00	 5.0386487593e-01	-5.4306370940e-01
 1.1552047288e+00	 5.1476478594e-01	 3.6129545056e-02
 1.1502979987e+00	 5.2563797785e-01	 6.0607571923e-01
 1.1452803116e+00	 5.3648280987e-01	 1.1301884932e+00
 1.1401518013e+00	 5.4729763683e-01	 1.5696439718e+00
 1.0606108344e+00	 5.0911624449e-01	-1.1415792319e+00
 1.0557380065e+00	 5.1914544421e-01	 1.6789089268e-01
 1.0507624590e+00	 5.2914367498e-01	 1.5738501136e+00
 1.0456844044e+00	 5.3910940138e-01	 3.0273479844e+00
 1.0405040854e+00	 5.4904108763e-01	 4.4782554192e+00
 1.0352217745e+00	 5.5893719829e-01	 5.8753179290e+00
 1.0298377741e+00	 5.6879619897e-01	 7.1662113371e+00
 1.0243524169e+00	 5.7861655706e-01	 8.2975999276e+00
 1.0187660660e+00	 5.8839674247e-01	 9.2151969742e+00
 1.0130791144e+00	 5.9813522833e-01	 9.8638275898e+00
 1.0072919856e+00	 6.0783049177e-01	 1.0187493832e+01
 1.0685649311e+00	 5.1293438373e-01	-8.9896435246e-01
 1.0636555592e+00	 5.2303879786e-01	 5.7209122054e-01
 1.0586426973e+00	 5.3311201079e-01	 2.1094841170e+00
 1.0535265597e+00	 5.4315247558e-01	 3.6651258547e+00
 1.0483073907e+00	 5.5315864495e-01	 5.1904704250e+00
 1.0429854648e+00	 5.6312897191e-01	 6.6365730170e+00
 1.0375610869e+00	 5.7306191059e-01	 7.9541502855e+00
 1.0320345921e+00	 5.8295591688e-01	 9.0936420951e+00
 1.0264063461e+00	 5.9280944921e-01	 1.0005274672e+01
 1.0206767449e+00	 6.0262096927e-01	 1.0639125086e+01
 1.0148462152e+00	 6.1238894276e-01	 1.0945186990e+01
 1.0765190278e+00	 5.1675252296e-01	-6.8546331615e-01
 1.0715731119e+00	 5.2693215151e-01	 8.5514968908e-01
 1.0665229357e+00	 5.3708034660e-01	 2.4436552218e+00
 1.0613687150e+00	 5.4719554979e-01	 4.0334039004e+00
 1.0561106960e+00	 5.5727620226e-01	 5.5779019146e+00
 1.0507491551e+00	 5.6732074554e-01	 7.0308734950e+00
 1.0452843996e+00	 5.7732762222e-01	 8.3463241188e+00
 1.0397167672e+00	 5.8729527671e-01	 9.4786043714e+00
 1.0340466261e+00	 5.9722215596e-01	 1.0382474381e+01
 1.0282743755e+00	 6.0710671021e-01	 1.1013168740e+01
 1.0224004449e+00	 6.1694739375e-01	 1.1326461820e+01
 1.0844731245e+00	 5.2057066219e-01	-4.8757598817e-01
 1.0794906646e+00	 5.3082550516e-01	 1.0449971646e+00
 1.0744031741e+00	 5.4104868241e-01	 2.6163690560e+00
 1.0692108703e+00	 5.5123862400e-01	 4.1818949881e+00
 1.0639140012e+00	 5.6139375958e-01	 5.6975925734e+00
 1.0585128455e+00	 5.7151251916e-01	 7.1202062280e+00
 1.0530077124e+00	 5.8159333384e-01	 8.4072717225e+00
 1.0473989423e+00	 5.9163463653e-01	 9.5171807017e+00
 1.0416869062e+00	 6.0163486271e-01	 1.0409245080e+01
 1.0358720060e+00	 6.1159245116e-01	 1.1043761217e+01
 1.0299546746e+00	 6.2150584473e-01	 1.1382073781e+01
 1.0924272212e+00	 5.2438880143e-01	-2.9217893859e-01
 1.0874082173e+00	 5.3471885881e-01	 1.1687674127e+00
 1.0822834125e+00	 5.4501701823e-01	 2.6664823928e+00
 1.0770530256e+00	 5.5528169821e-01	 4.1588803573e+00
 1.0717173065e+00	 5.6551131690e-01	 5.6049399608e+00
 1.0662765358e+00	 5.7570429279e-01	 6.9647689730e+00
 1.0607310252e+00	 5.8585904547e-01	 8.1996686024e+00
 1.0550811174e+00	 5.9597399636e-01	 9.2721972325e+00
 1.0493271862e+00	 6.0604756945e-01	 1.0146233472e+01
 1.0434696365e+00	 6.1607819210e-01	 1.0787038423e+01
 1.0375089043e+00	 6.2606429572e-01	 1.1161317060e+01
 1.1003813179e+00	 5.2820694066e-01	-8.6512323918e-02
 1.0953257700e+00	 5.3861221246e-01	 1.2528253786e+00
 1.0901636508e+00	 5.4898535404e-01	 2.6317441130e+00
 1.0848951808e+00	 5.5932477241e-01	 4.0112607728e+00
 1.0795206117e+00	 5.6962887421e-01	 5.3537553503e+00
 1.0740402261e+00	 5.7989606642e-01	 6.6230343954e+00
 1.0684543380e+00	 5.9012475710e-01	 7.7843935585e+00
 1.0627632926e+00	 6.0031335618e-01	 8.8046791199e+00
 1.0569674662e+00	 6.1046027620e-01	 9.6523484068e+00
 1.0510672670e+00	 6.2056393304e-01	 1.0297528998e+01
 1.0450631340e+00	 6.3062274671e-01	 1.0712076621e+01
 1.1083354146e+00	 5.3202507990e-01	 1.4183263900e-01
 1.1032433227e+00	 5.4250556611e-01	 1.3227942225e+00
 1.0980438892e+00	 5.5295368985e-01	 2.5488343751e+00
 1.0927373361e+00	 5.6336784662e-01	 3.7846054452e+00
 1.0873239170e+00	 5.7374643153e-01	 4.9963200058e+00
 1.0818039165e+00	 5.8408784004e-01	 6.1518112974e+00
 1.0761776508e+00	 5.9439046872e-01	 7.2205924556e+00
 1.0704454677e+00	 6.0465271601e-01	 8.1739144281e+00
 1.0646077463e+00	 6.1487298295e-01	 8.9848224839e+00
 1.0586648975e+00	 6.2504967398e-01	 9.6282112211e+00
 1.0526173637e+00	 6.3518119770e-01	 1.0080877977e+01
 1.1162895113e+00	 5.3584321913e-01	 4.0652035274e-01
 1.1111608755e+00	 5.4639891976e-01	 1.4035813603e+00
 1.1059241276e+00	 5.5692202566e-01	 2.4534020824e+00
 1.1005794914e+00	 5.6741092083e-01	 3.5231988306e+00
 1.0951272222e+00	 5.7786398885e-01	 4.5834390209e+00
 1.0895676068e+00	 5.8827961367e-01	 5.6063031972e+00
 1.0839009636e+00	 5.9865618035e-01	 6.5657392368e+00
 1.0781276428e+00	 6.0899207584e-01	 7.4375152647e+00
 1.0722480263e+00	 6.1928568970e-01	 8.1992709993e+00
 1.0662625280e+00	 6.2953541493e-01	 8.8305674383e+00
 1.0601715933e+00	 6.3973964869e-01	 9.3129347995e+00
 1.1242436080e+00	 5.3966135836e-01	 7.2481826350e-01
 1.1190784282e+00	 5.5029227341e-01	 1.5233918880e+00
 1.1138043659e+00	 5.6089036148e-01	 2.3805803603e+00
 1.1084216467e+00	 5.7145399504e-01	 3.2700854135e+00
 1.1029305275e+00	 5.8198154616e-01	 4.1644928435e+00
 1.0973312972e+00	 5.9247138729e-01	 5.0401643921e+00
 1.0916242764e+00	 6.0292189198e-01	 5.8756943143e+00
 1.0858098179e+00	 6.1333143566e-01	 6.6514762879e+00
 1.0798883064e+00	 6.2369839645e-01	 7.3497483510e+00
 1.0738601585e+00	 6.3402115587e-01	 7.9546361580e+00
 1.0677258230e+00	 6.4429809968e-01	 8.4521944784e+00
 1.1321977046e+00	 5.4347949760e-01	 1.1087614960e+00
 1.1269959809e+00	 5.5418562706e-01	 1.7097739023e+00
 1.1216846043e+00	 5.6485869729e-01	 2.3700520729e+00
 1.1162638020e+00	 5.7549706924e-01	 3.0689631188e+00
 1.1107338328e+00	 5.8609910348e-01	 3.7874865985e+00
 1.1050949875e+00	 5.9666316092e-01	 4.5055536264e+00
 1.0993475892e+00	 6.0718760360e-01	 5.2047604692e+00
 1.0934919930e+00	 6.1767079548e-01	 5.8702307162e+00
 1.0875285864e+00	 6.2811110319e-01	 6.4888020368e+00
 1.0814577890e+00	 6.3850689681e-01	 7.0490619099e+00
 1.0752800527e+00	 6.4885655067e-01	 7.5413817200e+00
 1.1401518013e+00	 5.4729763683e-01	 1.5696439718e+00
 1.1349135336e+00	 5.5807898070e-01	 1.9858217227e+00
 1.1295648427e+00	 5.6882703310e-01	 2.4565397852e+00
 1.1241059573e+00	 5.7954014345e-01	 2.9668273878e+00
 1.1185371380e+00	 5.9021666079e-01	 3.5031484010e+00
 1.1128586778e+00	 6.0085493454e-01	 4.0534206672e+00
 1.1070709020e+00	 6.1145331523e-01	 4.6057363792e+00
 1.1011741682e+00	 6.2201015531e-01	 5.1467039618e+00
 1.0951688665e+00	 6.3252380994e-01	 5.6675243594e+00
 1.0890554195e+00	 6.4299263775e-01	 6.1611429873e+00
 1.0828342824e+00	 6.5341500165e-01	 6.6220402930e+00
 1.0072919856e+00	 6.0783049177e-01	 1.0187493832e+01
 1.0014051333e+00	 6.1748101481e-01	 1.0208747598e+01
 9.9541904256e-01	 6.2708528571e-01	 1.0009074982e+01
 9.8933422885e-01	 6.3664179916e-01	 9.6206147807e+00
 9.8315123760e-01	 6.4614905681e-01	 9.0758902854e+00
 9.7687064424e-01	 6.5560556802e-01	 8.4077685316e+00
 9.7049305402e-01	 6.6500985064e-01	 7.6494190983e+00
 9.6401910192e-01	 6.7436043167e-01	 6.8342725259e+00
 9.5744945241e-01	 6.8365584808e-01	 5.9959784170e+00
 9.5078479937e-01	 6.9289464749e-01	 5.1683632840e+00
 9.4402586576e-01	 7.0207538890e-01	 4.3853882066e+00
 1.0148462152e+00	 6.1238894276e-01	 1.0945186990e+01
 1.0089152142e+00	 6.2211184031e-01	 1.0954577243e+01
 1.0028842306e+00	 6.3178813886e-01	 1.0750710475e+01
 9.9675378356e-01	 6.4141632179e-01	 1.0362199729e+01
 9.9052442270e-01	 6.5099487952e-01	 9.8178894333e+00
 9.8419672776e-01	 6.6052231025e-01	 9.1468190109e+00
 9.7777130853e-01	 6.6999712069e-01	 8.3781862929e+00
 9.7124880474e-01	 6.7941782681e-01	 7.5413108158e+00
 9.6462988587e-01	 6.8878295460e-01	 6.6655970491e+00
 9.5791525097e-01	 6.9809104078e-01	 5.7804976168e+00
 9.5110562845e-01	 7.0734063356e-01	 4.9154765659e+00
 1.0224004449e+00	 6.1694739375e-01	 1.1326461820e+01
 1.0164252952e+00	 6.2674266581e-01	 1.1353978046e+01
 1.0103494186e+00	 6.3649099200e-01	 1.1173868218e+01
 1.0041733383e+00	 6.4619084442e-01	 1.0812226916e+01
 9.9789760780e-01	 6.5584070224e-01	 1.0295237214e+01
 9.9152281128e-01	 6.6543905249e-01	 9.6491372085e+00
 9.8504956304e-01	 6.7498439075e-01	 8.9001866084e+00
 9.7847850757e-01	 6.8447522195e-01	 8.0746334298e+00
 9.7181031933e-01	 6.9391006112e-01	 7.1986808619e+00
 9.6504570257e-01	 7.0328743407e-01	 6.2984543507e+00
 9.5818539114e-01	 7.1260587821e-01	 5.3999689550e+00
 1.0299546746e+00	 6.2150584473e-01	 1.1382073781e+01
 1.0239353762e+00	 6.3137349132e-01	 1.1449553657e+01
 1.0178146067e+00	 6.4119384515e-01	 1.1313174081e+01
 1.0115928930e+00	 6.5096536705e-01	 1.0997493580e+01
 1.0052707929e+00	 6.6068652496e-01	 1.0527026286e+01
 9.9884889480e-01	 6.7035579472e-01	 9.9262099882e+00
 9.9232781755e-01	 6.7997166080e-01	 9.2193744526e+00
 9.8570821039e-01	 6.8953261710e-01	 8.4307100675e+00
 9.7899075278e-01	 6.9903716763e-01	 7.5842368714e+00
 9.7217615418e-01	 7.0848382736e-01	 6.7037740097e+00
 9.6526515383e-01	 7.1787112287e-01	 5.8129096743e+00
 1.0375089043e+00	 6.2606429572e-01	 1.1161317060e+01
 1.0314454572e+00	 6.3600431682e-01	 1.1282684171e+01
 1.0252797947e+00	 6.4589669830e-01	 1.1202263077e+01
 1.0190124477e+00	 6.5573988968e-01	 1.0944034507e+01
 1.0126439780e+00	 6.6553234768e-01	 1.0531811716e+01
 1.0061749783e+00	 6.7527253695e-01	 9.9892086605e+00
 9.9960607206e-01	 6.8495893086e-01	 9.3396086442e+00
 9.9293791322e-01	 6.9459001224e-01	 8.6061334735e+00
 9.8617118624e-01	 7.0416427415e-01	 7.8116131928e+00
 9.7930660578e-01	 7.1368022065e-01	 6.9785564444e+00
 9.7234491652e-01	 7.2313636753e-01	 6.1291215047e+00
 1.0450631340e+00	 6.3062274671e-01	 1.0712076621e+01
 1.0389555382e+00	 6.4063514232e-01	 1.0893569556e+01
 1.0327449827e+00	 6.5059955144e-01	 1.0873814366e+01
 1.0264320024e+00	 6.6051441231e-01	 1.0677148777e+01
 1.0200171631e+00	 6.7037817040e-01	 1.0327629577e+01
 1.0135010618e+00	 6.8018927919e-01	 9.8489995452e+00
 1.0068843266e+00	 6.8994620092e-01	 9.2646550158e+00
 1.0001676160e+00	 6.9964740738e-01	 8.5976141316e+00
 9.9335161969e-01	 7.0929138067e-01	 7.8704858494e+00
 9.8643705738e-01	 7.1887661395e-01	 7.1054397496e+00
 9.7942467921e-01	 7.2840161219e-01	 6.3241767035e+00
 1.0526173637e+00	 6.3518119770e-01	 1.0080877977e+01
 1.0464656191e+00	 6.4526596782e-01	 1.0321271193e+01
 1.0402101708e+00	 6.5530240459e-01	 1.0359584723e+01
 1.0338515571e+00	 6.6528893494e-01	 1.0221425307e+01
 1.0273903482e+00	 6.7522399312e-01	 9.9320147106e+00
 1.0208271454e+00	 6.8510602142e-01	 9.5161540433e+00
 1.0141625811e+00	 6.9493347097e-01	 8.9981888686e+00
 1.0073973189e+00	 7.0470480252e-01	 8.4019751502e+00
 1.0005320531e+00	 7.1441848719e-01	 7.7508461096e+00
 9.9356750898e-01	 7.2407300724e-01	 7.0675800511e+00
 9.8650444190e-01	 7.3366685685e-01	 6.3743692110e+00
 1.0601715933e+00	 6.3973964869e-01	 9.3129347995e+00
 1.0539757001e+00	 6.4989679333e-01	 9.6037515964e+00
 1.0476753588e+00	 6.6000525774e-01	 9.6904405432e+00
 1.0412711118e+00	 6.7006345757e-01	 9.6007672858e+00
 1.0347635333e+00	 6.8006981584e-01	 9.3620176941e+00
 1.0281532289e+00	 6.9002276365e-01	 9.0009582406e+00
 1.0214408356e+00	 6.9992074103e-01	 8.5437972839e+00
 1.0146270217e+00	 7.0976219767e-01	 8.0161473279e+00
 1.0077124866e+00	 7.1954559371e-01	 7.4429883292e+00
 1.0006979606e+00	 7.2926940053e-01	 6.8486321194e+00
 9.9358420459e-01	 7.3893210151e-01	 6.2566880062e+00
 1.0677258230e+00	 6.4429809968e-01	 8.4521944784e+00
 1.0614857811e+00	 6.5452761883e-01	 8.7779124129e+00
 1.0551405468e+00	 6.6470811088e-01	 8.8963884466e+00
 1.0486906665e+00	 6.7483798021e-01	 8.8384155171e+00
 1.0421367184e+00	 6.8491563856e-01	 8.6342210502e+00
 1.0354793124e+00	 6.9493950589e-01	 8.3134220678e+00
 1.0287190901e+00	 7.0490801109e-01	 7.9049813011e+00
 1.0218567245e+00	 7.1481959281e-01	 7.4371643931e+00
 1.0148929201e+00	 7.2467270023e-01	 6.9374982716e+00
 1.0078284122e+00	 7.3446579383e-01	 6.4327307681e+00
 1.0006639673e+00	 7.4419734617e-01	 5.9481905281e+00
 1.0752800527e+00	 6.4885655067e-01	 7.5413817200e+00
 1.0689958621e+00	 6.5915844433e-01	 7.8796307907e+00
 1.0626057349e+00	 6.6941096403e-01	 8.0066045627e+00
 1.0561102212e+00	 6.7961250284e-01	 7.9569707576e+00
 1.0495099035e+00	 6.8976146128e-01	 7.7647547393e+00
 1.0428053959e+00	 6.9985624812e-01	 7.4632880388e+00
 1.0359973446e+00	 7.0989528114e-01	 7.0851579663e+00
 1.0290864273e+00	 7.1987698795e-01	 6.6621584055e+00
 1.0220733535e+00	 7.2979980674e-01	 6.2252418826e+00
 1.0149588638e+00	 7.3966218712e-01	 5.8044729983e+00
 1.0077437300e+00	 7.4946259082e-01	 5.4249776329e+00
 1.0828342824e+00	 6.5341500165e-01	 6.6220402930e+00
 1.0765059431e+00	 6.6378926983e-01	 6.9437941877e+00
 1.0700709229e+00	 6.7411381717e-01	 7.0494625530e+00
 1.0635297760e+00	 6.8438702546e-01	 6.9784150779e+00
 1.0568830886e+00	 6.9460728400e-01	 6.7693109669e+00
 1.0501314794e+00	 7.0477299035e-01	 6.4600395865e+00
 1.0432755991e+00	 7.1488255120e-01	 6.0876622596e+00
 1.0363161302e+00	 7.2493438309e-01	 5.6883553150e+00
 1.0292537870e+00	 7.3492691326e-01	 5.2973544996e+00
 1.0220893154e+00	 7.4485858041e-01	 4.9479703718e+00
 1.0148234927e+00	 7.5472783548e-01	 4.6653366701e+00
 9.4402586576e-01	 7.0207538890e-01	 4.3853882066e+00
 9.3717223126e-01	 7.1119818816e-01	 3.7157549755e+00
 9.3022582114e-01	 7.2026005839e-01	 3.1932952214e+00
 9.2318744869e-01	 7.2925959118e-01	 2.7993691975e+00
 9.1605795531e-01	 7.3819539237e-01	 2.5153764222e+00
 9.0883821025e-01	 7.4706608275e-01	 2.3215606308e+00
 9.0152911022e-01	 7.5587029875e-01	 2.1961635790e+00
 8.9413157908e-01	 7.6460669316e-01	 2.1208056306e+00
 8.8664656745e-01	 7.7327393573e-01	 2.0775775251e+00
 8.7907505228e-01	 7.8187071391e-01	 2.0488784486e+00
 8.7141803647e-01	 7.9039573348e-01	 2.0174431693e+00
 9.5110562845e-01	 7.0734063356e-01	 4.9154765659e+00
 9.4420059482e-01	 7.1653184964e-01	 4.1368748837e+00
 9.3720208980e-01	 7.2566167976e-01	 3.4858379209e+00
 9.3011093277e-01	 7.3472870493e-01	 2.9533559700e+00
 9.2292797145e-01	 7.4373152055e-01	 2.5298193218e+00
 9.1565408160e-01	 7.5266873705e-01	 2.2018177606e+00
 9.0829016666e-01	 7.6153898066e-01	 1.9583659677e+00
 9.0083715742e-01	 7.7034089403e-01	 1.7895055736e+00
 8.9329601162e-01	 7.7907313695e-01	 1.6851689466e+00
 8.8566771354e-01	 7.8773438705e-01	 1.6351943922e+00
 8.7795327362e-01	 7.9632334037e-01	 1.6293413817e+00
 9.5818539114e-01	 7.1260587821e-01	 5.3999689550e+00
 9.5122895838e-01	 7.2186551113e-01	 4.5656530125e+00
 9.4417835846e-01	 7.3106330113e-01	 3.8397706361e+00
 9.3703441686e-01	 7.4019781868e-01	 3.2201133982e+00
 9.2979798759e-01	 7.4926764873e-01	 2.7013304370e+00
 9.2246995295e-01	 7.5827139136e-01	 2.2768848834e+00
 9.1505122310e-01	 7.6720766256e-01	 1.9429832640e+00
 9.0754273576e-01	 7.7607509490e-01	 1.6954368056e+00
 8.9994545579e-01	 7.8487233818e-01	 1.5296583625e+00
 8.9226037481e-01	 7.9359806018e-01	 1.4406688323e+00
 8.8448851077e-01	 8.0225094726e-01	 1.4231039896e+00
 9.6526515383e-01	 7.1787112287e-01	 5.8129096743e+00
 9.5825732195e-01	 7.2719917261e-01	 4.9694821798e+00
 9.5115462712e-01	 7.3646492250e-01	 4.2176152572e+00
 9.4395790094e-01	 7.4566693244e-01	 3.5582107447e+00
 9.3666800373e-01	 7.5480377691e-01	 2.9875859110e+00
 9.2928582430e-01	 7.6387404566e-01	 2.5054268062e+00
 9.2181227954e-01	 7.7287634446e-01	 2.1114965594e+00
 9.1424831410e-01	 7.8180929577e-01	 1.8049697775e+00
 9.0659489996e-01	 7.9067153941e-01	 1.5844330904e+00
 8.9885303607e-01	 7.9946173332e-01	 1.4478863822e+00
 8.9102374791e-01	 8.0817855415e-01	 1.3927446930e+00
 9.7234491652e-01	 7.2313636753e-01	 6.1291215047e+00
 9.6528568551e-01	 7.3253283410e-01	 5.3167282963e+00
 9.5813089578e-01	 7.4186654387e-01	 4.5829562272e+00
 9.5088138502e-01	 7.5113604620e-01	 3.9267331113e+00
 9.4353801987e-01	 7.6033990509e-01	 3.3476680192e+00
 9.3610169565e-01	 7.6947669997e-01	 2.8473015479e+00
 9.2857333598e-01	 7.7854502637e-01	 2.4264980287e+00
 9.2095389243e-01	 7.8754349664e-01	 2.0854435022e+00
 9.1324434413e-01	 7.9647074064e-01	 1.8236445103e+00
 9.0544569734e-01	 8.0532540646e-01	 1.6399276942e+00
 8.9755898506e-01	 8.1410616104e-01	 1.5324401872e+00
 9.7942467921e-01	 7.2840161219e-01	 6.3241767035e+00
 9.7231404907e-01	 7.3786649558e-01	 5.5766943289e+00
 9.6510716444e-01	 7.4726816524e-01	 4.8988367131e+00
 9.5780486910e-01	 7.5660515995e-01	 4.2870208196e+00
 9.5040803601e-01	 7.6587603327e-01	 3.7418316347e+00
 9.4291756700e-01	 7.7507935428e-01	 3.2635172205e+00
 9.3533439242e-01	 7.8421370827e-01	 2.8516507959e+00
 9.2765947077e-01	 7.9327769751e-01	 2.5051305880e+00
 9.1989378830e-01	 8.0226994187e-01	 2.2221805025e+00
 9.1203835861e-01	 8.1118907960e-01	 2.0003515983e+00
 9.0409422220e-01	 8.2003376793e-01	 1.8365243516e+00
 9.8650444190e-01	 7.3366685685e-01	 6.3743692110e+00
 9.7934241263e-01	 7.4320015707e-01	 5.7193088679e+00
 9.7208343310e-01	 7.5266978661e-01	 5.1298438713e+00
 9.6472835319e-01	 7.6207427371e-01	 4.6015224078e+00
 9.5727805215e-01	 7.7141216145e-01	 4.1314621726e+00
 9.4973343835e-01	 7.8068200858e-01	 3.7161907989e+00
 9.4209544886e-01	 7.8988239018e-01	 3.3516505615e+00
 9.3436504911e-01	 7.9901189838e-01	 3.0332038101e+00
 9.2654323247e-01	 8.0806914310e-01	 2.7556391069e+00
 9.1863101987e-01	 8.1705275274e-01	 2.5131780451e+00
 9.1062945935e-01	 8.2596137482e-01	 2.2994827223e+00
 9.9358420459e-01	 7.3893210151e-01	 6.2566880062e+00
 9.8637077619e-01	 7.4853381855e-01	 5.7135726266e+00
 9.7905970176e-01	 7.5807140798e-01	 5.2422104408e+00
 9.7165183727e-01	 7.6754338746e-01	 4.8337464542e+00
 9.6414806829e-01	 7.7694828963e-01	 4.4790353649e+00
 9.5654930970e-01	 7.8628466289e-01	 4.1685086859e+00
 9.4885650530e-01	 7.9555107208e-01	 3.8921889020e+00
 9.4107062744e-01	 8.0474609925e-01	 3.6397041441e+00
 9.3319267664e-01	 8.1386834433e-01	 3.4003033416e+00
 9.2522368114e-01	 8.2291642587e-01	 3.1628718105e+00
 9.1716469649e-01	 8.3188898171e-01	 2.9159472361e+00
 1.0006639673e+00	 7.4419734617e-01	 5.9481905281e+00
 9.9339913975e-01	 7.5386748004e-01	 5.5305655418e+00
 9.8603597042e-01	 7.6347302936e-01	 5.2031146650e+00
 9.7857532135e-01	 7.7301250122e-01	 4.9482241420e+00
 9.7101808443e-01	 7.8248441782e-01	 4.7480787726e+00
 9.6336518105e-01	 7.9188731720e-01	 4.5846889830e+00
 9.5561756174e-01	 8.0121975398e-01	 4.4399181607e+00
 9.4777620578e-01	 8.1048030012e-01	 4.2955101898e+00
 9.3984212081e-01	 8.1966754556e-01	 4.1331171231e+00
 9.3181634240e-01	 8.2878009901e-01	 3.9343269263e+00
 9.2369993364e-01	 8.3781658860e-01	 3.6806912310e+00
 1.0077437300e+00	 7.4946259082e-01	 5.4249776329e+00
 1.0004275033e+00	 7.5920114152e-01	 5.1424977075e+00
 9.9301223908e-01	 7.6887465073e-01	 4.9806471521e+00
 9.8549880543e-01	 7.7848161497e-01	 4.9104734322e+00
 9.7788810057e-01	 7.8802054600e-01	 4.9031349526e+00
 9.7018105241e-01	 7.9748997150e-01	 4.9299453822e+00
 9.6237861818e-01	 8.0688843589e-01	 4.9624178492e+00
 9.5448178412e-01	 8.1621450099e-01	 4.9723089158e+00
 9.4649156497e-01	 8.2546674679e-01	 4.9316622354e+00
 9.3840900366e-01	 8.3464377215e-01	 4.8128518012e+00
 9.3023517078e-01	 8.4374419549e-01	 4.5886246921e+00
 1.0148234927e+00	 7.5472783548e-01	 4.6653366701e+00
 1.0074558669e+00	 7.6453480300e-01	 4.5223448469e+00
 9.9998850774e-01	 7.7427627210e-01	 4.5437791525e+00
 9.9242228952e-01	 7.8395072873e-01	 4.6869647658e+00
 9.8475811671e-01	 7.9355667418e-01	 4.9097261961e+00
 9.7699692376e-01	 8.0309262581e-01	 5.1704526015e+00
 9.6913967462e-01	 8.1255711779e-01	 5.4281624881e+00
 9.6118736245e-01	 8.2194870185e-01	 5.6425676613e+00
 9.5314100914e-01	 8.3126594802e-01	 5.7741362954e+00
 9.4500166493e-01	 8.4050744529e-01	 5.7841549965e+00
 9.3677040792e-01	 8.4967180238e-01	 5.6347897291e+00
 8.7141803647e-01	 7.9039573348e-01	 2.0174431693e+00
 8.6367786918e-01	 7.9884629108e-01	 1.9506010188e+00
 8.5585429751e-01	 8.0722259840e-01	 1.8300886901e+00
 8.4794838516e-01	 8.1552343441e-01	 1.6603142665e+00
 8.3996121988e-01	 8.2374759889e-01	 1.4453817899e+00
 8.3189391300e-01	 8.3189391300e-01	 1.1890864954e+00
 8.2374759889e-01	 8.3996121988e-01	 8.9491031147e-01
 8.1552343441e-01	 8.4794838516e-01	 5.6601762143e-01
 8.0722259840e-01	 8.5585429751e-01	 2.0525128784e-01
 7.9884629108e-01	 8.6367786918e-01	-1.8487106103e-01
 7.9039573348e-01	 8.7141803647e-01	-6.0216048226e-01
 8.7795327362e-01	 7.9632334037e-01	 1.6293413817e+00
 8.7015505860e-01	 8.0483727329e-01	 1.6358050512e+00
 8.6227281372e-01	 8.1327639909e-01	 1.6253248937e+00
 8.5430761064e-01	 8.2163948758e-01	 1.5914980161e+00
 8.4626054528e-01	 8.2992532953e-01	 1.5280331934e+00
 8.3813273728e-01	 8.3813273728e-01	 1.4287608318e+00
 8.2992532953e-01	 8.4626054528e-01	 1.2876425748e+00
 8.2163948758e-01	 8.5430761064e-01	 1.0987805276e+00
 8.1327639909e-01	 8.6227281372e-01	 8.5642607623e-01
 8.0483727329e-01	 8.7015505860e-01	 5.5498827907e-01
 7.9632334037e-01	 8.7795327362e-01	 1.8904181132e-01
 8.8448851077e-01	 8.0225094726e-01	 1.4231039896e+00
 8.7663224803e-01	 8.1082825550e-01	 1.4520598542e+00
 8.6869132994e-01	 8.1933019978e-01	 1.4966632666e+00
 8.6066683613e-01	 8.2775554074e-01	 1.5426184927e+00
 8.5255987067e-01	 8.3610306017e-01	 1.5760671419e+00
 8.4437156156e-01	 8.4437156156e-01	 1.5836090073e+00
 8.3610306017e-01	 8.5255987067e-01	 1.5523220610e+00
 8.2775554074e-01	 8.6066683613e-01	 1.4697815599e+00
 8.1933019978e-01	 8.6869132994e-01	 1.3240782219e+00
 8.1082825550e-01	 8.7663224803e-01	 1.1038354350e+00
 8.0225094726e-01	 8.8448851077e-01	 7.9822546284e-01
 8.9102374791e-01	 8.0817855415e-01	 1.3927446930e+00
 8.8310943746e-01	 8.1681923771e-01	 1.4050696181e+00
 8.7510984615e-01	 8.2538400047e-01	 1.4597192314e+00
 8.6702606161e-01	 8.3387159391e-01	 1.5373624715e+00
 8.5885919606e-01	 8.4228079082e-01	 1.6193426704e+00
 8.5061038584e-01	 8.5061038584e-01	 1.6877054700e+00
 8.4228079082e-01	 8.5885919606e-01	 1.7252255347e+00
 8.3387159391e-01	 8.6702606161e-01	 1.7154320028e+00
 8.2538400047e-01	 8.7510984615e-01	 1.6426326270e+00
 8.1681923771e-01	 8.8310943746e-01	 1.4919365532e+00
 8.0817855415e-01	 8.9102374791e-01	 1.2492756951e+00
 8.9755898506e-01	 8.1410616104e-01	 1.5324401872e+00
 8.8958662689e-01	 8.2281021992e-01	 1.5003608498e+00
 8.8152836237e-01	 8.3143780115e-01	 1.5296416445e+00
 8.7338528709e-01	 8.3998764708e-01	 1.5987148391e+00
 8.6515852146e-01	 8.4845852146e-01	 1.6868368875e+00
 8.5684921011e-01	 8.5684921011e-01	 1.7741196686e+00
 8.4845852146e-01	 8.6515852146e-01	 1.8415602903e+00
 8.3998764708e-01	 8.7338528709e-01	 1.8710693955e+00
 8.3143780115e-01	 8.8152836237e-01	 1.8454979140e+00
 8.2281021992e-01	 8.8958662689e-01	 1.7486622071e+00
 8.1410616104e-01	 8.9755898506e-01	 1.5653675547e+00
 9.0409422220e-01	 8.2003376793e-01	 1.8365243516e+00
 8.9606381631e-01	 8.2880120213e-01	 1.7432888851e+00
 8.8794687858e-01	 8.3749160184e-01	 1.7211297596e+00
 8.7974451258e-01	 8.4610370024e-01	 1.7489840710e+00
 8.7145784685e-01	 8.5463625210e-01	 1.8066769663e+00
 8.6308803439e-01	 8.6308803439e-01	 1.8749524970e+00
 8.5463625210e-01	 8.7145784685e-01	 1.9355029315e+00
 8.4610370024e-01	 8.7974451258e-01	 1.9709964678e+00
 8.3749160184e-01	 8.8794687858e-01	 1.9651032865e+00
 8.2880120213e-01	 8.9606381631e-01	 1.9025198938e+00
 8.2003376793e-01	 9.0409422220e-01	 1.7689917063e+00
 9.1062945935e-01	 8.2596137482e-01	 2.2994827223e+00
 9.0254100574e-01	 8.3479218434e-01	 2.1390441557e+00
 8.9436539479e-01	 8.4354540253e-01	 2.0484494952e+00
 8.8610373806e-01	 8.5221975341e-01	 2.0098266462e+00
 8.7775717224e-01	 8.6081398275e-01	 2.0061707939e+00
 8.6932685867e-01	 8.6932685867e-01	 2.0213712059e+00
 8.6081398275e-01	 8.7775717224e-01	 2.0402365165e+00
 8.5221975341e-01	 8.8610373806e-01	 2.0485184366e+00
 8.4354540253e-01	 8.9436539479e-01	 2.0329338384e+00
 8.3479218434e-01	 9.0254100574e-01	 1.9811851697e+00
 8.2596137482e-01	 9.1062945935e-01	 1.8819791535e+00
 9.1716469649e-01	 8.3188898171e-01	 2.9159472361e+00
 9.0901819517e-01	 8.4078316656e-01	 2.6926582229e+00
 9.0078391101e-01	 8.4959920322e-01	 2.5254490425e+00
 8.9246296354e-01	 8.5833580657e-01	 2.4022704547e+00
 8.8405649763e-01	 8.6699171339e-01	 2.3118363452e+00
 8.7556568294e-01	 8.7556568294e-01	 2.2436428576e+00
 8.6699171339e-01	 8.8405649763e-01	 2.1879861515e+00
 8.5833580657e-01	 8.9246296354e-01	 2.1359787435e+00
 8.4959920322e-01	 9.0078391101e-01	 2.0795643917e+00
 8.4078316656e-01	 9.0901819517e-01	 2.0115314900e+00
 8.3188898171e-01	 9.1716469649e-01	 1.9255249399e+00
 9.2369993364e-01	 8.3781658860e-01	 3.6806912310e+00
 9.1549538459e-01	 8.4677414877e-01	 3.4090095890e+00
 9.0720242722e-01	 8.5565300391e-01	 3.1655738448e+00
 8.9882218902e-01	 8.6445185974e-01	 2.9467372452e+00
 8.9035582303e-01	 8.7316944403e-01	 2.7494298465e+00
 8.8180450722e-01	 8.8180450722e-01	 2.5711663964e+00
 8.7316944403e-01	 8.9035582303e-01	 2.4100531096e+00
 8.6445185974e-01	 8.9882218902e-01	 2.2647933121e+00
 8.5565300391e-01	 9.0720242722e-01	 2.1346919322e+00
 8.4677414877e-01	 9.1549538459e-01	 2.0196588198e+00
 8.3781658860e-01	 9.2369993364e-01	 1.9202108797e+00
 9.3023517078e-01	 8.4374419549e-01	 4.5886246921e+00
 9.2197257402e-01	 8.5276513098e-01	 4.2928292992e+00
 9.1362094343e-01	 8.6170680460e-01	 3.9818809804e+00
 9.0518141451e-01	 8.7056791291e-01	 3.6630641625e+00
 8.9665514842e-01	 8.7934717467e-01	 3.3439727865e+00
 8.8804333150e-01	 8.8804333150e-01	 3.0325034026e+00
 8.7934717467e-01	 8.9665514842e-01	 2.7368475465e+00
 8.7056791291e-01	 9.0518141451e-01	 2.4654833970e+00
 8.6170680460e-01	 9.1362094343e-01	 2.2271667160e+00
 8.5276513098e-01	 9.2197257402e-01	 2.0309210737e+00
 8.4374419549e-01	 9.3023517078e-01	 1.8860273679e+00
 9.3677040792e-01	 8.4967180238e-01	 5.6347897291e+00
 9.2844976344e-01	 8.5875611319e-01	 5.3487063414e+00
 9.2003945964e-01	 8.6776060528e-01	 4.9870529782e+00
 9.1154063999e-01	 8.7668396607e-01	 4.5705244174e+00
 9.0295447381e-01	 8.8552490531e-01	 4.1197778313e+00
 8.9428215577e-01	 8.9428215577e-01	 3.6554075945e+00
 8.8552490531e-01	 9.0295447381e-01	 3.1979198833e+00
 8.7668396607e-01	 9.1154063999e-01	 2.7677070936e+00
 8.6776060528e-01	 9.2003945964e-01	 2.3850221083e+00
 8.5875611319e-01	 9.2844976344e-01	 2.0699524443e+00
 8.4967180238e-01	 9.3677040792e-01	 1.8423943123e+00
 7.9039573348e-01	 8.7141803647e-01	-6.0216048226e-01
 7.8187071391e-01	 8.7907505228e-01	-1.0059094058e+00
 7.7327393573e-01	 8.8664656745e-01	-1.3513824701e+00
 7.6460669316e-01	 8.9413157908e-01	-1.6306173325e+00
 7.5587029875e-01	 9.0152911022e-01	-1.8353947698e+00
 7.4706608275e-01	 9.0883821025e-01	-1.9572507205e+00
 7.3819539237e-01	 9.1605795531e-01	-1.9881834636e+00
 7.2925959118e-01	 9.2318744869e-01	-1.9315293228e+00
 7.2026005839e-01	 9.3022582114e-01	-1.7827032372e+00
 7.1119818816e-01	 9.3717223126e-01	-1.5324601655e+00
 7.0207538890e-01	 9.4402586576e-01	-1.1713963746e+00
 7.9632334037e-01	 8.7795327362e-01	 1.8904181132e-01
 7.8773438705e-01	 8.8566771354e-01	-2.0276980830e-01
 7.7907313695e-01	 8.9329601162e-01	-5.6842850442e-01
 7.7034089403e-01	 9.0083715742e-01	-8.9333839474e-01
 7.6153898066e-01	 9.0829016666e-01	-1.1628734097e+00
 7.5266873705e-01	 9.1565408160e-01	-1.3623974624e+00
 7.4373152055e-01	 9.2292797145e-01	-1.4772848367e+00
 7.3472870493e-01	 9.3011093277e-01	-1.4968499234e+00
 7.2566167976e-01	 9.3720208980e-01	-1.4194264247e+00
 7.1653184964e-01	 9.4420059482e-01	-1.2316078704e+00
 7.0734063356e-01	 9.5110562845e-01	-9.1909533741e-01
 8.0225094726e-01	 8.8448851077e-01	 7.9822546284e-01
 7.9359806018e-01	 8.9226037481e-01	 4.3904638659e-01
 7.8487233818e-01	 8.9994545579e-01	 7.8305627932e-02
 7.7607509490e-01	 9.0754273576e-01	-2.6437511474e-01
 7.6720766256e-01	 9.1505122310e-01	-5.6953660661e-01
 7.5827139136e-01	 9.2246995295e-01	-8.1790840407e-01
 7.4926764873e-01	 9.2979798759e-01	-9.9043510808e-01
 7.4019781868e-01	 9.3703441686e-01	-1.0683308806e+00
 7.3106330113e-01	 9.4417835846e-01	-1.0430649004e+00
 7.2186551113e-01	 9.5122895838e-01	-9.0449134309e-01
 7.1260587821e-01	 9.5818539114e-01	-6.3474513309e-01
 8.0817855415e-01	 8.9102374791e-01	 1.2492756951e+00
 7.9946173332e-01	 8.9885303607e-01	 9.3621614161e-01
 7.9067153941e-01	 9.0659489996e-01	 5.9891303423e-01
 7.8180929577e-01	 9.1424831410e-01	 2.6043878590e-01
 7.7287634446e-01	 9.2181227954e-01	-5.6455811457e-02
 7.6387404566e-01	 9.2928582430e-01	-3.2937212595e-01
 7.5480377691e-01	 9.3666800373e-01	-5.3629391500e-01
 7.4566693244e-01	 9.4395790094e-01	-6.5561719544e-01
 7.3646492250e-01	 9.5115462712e-01	-6.6813226803e-01
 7.2719917261e-01	 9.5825732195e-01	-5.6696627950e-01
 7.1787112287e-01	 9.6526515383e-01	-3.3467413811e-01
 8.1410616104e-01	 8.9755898506e-01	 1.5653675547e+00
 8.0532540646e-01	 9.0544569734e-01	 1.3049157072e+00
 7.9647074064e-01	 9.1324434413e-01	 1.0031773598e+00
 7.8754349664e-01	 9.2095389243e-01	 6.8513221099e-01
 7.7854502637e-01	 9.2857333598e-01	 3.7531214172e-01
 7.6947669997e-01	 9.3610169565e-01	 9.7768387262e-02
 7.6033990509e-01	 9.4353801987e-01	-1.2396080067e-01
 7.5113604620e-01	 9.5088138502e-01	-2.6688195037e-01
 7.4186654387e-01	 9.5813089578e-01	-3.0857757257e-01
 7.3253283410e-01	 9.6528568551e-01	-2.3443159100e-01
 7.2313636753e-01	 9.7234491652e-01	-3.4741431562e-02
 8.2003376793e-01	 9.0409422220e-01	 1.7689917063e+00
 8.1118907960e-01	 9.1203835861e-01	 1.5608388417e+00
 8.0226994187e-01	 9.1989378830e-01	 1.3005840905e+00
 7.9327769751e-01	 9.2765947077e-01	 1.0136017660e+00
 7.8421370827e-01	 9.3533439242e-01	 7.2472461003e-01
 7.7507935428e-01	 9.4291756700e-01	 4.5821057712e-01
 7.6587603327e-01	 9.5040803601e-01	 2.3771023235e-01
 7.5660515995e-01	 9.5780486910e-01	 8.6234815911e-02
 7.4726816524e-01	 9.6510716444e-01	 2.6125025972e-02
 7.3786649558e-01	 9.7231404907e-01	 7.8153170068e-02
 7.2840161219e-01	 9.7942467921e-01	 2.4964529829e-01
 8.2596137482e-01	 9.1062945935e-01	 1.8819791535e+00
 8.1705275274e-01	 9.1863101987e-01	 1.7192142842e+00
 8.0806914310e-01	 9.2654323247e-01	 1.5003314066e+00
 7.9901189838e-01	 9.3436504911e-01	 1.2496166529e+00
 7.8988239018e-01	 9.4209544886e-01	 9.9075277176e-01
 7.8068200858e-01	 9.4973343835e-01	 7.4678740164e-01
 7.7141216145e-01	 9.5727805215e-01	 5.4010202895e-01
 7.6207427371e-01	 9.6472835319e-01	 3.9238167952e-01
 7.5266978661e-01	 9.7208343310e-01	 3.2458539339e-01
 7.4320015707e-01	 9.7934241263e-01	 3.5691753151e-01
 7.3366685685e-01	 9.8650444190e-01	 5.0351259048e-01
 8.3188898171e-01	 9.1716469649e-01	 1.9255249399e+00
 8.2291642587e-01	 9.2522368114e-01	 1.7948225174e+00
 8.1386834433e-01	 9.3319267664e-01	 1.6113406084e+00
 8.0474609925e-01	 9.4107062744e-01	 1.3968233930e+00
 7.9555107208e-01	 9.4885650530e-01	 1.1723813091e+00
 7.8628466289e-01	 9.5654930970e-01	 9.5846267238e-01
 7.7694828963e-01	 9.6414806829e-01	 7.7482599669e-01
 7.6754338746e-01	 9.7165183727e-01	 6.4051305910e-01
 7.5807140798e-01	 9.7905970176e-01	 5.7382275330e-01
 7.4853381855e-01	 9.8637077619e-01	 5.9228577489e-01
 7.3893210151e-01	 9.9358420459e-01	 7.1230475358e-01
 8.3781658860e-01	 9.2369993364e-01	 1.9202108797e+00
 8.2878009901e-01	 9.3181634240e-01	 1.8020118553e+00
 8.1966754556e-01	 9.3984212081e-01	 1.6422661369e+00
 8.1048030012e-01	 9.4777620578e-01	 1.4587503854e+00
 8.0121975398e-01	 9.5561756174e-01	 1.2686081412e+00
 7.9188731720e-01	 9.6336518105e-01	 1.0883266261e+00
 7.8248441782e-01	 9.7101808443e-01	 9.3371420937e-01
 7.7301250122e-01	 9.7857532135e-01	 8.1987857228e-01
 7.6347302936e-01	 9.8603597042e-01	 7.6120560819e-01
 7.5386748004e-01	 9.9339913975e-01	 7.7133909310e-01
 7.4419734617e-01	 1.0006639673e+00	 8.6316116260e-01
 8.4374419549e-01	 9.3023517078e-01	 1.8860273679e+00
 8.3464377215e-01	 9.3840900366e-01	 1.7547138897e+00
 8.2546674679e-01	 9.4649156497e-01	 1.6015052082e+00
 8.1621450099e-01	 9.5448178412e-01	 1.4388123106e+00
 8.0688843589e-01	 9.6237861818e-01	 1.2784442046e+00
 7.9748997150e-01	 9.7018105241e-01	 1.1315917195e+00
 7.8802054600e-01	 9.7788810057e-01	 1.0088118797e+00
 7.7848161497e-01	 9.8549880543e-01	 9.2001287691e-01
 7.6887465073e-01	 9.9301223908e-01	 8.7443966608e-01
 7.5920114152e-01	 1.0004275033e+00	 8.8066020988e-01
 7.4946259082e-01	 1.0077437300e+00	 9.4655239818e-01
 8.4967180238e-01	 9.3677040792e-01	 1.8423943123e+00
 8.4050744529e-01	 9.4500166493e-01	 1.6664583254e+00
 8.3126594802e-01	 9.5314100914e-01	 1.4972070811e+00
 8.2194870185e-01	 9.6118736245e-01	 1.3403143852e+00
 8.1255711779e-01	 9.6913967462e-01	 1.2009132796e+00
 8.0309262581e-01	 9.7699692376e-01	 1.0835886361e+00
 7.9355667418e-01	 9.8475811671e-01	 9.9237018307e-01
 7.8395072873e-01	 9.9242228952e-01	 9.3072597358e-01
 7.7427627210e-01	 9.9998850774e-01	 9.0155630842e-01
 7.6453480300e-01	 1.0074558669e+00	 9.0718812627e-01
 7.5472783548e-01	 1.0148234927e+00	 9.4936987468e-01
 7.0207538890e-01	 9.4402586576e-01	-1.1713963746e+00
 6.9289464749e-01	 9.5078479937e-01	-7.7477756618e-01
 6.8365584808e-01	 9.5744945241e-01	-4.2459146616e-01
 6.7436043167e-01	 9.6401910192e-01	-1.2166109788e-01
 6.6500985064e-01	 9.7049305402e-01	 1.3313642810e-01
 6.5560556802e-01	 9.7687064424e-01	 3.3886163508e-01
 6.4614905681e-01	 9.8315123760e-01	 4.9450492769e-01
 6.3664179916e-01	 9.8933422885e-01	 5.9897939864e-01
 6.2708528571e-01	 9.9541904256e-01	 6.5111422395e-01
 6.1748101481e-01	 1.0014051333e+00	 6.4964867229e-01
 6.0783049177e-01	 1.0072919856e+00	 5.9322675003e-01
 7.0734063356e-01	 9.5110562845e-01	-9.1909533741e-01
 6.9809104078e-01	 9.5791525097e-01	-5.5493071125e-01
 6.8878295460e-01	 9.6462988587e-01	-2.2452284315e-01
 6.7941782681e-01	 9.7124880474e-01	 6.7554234244e-02
 6.6999712069e-01	 9.7777130853e-01	 3.1668840210e-01
 6.6052231025e-01	 9.8419672776e-01	 5.1822585336e-01
 6.5099487952e-01	 9.9052442270e-01	 6.6746797550e-01
 6.4141632179e-01	 9.9675378356e-01	 7.5966874477e-01
 6.3178813886e-01	 1.0028842306e+00	 7.9003265462e-01
 6.2211184031e-01	 1.0089152142e+00	 7.5371319765e-01
 6.1238894276e-01	 1.0148462152e+00	 6.4581191662e-01
 7.1260587821e-01	 9.5818539114e-01	-6.3474513309e-01
 7.0328743407e-01	 9.6504570257e-01	-3.0308472743e-01
 6.9391006112e-01	 9.7181031933e-01	 4.5460336438e-03
 6.8447522195e-01	 9.7847850757e-01	 2.8052731422e-01
 6.7498439075e-01	 9.8504956304e-01	 5.1723074102e-01
 6.6543905249e-01	 9.9152281128e-01	 7.0701943050e-01
 6.5584070224e-01	 9.9789760780e-01	 8.4224844973e-01
 6.4619084442e-01	 1.0041733383e+00	 9.1526573282e-01
 6.3649099200e-01	 1.0103494186e+00	 9.1841347134e-01
 6.2674266581e-01	 1.0164252952e+00	 8.4402999349e-01
 6.1694739375e-01	 1.0224004449e+00	 6.8445214305e-01
 7.1787112287e-01	 9.6526515383e-01	-3.3467413811e-01
 7.0848382736e-01	 9.7217615418e-01	-3.5430692046e-02
 6.9903716763e-01	 9.7899075278e-01	 2.4688318082e-01
 6.8953261710e-01	 9.8570821039e-01	 5.0229160200e-01
 6.7997166080e-01	 9.9232781755e-01	 7.2085306485e-01
 6.7035579472e-01	 9.9884889480e-01	 8.9266305624e-01
 6.6068652496e-01	 1.0052707929e+00	 1.0078570511e+00
 6.5096536705e-01	 1.0115928930e+00	 1.0566138989e+00
 6.4119384515e-01	 1.0178146067e+00	 1.0291596186e+00
 6.3137349132e-01	 1.0239353762e+00	 9.1577161212e-01
 6.2150584473e-01	 1.0299546746e+00	 7.0678330722e-01
 7.2313636753e-01	 9.7234491652e-01	-3.4741431562e-02
 7.1368022065e-01	 9.7930660578e-01	 2.3230443354e-01
 7.0416427415e-01	 9.8617118624e-01	 4.8720625257e-01
 6.9459001224e-01	 9.9293791322e-01	 7.1830687325e-01
 6.8495893086e-01	 9.9960607206e-01	 9.1403960272e-01
 6.7527253695e-01	 1.0061749783e+00	 1.0629324013e+00
 6.6553234768e-01	 1.0126439780e+00	 1.1536123792e+00
 6.5573988968e-01	 1.0190124477e+00	 1.1748106140e+00
 6.4589669830e-01	 1.0252797947e+00	 1.1153673039e+00
 6.3600431682e-01	 1.0314454572e+00	 9.6423726782e-01
 6.2606429572e-01	 1.0375089043e+00	 7.1049579956e-01
 7.2840161219e-01	 9.7942467921e-01	 2.4964529829e-01
 7.1887661395e-01	 9.8643705738e-01	 4.8484005854e-01
 7.0929138067e-01	 9.9335161969e-01	 7.1066529482e-01
 6.9964740738e-01	 1.0001676160e+00	 9.1444279536e-01
 6.8994620092e-01	 1.0068843266e+00	 1.0836538962e+00
 6.8018927919e-01	 1.0135010618e+00	 1.2059442372e+00
 6.7037817040e-01	 1.0200171631e+00	 1.2691287410e+00
 6.6051441231e-01	 1.0264320024e+00	 1.2611968349e+00
 6.5059955144e-01	 1.0327449827e+00	 1.1703179302e+00
 6.4063514232e-01	 1.0389555382e+00	 9.8484717117e-01
 6.3062274671e-01	 1.0450631340e+00	 6.9333146236e-01
 7.3366685685e-01	 9.8650444190e-01	 5.0351259048e-01
 7.2407300724e-01	 9.9356750898e-01	 7.0732495313e-01
 7.1441848719e-01	 1.0005320531e+00	 9.0282621366e-01
 7.0470480252e-01	 1.0073973189e+00	 1.0769631820e+00
 6.9493347097e-01	 1.0141625811e+00	 1.2169241328e+00
 6.8510602142e-01	 1.0208271454e+00	 1.3101431246e+00
 6.7522399312e-01	 1.0273903482e+00	 1.3443044544e+00
 6.6528893494e-01	 1.0338515571e+00	 1.3073472685e+00
 6.5530240459e-01	 1.0402101708e+00	 1.1874703472e+00
 6.4526596782e-01	 1.0464656191e+00	 9.7313707878e-01
 6.3518119770e-01	 1.0526173637e+00	 6.5308063246e-01
 7.3893210151e-01	 9.9358420459e-01	 7.1230475358e-01
 7.2926940053e-01	 1.0006979606e+00	 8.8532093803e-01
 7.1954559371e-01	 1.0077124866e+00	 1.0496549222e+00
 7.0976219767e-01	 1.0146270217e+00	 1.1925108927e+00
 6.9992074103e-01	 1.0214408356e+00	 1.3014290776e+00
 6.9002276365e-01	 1.0281532289e+00	 1.3642886426e+00
 6.8006981584e-01	 1.0347635333e+00	 1.3693106244e+00
 6.7006345757e-01	 1.0412711118e+00	 1.3050609274e+00
 6.6000525774e-01	 1.0476753588e+00	 1.1604534056e+00
 6.4989679333e-01	 1.0539757001e+00	 9.2475304771e-01
 6.3973964869e-01	 1.0601715933e+00	 5.8757928223e-01
 7.4419734617e-01	 1.0006639673e+00	 8.6316116260e-01
 7.3446579383e-01	 1.0078284122e+00	 1.0047872385e+00
 7.2467270023e-01	 1.0148929201e+00	 1.1375021323e+00
 7.1481959281e-01	 1.0218567245e+00	 1.2480933448e+00
 7.0490801109e-01	 1.0287190901e+00	 1.3250845746e+00
 6.9493950589e-01	 1.0354793124e+00	 1.3574431320e+00
 6.8491563856e-01	 1.0421367184e+00	 1.3345803669e+00
 6.7483798021e-01	 1.0486906665e+00	 1.2463520589e+00
 6.6470811088e-01	 1.0551405468e+00	 1.0830587988e+00
 6.5452761883e-01	 1.0614857811e+00	 8.3544638452e-01
 6.4429809968e-01	 1.0677258230e+00	 4.9470625395e-01
 7.4946259082e-01	 1.0077437300e+00	 9.4655239818e-01
 7.3966218712e-01	 1.0149588638e+00	 1.0520654702e+00
 7.2979980674e-01	 1.0220733535e+00	 1.1530887600e+00
 7.1987698795e-01	 1.0290864273e+00	 1.2310686089e+00
 7.0989528114e-01	 1.0359973446e+00	 1.2761305882e+00
 6.9985624812e-01	 1.0428053959e+00	 1.2789599268e+00
 6.8976146128e-01	 1.0495099035e+00	 1.2307984589e+00
 6.7961250284e-01	 1.0561102212e+00	 1.1234414277e+00
 6.6941096403e-01	 1.0626057349e+00	 9.4923417910e-01
 6.5915844433e-01	 1.0689958621e+00	 7.0106877932e-01
 6.4885655067e-01	 1.0752800527e+00	 3.7238058297e-01
 7.5472783548e-01	 1.0148234927e+00	 9.4936987468e-01
 7.4485858041e-01	 1.0220893154e+00	 1.0156776118e+00
 7.3492691326e-01	 1.0292537870e+00	 1.0834919134e+00
 7.2493438309e-01	 1.0363161302e+00	 1.1291320578e+00
 7.1488255120e-01	 1.0432755991e+00	 1.1431187602e+00
 7.0477299035e-01	 1.0501314794e+00	 1.1184720507e+00
 6.9460728400e-01	 1.0568830886e+00	 1.0488913940e+00
 6.8438702546e-01	 1.0635297760e+00	 9.2874793560e-01
 6.7411381717e-01	 1.0700709229e+00	 7.5307653336e-01
 6.6378926983e-01	 1.0765059431e+00	 5.1756761573e-01
 6.5341500165e-01	 1.0828342824e+00	 2.1855890536e-01
 6.0783049177e-01	 1.0072919856e+00	 5.9322675003e-01
 5.9813522833e-01	 1.0130791144e+00	 5.1332174198e-01
 5.8839674247e-01	 1.0187660660e+00	 4.4106226632e-01
 5.7861655706e-01	 1.0243524169e+00	 3.7468945152e-01
 5.6879619897e-01	 1.0298377741e+00	 3.1269455642e-01
 5.5893719829e-01	 1.0352217745e+00	 2.5381765551e-01
 5.4904108763e-01	 1.0405040854e+00	 1.9704646481e-01
 5.3910940138e-01	 1.0456844044e+00	 1.4161530867e-01
 5.2914367498e-01	 1.0507624590e+00	 8.7004225370e-02
 5.1914544421e-01	 1.0557380065e+00	 3.2938207116e-02
 5.0911624449e-01	 1.0606108344e+00	-2.0613432385e-02
 6.1238894276e-01	 1.0148462152e+00	 6.4581191662e-01
 6.0262096927e-01	 1.0206767449e+00	 4.9981073454e-01
 5.9280944921e-01	 1.0264063461e+00	 3.5388021609e-01
 5.8295591688e-01	 1.0320345921e+00	 2.1037419757e-01
 5.7306191059e-01	 1.0375610869e+00	 7.1984743994e-02
 5.6312897191e-01	 1.0429854648e+00	-5.8265929957e-02
 5.5315864495e-01	 1.0483073907e+00	-1.7703341897e-01
 5.4315247558e-01	 1.0535265597e+00	-2.8065895464e-01
 5.3311201079e-01	 1.0586426973e+00	-3.6517709280e-01
 5.2303879786e-01	 1.0636555592e+00	-4.2632325452e-01
 5.1293438373e-01	 1.0685649311e+00	-4.5954111706e-01
 6.1694739375e-01	 1.0224004449e+00	 6.8445214305e-01
 6.0710671021e-01	 1.0282743755e+00	 4.7632951618e-01
 5.9722215596e-01	 1.0340466261e+00	 2.6506726774e-01
 5.8729527671e-01	 1.0397167672e+00	 5.6439375435e-02
 5.7732762222e-01	 1.0452843996e+00	-1.4338680735e-01
 5.6732074554e-01	 1.0507491551e+00	-3.2786411993e-01
 5.5727620226e-01	 1.0561106960e+00	-4.9007903201e-01
 5.4719554979e-01	 1.0613687150e+00	-6.2276493063e-01
 5.3708034660e-01	 1.0665229357e+00	-7.1831523937e-01
 5.2693215151e-01	 1.0715731119e+00	-7.6879635540e-01
 5.1675252296e-01	 1.0765190278e+00	-7.6596039294e-01
 6.2150584473e-01	 1.0299546746e+00	 7.0678330722e-01
 6.1159245116e-01	 1.0358720060e+00	 4.4268855161e-01
 6.0163486271e-01	 1.0416869062e+00	 1.7585913010e-01
 5.9163463653e-01	 1.0473989423e+00	-8.5186828448e-02
 5.8159333384e-01	 1.0530077124e+00	-3.3151516703e-01
 5.7151251916e-01	 1.0585128455e+00	-5.5379349984e-01
 5.6139375958e-01	 1.0639140012e+00	-7.4230883928e-01
 5.5123862400e-01	 1.0692108703e+00	-8.8698502458e-01
 5.4104868241e-01	 1.0744031741e+00	-9.7739992897e-01
 5.3082550516e-01	 1.0794906646e+00	-1.0028024255e+00
 5.2057066219e-01	 1.0844731245e+00	-9.5212909486e-01
 6.2606429572e-01	 1.0375089043e+00	 7.1049579956e-01
 6.1607819210e-01	 1.0434696365e+00	 3.9868917193e-01
 6.0604756945e-01	 1.0493271862e+00	 8.7440650162e-02
 5.9597399636e-01	 1.0550811174e+00	-2.1264738286e-01
 5.8585904547e-01	 1.0607310252e+00	-4.9056591526e-01
 5.7570429279e-01	 1.0662765358e+00	-7.3492009397e-01
 5.6551131690e-01	 1.0717173065e+00	-9.3394976819e-01
 5.5528169821e-01	 1.0770530256e+00	-1.0755497584e+00
 5.4501701823e-01	 1.0822834125e+00	-1.1472898247e+00
 5.3471885881e-01	 1.0874082173e+00	-1.1364343110e+00
 5.2438880143e-01	 1.0924272212e+00	-1.0299614460e+00
 6.3062274671e-01	 1.0450631340e+00	 6.9333146236e-01
 6.2056393304e-01	 1.0510672670e+00	 3.4412281418e-01
 6.1046027620e-01	 1.0569674662e+00	 9.4656357332e-04
 6.0031335618e-01	 1.0627632926e+00	-3.2415492264e-01
 5.9012475710e-01	 1.0684543380e+00	-6.1877366940e-01
 5.7989606642e-01	 1.0740402261e+00	-8.7015864312e-01
 5.6962887421e-01	 1.0795206117e+00	-1.0652379544e+00
 5.5932477241e-01	 1.0848951808e+00	-1.1906406823e+00
 5.4898535404e-01	 1.0901636508e+00	-1.2327182936e+00
 5.3861221246e-01	 1.0953257700e+00	-1.1775656312e+00
 5.2820694066e-01	 1.1003813179e+00	-1.0110414541e+00
 6.3518119770e-01	 1.0526173637e+00	 6.5308063246e-01
 6.2504967398e-01	 1.0586648975e+00	 2.7877026558e-01
 6.1487298295e-01	 1.0646077463e+00	-8.2537815285e-02
 6.0465271601e-01	 1.0704454677e+00	-4.1799035140e-01
 5.9439046872e-01	 1.0761776508e+00	-7.1444070123e-01
 5.8408784004e-01	 1.0818039165e+00	-9.5847194041e-01
 5.7374643153e-01	 1.0873239170e+00	-1.1364194821e+00
 5.6336784662e-01	 1.0927373361e+00	-1.2343931876e+00
 5.5295368985e-01	 1.0980438892e+00	-1.2382989404e+00
 5.4250556611e-01	 1.1032433227e+00	-1.1338596629e+00
 5.3202507990e-01	 1.1083354146e+00	-9.0663575630e-01
 6.3973964869e-01	 1.0601715933e+00	 5.8757928223e-01
 6.2953541493e-01	 1.0662625280e+00	 2.0240091198e-01
 6.1928568970e-01	 1.0722480263e+00	-1.6197596046e-01
 6.0899207584e-01	 1.0781276428e+00	-4.9250153164e-01
 5.9865618035e-01	 1.0839009636e+00	-7.7593564065e-01
 5.8827961367e-01	 1.0895676068e+00	-9.9887022265e-01
 5.7786398885e-01	 1.0951272222e+00	-1.1477511202e+00
 5.6741092083e-01	 1.1005794914e+00	-1.2088992253e+00
 5.5692202566e-01	 1.1059241276e+00	-1.1685309307e+00
 5.4639891976e-01	 1.1111608755e+00	-1.0127778930e+00
 5.3584321913e-01	 1.1162895113e+00	-7.2796155467e-01
 6.4429809968e-01	 1.0677258230e+00	 4.9470625395e-01
 6.3402115587e-01	 1.0738601585e+00	 1.1477199044e-01
 6.2369839645e-01	 1.0798883064e+00	-2.3637955609e-01
 6.1333143566e-01	 1.0858098179e+00	-5.4610205769e-01
 6.0292189198e-01	 1.0916242764e+00	-8.0169226151e-01
 5.9247138729e-01	 1.0973312972e+00	-9.9041061423e-01
 5.8198154616e-01	 1.1029305275e+00	-1.0995010522e+00
 5.7145399504e-01	 1.1084216467e+00	-1.1162099362e+00
 5.6089036148e-01	 1.1138043659e+00	-1.0278384608e+00
 5.5029227341e-01	 1.1190784282e+00	-8.2203525061e-01
 5.3966135836e-01	 1.1242436080e+00	-4.8653138089e-01
 6.4885655067e-01	 1.0752800527e+00	 3.7238058297e-01
 6.3850689681e-01	 1.0814577890e+00	 1.5627845701e-02
 6.2811110319e-01	 1.0875285864e+00	-3.0480796984e-01
 6.1767079548e-01	 1.0934919930e+00	-5.7727010776e-01
 6.0718760360e-01	 1.0993475892e+00	-7.9020834558e-01
 5.9666316092e-01	 1.1050949875e+00	-9.3219662114e-01
 5.8609910348e-01	 1.1107338328e+00	-9.9194960350e-01
 5.7549706924e-01	 1.1162638020e+00	-9.5839022282e-01
 5.6485869729e-01	 1.1216846043e+00	-8.2089073424e-01
 5.5418562706e-01	 1.1269959809e+00	-5.6907476737e-01
 5.4347949760e-01	 1.1321977046e+00	-1.9272118008e-01
 6.5341500165e-01	 1.0828342824e+00	 2.1855890536e-01
 6.4299263775e-01	 1.0890554195e+00	-9.5300809652e-02
 6.3252380994e-01	 1.0951688665e+00	-3.6636777566e-01
 6.2201015531e-01	 1.1011741682e+00	-5.8454737082e-01
 6.1145331523e-01	 1.1070709020e+00	-7.4004462076e-01
 6.0085493454e-01	 1.1128586778e+00	-8.2336725140e-01
 5.9021666079e-01	 1.1185371380e+00	-8.2533618487e-01
 5.7954014345e-01	 1.1241059573e+00	-7.3751050494e-01
 5.6882703310e-01	 1.1295648427e+00	-5.5185951423e-01
 5.5807898070e-01	 1.1349135336e+00	-2.6066750501e-01
 5.4729763683e-01	 1.1401518013e+00	 1.4346782341e-01
 5.0911624449e-01	 1.0606108344e+00	-2.0613432385e-02
 4.9905589759e-01	 1.0653815619e+00	-4.0331391609e-02
 4.8896763889e-01	 1.0700491977e+00	 8.0121490682e-03
 4.7885299878e-01	 1.0746136171e+00	 1.2547898658e-01
 4.6871350451e-01	 1.0790747247e+00	 3.1256741294e-01
 4.5855067955e-01	 1.0834324540e+00	 5.6921884582e-01
 4.4836604289e-01	 1.0876867674e+00	 8.9482551708e-01
 4.3816110842e-01	 1.0918376557e+00	 1.2882391743e+00
 4.2793738427e-01	 1.0958851383e+00	 1.7477807486e+00
 4.1769637217e-01	 1.0998292624e+00	 2.2712509383e+00
 4.0743956688e-01	 1.1036701029e+00	 2.8559416591e+00
 5.1293438373e-01	 1.0685649311e+00	-4.5954111706e-01
 5.0279858882e-01	 1.0733714369e+00	-4.3771763272e-01
 4.9263467278e-01	 1.0780740778e+00	-3.3782930146e-01
 4.8244417749e-01	 1.0826727283e+00	-1.6181184997e-01
 4.7222864165e-01	 1.0871672922e+00	 8.7657963743e-02
 4.6198960015e-01	 1.0915577024e+00	 4.0717572808e-01
 4.5172858337e-01	 1.0958439212e+00	 7.9262397125e-01
 4.4144711655e-01	 1.1000259393e+00	 1.2391879113e+00
 4.3114671914e-01	 1.1041037761e+00	 1.7413723012e+00
 4.2082890413e-01	 1.1080774793e+00	 2.2930193052e+00
 4.1049517748e-01	 1.1119471245e+00	 2.8873109430e+00
 5.1675252296e-01	 1.0765190278e+00	-7.6596039294e-01
 5.0654128004e-01	 1.0813613118e+00	-6.9197061356e-01
 4.9630170668e-01	 1.0860989579e+00	-5.3705809565e-01
 4.8603535621e-01	 1.0907318395e+00	-3.0549740103e-01
 4.7574377880e-01	 1.0952598596e+00	-2.4362920700e-03
 4.6542852075e-01	 1.0996829508e+00	 3.6612288501e-01
 4.5509112384e-01	 1.1040010750e+00	 7.9334315302e-01
 4.4473312468e-01	 1.1082142229e+00	 1.2715741223e+00
 4.3435605401e-01	 1.1123224140e+00	 1.7923417110e+00
 4.2396143609e-01	 1.1163256963e+00	 2.3459065113e+00
 4.1355078809e-01	 1.1202241460e+00	 2.9221174852e+00
 5.2057066219e-01	 1.0844731245e+00	-9.5212909486e-01
 5.1028397127e-01	 1.0893511868e+00	-8.1904220692e-01
 4.9996874058e-01	 1.0941238380e+00	-6.0825301647e-01
 4.8962653493e-01	 1.0987909506e+00	-3.2573326463e-01
 4.7925891594e-01	 1.1033524270e+00	 2.1584641752e-02
 4.6886744135e-01	 1.1078081992e+00	 4.2582999806e-01
 4.5845366432e-01	 1.1121582288e+00	 8.7819531965e-01
 4.4801913281e-01	 1.1164025065e+00	 1.3684710577e+00
 4.3756538888e-01	 1.1205410518e+00	 1.8858407054e+00
 4.2709396805e-01	 1.1245739133e+00	 2.4188973263e+00
 4.1660639869e-01	 1.1285011675e+00	 2.9554697585e+00
 5.2438880143e-01	 1.0924272212e+00	-1.0299614460e+00
 5.1402666250e-01	 1.0973410618e+00	-8.3443253310e-01
 5.0363577447e-01	 1.1021487181e+00	-5.6946396253e-01
 4.9321771364e-01	 1.1068500618e+00	-2.4209953988e-01
 4.8277405308e-01	 1.1114449944e+00	 1.3961087522e-01
 4.7230636194e-01	 1.1159334476e+00	 5.6620409628e-01
 4.6181620480e-01	 1.1203153826e+00	 1.0272797866e+00
 4.5130514094e-01	 1.1245907900e+00	 1.5118379832e+00
 4.4077472375e-01	 1.1287596897e+00	 2.0080276345e+00
 4.3022650000e-01	 1.1328221303e+00	 2.5031770520e+00
 4.1966200929e-01	 1.1367781891e+00	 2.9838248052e+00
 5.2820694066e-01	 1.1003813179e+00	-1.0110414541e+00
 5.1776935373e-01	 1.1053309367e+00	-7.5320724077e-01
 5.0730280837e-01	 1.1101735982e+00	-4.3823199084e-01
 4.9680889236e-01	 1.1149091730e+00	-7.3849600369e-02
 4.8628919022e-01	 1.1195375619e+00	 3.3086406492e-01
 4.7574528254e-01	 1.1240586961e+00	 7.6624494226e-01
 4.6517874528e-01	 1.1284725364e+00	 1.2217368376e+00
 4.5459114907e-01	 1.1327790736e+00	 1.6859095586e+00
 4.4398405862e-01	 1.1369783275e+00	 2.1464895384e+00
 4.3335903196e-01	 1.1410703473e+00	 2.5903909252e+00
 4.2271761990e-01	 1.1450552106e+00	 3.0037470868e+00
 5.3202507990e-01	 1.1083354146e+00	-9.0663575630e-01
 5.2151204496e-01	 1.1133208117e+00	-5.9007180523e-01
 5.1096984227e-01	 1.1181984783e+00	-2.3230406671e-01
 5.0040007108e-01	 1.1229682841e+00	 1.5897857323e-01
 4.8980432737e-01	 1.1276301293e+00	 5.7524679878e-01
 4.7918420314e-01	 1.1321839445e+00	 1.0070849985e+00
 4.6854128575e-01	 1.1366296903e+00	 1.4442200379e+00
 4.5787715720e-01	 1.1409673572e+00	 1.8755505461e+00
 4.4719339349e-01	 1.1451969654e+00	 2.2891766646e+00
 4.3649156392e-01	 1.1493185642e+00	 2.6724302035e+00
 4.2577323050e-01	 1.1533322321e+00	 3.0119051562e+00
 5.3584321913e-01	 1.1162895113e+00	-7.2796155467e-01
 5.2525473618e-01	 1.1213106867e+00	-3.6031721049e-01
 5.1463687617e-01	 1.1262233584e+00	 3.0664006802e-02
 5.0399124980e-01	 1.1310273953e+00	 4.3808859817e-01
 4.9331946451e-01	 1.1357226967e+00	 8.5423915608e-01
 4.8262312374e-01	 1.1403091929e+00	 1.2706004589e+00
 4.7190382623e-01	 1.1447868441e+00	 1.6778860324e+00
 4.6116316533e-01	 1.1491556408e+00	 2.0660651288e+00
 4.5040272836e-01	 1.1534156033e+00	 2.4243900739e+00
 4.3962409588e-01	 1.1575667812e+00	 2.7414239367e+00
 4.2882884110e-01	 1.1616092537e+00	 3.0050684752e+00
 5.3966135836e-01	 1.1242436080e+00	-4.8653138089e-01
 5.2899742741e-01	 1.1293005616e+00	-7.8159621669e-02
 5.1830391006e-01	 1.1342482385e+00	 3.3454845881e-01
 5.0758242851e-01	 1.1390865064e+00	 7.4598620703e-01
 4.9683460165e-01	 1.1438152642e+00	 1.1498556745e+00
 4.8606204434e-01	 1.1484344413e+00	 1.5391901977e+00
 4.7526636670e-01	 1.1529439979e+00	 1.9063773066e+00
 4.6444917346e-01	 1.1573439244e+00	 2.2431819177e+00
 4.5361206322e-01	 1.1616342411e+00	 2.5407697736e+00
 4.4275662783e-01	 1.1658149982e+00	 2.7897310896e+00
 4.3188445171e-01	 1.1698862752e+00	 2.9801043703e+00
 5.4347949760e-01	 1.1321977046e+00	-1.9272118008e-01
 5.3274011864e-01	 1.1372904366e+00	 2.4297883255e-01
 5.2197094396e-01	 1.1422731186e+00	 6.6370209958e-01
 5.1117360723e-01	 1.1471456176e+00	 1.0656801057e+00
 5.0034973879e-01	 1.1519078316e+00	 1.4446271397e+00
 4.8950096493e-01	 1.1565596897e+00	 1.7957579708e+00
 4.7862890718e-01	 1.1611011517e+00	 2.1138056769e+00
 4.6773518159e-01	 1.1655322079e+00	 2.3930395935e+00
 4.5682139809e-01	 1.1698528790e+00	 2.6272833552e+00
 4.4588915979e-01	 1.1740632152e+00	 2.8099330009e+00
 4.3494006231e-01	 1.1781632967e+00	 2.9339751196e+00
 5.4729763683e-01	 1.1401518013e+00	 1.4346782341e-01
 5.3648280987e-01	 1.1452803116e+00	 5.9006334588e-01
 5.2563797785e-01	 1.1502979987e+00	 1.0029267088e+00
 5.1476478594e-01	 1.1552047288e+00	 1.3806649918e+00
 5.0386487593e-01	 1.1600003990e+00	 1.7215831398e+00
 4.9293988553e-01	 1.1646849381e+00	 2.0236953628e+00
 4.8199144765e-01	 1.1692583055e+00	 2.2847364737e+00
 4.7102118972e-01	 1.1737204915e+00	 2.5021731513e+00
 4.6003073296e-01	 1.1780715168e+00	 2.6732151089e+00
 4.4902169174e-01	 1.1823114322e+00	 2.7948261597e+00
 4.3799567291e-01	 1.1864403182e+00	 2.8637351645e+00
 4.0743956688e-01	 1.1036701029e+00	 2.8559416591e+00
 3.9717020246e-01	 1.1074071358e+00	 3.4001651467e+00
 3.8688801453e-01	 1.1110411513e+00	 3.8023793052e+00
 3.7659447202e-01	 1.1145723051e+00	 4.0593046475e+00
 3.6629103455e-01	 1.1180007791e+00	 4.1699297812e+00
 3.5597915182e-01	 1.1213267811e+00	 4.1505364329e+00
 3.4566026314e-01	 1.1245505449e+00	 4.0035469656e+00
 3.3533579683e-01	 1.1276723292e+00	 3.7271520271e+00
 3.2500716977e-01	 1.1306924180e+00	 3.3198818594e+00
 3.1467578686e-01	 1.1336111194e+00	 2.7805969323e+00
 3.0434304055e-01	 1.1364287657e+00	 2.1084784001e+00
 4.1049517748e-01	 1.1119471245e+00	 2.8873109430e+00
 4.0014879752e-01	 1.1157121833e+00	 3.4276372561e+00
 3.8978949788e-01	 1.1193734524e+00	 3.8208538980e+00
 3.7941875851e-01	 1.1229310882e+00	 4.0645339675e+00
 3.6903804996e-01	 1.1263852741e+00	 4.1569114773e+00
 3.5864883283e-01	 1.1297362197e+00	 4.1120397310e+00
 3.4825255719e-01	 1.1329841602e+00	 3.9384356064e+00
 3.3785066210e-01	 1.1361293565e+00	 3.6355368818e+00
 3.2744457506e-01	 1.1391720945e+00	 3.2032786576e+00
 3.1703571149e-01	 1.1421126848e+00	 2.6420792881e+00
 3.0662547430e-01	 1.1449514623e+00	 1.9528260279e+00
 4.1355078809e-01	 1.1202241460e+00	 2.9221174852e+00
 4.0312739258e-01	 1.1240172309e+00	 3.4342853390e+00
 3.9269098123e-01	 1.1277057534e+00	 3.8011163522e+00
 3.8224304499e-01	 1.1312898713e+00	 4.0203552843e+00
 3.7178506537e-01	 1.1347697692e+00	 4.0903256561e+00
 3.6131851383e-01	 1.1381456582e+00	 4.0195118057e+00
 3.5084485124e-01	 1.1414177755e+00	 3.8230877704e+00
 3.4036552737e-01	 1.1445863837e+00	 3.5014430199e+00
 3.2988198034e-01	 1.1476517711e+00	 3.0553684382e+00
 3.1939563612e-01	 1.1506142503e+00	 2.4862615112e+00
 3.0890790806e-01	 1.1534741588e+00	 1.7961084078e+00
 4.1660639869e-01	 1.1285011675e+00	 2.9554697585e+00
 4.0610598765e-01	 1.1323222785e+00	 3.4213760648e+00
 3.9559246458e-01	 1.1360380544e+00	 3.7491203218e+00
 3.8506733148e-01	 1.1396486543e+00	 3.9362473575e+00
 3.7453208078e-01	 1.1431542643e+00	 3.9809823221e+00
 3.6398819483e-01	 1.1465550968e+00	 3.8869383300e+00
 3.5343714529e-01	 1.1498513908e+00	 3.6725650138e+00
 3.4288039264e-01	 1.1530434110e+00	 3.3402098896e+00
 3.3231938563e-01	 1.1561314476e+00	 2.8909843915e+00
 3.2175556076e-01	 1.1591158158e+00	 2.3267006442e+00
 3.1119034182e-01	 1.1619968554e+00	 1.6498512052e+00
 4.1966200929e-01	 1.1367781891e+00	 2.9838248052e+00
 4.0908458271e-01	 1.1406273260e+00	 3.3904472152e+00
 3.9849394793e-01	 1.1443703554e+00	 3.6706491709e+00
 3.8789161796e-01	 1.1480074374e+00	 3.8214151379e+00
 3.7727909619e-01	 1.1515387593e+00	 3.8404769041e+00
 3.6665787583e-01	 1.1549645353e+00	 3.7278879885e+00
 3.5602943934e-01	 1.1582850061e+00	 3.5014799690e+00
 3.4539525791e-01	 1.1615004383e+00	 3.1667193733e+00
 3.3475679091e-01	 1.1646111242e+00	 2.7245163953e+00
 3.2411548539e-01	 1.1676173813e+00	 2.1765471527e+00
 3.1347277557e-01	 1.1705195519e+00	 1.5252323022e+00
 4.2271761990e-01	 1.1450552106e+00	 3.0037470868e+00
 4.1206317777e-01	 1.1489323736e+00	 3.3429963544e+00
 4.0139543128e-01	 1.1527026565e+00	 3.5713225391e+00
 3.9071590445e-01	 1.1563662205e+00	 3.6848001525e+00
 3.8002611160e-01	 1.1599232544e+00	 3.6802839446e+00
 3.6932755683e-01	 1.1633739739e+00	 3.5555282858e+00
 3.5862173339e-01	 1.1667186214e+00	 3.3240132325e+00
 3.4791012318e-01	 1.1699574655e+00	 2.9954129168e+00
 3.3719419620e-01	 1.1730908007e+00	 2.5699275603e+00
 3.2647541002e-01	 1.1761189468e+00	 2.0485600776e+00
 3.1575520933e-01	 1.1790422484e+00	 1.4330947624e+00
 4.2577323050e-01	 1.1533322321e+00	 3.0119051562e+00
 4.1504177283e-01	 1.1572374212e+00	 3.2804827879e+00
 4.0429691463e-01	 1.1610349575e+00	 3.4566027180e+00
 3.9354019093e-01	 1.1647250035e+00	 3.5350904453e+00
 3.8277312701e-01	 1.1683077494e+00	 3.5115510000e+00
 3.7199723783e-01	 1.1717834124e+00	 3.3823616951e+00
 3.6121402744e-01	 1.1751522367e+00	 3.1539295529e+00
 3.5042498845e-01	 1.1784144928e+00	 2.8403079470e+00
 3.3963160148e-01	 1.1815704773e+00	 2.4407700873e+00
 3.2883533466e-01	 1.1846205122e+00	 1.9551215574e+00
 3.1803764309e-01	 1.1875649450e+00	 1.3839592588e+00
 4.2882884110e-01	 1.1616092537e+00	 3.0050684752e+00
 4.1802036789e-01	 1.1655424687e+00	 3.2043294399e+00
 4.0719839798e-01	 1.1693672585e+00	 3.3318007598e+00
 3.9636447741e-01	 1.1730837866e+00	 3.3807300968e+00
 3.8552014242e-01	 1.1766922445e+00	 3.3451107631e+00
 3.7466691883e-01	 1.1801928510e+00	 3.2196771528e+00
 3.6380632149e-01	 1.1835858520e+00	 3.0045933556e+00
 3.5293985372e-01	 1.1868715201e+00	 2.7150136123e+00
 3.4206900677e-01	 1.1900501538e+00	 2.3502004707e+00
 3.3119525929e-01	 1.1931220777e+00	 1.9082507525e+00
 3.2032007684e-01	 1.1960876415e+00	 1.3880359910e+00
 4.3188445171e-01	 1.1698862752e+00	 2.9801043703e+00
 4.2099896296e-01	 1.1738475163e+00	 3.1159246545e+00
 4.1009988133e-01	 1.1776995595e+00	 3.2020823289e+00
 3.9918876390e-01	 1.1814425697e+00	 3.2299283424e+00
 3.8826715783e-01	 1.1850767395e+00	 3.1914926758e+00
 3.7733659983e-01	 1.1886022895e+00	 3.0794835073e+00
 3.6639861554e-01	 1.1920194673e+00	 2.8889836342e+00
 3.5545471899e-01	 1.1953285473e+00	 2.6327458823e+00
 3.4450641205e-01	 1.1985298304e+00	 2.3109940804e+00
 3.3355518392e-01	 1.2016236432e+00	 1.9196172004e+00
 3.2260251060e-01	 1.2046103380e+00	 1.4552361181e+00
 4.3494006231e-01	 1.1781632967e+00	 2.9339751196e+00
 4.2397755802e-01	 1.1821525639e+00	 3.0166239239e+00
 4.1300136468e-01	 1.1860318606e+00	 3.0724733098e+00
 4.0201305038e-01	 1.1898013527e+00	 3.0906683095e+00
 3.9101417324e-01	 1.1934612346e+00	 3.0609340542e+00
 3.8000628083e-01	 1.1970117281e+00	 2.9735797166e+00
 3.6899090959e-01	 1.2004530826e+00	 2.8197082423e+00
 3.5796958425e-01	 1.2037855746e+00	 2.6063420347e+00
 3.4694381733e-01	 1.2070095069e+00	 2.3355591533e+00
 3.3591510855e-01	 1.2101252087e+00	 2.0005536309e+00
 3.2488494435e-01	 1.2131330346e+00	 1.5951827299e+00
 4.3799567291e-01	 1.1864403182e+00	 2.8637351645e+00
 4.2695615308e-01	 1.1904576115e+00	 2.9077515470e+00
 4.1590284802e-01	 1.1943641616e+00	 2.9478651844e+00
 4.0483733686e-01	 1.1981601358e+00	 2.9707153924e+00
 3.9376118865e-01	 1.2018457296e+00	 2.9633907522e+00
 3.8267596183e-01	 1.2054211666e+00	 2.9134388584e+00
 3.7158320363e-01	 1.2088866979e+00	 2.8088750766e+00
 3.6048444952e-01	 1.2122426019e+00	 2.6482745620e+00
 3.4938122261e-01	 1.2154891835e+00	 2.4359502223e+00
 3.3827503318e-01	 1.2186267741e+00	 2.1620682665e+00
 3.2716737810e-01	 1.2216557311e+00	 1.8172213800e+00
 3.0434304055e-01	 1.1364287657e+00	 2.1084784001e+00
 2.9401031052e-01	 1.1391457133e+00	 1.4231675715e+00
 2.8367896364e-01	 1.1417623423e+00	 8.4460865084e-01
 2.7335035306e-01	 1.1442790561e+00	 3.7276476471e-01
 2.6302581766e-01	 1.1466962804e+00	 7.7186431102e-03
 2.5270668167e-01	 1.1490144625e+00	-2.5033275202e-01
 2.4239425423e-01	 1.1512340711e+00	-4.0108359924e-01
 2.3208982905e-01	 1.1533555958e+00	-4.4412458272e-01
 2.2179468403e-01	 1.1553795464e+00	-3.7894824239e-01
 2.1151008095e-01	 1.1573064529e+00	-2.0495430267e-01
 2.0123726509e-01	 1.1591368644e+00	 7.8545025893e-02
 3.0662547430e-01	 1.1449514623e+00	 1.9528260279e+00
 2.9621525352e-01	 1.1476887857e+00	 1.2542686416e+00
 2.8580642626e-01	 1.1503250382e+00	 6.6468830402e-01
 2.7540035582e-01	 1.1528606263e+00	 1.8463150501e-01
 2.6499839113e-01	 1.1552959786e+00	-1.8533306063e-01
 2.5460186633e-01	 1.1576315460e+00	-4.4461862658e-01
 2.4421210040e-01	 1.1598678006e+00	-5.9262438075e-01
 2.3383039673e-01	 1.1620052358e+00	-6.2873937984e-01
 2.2345804283e-01	 1.1640443652e+00	-5.5234634989e-01
 2.1309630992e-01	 1.1659857226e+00	-3.6282537116e-01
 2.0274645264e-01	 1.1678298613e+00	-5.9557447002e-02
 3.0890790806e-01	 1.1534741588e+00	 1.7961084078e+00
 2.9842019653e-01	 1.1562318581e+00	 1.0997122923e+00
 2.8793388888e-01	 1.1588877341e+00	 5.1108649759e-01
 2.7745035858e-01	 1.1614421964e+00	 3.1420169741e-02
 2.6697096459e-01	 1.1638956768e+00	-3.3815746842e-01
 2.5649705099e-01	 1.1662486295e+00	-5.9658040719e-01
 2.4602994656e-01	 1.1685015302e+00	-7.4284893389e-01
 2.3557096441e-01	 1.1706548758e+00	-7.7603251101e-01
 2.2512140163e-01	 1.1727091839e+00	-6.9527244971e-01
 2.1468253889e-01	 1.1746649922e+00	-4.9978438144e-01
 2.0425564018e-01	 1.1765228582e+00	-1.8886053106e-01
 3.1119034182e-01	 1.1619968554e+00	 1.6498512052e+00
 3.0062513953e-01	 1.1647749305e+00	 9.6880610509e-01
 2.9006135150e-01	 1.1674504301e+00	 3.9126296582e-01
 2.7950036134e-01	 1.1700237665e+00	-8.0889707089e-02
 2.6894353805e-01	 1.1724953750e+00	-4.4589041396e-01
 2.5839223564e-01	 1.1748657130e+00	-7.0210749646e-01
 2.4784779272e-01	 1.1771352598e+00	-8.4804167904e-01
 2.3731153209e-01	 1.1793045158e+00	-8.8232831910e-01
 2.2678476042e-01	 1.1813740027e+00	-8.0373937053e-01
 2.1626876786e-01	 1.1833442619e+00	-6.1118506645e-01
 2.0576482773e-01	 1.1852158551e+00	-3.0371532808e-01
 3.1347277557e-01	 1.1705195519e+00	 1.5252323022e+00
 3.0283008253e-01	 1.1733180029e+00	 8.7057417426e-01
 2.9218881412e-01	 1.1760131260e+00	 3.1244753567e-01
 2.8155036410e-01	 1.1786053367e+00	-1.4650555846e-01
 2.7091611151e-01	 1.1810950732e+00	-5.0382231405e-01
 2.6028742030e-01	 1.1834827965e+00	-7.5722196363e-01
 2.4966563888e-01	 1.1857689893e+00	-9.0460815918e-01
 2.3905209977e-01	 1.1879541559e+00	-9.4407099757e-01
 2.2844811922e-01	 1.1900388214e+00	-8.7388868540e-01
 2.1785499683e-01	 1.1920235315e+00	-6.9252885177e-01
 2.0727401527e-01	 1.1939088520e+00	-3.9864951846e-01
 3.1575520933e-01	 1.1790422484e+00	 1.4330947624e+00
 3.0503502553e-01	 1.1818610753e+00	 8.1376768889e-01
 2.9431627674e-01	 1.1845758219e+00	 2.8164871605e-01
 2.8360036685e-01	 1.1871869068e+00	-1.5981479970e-01
 2.7288868497e-01	 1.1896947714e+00	-5.0739240365e-01
 2.6218260495e-01	 1.1920998801e+00	-7.5807361751e-01
 2.5148348504e-01	 1.1944027189e+00	-9.0907057253e-01
 2.4079266745e-01	 1.1966037959e+00	-9.5782020800e-01
 2.3011147801e-01	 1.1987036401e+00	-9.0198604339e-01
 2.1944122580e-01	 1.2007028012e+00	-7.3945953446e-01
 2.0878320282e-01	 1.2026018489e+00	-4.6836102477e-01
 3.1803764309e-01	 1.1875649450e+00	 1.3839592588e+00
 3.0723996853e-01	 1.1904041477e+00	 8.0687507847e-01
 2.9644373936e-01	 1.1931385178e+00	 3.0566193560e-01
 2.8565036961e-01	 1.1957684769e+00	-1.1537812755e-01
 2.7486125843e-01	 1.1982944697e+00	-4.5218320341e-01
 2.6407778961e-01	 1.2007169636e+00	-7.0093527721e-01
 2.5330133120e-01	 1.2030364485e+00	-8.5806348431e-01
 2.4253323513e-01	 1.2052534359e+00	-9.2024687434e-01
 2.3177483681e-01	 1.2073684589e+00	-8.8441669135e-01
 2.2102745477e-01	 1.2093820709e+00	-7.4775818128e-01
 2.1029239036e-01	 1.2112948458e+00	-5.0771193927e-01
 3.2032007684e-01	 1.1960876415e+00	 1.3880359910e+00
 3.0944491153e-01	 1.1989472201e+00	 8.5813174470e-01
 2.9857120198e-01	 1.2017012138e+00	 3.9107744647e-01
 2.8770037237e-01	 1.2043500471e+00	-7.9230889145e-03
 2.7683383189e-01	 1.2068941679e+00	-3.3391520825e-01
 2.6597297426e-01	 1.2093340471e+00	-5.8219823080e-01
 2.5511917736e-01	 1.2116701780e+00	-7.4832970883e-01
 2.4427380281e-01	 1.2139030760e+00	-8.2812914501e-01
 2.3343819560e-01	 1.2160332776e+00	-8.1768117622e-01
 2.2261368374e-01	 1.2180613405e+00	-7.1333823507e-01
 2.1180157791e-01	 1.2199878427e+00	-5.1172270222e-01
 3.2260251060e-01	 1.2046103380e+00	 1.4552361181e+00
 3.1164985453e-01	 1.2074902925e+00	 9.7552939955e-01
 3.0069866460e-01	 1.2102639097e+00	 5.4428791073e-01
 2.8975037513e-01	 1.2129316172e+00	 1.6766209419e-01
 2.7880640535e-01	 1.2154938661e+00	-1.4844178591e-01
 2.6786815891e-01	 1.2179511306e+00	-3.9836787246e-01
 2.5693702352e-01	 1.2203039076e+00	-5.7671635325e-01
 2.4601437049e-01	 1.2225527160e+00	-6.7834851455e-01
 2.3510155439e-01	 1.2246980963e+00	-6.9839121906e-01
 2.2419991271e-01	 1.2267406102e+00	-6.3224081921e-01
 2.1331076545e-01	 1.2286808396e+00	-4.7556651848e-01
 3.2488494435e-01	 1.2131330346e+00	 1.5951827299e+00
 3.1385479753e-01	 1.2160333649e+00	 1.1668250292e+00
 3.0282612722e-01	 1.2188266056e+00	 7.7149568494e-01
 2.9180037789e-01	 1.2215131873e+00	 4.1633445598e-01
 2.8077897881e-01	 1.2240935643e+00	 1.0825572474e-01
 2.6976334357e-01	 1.2265682141e+00	-1.4605950947e-01
 2.5875486968e-01	 1.2289376372e+00	-3.4017101527e-01
 2.4775493816e-01	 1.2312023560e+00	-4.6788609691e-01
 2.3676491319e-01	 1.2333629151e+00	-5.2326575219e-01
 2.2578614168e-01	 1.2354198798e+00	-5.0063023025e-01
 2.1481995300e-01	 1.2373738365e+00	-3.9456400079e-01
 3.2716737810e-01	 1.2216557311e+00	 1.8172213800e+00
 3.1605974053e-01	 1.2245764373e+00	 1.4395495017e+00
 3.0495358983e-01	 1.2273893016e+00	 1.0787198176e+00
 2.9385038065e-01	 1.2300947574e+00	 7.4290198653e-01
 2.8275155227e-01	 1.2326932625e+00	 4.4007272552e-01
 2.7165852822e-01	 1.2351852976e+00	 1.7800566922e-01
 2.6057271584e-01	 1.2375713667e+00	-3.5738127157e-02
 2.4949550584e-01	 1.2398519961e+00	-1.9381904311e-01
 2.3842827199e-01	 1.2420277338e+00	-2.8912711169e-01
 2.2737237065e-01	 1.2440991495e+00	-3.1478960966e-01
 2.1632914054e-01	 1.2460668334e+00	-2.6417802864e-01
 2.0123726509e-01	 1.1591368644e+00	 7.8545025893e-02
 1.9097572234e-01	 1.1608716354e+00	 3.9219141877e-01
 1.8072841450e-01	 1.1625110326e+00	 6.5595103831e-01
 1.7049653892e-01	 1.1640556597e+00	 8.6974991906e-01
 1.6028127524e-01	 1.1655061378e+00	 1.0335337136e+00
 1.5008378517e-01	 1.1668631048e+00	 1.1472649520e+00
 1.3990521226e-01	 1.1681272149e+00	 1.2109203785e+00
 1.2974668168e-01	 1.1692991383e+00	 1.2244883634e+00
 1.1960930001e-01	 1.1703795604e+00	 1.1879663844e+00
 1.0949415507e-01	 1.1713691813e+00	 1.1013585730e+00
 9.9402315743e-02	 1.1722687154e+00	 9.6467332313e-01
 2.0274645264e-01	 1.1678298613e+00	-5.9557447002e-02
 1.9240795300e-01	 1.1695776423e+00	 2.7758985255e-01
 1.8208379504e-01	 1.1712293342e+00	 5.6733626229e-01
 1.7177518507e-01	 1.1727855453e+00	 8.0846593961e-01
 1.6148331157e-01	 1.1742469013e+00	 9.9989754316e-01
 1.5120934499e-01	 1.1756140449e+00	 1.1406803451e+00
 1.4095443743e-01	 1.1768876353e+00	 1.2299903091e+00
 1.3071972251e-01	 1.1780683476e+00	 1.2671261336e+00
 1.2050631511e-01	 1.1791568724e+00	 1.2515052622e+00
 1.1031531121e-01	 1.1801539149e+00	 1.1826598586e+00
 1.0014778769e-01	 1.1810601952e+00	 1.0602327484e+00
 2.0425564018e-01	 1.1765228582e+00	-1.8886053106e-01
 1.9384018366e-01	 1.1782836492e+00	 1.5935639993e-01
 1.8343917558e-01	 1.1799476358e+00	 4.6465482203e-01
 1.7305383121e-01	 1.1815154309e+00	 7.2494206057e-01
 1.6268534791e-01	 1.1829876649e+00	 9.3835291549e-01
 1.5233490480e-01	 1.1843649851e+00	 1.1032447909e+00
 1.4200366260e-01	 1.1856480558e+00	 1.2181927018e+00
 1.3169276334e-01	 1.1868375570e+00	 1.2819841604e+00
 1.2140333021e-01	 1.1879341844e+00	 1.2936139477e+00
 1.1113646734e-01	 1.1889386486e+00	 1.2522787702e+00
 1.0089325965e-01	 1.1898516750e+00	 1.1573718092e+00
 2.0576482773e-01	 1.1852158551e+00	-3.0371532808e-01
 1.9527241433e-01	 1.1869896561e+00	 4.4085386797e-02
 1.8479455611e-01	 1.1886659375e+00	 3.5498772843e-01
 1.7433247735e-01	 1.1902453166e+00	 6.2628269574e-01
 1.6388738424e-01	 1.1917284284e+00	 8.5556015506e-01
 1.5346046462e-01	 1.1931159253e+00	 1.0407031491e+00
 1.4305288777e-01	 1.1944084762e+00	 1.1798820173e+00
 1.3266580417e-01	 1.1956067663e+00	 1.2715483343e+00
 1.2230034531e-01	 1.1967114963e+00	 1.3144286703e+00
 1.1195762348e-01	 1.1977233823e+00	 1.3075181824e+00
 1.0163873160e-01	 1.1986431547e+00	 1.2500740387e+00
 2.0727401527e-01	 1.1939088520e+00	-3.9864951846e-01
 1.9670464499e-01	 1.1956956630e+00	-6.1832593436e-02
 1.8614993665e-01	 1.1973842391e+00	 2.4519853081e-01
 1.7561112350e-01	 1.1989752022e+00	 5.1937462304e-01
 1.6508942057e-01	 1.2004691920e+00	 7.5797545114e-01
 1.5458602443e-01	 1.2018668655e+00	 9.5862343005e-01
 1.4410211294e-01	 1.2031688966e+00	 1.1192770393e+00
 1.3363884500e-01	 1.2043759756e+00	 1.2382240171e+00
 1.2319736041e-01	 1.2054888083e+00	 1.3140743388e+00
 1.1277877961e-01	 1.2065081160e+00	 1.3457529867e+00
 1.0238420355e-01	 1.2074346345e+00	 1.3324925183e+00
 2.0878320282e-01	 1.2026018489e+00	-4.6836102477e-01
 1.9813687565e-01	 1.2044016699e+00	-1.5220338733e-01
 1.8750531718e-01	 1.2061025407e+00	 1.4194108371e-01
 1.7688976964e-01	 1.2077050878e+00	 4.1089473907e-01
 1.6629145690e-01	 1.2092099555e+00	 6.5185810907e-01
 1.5571158425e-01	 1.2106178056e+00	 8.6240304819e-01
 1.4515133811e-01	 1.2119293170e+00	 1.0404656298e+00
 1.3461188583e-01	 1.2131451849e+00	 1.1843387994e+00
 1.2409437551e-01	 1.2142661203e+00	 1.2926647932e+00
 1.1359993575e-01	 1.2152928497e+00	 1.3644273320e+00
 1.0312967550e-01	 1.2162261143e+00	 1.3989435957e+00
 2.1029239036e-01	 1.2112948458e+00	-5.0771193927e-01
 1.9956910631e-01	 1.2131076767e+00	-2.2102229490e-01
 1.8886069772e-01	 1.2148208423e+00	 5.1666986381e-02
 1.7816841578e-01	 1.2164349734e+00	 3.0731748595e-01
 1.6749349324e-01	 1.2179507190e+00	 5.4327749481e-01
 1.5683714407e-01	 1.2193687458e+00	 7.5727481008e-01
 1.4620056328e-01	 1.2206897375e+00	 9.4740928520e-01
 1.3558492667e-01	 1.2219143942e+00	 1.1121451416e+00
 1.2499139061e-01	 1.2230434323e+00	 1.2503030496e+00
 1.1442109188e-01	 1.2240775834e+00	 1.3610519857e+00
 1.0387514745e-01	 1.2250175941e+00	 1.4439008750e+00
 2.1180157791e-01	 1.2199878427e+00	-5.1172270222e-01
 2.0100133697e-01	 1.2218136836e+00	-2.6246737386e-01
 1.9021607825e-01	 1.2235391440e+00	-1.9367288707e-02
 1.7944706192e-01	 1.2251648591e+00	 2.1492196699e-01
 1.6869552957e-01	 1.2266914826e+00	 4.3811968800e-01
 1.5796270388e-01	 1.2281196860e+00	 6.4831265177e-01
 1.4724978844e-01	 1.2294501579e+00	 8.4394749997e-01
 1.3655796750e-01	 1.2306836035e+00	 1.0238229062e+00
 1.2588840571e-01	 1.2318207443e+00	 1.1870815369e+00
 1.1524224802e-01	 1.2328623171e+00	 1.3332018111e+00
 1.0462061940e-01	 1.2338090739e+00	 1.4619894665e+00
 2.1331076545e-01	 1.2286808396e+00	-4.7556651848e-01
 2.0243356764e-01	 1.2305196905e+00	-2.7089302026e-01
 1.9157145879e-01	 1.2322574456e+00	-6.5093563011e-02
 1.8072570807e-01	 1.2338947447e+00	 1.3979876642e-01
 1.6989756590e-01	 1.2354322461e+00	 3.4209385806e-01
 1.5908826370e-01	 1.2368706262e+00	 5.4043713719e-01
 1.4829901361e-01	 1.2382105783e+00	 7.3380195065e-01
 1.3753100833e-01	 1.2394528128e+00	 9.2148178588e-01
 1.2678542081e-01	 1.2405980563e+00	 1.1030823271e+00
 1.1606340415e-01	 1.2416470508e+00	 1.2785133533e+00
 1.0536609135e-01	 1.2426005537e+00	 1.4479804817e+00
 2.1481995300e-01	 1.2373738365e+00	-3.9456400079e-01
 2.0386579830e-01	 1.2392256974e+00	-2.4082381194e-01
 1.9292683932e-01	 1.2409757472e+00	-7.9625400098e-02
 1.8200435421e-01	 1.2426246303e+00	 8.7856487768e-02
 1.7109960223e-01	 1.2441730097e+00	 2.6073837695e-01
 1.6021382351e-01	 1.2456215664e+00	 4.3842072945e-01
 1.4934823878e-01	 1.2469709987e+00	 6.2058050669e-01
 1.3850404916e-01	 1.2482220222e+00	 8.0716363251e-01
 1.2768243591e-01	 1.2493753683e+00	 9.9837735800e-01
 1.1688456029e-01	 1.2504317845e+00	 1.1946825298e+00
 1.0611156330e-01	 1.2513920335e+00	 1.3967857631e+00
 2.1632914054e-01	 1.2460668334e+00	-2.6417802864e-01
 2.0529802896e-01	 1.2479317043e+00	-1.6694860188e-01
 1.9428221986e-01	 1.2496940488e+00	-5.7251821187e-02
 1.8328300036e-01	 1.2513545159e+00	 6.4828024751e-02
 1.7230163857e-01	 1.2529137732e+00	 1.9942668135e-01
 1.6133938333e-01	 1.2543725065e+00	 3.4689284619e-01
 1.5039746395e-01	 1.2557314192e+00	 5.0778107769e-01
 1.3947708999e-01	 1.2569912315e+00	 6.8284469253e-01
 1.2857945101e-01	 1.2581526803e+00	 8.7302864993e-01
 1.1770571642e-01	 1.2592165182e+00	 1.0794624203e+00
 1.0685703526e-01	 1.2601835133e+00	 1.3034528361e+00
 9.9402315743e-02	 1.1722687154e+00	 9.6467332313e-01
 8.9336537019e-02	 1.1730787607e+00	 8.3901104495e-01
 7.9296111967e-02	 1.1738002187e+00	 7.8593299367e-01
 6.9282028370e-02	 1.1744338428e+00	 8.0594497760e-01
 5.9295255177e-02	 1.1749803987e+00	 8.9918657374e-01
 4.9336742402e-02	 1.1754406638e+00	 1.0654370872e+00
 3.9407421038e-02	 1.1758154265e+00	 1.3041217660e+00
 2.9508202981e-02	 1.1761054862e+00	 1.6143182494e+00
 1.9639980971e-02	 1.1763116521e+00	 1.9947632299e+00
 9.8036285459e-03	 1.1764347433e+00	 2.4438593069e+00
 0.0000000000e+00	 1.1764755882e+00	 2.9596820145e+00
 1.0014778769e-01	 1.1810601952e+00	 1.0602327484e+00
 9.0006520230e-02	 1.1818763155e+00	 9.3947646657e-01
 7.9890796577e-02	 1.1826031841e+00	 8.7790575436e-01
 6.9801611929e-02	 1.1832415601e+00	 8.7827350644e-01
 5.9739942500e-02	 1.1837922149e+00	 9.4275268531e-01
 4.9706745429e-02	 1.1842559317e+00	 1.0729450120e+00
 3.9702958691e-02	 1.1846335050e+00	 1.2698901071e+00
 2.9729501022e-02	 1.1849257400e+00	 1.5340750515e+00
 1.9787271856e-02	 1.1851334520e+00	 1.8654443345e+00
 9.8771512812e-03	 1.1852574664e+00	 2.2634101590e+00
 0.0000000000e+00	 1.1852986176e+00	 2.7268630761e+00
 1.0089325965e-01	 1.1898516750e+00	 1.1573718092e+00
 9.0676503440e-02	 1.1906738703e+00	 1.0551117890e+00
 8.0485481187e-02	 1.1914061494e+00	 9.9537024233e-01
 7.0321195488e-02	 1.1920492773e+00	 9.8266648028e-01
 6.0184629823e-02	 1.1926040311e+00	 1.0207822171e+00
 5.0076748456e-02	 1.1930711997e+00	 1.1127721837e+00
 3.9998496345e-02	 1.1934515835e+00	 1.2609753391e+00
 2.9950799063e-02	 1.1937459938e+00	 1.4670266411e+00
 1.9934562741e-02	 1.1939552520e+00	 1.7318693365e+00
 9.9506740167e-03	 1.1940801895e+00	 2.0557677339e+00
 0.0000000000e+00	 1.1941216471e+00	 2.4383204210e+00
 1.0163873160e-01	 1.1986431547e+00	 1.2500740387e+00
 9.1346486650e-02	 1.1994714250e+00	 1.1769775710e+00
 8.1080165797e-02	 1.2002091148e+00	 1.1277474494e+00
 7.0840779046e-02	 1.2008569946e+00	 1.1081948708e+00
 6.0629317146e-02	 1.2014158472e+00	 1.1232909557e+00
 5.0446751484e-02	 1.2018864676e+00	 1.1771784876e+00
 4.0294033999e-02	 1.2022696620e+00	 1.2731843518e+00
 3.0172097105e-02	 1.2025662476e+00	 1.4138326274e+00
 2.0081853626e-02	 1.2027770520e+00	 1.6008582898e+00
 1.0024196752e-02	 1.2029029126e+00	 1.8352214795e+00
 0.0000000000e+00	 1.2029446765e+00	 2.1171222953e+00
 1.0238420355e-01	 1.2074346345e+00	 1.3324925183e+00
 9.2016469860e-02	 1.2082689798e+00	 1.2963899423e+00
 8.1674850407e-02	 1.2090120802e+00	 1.2647626126e+00
 7.1360362605e-02	 1.2096647118e+00	 1.2442450388e+00
 6.1074004469e-02	 1.2102276634e+00	 1.2405835311e+00
 5.0816754512e-02	 1.2107017356e+00	 1.2586482832e+00
 4.0589571654e-02	 1.2110877405e+00	 1.3024462062e+00
 3.0393395146e-02	 1.2113865014e+00	 1.3751344679e+00
 2.0229144511e-02	 1.2115988519e+00	 1.4790346894e+00
 1.0097719488e-02	 1.2117256357e+00	 1.6156477536e+00
 0.0000000000e+00	 1.2117677059e+00	 1.7856691815e+00
 1.0312967550e-01	 1.2162261143e+00	 1.3989435957e+00
 9.2686453070e-02	 1.2170665345e+00	 1.4049112172e+00
 8.2269535017e-02	 1.2178150455e+00	 1.3964340774e+00
 7.1879946164e-02	 1.2184724291e+00	 1.3805072046e+00
 6.1518691792e-02	 1.2190394796e+00	 1.3632428595e+00
 5.1186757540e-02	 1.2195170035e+00	 1.3498821881e+00
 4.0885109308e-02	 1.2199058190e+00	 1.3448076331e+00
 3.0614693188e-02	 1.2202067552e+00	 1.3515560568e+00
 2.0376435397e-02	 1.2204206519e+00	 1.3728325283e+00
 1.0171242224e-02	 1.2205483588e+00	 1.4105247293e+00
 0.0000000000e+00	 1.2205907353e+00	 1.4657179322e+00
 1.0387514745e-01	 1.2250175941e+00	 1.4439008750e+00
 9.3356436280e-02	 1.2258640893e+00	 1.4943409147e+00
 8.2864219627e-02	 1.2266180109e+00	 1.5130626408e+00
 7.2399529723e-02	 1.2272801463e+00	 1.5069644159e+00
 6.1963379116e-02	 1.2278512958e+00	 1.4821200407e+00
 5.1556760567e-02	 1.2283322715e+00	 1.4437892163e+00
 4.1180646962e-02	 1.2287238975e+00	 1.3964287252e+00
 3.0835991230e-02	 1.2290270091e+00	 1.3437042887e+00
 2.0523726282e-02	 1.2292424519e+00	 1.2885030526e+00
 1.0244764960e-02	 1.2293710819e+00	 1.2329466599e+00
 0.0000000000e+00	 1.2294137647e+00	 1.1784048660e+00
 1.0462061940e-01	 1.2338090739e+00	 1.4619894665e+00
 9.4026419490e-02	 1.2346616440e+00	 1.5567071641e+00
 8.3458904237e-02	 1.2354209763e+00	 1.6052213523e+00
 7.2919113282e-02	 1.2360878636e+00	 1.6138819883e+00
 6.2408066439e-02	 1.2366631119e+00	 1.5883246892e+00
 5.1926763595e-02	 1.2371475394e+00	 1.5334792529e+00
 4.1476184617e-02	 1.2375419760e+00	 1.4535788146e+00
 3.1057289272e-02	 1.2378472629e+00	 1.3521695987e+00
 2.0671017167e-02	 1.2380642518e+00	 1.2321212255e+00
 1.0318287695e-02	 1.2381938050e+00	 1.0956375328e+00
 0.0000000000e+00	 1.2382367941e+00	 9.4426787537e-01
 1.0536609135e-01	 1.2426005537e+00	 1.4479804817e+00
 9.4696402700e-02	 1.2434591988e+00	 1.5842584769e+00
 8.4053588847e-02	 1.2442239416e+00	 1.6637457484e+00
 7.3438696840e-02	 1.2448955809e+00	 1.6917973948e+00
 6.2852753762e-02	 1.2454749281e+00	 1.6732156751e+00
 5.2296766623e-02	 1.2459628074e+00	 1.6122558488e+00
 4.1771722271e-02	 1.2463600545e+00	 1.5126325245e+00
 3.1278587314e-02	 1.2466675167e+00	 1.3775264791e+00
 2.0818308052e-02	 1.2468860518e+00	 1.2095919187e+00
 1.0391810431e-02	 1.2470165281e+00	 1.0109641446e+00
 0.0000000000e+00	 1.2470598236e+00	 7.8326759574e-01
 1.0611156330e-01	 1.2513920335e+00	 1.3967857631e+00
 9.5366385910e-02	 1.2522567536e+00	 1.5694558669e+00
 8.4648273457e-02	 1.2530269070e+00	 1.6797245005e+00
 7.3958280399e-02	 1.2537032981e+00	 1.7315105830e+00
 6.3297441085e-02	 1.2542867443e+00	 1.7283922568e+00
 5.2666769650e-02	 1.2547780753e+00	 1.6736093194e+00
 4.2067259925e-02	 1.2551781330e+00	 1.5700659883e+00
 3.1499885355e-02	 1.2554877705e+00	 1.4203339750e+00
 2.0965598937e-02	 1.2557078518e+00	 1.2266558426e+00
 1.0465333166e-02	 1.2558392512e+00	 9.9094862458e-01
 0.0000000000e+00	 1.2558828530e+00	 7.1480768306e-01
 1.0685703526e-01	 1.2601835133e+00	 1.3034528361e+00
 9.6036369121e-02	 1.2610543083e+00	 1.5049653021e+00
 8.5242958067e-02	 1.2618298723e+00	 1.6444904546e+00
 7.4477863958e-02	 1.2625110154e+00	 1.7240746973e+00
 6.3742128408e-02	 1.2630985605e+00	 1.7456855858e+00
 5.3036772677e-02	 1.2635933433e+00	 1.7112101326e+00
 4.2362797579e-02	 1.2639962115e+00	 1.6224532274e+00
 3.1721183396e-02	 1.2643080243e+00	 1.4811361589e+00
 2.1112889822e-02	 1.2645296518e+00	 1.2888952273e+00
 1.0538855902e-02	 1.2646619743e+00	 1.0472804345e+00
 0.0000000000e+00	 1.2647058824e+00	 7.5775424194e-01
 1.2647058824e+00	 0.0000000000e+00	 2.6454219140e+01
 1.2646619743e+00	 1.0538855902e-02	 1.6850925402e+01
 1.2645296518e+00	 2.1112889822e-02	 9.5069121846e+00
 1.2643080243e+00	 3.1721183396e-02	 4.1535042109e+00
 1.2639962115e+00	 4.2362797579e-02	 5.1716111667e-01
 1.2635933433e+00	 5.3036772677e-02	-1.6803156939e+00
 1.2630985605e+00	 6.3742128408e-02	-2.7215648873e+00
 1.2625110154e+00	 7.4477863958e-02	-2.8934356834e+00
 1.2618298723e+00	 8.5242958067e-02	-2.4867469552e+00
 1.2610543083e+00	 9.6036369121e-02	-1.7960349421e+00
 1.2601835133e+00	 1.0685703526e-01	-1.1192895913e+00
 1.2735289118e+00	 0.0000000000e+00	 1.7919025399e+01
 1.2734846974e+00	 1.0612378637e-02	 1.0120352865e+01
 1.2733514517e+00	 2.1260180706e-02	 4.1895966874e+00
 1.2731282781e+00	 3.1942481437e-02	-9.2426680506e-02
 1.2728142900e+00	 4.2658335232e-02	-2.9489851690e+00
 1.2724086113e+00	 5.3406775704e-02	-4.6072665033e+00
 1.2719103766e+00	 6.4186815730e-02	-5.2982043096e+00
 1.2713187326e+00	 7.4997447517e-02	-5.2562948539e+00
 1.2706328377e+00	 8.5837642678e-02	-4.7194043770e+00
 1.2698518631e+00	 9.6706352331e-02	-3.9285669999e+00
 1.2689749930e+00	 1.0760250721e-01	-3.1277731944e+00
 1.2823519412e+00	 0.0000000000e+00	 1.1464863952e+01
 1.2823074205e+00	 1.0685901372e-02	 4.9585246981e+00
 1.2821732517e+00	 2.1407471590e-02	 4.7932876479e-02
 1.2819485320e+00	 3.2163779477e-02	-3.4520384671e+00
 1.2816323685e+00	 4.2953872885e-02	-5.7300637290e+00
 1.2812238792e+00	 5.3776778731e-02	-6.9782290867e+00
 1.2807221928e+00	 6.4631503053e-02	-7.3918888964e+00
 1.2801264499e+00	 7.5517031075e-02	-7.1695140790e+00
 1.2794358031e+00	 8.6432327288e-02	-6.5125324461e+00
 1.2786494178e+00	 9.7376335543e-02	-5.6251609274e+00
 1.2777664728e+00	 1.0834797916e-01	-4.7142296782e+00
 1.2911749706e+00	 0.0000000000e+00	 7.0997701115e+00
 1.2911301436e+00	 1.0759424106e-02	 1.3723262985e+00
 1.2909950516e+00	 2.1554762474e-02	-2.9132769667e+00
 1.2907687858e+00	 3.2385077517e-02	-5.9232178244e+00
 1.2904504470e+00	 4.3249410537e-02	-7.8269248227e+00
 1.2900391472e+00	 5.4146781757e-02	-8.7969570029e+00
 1.2895340090e+00	 6.5076190375e-02	-9.0088767759e+00
 1.2889341671e+00	 7.6036614634e-02	-8.6411155126e+00
 1.2882387684e+00	 8.7027011899e-02	-7.8748317943e+00
 1.2874469726e+00	 9.8046318754e-02	-6.8937622737e+00
 1.2865579526e+00	 1.0909345111e-01	-5.8840651161e+00
 1.2999980000e+00	 0.0000000000e+00	 4.8315902935e+00
 1.2999528667e+00	 1.0832946841e-02	-6.3152112108e-01
 1.2998168516e+00	 2.1702053357e-02	-4.6893443862e+00
 1.2995890396e+00	 3.2606375557e-02	-7.5038981145e+00
 1.2992685255e+00	 4.3544948190e-02	-9.2403904536e+00
 1.2988544151e+00	 5.4516784784e-02	-1.0067101886e+01
 1.2983458252e+00	 6.5520877698e-02	-1.0155260929e+01
 1.2977418844e+00	 7.6556198193e-02	-9.6789126507e+00
 1.2970417338e+00	 8.7621696510e-02	-8.8147799490e+00
 1.2962445273e+00	 9.8716301966e-02	-7.7421175371e+00
 1.2953494324e+00	 1.0983892307e-01	-6.6425585990e+00
 1.3088210294e+00	 0.0000000000e+00	 4.6679883814e+00
 1.3087755898e+00	 1.0906469576e-02	-1.0464550934e+00
 1.3086386516e+00	 2.1849344241e-02	-5.2756910898e+00
 1.3084092934e+00	 3.2827673597e-02	-8.1920580581e+00
 1.3080866040e+00	 4.3840485843e-02	-9.9712556276e+00
 1.3076696830e+00	 5.4886787810e-02	-1.0792217236e+01
 1.3071576413e+00	 6.5965565021e-02	-1.0836975146e+01
 1.3065496016e+00	 7.7075781752e-02	-1.0290517778e+01
 1.3058446991e+00	 8.8216381121e-02	-9.3406392794e+00
 1.3050420821e+00	 9.9386285178e-02	-8.1777813012e+00
 1.3041409122e+00	 1.1058439502e-01	-6.9948669285e+00
 1.3176440588e+00	 0.0000000000e+00	 6.6164518359e+00
 1.3175983129e+00	 1.0979992310e-02	 1.3393332535e-01
 1.3174604515e+00	 2.1996635124e-02	-4.6678454341e+00
 1.3172295472e+00	 3.3048971637e-02	-7.9857204590e+00
 1.3169046825e+00	 4.4136023495e-02	-1.0020289558e+01
 1.3164849510e+00	 5.5256790837e-02	-1.0975762048e+01
 1.3159694575e+00	 6.6410252343e-02	-1.1059799740e+01
 1.3153573189e+00	 7.7595365311e-02	-1.0483349113e+01
 1.3146476645e+00	 8.8811065732e-02	-9.4604646189e+00
 1.3138396368e+00	 1.0005626839e-01	-8.2081230766e+00
 1.3129323920e+00	 1.1132986698e-01	-6.9460291130e+00
 1.3264670883e+00	 0.0000000000e+00	 1.0684297560e+01
 1.3264210360e+00	 1.1053515045e-02	 2.9159045696e+00
 1.3262822515e+00	 2.2143926008e-02	-2.8614390502e+00
 1.3260498010e+00	 3.3270269677e-02	-6.8829509797e+00
 1.3257227610e+00	 4.4431561148e-02	-9.3882368237e+00
 1.3253002189e+00	 5.5626793863e-02	-1.0621104310e+01
 1.3247812737e+00	 6.6854939666e-02	-1.0829367032e+01
 1.3241650361e+00	 7.8114948871e-02	-1.0264637662e+01
 1.3234506299e+00	 8.9405750344e-02	-9.1821105785e+00
 1.3226371916e+00	 1.0072625160e-01	-7.8403338647e+00
 1.3217238717e+00	 1.1207533893e-01	-6.5009706781e+00
 1.3352901177e+00	 0.0000000000e+00	 1.6878677533e+01
 1.3352437590e+00	 1.1127037780e-02	 7.3055753785e+00
 1.3351040515e+00	 2.2291216892e-02	 1.4779639800e-01
 1.3348700548e+00	 3.3491567718e-02	-4.8818569639e+00
 1.3345408395e+00	 4.4727098801e-02	-8.0758184771e+00
 1.3341154869e+00	 5.5996796890e-02	-9.7315243396e+00
 1.3335930898e+00	 6.7299626990e-02	-1.0151166612e+01
 1.3329727534e+00	 7.8634532431e-02	-9.6414338051e+00
 1.3322535952e+00	 9.0000434956e-02	-8.5132385661e+00
 1.3314347463e+00	 1.0139623482e-01	-7.0814324550e+00
 1.3305153515e+00	 1.1282081089e-01	-5.6645077982e+00
 1.3441131471e+00	 0.0000000000e+00	 2.5206584221e+01
 1.3440664821e+00	 1.1200560515e-02	 1.3308923422e+01
 1.3439258514e+00	 2.2438507776e-02	 4.3640323274e+00
 1.3436903087e+00	 3.3712865758e-02	-1.9805863052e+00
 1.3433589180e+00	 4.5022636455e-02	-6.0837331106e+00
 1.3429307548e+00	 5.6366799918e-02	-8.3102180078e+00
 1.3424049060e+00	 6.7744314314e-02	-9.0305503984e+00
 1.3417804706e+00	 7.9154115991e-02	-8.6206136059e+00
 1.3410565606e+00	 9.0595119568e-02	-7.4613235238e+00
 1.3402323011e+00	 1.0206621803e-01	-5.9382714682e+00
 1.3393068313e+00	 1.1356628284e-01	-4.4413512579e+00
 1.3529361765e+00	 0.0000000000e+00	 3.5674855774e+01
 1.3528892052e+00	 1.1274083250e-02	 2.0931791744e+01
 1.3527476514e+00	 2.2585798660e-02	 9.7913462279e+00
 1.3525105625e+00	 3.3934163799e-02	 1.8226736401e+00
 1.3521769965e+00	 4.5318174109e-02	-3.4126578777e+00
 1.3517460228e+00	 5.6736802946e-02	-6.3602998204e+00
 1.3512167222e+00	 6.8189001638e-02	-7.4727374849e+00
 1.3505881879e+00	 7.9673699552e-02	-7.2088848852e+00
 1.3498595259e+00	 9.1189804181e-02	-6.0336603981e+00
 1.3490298559e+00	 1.0273620124e-01	-4.4175431576e+00
 1.3480983111e+00	 1.1431175480e-01	-2.8361102516e+00
 1.2601835133e+00	 1.0685703526e-01	-1.1192895913e+00
 1.2592165182e+00	 1.1770571642e-01	-5.1875556051e-01
 1.2581526803e+00	 1.2857945101e-01	 1.2880045591e-01
 1.2569912315e+00	 1.3947708999e-01	 8.0148279818e-01
 1.2557314192e+00	 1.5039746395e-01	 1.4774441385e+00
 1.2543725065e+00	 1.6133938333e-01	 2.1349250978e+00
 1.2529137732e+00	 1.7230163857e-01	 2.7522953718e+00
 1.2513545159e+00	 1.8328300036e-01	 3.3080963720e+00
 1.2496940488e+00	 1.9428221986e-01	 3.7810853783e+00
 1.2479317043e+00	 2.0529802896e-01	 4.1502811959e+00
 1.2460668334e+00	 2.1632914054e-01	 4.3950113022e+00
 1.2689749930e+00	 1.0760250721e-01	-3.1277731944e+00
 1.2680012519e+00	 1.1852687256e-01	-2.3388261138e+00
 1.2669299922e+00	 1.2947646612e-01	-1.4423751683e+00
 1.2657604408e+00	 1.4045013082e-01	-4.7245178217e-01
 1.2644918396e+00	 1.5144668913e-01	 5.3688095385e-01
 1.2631234467e+00	 1.6246494315e-01	 1.5515821335e+00
 1.2616545368e+00	 1.7350367490e-01	 2.5376888714e+00
 1.2600844015e+00	 1.8456164650e-01	 3.4613741223e+00
 1.2584123505e+00	 1.9563760040e-01	 4.2890064705e+00
 1.2566377112e+00	 2.0673025963e-01	 4.9872118750e+00
 1.2547598303e+00	 2.1783832809e-01	 5.5229373413e+00
 1.2777664728e+00	 1.0834797916e-01	-4.7142296782e+00
 1.2767859856e+00	 1.1934802870e-01	-3.7713087974e+00
 1.2757073042e+00	 1.3037348122e-01	-2.6772021614e+00
 1.2745296501e+00	 1.4142317166e-01	-1.4741075740e+00
 1.2732522600e+00	 1.5249591430e-01	-2.0430921261e-01
 1.2718743869e+00	 1.6359050297e-01	 1.0898860067e+00
 1.2703953003e+00	 1.7470571124e-01	 2.3662143922e+00
 1.2688142872e+00	 1.8584029265e-01	 3.5825237615e+00
 1.2671306521e+00	 1.9699298093e-01	 4.6968440310e+00
 1.2653437181e+00	 2.0816249029e-01	 5.6674600882e+00
 1.2634528272e+00	 2.1934751563e-01	 6.4529869138e+00
 1.2865579526e+00	 1.0909345111e-01	-5.8840651161e+00
 1.2855707192e+00	 1.2016918483e-01	-4.8182706011e+00
 1.2844846162e+00	 1.3127049632e-01	-3.5748853519e+00
 1.2832988594e+00	 1.4239621249e-01	-2.2003875561e+00
 1.2820126804e+00	 1.5354513947e-01	-7.4137169937e-01
 1.2806253271e+00	 1.6471606279e-01	 7.5552045258e-01
 1.2791360639e+00	 1.7590774757e-01	 2.2436714115e+00
 1.2775441728e+00	 1.8711893879e-01	 3.6765620571e+00
 1.2758489537e+00	 1.9834836147e-01	 5.0078482424e+00
 1.2740497250e+00	 2.0959472096e-01	 6.1914398902e+00
 1.2721458241e+00	 2.2085670318e-01	 7.1815825442e+00
 1.2953494324e+00	 1.0983892307e-01	-6.6425585990e+00
 1.2943554529e+00	 1.2099034097e-01	-5.4817448698e+00
 1.2932619282e+00	 1.3216751143e-01	-4.1346758655e+00
 1.2920680687e+00	 1.4336925333e-01	-2.6483052806e+00
 1.2907731009e+00	 1.5459436464e-01	-1.0697087441e+00
 1.2893762672e+00	 1.6584162261e-01	 5.5398622693e-01
 1.2878768274e+00	 1.7710978391e-01	 2.1756728973e+00
 1.2862740584e+00	 1.8839758494e-01	 3.7483406002e+00
 1.2845672553e+00	 1.9970374201e-01	 5.2251526275e+00
 1.2827557319e+00	 2.1102695162e-01	 6.5595266995e+00
 1.2808388210e+00	 2.2236589073e-01	 7.7052179815e+00
 1.3041409122e+00	 1.1058439502e-01	-6.9948669285e+00
 1.3031401866e+00	 1.2181149711e-01	-5.7637328239e+00
 1.3020392402e+00	 1.3306452653e-01	-4.3558699121e+00
 1.3008372780e+00	 1.4434229416e-01	-2.8149814401e+00
 1.2995335213e+00	 1.5564358982e-01	-1.1848744230e+00
 1.2981272074e+00	 1.6696718243e-01	 4.9060712547e-01
 1.2966175909e+00	 1.7831182025e-01	 2.1676515395e+00
 1.2950039440e+00	 1.8967623109e-01	 3.8025514251e+00
 1.2932855569e+00	 2.0105912255e-01	 5.3517781536e+00
 1.2914617388e+00	 2.1245918229e-01	 6.7720589079e+00
 1.2895318179e+00	 2.2387507828e-01	 8.0204562537e+00
 1.3129323920e+00	 1.1132986698e-01	-6.9460291130e+00
 1.3119249203e+00	 1.2263265325e-01	-5.6662050096e+00
 1.3108165522e+00	 1.3396154164e-01	-4.2378076097e+00
 1.3096064874e+00	 1.4531533500e-01	-2.6976405605e+00
 1.3082939417e+00	 1.5669281499e-01	-1.0825697790e+00
 1.3068781476e+00	 1.6809274225e-01	 5.7053577855e-01
 1.3053583545e+00	 1.7951385658e-01	 2.2248657516e+00
 1.3037338296e+00	 1.9095487723e-01	 3.8437324257e+00
 1.3020038586e+00	 2.0241450309e-01	 5.3906371981e+00
 1.3001677457e+00	 2.1389141296e-01	 6.8293394533e+00
 1.2982248148e+00	 2.2538426583e-01	 8.1239278307e+00
 1.3217238717e+00	 1.1207533893e-01	-6.5009706781e+00
 1.3207096540e+00	 1.2345380939e-01	-5.1911026820e+00
 1.3195938641e+00	 1.3485855674e-01	-3.7798718450e+00
 1.3183756967e+00	 1.4628837584e-01	-2.2936078119e+00
 1.3170543621e+00	 1.5774204017e-01	-7.5863812875e-01
 1.3156290877e+00	 1.6921830207e-01	 7.9875923168e-01
 1.3140991180e+00	 1.8071589292e-01	 2.3524054512e+00
 1.3124637152e+00	 1.9223352338e-01	 3.8762725775e+00
 1.3107221602e+00	 2.0376988363e-01	 5.3445373801e+00
 1.3088737526e+00	 2.1532364362e-01	 6.7316373571e+00
 1.3069178117e+00	 2.2689345338e-01	 8.0123288922e+00
 1.3305153515e+00	 1.1282081089e-01	-5.6645077982e+00
 1.3294943877e+00	 1.2427496553e-01	-4.3403391252e+00
 1.3283711761e+00	 1.3575557185e-01	-2.9814871685e+00
 1.3271449060e+00	 1.4726141667e-01	-1.6003059345e+00
 1.3258147825e+00	 1.5879126534e-01	-2.0906054211e-01
 1.3243800279e+00	 1.7034386189e-01	 1.1801043217e+00
 1.3228398816e+00	 1.8191792926e-01	 2.5551976310e+00
 1.3211936009e+00	 1.9351216953e-01	 3.9044169745e+00
 1.3194404618e+00	 2.0512526417e-01	 5.2161852648e+00
 1.3175797595e+00	 2.1675587429e-01	 6.4791892289e+00
 1.3156108086e+00	 2.2840264093e-01	 7.6824196950e+00
 1.3393068313e+00	 1.1356628284e-01	-4.4413512579e+00
 1.3382791214e+00	 1.2509612167e-01	-3.1158009108e+00
 1.3371484881e+00	 1.3665258695e-01	-1.8421187221e+00
 1.3359141153e+00	 1.4823445751e-01	-6.1525227239e-01
 1.3345752030e+00	 1.5984049051e-01	 5.7004851583e-01
 1.3331309681e+00	 1.7146942171e-01	 1.7192428581e+00
 1.3315806451e+00	 1.8311996559e-01	 2.8380117302e+00
 1.3299234865e+00	 1.9479081568e-01	 3.9322716893e+00
 1.3281587634e+00	 2.0648064471e-01	 5.0081899469e+00
 1.3262857663e+00	 2.1818810496e-01	 6.0722007388e+00
 1.3243038055e+00	 2.2991182847e-01	 7.1310230341e+00
 1.3480983111e+00	 1.1431175480e-01	-2.8361102516e+00
 1.3470638551e+00	 1.2591727781e-01	-1.5193490986e+00
 1.3459258001e+00	 1.3754960206e-01	-3.6127119910e-01
 1.3446833246e+00	 1.4920749834e-01	 6.6394408882e-01
 1.3433356234e+00	 1.6088971569e-01	 1.5824453863e+00
 1.3418819083e+00	 1.7259498153e-01	 2.4206966181e+00
 1.3403214086e+00	 1.8432200193e-01	 3.2054648140e+00
 1.3386533721e+00	 1.9606946182e-01	 3.9638084658e+00
 1.3368770650e+00	 2.0783602525e-01	 4.7230665176e+00
 1.3349917732e+00	 2.1962033562e-01	 5.5108480599e+00
 1.3329968024e+00	 2.3142101602e-01	 6.3550227956e+00
 1.2460668334e+00	 2.1632914054e-01	 4.3950113022e+00
 1.2440991495e+00	 2.2737237065e-01	 4.5063143089e+00
 1.2420277338e+00	 2.3842827199e-01	 4.5029149588e+00
 1.2398519961e+00	 2.4949550584e-01	 4.4056203258e+00
 1.2375713667e+00	 2.6057271584e-01	 4.2349309069e+00
 1.2351852976e+00	 2.7165852822e-01	 4.0110256594e+00
 1.2326932625e+00	 2.8275155227e-01	 3.7537479051e+00
 1.2300947574e+00	 2.9385038065e-01	 3.4825921263e+00
 1.2273893016e+00	 3.0495358983e-01	 3.2166916700e+00
 1.2245764373e+00	 3.1605974053e-01	 2.9748073706e+00
 1.2216557311e+00	 3.2716737810e-01	 2.7753170924e+00
 1.2547598303e+00	 2.1783832809e-01	 5.5229373413e+00
 1.2527784191e+00	 2.2895859963e-01	 5.8628946033e+00
 1.2506925525e+00	 2.4009163078e-01	 6.0132622906e+00
 1.2485016361e+00	 2.5123607352e-01	 5.9999167061e+00
 1.2462050963e+00	 2.6239056200e-01	 5.8482809117e+00
 1.2438023811e+00	 2.7355371288e-01	 5.5833002406e+00
 1.2412929607e+00	 2.8472412573e-01	 5.2294187358e+00
 1.2386763276e+00	 2.9590038340e-01	 4.8105565552e+00
 1.2359519975e+00	 3.0708105245e-01	 4.3500883787e+00
 1.2331195097e+00	 3.1826468353e-01	 3.8708228398e+00
 1.2301784277e+00	 3.2944981186e-01	 3.3949830041e+00
 1.2634528272e+00	 2.1934751563e-01	 6.4529869138e+00
 1.2614576888e+00	 2.3054482860e-01	 6.9953694060e+00
 1.2593573713e+00	 2.4175498958e-01	 7.2839504607e+00
 1.2571512761e+00	 2.5297664121e-01	 7.3479870929e+00
 1.2548388259e+00	 2.6420840816e-01	 7.2161744085e+00
 1.2524194647e+00	 2.7544889753e-01	 6.9166145339e+00
 1.2498926589e+00	 2.8669669919e-01	 6.4767865427e+00
 1.2472578977e+00	 2.9795038616e-01	 5.9235174332e+00
 1.2445146934e+00	 3.0920851507e-01	 5.2829542009e+00
 1.2416625821e+00	 3.2046962653e-01	 4.5805370447e+00
 1.2387011242e+00	 3.3173224561e-01	 3.8409737348e+00
 1.2721458241e+00	 2.2085670318e-01	 7.1815825442e+00
 1.2701369584e+00	 2.3213105757e-01	 7.8961722508e+00
 1.2680221900e+00	 2.4341834838e-01	 8.3046658668e+00
 1.2658009162e+00	 2.5471720889e-01	 8.4380506636e+00
 1.2634725554e+00	 2.6602625432e-01	 8.3266807981e+00
 1.2610365482e+00	 2.7734408219e-01	 8.0002425665e+00
 1.2584923571e+00	 2.8866927265e-01	 7.4877207388e+00
 1.2558394678e+00	 3.0000038892e-01	 6.8173660343e+00
 1.2530773893e+00	 3.1133597769e-01	 6.0166637894e+00
 1.2502056545e+00	 3.2267456953e-01	 5.1123038650e+00
 1.2472238207e+00	 3.3401467937e-01	 4.1301518274e+00
 1.2808388210e+00	 2.2236589073e-01	 7.7052179815e+00
 1.2788162281e+00	 2.3371728655e-01	 8.5579181537e+00
 1.2766870088e+00	 2.4508170717e-01	 9.0653533931e+00
 1.2744505562e+00	 2.5645777657e-01	 9.2586277930e+00
 1.2721062850e+00	 2.6784410049e-01	 9.1681780688e+00
 1.2696536317e+00	 2.7923926685e-01	 8.8237380094e+00
 1.2670920553e+00	 2.9064184611e-01	 8.2543041040e+00
 1.2644210380e+00	 3.0205039168e-01	 7.4881024067e+00
 1.2616400853e+00	 3.1346344031e-01	 6.5525566958e+00
 1.2587487269e+00	 3.2487951253e-01	 5.4742579743e+00
 1.2557465173e+00	 3.3629711312e-01	 4.2789353519e+00
 1.2895318179e+00	 2.2387507828e-01	 8.0204562537e+00
 1.2874954977e+00	 2.3530351552e-01	 8.9733981114e+00
 1.2853518275e+00	 2.4674506597e-01	 9.5562084879e+00
 1.2831001962e+00	 2.5819834425e-01	 9.7985308790e+00
 1.2807400145e+00	 2.6966194665e-01	 9.7293435737e+00
 1.2782707152e+00	 2.8113445150e-01	 9.3769261433e+00
 1.2756917535e+00	 2.9261441957e-01	 8.7688272102e+00
 1.2730026081e+00	 3.0410039444e-01	 7.9318335610e+00
 1.2702027812e+00	 3.1559090293e-01	 6.8919406575e+00
 1.2672917993e+00	 3.2708445554e-01	 5.6743245915e+00
 1.2642692138e+00	 3.3857954688e-01	 4.3033155216e+00
 1.2982248148e+00	 2.2538426583e-01	 8.1239278307e+00
 1.2961747674e+00	 2.3688974449e-01	 9.1355738561e+00
 1.2940166462e+00	 2.4840842477e-01	 9.7676695979e+00
 1.2917498362e+00	 2.5993891193e-01	 1.0046855578e+01
 1.2893737441e+00	 2.7147979281e-01	 9.9991452236e+00
 1.2868877987e+00	 2.8302963616e-01	 9.6498961958e+00
 1.2842914517e+00	 2.9458699304e-01	 9.0237831236e+00
 1.2815841782e+00	 3.0615039720e-01	 8.1447717878e+00
 1.2787654771e+00	 3.1771836555e-01	 7.0360948138e+00
 1.2758348717e+00	 3.2928939854e-01	 5.7202289084e+00
 1.2727919104e+00	 3.4086198063e-01	 4.2188736732e+00
 1.3069178117e+00	 2.2689345338e-01	 8.0123288922e+00
 1.3048540370e+00	 2.3847597347e-01	 9.0375728533e+00
 1.3026814650e+00	 2.5007178357e-01	 9.6904109414e+00
 1.3003994763e+00	 2.6167947961e-01	 9.9929724337e+00
 1.2980074737e+00	 2.7329763897e-01	 9.9668330761e+00
 1.2955048822e+00	 2.8492482082e-01	 9.6329940344e+00
 1.2928911499e+00	 2.9655956650e-01	 9.0118623713e+00
 1.2901657484e+00	 3.0820039996e-01	 8.1232331004e+00
 1.2873281730e+00	 3.1984582817e-01	 6.9862728555e+00
 1.2843779441e+00	 3.3149434154e-01	 5.6195052064e+00
 1.2813146069e+00	 3.4314441439e-01	 4.0407976392e+00
 1.3156108086e+00	 2.2840264093e-01	 7.6824196950e+00
 1.3135333067e+00	 2.4006220244e-01	 8.6726835316e+00
 1.3113462837e+00	 2.5173514237e-01	 9.3153356060e+00
 1.3090491163e+00	 2.6342004730e-01	 9.6265188730e+00
 1.3066412032e+00	 2.7511548514e-01	 9.6219313032e+00
 1.3041219657e+00	 2.8682000547e-01	 9.3168151962e+00
 1.3014908481e+00	 2.9853213996e-01	 8.7259481600e+00
 1.2987473185e+00	 3.1025040272e-01	 7.8636357954e+00
 1.2958908690e+00	 3.2197329079e-01	 6.7437061100e+00
 1.2929210165e+00	 3.3369928454e-01	 5.3795056766e+00
 1.2898373034e+00	 3.4542684815e-01	 3.7838975417e+00
 1.3243038055e+00	 2.2991182847e-01	 7.1310230341e+00
 1.3222125763e+00	 2.4164843142e-01	 8.0343507347e+00
 1.3200111024e+00	 2.5339850116e-01	 8.6335689544e+00
 1.3176987563e+00	 2.6516061498e-01	 8.9373915648e+00
 1.3152749328e+00	 2.7693333130e-01	 8.9542305191e+00
 1.3127390492e+00	 2.8871519013e-01	 8.6921982415e+00
 1.3100905464e+00	 3.0050471342e-01	 8.1591118347e+00
 1.3073288886e+00	 3.1230040548e-01	 7.3624991270e+00
 1.3044535649e+00	 3.2410075341e-01	 6.3096065662e+00
 1.3014640889e+00	 3.3590422754e-01	 5.0074089584e+00
 1.2983600000e+00	 3.4770928190e-01	 3.4626210333e+00
 1.3329968024e+00	 2.3142101602e-01	 6.3550227956e+00
 1.3308918460e+00	 2.4323466039e-01	 7.1161713846e+00
 1.3286759212e+00	 2.5506185996e-01	 7.6364523264e+00
 1.3263483964e+00	 2.6690118266e-01	 7.9157391132e+00
 1.3239086624e+00	 2.7875117746e-01	 7.9537804522e+00
 1.3213561328e+00	 2.9061037479e-01	 7.7502184148e+00
 1.3186902446e+00	 3.0247728689e-01	 7.3046085680e+00
 1.3159104587e+00	 3.1435040825e-01	 6.6164420877e+00
 1.3130162608e+00	 3.2622821604e-01	 5.6851698407e+00
 1.3100071613e+00	 3.3810917055e-01	 4.5102284081e+00
 1.3068826965e+00	 3.4999171566e-01	 3.0910680110e+00
 1.2216557311e+00	 3.2716737810e-01	 2.7753170924e+00
 1.2186267741e+00	 3.3827503318e-01	 2.5053768145e+00
 1.2154891835e+00	 3.4938122261e-01	 2.0595693095e+00
 1.2122426019e+00	 3.6048444952e-01	 1.4687162406e+00
 1.2088866979e+00	 3.7158320363e-01	 7.6619619208e-01
 1.2054211666e+00	 3.8267596183e-01	 2.9681098225e-02
 1.2018457296e+00	 3.9376118865e-01	-6.7694739526e-01
 1.1981601358e+00	 4.0483733686e-01	-1.3171673163e+00
 1.1943641616e+00	 4.1590284802e-01	-1.8526523887e+00
 1.1904576115e+00	 4.2695615308e-01	-2.2432868870e+00
 1.1864403182e+00	 4.3799567291e-01	-2.4471840611e+00
 1.2301784277e+00	 3.2944981186e-01	 3.3949830041e+00
 1.2271283396e+00	 3.4063495781e-01	 2.8406278826e+00
 1.2239688600e+00	 3.5181862790e-01	 2.1338204808e+00
 1.2206996291e+00	 3.6299931479e-01	 1.3101325989e+00
 1.2173203133e+00	 3.7417549768e-01	 4.1184144382e-01
 1.2138306052e+00	 3.8534564283e-01	-4.6684924846e-01
 1.2102302247e+00	 3.9650820405e-01	-1.2689943506e+00
 1.2065189189e+00	 4.0766162334e-01	-1.9522656784e+00
 1.2026964626e+00	 4.1880433137e-01	-2.4722834226e+00
 1.1987626590e+00	 4.2993474813e-01	-2.7826351869e+00
 1.1947173398e+00	 4.4105128351e-01	-2.8348990648e+00
 1.2387011242e+00	 3.3173224561e-01	 3.8409737348e+00
 1.2356299051e+00	 3.4299488244e-01	 3.0161005065e+00
 1.2324485366e+00	 3.5425603318e-01	 2.0664749072e+00
 1.2291566564e+00	 3.6551418005e-01	 1.0312395485e+00
 1.2257539286e+00	 3.7676779173e-01	-3.5343477385e-02
 1.2222400438e+00	 3.8801532382e-01	-1.0314809888e+00
 1.2186147198e+00	 3.9925521946e-01	-1.9053643142e+00
 1.2148777020e+00	 4.1048590982e-01	-2.6104196014e+00
 1.2110287637e+00	 4.2170581472e-01	-3.0978692369e+00
 1.2070677066e+00	 4.3291334319e-01	-3.3167544952e+00
 1.2029943613e+00	 4.4410689411e-01	-3.2139625600e+00
 1.2472238207e+00	 3.3401467937e-01	 4.1301518274e+00
 1.2441314706e+00	 3.4535480707e-01	 3.0570405123e+00
 1.2409282131e+00	 3.5669343846e-01	 1.8893733262e+00
 1.2376136837e+00	 3.6802904532e-01	 6.6870611660e-01
 1.2341875439e+00	 3.7936008577e-01	-5.3529864902e-01
 1.2306494823e+00	 3.9068500482e-01	-1.6227916313e+00
 1.2269992148e+00	 4.0200223487e-01	-2.5449702378e+00
 1.2232364850e+00	 4.1331019630e-01	-3.2525479803e+00
 1.2193610647e+00	 4.2460729806e-01	-3.6939762682e+00
 1.2153727542e+00	 4.3589193825e-01	-3.8154701028e+00
 1.2112713829e+00	 4.4716250471e-01	-3.5610383404e+00
 1.2557465173e+00	 3.3629711312e-01	 4.2789353519e+00
 1.2526330361e+00	 3.4771473171e-01	 2.9880277313e+00
 1.2494078897e+00	 3.5913084374e-01	 1.6335178281e+00
 1.2460707109e+00	 3.7054391059e-01	 2.5824497801e-01
 1.2426211592e+00	 3.8195237982e-01	-1.0490182308e+00
 1.2390589209e+00	 3.9335468582e-01	-2.2004486120e+00
 1.2353837099e+00	 4.0474925027e-01	-3.1478049357e+00
 1.2315952681e+00	 4.1613448278e-01	-3.8405943473e+00
 1.2276933657e+00	 4.2750878141e-01	-4.2260959946e+00
 1.2236778018e+00	 4.3887053331e-01	-4.2493891998e+00
 1.2195484044e+00	 4.5021811531e-01	-3.8533862705e+00
 1.2642692138e+00	 3.3857954688e-01	 4.3033155216e+00
 1.2611346015e+00	 3.5007465634e-01	 2.8330013643e+00
 1.2578875662e+00	 3.6156824903e-01	 1.3291033313e+00
 1.2545277382e+00	 3.7305877585e-01	-1.6302199611e-01
 1.2510547745e+00	 3.8454467387e-01	-1.5385145607e+00
 1.2474683594e+00	 3.9602436682e-01	-2.7251722481e+00
 1.2437682049e+00	 4.0749626568e-01	-3.6749044488e+00
 1.2399540512e+00	 4.1895876926e-01	-4.3374921774e+00
 1.2360256667e+00	 4.3041026476e-01	-4.6606136823e+00
 1.2319828493e+00	 4.4184912837e-01	-4.5898745379e+00
 1.2278254259e+00	 4.5327372591e-01	-4.0688423090e+00
 1.2727919104e+00	 3.4086198063e-01	 4.2188736732e+00
 1.2696361670e+00	 3.5243458097e-01	 2.6152844033e+00
 1.2663672428e+00	 3.6400565431e-01	 1.0055478752e+00
 1.2629847655e+00	 3.7557364112e-01	-5.5913881058e-01
 1.2594883898e+00	 3.8713696792e-01	-1.9667837214e+00
 1.2558777980e+00	 3.9869404781e-01	-3.1587002100e+00
 1.2521527000e+00	 4.1024328109e-01	-4.0883129148e+00
 1.2483128342e+00	 4.2178305574e-01	-4.7071316212e+00
 1.2443579678e+00	 4.3331174810e-01	-4.9647784254e+00
 1.2402878969e+00	 4.4482772342e-01	-4.8090191904e+00
 1.2361024475e+00	 4.5632933651e-01	-4.1857993762e+00
 1.2813146069e+00	 3.4314441439e-01	 4.0407976392e+00
 1.2781377325e+00	 3.5479450560e-01	 2.3576071541e+00
 1.2748469193e+00	 3.6644305959e-01	 6.9152178282e-01
 1.2714417927e+00	 3.7808850639e-01	-8.9682496423e-01
 1.2679220051e+00	 3.8972926196e-01	-2.2977725093e+00
 1.2642872365e+00	 4.0136372881e-01	-3.4637534421e+00
 1.2605371951e+00	 4.1299029649e-01	-4.3510488722e+00
 1.2566716173e+00	 4.2460734222e-01	-4.9143276016e+00
 1.2526902688e+00	 4.3621323145e-01	-5.1066744180e+00
 1.2485929445e+00	 4.4780631848e-01	-4.8796223588e+00
 1.2443794690e+00	 4.5938494711e-01	-4.1831890268e+00
 1.2898373034e+00	 3.4542684815e-01	 3.7838975417e+00
 1.2866392980e+00	 3.5715443023e-01	 2.0821299003e+00
 1.2833265959e+00	 3.6888046488e-01	 4.1497574781e-01
 1.2798988200e+00	 3.8060337166e-01	-1.1436467388e+00
 1.2763556204e+00	 3.9232155601e-01	-2.4963467414e+00
 1.2726966751e+00	 4.0403340981e-01	-3.6040034643e+00
 1.2689216901e+00	 4.1573731190e-01	-4.4270729315e+00
 1.2650304004e+00	 4.2743162870e-01	-4.9247892088e+00
 1.2610225698e+00	 4.3911471479e-01	-5.0551934014e+00
 1.2568979920e+00	 4.5078491354e-01	-4.7751661778e+00
 1.2526564905e+00	 4.6244055771e-01	-4.0404638910e+00
 1.2983600000e+00	 3.4770928190e-01	 3.4626210333e+00
 1.2951408634e+00	 3.5951435487e-01	 1.8104647497e+00
 1.2918062724e+00	 3.7131787016e-01	 2.0347285706e-01
 1.2883558473e+00	 3.8311823692e-01	-1.2679890866e+00
 1.2847892357e+00	 3.9491385006e-01	-2.5282608372e+00
 1.2811061136e+00	 4.0670309081e-01	-3.5440409912e+00
 1.2773061852e+00	 4.1848432731e-01	-4.2812567531e+00
 1.2733891834e+00	 4.3025591518e-01	-4.7050903345e+00
 1.2693548709e+00	 4.4201619814e-01	-4.7800082341e+00
 1.2652030396e+00	 4.5376350860e-01	-4.4697934728e+00
 1.2609335121e+00	 4.6549616831e-01	-3.7375808485e+00
 1.3068826965e+00	 3.4999171566e-01	 3.0910680110e+00
 1.3036424289e+00	 3.6187427950e-01	 1.5636966989e+00
 1.3002859490e+00	 3.7375527545e-01	 8.6836690784e-02
 1.2968128745e+00	 3.8563310219e-01	-1.2390286430e+00
 1.2932228510e+00	 3.9750614411e-01	-2.3601286191e+00
 1.2895155522e+00	 4.0937277181e-01	-3.2493458086e+00
 1.2856906802e+00	 4.2123134272e-01	-3.8793532695e+00
 1.2817479665e+00	 4.3308020167e-01	-4.2226414903e+00
 1.2776871719e+00	 4.4491768149e-01	-4.2515475309e+00
 1.2735080872e+00	 4.5674210366e-01	-3.9382864253e+00
 1.2692105336e+00	 4.6855177891e-01	-3.2549849012e+00
 1.1864403182e+00	 4.3799567291e-01	-2.4471840611e+00
 1.1823114322e+00	 4.4902169174e-01	-2.4547255622e+00
 1.1780715168e+00	 4.6003073296e-01	-2.2993073976e+00
 1.1737204915e+00	 4.7102118972e-01	-2.0039880536e+00
 1.1692583055e+00	 4.8199144765e-01	-1.5940823997e+00
 1.1646849381e+00	 4.9293988553e-01	-1.0971637175e+00
 1.1600003990e+00	 5.0386487593e-01	-5.4306370940e-01
 1.1552047288e+00	 5.1476478594e-01	 3.6129545056e-02
 1.1502979987e+00	 5.2563797785e-01	 6.0607571923e-01
 1.1452803116e+00	 5.3648280987e-01	 1.1301884932e+00
 1.1401518013e+00	 5.4729763683e-01	 1.5696439718e+00
 1.1947173398e+00	 4.4105128351e-01	-2.8348990648e+00
 1.1905596492e+00	 4.5215422370e-01	-2.6507941200e+00
 1.1862901547e+00	 4.6324006783e-01	-2.3053057041e+00
 1.1819087751e+00	 4.7430719784e-01	-1.8300345603e+00
 1.1774154593e+00	 4.8535398812e-01	-1.2587902899e+00
 1.1728101865e+00	 4.9637880612e-01	-6.2758052878e-01
 1.1680929665e+00	 5.0738001307e-01	 2.5401962774e-02
 1.1632638399e+00	 5.1835596466e-01	 6.5979430804e-01
 1.1583228788e+00	 5.2930501175e-01	 1.2330806343e+00
 1.1532701865e+00	 5.4022550109e-01	 1.7006113231e+00
 1.1481058980e+00	 5.5111577606e-01	 2.0156244094e+00
 1.2029943613e+00	 4.4410689411e-01	-3.2139625600e+00
 1.1988078661e+00	 4.5528675565e-01	-2.8439663421e+00
 1.1945087925e+00	 4.6644940269e-01	-2.3220343675e+00
 1.1900970587e+00	 4.7759320597e-01	-1.6860942214e+00
 1.1855726132e+00	 4.8871652860e-01	-9.7617489275e-01
 1.1809354349e+00	 4.9981772672e-01	-2.3438536952e-01
 1.1761855339e+00	 5.1089515021e-01	 4.9510880091e-01
 1.1713229511e+00	 5.2194714337e-01	 1.1661109814e+00
 1.1663477589e+00	 5.3297204564e-01	 1.7304209403e+00
 1.1612600615e+00	 5.4396819232e-01	 2.1378643719e+00
 1.1560599947e+00	 5.5493391529e-01	 2.3363244446e+00
 1.2112713829e+00	 4.4716250471e-01	-3.5610383404e+00
 1.2070560831e+00	 4.5841928761e-01	-3.0180881897e+00
 1.2027274304e+00	 4.6965873756e-01	-2.3396791627e+00
 1.1982853423e+00	 4.8087921410e-01	-1.5678970394e+00
 1.1937297670e+00	 4.9207906907e-01	-7.4676244200e-01
 1.1890606833e+00	 5.0325664731e-01	 7.7798905294e-02
 1.1842781013e+00	 5.1441028735e-01	 8.5798778522e-01
 1.1793820623e+00	 5.2553832208e-01	 1.5441649443e+00
 1.1743726390e+00	 5.3663907953e-01	 2.0848863768e+00
 1.1692499365e+00	 5.4771088354e-01	 2.4269404213e+00
 1.1640140914e+00	 5.5875205452e-01	 2.5153866555e+00
 1.2195484044e+00	 4.5021811531e-01	-3.8533862705e+00
 1.2153043001e+00	 4.6155181956e-01	-3.1574067360e+00
 1.2109460682e+00	 4.7286807242e-01	-2.3486550832e+00
 1.2064736259e+00	 4.8416522222e-01	-1.4712521363e+00
 1.2018869208e+00	 4.9544160954e-01	-5.7102869168e-01
 1.1971859318e+00	 5.0669556791e-01	 3.0451033808e-01
 1.1923706688e+00	 5.1792542449e-01	 1.1062233689e+00
 1.1874411734e+00	 5.2912950080e-01	 1.7833711427e+00
 1.1823975192e+00	 5.4030611342e-01	 2.2836572441e+00
 1.1772398114e+00	 5.5145357476e-01	 2.5532701068e+00
 1.1719681881e+00	 5.6257019375e-01	 2.5369264869e+00
 1.2278254259e+00	 4.5327372591e-01	-4.0688423090e+00
 1.2235525171e+00	 4.6468435151e-01	-3.2465568632e+00
 1.2191647061e+00	 4.7607740729e-01	-2.3395989413e+00
 1.2146619095e+00	 4.8745123035e-01	-1.3920455280e+00
 1.2100440746e+00	 4.9880415001e-01	-4.4940117873e-01
 1.2053111802e+00	 5.1013448850e-01	 4.4144175869e-01
 1.2004632362e+00	 5.2144056162e-01	 1.2322441169e+00
 1.1955002846e+00	 5.3272067951e-01	 1.8734620282e+00
 1.1904223993e+00	 5.4397314732e-01	 2.3142901449e+00
 1.1852296864e+00	 5.5519626599e-01	 2.5027059214e+00
 1.1799222848e+00	 5.6638833298e-01	 2.3855149240e+00
 1.2361024475e+00	 4.5632933651e-01	-4.1857993762e+00
 1.2318007341e+00	 4.6781688346e-01	-3.2705485392e+00
 1.2273833439e+00	 4.7928674215e-01	-2.3033623124e+00
 1.2228501930e+00	 4.9073723847e-01	-1.3262380374e+00
 1.2182012284e+00	 5.0216669048e-01	-3.8226144728e-01
 1.2134364286e+00	 5.1357340909e-01	 4.8443486444e-01
 1.2085558036e+00	 5.2495569876e-01	 1.2287136626e+00
 1.2035593958e+00	 5.3631185822e-01	 1.8044759189e+00
 1.1984472794e+00	 5.4764018121e-01	 2.1647042352e+00
 1.1932195614e+00	 5.5893895721e-01	 2.2615067938e+00
 1.1878763815e+00	 5.7020647220e-01	 2.0461617930e+00
 1.2443794690e+00	 4.5938494711e-01	-4.1831890268e+00
 1.2400489511e+00	 4.7094941542e-01	-3.2147546458e+00
 1.2356019818e+00	 4.8249607701e-01	-2.2310048086e+00
 1.2310384766e+00	 4.9402324660e-01	-1.2698633411e+00
 1.2263583823e+00	 5.0552923095e-01	-3.6994723663e-01
 1.2215616770e+00	 5.1701232969e-01	 4.2947448120e-01
 1.2166483711e+00	 5.2847083590e-01	 1.0885219672e+00
 1.2116185069e+00	 5.3990303693e-01	 1.5667457651e+00
 1.2064721595e+00	 5.5130721510e-01	 1.8231679598e+00
 1.2012094364e+00	 5.6268164843e-01	 1.8163232158e+00
 1.1958304782e+00	 5.7402461143e-01	 1.5042996573e+00
 1.2526564905e+00	 4.6244055771e-01	-4.0404638910e+00
 1.2482971680e+00	 4.7408194737e-01	-3.0648993339e+00
 1.2438206197e+00	 4.8570541188e-01	-2.1137876647e+00
 1.2392267602e+00	 4.9730925472e-01	-1.2190261417e+00
 1.2345155361e+00	 5.0889177143e-01	-4.1275463441e-01
 1.2296869254e+00	 5.2045125028e-01	 2.7268299731e-01
 1.2247409385e+00	 5.3198597304e-01	 8.0477686822e-01
 1.2196776181e+00	 5.4349421564e-01	 1.1508882993e+00
 1.2144970396e+00	 5.5497424899e-01	 1.2782862499e+00
 1.2091993113e+00	 5.6642433966e-01	 1.1541828926e+00
 1.2037845749e+00	 5.7784275066e-01	 7.4576828295e-01
 1.2609335121e+00	 4.6549616831e-01	-3.7375808485e+00
 1.2565453850e+00	 4.7721447932e-01	-2.8070468806e+00
 1.2520392575e+00	 4.8891474675e-01	-1.9431676239e+00
 1.2474150438e+00	 5.0059526285e-01	-1.1699004624e+00
 1.2426726899e+00	 5.1225431190e-01	-5.1094019656e-01
 1.2378121738e+00	 5.2389017087e-01	 1.0314962267e-02
 1.2328335059e+00	 5.3550111017e-01	 3.7079590361e-01
 1.2277367293e+00	 5.4708539436e-01	 5.4779355319e-01
 1.2225219197e+00	 5.5864128289e-01	 5.1898816239e-01
 1.2171891863e+00	 5.7016703088e-01	 2.6247689251e-01
 1.2117386716e+00	 5.8166088989e-01	-2.4320035302e-01
 1.2692105336e+00	 4.6855177891e-01	-3.2549849012e+00
 1.2647936020e+00	 4.8034701128e-01	-2.4275910264e+00
 1.2602578954e+00	 4.9212408161e-01	-1.7107911079e+00
 1.2556033274e+00	 5.0388127097e-01	-1.1187280557e+00
 1.2508298437e+00	 5.1561685237e-01	-6.6472303574e-01
 1.2459374222e+00	 5.2732909147e-01	-3.6124815734e-01
 1.2409260734e+00	 5.3901624731e-01	-2.1990160131e-01
 1.2357958404e+00	 5.5067657307e-01	-2.5138527426e-01
 1.2305467998e+00	 5.6230831678e-01	-4.6548506011e-01
 1.2251790613e+00	 5.7390972211e-01	-8.7105372742e-01
 1.2196927683e+00	 5.8547902912e-01	-1.4759965361e+00
 1.1401518013e+00	 5.4729763683e-01	 1.5696439718e+00
 1.1349135336e+00	 5.5807898070e-01	 1.9858217227e+00
 1.1295648427e+00	 5.6882703310e-01	 2.4565397852e+00
 1.1241059573e+00	 5.7954014345e-01	 2.9668273878e+00
 1.1185371380e+00	 5.9021666079e-01	 3.5031484010e+00
 1.1128586778e+00	 6.0085493454e-01	 4.0534206672e+00
 1.1070709020e+00	 6.1145331523e-01	 4.6057363792e+00
 1.1011741682e+00	 6.2201015531e-01	 5.1467039618e+00
 1.0951688665e+00	 6.3252380994e-01	 5.6675243594e+00
 1.0890554195e+00	 6.4299263775e-01	 6.1611429873e+00
 1.0828342824e+00	 6.5341500165e-01	 6.6220402930e+00
 1.1481058980e+00	 5.5111577606e-01	 2.0156244094e+00
 1.1428310863e+00	 5.6197233435e-01	 2.2659716488e+00
 1.1374450811e+00	 5.7279536891e-01	 2.5648762801e+00
 1.1319481126e+00	 5.8358321765e-01	 2.9028407268e+00
 1.1263404433e+00	 5.9433421811e-01	 3.2715644216e+00
 1.1206223682e+00	 6.0504670816e-01	 3.6639529597e+00
 1.1147942148e+00	 6.1571902685e-01	 4.0741248039e+00
 1.1088563433e+00	 6.2634951513e-01	 4.4969937877e+00
 1.1028091465e+00	 6.3693651668e-01	 4.9244395989e+00
 1.0966530500e+00	 6.4747837869e-01	 5.3521798294e+00
 1.0903885121e+00	 6.5797345264e-01	 5.7782605406e+00
 1.1560599947e+00	 5.5493391529e-01	 2.3363244446e+00
 1.1507486390e+00	 5.6586568800e-01	 2.4376494448e+00
 1.1453253194e+00	 5.7676370472e-01	 2.5856878885e+00
 1.1397902678e+00	 5.8762629186e-01	 2.7755622469e+00
 1.1341437485e+00	 5.9845177542e-01	 3.0033495073e+00
 1.1283860585e+00	 6.0923848178e-01	 3.2660812111e+00
 1.1225175276e+00	 6.1998473847e-01	 3.5617412338e+00
 1.1165385184e+00	 6.3068887495e-01	 3.8892613511e+00
 1.1104494265e+00	 6.4134922343e-01	 4.2484771885e+00
 1.1042506805e+00	 6.5196411963e-01	 4.6360879013e+00
 1.0979427418e+00	 6.6253190362e-01	 5.0503559093e+00
 1.1640140914e+00	 5.5875205452e-01	 2.5153866555e+00
 1.1586661917e+00	 5.6975904164e-01	 2.4833624005e+00
 1.1532055578e+00	 5.8073204052e-01	 2.5003761073e+00
 1.1476324231e+00	 5.9166936606e-01	 2.5653350118e+00
 1.1419470538e+00	 6.0256933273e-01	 2.6778535629e+00
 1.1361497489e+00	 6.1343025541e-01	 2.8382453881e+00
 1.1302408404e+00	 6.2425045010e-01	 3.0475132105e+00
 1.1242206935e+00	 6.3502823477e-01	 3.3073367770e+00
 1.1180897066e+00	 6.4576193017e-01	 3.6200588717e+00
 1.1118483110e+00	 6.5644986057e-01	 3.9886694957e+00
 1.1054969714e+00	 6.6709035461e-01	 4.4138614453e+00
 1.1719681881e+00	 5.6257019375e-01	 2.5369264869e+00
 1.1665837444e+00	 5.7365239529e-01	 2.3861197083e+00
 1.1610857962e+00	 5.8470037633e-01	 2.2908724394e+00
 1.1554745784e+00	 5.9571244026e-01	 2.2530587907e+00
 1.1497503591e+00	 6.0668689005e-01	 2.2750080194e+00
 1.1439134392e+00	 6.1762202903e-01	 2.3594894532e+00
 1.1379641532e+00	 6.2851616172e-01	 2.5096955904e+00
 1.1319028687e+00	 6.3936759459e-01	 2.7292234503e+00
 1.1257299866e+00	 6.5017463691e-01	 3.0220542664e+00
 1.1194459415e+00	 6.6093560150e-01	 3.3925316213e+00
 1.1130512011e+00	 6.7164880559e-01	 3.8453381355e+00
 1.1799222848e+00	 5.6638833298e-01	 2.3855149240e+00
 1.1745012971e+00	 5.7754574893e-01	 2.1294140058e+00
 1.1689660346e+00	 5.8866871214e-01	 1.9396188341e+00
 1.1633167337e+00	 5.9975551447e-01	 1.8201694396e+00
 1.1575536643e+00	 6.1080444736e-01	 1.7753042169e+00
 1.1516771296e+00	 6.2181380265e-01	 1.8094388256e+00
 1.1456874660e+00	 6.3278187334e-01	 1.9271435029e+00
 1.1395850438e+00	 6.4370695442e-01	 2.1331188833e+00
 1.1333702667e+00	 6.5458734366e-01	 2.4321704286e+00
 1.1270435720e+00	 6.6542134244e-01	 2.8291815857e+00
 1.1206054308e+00	 6.7620725658e-01	 3.3290857993e+00
 1.1878763815e+00	 5.7020647220e-01	 2.0461617930e+00
 1.1824188498e+00	 5.8143910258e-01	 1.6972035873e+00
 1.1768462729e+00	 5.9263704795e-01	 1.4295488358e+00
 1.1711588890e+00	 6.0379858867e-01	 1.2486190298e+00
 1.1653569696e+00	 6.1492200467e-01	 1.1597725730e+00
 1.1594408199e+00	 6.2600557627e-01	 1.1682786624e+00
 1.1534107788e+00	 6.3704758496e-01	 1.2792898337e+00
 1.1472672189e+00	 6.4804631424e-01	 1.4978132801e+00
 1.1410105467e+00	 6.5900005040e-01	 1.8286810638e+00
 1.1346412025e+00	 6.6990708338e-01	 2.2765193498e+00
 1.1281596605e+00	 6.8076570756e-01	 2.8457168058e+00
 1.1958304782e+00	 5.7402461143e-01	 1.5042996573e+00
 1.1903364025e+00	 5.8533245622e-01	 1.0738952514e+00
 1.1847265113e+00	 5.9660538376e-01	 7.4406940965e-01
 1.1790010443e+00	 6.0784166287e-01	 5.2085669242e-01
 1.1731602748e+00	 6.1903956198e-01	 4.0996249948e-01
 1.1672045102e+00	 6.3019734989e-01	 4.1673292028e-01
 1.1611340916e+00	 6.4131329658e-01	 5.4612351709e-01
 1.1549493941e+00	 6.5238567406e-01	 8.0266716127e-01
 1.1486508268e+00	 6.6341275714e-01	 1.1904410551e+00
 1.1422388330e+00	 6.7439282432e-01	 1.7130330830e+00
 1.1357138902e+00	 6.8532415854e-01	 2.3735076460e+00
 1.2037845749e+00	 5.7784275066e-01	 7.4576828295e-01
 1.1982539552e+00	 5.8922580987e-01	 2.4432775690e-01
 1.1926067497e+00	 6.0057371956e-01	-1.3295658902e-01
 1.1868431996e+00	 6.1188473708e-01	-3.8018985867e-01
 1.1809635801e+00	 6.2315711930e-01	-4.9207696617e-01
 1.1749682006e+00	 6.3438912351e-01	-4.6395583759e-01
 1.1688574044e+00	 6.4557900820e-01	-2.9183139869e-01
 1.1626315692e+00	 6.5672503388e-01	 2.7589783642e-02
 1.1562911068e+00	 6.6782546389e-01	 4.9686435006e-01
 1.1498364636e+00	 6.7887856526e-01	 1.1177766430e+00
 1.1432681199e+00	 6.8988260953e-01	 1.8913030121e+00
 1.2117386716e+00	 5.8166088989e-01	-2.4320035302e-01
 1.2061715080e+00	 5.9311916351e-01	-8.0624414276e-01
 1.2004869881e+00	 6.0454205537e-01	-1.2172273287e+00
 1.1946853549e+00	 6.1592781128e-01	-1.4711321530e+00
 1.1887668854e+00	 6.2727467661e-01	-1.5638158478e+00
 1.1827318909e+00	 6.3858089713e-01	-1.4920459238e+00
 1.1765807172e+00	 6.4984471983e-01	-1.2535359498e+00
 1.1703137443e+00	 6.6106439370e-01	-8.4698167994e-01
 1.1639313869e+00	 6.7223817063e-01	-2.7209737550e-01
 1.1574340941e+00	 6.8336430619e-01	 4.7034784577e-01
 1.1508223496e+00	 6.9444106051e-01	 1.3784938070e+00
 1.2196927683e+00	 5.8547902912e-01	-1.4759965361e+00
 1.2140890607e+00	 5.9701251716e-01	-2.0921651109e+00
 1.2083672264e+00	 6.0851039118e-01	-2.5240183291e+00
 1.2025275101e+00	 6.1997088548e-01	-2.7681381703e+00
 1.1965701906e+00	 6.3139223392e-01	-2.8222612675e+00
 1.1904955813e+00	 6.4277267076e-01	-2.6853153308e+00
 1.1843040300e+00	 6.5411043145e-01	-2.3574557515e+00
 1.1779959194e+00	 6.6540375352e-01	-1.8401022371e+00
 1.1715716669e+00	 6.7665087737e-01	-1.1359753119e+00
 1.1650317246e+00	 6.8785004713e-01	-2.4913251144e-01
 1.1583765792e+00	 6.9899951150e-01	 8.1499591609e-01
 1.0828342824e+00	 6.5341500165e-01	 6.6220402930e+00
 1.0765059431e+00	 6.6378926983e-01	 6.9437941877e+00
 1.0700709229e+00	 6.7411381717e-01	 7.0494625530e+00
 1.0635297760e+00	 6.8438702546e-01	 6.9784150779e+00
 1.0568830886e+00	 6.9460728400e-01	 6.7693109669e+00
 1.0501314794e+00	 7.0477299035e-01	 6.4600395865e+00
 1.0432755991e+00	 7.1488255120e-01	 6.0876622596e+00
 1.0363161302e+00	 7.2493438309e-01	 5.6883553150e+00
 1.0292537870e+00	 7.3492691326e-01	 5.2973544996e+00
 1.0220893154e+00	 7.4485858041e-01	 4.9479703718e+00
 1.0148234927e+00	 7.5472783548e-01	 4.6653366701e+00
 1.0903885121e+00	 6.5797345264e-01	 5.7782605406e+00
 1.0840160240e+00	 6.6842009533e-01	 6.0777206640e+00
 1.0775361109e+00	 6.7881667031e-01	 6.1555962097e+00
 1.0709493307e+00	 6.8916154809e-01	 6.0553383885e+00
 1.0642562737e+00	 6.9945310671e-01	 5.8196418851e+00
 1.0574575630e+00	 7.0968973258e-01	 5.4903785243e+00
 1.0505538536e+00	 7.1986982125e-01	 5.1085321190e+00
 1.0435458330e+00	 7.2999177823e-01	 4.7141346225e+00
 1.0364342204e+00	 7.4005401978e-01	 4.3462037024e+00
 1.0292197670e+00	 7.5005497370e-01	 4.0377073052e+00
 1.0219032553e+00	 7.5999308014e-01	 3.8187366183e+00
 1.0979427418e+00	 6.6253190362e-01	 5.0503559093e+00
 1.0915261050e+00	 6.7305092083e-01	 5.3494644226e+00
 1.0850012990e+00	 6.8351952346e-01	 5.4213210859e+00
 1.0783688854e+00	 6.9393607072e-01	 5.3114327447e+00
 1.0716294588e+00	 7.0429892943e-01	 5.0645389295e+00
 1.0647836465e+00	 7.1460647481e-01	 4.7245415970e+00
 1.0578321081e+00	 7.2485709130e-01	 4.3344360600e+00
 1.0507755358e+00	 7.3504917337e-01	 3.9362432373e+00
 1.0436146539e+00	 7.4518112629e-01	 3.5697735225e+00
 1.0363502186e+00	 7.5525136699e-01	 3.2657416412e+00
 1.0289830180e+00	 7.6525832479e-01	 3.0604686820e+00
 1.1054969714e+00	 6.6709035461e-01	 4.4138614453e+00
 1.0990361860e+00	 6.7768174633e-01	 4.7348080685e+00
 1.0924664870e+00	 6.8822237660e-01	 4.8234396813e+00
 1.0857884401e+00	 6.9871059335e-01	 4.7253353870e+00
 1.0790026439e+00	 7.0914475215e-01	 4.4853309833e+00
 1.0721097300e+00	 7.1952321704e-01	 4.1474477962e+00
 1.0651103626e+00	 7.2984436136e-01	 3.7548226859e+00
 1.0580052387e+00	 7.4010656851e-01	 3.3496393523e+00
 1.0507950873e+00	 7.5030823281e-01	 2.9674026522e+00
 1.0434806702e+00	 7.6044776028e-01	 2.6406600131e+00
 1.0360627807e+00	 7.7052356945e-01	 2.4077759508e+00
 1.1130512011e+00	 6.7164880559e-01	 3.8453381355e+00
 1.1065462670e+00	 6.8231257183e-01	 4.2101988847e+00
 1.0999316750e+00	 6.9292522974e-01	 4.3393916273e+00
 1.0932079948e+00	 7.0348511597e-01	 4.2762710922e+00
 1.0863758290e+00	 7.1399057486e-01	 4.0638616806e+00
 1.0794358135e+00	 7.2443995927e-01	 3.7444337637e+00
 1.0723886171e+00	 7.3483163141e-01	 3.3594357200e+00
 1.0652349415e+00	 7.4516396364e-01	 2.9481830656e+00
 1.0579755208e+00	 7.5543533932e-01	 2.5400567573e+00
 1.0506111218e+00	 7.6564415357e-01	 2.1708066318e+00
 1.0431425434e+00	 7.7578881410e-01	 1.8774242500e+00
 1.1206054308e+00	 6.7620725658e-01	 3.3290857993e+00
 1.1140563480e+00	 6.8694339732e-01	 3.7535663163e+00
 1.1073968631e+00	 6.9762808288e-01	 3.9472311316e+00
 1.1006275495e+00	 7.0825963860e-01	 3.9440312701e+00
 1.0937490141e+00	 7.1883639758e-01	 3.7824709403e+00
 1.0867618971e+00	 7.2935670150e-01	 3.5012385824e+00
 1.0796668717e+00	 7.3981890146e-01	 3.1383029143e+00
 1.0724646443e+00	 7.5022135878e-01	 2.7249169392e+00
 1.0651559543e+00	 7.6056244583e-01	 2.2886892622e+00
 1.0577415734e+00	 7.7084054685e-01	 1.8642916260e+00
 1.0502223061e+00	 7.8105405876e-01	 1.4857184209e+00
 1.1281596605e+00	 6.8076570756e-01	 2.8457168058e+00
 1.1215664290e+00	 6.9157422282e-01	 3.3507228653e+00
 1.1148620511e+00	 7.0233093602e-01	 3.6270037313e+00
 1.1080471042e+00	 7.1303416123e-01	 3.7089538672e+00
 1.1011221992e+00	 7.2368222029e-01	 3.6239772066e+00
 1.0940879806e+00	 7.3427344373e-01	 3.4039891443e+00
 1.0869451262e+00	 7.4480617151e-01	 3.0806079168e+00
 1.0796943471e+00	 7.5527875392e-01	 2.6747477147e+00
 1.0723363877e+00	 7.6568955235e-01	 2.2142190125e+00
 1.0648720250e+00	 7.7603694014e-01	 1.7289990726e+00
 1.0573020688e+00	 7.8631930341e-01	 1.2485179744e+00
 1.1357138902e+00	 6.8532415854e-01	 2.3735076460e+00
 1.1290765099e+00	 6.9620504832e-01	 2.9821452080e+00
 1.1223272392e+00	 7.0703378917e-01	 3.3662686392e+00
 1.1154666590e+00	 7.1780868385e-01	 3.5538280236e+00
 1.1084953844e+00	 7.2852804301e-01	 3.5716603658e+00
 1.1014140641e+00	 7.3919018596e-01	 3.4391860689e+00
 1.0942233807e+00	 7.4979344156e-01	 3.1745389464e+00
 1.0869240500e+00	 7.6033614906e-01	 2.7927296095e+00
 1.0795168212e+00	 7.7081665886e-01	 2.3175316181e+00
 1.0720024766e+00	 7.8123333343e-01	 1.7725947346e+00
 1.0643818315e+00	 7.9158454807e-01	 1.1812521465e+00
 1.1432681199e+00	 6.8988260953e-01	 1.8913030121e+00
 1.1365865909e+00	 7.0083587382e-01	 2.6268738173e+00
 1.1297924272e+00	 7.1173664231e-01	 3.1462923318e+00
 1.1228862137e+00	 7.2258320648e-01	 3.4683395990e+00
 1.1158685695e+00	 7.3337386572e-01	 3.6115747700e+00
 1.1087401476e+00	 7.4410692819e-01	 3.5928811324e+00
 1.1015016352e+00	 7.5478071162e-01	 3.4104338423e+00
 1.0941537528e+00	 7.6539354420e-01	 3.0740387797e+00
 1.0866972546e+00	 7.7594376538e-01	 2.5994807683e+00
 1.0791329282e+00	 7.8642972672e-01	 2.0025335174e+00
 1.0714615942e+00	 7.9684979272e-01	 1.2989343846e+00
 1.1508223496e+00	 6.9444106051e-01	 1.3784938070e+00
 1.1440966719e+00	 7.0546669932e-01	 2.2644870030e+00
 1.1372576152e+00	 7.1643949545e-01	 2.9474965146e+00
 1.1303057684e+00	 7.2735772911e-01	 3.4353890689e+00
 1.1232417546e+00	 7.3821968844e-01	 3.7360351465e+00
 1.1160662312e+00	 7.4902367042e-01	 3.8522230923e+00
 1.1087798897e+00	 7.5976798167e-01	 3.7789242714e+00
 1.1013834556e+00	 7.7045093933e-01	 3.5139695314e+00
 1.0938776881e+00	 7.8107087189e-01	 3.0608895208e+00
 1.0862633799e+00	 7.9162612001e-01	 2.4260666583e+00
 1.0785413569e+00	 8.0211503738e-01	 1.6161762892e+00
 1.1583765792e+00	 6.9899951150e-01	 8.1499591609e-01
 1.1516067529e+00	 7.1009752482e-01	 1.8750797770e+00
 1.1447228033e+00	 7.2114234859e-01	 2.7507942286e+00
 1.1377253231e+00	 7.3213225174e-01	 3.4373819350e+00
 1.1306149397e+00	 7.4306551116e-01	 3.9299409711e+00
 1.1233923147e+00	 7.5394041265e-01	 4.2121847643e+00
 1.1160581442e+00	 7.6475525172e-01	 4.2734247900e+00
 1.1086131585e+00	 7.7550833447e-01	 4.1079307057e+00
 1.1010581216e+00	 7.8619797841e-01	 3.7025515661e+00
 1.0933938315e+00	 7.9682251330e-01	 3.0502486603e+00
 1.0856211196e+00	 8.0738028204e-01	 2.1472010377e+00
 1.0148234927e+00	 7.5472783548e-01	 4.6653366701e+00
 1.0074558669e+00	 7.6453480300e-01	 4.5223448469e+00
 9.9998850774e-01	 7.7427627210e-01	 4.5437791525e+00
 9.9242228952e-01	 7.8395072873e-01	 4.6869647658e+00
 9.8475811671e-01	 7.9355667418e-01	 4.9097261961e+00
 9.7699692376e-01	 8.0309262581e-01	 5.1704526015e+00
 9.6913967462e-01	 8.1255711779e-01	 5.4281624881e+00
 9.6118736245e-01	 8.2194870185e-01	 5.6425676613e+00
 9.5314100914e-01	 8.3126594802e-01	 5.7741362954e+00
 9.4500166493e-01	 8.4050744529e-01	 5.7841549965e+00
 9.3677040792e-01	 8.4967180238e-01	 5.6347897291e+00
 1.0219032553e+00	 7.5999308014e-01	 3.8187366183e+00
 1.0144842304e+00	 7.6986846449e-01	 3.7816739914e+00
 1.0069647764e+00	 7.7967789347e-01	 3.9578576709e+00
 9.9934577360e-01	 7.8941984248e-01	 4.2916978534e+00
 9.9162813285e-01	 7.9909280236e-01	 4.7284872461e+00
 9.8381279511e-01	 8.0869528011e-01	 5.2144864273e+00
 9.7590073106e-01	 8.1822579969e-01	 5.6970081008e+00
 9.6789294079e-01	 8.2768290272e-01	 6.1245000784e+00
 9.5979045331e-01	 8.3706514924e-01	 6.4466268246e+00
 9.5159432619e-01	 8.4637111842e-01	 6.6143494011e+00
 9.4330564507e-01	 8.5559940926e-01	 6.5800036512e+00
 1.0289830180e+00	 7.6525832479e-01	 3.0604686820e+00
 1.0215125940e+00	 7.7520212597e-01	 3.0671532603e+00
 1.0139410451e+00	 7.8507951483e-01	 3.3305083358e+00
 1.0062692577e+00	 7.9488895623e-01	 3.7859410455e+00
 9.9849814899e-01	 8.0462893054e-01	 4.3700392763e+00
 9.9062866646e-01	 8.1429793442e-01	 5.0206714958e+00
 9.8266178750e-01	 8.2389448159e-01	 5.6770850921e+00
 9.7459851912e-01	 8.3341710359e-01	 6.2800030300e+00
 9.6643989748e-01	 8.4286435047e-01	 6.7717186323e+00
 9.5818698745e-01	 8.5223479156e-01	 7.0961882990e+00
 9.4984088221e-01	 8.6152701615e-01	 7.1991219803e+00
 1.0360627807e+00	 7.7052356945e-01	 2.4077759508e+00
 1.0285409576e+00	 7.8053578745e-01	 2.4044245518e+00
 1.0209173137e+00	 7.9048113620e-01	 2.6940785024e+00
 1.0131927418e+00	 8.0035806999e-01	 3.2069751376e+00
 1.0053681651e+00	 8.1016505872e-01	 3.8747470341e+00
 9.9744453781e-01	 8.1990058872e-01	 4.6305308048e+00
 9.8942284394e-01	 8.2956316350e-01	 5.4090741186e+00
 9.8130409746e-01	 8.3915130446e-01	 6.1468407351e+00
 9.7308934164e-01	 8.4866355170e-01	 6.7821133471e+00
 9.6477964872e-01	 8.5809846470e-01	 7.2550940264e+00
 9.5637611935e-01	 8.6745462304e-01	 7.5080020754e+00
 1.0431425434e+00	 7.7578881410e-01	 1.8774242500e+00
 1.0355693211e+00	 7.8586944893e-01	 1.8184246463e+00
 1.0278935824e+00	 7.9588275757e-01	 2.0800285157e+00
 1.0201162258e+00	 8.0582718374e-01	 2.5910601166e+00
 1.0122381813e+00	 8.1570118689e-01	 3.2818708541e+00
 1.0042604092e+00	 8.2550324302e-01	 4.0844515955e+00
 9.9618390038e-01	 8.3523184540e-01	 4.9325430269e+00
 9.8800967579e-01	 8.4488550533e-01	 5.7617438331e+00
 9.7973878581e-01	 8.5446275293e-01	 6.5096164845e+00
 9.7137230998e-01	 8.6396213783e-01	 7.1157904226e+00
 9.6291135649e-01	 8.7338222993e-01	 7.5220624361e+00
 1.0502223061e+00	 7.8105405876e-01	 1.4857184209e+00
 1.0425976847e+00	 7.9120311041e-01	 1.3334091910e+00
 1.0348698510e+00	 8.0128437894e-01	 1.5189618499e+00
 1.0270397099e+00	 8.1129629749e-01	 1.9734698330e+00
 1.0191081974e+00	 8.2123731507e-01	 2.6296041705e+00
 1.0110762805e+00	 8.3110589733e-01	 3.4217239426e+00
 1.0029449568e+00	 8.4090052730e-01	 4.2859846909e+00
 9.9471525413e-01	 8.5061970620e-01	 5.1604445688e+00
 9.8638822998e-01	 8.6026195415e-01	 5.9851680173e+00
 9.7796497124e-01	 8.6982581097e-01	 6.7023267569e+00
 9.6944659363e-01	 8.7930983682e-01	 7.2562978922e+00
 1.0573020688e+00	 7.8631930341e-01	 1.2485179744e+00
 1.0496260483e+00	 7.9653677189e-01	 9.7297574880e-01
 1.0418461197e+00	 8.0668600031e-01	 1.0406540653e+00
 1.0339631940e+00	 8.1676541124e-01	 1.3885253097e+00
 1.0259782136e+00	 8.2677344325e-01	 1.9551095528e+00
 1.0178921519e+00	 8.3670855163e-01	 2.6805778249e+00
 1.0097060133e+00	 8.4656920920e-01	 3.5068533592e+00
 1.0014208325e+00	 8.5635390706e-01	 4.3777105966e+00
 9.9303767415e-01	 8.6606115538e-01	 5.2388717495e+00
 9.8455763250e-01	 8.7568948410e-01	 6.0381007253e+00
 9.7598183078e-01	 8.8523744370e-01	 6.7252942167e+00
 1.0643818315e+00	 7.9158454807e-01	 1.1812521465e+00
 1.0566544118e+00	 8.0187043338e-01	 7.6008595542e-01
 1.0488223884e+00	 8.1208762167e-01	 6.7408063847e-01
 1.0408866781e+00	 8.2223452499e-01	 8.6962674970e-01
 1.0328482297e+00	 8.3230957143e-01	 1.2945533313e+00
 1.0247080232e+00	 8.4231120594e-01	 1.8982187453e+00
 1.0164670697e+00	 8.5223789110e-01	 2.6315995830e+00
 1.0081264108e+00	 8.6208810793e-01	 3.4473774650e+00
 9.9968711831e-01	 8.7186035661e-01	 4.3000235488e+00
 9.9115029376e-01	 8.8155315724e-01	 5.1458805617e+00
 9.8251706792e-01	 8.9116505059e-01	 5.9432421874e+00
 1.0714615942e+00	 7.9684979272e-01	 1.2989343846e+00
 1.0636827754e+00	 8.0720409486e-01	 7.1708682540e-01
 1.0557986570e+00	 8.1748924304e-01	 4.4744371624e-01
 1.0478101622e+00	 8.2770363875e-01	 4.4928430368e-01
 1.0397182458e+00	 8.3784569961e-01	 6.8313888058e-01
 1.0315238946e+00	 8.4791386024e-01	 1.1108619693e+00
 1.0232281261e+00	 8.5790657300e-01	 1.6957037886e+00
 1.0148319891e+00	 8.6782230880e-01	 2.4023798449e+00
 1.0063365625e+00	 8.7765955784e-01	 3.1971384914e+00
 9.9774295503e-01	 8.8741683038e-01	 4.0478263034e+00
 9.8905230506e-01	 8.9709265748e-01	 4.9239511220e+00
 1.0785413569e+00	 8.0211503738e-01	 1.6161762892e+00
 1.0707111390e+00	 8.1253775634e-01	 8.6573124628e-01
 1.0627749257e+00	 8.2289086441e-01	 3.8819784474e-01
 1.0547336463e+00	 8.3317275250e-01	 1.5914765451e-01
 1.0465882620e+00	 8.4338182779e-01	 1.5513861958e-01
 1.0383397659e+00	 8.5351651454e-01	 3.5376544336e-01
 1.0299891826e+00	 8.6357525491e-01	 7.3370855833e-01
 1.0215375675e+00	 8.7355650967e-01	 1.2747815575e+00
 1.0129860066e+00	 8.8345875907e-01	 1.9579769679e+00
 1.0043356163e+00	 8.9328050351e-01	 2.7655102505e+00
 9.9558754220e-01	 9.0302026437e-01	 3.6808619130e+00
 1.0856211196e+00	 8.0738028204e-01	 2.1472010377e+00
 1.0777395025e+00	 8.1787141782e-01	 1.2271976981e+00
 1.0697511944e+00	 8.2829248578e-01	 5.2307471886e-01
 1.0616571303e+00	 8.3864186625e-01	 3.0034471972e-02
 1.0534582781e+00	 8.4891795597e-01	-2.5607521050e-01
 1.0451556373e+00	 8.5911916885e-01	-3.3873854455e-01
 1.0367502390e+00	 8.6924393681e-01	-2.2075032305e-01
 1.0282431458e+00	 8.7929071054e-01	 9.5804457638e-02
 1.0196354508e+00	 8.8925796029e-01	 6.0956979877e-01
 1.0109282776e+00	 8.9914417665e-01	 1.3199366559e+00
 1.0021227793e+00	 9.0894787126e-01	 2.2270595825e+00
 9.3677040792e-01	 8.4967180238e-01	 5.6347897291e+00
 9.2844976344e-01	 8.5875611319e-01	 5.3487063414e+00
 9.2003945964e-01	 8.6776060528e-01	 4.9870529782e+00
 9.1154063999e-01	 8.7668396607e-01	 4.5705244174e+00
 9.0295447381e-01	 8.8552490531e-01	 4.1197778313e+00
 8.9428215577e-01	 8.9428215577e-01	 3.6554075945e+00
 8.8552490531e-01	 9.0295447381e-01	 3.1979198833e+00
 8.7668396607e-01	 9.1154063999e-01	 2.7677070936e+00
 8.6776060528e-01	 9.2003945964e-01	 2.3850221083e+00
 8.5875611319e-01	 9.2844976344e-01	 2.0699524443e+00
 8.4967180238e-01	 9.3677040792e-01	 1.8423943123e+00
 9.4330564507e-01	 8.5559940926e-01	 6.5800036512e+00
 9.3492695287e-01	 8.6474709540e-01	 6.3473376003e+00
 9.2645797586e-01	 8.7381440597e-01	 5.9737961689e+00
 9.1789986547e-01	 8.8280001924e-01	 5.4931427253e+00
 9.0925379920e-01	 8.9170263595e-01	 4.9387435055e+00
 9.0052098005e-01	 9.0052098005e-01	 4.3435244601e+00
 8.9170263595e-01	 9.0925379920e-01	 3.7399284214e+00
 8.8280001924e-01	 9.1789986547e-01	 3.1598726456e+00
 8.7381440597e-01	 9.2645797586e-01	 2.6347067879e+00
 8.6474709540e-01	 9.3492695287e-01	 2.1951713695e+00
 8.5559940926e-01	 9.4330564507e-01	 1.8713567937e+00
 9.4984088221e-01	 8.6152701615e-01	 7.1991219803e+00
 9.4140414229e-01	 8.7073807760e-01	 7.0602504448e+00
 9.3287649207e-01	 8.7986820666e-01	 6.7240670193e+00
 9.2425909095e-01	 8.8891607240e-01	 6.2343140739e+00
 9.1555312459e-01	 8.9788036659e-01	 5.6340310265e+00
 9.0675980432e-01	 9.0675980432e-01	 4.9654973222e+00
 8.9788036659e-01	 9.1555312459e-01	 4.2701761784e+00
 8.8891607240e-01	 9.2425909095e-01	 3.5886591758e+00
 8.7986820666e-01	 9.3287649207e-01	 2.9606117711e+00
 8.7073807760e-01	 9.4140414229e-01	 2.4247198135e+00
 8.6152701615e-01	 9.4984088221e-01	 2.0186371388e+00
 9.5637611935e-01	 8.6745462304e-01	 7.5080020754e+00
 9.4788133172e-01	 8.7672905981e-01	 7.4930520974e+00
 9.3929500828e-01	 8.8592200735e-01	 7.2342198431e+00
 9.3061831643e-01	 8.9503212556e-01	 6.7821970116e+00
 9.2185244998e-01	 9.0405809723e-01	 6.1867194261e+00
 9.1299862859e-01	 9.1299862859e-01	 5.4965001898e+00
 9.0405809723e-01	 9.2185244998e-01	 4.7591639752e+00
 8.9503212556e-01	 9.3061831643e-01	 4.0211825402e+00
 8.8592200735e-01	 9.3929500828e-01	 3.3278115654e+00
 8.7672905981e-01	 9.4788133172e-01	 2.7230289038e+00
 8.6745462304e-01	 9.5637611935e-01	 2.2494743356e+00
 9.6291135649e-01	 8.7338222993e-01	 7.5220624361e+00
 9.5435852114e-01	 8.8272004202e-01	 7.6511891245e+00
 9.4571352449e-01	 8.9197580803e-01	 7.5006993938e+00
 9.3697754191e-01	 9.0114817873e-01	 7.1252628867e+00
 9.2815177537e-01	 9.1023582787e-01	 6.5783925530e+00
 9.1923745287e-01	 9.1923745287e-01	 5.9123719816e+00
 9.1023582787e-01	 9.2815177537e-01	 5.1781841516e+00
 9.0114817873e-01	 9.3697754191e-01	 4.4254417091e+00
 8.9197580803e-01	 9.4571352449e-01	 3.7023188684e+00
 8.8272004202e-01	 9.5435852114e-01	 3.0554850401e+00
 8.7338222993e-01	 9.6291135649e-01	 2.5300402840e+00
 9.6944659363e-01	 8.7930983682e-01	 7.2562978922e+00
 9.6083571056e-01	 8.8871102423e-01	 7.5399532639e+00
 9.5213204070e-01	 8.9802960872e-01	 7.5200382417e+00
 9.4333676739e-01	 9.0726423189e-01	 7.2522857397e+00
 9.3445110076e-01	 9.1641355851e-01	 6.7911225032e+00
 9.2547627714e-01	 9.2547627714e-01	 6.1895945674e+00
 9.1641355851e-01	 9.3445110076e-01	 5.4992943475e+00
 9.0726423189e-01	 9.4333676739e-01	 4.7702894648e+00
 8.9802960872e-01	 9.5213204070e-01	 4.0510534122e+00
 8.8871102423e-01	 9.6083571056e-01	 3.3883981627e+00
 8.7930983682e-01	 9.6944659363e-01	 2.8274088177e+00
 9.7598183078e-01	 8.8523744370e-01	 6.7252942167e+00
 9.6731289999e-01	 8.9470200644e-01	 7.1644870510e+00
 9.5855055691e-01	 9.0408340941e-01	 7.2888542882e+00
 9.4969599287e-01	 9.1338028506e-01	 7.1523326360e+00
 9.4075042615e-01	 9.2259128915e-01	 6.8074537492e+00
 9.3171510142e-01	 9.3171510142e-01	 6.3052717264e+00
 9.2259128915e-01	 9.4075042615e-01	 5.6952923701e+00
 9.1338028506e-01	 9.4969599287e-01	 5.0254043106e+00
 9.0408340941e-01	 9.5855055691e-01	 4.3418120940e+00
 8.9470200644e-01	 9.6731289999e-01	 3.6889713317e+00
 8.8523744370e-01	 9.7598183078e-01	 3.1095260058e+00
 9.8251706792e-01	 8.9116505059e-01	 5.9432421874e+00
 9.7379008941e-01	 9.0069298865e-01	 6.5297892522e+00
 9.6496907312e-01	 9.1013721009e-01	 6.8038484134e+00
 9.5605521835e-01	 9.1949633822e-01	 6.8147544165e+00
 9.4704975154e-01	 9.2876901979e-01	 6.6103879363e+00
 9.3795392569e-01	 9.3795392569e-01	 6.2371089785e+00
 9.2876901979e-01	 9.4704975154e-01	 5.7396920994e+00
 9.1949633822e-01	 9.5605521835e-01	 5.1612635356e+00
 9.1013721009e-01	 9.6496907312e-01	 4.5432403318e+00
 9.0069298865e-01	 9.7379008941e-01	 3.9252715542e+00
 8.9116505059e-01	 9.8251706792e-01	 3.3451816739e+00
 9.8905230506e-01	 8.9709265748e-01	 4.9239511220e+00
 9.8026727883e-01	 9.0668397086e-01	 5.6407201157e+00
 9.7138758933e-01	 9.1619101078e-01	 6.0618022483e+00
 9.6241444383e-01	 9.2561239139e-01	 6.2291768482e+00
 9.5334907693e-01	 9.3494675044e-01	 6.1833693145e+00
 9.4419274996e-01	 9.4419274996e-01	 5.9633942481e+00
 9.3494675044e-01	 9.5334907693e-01	 5.6067003815e+00
 9.2561239139e-01	 9.6241444383e-01	 5.1491173805e+00
 9.1619101078e-01	 9.7138758933e-01	 4.6248045912e+00
 9.0668397086e-01	 9.8026727883e-01	 4.0662018020e+00
 8.9709265748e-01	 9.8905230506e-01	 3.5039820884e+00
 9.9558754220e-01	 9.0302026437e-01	 3.6808619130e+00
 9.8674446826e-01	 9.1267495307e-01	 4.5020064472e+00
 9.7780610554e-01	 9.2224481147e-01	 5.0595760676e+00
 9.6877366931e-01	 9.3172844455e-01	 5.3854921560e+00
 9.5964840232e-01	 9.4112448108e-01	 5.5102707770e+00
 9.5043157424e-01	 9.5043157424e-01	 5.4629793235e+00
 9.4112448108e-01	 9.5964840232e-01	 5.2711948658e+00
 9.3172844455e-01	 9.6877366931e-01	 4.9609642545e+00
 9.2224481147e-01	 9.7780610554e-01	 4.5567660269e+00
 9.1267495307e-01	 9.8674446826e-01	 4.0814741651e+00
 9.0302026437e-01	 9.9558754220e-01	 3.5563237506e+00
 1.0021227793e+00	 9.0894787126e-01	 2.2270595825e+00
 9.9322165768e-01	 9.1866593528e-01	 3.1182465187e+00
 9.8422462175e-01	 9.2829861215e-01	 3.7941067967e+00
 9.7513289479e-01	 9.3784449771e-01	 4.2738509177e+00
 9.6594772771e-01	 9.4730221172e-01	 4.5753804778e+00
 9.5667039851e-01	 9.5667039851e-01	 4.7152620738e+00
 9.4730221172e-01	 9.6594772771e-01	 4.7087027425e+00
 9.3784449771e-01	 9.7513289479e-01	 4.5695269555e+00
 9.2829861215e-01	 9.8422462175e-01	 4.3101551892e+00
 9.1866593528e-01	 9.9322165768e-01	 3.9415840897e+00
 9.0894787126e-01	 1.0021227793e+00	 3.4733682503e+00
 8.4967180238e-01	 9.3677040792e-01	 1.8423943123e+00
 8.4050744529e-01	 9.4500166493e-01	 1.6664583254e+00
 8.3126594802e-01	 9.5314100914e-01	 1.4972070811e+00
 8.2194870185e-01	 9.6118736245e-01	 1.3403143852e+00
 8.1255711779e-01	 9.6913967462e-01	 1.2009132796e+00
 8.0309262581e-01	 9.7699692376e-01	 1.0835886361e+00
 7.9355667418e-01	 9.8475811671e-01	 9.9237018307e-01
 7.8395072873e-01	 9.9242228952e-01	 9.3072597358e-01
 7.7427627210e-01	 9.9998850774e-01	 9.0155630842e-01
 7.6453480300e-01	 1.0074558669e+00	 9.0718812627e-01
 7.5472783548e-01	 1.0148234927e+00	 9.4936987468e-01
 8.5559940926e-01	 9.4330564507e-01	 1.8713567937e+00
 8.4637111842e-01	 9.5159432619e-01	 1.6338184877e+00
 8.3706514924e-01	 9.5979045331e-01	 1.4328816221e+00
 8.2768290272e-01	 9.6789294079e-01	 1.2673111557e+00
 8.1822579969e-01	 9.7590073106e-01	 1.1354230521e+00
 8.0869528011e-01	 9.8381279511e-01	 1.0350858490e+00
 7.9909280236e-01	 9.9162813285e-01	 9.6372247172e-01
 7.8941984248e-01	 9.9934577360e-01	 9.1831228849e-01
 7.7967789347e-01	 1.0069647764e+00	 8.9539340566e-01
 7.6986846449e-01	 1.0144842304e+00	 8.9106520405e-01
 7.5999308014e-01	 1.0219032553e+00	 9.0099111718e-01
 8.6152701615e-01	 9.4984088221e-01	 2.0186371388e+00
 8.5223479156e-01	 9.5818698745e-01	 1.7221464594e+00
 8.4286435047e-01	 9.6643989748e-01	 1.4859787184e+00
 8.3341710359e-01	 9.7459851912e-01	 1.3029873931e+00
 8.2389448159e-01	 9.8266178750e-01	 1.1656998072e+00
 8.1429793442e-01	 9.9062866646e-01	 1.0663262631e+00
 8.0462893054e-01	 9.9849814899e-01	 9.9676919411e-01
 7.9488895623e-01	 1.0062692577e+00	 9.4863232146e-01
 7.8507951483e-01	 1.0139410451e+00	 9.1322980565e-01
 7.7520212597e-01	 1.0215125940e+00	 8.8159538148e-01
 7.6525832479e-01	 1.0289830180e+00	 8.4449146916e-01
 8.6745462304e-01	 9.5637611935e-01	 2.2494743356e+00
 8.5809846470e-01	 9.6477964872e-01	 1.8985272166e+00
 8.4866355170e-01	 9.7308934164e-01	 1.6260059198e+00
 8.3915130446e-01	 9.8130409746e-01	 1.4198300979e+00
 8.2956316350e-01	 9.8942284394e-01	 1.2677467889e+00
 8.1990058872e-01	 9.9744453781e-01	 1.1573457174e+00
 8.1016505872e-01	 1.0053681651e+00	 1.0760743522e+00
 8.0035806999e-01	 1.0131927418e+00	 1.0112526991e+00
 7.9048113620e-01	 1.0209173137e+00	 9.5008780827e-01
 7.8053578745e-01	 1.0285409576e+00	 8.7968797850e-01
 7.7052356945e-01	 1.0360627807e+00	 7.8707664489e-01
 8.7338222993e-01	 9.6291135649e-01	 2.5300402840e+00
 8.6396213783e-01	 9.7137230998e-01	 2.1309280608e+00
 8.5446275293e-01	 9.7973878581e-01	 1.8232868199e+00
 8.4488550533e-01	 9.8800967579e-01	 1.5910608724e+00
 8.3523184540e-01	 9.9618390038e-01	 1.4182057875e+00
 8.2550324302e-01	 1.0042604092e+00	 1.2887084832e+00
 8.1570118689e-01	 1.0122381813e+00	 1.1866067748e+00
 8.0582718374e-01	 1.0201162258e+00	 1.0960083520e+00
 7.9588275757e-01	 1.0278935824e+00	 1.0011091601e+00
 7.8586944893e-01	 1.0355693211e+00	 8.8621116203e-01
 7.7578881410e-01	 1.0431425434e+00	 7.3573946240e-01
 8.7930983682e-01	 9.6944659363e-01	 2.8274088177e+00
 8.6982581097e-01	 9.7796497124e-01	 2.3881693440e+00
 8.6026195415e-01	 9.8638822998e-01	 2.0489340107e+00
 8.5061970620e-01	 9.9471525413e-01	 1.7906116143e+00
 8.4090052730e-01	 1.0029449568e+00	 1.5943360621e+00
 8.3110589733e-01	 1.0110762805e+00	 1.4414898889e+00
 8.2123731507e-01	 1.0191081974e+00	 1.3137268964e+00
 8.1129629749e-01	 1.0270397099e+00	 1.1929938813e+00
 8.0128437894e-01	 1.0348698510e+00	 1.0615514238e+00
 7.9120311041e-01	 1.0425976847e+00	 9.0199371166e-01
 7.8105405876e-01	 1.0502223061e+00	 6.9726737927e-01
 8.8523744370e-01	 9.7598183078e-01	 3.1095260058e+00
 8.7568948410e-01	 9.8455763250e-01	 2.6398964040e+00
 8.6606115538e-01	 9.9303767415e-01	 2.2748231577e+00
 8.5635390706e-01	 1.0014208325e+00	 1.9931012207e+00
 8.4656920920e-01	 1.0097060133e+00	 1.7739941449e+00
 8.3670855163e-01	 1.0178921519e+00	 1.5972596767e+00
 8.2677344325e-01	 1.0259782136e+00	 1.4431741021e+00
 8.1676541124e-01	 1.0339631940e+00	 1.2925553080e+00
 8.0668600031e-01	 1.0418461197e+00	 1.1267845277e+00
 7.9653677189e-01	 1.0496260483e+00	 9.2782674847e-01
 7.8631930341e-01	 1.0573020688e+00	 6.7824975971e-01
 8.9116505059e-01	 9.8251706792e-01	 3.3451816739e+00
 8.8155315724e-01	 9.9115029376e-01	 2.8565526548e+00
 8.7186035661e-01	 9.9968711831e-01	 2.4735681455e+00
 8.6208810793e-01	 1.0081264108e+00	 2.1738132570e+00
 8.5223789110e-01	 1.0164670697e+00	 1.9356144862e+00
 8.4231120594e-01	 1.0247080232e+00	 1.7380660588e+00
 8.3230957143e-01	 1.0328482297e+00	 1.5610546119e+00
 8.2223452499e-01	 1.0408866781e+00	 1.3852821845e+00
 8.1208762167e-01	 1.0488223884e+00	 1.1922874871e+00
 8.0187043338e-01	 1.0566544118e+00	 9.6446542890e-01
 7.9158454807e-01	 1.0643818315e+00	 6.8508488531e-01
 8.9709265748e-01	 9.8905230506e-01	 3.5039820884e+00
 8.8741683038e-01	 9.9774295503e-01	 3.0093537771e+00
 8.7765955784e-01	 1.0063365625e+00	 2.6184972416e+00
 8.6782230880e-01	 1.0148319891e+00	 2.3086745454e+00
 8.5790657300e-01	 1.0232281261e+00	 2.0581909009e+00
 8.4791386024e-01	 1.0315238946e+00	 1.8464204398e+00
 8.3784569961e-01	 1.0397182458e+00	 1.6538298790e+00
 8.2770363875e-01	 1.0478101622e+00	 1.4620000535e+00
 8.1748924304e-01	 1.0557986570e+00	 1.2536452898e+00
 8.0720409486e-01	 1.0636827754e+00	 1.0126306052e+00
 7.9684979272e-01	 1.0714615942e+00	 7.2398672145e-01
 9.0302026437e-01	 9.9558754220e-01	 3.5563237506e+00
 8.9328050351e-01	 1.0043356163e+00	 3.0702629610e+00
 8.8345875907e-01	 1.0129860066e+00	 2.6836302345e+00
 8.7355650967e-01	 1.0215375675e+00	 2.3742346308e+00
 8.6357525491e-01	 1.0299891826e+00	 2.1212587797e+00
 8.5351651454e-01	 1.0383397659e+00	 1.9052827740e+00
 8.4338182779e-01	 1.0465882620e+00	 1.7083054800e+00
 8.3317275250e-01	 1.0547336463e+00	 1.5137632383e+00
 8.2289086441e-01	 1.0627749257e+00	 1.3065459377e+00
 8.1253775634e-01	 1.0707111390e+00	 1.0730104541e+00
 8.0211503738e-01	 1.0785413569e+00	 8.0099145052e-01
 9.0894787126e-01	 1.0021227793e+00	 3.4733682503e+00
 8.9914417665e-01	 1.0109282776e+00	 3.0119671496e+00
 8.8925796029e-01	 1.0196354508e+00	 2.6436564988e+00
 8.7929071054e-01	 1.0282431458e+00	 2.3476460838e+00
 8.6924393681e-01	 1.0367502390e+00	 2.1048780302e+00
 8.5911916885e-01	 1.0451556373e+00	 1.8980475308e+00
 8.4891795597e-01	 1.0534582781e+00	 1.7116204726e+00
 8.3864186625e-01	 1.0616571303e+00	 1.5318479475e+00
 8.2829248578e-01	 1.0697511944e+00	 1.3467776377e+00
 8.1787141782e-01	 1.0777395025e+00	 1.1462620746e+00
 8.0738028204e-01	 1.0856211196e+00	 9.2196378254e-01
 7.5472783548e-01	 1.0148234927e+00	 9.4936987468e-01
 7.4485858041e-01	 1.0220893154e+00	 1.0156776118e+00
 7.3492691326e-01	 1.0292537870e+00	 1.0834919134e+00
 7.2493438309e-01	 1.0363161302e+00	 1.1291320578e+00
 7.1488255120e-01	 1.0432755991e+00	 1.1431187602e+00
 7.0477299035e-01	 1.0501314794e+00	 1.1184720507e+00
 6.9460728400e-01	 1.0568830886e+00	 1.0488913940e+00
 6.8438702546e-01	 1.0635297760e+00	 9.2874793560e-01
 6.7411381717e-01	 1.0700709229e+00	 7.5307653336e-01
 6.6378926983e-01	 1.0765059431e+00	 5.1756761573e-01
 6.5341500165e-01	 1.0828342824e+00	 2.1855890536e-01
 7.5999308014e-01	 1.0219032553e+00	 9.0099111718e-01
 7.5005497370e-01	 1.0292197670e+00	 9.2054036285e-01
 7.4005401978e-01	 1.0364342204e+00	 9.4384669727e-01
 7.2999177823e-01	 1.0435458330e+00	 9.5327499747e-01
 7.1986982125e-01	 1.0505538536e+00	 9.3448333011e-01
 7.0968973258e-01	 1.0574575630e+00	 8.8308063022e-01
 6.9945310671e-01	 1.0642562737e+00	 7.9544872948e-01
 6.8916154809e-01	 1.0709493307e+00	 6.6872990155e-01
 6.7881667031e-01	 1.0775361109e+00	 5.0081413064e-01
 6.6842009533e-01	 1.0840160240e+00	 2.9032615394e-01
 6.5797345264e-01	 1.0903885121e+00	 3.6612325059e-02
 7.6525832479e-01	 1.0289830180e+00	 8.4449146916e-01
 7.5525136699e-01	 1.0363502186e+00	 8.0552491038e-01
 7.4518112629e-01	 1.0436146539e+00	 7.7187036983e-01
 7.3504917337e-01	 1.0507755358e+00	 7.3683752669e-01
 7.2485709130e-01	 1.0578321081e+00	 6.8184933227e-01
 7.1460647481e-01	 1.0647836465e+00	 6.0291726146e-01
 7.0429892943e-01	 1.0716294588e+00	 4.9893973468e-01
 6.9393607072e-01	 1.0783688854e+00	 3.6959676007e-01
 6.8351952346e-01	 1.0850012990e+00	 2.1533320033e-01
 6.7305092083e-01	 1.0915261050e+00	 3.7341848946e-02
 6.6253190362e-01	 1.0979427418e+00	-1.6245363012e-01
 7.7052356945e-01	 1.0360627807e+00	 7.8707664489e-01
 7.6044776028e-01	 1.0434806702e+00	 6.8369528683e-01
 7.5030823281e-01	 1.0507950873e+00	 5.8858698072e-01
 7.4010656851e-01	 1.0580052387e+00	 5.0082929590e-01
 7.2984436136e-01	 1.0651103626e+00	 4.0828314355e-01
 7.1952321704e-01	 1.0721097300e+00	 3.0184841262e-01
 7.0914475215e-01	 1.0790026439e+00	 1.8277932383e-01
 6.9871059335e-01	 1.0857884401e+00	 5.3066122851e-02
 6.8822237660e-01	 1.0924664870e+00	-8.4584903337e-02
 6.7768174633e-01	 1.0990361860e+00	-2.2677147724e-01
 6.6709035461e-01	 1.1054969714e+00	-3.6941539006e-01
 7.7578881410e-01	 1.0431425434e+00	 7.3573946240e-01
 7.6564415357e-01	 1.0506111218e+00	 5.6774275091e-01
 7.5543533932e-01	 1.0579755208e+00	 4.1119772137e-01
 7.4516396364e-01	 1.0652349415e+00	 2.6773261369e-01
 7.3483163141e-01	 1.0723886171e+00	 1.3620419734e-01
 7.2443995927e-01	 1.0794358135e+00	 3.0709328885e-03
 7.1399057486e-01	 1.0863758290e+00	-1.3027579594e-01
 7.0348511597e-01	 1.0932079948e+00	-2.5975726414e-01
 6.9292522974e-01	 1.0999316750e+00	-3.8069260362e-01
 6.8231257183e-01	 1.1065462670e+00	-4.8782115233e-01
 6.7164880559e-01	 1.1130512011e+00	-5.7525472017e-01
 7.8105405876e-01	 1.0502223061e+00	 6.9726737927e-01
 7.7084054685e-01	 1.0577415734e+00	 4.6999869203e-01
 7.6056244583e-01	 1.0651559543e+00	 2.5637797306e-01
 7.5022135878e-01	 1.0724646443e+00	 6.0593045982e-02
 7.3981890146e-01	 1.0796668717e+00	-1.1259444436e-01
 7.2935670150e-01	 1.0867618971e+00	-2.7086662650e-01
 7.1883639758e-01	 1.0937490141e+00	-4.1810620072e-01
 7.0825963860e-01	 1.1006275495e+00	-5.4836213471e-01
 6.9762808288e-01	 1.1073968631e+00	-6.5525938798e-01
 6.8694339732e-01	 1.1140563480e+00	-7.3183392526e-01
 6.7620725658e-01	 1.1206054308e+00	-7.6973236425e-01
 7.8631930341e-01	 1.0573020688e+00	 6.7824975971e-01
 7.7603694014e-01	 1.0648720250e+00	 4.0244705005e-01
 7.6568955235e-01	 1.0723363877e+00	 1.4033842383e-01
 7.5527875392e-01	 1.0796943471e+00	-1.0128020839e-01
 7.4480617151e-01	 1.0869451262e+00	-3.1518348302e-01
 7.3427344373e-01	 1.0940879806e+00	-4.9804357462e-01
 7.2368222029e-01	 1.1011221992e+00	-6.5920969344e-01
 7.1303416123e-01	 1.1080471042e+00	-7.9281212220e-01
 7.0233093602e-01	 1.1148620511e+00	-8.9070486656e-01
 6.9157422282e-01	 1.1215664290e+00	-9.4348114796e-01
 6.8076570756e-01	 1.1281596605e+00	-9.4348059791e-01
 7.9158454807e-01	 1.0643818315e+00	 6.8508488531e-01
 7.8123333343e-01	 1.0720024766e+00	 3.7673627284e-01
 7.7081665886e-01	 1.0795168212e+00	 7.8840903329e-02
 7.6033614906e-01	 1.0869240500e+00	-1.9914674100e-01
 7.4979344156e-01	 1.0942233807e+00	-4.4763358026e-01
 7.3919018596e-01	 1.1014140641e+00	-6.5714748535e-01
 7.2852804301e-01	 1.1084953844e+00	-8.3268207436e-01
 7.1780868385e-01	 1.1154666590e+00	-9.7319587461e-01
 7.0703378917e-01	 1.1223272392e+00	-1.0680418838e+00
 6.9620504832e-01	 1.1290765099e+00	-1.1089034381e+00
 6.8532415854e-01	 1.1357138902e+00	-1.0878959924e+00
 7.9684979272e-01	 1.0714615942e+00	 7.2398672145e-01
 7.8642972672e-01	 1.0791329282e+00	 4.0419083320e-01
 7.7594376538e-01	 1.0866972546e+00	 8.7213622843e-02
 7.6539354420e-01	 1.0941537528e+00	-2.1477943831e-01
 7.5478071162e-01	 1.1015016352e+00	-4.8983883089e-01
 7.4410692819e-01	 1.1087401476e+00	-7.2625190317e-01
 7.3337386572e-01	 1.1158685695e+00	-9.1749610674e-01
 7.2258320648e-01	 1.1228862137e+00	-1.0681952127e+00
 7.1173664231e-01	 1.1297924272e+00	-1.1702185424e+00
 7.0083587382e-01	 1.1365865909e+00	-1.2150056771e+00
 6.8988260953e-01	 1.1432681199e+00	-1.1945851017e+00
 8.0211503738e-01	 1.0785413569e+00	 8.0099145052e-01
 7.9162612001e-01	 1.0862633799e+00	 4.9582232514e-01
 7.8107087189e-01	 1.0938776881e+00	 1.8036584803e-01
 7.7045093933e-01	 1.1013834556e+00	-1.3044721775e-01
 7.5976798167e-01	 1.1087798897e+00	-4.2231950060e-01
 7.4902367042e-01	 1.1160662312e+00	-6.8077638406e-01
 7.3821968844e-01	 1.1232417546e+00	-8.9122003106e-01
 7.2735772911e-01	 1.1303057684e+00	-1.0587682085e+00
 7.1643949545e-01	 1.1372576152e+00	-1.1809296835e+00
 7.0546669932e-01	 1.1440966719e+00	-1.2490190993e+00
 6.9444106051e-01	 1.1508223496e+00	-1.2553571786e+00
 8.0738028204e-01	 1.0856211196e+00	 9.2196378254e-01
 7.9682251330e-01	 1.0933938315e+00	 6.6234015896e-01
 7.8619797841e-01	 1.1010581216e+00	 3.7280203007e-01
 7.7550833447e-01	 1.1086131585e+00	 7.1101592965e-02
 7.6475525172e-01	 1.1160581442e+00	-2.2522717848e-01
 7.5394041265e-01	 1.1233923147e+00	-4.9802879266e-01
 7.4306551116e-01	 1.1306149397e+00	-7.3335353056e-01
 7.3213225174e-01	 1.1377253231e+00	-9.2659517092e-01
 7.2114234859e-01	 1.1447228033e+00	-1.0842780072e+00
 7.1009752482e-01	 1.1516067529e+00	-1.1984902867e+00
 6.9899951150e-01	 1.1583765792e+00	-1.2622171790e+00
 6.5341500165e-01	 1.0828342824e+00	 2.1855890536e-01
 6.4299263775e-01	 1.0890554195e+00	-9.5300809652e-02
 6.3252380994e-01	 1.0951688665e+00	-3.6636777566e-01
 6.2201015531e-01	 1.1011741682e+00	-5.8454737082e-01
 6.1145331523e-01	 1.1070709020e+00	-7.4004462076e-01
 6.0085493454e-01	 1.1128586778e+00	-8.2336725140e-01
 5.9021666079e-01	 1.1185371380e+00	-8.2533618487e-01
 5.7954014345e-01	 1.1241059573e+00	-7.3751050494e-01
 5.6882703310e-01	 1.1295648427e+00	-5.5185951423e-01
 5.5807898070e-01	 1.1349135336e+00	-2.6066750501e-01
 5.4729763683e-01	 1.1401518013e+00	 1.4346782341e-01
 6.5797345264e-01	 1.0903885121e+00	 3.6612325059e-02
 6.4747837869e-01	 1.0966530500e+00	-2.1837833502e-01
 6.3693651668e-01	 1.1028091465e+00	-4.2685457249e-01
 6.2634951513e-01	 1.1088563433e+00	-5.8052704951e-01
 6.1571902685e-01	 1.1147942148e+00	-6.7149805357e-01
 6.0504670816e-01	 1.1206223682e+00	-6.9234477394e-01
 5.9433421811e-01	 1.1263404433e+00	-6.3671550252e-01
 5.8358321765e-01	 1.1319481126e+00	-4.9878128601e-01
 5.7279536891e-01	 1.1374450811e+00	-2.7318455780e-01
 5.6197233435e-01	 1.1428310863e+00	 4.4967744574e-02
 5.5111577606e-01	 1.1481058980e+00	 4.6011129783e-01
 6.6253190362e-01	 1.0979427418e+00	-1.6245363012e-01
 6.5196411963e-01	 1.1042506805e+00	-3.5121412091e-01
 6.4134922343e-01	 1.1104494265e+00	-4.9306941319e-01
 6.3068887495e-01	 1.1165385184e+00	-5.8117552841e-01
 6.1998473847e-01	 1.1225175276e+00	-6.0949167730e-01
 6.0923848178e-01	 1.1283860585e+00	-5.7323169318e-01
 5.9845177542e-01	 1.1341437485e+00	-4.6821057332e-01
 5.8762629186e-01	 1.1397902678e+00	-2.9082873210e-01
 5.7676370472e-01	 1.1453253194e+00	-3.8061041218e-02
 5.6586568800e-01	 1.1507486390e+00	 2.9255447359e-01
 5.5493391529e-01	 1.1560599947e+00	 7.0292824198e-01
 6.6709035461e-01	 1.1054969714e+00	-3.6941539006e-01
 6.5644986057e-01	 1.1118483110e+00	-4.9004443109e-01
 6.4576193017e-01	 1.1180897066e+00	-5.6503590702e-01
 6.3502823477e-01	 1.1242206935e+00	-5.8954639302e-01
 6.2425045010e-01	 1.1302408404e+00	-5.5996049483e-01
 6.1343025541e-01	 1.1361497489e+00	-4.7333110001e-01
 6.0256933273e-01	 1.1419470538e+00	-3.2736585119e-01
 5.9166936606e-01	 1.1476324231e+00	-1.2041316386e-01
 5.8073204052e-01	 1.1532055578e+00	 1.4855216314e-01
 5.6975904164e-01	 1.1586661917e+00	 4.7994369833e-01
 5.5875205452e-01	 1.1640140914e+00	 8.7357844595e-01
 6.7164880559e-01	 1.1130512011e+00	-5.7525472017e-01
 6.6093560150e-01	 1.1194459415e+00	-6.3013535819e-01
 6.5017463691e-01	 1.1257299866e+00	-6.4233269577e-01
 6.3936759460e-01	 1.1319028687e+00	-6.0919242399e-01
 6.2851616172e-01	 1.1379641532e+00	-5.2875333203e-01
 6.1762202903e-01	 1.1439134392e+00	-3.9973165553e-01
 6.0668689005e-01	 1.1497503591e+00	-2.2150494867e-01
 5.9571244026e-01	 1.1554745784e+00	 5.9044650803e-03
 5.8470037633e-01	 1.1610857962e+00	 2.8184641104e-01
 5.7365239529e-01	 1.1665837444e+00	 6.0506010011e-01
 5.6257019375e-01	 1.1719681881e+00	 9.7369163679e-01
 6.7620725658e-01	 1.1206054308e+00	-7.6973236425e-01
 6.6542134244e-01	 1.1270435720e+00	-7.6694577942e-01
 6.5458734366e-01	 1.1333702667e+00	-7.2525798323e-01
 6.4370695442e-01	 1.1395850438e+00	-6.4359747218e-01
 6.3278187334e-01	 1.1456874660e+00	-5.2154466559e-01
 6.2181380265e-01	 1.1516771296e+00	-3.5931432137e-01
 6.1080444736e-01	 1.1575536643e+00	-1.5773757102e-01
 5.9975551447e-01	 1.1633167337e+00	 8.1756368692e-02
 5.8866871214e-01	 1.1689660346e+00	 3.5715875248e-01
 5.7754574893e-01	 1.1745012971e+00	 6.6590007977e-01
 5.6638833298e-01	 1.1799222848e+00	 1.0048690353e+00
 6.8076570756e-01	 1.1281596605e+00	-9.4348059791e-01
 6.6990708338e-01	 1.1346412025e+00	-8.9669050014e-01
 6.5900005040e-01	 1.1410105467e+00	-8.1409001504e-01
 6.4804631424e-01	 1.1472672189e+00	-6.9613505054e-01
 6.3704758496e-01	 1.1534107788e+00	-5.4383998122e-01
 6.2600557627e-01	 1.1594408199e+00	-3.5875882037e-01
 6.1492200467e-01	 1.1653569696e+00	-1.4296617213e-01
 6.0379858867e-01	 1.1711588890e+00	 1.0096197813e-01
 5.9263704795e-01	 1.1768462729e+00	 3.6996758027e-01
 5.8143910258e-01	 1.1824188498e+00	 6.6052989085e-01
 5.7020647220e-01	 1.1878763815e+00	 9.6868485130e-01
 6.8532415854e-01	 1.1357138902e+00	-1.0878959924e+00
 6.7439282432e-01	 1.1422388330e+00	-1.0156677868e+00
 6.6341275714e-01	 1.1486508268e+00	-9.0908230261e-01
 6.5238567406e-01	 1.1549493941e+00	-7.7007154490e-01
 6.4131329658e-01	 1.1611340916e+00	-6.0098091927e-01
 6.3019734989e-01	 1.1672045102e+00	-4.0454984018e-01
 6.1903956198e-01	 1.1731602748e+00	-1.8389234512e-01
 6.0784166287e-01	 1.1790010443e+00	 5.7522228803e-02
 5.9660538376e-01	 1.1847265113e+00	 3.1588845258e-01
 5.8533245622e-01	 1.1903364025e+00	 5.8708384806e-01
 5.7402461143e-01	 1.1958304782e+00	 8.6668772019e-01
 6.8988260953e-01	 1.1432681199e+00	-1.1945851017e+00
 6.7887856526e-01	 1.1498364636e+00	-1.1202561919e+00
 6.6782546389e-01	 1.1562911068e+00	-1.0104640037e+00
 6.5672503388e-01	 1.1626315692e+00	-8.6856929897e-01
 6.4557900820e-01	 1.1688574044e+00	-6.9815021730e-01
 6.3438912351e-01	 1.1749682006e+00	-5.0298299165e-01
 6.2315711930e-01	 1.1809635801e+00	-2.8702296001e-01
 6.1188473708e-01	 1.1868431996e+00	-5.4385926144e-02
 6.0057371956e-01	 1.1926067497e+00	 1.9067008144e-01
 5.8922580987e-01	 1.1982539552e+00	 4.4376260731e-01
 5.7784275066e-01	 1.2037845749e+00	 7.0040208334e-01
 6.9444106051e-01	 1.1508223496e+00	-1.2553571786e+00
 6.8336430619e-01	 1.1574340941e+00	-1.2069115067e+00
 6.7223817063e-01	 1.1639313869e+00	-1.1184402899e+00
 6.6106439370e-01	 1.1703137443e+00	-9.9468957935e-01
 6.4984471983e-01	 1.1765807172e+00	-8.4037645926e-01
 6.3858089713e-01	 1.1827318909e+00	-6.6017053323e-01
 6.2727467661e-01	 1.1887668854e+00	-4.5867605996e-01
 6.1592781128e-01	 1.1946853549e+00	-2.4041478619e-01
 6.0454205537e-01	 1.2004869881e+00	-9.8095204929e-03
 5.9311916351e-01	 1.2061715080e+00	 2.2883151407e-01
 5.8166088989e-01	 1.2117386716e+00	 4.7132951517e-01
 6.9899951150e-01	 1.1583765792e+00	-1.2622171790e+00
 6.8785004713e-01	 1.1650317246e+00	-1.2721638346e+00
 6.7665087737e-01	 1.1715716669e+00	-1.2331927016e+00
 6.6540375352e-01	 1.1779959194e+00	-1.1513954261e+00
 6.5411043145e-01	 1.1843040300e+00	-1.0325386399e+00
 6.4277267076e-01	 1.1904955813e+00	-8.8204687225e-01
 6.3139223392e-01	 1.1965701906e+00	-7.0498652721e-01
 6.1997088548e-01	 1.2025275101e+00	-5.0605096766e-01
 6.0851039118e-01	 1.2083672264e+00	-2.8954674205e-01
 5.9701251716e-01	 1.2140890607e+00	-5.9380982925e-02
 5.8547902912e-01	 1.2196927683e+00	 1.8094999910e-01
 5.4729763683e-01	 1.1401518013e+00	 1.4346782341e-01
 5.3648280987e-01	 1.1452803116e+00	 5.9006334588e-01
 5.2563797785e-01	 1.1502979987e+00	 1.0029267088e+00
 5.1476478594e-01	 1.1552047288e+00	 1.3806649918e+00
 5.0386487593e-01	 1.1600003990e+00	 1.7215831398e+00
 4.9293988553e-01	 1.1646849381e+00	 2.0236953628e+00
 4.8199144765e-01	 1.1692583055e+00	 2.2847364737e+00
 4.7102118972e-01	 1.1737204915e+00	 2.5021731513e+00
 4.6003073296e-01	 1.1780715168e+00	 2.6732151089e+00
 4.4902169174e-01	 1.1823114322e+00	 2.7948261597e+00
 4.3799567291e-01	 1.1864403182e+00	 2.8637351645e+00
 5.5111577606e-01	 1.1481058980e+00	 4.6011129783e-01
 5.4022550109e-01	 1.1532701865e+00	 9.0039006427e-01
 5.2930501175e-01	 1.1583228788e+00	 1.2917922750e+00
 5.1835596466e-01	 1.1632638399e+00	 1.6353504040e+00
 5.0738001307e-01	 1.1680929665e+00	 1.9320102950e+00
 4.9637880612e-01	 1.1728101865e+00	 2.1826361692e+00
 4.8535398812e-01	 1.1774154593e+00	 2.3880153612e+00
 4.7430719784e-01	 1.1819087751e+00	 2.5488627788e+00
 4.6324006783e-01	 1.1862901547e+00	 2.6658250884e+00
 4.5215422370e-01	 1.1905596492e+00	 2.7394846240e+00
 4.4105128351e-01	 1.1947173398e+00	 2.7703630267e+00
 5.5493391529e-01	 1.1560599947e+00	 7.0292824198e-01
 5.4396819232e-01	 1.1612600615e+00	 1.1235183356e+00
 5.3297204564e-01	 1.1663477589e+00	 1.4856066136e+00
 5.2194714337e-01	 1.1713229511e+00	 1.7922295865e+00
 5.1089515021e-01	 1.1761855339e+00	 2.0465132705e+00
 4.9981772672e-01	 1.1809354349e+00	 2.2516729295e+00
 4.8871652860e-01	 1.1855726132e+00	 2.4110123689e+00
 4.7759320597e-01	 1.1900970587e+00	 2.5279227884e+00
 4.6644940269e-01	 1.1945087925e+00	 2.6058812051e+00
 4.5528675565e-01	 1.1988078661e+00	 2.6484484605e+00
 4.4410689411e-01	 1.2029943613e+00	 2.6592668270e+00
 5.5875205452e-01	 1.1640140914e+00	 8.7357844595e-01
 5.4771088354e-01	 1.1692499365e+00	 1.2649859115e+00
 5.3663907953e-01	 1.1743726390e+00	 1.5929372092e+00
 5.2553832208e-01	 1.1793820623e+00	 1.8620625023e+00
 5.1441028735e-01	 1.1842781013e+00	 2.0772187673e+00
 5.0325664731e-01	 1.1890606833e+00	 2.2434853826e+00
 4.9207906907e-01	 1.1937297670e+00	 2.3661591264e+00
 4.8087921410e-01	 1.1982853423e+00	 2.4507486009e+00
 4.6965873756e-01	 1.2027274304e+00	 2.5029681025e+00
 4.5841928761e-01	 1.2070560831e+00	 2.5287309626e+00
 4.4716250471e-01	 1.2112713829e+00	 2.5341423827e+00
 5.6257019375e-01	 1.1719681881e+00	 9.7369163679e-01
 5.5145357476e-01	 1.1772398114e+00	 1.3301948264e+00
 5.4030611342e-01	 1.1823975192e+00	 1.6221331560e+00
 5.2912950080e-01	 1.1874411734e+00	 1.8553307340e+00
 5.1792542449e-01	 1.1923706688e+00	 2.0359374877e+00
 5.0669556791e-01	 1.1971859318e+00	 2.1704216963e+00
 4.9544160954e-01	 1.2018869208e+00	 2.2655618258e+00
 4.8416522222e-01	 1.2064736259e+00	 2.3284376881e+00
 4.7286807242e-01	 1.2109460682e+00	 2.3664209526e+00
 4.6155181956e-01	 1.2153043001e+00	 2.3871650411e+00
 4.5021811531e-01	 1.2195484044e+00	 2.3985944383e+00
 5.6638833298e-01	 1.1799222848e+00	 1.0048690353e+00
 5.5519626599e-01	 1.1852296864e+00	 1.3244165208e+00
 5.4397314732e-01	 1.1904223993e+00	 1.5813330701e+00
 5.3272067951e-01	 1.1955002846e+00	 1.7822474193e+00
 5.2144056162e-01	 1.2004632362e+00	 1.9341753381e+00
 5.1013448850e-01	 1.2053111802e+00	 2.0445101935e+00
 4.9880415001e-01	 1.2100440746e+00	 2.1210127389e+00
 4.8745123035e-01	 1.2146619095e+00	 2.1718001588e+00
 4.7607740729e-01	 1.2191647061e+00	 2.2053344012e+00
 4.6468435151e-01	 1.2235525171e+00	 2.2304098329e+00
 4.5327372591e-01	 1.2278254259e+00	 2.2561402563e+00
 5.7020647220e-01	 1.1878763815e+00	 9.6868485130e-01
 5.5893895721e-01	 1.1932195614e+00	 1.2527967584e+00
 5.4764018121e-01	 1.1984472794e+00	 1.4784726854e+00
 5.3631185822e-01	 1.2035593958e+00	 1.6527667894e+00
 5.2495569876e-01	 1.2085558036e+00	 1.7831441852e+00
 5.1357340909e-01	 1.2134364286e+00	 1.8774706101e+00
 5.0216669048e-01	 1.2182012284e+00	 1.9440012730e+00
 4.9073723847e-01	 1.2228501930e+00	 1.9913689209e+00
 4.7928674215e-01	 1.2273833439e+00	 2.0285711567e+00
 4.6781688346e-01	 1.2318007341e+00	 2.0649570479e+00
 4.5632933651e-01	 1.2361024475e+00	 2.1102130650e+00
 5.7402461143e-01	 1.1958304782e+00	 8.6668772019e-01
 5.6268164843e-01	 1.2012094364e+00	 1.1203603498e+00
 5.5130721510e-01	 1.2064721595e+00	 1.3212921473e+00
 5.3990303693e-01	 1.2116185069e+00	 1.4765933280e+00
 5.2847083590e-01	 1.2166483711e+00	 1.5937721832e+00
 5.1701232969e-01	 1.2215616770e+00	 1.6807249054e+00
 5.0552923095e-01	 1.2263583823e+00	 1.7457245889e+00
 4.9402324660e-01	 1.2310384766e+00	 1.7974094413e+00
 4.8249607701e-01	 1.2356019818e+00	 1.8447702388e+00
 4.7094941542e-01	 1.2400489511e+00	 1.8971370648e+00
 4.5938494711e-01	 1.2443794690e+00	 1.9641653733e+00
 5.7784275066e-01	 1.2037845749e+00	 7.0040208334e-01
 5.6642433966e-01	 1.2091993113e+00	 9.3201568894e-01
 5.5497424899e-01	 1.2144970396e+00	 1.1173430195e+00
 5.4349421564e-01	 1.2196776181e+00	 1.2631905691e+00
 5.3198597304e-01	 1.2247409385e+00	 1.3767136946e+00
 5.2045125028e-01	 1.2296869254e+00	 1.4654076458e+00
 5.0889177143e-01	 1.2345155361e+00	 1.5370977989e+00
 4.9730925472e-01	 1.2392267602e+00	 1.5999291210e+00
 4.8570541188e-01	 1.2438206197e+00	 1.6623549021e+00
 4.7408194737e-01	 1.2482971680e+00	 1.7331247876e+00
 4.6244055771e-01	 1.2526564905e+00	 1.8212721548e+00
 5.8166088989e-01	 1.2117386716e+00	 4.7132951517e-01
 5.7016703088e-01	 1.2171891863e+00	 6.9255911280e-01
 5.5864128289e-01	 1.2225219197e+00	 8.7399501549e-01
 5.4708539436e-01	 1.2277367293e+00	 1.0217895502e+00
 5.3550111017e-01	 1.2328335059e+00	 1.1423588214e+00
 5.2389017087e-01	 1.2378121738e+00	 1.2423759825e+00
 5.1225431190e-01	 1.2426726899e+00	 1.3287637664e+00
 5.0059526285e-01	 1.2474150438e+00	 1.4086863031e+00
 4.8891474675e-01	 1.2520392575e+00	 1.4895402505e+00
 4.7721447932e-01	 1.2565453850e+00	 1.5789452745e+00
 4.6549616831e-01	 1.2609335121e+00	 1.6847339114e+00
 5.8547902912e-01	 1.2196927683e+00	 1.8094999910e-01
 5.7390972211e-01	 1.2251790613e+00	 4.0667909109e-01
 5.6230831678e-01	 1.2305467998e+00	 5.9844246863e-01
 5.5067657307e-01	 1.2357958404e+00	 7.6139693552e-01
 5.3901624731e-01	 1.2409260734e+00	 9.0084256602e-01
 5.2732909147e-01	 1.2459374222e+00	 1.0222192395e+00
 5.1561685237e-01	 1.2508298437e+00	 1.1311025243e+00
 5.0388127097e-01	 1.2556033274e+00	 1.2331989309e+00
 4.9212408161e-01	 1.2602578954e+00	 1.3343405568e+00
 4.8034701128e-01	 1.2647936020e+00	 1.4404791495e+00
 4.6855177891e-01	 1.2692105336e+00	 1.5576796179e+00
 4.3799567291e-01	 1.1864403182e+00	 2.8637351645e+00
 4.2695615308e-01	 1.1904576115e+00	 2.9077515470e+00
 4.1590284802e-01	 1.1943641616e+00	 2.9478651844e+00
 4.0483733686e-01	 1.1981601358e+00	 2.9707153924e+00
 3.9376118865e-01	 1.2018457296e+00	 2.9633907522e+00
 3.8267596183e-01	 1.2054211666e+00	 2.9134388584e+00
 3.7158320363e-01	 1.2088866979e+00	 2.8088750766e+00
 3.6048444952e-01	 1.2122426019e+00	 2.6482745620e+00
 3.4938122261e-01	 1.2154891835e+00	 2.4359502223e+00
 3.3827503318e-01	 1.2186267741e+00	 2.1620682665e+00
 3.2716737810e-01	 1.2216557311e+00	 1.8172213800e+00
 4.4105128351e-01	 1.1947173398e+00	 2.7703630267e+00
 4.2993474813e-01	 1.1987626590e+00	 2.7932370138e+00
 4.1880433137e-01	 1.2026964626e+00	 2.8319421546e+00
 4.0766162334e-01	 1.2065189189e+00	 2.8707658212e+00
 3.9650820405e-01	 1.2102302247e+00	 2.8943095121e+00
 3.8534564283e-01	 1.2138306052e+00	 2.8875043251e+00
 3.7417549768e-01	 1.2173203133e+00	 2.8356254970e+00
 3.6299931479e-01	 1.2206996291e+00	 2.7298104559e+00
 3.5181862790e-01	 1.2239688600e+00	 2.5744819246e+00
 3.4063495781e-01	 1.2271283396e+00	 2.3580426155e+00
 3.2944981186e-01	 1.2301784277e+00	 2.0679425819e+00
 4.4410689411e-01	 1.2029943613e+00	 2.6592668270e+00
 4.3291334319e-01	 1.2070677066e+00	 2.6763457137e+00
 4.2170581472e-01	 1.2110287637e+00	 2.7234842634e+00
 4.1048590982e-01	 1.2148777020e+00	 2.7832096496e+00
 3.9925521946e-01	 1.2186147198e+00	 2.8382508599e+00
 3.8801532382e-01	 1.2222400438e+00	 2.8715587199e+00
 3.7676779173e-01	 1.2257539286e+00	 2.8663250326e+00
 3.6551418005e-01	 1.2291566564e+00	 2.8083492823e+00
 3.5425603318e-01	 1.2324485366e+00	 2.7001393933e+00
 3.4299488244e-01	 1.2356299051e+00	 2.5303020066e+00
 3.3173224561e-01	 1.2387011242e+00	 2.2838709289e+00
 4.4716250471e-01	 1.2112713829e+00	 2.5341423827e+00
 4.3589193825e-01	 1.2153727542e+00	 2.5573831878e+00
 4.2460729806e-01	 1.2193610647e+00	 2.6199870842e+00
 4.1331019630e-01	 1.2232364850e+00	 2.7032988942e+00
 4.0200223487e-01	 1.2269992148e+00	 2.7887754849e+00
 3.9068500482e-01	 1.2306494823e+00	 2.8580091810e+00
 3.7936008577e-01	 1.2341875439e+00	 2.8927503362e+00
 3.6802904532e-01	 1.2376136837e+00	 2.8754699993e+00
 3.5669343846e-01	 1.2409282131e+00	 2.8048895688e+00
 3.4535480707e-01	 1.2441314706e+00	 2.6716793851e+00
 3.3401467937e-01	 1.2472238207e+00	 2.4591677651e+00
 4.5021811531e-01	 1.2195484044e+00	 2.3985944383e+00
 4.3887053331e-01	 1.2236778018e+00	 2.4366551604e+00
 4.2750878141e-01	 1.2276933657e+00	 2.5190218463e+00
 4.1613448278e-01	 1.2315952681e+00	 2.6264212992e+00
 4.0474925027e-01	 1.2353837099e+00	 2.7396248618e+00
 3.9335468582e-01	 1.2390589209e+00	 2.8394740725e+00
 3.8195237982e-01	 1.2426211592e+00	 2.9069055125e+00
 3.7054391059e-01	 1.2460707109e+00	 2.9229748385e+00
 3.5913084374e-01	 1.2494078897e+00	 2.8809128815e+00
 3.4771473171e-01	 1.2526330361e+00	 2.7751965917e+00
 3.3629711312e-01	 1.2557465173e+00	 2.5881462723e+00
 4.5327372591e-01	 1.2278254259e+00	 2.2561402563e+00
 4.4184912837e-01	 1.2319828493e+00	 2.3144680429e+00
 4.3041026476e-01	 1.2360256667e+00	 2.4182333845e+00
 4.1895876926e-01	 1.2399540512e+00	 2.5480962477e+00
 4.0749626568e-01	 1.2437682049e+00	 2.6847156297e+00
 3.9602436682e-01	 1.2474683594e+00	 2.8087763222e+00
 3.8454467387e-01	 1.2510547745e+00	 2.9010148936e+00
 3.7305877585e-01	 1.2545277382e+00	 2.9422448776e+00
 3.6156824903e-01	 1.2578875662e+00	 2.9205967727e+00
 3.5007465634e-01	 1.2611346015e+00	 2.8340586366e+00
 3.3857954688e-01	 1.2642692138e+00	 2.6652669200e+00
 4.5632933651e-01	 1.2361024475e+00	 2.1102130650e+00
 4.4482772342e-01	 1.2402878969e+00	 2.1911294204e+00
 4.3331174810e-01	 1.2443579678e+00	 2.3153381723e+00
 4.2178305574e-01	 1.2483128342e+00	 2.4639708408e+00
 4.1024328109e-01	 1.2521527000e+00	 2.6181342002e+00
 3.9869404781e-01	 1.2558777980e+00	 2.7589370315e+00
 3.8713696792e-01	 1.2594883898e+00	 2.8675161083e+00
 3.7557364112e-01	 1.2629847655e+00	 2.9250614073e+00
 3.6400565431e-01	 1.2663672428e+00	 2.9165294983e+00
 3.5243458097e-01	 1.2696361670e+00	 2.8416482243e+00
 3.4086198063e-01	 1.2727919104e+00	 2.6851331185e+00
 4.5938494711e-01	 1.2443794690e+00	 1.9641653733e+00
 4.4780631848e-01	 1.2485929445e+00	 2.0669485223e+00
 4.3621323145e-01	 1.2526902688e+00	 2.2081224383e+00
 4.2460734222e-01	 1.2566716173e+00	 2.3698161353e+00
 4.1299029649e-01	 1.2605371951e+00	 2.5341315835e+00
 4.0136372881e-01	 1.2642872365e+00	 2.6831693418e+00
 3.8972926196e-01	 1.2679220051e+00	 2.7990534308e+00
 3.7808850639e-01	 1.2714417927e+00	 2.8639554413e+00
 3.6644305959e-01	 1.2748469193e+00	 2.8614942021e+00
 3.5479450560e-01	 1.2781377325e+00	 2.7915205183e+00
 3.4314441439e-01	 1.2813146069e+00	 2.6424870647e+00
 4.6244055771e-01	 1.2526564905e+00	 1.8212721548e+00
 4.5078491354e-01	 1.2568979920e+00	 1.9422366760e+00
 4.3911471479e-01	 1.2610225698e+00	 2.0944403588e+00
 4.2743162870e-01	 1.2650304004e+00	 2.2615235343e+00
 4.1573731190e-01	 1.2689216901e+00	 2.4271184226e+00
 4.0403340981e-01	 1.2726966751e+00	 2.5748725482e+00
 3.9232155601e-01	 1.2763556204e+00	 2.6884713959e+00
 3.8060337166e-01	 1.2798988200e+00	 2.7516603059e+00
 3.6888046488e-01	 1.2833265959e+00	 2.7484632467e+00
 3.5715443023e-01	 1.2866392980e+00	 2.6773981341e+00
 3.4542684815e-01	 1.2898373034e+00	 2.5322057726e+00
 4.6549616831e-01	 1.2609335121e+00	 1.6847339114e+00
 4.5376350860e-01	 1.2652030396e+00	 1.8173077468e+00
 4.4201619814e-01	 1.2693548709e+00	 1.9722123253e+00
 4.3025591518e-01	 1.2733891834e+00	 2.1351013227e+00
 4.1848432731e-01	 1.2773061852e+00	 2.2916602261e+00
 4.0670309081e-01	 1.2811061136e+00	 2.4276264476e+00
 3.9491385006e-01	 1.2847892357e+00	 2.5288086694e+00
 3.8311823692e-01	 1.2883558473e+00	 2.5811054262e+00
 3.7131787016e-01	 1.2918062724e+00	 2.5705229326e+00
 3.5951435487e-01	 1.2951408634e+00	 2.4931663506e+00
 3.4770928190e-01	 1.2983600000e+00	 2.3492972791e+00
 4.6855177891e-01	 1.2692105336e+00	 1.5576796179e+00
 4.5674210366e-01	 1.2735080872e+00	 1.6924785628e+00
 4.4491768149e-01	 1.2776871719e+00	 1.8394232823e+00
 4.3308020167e-01	 1.2817479665e+00	 1.9866713408e+00
 4.2123134272e-01	 1.2856906802e+00	 2.1224727906e+00
 4.0937277181e-01	 1.2895155522e+00	 2.2351859109e+00
 3.9750614411e-01	 1.2932228510e+00	 2.3132921604e+00
 3.8563310219e-01	 1.2968128745e+00	 2.3454103592e+00
 3.7375527545e-01	 1.3002859490e+00	 2.3203101153e+00
 3.6187427950e-01	 1.3036424289e+00	 2.2328685292e+00
 3.4999171566e-01	 1.3068826965e+00	 2.0888970184e+00
 3.2716737810e-01	 1.2216557311e+00	 1.8172213800e+00
 3.1605974053e-01	 1.2245764373e+00	 1.4395495017e+00
 3.0495358983e-01	 1.2273893016e+00	 1.0787198176e+00
 2.9385038065e-01	 1.2300947574e+00	 7.4290198653e-01
 2.8275155227e-01	 1.2326932625e+00	 4.4007272552e-01
 2.7165852822e-01	 1.2351852976e+00	 1.7800566922e-01
 2.6057271584e-01	 1.2375713667e+00	-3.5738127157e-02
 2.4949550584e-01	 1.2398519961e+00	-1.9381904311e-01
 2.3842827199e-01	 1.2420277338e+00	-2.8912711169e-01
 2.2737237065e-01	 1.2440991495e+00	-3.1478960966e-01
 2.1632914054e-01	 1.2460668334e+00	-2.6417802864e-01
 3.2944981186e-01	 1.2301784277e+00	 2.0679425819e+00
 3.1826468353e-01	 1.2331195097e+00	 1.7349606477e+00
 3.0708105245e-01	 1.2359519975e+00	 1.4041330877e+00
 2.9590038340e-01	 1.2386763276e+00	 1.0845383231e+00
 2.8472412573e-01	 1.2412929607e+00	 7.8509601873e-01
 2.7355371288e-01	 1.2438023811e+00	 5.1455490765e-01
 2.6239056200e-01	 1.2462050963e+00	 2.8148127930e-01
 2.5123607352e-01	 1.2485016361e+00	 9.4248129321e-02
 2.4009163078e-01	 1.2506925525e+00	-3.8975031338e-02
 2.2895859963e-01	 1.2527784191e+00	-1.1023171391e-01
 2.1783832809e-01	 1.2547598303e+00	-1.1178734393e-01
 3.3173224561e-01	 1.2387011242e+00	 2.2838709289e+00
 3.2046962653e-01	 1.2416625821e+00	 1.9864007931e+00
 3.0920851507e-01	 1.2445146934e+00	 1.6797628239e+00
 2.9795038616e-01	 1.2472578977e+00	 1.3736671635e+00
 2.8669669919e-01	 1.2498926589e+00	 1.0776894445e+00
 2.7544889753e-01	 1.2524194647e+00	 8.0125713026e-01
 2.6420840816e-01	 1.2548388259e+00	 5.5363653818e-01
 2.5297664121e-01	 1.2571512761e+00	 3.4392054698e-01
 2.4175498958e-01	 1.2593573713e+00	 1.8101698518e-01
 2.3054482860e-01	 1.2614576888e+00	 7.3637696790e-02
 2.1934751563e-01	 1.2634528272e+00	 3.0288276846e-02
 3.3401467937e-01	 1.2472238207e+00	 2.4591677651e+00
 3.2267456953e-01	 1.2502056545e+00	 2.1894493369e+00
 3.1133597769e-01	 1.2530773893e+00	 1.9023382149e+00
 3.0000038892e-01	 1.2558394678e+00	 1.6079057527e+00
 2.8866927265e-01	 1.2584923571e+00	 1.3161032081e+00
 2.7734408219e-01	 1.2610365482e+00	 1.0367471426e+00
 2.6602625432e-01	 1.2634725554e+00	 7.7950552529e-01
 2.5471720889e-01	 1.2658009162e+00	 5.5388454239e-01
 2.4341834838e-01	 1.2680221900e+00	 3.6921611060e-01
 2.3213105757e-01	 1.2701369584e+00	 2.3464609031e-01
 2.2085670318e-01	 1.2721458241e+00	 1.5912319140e-01
 3.3629711312e-01	 1.2557465173e+00	 2.5881462723e+00
 3.2487951253e-01	 1.2587487269e+00	 2.3397981157e+00
 3.1346344031e-01	 1.2616400853e+00	 2.0686688656e+00
 3.0205039168e-01	 1.2644210380e+00	 1.7849269325e+00
 2.9064184611e-01	 1.2670920553e+00	 1.4986253154e+00
 2.7923926685e-01	 1.2696536317e+00	 1.2196865969e+00
 2.6784410049e-01	 1.2721062850e+00	 9.5788866608e-01
 2.5645777657e-01	 1.2744505562e+00	 7.2285116973e-01
 2.4508170717e-01	 1.2766870088e+00	 5.2402269012e-01
 2.3371728655e-01	 1.2788162281e+00	 3.7066864386e-01
 2.2236589073e-01	 1.2808388210e+00	 2.7185989458e-01
 3.3857954688e-01	 1.2642692138e+00	 2.6652669200e+00
 3.2708445554e-01	 1.2672917993e+00	 2.4332481137e+00
 3.1559090293e-01	 1.2702027812e+00	 2.1756425199e+00
 3.0410039444e-01	 1.2730026081e+00	 1.9024576389e+00
 2.9261441957e-01	 1.2756917535e+00	 1.6235806125e+00
 2.8113445150e-01	 1.2782707152e+00	 1.3487633460e+00
 2.6966194665e-01	 1.2807400145e+00	 1.0876083831e+00
 2.5819834425e-01	 1.2831001962e+00	 8.4955553191e-01
 2.4674506597e-01	 1.2853518275e+00	 6.4386924022e-01
 2.3530351552e-01	 1.2874954977e+00	 4.7962671307e-01
 2.2387507828e-01	 1.2895318179e+00	 3.6570676287e-01
 3.4086198063e-01	 1.2727919104e+00	 2.6851331185e+00
 3.2928939854e-01	 1.2758348717e+00	 2.4657063217e+00
 3.1771836555e-01	 1.2787654771e+00	 2.2202228924e+00
 3.0615039720e-01	 1.2815841782e+00	 1.9582774758e+00
 2.9458699304e-01	 1.2842914517e+00	 1.6893298773e+00
 2.8302963616e-01	 1.2868877987e+00	 1.4226908361e+00
 2.7147979281e-01	 1.2893737441e+00	 1.1675085783e+00
 2.5993891193e-01	 1.2917498362e+00	 9.3275614598e-01
 2.4840842477e-01	 1.2940166462e+00	 7.2721949791e-01
 2.3688974449e-01	 1.2961747674e+00	 5.5948637185e-01
 2.2538426583e-01	 1.2982248148e+00	 4.3793589795e-01
 3.4314441439e-01	 1.2813146069e+00	 2.6424870647e+00
 3.3149434154e-01	 1.2843779441e+00	 2.4331827414e+00
 3.1984582817e-01	 1.2873281730e+00	 2.1994476034e+00
 3.0820039996e-01	 1.2901657484e+00	 1.9502173615e+00
 2.9655956650e-01	 1.2928911499e+00	 1.6942689632e+00
 2.8492482082e-01	 1.2955048822e+00	 1.4402075373e+00
 2.7329763897e-01	 1.2980074737e+00	 1.1964541474e+00
 2.6167947961e-01	 1.3003994763e+00	 9.7123434498e-01
 2.5007178357e-01	 1.3026814650e+00	 7.7256751803e-01
 2.3847597347e-01	 1.3048540370e+00	 6.0825701964e-01
 2.2689345338e-01	 1.3069178117e+00	 4.8588106441e-01
 3.4542684815e-01	 1.2898373034e+00	 2.5322057726e+00
 3.3369928454e-01	 1.2929210165e+00	 2.3317875250e+00
 3.2197329079e-01	 1.2958908690e+00	 2.1104262129e+00
 3.1025040272e-01	 1.2987473185e+00	 1.8761582445e+00
 2.9853213996e-01	 1.3014908481e+00	 1.6368279898e+00
 2.8682000547e-01	 1.3041219657e+00	 1.4000764104e+00
 2.7511548514e-01	 1.3066412032e+00	 1.1733305267e+00
 2.6342004730e-01	 1.3090491163e+00	 9.6379371465e-01
 2.5173514237e-01	 1.3113462837e+00	 7.7843681646e-01
 2.4006220244e-01	 1.3135333067e+00	 6.2399005309e-01
 2.2840264093e-01	 1.3156108086e+00	 5.0693571755e-01
 3.4770928190e-01	 1.2983600000e+00	 2.3492972791e+00
 3.3590422754e-01	 1.3014640889e+00	 2.1577282472e+00
 3.2410075341e-01	 1.3044535649e+00	 1.9503383483e+00
 3.1230040548e-01	 1.3073288886e+00	 1.7340298849e+00
 3.0050471342e-01	 1.3100905464e+00	 1.5154705813e+00
 2.8871519013e-01	 1.3127390492e+00	 1.3010844069e+00
 2.7693333130e-01	 1.3152749328e+00	 1.0970432694e+00
 2.6516061498e-01	 1.3176987563e+00	 9.0925956321e-01
 2.5339850116e-01	 1.3200111024e+00	 7.4337955703e-01
 2.4164843142e-01	 1.3222125763e+00	 6.0477759895e-01
 2.2991182847e-01	 1.3243038055e+00	 4.9855111690e-01
 3.4999171566e-01	 1.3068826965e+00	 2.0888970184e+00
 3.3810917055e-01	 1.3100071613e+00	 1.9073073005e+00
 3.2622821604e-01	 1.3130162608e+00	 1.7164319228e+00
 3.1435040825e-01	 1.3159104587e+00	 1.5218096996e+00
 3.0247728689e-01	 1.3186902446e+00	 1.3286931471e+00
 2.9061037479e-01	 1.3213561328e+00	 1.1420420029e+00
 2.7875117746e-01	 1.3239086624e+00	 9.6651764964e-01
 2.6690118266e-01	 1.3263483964e+00	 8.0647842294e-01
 2.5506185996e-01	 1.3286759212e+00	 6.6597578023e-01
 2.4323466039e-01	 1.3308918460e+00	 5.4875130568e-01
 2.3142101602e-01	 1.3329968024e+00	 4.5823452180e-01
 2.1632914054e-01	 1.2460668334e+00	-2.6417802864e-01
 2.0529802896e-01	 1.2479317043e+00	-1.6694860188e-01
 1.9428221986e-01	 1.2496940488e+00	-5.7251821187e-02
 1.8328300036e-01	 1.2513545159e+00	 6.4828024751e-02
 1.7230163857e-01	 1.2529137732e+00	 1.9942668135e-01
 1.6133938333e-01	 1.2543725065e+00	 3.4689284619e-01
 1.5039746395e-01	 1.2557314192e+00	 5.0778107769e-01
 1.3947708999e-01	 1.2569912315e+00	 6.8284469253e-01
 1.2857945101e-01	 1.2581526803e+00	 8.7302864993e-01
 1.1770571642e-01	 1.2592165182e+00	 1.0794624203e+00
 1.0685703526e-01	 1.2601835133e+00	 1.3034528361e+00
 2.1783832809e-01	 1.2547598303e+00	-1.1178734393e-01
 2.0673025963e-01	 1.2566377112e+00	-6.8328758218e-02
 1.9563760040e-01	 1.2584123505e+00	-9.0065579819e-03
 1.8456164650e-01	 1.2600844015e+00	 6.7179641198e-02
 1.7350367490e-01	 1.2616545368e+00	 1.6137758922e-01
 1.6246494315e-01	 1.2631234467e+00	 2.7487561235e-01
 1.5144668913e-01	 1.2644918396e+00	 4.0909590864e-01
 1.4045013082e-01	 1.2657604408e+00	 5.6558792228e-01
 1.2947646612e-01	 1.2669299922e+00	 7.4602179102e-01
 1.1852687256e-01	 1.2680012519e+00	 9.5218186044e-01
 1.0760250721e-01	 1.2689749930e+00	 1.1859602586e+00
 2.1934751563e-01	 1.2634528272e+00	 3.0288276846e-02
 2.0816249029e-01	 1.2653437181e+00	 3.0047962186e-02
 1.9699298093e-01	 1.2671306521e+00	 4.7618276280e-02
 1.8584029265e-01	 1.2688142872e+00	 8.4845664672e-02
 1.7470571124e-01	 1.2703953003e+00	 1.4366760685e-01
 1.6359050297e-01	 1.2718743869e+00	 2.2610605289e-01
 1.5249591430e-01	 1.2732522600e+00	 3.3426102038e-01
 1.4142317166e-01	 1.2745296501e+00	 4.7030434277e-01
 1.3037348122e-01	 1.2757073042e+00	 6.3647355997e-01
 1.1934802870e-01	 1.2767859856e+00	 8.3506594169e-01
 1.0834797916e-01	 1.2777664728e+00	 1.0684326336e+00
 2.2085670318e-01	 1.2721458241e+00	 1.5912319140e-01
 2.0959472096e-01	 1.2740497250e+00	 1.2455068861e-01
 1.9834836147e-01	 1.2758489537e+00	 1.0859396142e-01
 1.8711893879e-01	 1.2775441728e+00	 1.1371079066e-01
 1.7590774757e-01	 1.2791360639e+00	 1.4240975893e-01
 1.6471606279e-01	 1.2806253271e+00	 1.9724384755e-01
 1.5354513947e-01	 1.2820126804e+00	 2.8080425155e-01
 1.4239621249e-01	 1.2832988594e+00	 3.9571440117e-01
 1.3127049632e-01	 1.2844846162e+00	 5.4462417789e-01
 1.2016918483e-01	 1.2855707192e+00	 7.3020431269e-01
 1.0909345111e-01	 1.2865579526e+00	 9.5514095397e-01
 2.2236589073e-01	 1.2808388210e+00	 2.7185989458e-01
 2.1102695162e-01	 1.2827557319e+00	 2.1163591118e-01
 1.9970374201e-01	 1.2845672553e+00	 1.6999011085e-01
 1.8839758494e-01	 1.2862740584e+00	 1.4976066210e-01
 1.7710978391e-01	 1.2878768274e+00	 1.5381217066e-01
 1.6584162261e-01	 1.2893762672e+00	 1.8502937304e-01
 1.5459436464e-01	 1.2907731009e+00	 2.4631108785e-01
 1.4336925333e-01	 1.2920680687e+00	 3.4056441165e-01
 1.3216751143e-01	 1.2932619282e+00	 4.7069914482e-01
 1.2099034097e-01	 1.2943554529e+00	 6.3962243303e-01
 1.0983892307e-01	 1.2953494324e+00	 8.5023360949e-01
 2.2387507828e-01	 1.2895318179e+00	 3.6570676287e-01
 2.1245918229e-01	 1.2914617388e+00	 2.8784454510e-01
 2.0105912255e-01	 1.2932855569e+00	 2.2797133734e-01
 1.8967623109e-01	 1.2950039440e+00	 1.8907842195e-01
 1.7831182025e-01	 1.2966175909e+00	 1.7417479594e-01
 1.6696718243e-01	 1.2981272074e+00	 1.8628089869e-01
 1.5564358982e-01	 1.2995335213e+00	 2.2842262003e-01
 1.4434229416e-01	 1.3008372780e+00	 3.0362557330e-01
 1.3306452653e-01	 1.3020392402e+00	 4.1490961775e-01
 1.2181149711e-01	 1.3031401866e+00	 5.6528361378e-01
 1.1058439502e-01	 1.3041409122e+00	 7.5774039471e-01
 2.2538426583e-01	 1.2982248148e+00	 4.3793589795e-01
 2.1389141296e-01	 1.3001677457e+00	 3.4979912031e-01
 2.0241450309e-01	 1.3020038586e+00	 2.7879405928e-01
 1.9095487723e-01	 1.3037338296e+00	 2.2784141012e-01
 1.7951385658e-01	 1.3053583545e+00	 1.9988628201e-01
 1.6809274225e-01	 1.3068781476e+00	 1.9789189922e-01
 1.5669281499e-01	 1.3082939417e+00	 2.2483358773e-01
 1.4531533500e-01	 1.3096064874e+00	 2.8369303074e-01
 1.3396154164e-01	 1.3108165522e+00	 3.7745277611e-01
 1.2263265325e-01	 1.3119249203e+00	 5.0909097830e-01
 1.1132986698e-01	 1.3129323920e+00	 6.8157635731e-01
 2.2689345338e-01	 1.3069178117e+00	 4.8588106441e-01
 2.1532364362e-01	 1.3088737526e+00	 3.9420109072e-01
 2.0376988363e-01	 1.3107221602e+00	 3.1880344108e-01
 1.9223352338e-01	 1.3124637152e+00	 2.6231799805e-01
 1.8071589292e-01	 1.3140991180e+00	 2.2742096450e-01
 1.6921830207e-01	 1.3156290877e+00	 2.1682847913e-01
 1.5774204017e-01	 1.3170543621e+00	 2.3329050523e-01
 1.4628837584e-01	 1.3183756967e+00	 2.7958497553e-01
 1.3485855674e-01	 1.3195938641e+00	 3.5851217550e-01
 1.2345380939e-01	 1.3207096540e+00	 4.7288934712e-01
 1.1207533893e-01	 1.3217238717e+00	 6.2554549492e-01
 2.2840264093e-01	 1.3156108086e+00	 5.0693571755e-01
 2.1675587429e-01	 1.3175797595e+00	 4.1782825739e-01
 2.0512526417e-01	 1.3194404618e+00	 3.4443046136e-01
 1.9351216953e-01	 1.3211936009e+00	 2.8886455455e-01
 1.8191792926e-01	 1.3228398816e+00	 2.5333598658e-01
 1.7034386189e-01	 1.3243800279e+00	 2.4012690375e-01
 1.5879126534e-01	 1.3258147825e+00	 2.5158986530e-01
 1.4726141667e-01	 1.3271449060e+00	 2.9014178642e-01
 1.3575557185e-01	 1.3283711761e+00	 3.5825809015e-01
 1.2427496553e-01	 1.3294943877e+00	 4.5846705035e-01
 1.1282081089e-01	 1.3305153515e+00	 5.9334430722e-01
 2.2991182847e-01	 1.3243038055e+00	 4.9855111690e-01
 2.1818810496e-01	 1.3262857663e+00	 4.1753230053e-01
 2.0648064471e-01	 1.3281587634e+00	 3.5218910307e-01
 1.9479081568e-01	 1.3299234865e+00	 3.0392253688e-01
 1.8311996559e-01	 1.3315806451e+00	 2.7426853660e-01
 1.7146942171e-01	 1.3331309681e+00	 2.6489123179e-01
 1.5984049051e-01	 1.3345752030e+00	 2.7757641764e-01
 1.4823445751e-01	 1.3359141153e+00	 3.1422520674e-01
 1.3665258695e-01	 1.3371484881e+00	 3.7684784457e-01
 1.2509612167e-01	 1.3382791214e+00	 4.6755767099e-01
 1.1356628284e-01	 1.3393068313e+00	 5.8856521003e-01
 2.3142101602e-01	 1.3329968024e+00	 4.5823452180e-01
 2.1962033562e-01	 1.3349917732e+00	 3.9023641535e-01
 2.0783602525e-01	 1.3368770650e+00	 3.3867366006e-01
 1.9606946182e-01	 1.3386533721e+00	 3.0401570138e-01
 1.8432200193e-01	 1.3403214086e+00	 2.8693319893e-01
 1.7259498153e-01	 1.3418819083e+00	 2.8829104501e-01
 1.6088971569e-01	 1.3433356234e+00	 3.0914151834e-01
 1.4920749834e-01	 1.3446833246e+00	 3.5071755717e-01
 1.3754960206e-01	 1.3459258001e+00	 4.1442613499e-01
 1.2591727781e-01	 1.3470638551e+00	 5.0184172227e-01
 1.1431175480e-01	 1.3480983111e+00	 6.1469981754e-01
 1.0685703526e-01	 1.2601835133e+00	 1.3034528361e+00
 9.6036369121e-02	 1.2610543083e+00	 1.5049653021e+00
 8.5242958067e-02	 1.2618298723e+00	 1.6444904546e+00
 7.4477863958e-02	 1.2625110154e+00	 1.7240746973e+00
 6.3742128408e-02	 1.2630985605e+00	 1.7456855858e+00
 5.3036772677e-02	 1.2635933433e+00	 1.7112101326e+00
 4.2362797579e-02	 1.2639962115e+00	 1.6224532274e+00
 3.1721183396e-02	 1.2643080243e+00	 1.4811361589e+00
 2.1112889822e-02	 1.2645296518e+00	 1.2888952273e+00
 1.0538855902e-02	 1.2646619743e+00	 1.0472804345e+00
 0.0000000000e+00	 1.2647058824e+00	 7.5775424194e-01
 1.0760250721e-01	 1.2689749930e+00	 1.1859602586e+00
 9.6706352331e-02	 1.2698518631e+00	 1.4061807979e+00
 8.5837642678e-02	 1.2706328377e+00	 1.5704592900e+00
 7.4997447517e-02	 1.2713187326e+00	 1.6789654757e+00
 6.4186815730e-02	 1.2719103766e+00	 1.7320501368e+00
 5.3406775704e-02	 1.2724086113e+00	 1.7302393241e+00
 4.2658335232e-02	 1.2728142900e+00	 1.6742284835e+00
 3.1942481437e-02	 1.2731282781e+00	 1.5648764778e+00
 2.1260180706e-02	 1.2733514517e+00	 1.4031995055e+00
 1.0612378637e-02	 1.2734846974e+00	 1.1903649129e+00
 0.0000000000e+00	 1.2735289118e+00	 9.2768490463e-01
 1.0834797916e-01	 1.2777664728e+00	 1.0684326336e+00
 9.7376335543e-02	 1.2786494178e+00	 1.2974036818e+00
 8.6432327288e-02	 1.2794358031e+00	 1.4802480109e+00
 7.5517031075e-02	 1.2801264499e+00	 1.6156800106e+00
 6.4631503053e-02	 1.2807221928e+00	 1.7028020228e+00
 5.3776778731e-02	 1.2812238792e+00	 1.7410952977e+00
 4.2953872885e-02	 1.2816323685e+00	 1.7304106753e+00
 3.2163779477e-02	 1.2819485320e+00	 1.6709589996e+00
 2.1407471590e-02	 1.2821732517e+00	 1.5633012734e+00
 1.0685901372e-02	 1.2823074205e+00	 1.4083385625e+00
 0.0000000000e+00	 1.2823519412e+00	 1.2073016590e+00
 1.0909345111e-01	 1.2865579526e+00	 9.5514095397e-01
 9.8046318754e-02	 1.2874469726e+00	 1.1846793250e+00
 8.7027011899e-02	 1.2882387684e+00	 1.3805261280e+00
 7.6036614634e-02	 1.2889341671e+00	 1.5403565987e+00
 6.5076190375e-02	 1.2895340090e+00	 1.6623886118e+00
 5.4146781757e-02	 1.2900391472e+00	 1.7453711603e+00
 4.3249410537e-02	 1.2904504470e+00	 1.7885724312e+00
 3.2385077517e-02	 1.2907687858e+00	 1.7917674917e+00
 2.1554762474e-02	 1.2909950516e+00	 1.7552256003e+00
 1.0759424106e-02	 1.2911301436e+00	 1.6796971570e+00
 0.0000000000e+00	 1.2911749706e+00	 1.5664003114e+00
 1.0983892307e-01	 1.2953494324e+00	 8.5023360949e-01
 9.8716301966e-02	 1.2962445273e+00	 1.0738831899e+00
 8.7621696510e-02	 1.2970417338e+00	 1.2777772187e+00
 7.6556198193e-02	 1.2977418844e+00	 1.4589629938e+00
 6.5520877698e-02	 1.2983458252e+00	 1.6151336475e+00
 5.4516784784e-02	 1.2988544151e+00	 1.7446149340e+00
 4.3544948190e-02	 1.2992685255e+00	 1.8463515275e+00
 3.2606375557e-02	 1.2995890396e+00	 1.9198928492e+00
 2.1702053357e-02	 1.2998168516e+00	 1.9653784419e+00
 1.0832946841e-02	 1.2999528667e+00	 1.9835229113e+00
 0.0000000000e+00	 1.2999980000e+00	 1.9756004548e+00
 1.1058439502e-01	 1.3041409122e+00	 7.5774039471e-01
 9.9386285178e-02	 1.3050420821e+00	 9.7072643304e-01
 8.8216381121e-02	 1.3058446991e+00	 1.1783050746e+00
 7.7075781752e-02	 1.3065496016e+00	 1.3773020427e+00
 6.5965565021e-02	 1.3071576413e+00	 1.5652413131e+00
 5.4886787810e-02	 1.3076696830e+00	 1.7403309844e+00
 4.3840485843e-02	 1.3080866040e+00	 1.9014486153e+00
 3.2827673597e-02	 1.3084092934e+00	 2.0481260516e+00
 2.1849344241e-02	 1.3086386516e+00	 2.1805337602e+00
 1.0906469576e-02	 1.3087755898e+00	 2.2994646928e+00
 0.0000000000e+00	 1.3088210294e+00	 2.4063177027e+00
 1.1132986698e-01	 1.3129323920e+00	 6.8157635731e-01
 1.0005626839e-01	 1.3138396368e+00	 8.8076128550e-01
 8.8811065732e-02	 1.3146476645e+00	 1.0882396032e+00
 7.7595365311e-02	 1.3153573189e+00	 1.3010170947e+00
 6.6410252343e-02	 1.3159694575e+00	 1.5168001318e+00
 5.5256790837e-02	 1.3164849510e+00	 1.7339813909e+00
 4.4136023495e-02	 1.3169046825e+00	 1.9516250386e+00
 3.3048971637e-02	 1.3172295472e+00	 2.1694514042e+00
 2.1996635124e-02	 1.3174604515e+00	 2.3878211598e+00
 1.0979992310e-02	 1.3175983129e+00	 2.6077190276e+00
 0.0000000000e+00	 1.3176440588e+00	 2.8307370372e+00
 1.1207533893e-01	 1.3217238717e+00	 6.2554549492e-01
 1.0072625160e-01	 1.3226371916e+00	 8.0938621885e-01
 8.9405750344e-02	 1.3234506299e+00	 1.0135424950e+00
 7.8114948871e-02	 1.3241650361e+00	 1.2355971967e+00
 6.6854939666e-02	 1.3247812737e+00	 1.4737867124e+00
 5.5626793863e-02	 1.3253002189e+00	 1.7269872645e+00
 4.4431561148e-02	 1.3257227610e+00	 1.9947007401e+00
 3.3270269677e-02	 1.3260498010e+00	 2.2770400481e+00
 2.2143926008e-02	 1.3262822515e+00	 2.5747140186e+00
 1.1053515045e-02	 1.3264210360e+00	 2.8890118646e+00
 0.0000000000e+00	 1.3264670883e+00	 3.2217872221e+00
 1.1282081089e-01	 1.3305153515e+00	 5.9334430722e-01
 1.0139623482e-01	 1.3314347463e+00	 7.6185090856e-01
 9.0000434956e-02	 1.3322535952e+00	 9.6001266734e-01
 7.8634532431e-02	 1.3329727534e+00	 1.1863820833e+00
 6.7299626990e-02	 1.3335930898e+00	 1.4400693477e+00
 5.5996796890e-02	 1.3341154869e+00	 1.7207300118e+00
 4.4727098801e-02	 1.3345408395e+00	 2.0285522499e+00
 3.3491567718e-02	 1.3348700548e+00	 2.3642437278e+00
 2.2291216892e-02	 1.3351040515e+00	 2.7290180879e+00
 1.1127037780e-02	 1.3352437590e+00	 3.1245810625e+00
 0.0000000000e+00	 1.3352901177e+00	 3.5531162298e+00
 1.1356628284e-01	 1.3393068313e+00	 5.8856521003e-01
 1.0206621803e-01	 1.3402323011e+00	 7.4326100314e-01
 9.0595119568e-02	 1.3410565606e+00	 9.3329149525e-01
 7.9154115991e-02	 1.3417804706e+00	 1.1585669704e+00
 6.7744314314e-02	 1.3424049060e+00	 1.4194114710e+00
 5.6366799918e-02	 1.3429307548e+00	 1.7165525515e+00
 4.5022636455e-02	 1.3433589180e+00	 2.0511107540e+00
 3.3712865758e-02	 1.3436903087e+00	 2.4245888057e+00
 2.2438507776e-02	 1.3439258514e+00	 2.8388605432e+00
 1.1200560515e-02	 1.3440664821e+00	 3.2961595673e+00
 0.0000000000e+00	 1.3441131471e+00	 3.7990676357e+00
 1.1431175480e-01	 1.3480983111e+00	 6.1469981754e-01
 1.0273620124e-01	 1.3490298559e+00	 7.5858270820e-01
 9.1189804181e-02	 1.3498595259e+00	 9.3886783817e-01
 7.9673699552e-02	 1.3505881879e+00	 1.1572071636e+00
 6.8189001638e-02	 1.3512167222e+00	 1.4154749781e+00
 5.6736802946e-02	 1.3517460228e+00	 1.7157604820e+00
 4.5318174109e-02	 1.3521769965e+00	 2.0603602385e+00
 3.3934163799e-02	 1.3525105625e+00	 2.4517705089e+00
 2.2585798660e-02	 1.3527476514e+00	 2.8926794617e+00
 1.1274083250e-02	 1.3528892052e+00	 3.3859592470e+00
 0.0000000000e+00	 1.3529361765e+00	 3.9346579366e+00
 1.3529361765e+00	 0.0000000000e+00	 3.5674855774e+01
 1.3528892052e+00	 1.1274083250e-02	 2.0931791744e+01
 1.3527476514e+00	 2.2585798660e-02	 9.7913462279e+00
 1.3525105625e+00	 3.3934163799e-02	 1.8226736401e+00
 1.3521769965e+00	 4.5318174109e-02	-3.4126578777e+00
 1.3517460228e+00	 5.6736802946e-02	-6.3602998204e+00
 1.3512167222e+00	 6.8189001638e-02	-7.4727374849e+00
 1.3505881879e+00	 7.9673699552e-02	-7.2088848852e+00
 1.3498595259e+00	 9.1189804181e-02	-6.0336603981e+00
 1.3490298559e+00	 1.0273620124e-01	-4.4175431576e+00
 1.3480983111e+00	 1.1431175480e-01	-2.8361102516e+00
 1.3617607059e+00	 0.0000000000e+00	 4.5955955158e+01
 1.3617134283e+00	 1.1347618485e-02	 2.8621512327e+01
 1.3615709511e+00	 2.2733114586e-02	 1.5460627213e+01
 1.3613323158e+00	 3.4155499464e-02	 5.9748800391e+00
 1.3609965742e+00	 4.5613762008e-02	-3.4284138226e-01
 1.3605627894e+00	 5.7106868879e-02	-4.0079111422e+00
 1.3600300364e+00	 6.8633764564e-02	-5.5435124620e+00
 1.3593974025e+00	 8.0193371447e-02	-5.4801626049e+00
 1.3586639879e+00	 9.1784589896e-02	-4.3552154689e+00
 1.3578289063e+00	 1.0340629836e-01	-2.7123418978e+00
 1.3568912855e+00	 1.1505735349e-01	-1.1009877881e+00
 1.3705852353e+00	 0.0000000000e+00	 5.3703184184e+01
 1.3705376513e+00	 1.1421153720e-02	 3.4808154871e+01
 1.3703942509e+00	 2.2880430512e-02	 2.0389321883e+01
 1.3701540692e+00	 3.4376835129e-02	 9.9146825441e+00
 1.3698161518e+00	 4.5909349907e-02	 2.8429976062e+00
 1.3693795561e+00	 5.7476934812e-02	-1.3757436411e+00
 1.3688433507e+00	 6.9078527490e-02	-3.2998343585e+00
 1.3682066172e+00	 8.0713043343e-02	-3.4953371961e+00
 1.3674684499e+00	 9.2379375611e-02	-2.5355473882e+00
 1.3666279567e+00	 1.0407639548e-01	-1.0004319486e+00
 1.3656842599e+00	 1.1580295218e-01	 5.2395494125e-01
 1.3794097647e+00	 0.0000000000e+00	 5.8900742902e+01
 1.3793618744e+00	 1.1494688955e-02	 3.9476192093e+01
 1.3792175507e+00	 2.3027746439e-02	 2.4564614417e+01
 1.3789758225e+00	 3.4598170794e-02	 1.3633742906e+01
 1.3786357295e+00	 4.6204937807e-02	 6.1420835743e+00
 1.3781963227e+00	 5.7847000746e-02	 1.5393861696e+00
 1.3776566650e+00	 6.9523290417e-02	-7.3286094989e-01
 1.3770158318e+00	 8.1232715239e-02	-1.2409117765e+00
 1.3762729118e+00	 9.2974161327e-02	-5.5821945085e-01
 1.3754270071e+00	 1.0474649260e-01	 7.3513105660e-01
 1.3744772344e+00	 1.1654855087e-01	 2.0530142876e+00
 1.3882342941e+00	 0.0000000000e+00	 6.1533260485e+01
 1.3881860974e+00	 1.1568224191e-02	 4.2610511940e+01
 1.3880408504e+00	 2.3175062365e-02	 2.7974028720e+01
 1.3877975758e+00	 3.4819506460e-02	 1.7123942612e+01
 1.3874553072e+00	 4.6500525707e-02	 9.5517135965e+00
 1.3870130893e+00	 5.8217066680e-02	 4.7405775957e+00
 1.3864699792e+00	 6.9968053344e-02	 2.1660171448e+00
 1.3858250465e+00	 8.1752387136e-02	 1.2962550486e+00
 1.3850773738e+00	 9.3568947043e-02	 1.5927710219e+00
 1.3842260576e+00	 1.0541658971e-01	 2.5108412774e+00
 1.3832702088e+00	 1.1729414957e-01	 3.5001009826e+00
 1.3970588236e+00	 0.0000000000e+00	 6.1585781678e+01
 1.3970103204e+00	 1.1641759426e-02	 4.4196404391e+01
 1.3968641502e+00	 2.3322378292e-02	 3.0605417536e+01
 1.3966193292e+00	 3.5040842126e-02	 2.0377375718e+01
 1.3962748848e+00	 4.6796113607e-02	 1.3069254767e+01
 1.3958298560e+00	 5.8587132614e-02	 8.2308481060e+00
 1.3952832935e+00	 7.0412816271e-02	 5.4051834759e+00
 1.3946342611e+00	 8.2272059032e-02	 4.1289600590e+00
 1.3938818357e+00	 9.4163732759e-02	 3.9330060347e+00
 1.3930251080e+00	 1.0608668683e-01	 4.3427565429e+00
 1.3920631832e+00	 1.1803974826e-01	 4.8787520005e+00
 1.4058833530e+00	 0.0000000000e+00	 5.9043753750e+01
 1.4058345435e+00	 1.1715294662e-02	 4.4219548751e+01
 1.4056874499e+00	 2.3469694219e-02	 3.2446951965e+01
 1.4054410825e+00	 3.5262177791e-02	 2.3386341962e+01
 1.4050944625e+00	 4.7091701508e-02	 1.6692141729e+01
 1.4046466226e+00	 5.8957198548e-02	 1.2013135590e+01
 1.4040966078e+00	 7.0857579198e-02	 8.9928025143e+00
 1.4034434758e+00	 8.2791730928e-02	 7.2696658856e+00
 1.4026862977e+00	 9.4758518475e-02	 6.4776597719e+00
 1.4018241584e+00	 1.0675678395e-01	 6.2465117100e+00
 1.4008561577e+00	 1.1878534695e-01	 6.2021419804e+00
 1.4147078824e+00	 0.0000000000e+00	 5.3893013937e+01
 1.4146587665e+00	 1.1788829897e-02	 4.2666001423e+01
 1.4145107497e+00	 2.3617010145e-02	 3.3487111375e+01
 1.4142628359e+00	 3.5483513457e-02	 2.6143340120e+01
 1.4139140402e+00	 4.7387289408e-02	 2.0417874298e+01
 1.4134633892e+00	 5.9327264481e-02	 1.6090300532e+01
 1.4129099221e+00	 7.1302342125e-02	 1.2936826152e+01
 1.4122526905e+00	 8.3311402825e-02	 1.0730511089e+01
 1.4114907596e+00	 9.5353304191e-02	 9.2415109746e+00
 1.4106232089e+00	 1.0742688107e-01	 8.2373315281e+00
 1.4096491321e+00	 1.1953094565e-01	 7.4830942286e+00
 1.4235324118e+00	 0.0000000000e+00	 4.6119777354e+01
 1.4234829896e+00	 1.1862365133e-02	 3.9522184135e+01
 1.4233340495e+00	 2.3764326072e-02	 3.3714673689e+01
 1.4230845892e+00	 3.5704849122e-02	 2.8641061624e+01
 1.4227336178e+00	 4.7682877308e-02	 2.4244015177e+01
 1.4222801559e+00	 5.9697330415e-02	 2.0465128108e+01
 1.4217232363e+00	 7.1747105052e-02	 1.7244999965e+01
 1.4210619051e+00	 8.3831074721e-02	 1.4523319864e+01
 1.4202952216e+00	 9.5948089907e-02	 1.2238954862e+01
 1.4194222593e+00	 1.0809697818e-01	 1.0330043031e+01
 1.4184421065e+00	 1.2027654434e-01	 8.7340913174e+00
 1.4323569412e+00	 0.0000000000e+00	 3.5710625355e+01
 1.4323072126e+00	 1.1935900368e-02	 3.4774872598e+01
 1.4321573492e+00	 2.3911641998e-02	 3.3118706033e+01
 1.4319063426e+00	 3.5926184787e-02	 3.0872384408e+01
 1.4315531955e+00	 4.7978465207e-02	 2.8168187751e+01
 1.4310969225e+00	 6.0067396348e-02	 2.5140330204e+01
 1.4305365506e+00	 7.2191867979e-02	 2.1924869242e+01
 1.4298711198e+00	 8.4350746617e-02	 1.8659611393e+01
 1.4290996835e+00	 9.6542875622e-02	 1.5484014615e+01
 1.4282213097e+00	 1.0876707530e-01	 1.2539087475e+01
 1.4272350809e+00	 1.2102214303e-01	 9.9672852998e+00
 1.4411814706e+00	 0.0000000000e+00	 2.2652494314e+01
 1.4411314357e+00	 1.2009435603e-02	 2.8411185590e+01
 1.4409806490e+00	 2.4058957924e-02	 3.1688555725e+01
 1.4407280959e+00	 3.6147520452e-02	 3.2830366988e+01
 1.4403727731e+00	 4.8274053106e-02	 3.2188073969e+01
 1.4399136891e+00	 6.0437462281e-02	 3.0118547365e+01
 1.4393498649e+00	 7.2636630905e-02	 2.6983784804e+01
 1.4386803344e+00	 8.4870418512e-02	 2.3150608857e+01
 1.4379041455e+00	 9.7137661338e-02	 1.8990352445e+01
 1.4370203602e+00	 1.0943717242e-01	 1.4878531845e+01
 1.4360280554e+00	 1.2176774173e-01	 1.1194507556e+01
 1.3480983111e+00	 1.1431175480e-01	-2.8361102516e+00
 1.3470638551e+00	 1.2591727781e-01	-1.5193490986e+00
 1.3459258001e+00	 1.3754960206e-01	-3.6127119910e-01
 1.3446833246e+00	 1.4920749834e-01	 6.6394408882e-01
 1.3433356234e+00	 1.6088971569e-01	 1.5824453863e+00
 1.3418819083e+00	 1.7259498153e-01	 2.4206966181e+00
 1.3403214086e+00	 1.8432200193e-01	 3.2054648140e+00
 1.3386533721e+00	 1.9606946182e-01	 3.9638084658e+00
 1.3368770650e+00	 2.0783602525e-01	 4.7230665176e+00
 1.3349917732e+00	 2.1962033562e-01	 5.5108480599e+00
 1.3329968024e+00	 2.3142101602e-01	 6.3550227956e+00
 1.3568912855e+00	 1.1505735349e-01	-1.1009877881e+00
 1.3558500822e+00	 1.2673857355e-01	 1.6729647835e-01
 1.3547046043e+00	 1.3844676966e-01	 1.1791768866e+00
 1.3534540248e+00	 1.5018070460e-01	 1.9796042306e+00
 1.3520975332e+00	 1.6193911924e-01	 2.6139644737e+00
 1.3506343362e+00	 1.7372073270e-01	 3.1280433134e+00
 1.3490636582e+00	 1.8552424262e-01	 3.5679906180e+00
 1.3473847419e+00	 1.9734832535e-01	 3.9802848404e+00
 1.3455968489e+00	 2.0919163622e-01	 4.4116975054e+00
 1.3436992602e+00	 2.2105280978e-01	 4.9092578700e+00
 1.3416912772e+00	 2.3293046015e-01	 5.5202178478e+00
 1.3656842599e+00	 1.1580295218e-01	 5.2395494125e-01
 1.3646363094e+00	 1.2755986929e-01	 1.6697940518e+00
 1.3634834085e+00	 1.3934393727e-01	 2.5004417335e+00
 1.3622247249e+00	 1.5115391087e-01	 3.0734659334e+00
 1.3608594430e+00	 1.6298852279e-01	 3.4469100506e+00
 1.3593867641e+00	 1.7484648388e-01	 3.6792415554e+00
 1.3578059078e+00	 1.8672648332e-01	 3.8293001213e+00
 1.3561161117e+00	 1.9862718888e-01	 3.9562453929e+00
 1.3543166327e+00	 2.1054724718e-01	 4.1195045039e+00
 1.3524067472e+00	 2.2248528394e-01	 4.3787194663e+00
 1.3503857520e+00	 2.3443990427e-01	 4.7936945408e+00
 1.3744772344e+00	 1.1654855087e-01	 2.0530142876e+00
 1.3734225366e+00	 1.2838116504e-01	 2.9980642132e+00
 1.3722622128e+00	 1.4024110487e-01	 3.6083404374e+00
 1.3709954251e+00	 1.5212711713e-01	 3.9476437596e+00
 1.3696213527e+00	 1.6403792634e-01	 4.0802247928e+00
 1.3681391920e+00	 1.7597223506e-01	 4.0707233788e+00
 1.3665481573e+00	 1.8792872401e-01	 3.9841073989e+00
 1.3648474815e+00	 1.9990605241e-01	 3.8856111141e+00
 1.3630364165e+00	 2.1190285815e-01	 3.8406731679e+00
 1.3611142342e+00	 2.2391775810e-01	 3.9148743827e+00
 1.3590802268e+00	 2.3594934840e-01	 4.1738754794e+00
 1.3832702088e+00	 1.1729414957e-01	 3.5001009826e+00
 1.3822087638e+00	 1.2920246078e-01	 4.1617509925e+00
 1.3810410170e+00	 1.4113827248e-01	 4.5085162194e+00
 1.3797661253e+00	 1.5310032339e-01	 4.6041714473e+00
 1.3783832625e+00	 1.6508732990e-01	 4.5128506762e+00
 1.3768916200e+00	 1.7709798623e-01	 4.2989840018e+00
 1.3752904069e+00	 1.8913096471e-01	 4.0272340132e+00
 1.3735788513e+00	 2.0118491594e-01	 3.7624318487e+00
 1.3717562003e+00	 2.1325846911e-01	 3.5695130560e+00
 1.3698217213e+00	 2.2535023226e-01	 3.5134533962e+00
 1.3677747016e+00	 2.3745879252e-01	 3.6592047304e+00
 1.3920631832e+00	 1.1803974826e-01	 4.8787520005e+00
 1.3909949910e+00	 1.3002375653e-01	 5.1702303165e+00
 1.3898198212e+00	 1.4203544009e-01	 5.2064436940e+00
 1.3885368255e+00	 1.5407352965e-01	 5.0450043080e+00
 1.3871451723e+00	 1.6613673345e-01	 4.7437289263e+00
 1.3856440479e+00	 1.7822373741e-01	 4.3605798543e+00
 1.3840326565e+00	 1.9033320540e-01	 3.9536057538e+00
 1.3823102211e+00	 2.0246377947e-01	 3.5808824841e+00
 1.3804759842e+00	 2.1461408008e-01	 3.3004541154e+00
 1.3785292083e+00	 2.2678270641e-01	 3.1702742600e+00
 1.3764691764e+00	 2.3896823664e-01	 3.2481478646e+00
 1.4008561577e+00	 1.1878534695e-01	 6.2021419804e+00
 1.3997812182e+00	 1.3084505227e-01	 6.0326181557e+00
 1.3985986254e+00	 1.4293260769e-01	 5.7074339493e+00
 1.3973075256e+00	 1.5504673591e-01	 5.2720215452e+00
 1.3959070821e+00	 1.6718613700e-01	 4.7717999824e+00
 1.3943964758e+00	 1.7934948858e-01	 4.2521266951e+00
 1.3927749060e+00	 1.9153544609e-01	 3.7582495174e+00
 1.3910415909e+00	 2.0374264300e-01	 3.3352593050e+00
 1.3891957680e+00	 2.1596969105e-01	 3.0280433233e+00
 1.3872366953e+00	 2.2821518057e-01	 2.8812395491e+00
 1.3851636512e+00	 2.4047768077e-01	 2.9391920272e+00
 1.4096491321e+00	 1.1953094565e-01	 7.4830942286e+00
 1.4085674454e+00	 1.3166634801e-01	 6.7577783760e+00
 1.4073774296e+00	 1.4382977530e-01	 6.0166394470e+00
 1.4060782258e+00	 1.5601994218e-01	 5.2870284992e+00
 1.4046689919e+00	 1.6823554055e-01	 4.5960034782e+00
 1.4031489038e+00	 1.8047523976e-01	 3.9702978172e+00
 1.4015171556e+00	 1.9273768679e-01	 3.4362903234e+00
 1.3997729606e+00	 2.0502150652e-01	 3.0199765036e+00
 1.3979155518e+00	 2.1732530201e-01	 2.7469414766e+00
 1.3959441823e+00	 2.2964765473e-01	 2.6423346121e+00
 1.3938581260e+00	 2.4198712489e-01	 2.7308460336e+00
 1.4184421065e+00	 1.2027654434e-01	 8.7340913174e+00
 1.4173536725e+00	 1.3248764376e-01	 7.3543303059e+00
 1.4161562339e+00	 1.4472694290e-01	 6.1390587502e+00
 1.4148489260e+00	 1.5699314844e-01	 5.0917588191e+00
 1.4134309017e+00	 1.6928494410e-01	 4.2152782358e+00
 1.4119013317e+00	 1.8160099093e-01	 3.5118223347e+00
 1.4102594052e+00	 1.9393992748e-01	 2.9829484581e+00
 1.4085043304e+00	 2.0630037005e-01	 2.6295628414e+00
 1.4066353356e+00	 2.1868091298e-01	 2.4519201245e+00
 1.4046516693e+00	 2.3108012889e-01	 2.4496256247e+00
 1.4025526008e+00	 2.4349656902e-01	 2.6216404909e+00
 1.4272350809e+00	 1.2102214303e-01	 9.9672852998e+00
 1.4261398997e+00	 1.3330893950e-01	 7.8306560325e+00
 1.4249350381e+00	 1.4562411051e-01	 6.0795410865e+00
 1.4236196261e+00	 1.5796635470e-01	 4.6878765673e+00
 1.4221928115e+00	 1.7033434766e-01	 3.6285622743e+00
 1.4206537596e+00	 1.8272674211e-01	 2.8734835486e+00
 1.4190016547e+00	 1.9514216818e-01	 2.3935367434e+00
 1.4172357002e+00	 2.0757923358e-01	 2.1586584539e+00
 1.4153551195e+00	 2.2003652394e-01	 2.1378586377e+00
 1.4133591563e+00	 2.3251260305e-01	 2.2992577420e+00
 1.4112470756e+00	 2.4500601314e-01	 2.6101279433e+00
 1.4360280554e+00	 1.2176774173e-01	 1.1194507556e+01
 1.4349261269e+00	 1.3413023525e-01	 8.1949074381e+00
 1.4337138423e+00	 1.4652127812e-01	 5.8427907533e+00
 1.4323903263e+00	 1.5893956096e-01	 4.0769782578e+00
 1.4309547213e+00	 1.7138375121e-01	 2.8347928318e+00
 1.4294061875e+00	 1.8385249329e-01	 2.0521173898e+00
 1.4277439043e+00	 1.9634440887e-01	 1.6634579226e+00
 1.4259670700e+00	 2.0885809711e-01	 1.6020117940e+00
 1.4240749033e+00	 2.2139213491e-01	 1.7997414079e+00
 1.4220666433e+00	 2.3394507721e-01	 2.1874533432e+00
 1.4199415504e+00	 2.4651545727e-01	 2.6948830409e+00
 1.3329968024e+00	 2.3142101602e-01	 6.3550227956e+00
 1.3308918460e+00	 2.4323466039e-01	 7.1161713846e+00
 1.3286759212e+00	 2.5506185996e-01	 7.6364523264e+00
 1.3263483964e+00	 2.6690118266e-01	 7.9157391132e+00
 1.3239086624e+00	 2.7875117746e-01	 7.9537804522e+00
 1.3213561328e+00	 2.9061037479e-01	 7.7502184148e+00
 1.3186902446e+00	 3.0247728689e-01	 7.3046085680e+00
 1.3159104587e+00	 3.1435040825e-01	 6.6164420877e+00
 1.3130162608e+00	 3.2622821604e-01	 5.6851698407e+00
 1.3100071613e+00	 3.3810917055e-01	 4.5102284081e+00
 1.3068826965e+00	 3.4999171566e-01	 3.0910680110e+00
 1.3416912772e+00	 2.3293046015e-01	 5.5202178478e+00
 1.3395725912e+00	 2.4482115904e-01	 6.1206107673e+00
 1.3373422130e+00	 2.5672550155e-01	 6.5492783934e+00
 1.3349995069e+00	 2.6864204626e-01	 6.7975041354e+00
 1.3325438597e+00	 2.8056933268e-01	 6.8566252951e+00
 1.3299746813e+00	 2.9250588165e-01	 6.7180668113e+00
 1.3272914048e+00	 3.0445019571e-01	 6.3733771472e+00
 1.3244934878e+00	 3.1640075953e-01	 5.8142663002e+00
 1.3215804125e+00	 3.2835604035e-01	 5.0326458994e+00
 1.3185516861e+00	 3.4031448841e-01	 4.0206713409e+00
 1.3154068420e+00	 3.5227453746e-01	 2.7707858961e+00
 1.3503857520e+00	 2.3443990427e-01	 4.7936945408e+00
 1.3482533364e+00	 2.4640765769e-01	 5.2556610656e+00
 1.3460085048e+00	 2.5838914313e-01	 5.6057193074e+00
 1.3436506175e+00	 2.7038290985e-01	 5.8284304258e+00
 1.3411790571e+00	 2.8238748789e-01	 5.9085576188e+00
 1.3385932298e+00	 2.9440138850e-01	 5.8311124852e+00
 1.3358925650e+00	 3.0642310453e-01	 5.5814036729e+00
 1.3330765169e+00	 3.1845111081e-01	 5.1450877793e+00
 1.3301445641e+00	 3.3048386466e-01	 4.5082224496e+00
 1.3270962110e+00	 3.4251980628e-01	 3.6573216061e+00
 1.3239309875e+00	 3.5455735925e-01	 2.5794127237e+00
 1.3590802268e+00	 2.3594934840e-01	 4.1738754794e+00
 1.3569340817e+00	 2.4799415633e-01	 4.5227404253e+00
 1.3546747967e+00	 2.6005278472e-01	 4.8091777805e+00
 1.3523017280e+00	 2.7212377345e-01	 5.0128549477e+00
 1.3498142545e+00	 2.8420564311e-01	 5.1137593010e+00
 1.3472117783e+00	 2.9629689536e-01	 5.0922542193e+00
 1.3444937253e+00	 3.0839601335e-01	 4.9291375381e+00
 1.3416595460e+00	 3.2050146209e-01	 4.6057023664e+00
 1.3387087158e+00	 3.3261168897e-01	 4.1038002072e+00
 1.3356407358e+00	 3.4472512415e-01	 3.4059062973e+00
 1.3324551329e+00	 3.5684018105e-01	 2.4951870695e+00
 1.3677747016e+00	 2.3745879252e-01	 3.6592047304e+00
 1.3656148269e+00	 2.4958065498e-01	 3.9232157897e+00
 1.3633410885e+00	 2.6171642630e-01	 4.1629589271e+00
 1.3609528386e+00	 2.7386463704e-01	 4.3549979341e+00
 1.3584494519e+00	 2.8602379832e-01	 4.4763045986e+00
 1.3558303268e+00	 2.9819240222e-01	 4.5043215013e+00
 1.3530948855e+00	 3.1036892217e-01	 4.4170273405e+00
 1.3502425751e+00	 3.2255181338e-01	 4.1930047291e+00
 1.3472728675e+00	 3.3473951329e-01	 3.8115103907e+00
 1.3441852606e+00	 3.4693044202e-01	 3.2525476622e+00
 1.3409792784e+00	 3.5912300284e-01	 2.4969411948e+00
 1.3764691764e+00	 2.3896823664e-01	 3.2481478646e+00
 1.3742955721e+00	 2.5116715363e-01	 3.4584054190e+00
 1.3720073804e+00	 2.6338006789e-01	 3.6702744454e+00
 1.3696039491e+00	 2.7560550064e-01	 3.8589678817e+00
 1.3670846493e+00	 2.8784195354e-01	 4.0001650791e+00
 1.3644488753e+00	 3.0008790908e-01	 4.0700784806e+00
 1.3616960458e+00	 3.1234183099e-01	 4.0455229254e+00
 1.3588256041e+00	 3.2460216466e-01	 3.9039875203e+00
 1.3558370191e+00	 3.3686733760e-01	 3.6237099974e+00
 1.3527297854e+00	 3.4913575988e-01	 3.1837534657e+00
 1.3495034239e+00	 3.6140582464e-01	 2.5640854371e+00
 1.3851636512e+00	 2.4047768077e-01	 2.9391920272e+00
 1.3829763173e+00	 2.5275365228e-01	 3.1295813472e+00
 1.3806736722e+00	 2.6504370947e-01	 3.3342466756e+00
 1.3782550597e+00	 2.7734636423e-01	 3.5287663973e+00
 1.3757198467e+00	 2.8966010875e-01	 3.6892144071e+00
 1.3730674238e+00	 3.0198341594e-01	 3.7922278219e+00
 1.3702972060e+00	 3.1431473981e-01	 3.8150774024e+00
 1.3674086332e+00	 3.2665251595e-01	 3.7357406233e+00
 1.3644011708e+00	 3.3899516191e-01	 3.5329773146e+00
 1.3612743102e+00	 3.5134107775e-01	 3.1864077771e+00
 1.3580275694e+00	 3.6368864644e-01	 2.6765932549e+00
 1.3938581260e+00	 2.4198712489e-01	 2.7308460336e+00
 1.3916570625e+00	 2.5434015092e-01	 2.9379717783e+00
 1.3893399641e+00	 2.6670735106e-01	 3.1579125418e+00
 1.3869061703e+00	 2.7908722783e-01	 3.3682929002e+00
 1.3843550441e+00	 2.9147826397e-01	 3.5472329948e+00
 1.3816859723e+00	 3.0387892280e-01	 3.6734144614e+00
 1.3788983662e+00	 3.1628764863e-01	 3.7261491353e+00
 1.3759916623e+00	 3.2870286723e-01	 3.6854504789e+00
 1.3729653225e+00	 3.4112298623e-01	 3.5321076567e+00
 1.3698188350e+00	 3.5354639562e-01	 3.2477621644e+00
 1.3665517149e+00	 3.6597146823e-01	 2.8149868986e+00
 1.4025526008e+00	 2.4349656902e-01	 2.6216404909e+00
 1.4003378077e+00	 2.5592664957e-01	 2.8847634264e+00
 1.3980062559e+00	 2.6837099264e-01	 3.1442273829e+00
 1.3955572808e+00	 2.8082809143e-01	 3.3813491884e+00
 1.3929902414e+00	 2.9329641918e-01	 3.5779125214e+00
 1.3903045208e+00	 3.0577442965e-01	 3.7162292678e+00
 1.3874995265e+00	 3.1826055745e-01	 3.7792037083e+00
 1.3845746914e+00	 3.3075321851e-01	 3.7503994904e+00
 1.3815294741e+00	 3.4325081054e-01	 3.6141093185e+00
 1.3783633598e+00	 3.5575171349e-01	 3.3554272769e+00
 1.3750758603e+00	 3.6825429003e-01	 2.9603236796e+00
 1.4112470756e+00	 2.4500601314e-01	 2.6101279433e+00
 1.4090185530e+00	 2.5751314822e-01	 2.9711037996e+00
 1.4066725477e+00	 2.7003463423e-01	 3.2960686756e+00
 1.4042083914e+00	 2.8256895502e-01	 3.5716438743e+00
 1.4016254388e+00	 2.9511457440e-01	 3.7848603260e+00
 1.3989230693e+00	 3.0766993651e-01	 3.9232126131e+00
 1.3961006867e+00	 3.2023346627e-01	 3.9747158674e+00
 1.3931577205e+00	 3.3280356980e-01	 3.9279655032e+00
 1.3900936258e+00	 3.4537863485e-01	 3.7721997341e+00
 1.3869078846e+00	 3.5795703135e-01	 3.4973648006e+00
 1.3836000058e+00	 3.7053711183e-01	 3.0941903124e+00
 1.4199415504e+00	 2.4651545727e-01	 2.6948830409e+00
 1.4176992982e+00	 2.5909964687e-01	 3.1981034326e+00
 1.4153388396e+00	 2.7169827581e-01	 3.6162396564e+00
 1.4128595019e+00	 2.8430981862e-01	 3.9427966956e+00
 1.4102606362e+00	 2.9693272962e-01	 4.1716036818e+00
 1.4075416178e+00	 3.0956544337e-01	 4.2968578583e+00
 1.4047018470e+00	 3.2220637509e-01	 4.3131714402e+00
 1.4017407496e+00	 3.3485392108e-01	 4.2156213566e+00
 1.3986577775e+00	 3.4750645917e-01	 3.9998018345e+00
 1.3954524094e+00	 3.6016234922e-01	 3.6618797699e+00
 1.3921241513e+00	 3.7281993362e-01	 3.2010274571e+00
 1.3068826965e+00	 3.4999171566e-01	 3.0910680110e+00
 1.3036424289e+00	 3.6187427950e-01	 1.5636966989e+00
 1.3002859490e+00	 3.7375527545e-01	 8.6836690784e-02
 1.2968128745e+00	 3.8563310219e-01	-1.2390286430e+00
 1.2932228510e+00	 3.9750614411e-01	-2.3601286191e+00
 1.2895155522e+00	 4.0937277181e-01	-3.2493458086e+00
 1.2856906802e+00	 4.2123134272e-01	-3.8793532695e+00
 1.2817479665e+00	 4.3308020167e-01	-4.2226414903e+00
 1.2776871719e+00	 4.4491768149e-01	-4.2515475309e+00
 1.2735080872e+00	 4.5674210366e-01	-3.9382864253e+00
 1.2692105336e+00	 4.6855177891e-01	-3.2549849012e+00
 1.3154068420e+00	 3.5227453746e-01	 2.7707858961e+00
 1.3121454398e+00	 3.6423460535e-01	 1.4110078957e+00
 1.3087670672e+00	 3.7619309512e-01	 1.0187563299e-01
 1.3052713396e+00	 3.8814839502e-01	-1.0541993859e+00
 1.3016579001e+00	 4.0009887888e-01	-2.0216448432e+00
 1.2979264204e+00	 4.1204290668e-01	-2.7794689915e+00
 1.2940766007e+00	 4.2397882515e-01	-3.3070193851e+00
 1.2901081707e+00	 4.3590496831e-01	-3.5840101828e+00
 1.2860208895e+00	 4.4781965812e-01	-3.5905509791e+00
 1.2818145467e+00	 4.5972120511e-01	-3.3071772193e+00
 1.2774889623e+00	 4.7160790899e-01	-2.7148822445e+00
 1.3239309875e+00	 3.5455735925e-01	 2.5794127237e+00
 1.3206484506e+00	 3.6659493119e-01	 1.3881727080e+00
 1.3172481853e+00	 3.7863091479e-01	 2.4395355427e-01
 1.3137298046e+00	 3.9066368784e-01	-7.5646667031e-01
 1.3100929492e+00	 4.0269161364e-01	-1.5906821554e+00
 1.3063372887e+00	 4.1471304156e-01	-2.2425466987e+00
 1.3024625212e+00	 4.2672630758e-01	-2.6966918707e+00
 1.2984683748e+00	 4.3872973495e-01	-2.9385546059e+00
 1.2943546071e+00	 4.5072163475e-01	-2.9544058037e+00
 1.2901210062e+00	 4.6270030656e-01	-2.7313799885e+00
 1.2857673910e+00	 4.7466403908e-01	-2.2575060656e+00
 1.3324551329e+00	 3.5684018105e-01	 2.4951870695e+00
 1.3291514614e+00	 3.6895525704e-01	 1.4662669183e+00
 1.3257293035e+00	 3.8106873446e-01	 4.7910970986e-01
 1.3221882696e+00	 3.9317898066e-01	-3.8306927897e-01
 1.3185279984e+00	 4.0528434841e-01	-1.1058256256e+00
 1.3147481569e+00	 4.1738317643e-01	-1.6765996014e+00
 1.3108484417e+00	 4.2947379001e-01	-2.0839388324e+00
 1.3068285789e+00	 4.4155450159e-01	-2.3175261101e+00
 1.3026883247e+00	 4.5362361139e-01	-2.3682078432e+00
 1.2984274657e+00	 4.6567940802e-01	-2.2280231923e+00
 1.2940458197e+00	 4.7772016917e-01	-1.8902339224e+00
 1.3409792784e+00	 3.5912300284e-01	 2.4969411948e+00
 1.3376544722e+00	 3.7131558289e-01	 1.6174763311e+00
 1.3342104217e+00	 3.8350655413e-01	 7.7427912925e-01
 1.3306467347e+00	 3.9569427349e-01	 2.9733949701e-02
 1.3269630475e+00	 4.0787708318e-01	-6.0464555309e-01
 1.3231590251e+00	 4.2005331131e-01	-1.1186475889e+00
 1.3192343622e+00	 4.3222127244e-01	-1.5033898303e+00
 1.3151887831e+00	 4.4437926823e-01	-1.7513473782e+00
 1.3110220423e+00	 4.5652558802e-01	-1.8563811442e+00
 1.3067339252e+00	 4.6865850947e-01	-1.8137666905e+00
 1.3023242484e+00	 4.8077629926e-01	-1.6202235614e+00
 1.3495034239e+00	 3.6140582464e-01	 2.5640854371e+00
 1.3461574831e+00	 3.7367590874e-01	 1.8176641587e+00
 1.3426915399e+00	 3.8594437380e-01	 1.0972645532e+00
 1.3391051997e+00	 3.9820956631e-01	 4.4663333215e-01
 1.3353980966e+00	 4.1046981795e-01	-1.2372943135e-01
 1.3315698934e+00	 4.2272344618e-01	-6.0474137309e-01
 1.3276202827e+00	 4.3496875488e-01	-9.8876560626e-01
 1.3235489872e+00	 4.4720403488e-01	-1.2696387775e+00
 1.3193557599e+00	 4.5942756465e-01	-1.4426994609e+00
 1.3150403847e+00	 4.7163761093e-01	-1.5048169329e+00
 1.3106026771e+00	 4.8383242935e-01	-1.4544203635e+00
 1.3580275694e+00	 3.6368864644e-01	 2.6765932549e+00
 1.3546604939e+00	 3.7603623458e-01	 2.0411184937e+00
 1.3511726581e+00	 3.8838219348e-01	 1.4167094049e+00
 1.3475636648e+00	 4.0072485914e-01	 8.3323868497e-01
 1.3438331457e+00	 4.1306255272e-01	 3.0128726518e-01
 1.3399807616e+00	 4.2539358106e-01	-1.6999293071e-01
 1.3360062032e+00	 4.3771623731e-01	-5.7290672120e-01
 1.3319091914e+00	 4.5002880152e-01	-9.0124375087e-01
 1.3276894775e+00	 4.6232954129e-01	-1.1503069780e+00
 1.3233468443e+00	 4.7461671238e-01	-1.3169416134e+00
 1.3188811058e+00	 4.8688855944e-01	-1.3995645496e+00
 1.3665517149e+00	 3.6597146823e-01	 2.8149868986e+00
 1.3631635047e+00	 3.7839656043e-01	 2.2620159132e+00
 1.3596537762e+00	 3.9082001315e-01	 1.7020717496e+00
 1.3560221298e+00	 4.0324015197e-01	 1.1560507555e+00
 1.3522681948e+00	 4.1565528749e-01	 6.3569141959e-01
 1.3483916299e+00	 4.2806371594e-01	 1.5139516483e-01
 1.3443921237e+00	 4.4046371974e-01	-2.8780115194e-01
 1.3402693955e+00	 4.5285356817e-01	-6.7425329108e-01
 1.3360231951e+00	 4.6523151792e-01	-1.0017382937e+00
 1.3316533038e+00	 4.7759581384e-01	-1.2654838125e+00
 1.3271595345e+00	 4.8994468953e-01	-1.4621981553e+00
 1.3750758603e+00	 3.6825429003e-01	 2.9603236796e+00
 1.3716665155e+00	 3.8075688628e-01	 2.4552047803e+00
 1.3681348944e+00	 3.9325783282e-01	 1.9235992010e+00
 1.3644805948e+00	 4.0575544479e-01	 1.3824336908e+00
 1.3607032439e+00	 4.1824802226e-01	 8.4566368813e-01
 1.3568024981e+00	 4.3073385081e-01	 3.2610147493e-01
 1.3527780442e+00	 4.4321120218e-01	-1.6461089130e-01
 1.3486295997e+00	 4.5567833481e-01	-6.1602953673e-01
 1.3443569127e+00	 4.6813349455e-01	-1.0189376936e+00
 1.3399597633e+00	 4.8057491529e-01	-1.3653756505e+00
 1.3354379633e+00	 4.9300081962e-01	-1.6486717848e+00
 1.3836000058e+00	 3.7053711183e-01	 3.0941903124e+00
 1.3801695264e+00	 3.8311721213e-01	 2.5961847499e+00
 1.3766160126e+00	 3.9569565249e-01	 2.0523047317e+00
 1.3729390599e+00	 4.0827073762e-01	 1.4805885000e+00
 1.3691382930e+00	 4.2084075703e-01	 8.9825094648e-01
 1.3652133663e+00	 4.3340398569e-01	 3.2165844397e-01
 1.3611639648e+00	 4.4595868461e-01	-2.3369759507e-01
 1.3569898038e+00	 4.5850310145e-01	-7.5322852796e-01
 1.3526906303e+00	 4.7103547119e-01	-1.2232777464e+00
 1.3482662228e+00	 4.8355401675e-01	-1.6311514729e+00
 1.3437163920e+00	 4.9605694971e-01	-1.9651511549e+00
 1.3921241513e+00	 3.7281993362e-01	 3.2010274571e+00
 1.3886725372e+00	 3.8547753797e-01	 2.6610870071e+00
 1.3850971308e+00	 3.9813347216e-01	 2.0599433512e+00
 1.3813975249e+00	 4.1078603044e-01	 1.4195274672e+00
 1.3775733421e+00	 4.2343349180e-01	 7.6133972231e-01
 1.3736242346e+00	 4.3607412057e-01	 1.0642612090e-01
 1.3695498853e+00	 4.4870616704e-01	-5.2464731657e-01
 1.3653500079e+00	 4.6132786810e-01	-1.1118221581e+00
 1.3610243479e+00	 4.7393744782e-01	-1.6355772503e+00
 1.3565726823e+00	 4.8653311820e-01	-2.0769605870e+00
 1.3519948207e+00	 4.9911307980e-01	-2.4176234357e+00
 1.2692105336e+00	 4.6855177891e-01	-3.2549849012e+00
 1.2647936020e+00	 4.8034701128e-01	-2.4275910264e+00
 1.2602578954e+00	 4.9212408161e-01	-1.7107911079e+00
 1.2556033274e+00	 5.0388127097e-01	-1.1187280557e+00
 1.2508298437e+00	 5.1561685237e-01	-6.6472303574e-01
 1.2459374222e+00	 5.2732909147e-01	-3.6124815734e-01
 1.2409260734e+00	 5.3901624731e-01	-2.1990160131e-01
 1.2357958404e+00	 5.5067657307e-01	-2.5138527426e-01
 1.2305467998e+00	 5.6230831678e-01	-4.6548506011e-01
 1.2251790613e+00	 5.7390972211e-01	-8.7105372742e-01
 1.2196927683e+00	 5.8547902912e-01	-1.4759965361e+00
 1.2774889623e+00	 4.7160790899e-01	-2.7148822445e+00
 1.2730432213e+00	 4.8348007580e-01	-2.0326080149e+00
 1.2684779305e+00	 4.9533396210e-01	-1.4957388277e+00
 1.2637930031e+00	 5.0716783776e-01	-1.1089126453e+00
 1.2589883843e+00	 5.1897996451e-01	-8.7541773201e-01
 1.2540640520e+00	 5.3076859672e-01	-7.9717213029e-01
 1.2490200166e+00	 5.4253198206e-01	-8.7470648827e-01
 1.2438563217e+00	 5.5426836232e-01	-1.1071503265e+00
 1.2385730442e+00	 5.6597597411e-01	-1.4922218165e+00
 1.2331702946e+00	 5.7765304963e-01	-2.0262211269e+00
 1.2276482172e+00	 5.8929781748e-01	-2.7040273790e+00
 1.2857673910e+00	 4.7466403908e-01	-2.2575060656e+00
 1.2812928405e+00	 4.8661314031e-01	-1.7356796360e+00
 1.2766979656e+00	 4.9854384259e-01	-1.3757780870e+00
 1.2719826787e+00	 5.1045440454e-01	-1.1753746420e+00
 1.2671469249e+00	 5.2234307665e-01	-1.1302799369e+00
 1.2621906818e+00	 5.3420810196e-01	-1.2345264236e+00
 1.2571139599e+00	 5.4604771681e-01	-1.4803568559e+00
 1.2519168030e+00	 5.5786015158e-01	-1.8582169497e+00
 1.2465992886e+00	 5.6964363144e-01	-2.3567522902e+00
 1.2411615279e+00	 5.8139637715e-01	-2.9628095435e+00
 1.2356036662e+00	 5.9311660583e-01	-3.6614420094e+00
 1.2940458197e+00	 4.7772016917e-01	-1.8902339224e+00
 1.2895424598e+00	 4.8974620483e-01	-1.5344930023e+00
 1.2849180007e+00	 5.0175372308e-01	-1.3407635895e+00
 1.2801723544e+00	 5.1374097132e-01	-1.3019475930e+00
 1.2753054656e+00	 5.2570618879e-01	-1.4088849294e+00
 1.2703173116e+00	 5.3764760721e-01	-1.6503410109e+00
 1.2652079031e+00	 5.4956345156e-01	-2.0129988701e+00
 1.2599772843e+00	 5.6145194083e-01	-2.4814560165e+00
 1.2546255330e+00	 5.7331128877e-01	-3.0382261014e+00
 1.2491527612e+00	 5.8513970467e-01	-3.6637454457e+00
 1.2435591152e+00	 5.9693539419e-01	-4.3363844701e+00
 1.3023242484e+00	 4.8077629926e-01	-1.6202235614e+00
 1.2977920791e+00	 4.9287926935e-01	-1.4267629118e+00
 1.2931380358e+00	 5.0496360357e-01	-1.3807782210e+00
 1.2883620301e+00	 5.1702753811e-01	-1.4728479112e+00
 1.2834640062e+00	 5.2906930094e-01	-1.6913009498e+00
 1.2784439414e+00	 5.4108711246e-01	-2.0222055984e+00
 1.2733018464e+00	 5.5307918632e-01	-2.4493631771e+00
 1.2680377656e+00	 5.6504373008e-01	-2.9543069444e+00
 1.2626517774e+00	 5.7697894610e-01	-3.5163061705e+00
 1.2571439946e+00	 5.8888303220e-01	-4.1123754614e+00
 1.2515145641e+00	 6.0075418255e-01	-4.7172893721e+00
 1.3106026771e+00	 4.8383242935e-01	-1.4544203635e+00
 1.3060416983e+00	 4.9601233388e-01	-1.4102315979e+00
 1.3013580709e+00	 5.0817348406e-01	-1.4861265949e+00
 1.2965517058e+00	 5.2031410489e-01	-1.6726636683e+00
 1.2916225468e+00	 5.3243241308e-01	-1.9580746544e+00
 1.2865705712e+00	 5.4452661771e-01	-2.3282531146e+00
 1.2813957896e+00	 5.5659492107e-01	-2.7667477620e+00
 1.2760982469e+00	 5.6863551934e-01	-3.2547612118e+00
 1.2706780219e+00	 5.8064660343e-01	-3.7711541391e+00
 1.2651352279e+00	 5.9262635972e-01	-4.2924549040e+00
 1.2594700131e+00	 6.0457297090e-01	-4.7928746830e+00
 1.3188811058e+00	 4.8688855944e-01	-1.3995645496e+00
 1.3142913176e+00	 4.9914539840e-01	-1.4826685313e+00
 1.3095781060e+00	 5.1138336455e-01	-1.6473288842e+00
 1.3047413814e+00	 5.2360067168e-01	-1.8863438566e+00
 1.2997810874e+00	 5.3579552522e-01	-2.1902171670e+00
 1.2946972009e+00	 5.4796612296e-01	-2.5471438746e+00
 1.2894897329e+00	 5.6011065582e-01	-2.9430015072e+00
 1.2841587282e+00	 5.7222730859e-01	-3.3613465525e+00
 1.2787042663e+00	 5.8431426076e-01	-3.7834164000e+00
 1.2731264612e+00	 5.9636968725e-01	-4.1881367956e+00
 1.2674254621e+00	 6.0839175926e-01	-4.5521348533e+00
 1.3271595345e+00	 4.8994468953e-01	-1.4621981553e+00
 1.3225409368e+00	 5.0227846292e-01	-1.6418702702e+00
 1.3177981411e+00	 5.1459324504e-01	-1.8551149293e+00
 1.3129310571e+00	 5.2688723847e-01	-2.0991880986e+00
 1.3079396280e+00	 5.3915863737e-01	-2.3691907021e+00
 1.3028238307e+00	 5.5140562821e-01	-2.6580503885e+00
 1.2975836761e+00	 5.6362639057e-01	-2.9565084209e+00
 1.2922192095e+00	 5.7581909785e-01	-3.2531118000e+00
 1.2867305107e+00	 5.8798191809e-01	-3.5342107107e+00
 1.2811176945e+00	 6.0011301477e-01	-3.7839613619e+00
 1.2753809110e+00	 6.1221054762e-01	-3.9843342646e+00
 1.3354379633e+00	 4.9300081962e-01	-1.6486717848e+00
 1.3307905561e+00	 5.0541152744e-01	-1.8856603585e+00
 1.3260181762e+00	 5.1780312553e-01	-2.1004186081e+00
 1.3211207328e+00	 5.3017380525e-01	-2.2968367865e+00
 1.3160981686e+00	 5.4252174951e-01	-2.4768957334e+00
 1.3109504605e+00	 5.5484513347e-01	-2.6406427854e+00
 1.3056776194e+00	 5.6714212532e-01	-2.7861725059e+00
 1.3002796908e+00	 5.7941088710e-01	-2.9096123506e+00
 1.2947567551e+00	 5.9164957542e-01	-3.0051133639e+00
 1.2891089279e+00	 6.0385634229e-01	-3.0648459813e+00
 1.2833363600e+00	 6.1602933597e-01	-3.0790009878e+00
 1.3437163920e+00	 4.9605694971e-01	-1.9651511549e+00
 1.3390401754e+00	 5.0854459196e-01	-2.2118892674e+00
 1.3342382113e+00	 5.2101300602e-01	-2.3743724576e+00
 1.3293104084e+00	 5.3346037204e-01	-2.4652616314e+00
 1.3242567092e+00	 5.4588486165e-01	-2.4956586864e+00
 1.3190770903e+00	 5.5828463872e-01	-2.4750748291e+00
 1.3137715626e+00	 5.7065786008e-01	-2.4114032418e+00
 1.3083401721e+00	 5.8300267636e-01	-2.3108962214e+00
 1.3027829995e+00	 5.9531723275e-01	-2.1781468914e+00
 1.2971001612e+00	 6.0759966982e-01	-2.0160755676e+00
 1.2912918090e+00	 6.1984812433e-01	-1.8259208359e+00
 1.3519948207e+00	 4.9911307980e-01	-2.4176234357e+00
 1.3472897946e+00	 5.1167765648e-01	-2.6184343811e+00
 1.3424582464e+00	 5.2422288651e-01	-2.6683025374e+00
 1.3375000841e+00	 5.3674693882e-01	-2.5907566061e+00
 1.3324152499e+00	 5.4924797379e-01	-2.4082201302e+00
 1.3272037201e+00	 5.6172414397e-01	-2.1419704963e+00
 1.3218655059e+00	 5.7417359483e-01	-1.8121016537e+00
 1.3164006534e+00	 5.8659446561e-01	-1.4374906765e+00
 1.3108092439e+00	 5.9898489008e-01	-1.0357682786e+00
 1.3050913945e+00	 6.1134299734e-01	-6.2329336661e-01
 1.2992472579e+00	 6.2366691268e-01	-2.1513170005e-01
 1.2196927683e+00	 5.8547902912e-01	-1.4759965361e+00
 1.2140890607e+00	 5.9701251716e-01	-2.0921651109e+00
 1.2083672264e+00	 6.0851039118e-01	-2.5240183291e+00
 1.2025275101e+00	 6.1997088548e-01	-2.7681381703e+00
 1.1965701906e+00	 6.3139223392e-01	-2.8222612675e+00
 1.1904955813e+00	 6.4277267076e-01	-2.6853153308e+00
 1.1843040300e+00	 6.5411043145e-01	-2.3574557515e+00
 1.1779959194e+00	 6.6540375352e-01	-1.8401022371e+00
 1.1715716669e+00	 6.7665087737e-01	-1.1359753119e+00
 1.1650317246e+00	 6.8785004713e-01	-2.4913251144e-01
 1.1583765792e+00	 6.9899951150e-01	 8.1499591609e-01
 1.2276482172e+00	 5.8929781748e-01	-2.7040273790e+00
 1.2220079594e+00	 6.0090653272e-01	-3.3474106176e+00
 1.2162488045e+00	 6.1247940165e-01	-3.7805358085e+00
 1.2103709987e+00	 6.2401464705e-01	-4.0014542832e+00
 1.2043748225e+00	 6.3551049127e-01	-4.0096164760e+00
 1.1982605915e+00	 6.4696515702e-01	-3.8059093695e+00
 1.1920286558e+00	 6.5837686829e-01	-3.3926938609e+00
 1.1856794006e+00	 6.6974385108e-01	-2.7738418911e+00
 1.1792132459e+00	 6.8106433433e-01	-1.9547731634e+00
 1.1726306468e+00	 6.9233655070e-01	-9.4249126883e-01
 1.1659320932e+00	 7.0355873747e-01	 2.5438097254e-01
 1.2356036662e+00	 5.9311660583e-01	-3.6614420094e+00
 1.2299268582e+00	 6.0480054828e-01	-4.2916565215e+00
 1.2241303826e+00	 6.1644841212e-01	-4.7018392008e+00
 1.2182144872e+00	 6.2805840862e-01	-4.8905490112e+00
 1.2121794544e+00	 6.3962874861e-01	-4.8579141169e+00
 1.2060256018e+00	 6.5115764329e-01	-4.6056710662e+00
 1.1997532817e+00	 6.6264330513e-01	-4.1372037488e+00
 1.1933628818e+00	 6.7408394864e-01	-3.4575819582e+00
 1.1868548249e+00	 6.8547779128e-01	-2.5735993781e+00
 1.1802295689e+00	 6.9682305426e-01	-1.4938108026e+00
 1.1734876072e+00	 7.0811796344e-01	-2.2856838649e-01
 1.2435591152e+00	 5.9693539419e-01	-4.3363844701e+00
 1.2378457570e+00	 6.0869456383e-01	-4.9183460078e+00
 1.2320119607e+00	 6.2041742259e-01	-5.2854460852e+00
 1.2260579757e+00	 6.3210217019e-01	-5.4358080821e+00
 1.2199840863e+00	 6.4374700595e-01	-5.3692212474e+00
 1.2137906120e+00	 6.5535012956e-01	-5.0871823327e+00
 1.2074779075e+00	 6.6690974197e-01	-4.5929369613e+00
 1.2010463630e+00	 6.7842404620e-01	-3.8915205562e+00
 1.1944964038e+00	 6.8989124823e-01	-2.9897986377e+00
 1.1878284911e+00	 7.0130955782e-01	-1.8965062878e+00
 1.1810431212e+00	 7.1267718941e-01	-6.2228657252e-01
 1.2515145641e+00	 6.0075418255e-01	-4.7172893721e+00
 1.2457646558e+00	 6.1258857939e-01	-5.2210813351e+00
 1.2398935388e+00	 6.2438643306e-01	-5.5289329174e+00
 1.2339014643e+00	 6.3614593177e-01	-5.6376067152e+00
 1.2277887182e+00	 6.4786526330e-01	-5.5455553339e+00
 1.2215556223e+00	 6.5954261583e-01	-5.2529661754e+00
 1.2152025334e+00	 6.7117617881e-01	-4.7618060348e+00
 1.2087298441e+00	 6.8276414376e-01	-4.0758653186e+00
 1.2021379828e+00	 6.9430470518e-01	-3.2008016863e+00
 1.1954274133e+00	 7.0579606139e-01	-2.1441829040e+00
 1.1885986352e+00	 7.1723641538e-01	-9.1552868695e-01
 1.2594700131e+00	 6.0457297090e-01	-4.7928746830e+00
 1.2536835545e+00	 6.1648259495e-01	-5.1936209495e+00
 1.2477751169e+00	 6.2835544353e-01	-5.4299354834e+00
 1.2417449528e+00	 6.4018969334e-01	-5.4963124458e+00
 1.2355933501e+00	 6.5198352064e-01	-5.3888884920e+00
 1.2293206325e+00	 6.6373510210e-01	-5.1054914140e+00
 1.2229271592e+00	 6.7544261565e-01	-4.6456887728e+00
 1.2164133253e+00	 6.8710424132e-01	-4.0108363244e+00
 1.2097795618e+00	 6.9871816214e-01	-3.2041260323e+00
 1.2030263355e+00	 7.1028256495e-01	-2.2306334427e+00
 1.1961541492e+00	 7.2179564136e-01	-1.0973641899e+00
 1.2674254621e+00	 6.0839175926e-01	-4.5521348533e+00
 1.2616024533e+00	 6.2037661051e-01	-4.8298767755e+00
 1.2556566950e+00	 6.3232445400e-01	-4.9861494086e+00
 1.2495884413e+00	 6.4423345491e-01	-5.0122879177e+00
 1.2433979820e+00	 6.5610177798e-01	-4.9011516454e+00
 1.2370856428e+00	 6.6792758837e-01	-4.6471773035e+00
 1.2306517850e+00	 6.7970905249e-01	-4.2464324445e+00
 1.2240968065e+00	 6.9144433889e-01	-3.6966690063e+00
 1.2174211408e+00	 7.0313161909e-01	-2.9973767132e+00
 1.2106252577e+00	 7.1476906852e-01	-2.1498360982e+00
 1.2037096631e+00	 7.2635486733e-01	-1.1571709035e+00
 1.2753809110e+00	 6.1221054762e-01	-3.9843342646e+00
 1.2695213521e+00	 6.2427062607e-01	-4.1239116772e+00
 1.2635382731e+00	 6.3629346447e-01	-4.1953307186e+00
 1.2574319299e+00	 6.4827721648e-01	-4.1858936463e+00
 1.2512026139e+00	 6.6022003533e-01	-4.0842386059e+00
 1.2448506530e+00	 6.7212007464e-01	-3.8803980630e+00
 1.2383764109e+00	 6.8397548933e-01	-3.5658579102e+00
 1.2317802877e+00	 6.9578443645e-01	-3.1336170354e+00
 1.2250627197e+00	 7.0754507604e-01	-2.5782471213e+00
 1.2182241799e+00	 7.1925557208e-01	-1.8959524333e+00
 1.2112651771e+00	 7.3091409330e-01	-1.0846293350e+00
 1.2833363600e+00	 6.1602933597e-01	-3.0790009878e+00
 1.2774402508e+00	 6.2816464163e-01	-3.0699370818e+00
 1.2714198512e+00	 6.4026247494e-01	-3.0552964506e+00
 1.2652754184e+00	 6.5232097805e-01	-3.0174907521e+00
 1.2590072458e+00	 6.6433829267e-01	-2.9400100789e+00
 1.2526156633e+00	 6.7631256091e-01	-2.8074873162e+00
 1.2461010367e+00	 6.8824192617e-01	-2.6057636758e+00
 1.2394637688e+00	 7.0012453401e-01	-2.3219551847e+00
 1.2327042987e+00	 7.1195853299e-01	-1.9445198884e+00
 1.2258231020e+00	 7.2374207564e-01	-1.4633255123e+00
 1.2188206911e+00	 7.3547331927e-01	-8.6971730604e-01
 1.2912918090e+00	 6.1984812433e-01	-1.8259208359e+00
 1.2853591496e+00	 6.3205865719e-01	-1.6623107591e+00
 1.2793014293e+00	 6.4423148541e-01	-1.5639253128e+00
 1.2731189069e+00	 6.5636473962e-01	-1.5074436670e+00
 1.2668118777e+00	 6.6845655001e-01	-1.4702975972e+00
 1.2603806735e+00	 6.8050504718e-01	-1.4307424477e+00
 1.2538256626e+00	 6.9250836301e-01	-1.3679298797e+00
 1.2471472500e+00	 7.0446463157e-01	-1.2619821721e+00
 1.2403458777e+00	 7.1637198995e-01	-1.0940678249e+00
 1.2334220242e+00	 7.2822857921e-01	-8.4647819476e-01
 1.2263762051e+00	 7.4003254524e-01	-5.0270487458e-01
 1.2992472579e+00	 6.2366691268e-01	-2.1513170005e-01
 1.2932780484e+00	 6.3595267275e-01	 1.0446525117e-01
 1.2871830074e+00	 6.4820049588e-01	 2.8084161109e-01
 1.2809623955e+00	 6.6040850119e-01	 3.4387718573e-01
 1.2746165096e+00	 6.7257480735e-01	 3.2309261414e-01
 1.2681456837e+00	 6.8469753345e-01	 2.4757112317e-01
 1.2615502884e+00	 6.9677479985e-01	 1.4587778462e-01
 1.2548307312e+00	 7.0880472913e-01	 4.5976516010e-02
 1.2479874567e+00	 7.2078544690e-01	-2.4854912619e-02
 1.2410209464e+00	 7.3271508277e-01	-4.0111582448e-02
 1.2339317191e+00	 7.4459177121e-01	 2.4577315706e-02
 1.1583765792e+00	 6.9899951150e-01	 8.1499591609e-01
 1.1516067529e+00	 7.1009752482e-01	 1.8750797770e+00
 1.1447228033e+00	 7.2114234859e-01	 2.7507942286e+00
 1.1377253231e+00	 7.3213225174e-01	 3.4373819350e+00
 1.1306149397e+00	 7.4306551116e-01	 3.9299409711e+00
 1.1233923147e+00	 7.5394041265e-01	 4.2121847643e+00
 1.1160581442e+00	 7.6475525172e-01	 4.2734247900e+00
 1.1086131585e+00	 7.7550833447e-01	 4.1079307057e+00
 1.1010581216e+00	 7.8619797841e-01	 3.7025515661e+00
 1.0933938315e+00	 7.9682251330e-01	 3.0502486603e+00
 1.0856211196e+00	 8.0738028204e-01	 2.1472010377e+00
 1.1659320932e+00	 7.0355873747e-01	 2.5438097254e-01
 1.1591181107e+00	 7.1472913760e-01	 1.4661183601e+00
 1.1521892605e+00	 7.2584600127e-01	 2.5178445199e+00
 1.1451461392e+00	 7.3690758608e-01	 3.3923628142e+00
 1.1379893783e+00	 7.4791215771e-01	 4.0690505937e+00
 1.1307196437e+00	 7.5885799078e-01	 4.5176840153e+00
 1.1233376361e+00	 7.6974336967e-01	 4.7200238168e+00
 1.1158440904e+00	 7.8056658942e-01	 4.6596130557e+00
 1.1082397758e+00	 7.9132595658e-01	 4.3199020879e+00
 1.1005254953e+00	 8.0201979003e-01	 3.6770762336e+00
 1.0927020859e+00	 8.1264642184e-01	 2.7145748823e+00
 1.1734876072e+00	 7.0811796344e-01	-2.2856838649e-01
 1.1666294684e+00	 7.1936075039e-01	 1.0694589424e+00
 1.1596557177e+00	 7.3054965395e-01	 2.2366700193e+00
 1.1525669553e+00	 7.4168292043e-01	 3.2453917222e+00
 1.1453638169e+00	 7.5275880427e-01	 4.0575407580e+00
 1.1380469728e+00	 7.6377556890e-01	 4.6376827256e+00
 1.1306171280e+00	 7.7473148761e-01	 4.9588059575e+00
 1.1230750224e+00	 7.8562484437e-01	 4.9948592971e+00
 1.1154214300e+00	 7.9645393476e-01	 4.7207920536e+00
 1.1076571592e+00	 8.0721706676e-01	 4.1113877721e+00
 1.0997830522e+00	 8.1791256164e-01	 3.1344986583e+00
 1.1810431212e+00	 7.1267718941e-01	-6.2228657252e-01
 1.1741408262e+00	 7.2399236318e-01	 7.0160380055e-01
 1.1671221749e+00	 7.3525330663e-01	 1.9275615635e+00
 1.1599877715e+00	 7.4645825478e-01	 3.0169921507e+00
 1.1527382555e+00	 7.5760545083e-01	 3.9193166322e+00
 1.1453743018e+00	 7.6869314703e-01	 4.5961954020e+00
 1.1378966199e+00	 7.7971960555e-01	 5.0125990501e+00
 1.1303059543e+00	 7.9068309932e-01	 5.1346238653e+00
 1.1226030842e+00	 8.0158191294e-01	 4.9295447750e+00
 1.1147888230e+00	 8.1241434350e-01	 4.3658680107e+00
 1.1068640185e+00	 8.2317870144e-01	 3.4115965915e+00
 1.1885986352e+00	 7.1723641538e-01	-9.1552868695e-01
 1.1816521840e+00	 7.2862397597e-01	 3.7860496375e-01
 1.1745886321e+00	 7.3995695931e-01	 1.6102594062e+00
 1.1674085876e+00	 7.5123358913e-01	 2.7280350659e+00
 1.1601126942e+00	 7.6245209739e-01	 3.6776371266e+00
 1.1527016308e+00	 7.7361072516e-01	 4.4165869997e+00
 1.1451761118e+00	 7.8470772349e-01	 4.9036111132e+00
 1.1375368863e+00	 7.9574135427e-01	 5.0986604964e+00
 1.1297847384e+00	 8.0670989112e-01	 4.9629739419e+00
 1.1219204869e+00	 8.1761162023e-01	 4.4591408507e+00
 1.1139449849e+00	 8.2844484125e-01	 3.5511636123e+00
 1.1961541492e+00	 7.2179564136e-01	-1.0973641899e+00
 1.1891635418e+00	 7.3325558876e-01	 1.1607444894e-01
 1.1820550893e+00	 7.4466061199e-01	 1.3027145962e+00
 1.1748294037e+00	 7.5600892348e-01	 2.3998535072e+00
 1.1674871328e+00	 7.6729874395e-01	 3.3551348838e+00
 1.1600289599e+00	 7.7852830329e-01	 4.1215930555e+00
 1.1524556037e+00	 7.8969584144e-01	 4.6534495803e+00
 1.1447678182e+00	 8.0079960923e-01	 4.9061840232e+00
 1.1369663926e+00	 8.1183786930e-01	 4.8366046087e+00
 1.1290521507e+00	 8.2280889696e-01	 4.4029185883e+00
 1.1210259512e+00	 8.3371098105e-01	 3.5648021642e+00
 1.2037096631e+00	 7.2635486733e-01	-1.1571709035e+00
 1.1966748995e+00	 7.3788720155e-01	-7.0805989026e-02
 1.1895215464e+00	 7.4936426467e-01	 1.0211810889e+00
 1.1822502198e+00	 7.6078425782e-01	 2.0532066501e+00
 1.1748615714e+00	 7.7214539051e-01	 2.9738355473e+00
 1.1673562889e+00	 7.8344588142e-01	 3.7333390951e+00
 1.1597350956e+00	 7.9468395938e-01	 4.2831398434e+00
 1.1519987502e+00	 8.0585786418e-01	 4.5758870255e+00
 1.1441480468e+00	 8.1696584748e-01	 4.5655319993e+00
 1.1361838146e+00	 8.2800617369e-01	 4.2074035125e+00
 1.1281069175e+00	 8.3897712086e-01	 3.4582826224e+00
 1.2112651771e+00	 7.3091409330e-01	-1.0846293350e+00
 1.2041862573e+00	 7.4251881434e-01	-1.6754303612e-01
 1.1969880036e+00	 7.5406791735e-01	 7.8347946362e-01
 1.1896710359e+00	 7.6555959217e-01	 1.7082973119e+00
 1.1822360100e+00	 7.7699203707e-01	 2.5551763395e+00
 1.1746836179e+00	 7.8836345955e-01	 3.2733593465e+00
 1.1670145874e+00	 7.9967207732e-01	 3.8131431359e+00
 1.1592296821e+00	 8.1091611913e-01	 4.1259558904e+00
 1.1513297010e+00	 8.2209382566e-01	 4.1644347294e+00
 1.1433154784e+00	 8.3320345043e-01	 3.8825032750e+00
 1.1351878838e+00	 8.4424326066e-01	 3.2354490511e+00
 1.2188206911e+00	 7.3547331927e-01	-8.6971730604e-01
 1.2116976151e+00	 7.4715042713e-01	-1.6245938491e-01
 1.2044544608e+00	 7.5877157003e-01	 6.0699306306e-01
 1.1970918520e+00	 7.7033492652e-01	 1.3847888349e+00
 1.1896104486e+00	 7.8183868363e-01	 2.1200239802e+00
 1.1820109470e+00	 7.9328103768e-01	 2.7626147889e+00
 1.1742940793e+00	 8.0466019527e-01	 3.2633737835e+00
 1.1664606141e+00	 8.1597437408e-01	 3.5740863107e+00
 1.1585113552e+00	 8.2722180383e-01	 3.6475875719e+00
 1.1504471423e+00	 8.3840072716e-01	 3.4378399206e+00
 1.1422688501e+00	 8.4950940046e-01	 2.9000102523e+00
 1.2263762051e+00	 7.4003254524e-01	-5.0270487458e-01
 1.2192089729e+00	 7.5178203992e-01	-4.2509768969e-02
 1.2119209180e+00	 7.6347522270e-01	 5.0863868979e-01
 1.2045126681e+00	 7.7511026087e-01	 1.1018213761e+00
 1.1969848873e+00	 7.8668533018e-01	 1.6886919730e+00
 1.1893382760e+00	 7.9819861581e-01	 2.2215105671e+00
 1.1815735712e+00	 8.0964831321e-01	 2.6532158505e+00
 1.1736915460e+00	 8.2103262903e-01	 2.9374982441e+00
 1.1656930094e+00	 8.3234978201e-01	 3.0288737858e+00
 1.1575788061e+00	 8.4359800389e-01	 2.8827586197e+00
 1.1493498165e+00	 8.5477554027e-01	 2.4555439122e+00
 1.2339317191e+00	 7.4459177121e-01	 2.4577315706e-02
 1.2267203306e+00	 7.5641365271e-01	 2.0560888954e-01
 1.2193873752e+00	 7.6817887538e-01	 5.0488055069e-01
 1.2119334843e+00	 7.7988559522e-01	 8.7802762683e-01
 1.2043593259e+00	 7.9153197674e-01	 1.2809572875e+00
 1.1966656050e+00	 8.0311619394e-01	 1.6699127972e+00
 1.1888530631e+00	 8.1463643115e-01	 2.0015392077e+00
 1.1809224780e+00	 8.2609088398e-01	 2.2329503569e+00
 1.1728746636e+00	 8.3747776019e-01	 2.3217970283e+00
 1.1647104700e+00	 8.4879528062e-01	 2.2263361163e+00
 1.1564307828e+00	 8.6004168007e-01	 1.9055006346e+00
 1.0856211196e+00	 8.0738028204e-01	 2.1472010377e+00
 1.0777395025e+00	 8.1787141782e-01	 1.2271976981e+00
 1.0697511944e+00	 8.2829248578e-01	 5.2307471886e-01
 1.0616571303e+00	 8.3864186625e-01	 3.0034471972e-02
 1.0534582781e+00	 8.4891795597e-01	-2.5607521050e-01
 1.0451556373e+00	 8.5911916885e-01	-3.3873854455e-01
 1.0367502390e+00	 8.6924393681e-01	-2.2075032305e-01
 1.0282431458e+00	 8.7929071054e-01	 9.5804457638e-02
 1.0196354508e+00	 8.8925796029e-01	 6.0956979877e-01
 1.0109282776e+00	 8.9914417665e-01	 1.3199366559e+00
 1.0021227793e+00	 9.0894787126e-01	 2.2270595825e+00
 1.0927020859e+00	 8.1264642184e-01	 2.7145748823e+00
 1.0847690610e+00	 8.2320598608e-01	 1.6585480795e+00
 1.0767286491e+00	 8.3369502548e-01	 7.5425332935e-01
 1.0685817915e+00	 8.4411190981e-01	 1.6547806513e-02
 1.0603294622e+00	 8.5445502535e-01	-5.3942565046e-01
 1.0519726674e+00	 8.6472277566e-01	-8.9824427283e-01
 1.0435124449e+00	 8.7491358244e-01	-1.0442116943e+00
 1.0349498642e+00	 8.8502588628e-01	-9.6136491346e-01
 1.0262860255e+00	 8.9505814745e-01	-6.3348191446e-01
 1.0175220596e+00	 9.0500884667e-01	-4.4089973789e-02
 1.0086591275e+00	 9.1487648590e-01	 8.2352532248e-01
 1.0997830522e+00	 8.1791256164e-01	 3.1344986583e+00
 1.0917986194e+00	 8.2854055434e-01	 2.0011909684e+00
 1.0837061038e+00	 8.3909756518e-01	 9.6043063392e-01
 1.0755064526e+00	 8.4958195337e-01	 4.3515087072e-02
 1.0672006463e+00	 8.5999209473e-01	-7.1829476347e-01
 1.0587896975e+00	 8.7032638248e-01	-1.2938041187e+00
 1.0502746508e+00	 8.8058322808e-01	-1.6519140924e+00
 1.0416565825e+00	 8.9076106202e-01	-1.7616517221e+00
 1.0329366001e+00	 9.0085833460e-01	-1.5922001794e+00
 1.0241158417e+00	 9.1087351669e-01	-1.1129291679e+00
 1.0151954757e+00	 9.2080510054e-01	-2.9342549759e-01
 1.1068640185e+00	 8.2317870144e-01	 3.4115965915e+00
 1.0988281779e+00	 8.3387512261e-01	 2.2526910688e+00
 1.0906835584e+00	 8.4450010489e-01	 1.1328771023e+00
 1.0824311138e+00	 8.5505199693e-01	 9.6737537823e-02
 1.0740718304e+00	 8.6552916411e-01	-8.1146639881e-01
 1.0656067276e+00	 8.7592998929e-01	-1.5478442152e+00
 1.0570368567e+00	 8.8625287372e-01	-2.0689251397e+00
 1.0483633009e+00	 8.9649623777e-01	-2.3317069419e+00
 1.0395871747e+00	 9.0665852175e-01	-2.2937045452e+00
 1.0307096238e+00	 9.1673818671e-01	-1.9129983907e+00
 1.0217318239e+00	 9.2673371519e-01	-1.1482825110e+00
 1.1139449849e+00	 8.2844484125e-01	 3.5511636123e+00
 1.1058577363e+00	 8.3920969087e-01	 2.4106698260e+00
 1.0976610131e+00	 8.4990264459e-01	 1.2630803730e+00
 1.0893557749e+00	 8.6052204049e-01	 1.6237298282e-01
 1.0809430146e+00	 8.7106623349e-01	-8.3725087946e-01
 1.0724237577e+00	 8.8153359611e-01	-1.6822242413e+00
 1.0637990626e+00	 8.9192251936e-01	-2.3196785544e+00
 1.0550700192e+00	 9.0223141351e-01	-2.6975071303e+00
 1.0462377494e+00	 9.1245870890e-01	-2.7644280147e+00
 1.0373034059e+00	 9.2260285674e-01	-2.4700462368e+00
 1.0282681722e+00	 9.3266232983e-01	-1.7649153665e+00
 1.1210259512e+00	 8.3371098105e-01	 3.5648021642e+00
 1.1128872948e+00	 8.4454425913e-01	 2.4731074937e+00
 1.1046384678e+00	 8.5530518429e-01	 1.3427388898e+00
 1.0962804361e+00	 8.6599208405e-01	 2.2692510605e-01
 1.0878141987e+00	 8.7660330287e-01	-8.1349940907e-01
 1.0792407878e+00	 8.8713720292e-01	-1.7182547393e+00
 1.0705612685e+00	 8.9759216499e-01	-2.4279935739e+00
 1.0617767376e+00	 9.0796658925e-01	-2.8843751092e+00
 1.0528883240e+00	 9.1825889606e-01	-3.0301380880e+00
 1.0438971880e+00	 9.2846752676e-01	-2.8091728956e+00
 1.0348045204e+00	 9.3859094447e-01	-2.1665926314e+00
 1.1281069175e+00	 8.3897712086e-01	 3.4582826224e+00
 1.1199168533e+00	 8.4987882739e-01	 2.4441605643e+00
 1.1116159225e+00	 8.6070772399e-01	 1.3637797881e+00
 1.1032050972e+00	 8.7146212762e-01	 2.7723314317e-01
 1.0946853828e+00	 8.8214037225e-01	-7.5761790857e-01
 1.0860578180e+00	 8.9274080974e-01	-1.6767137514e+00
 1.0773234743e+00	 9.0326181063e-01	-2.4170936188e+00
 1.0684834559e+00	 9.1370176499e-01	-2.9169998385e+00
 1.0595388987e+00	 9.2405908321e-01	-3.1159569826e+00
 1.0504909701e+00	 9.3433219678e-01	-2.9548498159e+00
 1.0413408686e+00	 9.4451955912e-01	-2.3759999519e+00
 1.1351878838e+00	 8.4424326066e-01	 3.2354490511e+00
 1.1269464117e+00	 8.5521339565e-01	 2.3239411120e+00
 1.1185933772e+00	 8.6611026369e-01	 1.3233242479e+00
 1.1101297584e+00	 8.7693217118e-01	 3.0046198612e-01
 1.1015565669e+00	 8.8767744163e-01	-6.8658030747e-01
 1.0928748481e+00	 8.9834441655e-01	-1.5778628055e+00
 1.0840856802e+00	 9.0893145627e-01	-2.3096242291e+00
 1.0751901743e+00	 9.1943694074e-01	-2.8194555157e+00
 1.0661894733e+00	 9.2985927036e-01	-3.0463810685e+00
 1.0570847521e+00	 9.4019686680e-01	-2.9309386045e+00
 1.0478772168e+00	 9.5044817376e-01	-2.4152575047e+00
 1.1422688501e+00	 8.4950940046e-01	 2.9000102523e+00
 1.1339759702e+00	 8.6054796392e-01	 2.1099240569e+00
 1.1255708319e+00	 8.7151280340e-01	 1.2171905329e+00
 1.1170544195e+00	 8.8240221474e-01	 2.8715512306e-01
 1.1084277510e+00	 8.9321451101e-01	-6.1694131340e-01
 1.0996918782e+00	 9.0394802337e-01	-1.4414622794e+00
 1.0908478861e+00	 9.1460110191e-01	-2.1276703056e+00
 1.0818968926e+00	 9.2517211648e-01	-2.6152199369e+00
 1.0728400480e+00	 9.3565945751e-01	-2.8452995513e+00
 1.0636785342e+00	 9.4606153682e-01	-2.7607091926e+00
 1.0544135650e+00	 9.5637678840e-01	-2.3059367681e+00
 1.1493498165e+00	 8.5477554027e-01	 2.4555439122e+00
 1.1410055286e+00	 8.6588253218e-01	 1.7996069158e+00
 1.1325482866e+00	 8.7691534310e-01	 1.0374548234e+00
 1.1239790807e+00	 8.8787225830e-01	 2.3000590331e-01
 1.1152989351e+00	 8.9875158039e-01	-5.6341206340e-01
 1.1065089083e+00	 9.0955163018e-01	-1.2867861682e+00
 1.0976100920e+00	 9.2027074754e-01	-1.8927726853e+00
 1.0886036110e+00	 9.3090729222e-01	-2.3271921512e+00
 1.0794906226e+00	 9.4145964467e-01	-2.5360124348e+00
 1.0702723163e+00	 9.5192620685e-01	-2.4668573008e+00
 1.0609499132e+00	 9.6230540305e-01	-2.0690766450e+00
 1.1564307828e+00	 8.6004168007e-01	 1.9055006346e+00
 1.1480350871e+00	 8.7121710044e-01	 1.3905091752e+00
 1.1395257413e+00	 8.8231788280e-01	 7.7634823038e-01
 1.1309037418e+00	 8.9334230186e-01	 1.1673357377e-01
 1.1221701192e+00	 9.0428864976e-01	-5.3625948755e-01
 1.1133259384e+00	 9.1515523699e-01	-1.1322600955e+00
 1.1043722979e+00	 9.2594039318e-01	-1.6259440809e+00
 1.0953103293e+00	 9.3664246796e-01	-1.9777094372e+00
 1.0861411972e+00	 9.4725983182e-01	-2.1412477958e+00
 1.0768660984e+00	 9.5779087687e-01	-2.0715212343e+00
 1.0674862614e+00	 9.6823401769e-01	-1.7251989633e+00
 1.0021227793e+00	 9.0894787126e-01	 2.2270595825e+00
 9.9322165768e-01	 9.1866593528e-01	 3.1182465187e+00
 9.8422462175e-01	 9.2829861215e-01	 3.7941067967e+00
 9.7513289479e-01	 9.3784449771e-01	 4.2738509177e+00
 9.6594772771e-01	 9.4730221172e-01	 4.5753804778e+00
 9.5667039851e-01	 9.5667039851e-01	 4.7152620738e+00
 9.4730221172e-01	 9.6594772771e-01	 4.7087027425e+00
 9.3784449771e-01	 9.7513289479e-01	 4.5695269555e+00
 9.2829861215e-01	 9.8422462175e-01	 4.3101551892e+00
 9.1866593528e-01	 9.9322165768e-01	 3.9415840897e+00
 9.0894787126e-01	 1.0021227793e+00	 3.4733682503e+00
 1.0086591275e+00	 9.1487648590e-01	 8.2352532248e-01
 9.9969994830e-01	 9.2465793602e-01	 1.7517284781e+00
 9.9064422918e-01	 9.3435344205e-01	 2.5166224251e+00
 9.8149320140e-01	 9.4396159067e-01	 3.1243190050e+00
 9.7224812405e-01	 9.5348099264e-01	 3.5797633611e+00
 9.6291028345e-01	 9.6291028345e-01	 3.8867257561e+00
 9.5348099264e-01	 9.7224812405e-01	 4.0477946863e+00
 9.4396159067e-01	 9.8149320140e-01	 4.0643712828e+00
 9.3435344205e-01	 9.9064422918e-01	 3.9366649909e+00
 9.2465793602e-01	 9.9969994830e-01	 3.6636905164e+00
 9.1487648590e-01	 1.0086591275e+00	 3.2432660295e+00
 1.0151954757e+00	 9.2080510054e-01	-2.9342549759e-01
 1.0061782389e+00	 9.3064993675e-01	 6.4759551704e-01
 9.9706383660e-01	 9.4040827195e-01	 1.4686566868e+00
 9.8785350802e-01	 9.5007868363e-01	 2.1645979719e+00
 9.7854852039e-01	 9.5965977355e-01	 2.7292786803e+00
 9.6915016839e-01	 9.6915016839e-01	 3.1555847928e+00
 9.5965977355e-01	 9.7854852039e-01	 3.4354372869e+00
 9.5007868363e-01	 9.8785350802e-01	 3.5598014221e+00
 9.4040827195e-01	 9.9706383660e-01	 3.5186969526e+00
 9.3064993675e-01	 1.0061782389e+00	 3.3012092305e+00
 9.2080510054e-01	 1.0151954757e+00	 2.8955011666e+00
 1.0217318239e+00	 9.2673371519e-01	-1.1482825110e+00
 1.0126565295e+00	 9.3664193749e-01	-2.1571308509e-01
 1.0034834440e+00	 9.4646310184e-01	 6.3229650813e-01
 9.9421381464e-01	 9.5619577659e-01	 1.3811073616e+00
 9.8484891673e-01	 9.6583855447e-01	 2.0153292891e+00
 9.7539005333e-01	 9.7539005333e-01	 2.5188412821e+00
 9.6583855447e-01	 9.8484891673e-01	 2.8748126054e+00
 9.5619577659e-01	 9.9421381464e-01	 3.0657244724e+00
 9.4646310184e-01	 1.0034834440e+00	 3.0733922441e+00
 9.3664193749e-01	 1.0126565295e+00	 2.8789880938e+00
 9.2673371519e-01	 1.0217318239e+00	 2.4630640847e+00
 1.0282681722e+00	 9.3266232983e-01	-1.7649153665e+00
 1.0191348201e+00	 9.4263393823e-01	-8.5921244985e-01
 1.0099030515e+00	 9.5251793174e-01	-9.9182932717e-03
 1.0005741213e+00	 9.6231286954e-01	 7.6060943362e-01
 9.9114931307e-01	 9.7201733539e-01	 1.4295339854e+00
 9.8162993827e-01	 9.8162993827e-01	 1.9735707790e+00
 9.7201733539e-01	 9.9114931307e-01	 2.3690188509e+00
 9.6231286954e-01	 1.0005741213e+00	 2.5917924560e+00
 9.5251793174e-01	 1.0099030515e+00	 2.6174527332e+00
 9.4263393823e-01	 1.0191348201e+00	 2.4212393654e+00
 9.3266232983e-01	 1.0282681722e+00	 1.9781021619e+00
 1.0348045204e+00	 9.3859094447e-01	-2.1665926314e+00
 1.0256131108e+00	 9.4862593897e-01	-1.3033886365e+00
 1.0163226589e+00	 9.5857276163e-01	-4.7500860296e-01
 1.0069344279e+00	 9.6842996250e-01	 2.9019906235e-01
 9.9744970941e-01	 9.7819611631e-01	 9.6372142515e-01
 9.8786982321e-01	 9.8786982321e-01	 1.5169207192e+00
 9.7819611631e-01	 9.9744970941e-01	 1.9210737811e+00
 9.6842996250e-01	 1.0069344279e+00	 2.1474111327e+00
 9.5857276163e-01	 1.0163226589e+00	 2.1671556227e+00
 9.4862593897e-01	 1.0256131108e+00	 1.9515605403e+00
 9.3859094447e-01	 1.0348045204e+00	 1.4719471219e+00
 1.0413408686e+00	 9.4451955912e-01	-2.3759999519e+00
 1.0320914014e+00	 9.5461793971e-01	-1.5682145256e+00
 1.0227422663e+00	 9.6462759153e-01	-7.7956906054e-01
 1.0132947345e+00	 9.7454705546e-01	-4.2705952213e-02
 1.0037501058e+00	 9.8437489723e-01	 6.0992429763e-01
 9.9410970815e-01	 9.9410970815e-01	 1.1461089347e+00
 9.8437489723e-01	 1.0037501058e+00	 1.5339180064e+00
 9.7454705546e-01	 1.0132947345e+00	 1.7417485148e+00
 9.6462759153e-01	 1.0227422663e+00	 1.7383675676e+00
 9.5461793971e-01	 1.0320914014e+00	 1.4929544356e+00
 9.4451955912e-01	 1.0413408686e+00	 9.7514142503e-01
 1.0478772168e+00	 9.5044817376e-01	-2.4152575047e+00
 1.0385696920e+00	 9.6060994045e-01	-1.6731650777e+00
 1.0291618737e+00	 9.7068242143e-01	-9.3978059166e-01
 1.0196550411e+00	 9.8066414842e-01	-2.5037418028e-01
 1.0100505021e+00	 9.9055367815e-01	 3.6037374959e-01
 1.0003495931e+00	 1.0003495931e+00	 8.5842225588e-01
 9.9055367815e-01	 1.0100505021e+00	 1.2104182025e+00
 9.8066414842e-01	 1.0196550411e+00	 1.3837430937e+00
 9.7068242143e-01	 1.0291618737e+00	 1.3465582970e+00
 9.6060994045e-01	 1.0385696920e+00	 1.0678485567e+00
 9.5044817376e-01	 1.0478772168e+00	 5.1746370433e-01
 1.0544135650e+00	 9.5637678840e-01	-2.3059367681e+00
 1.0450479826e+00	 9.6660194119e-01	-1.6372319943e+00
 1.0355814812e+00	 9.7673725132e-01	-9.7142244332e-01
 1.0260153477e+00	 9.8678124138e-01	-3.4476948151e-01
 1.0163508984e+00	 9.9673245907e-01	 2.0749404801e-01
 1.0065894780e+00	 1.0065894780e+00	 6.5121519759e-01
 9.9673245907e-01	 1.0163508984e+00	 9.5337023447e-01
 9.8678124138e-01	 1.0260153477e+00	 1.0821117941e+00
 9.7673725132e-01	 1.0355814812e+00	 1.0068137606e+00
 9.6660194119e-01	 1.0450479826e+00	 6.9811377643e-01
 9.5637678840e-01	 1.0544135650e+00	 1.2795328750e-01
 1.0609499132e+00	 9.6230540305e-01	-2.0690766450e+00
 1.0515262732e+00	 9.7259394193e-01	-1.4789378069e+00
 1.0420010886e+00	 9.8279208122e-01	-8.8988374387e-01
 1.0323756543e+00	 9.9289833433e-01	-3.3755956384e-01
 1.0226512948e+00	 1.0029112400e+00	 1.4389747107e-01
 1.0128293630e+00	 1.0128293630e+00	 5.2190872413e-01
 1.0029112400e+00	 1.0226512948e+00	 7.6550219720e-01
 9.9289833433e-01	 1.0323756543e+00	 8.4535766429e-01
 9.8279208122e-01	 1.0420010886e+00	 7.3384882097e-01
 9.7259394193e-01	 1.0515262732e+00	 4.0508235396e-01
 9.6230540305e-01	 1.0609499132e+00	-1.6506615569e-01
 1.0674862614e+00	 9.6823401769e-01	-1.7251989633e+00
 1.0580045638e+00	 9.7858594266e-01	-1.2163494183e+00
 1.0484206960e+00	 9.8884691112e-01	-7.1017460829e-01
 1.0387359610e+00	 9.9901542729e-01	-2.4012419751e-01
 1.0289516911e+00	 1.0090900209e+00	 1.6237941748e-01
 1.0190692479e+00	 1.0190692479e+00	 4.6798909118e-01
 1.0090900209e+00	 1.0289516911e+00	 6.4947737501e-01
 9.9901542729e-01	 1.0387359610e+00	 6.8177731622e-01
 9.8884691112e-01	 1.0484206960e+00	 5.4201951119e-01
 9.7858594266e-01	 1.0580045638e+00	 2.0956532455e-01
 9.6823401769e-01	 1.0674862614e+00	-3.3396380302e-01
 9.0894787126e-01	 1.0021227793e+00	 3.4733682503e+00
 8.9914417665e-01	 1.0109282776e+00	 3.0119671496e+00
 8.8925796029e-01	 1.0196354508e+00	 2.6436564988e+00
 8.7929071054e-01	 1.0282431458e+00	 2.3476460838e+00
 8.6924393681e-01	 1.0367502390e+00	 2.1048780302e+00
 8.5911916885e-01	 1.0451556373e+00	 1.8980475308e+00
 8.4891795597e-01	 1.0534582781e+00	 1.7116204726e+00
 8.3864186625e-01	 1.0616571303e+00	 1.5318479475e+00
 8.2829248578e-01	 1.0697511944e+00	 1.3467776377e+00
 8.1787141782e-01	 1.0777395025e+00	 1.1462620746e+00
 8.0738028204e-01	 1.0856211196e+00	 9.2196378254e-01
 9.1487648590e-01	 1.0086591275e+00	 3.2432660295e+00
 9.0500884667e-01	 1.0175220596e+00	 2.8003406246e+00
 8.9505814745e-01	 1.0262860255e+00	 2.4484579986e+00
 8.8502588628e-01	 1.0349498642e+00	 2.1686896344e+00
 8.7491358244e-01	 1.0435124449e+00	 1.9441388583e+00
 8.6472277566e-01	 1.0519726674e+00	 1.7599580147e+00
 8.5445502535e-01	 1.0603294622e+00	 1.6033621084e+00
 8.4411190981e-01	 1.0685817915e+00	 1.4636389059e+00
 8.3369502548e-01	 1.0767286491e+00	 1.3321554950e+00
 8.2320598608e-01	 1.0847690610e+00	 1.2023613136e+00
 8.1264642184e-01	 1.0927020859e+00	 1.0697876665e+00
 9.2080510054e-01	 1.0151954757e+00	 2.8955011666e+00
 9.1087351669e-01	 1.0241158417e+00	 2.4464171474e+00
 9.0085833460e-01	 1.0329366001e+00	 2.0949093707e+00
 8.9076106202e-01	 1.0416565825e+00	 1.8239901709e+00
 8.8058322808e-01	 1.0502746508e+00	 1.6188576858e+00
 8.7032638248e-01	 1.0587896975e+00	 1.4669099857e+00
 8.5999209473e-01	 1.0672006463e+00	 1.3577554378e+00
 8.4958195337e-01	 1.0755064526e+00	 1.2832193043e+00
 8.3909756518e-01	 1.0837061038e+00	 1.2373465795e+00
 8.2854055434e-01	 1.0917986194e+00	 1.2164010835e+00
 8.1791256164e-01	 1.0997830522e+00	 1.2188608398e+00
 9.2673371519e-01	 1.0217318239e+00	 2.4630640847e+00
 9.1673818671e-01	 1.0307096238e+00	 1.9902984938e+00
 9.0665852175e-01	 1.0395871747e+00	 1.6277472278e+00
 8.9649623777e-01	 1.0483633009e+00	 1.3604439484e+00
 8.8625287372e-01	 1.0570368567e+00	 1.1756183986e+00
 8.7592998929e-01	 1.0656067276e+00	 1.0627079861e+00
 8.6552916411e-01	 1.0740718304e+00	 1.0133655689e+00
 8.5505199693e-01	 1.0824311138e+00	 1.0214634462e+00
 8.4450010489e-01	 1.0906835584e+00	 1.0830935631e+00
 8.3387512261e-01	 1.0988281779e+00	 1.1965639514e+00
 8.2317870144e-01	 1.1068640185e+00	 1.3623914389e+00
 9.3266232983e-01	 1.0282681722e+00	 1.9781021619e+00
 9.2260285674e-01	 1.0373034059e+00	 1.4710621141e+00
 9.1245870890e-01	 1.0462377494e+00	 1.0905654866e+00
 9.0223141351e-01	 1.0550700192e+00	 8.2374903394e-01
 8.9192251936e-01	 1.0637990626e+00	 6.5981400042e-01
 8.8153359611e-01	 1.0724237577e+00	 5.9003565275e-01
 8.7106623349e-01	 1.0809430146e+00	 6.0776917879e-01
 8.6052204049e-01	 1.0893557749e+00	 7.0845195586e-01
 8.4990264459e-01	 1.0976610131e+00	 8.8960220170e-01
 8.3920969087e-01	 1.1058577363e+00	 1.1508140314e+00
 8.2844484125e-01	 1.1139449849e+00	 1.4941127940e+00
 9.3859094447e-01	 1.0348045204e+00	 1.4719471219e+00
 9.2846752676e-01	 1.0438971880e+00	 9.2679424651e-01
 9.1825889606e-01	 1.0528883240e+00	 5.2585221702e-01
 9.0796658925e-01	 1.0617767376e+00	 2.5844390235e-01
 8.9759216499e-01	 1.0705612685e+00	 1.1568496967e-01
 8.8713720292e-01	 1.0792407878e+00	 9.0491854451e-02
 8.7660330287e-01	 1.0878141987e+00	 1.7758645500e-01
 8.6599208405e-01	 1.0962804361e+00	 3.7349755500e-01
 8.5530518429e-01	 1.1046384678e+00	 6.7655898735e-01
 8.4454425913e-01	 1.1128872948e+00	 1.0870529894e+00
 8.3371098105e-01	 1.1210259512e+00	 1.6110672241e+00
 9.4451955912e-01	 1.0413408686e+00	 9.7514142503e-01
 9.3433219678e-01	 1.0504909701e+00	 3.9462181667e-01
 9.2405908321e-01	 1.0595388987e+00	-2.4974865070e-02
 9.1370176499e-01	 1.0684834559e+00	-2.9205538948e-01
 9.0326181063e-01	 1.0773234743e+00	-4.1364379506e-01
 8.9274080974e-01	 1.0860578180e+00	-3.9537449932e-01
 8.8214037225e-01	 1.0946853828e+00	-2.4148813323e-01
 8.7146212762e-01	 1.1032050972e+00	 4.5169902224e-02
 8.6070772399e-01	 1.1116159225e+00	 4.6316071206e-01
 8.4987882739e-01	 1.1199168533e+00	 1.0161466620e+00
 8.3897712086e-01	 1.1281069175e+00	 1.7082308182e+00
 9.5044817376e-01	 1.0478772168e+00	 5.1746370433e-01
 9.4019686680e-01	 1.0570847521e+00	-8.9256824140e-02
 9.2985927036e-01	 1.0661894733e+00	-5.2153419969e-01
 9.1943694074e-01	 1.0751901743e+00	-7.8541938669e-01
 9.0893145627e-01	 1.0840856802e+00	-8.8612738038e-01
 8.9834441655e-01	 1.0928748481e+00	-8.2803091978e-01
 8.8767744163e-01	 1.1015565669e+00	-6.1465618303e-01
 8.7693217118e-01	 1.1101297584e+00	-2.4868046577e-01
 8.6611026369e-01	 1.1185933772e+00	 2.7086289114e-01
 8.5521339565e-01	 1.1269464117e+00	 9.4719662404e-01
 8.4424326066e-01	 1.1351878838e+00	 1.7799607648e+00
 9.5637678840e-01	 1.0544135650e+00	 1.2795328750e-01
 9.4606153682e-01	 1.0636785342e+00	-4.8954227235e-01
 9.3565945751e-01	 1.0728400480e+00	-9.2444742514e-01
 9.2517211648e-01	 1.0818968926e+00	-1.1803707206e+00
 9.1460110191e-01	 1.0908478861e+00	-1.2607665550e+00
 9.0394802337e-01	 1.0996918782e+00	-1.1689290156e+00
 8.9321451101e-01	 1.1084277510e+00	-9.0798677678e-01
 8.8240221474e-01	 1.1170544195e+00	-4.7909390161e-01
 8.7151280340e-01	 1.1255708319e+00	 1.2033428526e-01
 8.6054796392e-01	 1.1339759702e+00	 8.8788492618e-01
 8.4950940046e-01	 1.1422688501e+00	 1.8207713552e+00
 9.6230540305e-01	 1.0609499132e+00	-1.6506615569e-01
 9.5192620685e-01	 1.0702723163e+00	-7.7180550837e-01
 9.4145964467e-01	 1.0794906226e+00	-1.1953076064e+00
 9.3090729222e-01	 1.0886036110e+00	-1.4366508368e+00
 9.2027074754e-01	 1.0976100920e+00	-1.4975747025e+00
 9.0955163018e-01	 1.1065089083e+00	-1.3804733327e+00
 8.9875158039e-01	 1.1152989351e+00	-1.0874756565e+00
 8.8787225830e-01	 1.1239790807e+00	-6.1627171035e-01
 8.7691534310e-01	 1.1325482866e+00	 2.9853748038e-02
 8.6588253218e-01	 1.1410055286e+00	 8.4572020582e-01
 8.5477554027e-01	 1.1493498165e+00	 1.8253281417e+00
 9.6823401769e-01	 1.0674862614e+00	-3.3396380302e-01
 9.5779087687e-01	 1.0768660984e+00	-9.0246035050e-01
 9.4725983182e-01	 1.0861411972e+00	-1.2966485989e+00
 9.3664246796e-01	 1.0953103293e+00	-1.5149879136e+00
 9.2594039318e-01	 1.1043722979e+00	-1.5575459374e+00
 9.1515523699e-01	 1.1133259384e+00	-1.4257318404e+00
 9.0428864976e-01	 1.1221701192e+00	-1.1170230961e+00
 8.9334230186e-01	 1.1309037418e+00	-6.3384864449e-01
 8.8231788280e-01	 1.1395257413e+00	 1.7267077641e-02
 8.7121710044e-01	 1.1480350871e+00	 8.2804194686e-01
 8.6004168007e-01	 1.1564307828e+00	 1.7884422642e+00
 8.0738028204e-01	 1.0856211196e+00	 9.2196378254e-01
 7.9682251330e-01	 1.0933938315e+00	 6.6234015896e-01
 7.8619797841e-01	 1.1010581216e+00	 3.7280203007e-01
 7.7550833447e-01	 1.1086131585e+00	 7.1101592965e-02
 7.6475525172e-01	 1.1160581442e+00	-2.2522717848e-01
 7.5394041265e-01	 1.1233923147e+00	-4.9802879266e-01
 7.4306551116e-01	 1.1306149397e+00	-7.3335353056e-01
 7.3213225174e-01	 1.1377253231e+00	-9.2659517092e-01
 7.2114234859e-01	 1.1447228033e+00	-1.0842780072e+00
 7.1009752482e-01	 1.1516067529e+00	-1.1984902867e+00
 6.9899951150e-01	 1.1583765792e+00	-1.2622171790e+00
 8.1264642184e-01	 1.0927020859e+00	 1.0697876665e+00
 8.0201979003e-01	 1.1005254953e+00	 8.9919958501e-01
 7.9132595658e-01	 1.1082397758e+00	 6.7147415943e-01
 7.8056658942e-01	 1.1158440904e+00	 4.0767466437e-01
 7.6974336967e-01	 1.1233376361e+00	 1.2952306405e-01
 7.5885799078e-01	 1.1307196437e+00	-1.4614513045e-01
 7.4791215771e-01	 1.1379893783e+00	-4.0454457035e-01
 7.3690758608e-01	 1.1451461392e+00	-6.3416584794e-01
 7.2584600127e-01	 1.1521892605e+00	-8.4284801651e-01
 7.1472913760e-01	 1.1591181107e+00	-1.0278106044e+00
 7.0355873747e-01	 1.1659320932e+00	-1.1827070322e+00
 8.1791256164e-01	 1.0997830522e+00	 1.2188608398e+00
 8.0721706676e-01	 1.1076571592e+00	 1.1801732108e+00
 7.9645393476e-01	 1.1154214300e+00	 1.0518896343e+00
 7.8562484437e-01	 1.1230750224e+00	 8.5932213004e-01
 7.7473148761e-01	 1.1306171280e+00	 6.2245549989e-01
 7.6377556890e-01	 1.1380469728e+00	 3.5881336786e-01
 7.5275880427e-01	 1.1453638169e+00	 8.3935020261e-02
 7.4168292043e-01	 1.1525669553e+00	-1.8863936696e-01
 7.3054965395e-01	 1.1596557177e+00	-4.5851010948e-01
 7.1936075039e-01	 1.1666294684e+00	-7.3251621213e-01
 7.0811796344e-01	 1.1734876072e+00	-1.0047249315e+00
 8.2317870144e-01	 1.1068640185e+00	 1.3623914389e+00
 8.1241434350e-01	 1.1147888230e+00	 1.4843302433e+00
 8.0158191294e-01	 1.1226030842e+00	 1.4840705616e+00
 7.9068309932e-01	 1.1303059543e+00	 1.3845438554e+00
 7.7971960555e-01	 1.1378966199e+00	 1.2058647841e+00
 7.6869314703e-01	 1.1453743018e+00	 9.6609083485e-01
 7.5760545083e-01	 1.1527382555e+00	 6.8120362488e-01
 7.4645825478e-01	 1.1599877715e+00	 3.6509391262e-01
 7.3525330663e-01	 1.1671221749e+00	 2.6329482111e-02
 7.2399236318e-01	 1.1741408262e+00	-3.4637664634e-01
 7.1267718941e-01	 1.1810431212e+00	-7.5049215641e-01
 8.2844484125e-01	 1.1139449849e+00	 1.4941127940e+00
 8.1761162023e-01	 1.1219204869e+00	 1.7941842039e+00
 8.0670989112e-01	 1.1297847384e+00	 1.9363578502e+00
 7.9574135427e-01	 1.1375368863e+00	 1.9426907028e+00
 7.8470772349e-01	 1.1451761118e+00	 1.8332809520e+00
 7.7361072516e-01	 1.1527016308e+00	 1.6262447595e+00
 7.6245209739e-01	 1.1601126942e+00	 1.3376966397e+00
 7.5123358913e-01	 1.1674085876e+00	 9.8173349517e-01
 7.3995695931e-01	 1.1745886321e+00	 5.7036110506e-01
 7.2862397597e-01	 1.1816521840e+00	 9.7715885165e-02
 7.1723641538e-01	 1.1885986352e+00	-4.4164598141e-01
 8.3371098105e-01	 1.1210259512e+00	 1.6110672241e+00
 8.2280889696e-01	 1.1290521507e+00	 2.0902861731e+00
 8.1183786930e-01	 1.1369663926e+00	 2.3775960418e+00
 8.0079960923e-01	 1.1447678182e+00	 2.4941616744e+00
 7.8969584144e-01	 1.1524556037e+00	 2.4594296256e+00
 7.7852830329e-01	 1.1600289599e+00	 2.2911037511e+00
 7.6729874395e-01	 1.1674871328e+00	 2.0051241445e+00
 7.5600892348e-01	 1.1748294037e+00	 1.6156494470e+00
 7.4466061199e-01	 1.1820550893e+00	 1.1350425440e+00
 7.3325558876e-01	 1.1891635418e+00	 5.6771913188e-01
 7.2179564136e-01	 1.1961541492e+00	-9.9257759319e-02
 8.3897712086e-01	 1.1281069175e+00	 1.7082308182e+00
 8.2800617369e-01	 1.1361838146e+00	 2.3532123390e+00
 8.1696584748e-01	 1.1441480468e+00	 2.7774317029e+00
 8.0585786418e-01	 1.1519987502e+00	 3.0003701797e+00
 7.9468395938e-01	 1.1597350956e+00	 3.0401936703e+00
 7.8344588142e-01	 1.1673562889e+00	 2.9137268455e+00
 7.7214539051e-01	 1.1748615714e+00	 2.6364301206e+00
 7.6078425782e-01	 1.1822502198e+00	 2.2223794984e+00
 7.4936426467e-01	 1.1895215464e+00	 1.6842493032e+00
 7.3788720155e-01	 1.1966748995e+00	 1.0324144572e+00
 7.2635486733e-01	 1.2037096631e+00	 2.5614967359e-01
 8.4424326066e-01	 1.1351878838e+00	 1.7799607648e+00
 8.3320345043e-01	 1.1433154784e+00	 2.5640420122e+00
 8.2209382566e-01	 1.1513297010e+00	 3.1062875151e+00
 8.1091611913e-01	 1.1592296821e+00	 3.4237115162e+00
 7.9967207732e-01	 1.1670145874e+00	 3.5325762389e+00
 7.8836345955e-01	 1.1746836179e+00	 3.4483642873e+00
 7.7699203707e-01	 1.1822360100e+00	 3.1857531476e+00
 7.6555959217e-01	 1.1896710359e+00	 2.7585918323e+00
 7.5406791735e-01	 1.1969880036e+00	 2.1798797027e+00
 7.4251881434e-01	 1.2041862573e+00	 1.4617474935e+00
 7.3091409330e-01	 1.2112651771e+00	 6.0458524122e-01
 8.4950940046e-01	 1.1422688501e+00	 1.8207713552e+00
 8.3840072716e-01	 1.1504471423e+00	 2.7043410819e+00
 8.2722180383e-01	 1.1585113552e+00	 3.3353372808e+00
 8.1597437408e-01	 1.1664606141e+00	 3.7275315121e+00
 8.0466019527e-01	 1.1742940793e+00	 3.8946651423e+00
 7.9328103768e-01	 1.1820109470e+00	 3.8504197230e+00
 7.8183868363e-01	 1.1896104486e+00	 3.6083885148e+00
 7.7033492652e-01	 1.1970918520e+00	 3.1820492104e+00
 7.5877157003e-01	 1.2044544608e+00	 2.5847379058e+00
 7.4715042713e-01	 1.2116976151e+00	 1.8296243600e+00
 7.3547331927e-01	 1.2188206911e+00	 9.2657349191e-01
 8.5477554027e-01	 1.1493498165e+00	 1.8253281417e+00
 8.4359800389e-01	 1.1575788061e+00	 2.7561460344e+00
 8.3234978201e-01	 1.1656930094e+00	 3.4364818051e+00
 8.2103262903e-01	 1.1736915460e+00	 3.8760962807e+00
 8.0964831321e-01	 1.1815735712e+00	 4.0855984900e+00
 7.9819861581e-01	 1.1893382760e+00	 4.0764137445e+00
 7.8668533018e-01	 1.1969848873e+00	 3.8607516869e+00
 7.7511026087e-01	 1.2045126681e+00	 3.4515743787e+00
 7.6347522270e-01	 1.2119209180e+00	 2.8625644923e+00
 7.5178203992e-01	 1.2192089729e+00	 2.1080936662e+00
 7.4003254524e-01	 1.2263762051e+00	 1.2031390563e+00
 8.6004168007e-01	 1.1564307828e+00	 1.7884422642e+00
 8.4879528062e-01	 1.1647104700e+00	 2.7019485114e+00
 8.3747776019e-01	 1.1728746636e+00	 3.3823256164e+00
 8.2609088398e-01	 1.1809224780e+00	 3.8345630382e+00
 8.1463643115e-01	 1.1888530631e+00	 4.0655315456e+00
 8.0311619394e-01	 1.1966656050e+00	 4.0839487253e+00
 7.9153197674e-01	 1.2043593259e+00	 3.9003430647e+00
 7.7988559522e-01	 1.2119334843e+00	 3.5270166983e+00
 7.6817887538e-01	 1.2193873752e+00	 2.9780069019e+00
 7.5641365271e-01	 1.2267203306e+00	 2.2690464169e+00
 7.4459177121e-01	 1.2339317191e+00	 1.4175226826e+00
 6.9899951150e-01	 1.1583765792e+00	-1.2622171790e+00
 6.8785004713e-01	 1.1650317246e+00	-1.2721638346e+00
 6.7665087737e-01	 1.1715716669e+00	-1.2331927016e+00
 6.6540375352e-01	 1.1779959194e+00	-1.1513954261e+00
 6.5411043145e-01	 1.1843040300e+00	-1.0325386399e+00
 6.4277267076e-01	 1.1904955813e+00	-8.8204687225e-01
 6.3139223392e-01	 1.1965701906e+00	-7.0498652721e-01
 6.1997088548e-01	 1.2025275101e+00	-5.0605096766e-01
 6.0851039118e-01	 1.2083672264e+00	-2.8954674205e-01
 5.9701251716e-01	 1.2140890607e+00	-5.9380982925e-02
 5.8547902912e-01	 1.2196927683e+00	 1.8094999910e-01
 7.0355873747e-01	 1.1659320932e+00	-1.1827070322e+00
 6.9233655070e-01	 1.1726306468e+00	-1.2872379541e+00
 6.8106433433e-01	 1.1792132459e+00	-1.3294444332e+00
 6.6974385108e-01	 1.1856794006e+00	-1.3164724376e+00
 6.5837686829e-01	 1.1920286558e+00	-1.2548750207e+00
 6.4696515702e-01	 1.1982605915e+00	-1.1505966998e+00
 6.3551049127e-01	 1.2043748225e+00	-1.0089592799e+00
 6.2401464705e-01	 1.2103709987e+00	-8.3464915670e-01
 6.1247940165e-01	 1.2162488045e+00	-6.3170612751e-01
 6.0090653272e-01	 1.2220079594e+00	-4.0351373133e-01
 5.8929781748e-01	 1.2276482172e+00	-1.5279113258e-01
 7.0811796344e-01	 1.1734876072e+00	-1.0047249315e+00
 6.9682305426e-01	 1.1802295689e+00	-1.2325048633e+00
 6.8547779128e-01	 1.1868548249e+00	-1.3816531726e+00
 6.7408394864e-01	 1.1933628818e+00	-1.4598272326e+00
 6.6264330513e-01	 1.1997532817e+00	-1.4739283827e+00
 6.5115764329e-01	 1.2060256018e+00	-1.4300872133e+00
 6.3962874861e-01	 1.2121794544e+00	-1.3336505380e+00
 6.2805840862e-01	 1.2182144872e+00	-1.1891700845e+00
 6.1644841212e-01	 1.2241303826e+00	-1.0003929282e+00
 6.0480054828e-01	 1.2299268582e+00	-7.7025368332e-01
 5.9311660583e-01	 1.2356036662e+00	-5.0086846325e-01
 7.1267718941e-01	 1.1810431212e+00	-7.5049215641e-01
 7.0130955782e-01	 1.1878284911e+00	-1.1180827076e+00
 6.8989124823e-01	 1.1944964038e+00	-1.3896338546e+00
 6.7842404620e-01	 1.2010463630e+00	-1.5727756602e+00
 6.6690974197e-01	 1.2074779075e+00	-1.6743224616e+00
 6.5535012956e-01	 1.2137906120e+00	-1.7002585084e+00
 6.4374700595e-01	 1.2199840863e+00	-1.6557253949e+00
 6.3210217019e-01	 1.2260579757e+00	-1.5450113184e+00
 6.2041742259e-01	 1.2320119607e+00	-1.3715421839e+00
 6.0869456383e-01	 1.2378457570e+00	-1.1378745716e+00
 5.9693539419e-01	 1.2435591152e+00	-8.4569057180e-01
 7.1723641538e-01	 1.1885986352e+00	-4.4164598141e-01
 7.0579606139e-01	 1.1954274133e+00	-9.5381310445e-01
 6.9430470518e-01	 1.2021379828e+00	-1.3531866458e+00
 6.8276414376e-01	 1.2087298441e+00	-1.6468347389e+00
 6.7117617881e-01	 1.2152025334e+00	-1.8410522080e+00
 6.5954261583e-01	 1.2215556223e+00	-1.9413460129e+00
 6.4786526330e-01	 1.2277887182e+00	-1.9524224629e+00
 6.3614593177e-01	 1.2339014643e+00	-1.8781762308e+00
 6.2438643306e-01	 1.2398935388e+00	-1.7216811909e+00
 6.1258857939e-01	 1.2457646558e+00	-1.4851830966e+00
 6.0075418255e-01	 1.2515145641e+00	-1.1700941066e+00
 7.2179564136e-01	 1.1961541492e+00	-9.9257759319e-02
 7.1028256495e-01	 1.2030263355e+00	-7.4926949358e-01
 6.9871816214e-01	 1.2097795618e+00	-1.2720970067e+00
 6.8710424132e-01	 1.2164133253e+00	-1.6737158793e+00
 6.7544261565e-01	 1.2229271592e+00	-1.9594716211e+00
 6.6373510210e-01	 1.2293206325e+00	-2.1340643839e+00
 6.5198352064e-01	 1.2355933501e+00	-2.2015352856e+00
 6.4018969334e-01	 1.2417449528e+00	-2.1652543794e+00
 6.2835544353e-01	 1.2477751169e+00	-2.0279102967e+00
 6.1648259495e-01	 1.2536835545e+00	-1.7915015843e+00
 6.0457297090e-01	 1.2594700131e+00	-1.4573297475e+00
 7.2635486733e-01	 1.2037096631e+00	 2.5614967359e-01
 7.1476906852e-01	 1.2106252577e+00	-5.1376517501e-01
 7.0313161909e-01	 1.2174211408e+00	-1.1461357527e+00
 6.9144433889e-01	 1.2240968065e+00	-1.6453183626e+00
 6.7970905249e-01	 1.2306517850e+00	-2.0152820418e+00
 6.6792758837e-01	 1.2370856428e+00	-2.2595920121e+00
 6.5610177798e-01	 1.2433979820e+00	-2.3813944509e+00
 6.4423345491e-01	 1.2495884413e+00	-2.3834026246e+00
 6.3232445400e-01	 1.2556566950e+00	-2.2678844191e+00
 6.2037661051e-01	 1.2616024533e+00	-2.0366512962e+00
 6.0839175926e-01	 1.2674254621e+00	-1.6910486957e+00
 7.3091409330e-01	 1.2112651771e+00	 6.0458524122e-01
 7.1925557208e-01	 1.2182241799e+00	-2.5636104809e-01
 7.0754507604e-01	 1.2250627197e+00	-9.7505911553e-01
 6.9578443645e-01	 1.2317802877e+00	-1.5537230653e+00
 6.8397548933e-01	 1.2383764109e+00	-1.9945208845e+00
 6.7212007464e-01	 1.2448506530e+00	-2.2995561063e+00
 6.6022003533e-01	 1.2512026139e+00	-2.4708503738e+00
 6.4827721648e-01	 1.2574319299e+00	-2.5103269551e+00
 6.3629346447e-01	 1.2635382731e+00	-2.4197952553e+00
 6.2427062607e-01	 1.2695213521e+00	-2.2009363638e+00
 6.1221054762e-01	 1.2753809110e+00	-1.8552896683e+00
 7.3547331927e-01	 1.2188206911e+00	 9.2657349191e-01
 7.2374207564e-01	 1.2258231020e+00	 1.4126934806e-02
 7.1195853299e-01	 1.2327042987e+00	-7.5860880337e-01
 7.0012453401e-01	 1.2394637688e+00	-1.3911864189e+00
 6.8824192617e-01	 1.2461010367e+00	-1.8835507897e+00
 6.7631256091e-01	 1.2526156633e+00	-2.2360183340e+00
 6.6433829267e-01	 1.2590072458e+00	-2.4492567197e+00
 6.5232097805e-01	 1.2652754184e+00	-2.5242649887e+00
 6.4026247494e-01	 1.2714198512e+00	-2.4623541536e+00
 6.2816464163e-01	 1.2774402508e+00	-2.2651283196e+00
 6.1602933597e-01	 1.2833363600e+00	-1.9344663761e+00
 7.4003254524e-01	 1.2263762051e+00	 1.2031390563e+00
 7.2822857921e-01	 1.2334220242e+00	 2.8912058794e-01
 7.1637198995e-01	 1.2403458777e+00	-4.9651206108e-01
 7.0446463157e-01	 1.2471472500e+00	-1.1501345934e+00
 6.9250836301e-01	 1.2538256626e+00	-1.6690491782e+00
 6.8050504718e-01	 1.2603806735e+00	-2.0514609931e+00
 6.6845655001e-01	 1.2668118777e+00	-2.2964544414e+00
 6.5636473962e-01	 1.2731189069e+00	-2.4039691204e+00
 6.4423148541e-01	 1.2793014293e+00	-2.3747756175e+00
 6.3205865719e-01	 1.2853591496e+00	-2.2104511998e+00
 6.1984812433e-01	 1.2912918090e+00	-1.9133554627e+00
 7.4459177121e-01	 1.2339317191e+00	 1.4175226826e+00
 7.3271508277e-01	 1.2410209464e+00	 5.6027257340e-01
 7.2078544690e-01	 1.2479874567e+00	-1.8848172986e-01
 7.0880472913e-01	 1.2548307312e+00	-8.2315789704e-01
 6.9677479985e-01	 1.2615502884e+00	-1.3379981899e+00
 6.8469753345e-01	 1.2681456837e+00	-1.7287736922e+00
 6.7257480735e-01	 1.2746165096e+00	-1.9927564018e+00
 6.6040850119e-01	 1.2809623955e+00	-2.1286902893e+00
 6.4820049588e-01	 1.2871830074e+00	-2.1367614150e+00
 6.3595267275e-01	 1.2932780484e+00	-2.0185671933e+00
 6.2366691268e-01	 1.2992472579e+00	-1.7770848868e+00
 5.8547902912e-01	 1.2196927683e+00	 1.8094999910e-01
 5.7390972211e-01	 1.2251790613e+00	 4.0667909109e-01
 5.6230831678e-01	 1.2305467998e+00	 5.9844246863e-01
 5.5067657307e-01	 1.2357958404e+00	 7.6139693552e-01
 5.3901624731e-01	 1.2409260734e+00	 9.0084256602e-01
 5.2732909147e-01	 1.2459374222e+00	 1.0222192395e+00
 5.1561685237e-01	 1.2508298437e+00	 1.1311025243e+00
 5.0388127097e-01	 1.2556033274e+00	 1.2331989309e+00
 4.9212408161e-01	 1.2602578954e+00	 1.3343405568e+00
 4.8034701128e-01	 1.2647936020e+00	 1.4404791495e+00
 4.6855177891e-01	 1.2692105336e+00	 1.5576796179e+00
 5.8929781748e-01	 1.2276482172e+00	-1.5279113258e-01
 5.7765304963e-01	 1.2331702946e+00	 9.2291462324e-02
 5.6597597411e-01	 1.2385730442e+00	 3.0760134299e-01
 5.5426836232e-01	 1.2438563217e+00	 4.9712902734e-01
 5.4253198206e-01	 1.2490200166e+00	 6.6488919326e-01
 5.3076859672e-01	 1.2540640520e+00	 8.1492070170e-01
 5.1897996451e-01	 1.2589883843e+00	 9.5128605314e-01
 5.0716783776e-01	 1.2637930031e+00	 1.0780702902e+00
 4.9533396210e-01	 1.2684779305e+00	 1.1993793627e+00
 4.8348007580e-01	 1.2730432213e+00	 1.3193379762e+00
 4.7160790899e-01	 1.2774889623e+00	 1.4420869446e+00
 5.9311660583e-01	 1.2356036662e+00	-5.0086846325e-01
 5.8139637715e-01	 1.2411615279e+00	-2.2689574855e-01
 5.6964363144e-01	 1.2465992886e+00	 1.9815439282e-02
 5.5786015158e-01	 1.2519168030e+00	 2.4208192657e-01
 5.4604771681e-01	 1.2571139599e+00	 4.4266323727e-01
 5.3420810196e-01	 1.2621906818e+00	 6.2426454353e-01
 5.2234307665e-01	 1.2671469249e+00	 7.8953909019e-01
 5.1045440454e-01	 1.2719826787e+00	 9.4109010126e-01
 4.9854384259e-01	 1.2766979656e+00	 1.0814721799e+00
 4.8661314031e-01	 1.2812928405e+00	 1.2131922171e+00
 4.7466403908e-01	 1.2857673910e+00	 1.3387098277e+00
 5.9693539419e-01	 1.2435591152e+00	-8.4569057180e-01
 5.8513970467e-01	 1.2491527612e+00	-5.3797936693e-01
 5.7331128877e-01	 1.2546255330e+00	-2.5601468579e-01
 5.6145194083e-01	 1.2599772843e+00	 1.8367146731e-03
 5.4956345156e-01	 1.2652079031e+00	 2.3710649066e-01
 5.3764760721e-01	 1.2703173116e+00	 4.5123003532e-01
 5.2570618879e-01	 1.2753054656e+00	 6.4555127435e-01
 5.1374097132e-01	 1.2801723544e+00	 8.2132693808e-01
 5.0175372308e-01	 1.2849180007e+00	 9.7973031851e-01
 4.8974620483e-01	 1.2895424598e+00	 1.1218545234e+00
 4.7772016917e-01	 1.2940458197e+00	 1.2487152434e+00
 6.0075418255e-01	 1.2515145641e+00	-1.1700941066e+00
 5.8888303220e-01	 1.2571439946e+00	-8.2836537842e-01
 5.7697894610e-01	 1.2626517774e+00	-5.1119621956e-01
 5.6504373008e-01	 1.2680377656e+00	-2.1814928392e-01
 5.5307918632e-01	 1.2733018464e+00	 5.1103623017e-02
 5.4108711246e-01	 1.2784439414e+00	 2.9678869377e-01
 5.2906930094e-01	 1.2834640062e+00	 5.1903669569e-01
 5.1702753811e-01	 1.2883620301e+00	 7.1788897796e-01
 5.0496360357e-01	 1.2931380358e+00	 8.9330291569e-01
 4.9287926935e-01	 1.2977920791e+00	 1.0451568022e+00
 4.8077629926e-01	 1.3023242484e+00	 1.1732542038e+00
 6.0457297090e-01	 1.2594700131e+00	-1.4573297475e+00
 5.9262635972e-01	 1.2651352279e+00	-1.0857586394e+00
 5.8064660343e-01	 1.2706780219e+00	-7.3723700176e-01
 5.6863551934e-01	 1.2760982469e+00	-4.1253805912e-01
 5.5659492107e-01	 1.2813957896e+00	-1.1251547896e-01
 5.4452661771e-01	 1.2865705712e+00	 1.6190506310e-01
 5.3243241308e-01	 1.2916225468e+00	 4.0973365827e-01
 5.2031410489e-01	 1.2965517058e+00	 6.2992328305e-01
 5.0817348406e-01	 1.3013580709e+00	 8.2137626817e-01
 4.9601233388e-01	 1.3060416983e+00	 9.8295012937e-01
 4.8383242935e-01	 1.3106026771e+00	 1.1134627753e+00
 6.0839175926e-01	 1.2674254621e+00	-1.6910486957e+00
 5.9636968725e-01	 1.2731264612e+00	-1.2981529742e+00
 5.8431426076e-01	 1.2787042663e+00	-9.2583869856e-01
 5.7222730859e-01	 1.2841587282e+00	-5.7610663821e-01
 5.6011065582e-01	 1.2894897329e+00	-2.5097345762e-01
 5.4796612296e-01	 1.2946972009e+00	 4.7537468835e-02
 5.3579552522e-01	 1.2997810874e+00	 3.1740445393e-01
 5.2360067168e-01	 1.3047413814e+00	 5.5661511106e-01
 5.1138336455e-01	 1.3095781060e+00	 7.6317319301e-01
 4.9914539840e-01	 1.3142913176e+00	 9.3510466955e-01
 4.8688855944e-01	 1.3188811058e+00	 1.0704630615e+00
 6.1221054762e-01	 1.2753809110e+00	-1.8552896683e+00
 6.0011301477e-01	 1.2811176945e+00	-1.4538216413e+00
 5.8798191809e-01	 1.2867305107e+00	-1.0688902308e+00
 5.7581909785e-01	 1.2922192095e+00	-7.0374296738e-01
 5.6362639057e-01	 1.2975836761e+00	-3.6154331319e-01
 5.5140562821e-01	 1.3028238307e+00	-4.5361254671e-02
 5.3915863737e-01	 1.3079396280e+00	 2.4183514682e-01
 5.2688723847e-01	 1.3129310571e+00	 4.9718725400e-01
 5.1459324504e-01	 1.3177981411e+00	 7.1795241449e-01
 5.0227846292e-01	 1.3225409368e+00	 9.0150960090e-01
 4.8994468953e-01	 1.3271595345e+00	 1.0453641520e+00
 6.1602933597e-01	 1.2833363600e+00	-1.9344663761e+00
 6.0385634229e-01	 1.2891089279e+00	-1.5413081534e+00
 5.9164957542e-01	 1.2947567551e+00	-1.1584614451e+00
 5.7941088710e-01	 1.3002796908e+00	-7.9044194486e-01
 5.6714212532e-01	 1.3056776194e+00	-4.4154631149e-01
 5.5484513347e-01	 1.3109504605e+00	-1.1584306181e-01
 5.4252174951e-01	 1.3160981686e+00	 1.8283536795e-01
 5.3017380525e-01	 1.3211207328e+00	 4.5089940382e-01
 5.1780312553e-01	 1.3260181762e+00	 6.8500797621e-01
 5.0541152744e-01	 1.3307905561e+00	 8.8207304542e-01
 4.9300081962e-01	 1.3354379633e+00	 1.0392630381e+00
 6.1984812433e-01	 1.2912918090e+00	-1.9133554627e+00
 6.0759966982e-01	 1.2971001612e+00	-1.5494174358e+00
 5.9531723275e-01	 1.3027829995e+00	-1.1867970180e+00
 5.8300267636e-01	 1.3083401721e+00	-8.3130159915e-01
 5.7065786008e-01	 1.3137715626e+00	-4.8834996729e-01
 5.5828463872e-01	 1.3190770903e+00	-1.6296401735e-01
 5.4588486165e-01	 1.3242567092e+00	 1.4023811950e-01
 5.3346037204e-01	 1.3293104084e+00	 4.1704754379e-01
 5.2101300602e-01	 1.3342382113e+00	 6.6366867736e-01
 5.0854459196e-01	 1.3390401754e+00	 8.7672200423e-01
 4.9605694971e-01	 1.3437163920e+00	 1.0532454983e+00
 6.2366691268e-01	 1.2992472579e+00	-1.7770848868e+00
 6.1134299734e-01	 1.3050913945e+00	-1.4672073083e+00
 5.9898489008e-01	 1.3108092439e+00	-1.1463105821e+00
 5.8659446561e-01	 1.3164006534e+00	-8.2151940607e-01
 5.7417359483e-01	 1.3218655059e+00	-4.9936610000e-01
 5.6172414397e-01	 1.3272037201e+00	-1.8578364099e-01
 5.4924797379e-01	 1.3324152499e+00	 1.1389958836e-01
 5.3674693882e-01	 1.3375000841e+00	 3.9496336437e-01
 5.2422288651e-01	 1.3424582464e+00	 6.5329753194e-01
 5.1167765648e-01	 1.3472897946e+00	 8.8540229779e-01
 4.9911307980e-01	 1.3519948207e+00	 1.0883869521e+00
 4.6855177891e-01	 1.2692105336e+00	 1.5576796179e+00
 4.5674210366e-01	 1.2735080872e+00	 1.6924785628e+00
 4.4491768149e-01	 1.2776871719e+00	 1.8394232823e+00
 4.3308020167e-01	 1.2817479665e+00	 1.9866713408e+00
 4.2123134272e-01	 1.2856906802e+00	 2.1224727906e+00
 4.0937277181e-01	 1.2895155522e+00	 2.2351859109e+00
 3.9750614411e-01	 1.2932228510e+00	 2.3132921604e+00
 3.8563310219e-01	 1.2968128745e+00	 2.3454103592e+00
 3.7375527545e-01	 1.3002859490e+00	 2.3203101153e+00
 3.6187427950e-01	 1.3036424289e+00	 2.2328685292e+00
 3.4999171566e-01	 1.3068826965e+00	 2.0888970184e+00
 4.7160790899e-01	 1.2774889623e+00	 1.4420869446e+00
 4.5972120511e-01	 1.2818145467e+00	 1.5721258520e+00
 4.4781965812e-01	 1.2860208895e+00	 1.7049922017e+00
 4.3590496831e-01	 1.2901081707e+00	 1.8314380345e+00
 4.2397882515e-01	 1.2940766007e+00	 1.9423690194e+00
 4.1204290668e-01	 1.2979264204e+00	 2.0288556391e+00
 4.0009887888e-01	 1.3016579001e+00	 2.0821435739e+00
 3.8814839502e-01	 1.3052713396e+00	 2.0936633091e+00
 3.7619309512e-01	 1.3087670672e+00	 2.0550389888e+00
 3.6423460535e-01	 1.3121454398e+00	 1.9611128886e+00
 3.5227453746e-01	 1.3154068420e+00	 1.8213238706e+00
 4.7466403908e-01	 1.2857673910e+00	 1.3387098277e+00
 4.6270030656e-01	 1.2901210062e+00	 1.4622367567e+00
 4.5072163475e-01	 1.2943546071e+00	 1.5816817377e+00
 4.3872973495e-01	 1.2984683748e+00	 1.6900932216e+00
 4.2672630758e-01	 1.3024625212e+00	 1.7807148959e+00
 4.1471304156e-01	 1.3063372887e+00	 1.8469930209e+00
 4.0269161364e-01	 1.3100929492e+00	 1.8825829623e+00
 3.9066368784e-01	 1.3137298046e+00	 1.8813549516e+00
 3.7863091479e-01	 1.3172481853e+00	 1.8373991057e+00
 3.6659493119e-01	 1.3206484506e+00	 1.7461433566e+00
 3.5455735925e-01	 1.3239309875e+00	 1.6183897738e+00
 4.7772016917e-01	 1.2940458197e+00	 1.2487152434e+00
 4.6567940802e-01	 1.2984274657e+00	 1.3654407583e+00
 4.5362361139e-01	 1.3026883247e+00	 1.4731562947e+00
 4.4155450159e-01	 1.3068285789e+00	 1.5669156097e+00
 4.2947379001e-01	 1.3108484417e+00	 1.6419900184e+00
 4.1738317643e-01	 1.3147481569e+00	 1.6938725758e+00
 4.0528434841e-01	 1.3185279984e+00	 1.7182814669e+00
 3.9317898066e-01	 1.3221882696e+00	 1.7111626394e+00
 3.8106873446e-01	 1.3257293035e+00	 1.6686917179e+00
 3.6895525704e-01	 1.3291514614e+00	 1.5874307478e+00
 3.5684018105e-01	 1.3324551329e+00	 1.4774608848e+00
 4.8077629926e-01	 1.3023242484e+00	 1.1732542038e+00
 4.6865850947e-01	 1.3067339252e+00	 1.2843133612e+00
 4.5652558802e-01	 1.3110220423e+00	 1.3829991205e+00
 4.4437926823e-01	 1.3151887831e+00	 1.4660862304e+00
 4.3222127244e-01	 1.3192343622e+00	 1.5305702696e+00
 4.2005331131e-01	 1.3231590251e+00	 1.5736693632e+00
 4.0787708318e-01	 1.3269630475e+00	 1.5928251288e+00
 3.9569427349e-01	 1.3306467347e+00	 1.5857028933e+00
 3.8350655413e-01	 1.3342104217e+00	 1.5501912203e+00
 3.7131558289e-01	 1.3376544722e+00	 1.4844007954e+00
 3.5912300284e-01	 1.3409792784e+00	 1.3959702875e+00
 4.8383242935e-01	 1.3106026771e+00	 1.1134627753e+00
 4.7163761093e-01	 1.3150403847e+00	 1.2213783035e+00
 4.5942756465e-01	 1.3193557599e+00	 1.3147153653e+00
 4.4720403488e-01	 1.3235489872e+00	 1.3916920078e+00
 4.3496875488e-01	 1.3276202827e+00	 1.4507315636e+00
 4.2272344618e-01	 1.3315698934e+00	 1.4904625814e+00
 4.1046981795e-01	 1.3353980966e+00	 1.5097180201e+00
 3.9820956631e-01	 1.3391051997e+00	 1.5075337508e+00
 3.8594437380e-01	 1.3426915399e+00	 1.4831464107e+00
 3.7367590874e-01	 1.3461574831e+00	 1.4359906575e+00
 3.6140582464e-01	 1.3495034239e+00	 1.3714165995e+00
 4.8688855944e-01	 1.3188811058e+00	 1.0704630615e+00
 4.7461671238e-01	 1.3233468443e+00	 1.1791096864e+00
 4.6232954129e-01	 1.3276894775e+00	 1.2717350282e+00
 4.5002880152e-01	 1.3319091914e+00	 1.3477291969e+00
 4.3771623731e-01	 1.3360062032e+00	 1.4066534554e+00
 4.2539358106e-01	 1.3399807616e+00	 1.4482390347e+00
 4.1306255272e-01	 1.3438331457e+00	 1.4723852598e+00
 4.0072485914e-01	 1.3475636648e+00	 1.4791570303e+00
 3.8838219348e-01	 1.3511726581e+00	 1.4687817042e+00
 3.7603623458e-01	 1.3546604939e+00	 1.4416454336e+00
 3.6368864644e-01	 1.3580275694e+00	 1.4013626488e+00
 4.8994468953e-01	 1.3271595345e+00	 1.0453641520e+00
 4.7759581384e-01	 1.3316533038e+00	 1.1599340276e+00
 4.6523151792e-01	 1.3360231951e+00	 1.2574157954e+00
 4.5285356817e-01	 1.3402693955e+00	 1.3381066946e+00
 4.4046371974e-01	 1.3443921237e+00	 1.4024226173e+00
 4.2806371594e-01	 1.3483916299e+00	 1.4508964729e+00
 4.1565528749e-01	 1.3522681948e+00	 1.4841759198e+00
 4.0324015197e-01	 1.3560221298e+00	 1.5030205118e+00
 3.9082001315e-01	 1.3596537762e+00	 1.5082983058e+00
 3.7839656043e-01	 1.3631635047e+00	 1.5009819827e+00
 3.6597146823e-01	 1.3665517149e+00	 1.4834342189e+00
 4.9300081962e-01	 1.3354379633e+00	 1.0392630381e+00
 4.8057491529e-01	 1.3399597633e+00	 1.1662322402e+00
 4.6813349455e-01	 1.3443569127e+00	 1.2750457767e+00
 4.5567833481e-01	 1.3486295997e+00	 1.3666492312e+00
 4.4321120218e-01	 1.3527780442e+00	 1.4420361897e+00
 4.3073385081e-01	 1.3568024981e+00	 1.5022468096e+00
 4.1824802226e-01	 1.3607032439e+00	 1.5483658262e+00
 4.0575544479e-01	 1.3644805948e+00	 1.5815200409e+00
 3.9325783282e-01	 1.3681348944e+00	 1.6028753420e+00
 3.8075688628e-01	 1.3716665155e+00	 1.6136333047e+00
 3.6825429003e-01	 1.3750758603e+00	 1.6153188594e+00
 4.9605694971e-01	 1.3437163920e+00	 1.0532454983e+00
 4.8355401675e-01	 1.3482662228e+00	 1.2003415413e+00
 4.7103547119e-01	 1.3526906303e+00	 1.3278461429e+00
 4.5850310145e-01	 1.3569898038e+00	 1.4371004469e+00
 4.4595868461e-01	 1.3611639648e+00	 1.5294050100e+00
 4.3340398569e-01	 1.3652133663e+00	 1.6060192247e+00
 4.2084075703e-01	 1.3691382930e+00	 1.6681602586e+00
 4.0827073762e-01	 1.3729390599e+00	 1.7170015567e+00
 3.9569565249e-01	 1.3766160126e+00	 1.7536709530e+00
 3.8311721213e-01	 1.3801695264e+00	 1.7792484379e+00
 3.7053711183e-01	 1.3836000058e+00	 1.7947636311e+00
 4.9911307980e-01	 1.3519948207e+00	 1.0883869521e+00
 4.8653311820e-01	 1.3565726823e+00	 1.2645572934e+00
 4.7393744782e-01	 1.3610243479e+00	 1.4189736691e+00
 4.6132786810e-01	 1.3653500079e+00	 1.5531258569e+00
 4.4870616704e-01	 1.3695498853e+00	 1.6683567265e+00
 4.3607412057e-01	 1.3736242346e+00	 1.7658631551e+00
 4.2343349180e-01	 1.3775733421e+00	 1.8466965544e+00
 4.1078603044e-01	 1.3813975249e+00	 1.9117630482e+00
 3.9813347216e-01	 1.3850971308e+00	 1.9618233475e+00
 3.8547753797e-01	 1.3886725372e+00	 1.9974923642e+00
 3.7281993362e-01	 1.3921241513e+00	 2.0192386128e+00
 3.4999171566e-01	 1.3068826965e+00	 2.0888970184e+00
 3.3810917055e-01	 1.3100071613e+00	 1.9073073005e+00
 3.2622821604e-01	 1.3130162608e+00	 1.7164319228e+00
 3.1435040825e-01	 1.3159104587e+00	 1.5218096996e+00
 3.0247728689e-01	 1.3186902446e+00	 1.3286931471e+00
 2.9061037479e-01	 1.3213561328e+00	 1.1420420029e+00
 2.7875117746e-01	 1.3239086624e+00	 9.6651764964e-01
 2.6690118266e-01	 1.3263483964e+00	 8.0647842294e-01
 2.5506185996e-01	 1.3286759212e+00	 6.6597578023e-01
 2.4323466039e-01	 1.3308918460e+00	 5.4875130568e-01
 2.3142101602e-01	 1.3329968024e+00	 4.5823452180e-01
 3.5227453746e-01	 1.3154068420e+00	 1.8213238706e+00
 3.4031448841e-01	 1.3185516861e+00	 1.6543910862e+00
 3.2835604035e-01	 1.3215804125e+00	 1.4838383154e+00
 3.1640075953e-01	 1.3244934878e+00	 1.3137966705e+00
 3.0445019571e-01	 1.3272914048e+00	 1.1480660291e+00
 2.9250588165e-01	 1.3299746813e+00	 9.9011118775e-01
 2.8056933268e-01	 1.3325438597e+00	 8.4305894726e-01
 2.6864204626e-01	 1.3349995069e+00	 7.0969610311e-01
 2.5672550155e-01	 1.3373422130e+00	 5.9246831515e-01
 2.4482115904e-01	 1.3395725912e+00	 4.9347982442e-01
 2.3293046015e-01	 1.3416912772e+00	 4.1449398339e-01
 3.5455735925e-01	 1.3239309875e+00	 1.6183897738e+00
 3.4251980628e-01	 1.3270962110e+00	 1.4721851732e+00
 3.3048386466e-01	 1.3301445641e+00	 1.3253416928e+00
 3.1845111081e-01	 1.3330765169e+00	 1.1807178701e+00
 3.0642310453e-01	 1.3358925650e+00	 1.0408185909e+00
 2.9440138850e-01	 1.3385932298e+00	 9.0779325483e-01
 2.8238748789e-01	 1.3411790571e+00	 7.8343488486e-01
 2.7038290985e-01	 1.3436506175e+00	 6.6918015154e-01
 2.5838914313e-01	 1.3460085048e+00	 5.6611028111e-01
 2.4640765769e-01	 1.3482533364e+00	 4.7495281162e-01
 2.3443990427e-01	 1.3503857520e+00	 3.9608415923e-01
 3.5684018105e-01	 1.3324551329e+00	 1.4774608848e+00
 3.4472512415e-01	 1.3356407358e+00	 1.3560124056e+00
 3.3261168897e-01	 1.3387087158e+00	 1.2347002149e+00
 3.2050146209e-01	 1.3416595460e+00	 1.1152413109e+00
 3.0839601335e-01	 1.3444937253e+00	 9.9899885583e-01
 2.9629689536e-01	 1.3472117783e+00	 8.8698173862e-01
 2.8420564311e-01	 1.3498142545e+00	 7.7984507994e-01
 2.7212377345e-01	 1.3523017280e+00	 6.7789164804e-01
 2.6005278472e-01	 1.3546747967e+00	 5.8107415115e-01
 2.4799415633e-01	 1.3569340817e+00	 4.8899836810e-01
 2.3594934840e-01	 1.3590802268e+00	 4.0092707649e-01
 3.5912300284e-01	 1.3409792784e+00	 1.3959702875e+00
 3.4693044202e-01	 1.3441852606e+00	 1.3013129530e+00
 3.3473951329e-01	 1.3472728675e+00	 1.2058277201e+00
 3.2255181338e-01	 1.3502425751e+00	 1.1102170974e+00
 3.1036892217e-01	 1.3530948855e+00	 1.0148515265e+00
 2.9819240222e-01	 1.3558303268e+00	 9.1976973441e-01
 2.8602379832e-01	 1.3584494519e+00	 8.2468001232e-01
 2.7386463704e-01	 1.3609528386e+00	 7.2896238852e-01
 2.6171642630e-01	 1.3633410885e+00	 6.3167165865e-01
 2.4958065498e-01	 1.3656148269e+00	 5.3154123390e-01
 2.3745879252e-01	 1.3677747016e+00	 4.2698776451e-01
 3.6140582464e-01	 1.3495034239e+00	 1.3714165995e+00
 3.4913575988e-01	 1.3527297854e+00	 1.3036412472e+00
 3.3686733760e-01	 1.3558370191e+00	 1.2327893759e+00
 3.2460216466e-01	 1.3588256041e+00	 1.1586721722e+00
 3.1234183099e-01	 1.3616960458e+00	 1.0808122046e+00
 3.0008790908e-01	 1.3644488753e+00	 9.9844396482e-01
 2.8784195354e-01	 1.3670846493e+00	 9.1051530702e-01
 2.7560550064e-01	 1.3696039491e+00	 8.1568974971e-01
 2.6338006789e-01	 1.3720073804e+00	 7.1234960515e-01
 2.5116715363e-01	 1.3742955721e+00	 5.9859989562e-01
 2.3896823664e-01	 1.3764691764e+00	 4.7227301368e-01
 3.6368864644e-01	 1.3580275694e+00	 1.4013626488e+00
 3.5134107775e-01	 1.3612743102e+00	 1.3586630511e+00
 3.3899516191e-01	 1.3644011708e+00	 1.3097975107e+00
 3.2665251595e-01	 1.3674086332e+00	 1.2538052767e+00
 3.1431473981e-01	 1.3702972060e+00	 1.1895018424e+00
 3.0198341594e-01	 1.3730674238e+00	 1.1154790825e+00
 2.8966010875e-01	 1.3757198467e+00	 1.0301062440e+00
 2.7734636423e-01	 1.3782550597e+00	 9.3153175787e-01
 2.6504370947e-01	 1.3806736722e+00	 8.1768583556e-01
 2.5275365228e-01	 1.3829763173e+00	 6.8628381149e-01
 2.4047768077e-01	 1.3851636512e+00	 5.3483018890e-01
 3.6597146823e-01	 1.3665517149e+00	 1.4834342189e+00
 3.5354639562e-01	 1.3698188350e+00	 1.4621526555e+00
 3.4112298623e-01	 1.3729653225e+00	 1.4312076164e+00
 3.2870286723e-01	 1.3759916623e+00	 1.3889821129e+00
 3.1628764863e-01	 1.3788983662e+00	 1.3337214152e+00
 3.0387892280e-01	 1.3816859723e+00	 1.2635321983e+00
 2.9147826397e-01	 1.3843550441e+00	 1.1763824848e+00
 2.7908722783e-01	 1.3869061703e+00	 1.0701023524e+00
 2.6670735106e-01	 1.3893399641e+00	 9.4238537348e-01
 2.5434015092e-01	 1.3916570625e+00	 7.9079074879e-01
 2.4198712489e-01	 1.3938581260e+00	 6.1274609527e-01
 3.6825429003e-01	 1.3750758603e+00	 1.6153188594e+00
 3.5575171349e-01	 1.3783633598e+00	 1.6099901961e+00
 3.4325081054e-01	 1.3815294741e+00	 1.5915145164e+00
 3.3075321851e-01	 1.3845746914e+00	 1.5577307021e+00
 3.1826055745e-01	 1.3874995265e+00	 1.5064468057e+00
 3.0577442965e-01	 1.3903045208e+00	 1.4354376259e+00
 2.9329641918e-01	 1.3929902414e+00	 1.3424430068e+00
 2.8082809143e-01	 1.3955572808e+00	 1.2251668362e+00
 2.6837099264e-01	 1.3980062559e+00	 1.0812767098e+00
 2.5592664957e-01	 1.4003378077e+00	 9.0840422889e-01
 2.4349656902e-01	 1.4025526008e+00	 7.0414589352e-01
 3.7053711183e-01	 1.3836000058e+00	 1.7947636311e+00
 3.5795703135e-01	 1.3869078846e+00	 1.7981590870e+00
 3.4537863485e-01	 1.3900936258e+00	 1.7853486903e+00
 3.3280356980e-01	 1.3931577205e+00	 1.7537369278e+00
 3.2023346627e-01	 1.3961006867e+00	 1.7008238909e+00
 3.0766993651e-01	 1.3989230693e+00	 1.6242018324e+00
 2.9511457440e-01	 1.4016254388e+00	 1.5215512361e+00
 2.8256895502e-01	 1.4042083914e+00	 1.3906375043e+00
 2.7003463423e-01	 1.4066725477e+00	 1.2293082377e+00
 2.5751314822e-01	 1.4090185530e+00	 1.0354910752e+00
 2.4500601314e-01	 1.4112470756e+00	 8.0719206332e-01
 3.7281993362e-01	 1.3921241513e+00	 2.0192386128e+00
 3.6016234922e-01	 1.3954524094e+00	 2.0227435664e+00
 3.4750645917e-01	 1.3986577775e+00	 2.0074727502e+00
 3.3485392108e-01	 1.4017407496e+00	 1.9708402584e+00
 3.2220637509e-01	 1.4047018470e+00	 1.9101638226e+00
 3.0956544337e-01	 1.4075416178e+00	 1.8229985875e+00
 2.9693272962e-01	 1.4102606362e+00	 1.7071303699e+00
 2.8430981862e-01	 1.4128595019e+00	 1.5605694435e+00
 2.7169827581e-01	 1.4153388396e+00	 1.3815448282e+00
 2.5909964687e-01	 1.4176992982e+00	 1.1684990599e+00
 2.4651545727e-01	 1.4199415504e+00	 9.2008341220e-01
 2.3142101602e-01	 1.3329968024e+00	 4.5823452180e-01
 2.1962033562e-01	 1.3349917732e+00	 3.9023641535e-01
 2.0783602525e-01	 1.3368770650e+00	 3.3867366006e-01
 1.9606946182e-01	 1.3386533721e+00	 3.0401570138e-01
 1.8432200193e-01	 1.3403214086e+00	 2.8693319893e-01
 1.7259498153e-01	 1.3418819083e+00	 2.8829104501e-01
 1.6088971569e-01	 1.3433356234e+00	 3.0914151834e-01
 1.4920749834e-01	 1.3446833246e+00	 3.5071755717e-01
 1.3754960206e-01	 1.3459258001e+00	 4.1442613499e-01
 1.2591727781e-01	 1.3470638551e+00	 5.0184172227e-01
 1.1431175480e-01	 1.3480983111e+00	 6.1469981754e-01
 2.3293046015e-01	 1.3416912772e+00	 4.1449398339e-01
 2.2105280978e-01	 1.3436992602e+00	 3.5539145718e-01
 2.0919163622e-01	 1.3455968489e+00	 3.1464854838e-01
 1.9734832535e-01	 1.3473847419e+00	 2.9183398977e-01
 1.8552424262e-01	 1.3490636582e+00	 2.8677980418e-01
 1.7372073270e-01	 1.3506343362e+00	 2.9957414312e-01
 1.6193911924e-01	 1.3520975332e+00	 3.3055420192e-01
 1.5018070460e-01	 1.3534540248e+00	 3.8029919588e-01
 1.3844676966e-01	 1.3547046043e+00	 4.4962338145e-01
 1.2673857355e-01	 1.3558500822e+00	 5.3956910650e-01
 1.1505735349e-01	 1.3568912855e+00	 6.5139987359e-01
 2.3443990427e-01	 1.3503857520e+00	 3.9608415923e-01
 2.2248528394e-01	 1.3524067472e+00	 3.3450697618e-01
 2.1054724718e-01	 1.3543166327e+00	 2.9430839566e-01
 1.9862718888e-01	 1.3561161117e+00	 2.7442435796e-01
 1.8672648332e-01	 1.3578059078e+00	 2.7409343926e-01
 1.7484648388e-01	 1.3593867641e+00	 2.9284971157e-01
 1.6298852279e-01	 1.3608594430e+00	 3.3051564453e-01
 1.5115391087e-01	 1.3622247249e+00	 3.8719503301e-01
 1.3934393727e-01	 1.3634834085e+00	 4.6326593427e-01
 1.2755986929e-01	 1.3646363094e+00	 5.5937359836e-01
 1.1580295218e-01	 1.3656842599e+00	 6.7642337539e-01
 2.3594934840e-01	 1.3590802268e+00	 4.0092707649e-01
 2.2391775810e-01	 1.3611142342e+00	 3.2761667693e-01
 2.1190285815e-01	 1.3630364165e+00	 2.7939657560e-01
 1.9990605241e-01	 1.3648474815e+00	 2.5483430196e-01
 1.8792872401e-01	 1.3665481573e+00	 2.5281691764e-01
 1.7597223506e-01	 1.3681391920e+00	 2.7254409673e-01
 1.6403792634e-01	 1.3696213527e+00	 3.1352123709e-01
 1.5212711713e-01	 1.3709954251e+00	 3.7555258530e-01
 1.4024110487e-01	 1.3722622128e+00	 4.5873435768e-01
 1.2838116504e-01	 1.3734225366e+00	 5.6344783944e-01
 1.1654855087e-01	 1.3744772344e+00	 6.9035244465e-01
 2.3745879252e-01	 1.3677747016e+00	 4.2698776451e-01
 2.2535023226e-01	 1.3698217213e+00	 3.3474330448e-01
 2.1325846911e-01	 1.3717562003e+00	 2.7160188690e-01
 2.0118491594e-01	 1.3735788513e+00	 2.3602356083e-01
 1.8913096471e-01	 1.3752904069e+00	 2.2678262709e-01
 1.7709798623e-01	 1.3768916200e+00	 2.4296113578e-01
 1.6508732990e-01	 1.3783832625e+00	 2.8394242790e-01
 1.5310032339e-01	 1.3797661253e+00	 3.4940470104e-01
 1.4113827248e-01	 1.3810410170e+00	 4.3931457930e-01
 1.2920246078e-01	 1.3822087638e+00	 5.5392066737e-01
 1.1729414957e-01	 1.3832702088e+00	 6.9374706869e-01
 2.3896823664e-01	 1.3764691764e+00	 4.7227301368e-01
 2.2678270641e-01	 1.3785292083e+00	 3.5589906896e-01
 2.1461408008e-01	 1.3804759842e+00	 2.7256032084e-01
 2.0246377947e-01	 1.3823102211e+00	 2.2086690152e-01
 1.9033320540e-01	 1.3840326565e+00	 1.9971600343e-01
 1.7822373741e-01	 1.3856440479e+00	 2.0828598895e-01
 1.6613673345e-01	 1.3871451723e+00	 2.4603058073e-01
 1.5407352965e-01	 1.3885368255e+00	 3.1267310925e-01
 1.4203544009e-01	 1.3898198212e+00	 4.0820079438e-01
 1.3002375653e-01	 1.3909949910e+00	 5.3285903739e-01
 1.1803974826e-01	 1.3920631832e+00	 6.8714570033e-01
 2.4047768077e-01	 1.3851636512e+00	 5.3483018890e-01
 2.2821518057e-01	 1.3872366953e+00	 3.9108606130e-01
 2.1596969105e-01	 1.3891957680e+00	 2.8385676846e-01
 2.0374264300e-01	 1.3910415909e+00	 2.1215680423e-01
 1.9153544609e-01	 1.3927749060e+00	 1.7523887839e-01
 1.7934948858e-01	 1.3943964758e+00	 1.7258883166e-01
 1.6718613700e-01	 1.3959070821e+00	 2.0392069113e-01
 1.5504673591e-01	 1.3973075256e+00	 2.6917183848e-01
 1.4293260769e-01	 1.3985986254e+00	 3.6849826327e-01
 1.3084505227e-01	 1.3997812182e+00	 5.0226987366e-01
 1.1878534695e-01	 1.4008561577e+00	 6.7106583693e-01
 2.4198712489e-01	 1.3938581260e+00	 6.1274609527e-01
 2.2964765473e-01	 1.3959441823e+00	 4.4029666022e-01
 2.1732530201e-01	 1.3979155518e+00	 3.0702667004e-01
 2.0502150652e-01	 1.3997729606e+00	 2.1260605277e-01
 1.9273768679e-01	 1.4015171556e+00	 1.5687270685e-01
 1.8047523976e-01	 1.4031489038e+00	 1.3982841267e-01
 1.6823554055e-01	 1.4046689919e+00	 1.6163496743e-01
 1.5601994218e-01	 1.4060782258e+00	 2.2261051059e-01
 1.4382977530e-01	 1.4073774296e+00	 3.2322600684e-01
 1.3166634801e-01	 1.4085674454e+00	 4.6410185347e-01
 1.1953094565e-01	 1.4096491321e+00	 6.4600457951e-01
 2.4349656902e-01	 1.4025526008e+00	 7.0414589352e-01
 2.3108012889e-01	 1.4046516693e+00	 5.0351393100e-01
 2.1868091298e-01	 1.4066353356e+00	 3.4355760934e-01
 2.0630037005e-01	 1.4085043304e+00	 2.2485023400e-01
 1.9393992748e-01	 1.4102594052e+00	 1.4804167892e-01
 1.8160099093e-01	 1.4119013317e+00	 1.1385548402e-01
 1.6928494410e-01	 1.4134309017e+00	 1.2308628193e-01
 1.5699314844e-01	 1.4148489260e+00	 1.7659751513e-01
 1.4472694290e-01	 1.4161562339e+00	 2.7531940414e-01
 1.3248764376e-01	 1.4173536725e+00	 4.2024712723e-01
 1.2027654434e-01	 1.4184421065e+00	 6.1243917288e-01
 2.4500601314e-01	 1.4112470756e+00	 8.0719206332e-01
 2.3251260305e-01	 1.4133591563e+00	 5.8071201640e-01
 2.2003652394e-01	 1.4153551195e+00	 3.9489085503e-01
 2.0757923358e-01	 1.4172357002e+00	 2.5145015025e-01
 1.9514216818e-01	 1.4190016547e+00	 1.5207572163e-01
 1.8272674211e-01	 1.4206537596e+00	 9.8416108297e-02
 1.7033434766e-01	 1.4221928115e+00	 9.2081498222e-02
 1.5796635470e-01	 1.4236196261e+00	 1.3464306943e-01
 1.4562411051e-01	 1.4249350381e+00	 2.2763269669e-01
 1.3330893950e-01	 1.4261398997e+00	 3.7254297699e-01
 1.2102214303e-01	 1.4272350809e+00	 5.7082752748e-01
 2.4651545727e-01	 1.4199415504e+00	 9.2008341220e-01
 2.3394507721e-01	 1.4220666433e+00	 6.7185651996e-01
 2.2139213491e-01	 1.4240749033e+00	 4.6242285153e-01
 2.0885809711e-01	 1.4259670700e+00	 2.9489414852e-01
 1.9634440887e-01	 1.4277439043e+00	 1.7221339508e-01
 1.8385249329e-01	 1.4294061875e+00	 9.7154848508e-02
 1.7138375121e-01	 1.4309547213e+00	 7.2324679770e-02
 1.5893956096e-01	 1.4323903263e+00	 1.0016216926e-01
 1.4652127812e-01	 1.4337138423e+00	 1.8294140328e-01
 1.3413023525e-01	 1.4349261269e+00	 3.2277341619e-01
 1.2176774173e-01	 1.4360280554e+00	 5.2160872383e-01
 1.1431175480e-01	 1.3480983111e+00	 6.1469981754e-01
 1.0273620124e-01	 1.3490298559e+00	 7.5858270820e-01
 9.1189804181e-02	 1.3498595259e+00	 9.3886783817e-01
 7.9673699552e-02	 1.3505881879e+00	 1.1572071636e+00
 6.8189001638e-02	 1.3512167222e+00	 1.4154749781e+00
 5.6736802946e-02	 1.3517460228e+00	 1.7157604820e+00
 4.5318174109e-02	 1.3521769965e+00	 2.0603602385e+00
 3.3934163799e-02	 1.3525105625e+00	 2.4517705089e+00
 2.2585798660e-02	 1.3527476514e+00	 2.8926794617e+00
 1.1274083250e-02	 1.3528892052e+00	 3.3859592470e+00
 0.0000000000e+00	 1.3529361765e+00	 3.9346579366e+00
 1.1505735349e-01	 1.3568912855e+00	 6.5139987359e-01
 1.0340629836e-01	 1.3578289063e+00	 7.9025729826e-01
 9.1784589896e-02	 1.3586639879e+00	 9.6260570911e-01
 8.0193371447e-02	 1.3593974025e+00	 1.1718143718e+00
 6.8633764564e-02	 1.3600300364e+00	 1.4212793789e+00
 5.7106868879e-02	 1.3605627894e+00	 1.7144191779e+00
 4.5613762008e-02	 1.3609965742e+00	 2.0546701547e+00
 3.4155499464e-02	 1.3613323158e+00	 2.4454822555e+00
 2.2733114586e-02	 1.3615709511e+00	 2.8903146283e+00
 1.1347618485e-02	 1.3617134283e+00	 3.3926312698e+00
 0.0000000000e+00	 1.3617607059e+00	 3.9558966635e+00
 1.1580295218e-01	 1.3656842599e+00	 6.7642337539e-01
 1.0407639548e-01	 1.3666279567e+00	 8.1688602000e-01
 9.2379375611e-02	 1.3674684499e+00	 9.8571573552e-01
 8.0713043343e-02	 1.3682066172e+00	 1.1875723548e+00
 6.9078527490e-02	 1.3688433507e+00	 1.4269856443e+00
 5.7476934812e-02	 1.3693795561e+00	 1.7083533595e+00
 4.5909349907e-02	 1.3698161518e+00	 2.0359394880e+00
 3.4376835129e-02	 1.3701540692e+00	 2.4138726548e+00
 2.2880430512e-02	 1.3703942509e+00	 2.8461446622e+00
 1.1421153720e-02	 1.3705376513e+00	 3.3366091420e+00
 0.0000000000e+00	 1.3705852353e+00	 3.8889802961e+00
 1.1654855087e-01	 1.3744772344e+00	 6.9035244465e-01
 1.0474649260e-01	 1.3754270071e+00	 8.3760240108e-01
 9.2974161327e-02	 1.3762729118e+00	 1.0066335569e+00
 8.1232715239e-02	 1.3770158318e+00	 1.2029750576e+00
 6.9523290417e-02	 1.3776566650e+00	 1.4319071832e+00
 5.7847000746e-02	 1.3781963227e+00	 1.6984615055e+00
 4.6204937807e-02	 1.3786357295e+00	 2.0074213303e+00
 3.4598170794e-02	 1.3789758225e+00	 2.3633223906e+00
 2.3027746439e-02	 1.3792175507e+00	 2.7704537582e+00
 1.1494688955e-02	 1.3793618744e+00	 3.2328589417e+00
 0.0000000000e+00	 1.3794097647e+00	 3.7543371421e+00
 1.1729414957e-01	 1.3832702088e+00	 6.9374706869e-01
 1.0541658971e-01	 1.3842260576e+00	 8.5155547304e-01
 9.3568947043e-02	 1.3850773738e+00	 1.0238289472e+00
 8.1752387136e-02	 1.3858250465e+00	 1.2165500371e+00
 6.9968053344e-02	 1.3864699792e+00	 1.4353712078e+00
 5.8217066680e-02	 1.3870130893e+00	 1.6856166839e+00
 4.6500525707e-02	 1.3874553072e+00	 1.9722846366e+00
 3.4819506460e-02	 1.3877975758e+00	 2.3000496780e+00
 2.3175062365e-02	 1.3880408504e+00	 2.6732656227e+00
 1.1568224191e-02	 1.3881860974e+00	 3.0959684820e+00
 0.0000000000e+00	 1.3882342941e+00	 3.5718796542e+00
 1.1803974826e-01	 1.3920631832e+00	 6.8714570033e-01
 1.0608668683e-01	 1.3930251080e+00	 8.5790918002e-01
 9.4163732759e-02	 1.3938818357e+00	 1.0358046357e+00
 8.2272059032e-02	 1.3946342611e+00	 1.2268573028e+00
 7.0412816271e-02	 1.3952832935e+00	 1.4367182063e+00
 5.8587132614e-02	 1.3958298560e+00	 1.6706672723e+00
 4.6796113607e-02	 1.3962748848e+00	 1.9336168127e+00
 3.5040842126e-02	 1.3966193292e+00	 2.2301153389e+00
 2.3322378292e-02	 1.3968641502e+00	 2.5643516616e+00
 1.1641759426e-02	 1.3970103204e+00	 2.9401592372e+00
 0.0000000000e+00	 1.3970588236e+00	 3.3610207217e+00
 1.1878534695e-01	 1.4008561577e+00	 6.7106583693e-01
 1.0675678395e-01	 1.4018241584e+00	 8.5584181120e-01
 9.4758518475e-02	 1.4026862977e+00	 1.0410951736e+00
 8.2791730928e-02	 1.4034434758e+00	 1.2324882025e+00
 7.0857579198e-02	 1.4040966078e+00	 1.4353014368e+00
 5.8957198548e-02	 1.4046466226e+00	 1.6544376526e+00
 4.7091701508e-02	 1.4050944625e+00	 1.8944262047e+00
 3.5262177791e-02	 1.4054410825e+00	 2.1594276858e+00
 2.3469694219e-02	 1.4056874499e+00	 2.4532388587e+00
 1.1715294662e-02	 1.4058345435e+00	 2.7792978192e+00
 0.0000000000e+00	 1.4058833530e+00	 3.1406893488e+00
 1.1953094565e-01	 1.4096491321e+00	 6.4600457951e-01
 1.0742688107e-01	 1.4106232089e+00	 8.4454545578e-01
 9.5353304191e-02	 1.4114907596e+00	 1.0382658440e+00
 8.3311402825e-02	 1.4122526905e+00	 1.2320643506e+00
 7.1302342125e-02	 1.4129099221e+00	 1.4304864405e+00
 5.9327264481e-02	 1.4134633892e+00	 1.6377288792e+00
 4.7387289408e-02	 1.4139140402e+00	 1.8576444966e+00
 3.5483513457e-02	 1.4142628359e+00	 2.0937472242e+00
 2.3617010145e-02	 1.4145107497e+00	 2.3492173611e+00
 1.1788829897e-02	 1.4146587665e+00	 2.6269070248e+00
 0.0000000000e+00	 1.4147078824e+00	 2.9293457459e+00
 1.2027654434e-01	 1.4184421065e+00	 6.1243917288e-01
 1.0809697818e-01	 1.4194222593e+00	 8.2322547983e-01
 9.5948089907e-02	 1.4202952216e+00	 1.0259116135e+00
 8.3831074721e-02	 1.4210619051e+00	 1.2242365966e+00
 7.1747105052e-02	 1.4217232363e+00	 1.4216505733e+00
 5.9697330415e-02	 1.4222801559e+00	 1.6213193230e+00
 4.7682877308e-02	 1.4227336178e+00	 1.8261290181e+00
 3.5704849122e-02	 1.4230845892e+00	 2.0386911788e+00
 2.3764326072e-02	 1.4233340495e+00	 2.2613477807e+00
 1.1862365133e-02	 1.4234829896e+00	 2.4961764718e+00
 0.0000000000e+00	 1.4235324118e+00	 2.7449958603e+00
 1.2102214303e-01	 1.4272350809e+00	 5.7082752748e-01
 1.0876707530e-01	 1.4282213097e+00	 7.9110002366e-01
 9.6542875622e-02	 1.4290996835e+00	 1.0026561239e+00
 8.4350746617e-02	 1.4298711198e+00	 1.2076840331e+00
 7.2191867979e-02	 1.4305365506e+00	 1.4081825558e+00
 6.0067396348e-02	 1.4310969225e+00	 1.6059652922e+00
 4.7978465207e-02	 1.4315531955e+00	 1.8026649683e+00
 3.5926184787e-02	 1.4319063426e+00	 1.9997378541e+00
 2.3911641998e-02	 1.4321573492e+00	 2.1984682272e+00
 1.1935900368e-02	 1.4323072126e+00	 2.3999728423e+00
 0.0000000000e+00	 1.4323569412e+00	 2.6052053686e+00
 1.2176774173e-01	 1.4360280554e+00	 5.2160872383e-01
 1.0943717242e-01	 1.4370203602e+00	 7.4739951923e-01
 9.7137661338e-02	 1.4379041455e+00	 9.6715072133e-01
 8.4870418512e-02	 1.4386803344e+00	 1.1811130410e+00
 7.2636630905e-02	 1.4393498649e+00	 1.3894820405e+00
 6.0437462281e-02	 1.4399136891e+00	 1.5924016307e+00
 4.8274053106e-02	 1.4403727731e+00	 1.7899675571e+00
 3.6147520452e-02	 1.4407280959e+00	 1.9822308333e+00
 2.4058957924e-02	 1.4409806490e+00	 2.1692010821e+00
 1.2009435603e-02	 1.4411314357e+00	 2.3508497493e+00
 0.0000000000e+00	 1.4411814706e+00	 2.5271131563e+00
 1.4411814706e+00	 0.0000000000e+00	 2.2652494314e+01
 1.4411314357e+00	 1.2009435603e-02	 2.8411185590e+01
 1.4409806490e+00	 2.4058957924e-02	 3.1688555725e+01
 1.4407280959e+00	 3.6147520452e-02	 3.2830366988e+01
 1.4403727731e+00	 4.8274053106e-02	 3.2188073969e+01
 1.4399136891e+00	 6.0437462281e-02	 3.0118547365e+01
 1.4393498649e+00	 7.2636630905e-02	 2.6983784804e+01
 1.4386803344e+00	 8.4870418512e-02	 2.3150608857e+01
 1.4379041455e+00	 9.7137661338e-02	 1.8990352445e+01
 1.4370203602e+00	 1.0943717242e-01	 1.4878531845e+01
 1.4360280554e+00	 1.2176774173e-01	 1.1194507556e+01
 1.4500045000e+00	 0.0000000000e+00	 9.1768304161e+00
 1.4499541587e+00	 1.2082958338e-02	 2.1493926058e+01
 1.4498024489e+00	 2.4206248808e-02	 2.9631431429e+01
 1.4495483497e+00	 3.6368818493e-02	 3.4140747289e+01
 1.4491908516e+00	 4.8569590760e-02	 3.5582481208e+01
 1.4487289571e+00	 6.0807465309e-02	 3.4525988924e+01
 1.4481616810e+00	 7.3081318229e-02	 3.1548893732e+01
 1.4474880517e+00	 8.5390002073e-02	 2.7236584094e+01
 1.4467071109e+00	 9.7732345950e-02	 2.2181689719e+01
 1.4458179149e+00	 1.1010715563e-01	 1.6983536387e+01
 1.4448195352e+00	 1.2251321368e-01	 1.2247579853e+01
 1.4588275294e+00	 0.0000000000e+00	-2.4649184920e+00
 1.4587768818e+00	 1.2156481073e-02	 1.5108412997e+01
 1.4586242489e+00	 2.4353539692e-02	 2.7175132124e+01
 1.4583686035e+00	 3.6590116533e-02	 3.4444536653e+01
 1.4580089301e+00	 4.8865128414e-02	 3.7637844543e+01
 1.4575442250e+00	 6.1177468337e-02	 3.7487592609e+01
 1.4569734972e+00	 7.3526005553e-02	 3.4737006188e+01
 1.4562957689e+00	 8.5909585633e-02	 3.0139340056e+01
 1.4555100762e+00	 9.8327030562e-02	 2.4457190854e+01
 1.4546154697e+00	 1.1077713885e-01	 1.8461781370e+01
 1.4536110149e+00	 1.2325868564e-01	 1.2932217080e+01
 1.4676505588e+00	 0.0000000000e+00	-1.2248640390e+01
 1.4675996049e+00	 1.2230003808e-02	 9.2790161807e+00
 1.4674460489e+00	 2.4500830576e-02	 2.4340662428e+01
 1.4671888574e+00	 3.6811414574e-02	 3.3756638462e+01
 1.4668270086e+00	 4.9160666067e-02	 3.8361127965e+01
 1.4663594930e+00	 6.1547471364e-02	 3.9001453463e+01
 1.4657853134e+00	 7.3970692876e-02	 3.6537337580e+01
 1.4651034862e+00	 8.6429169193e-02	 3.1840130501e+01
 1.4643130416e+00	 9.8921715174e-02	 2.5792003973e+01
 1.4634130244e+00	 1.1144712206e-01	 1.9285112201e+01
 1.4624024947e+00	 1.2400415759e-01	 1.3220720105e+01
 1.4764735882e+00	 0.0000000000e+00	-2.0150773896e+01
 1.4764223280e+00	 1.2303526542e-02	 4.0295412404e+00
 1.4762678488e+00	 2.4648121460e-02	 2.1148536393e+01
 1.4760091112e+00	 3.7032712614e-02	 3.2091605022e+01
 1.4756450871e+00	 4.9456203720e-02	 3.7759128337e+01
 1.4751747609e+00	 6.1917474391e-02	 3.9065706123e+01
 1.4745971296e+00	 7.4415380199e-02	 3.6939350446e+01
 1.4739112034e+00	 8.6948752753e-02	 3.2320642502e+01
 1.4731160069e+00	 9.9516399786e-02	 2.6161852940e+01
 1.4722105792e+00	 1.1211710527e-01	 1.9426026065e+01
 1.4711939745e+00	 1.2474962954e-01	 1.3086028414e+01
 1.4852966177e+00	 0.0000000000e+00	-2.6154871894e+01
 1.4852450511e+00	 1.2377049277e-02	-6.2288038899e-01
 1.4850896488e+00	 2.4795412343e-02	 1.7613417620e+01
 1.4848293650e+00	 3.7254010654e-02	 2.9459243586e+01
 1.4844631656e+00	 4.9751741372e-02	 3.5835164031e+01
 1.4839900289e+00	 6.2287477417e-02	 3.7676301930e+01
 1.4834089457e+00	 7.4860067522e-02	 3.5931509806e+01
 1.4827189207e+00	 8.7468336312e-02	 3.1562504633e+01
 1.4819189723e+00	 1.0011108440e-01	 2.5542964702e+01
 1.4810081339e+00	 1.1278708848e-01	 1.8857652299e+01
 1.4799854543e+00	 1.2549510150e-01	 1.2501700915e+01
 1.4941196471e+00	 0.0000000000e+00	-3.0291970087e+01
 1.4940677742e+00	 1.2450572012e-02	-4.7066060177e+00
 1.4939114487e+00	 2.4942703227e-02	 1.3706418728e+01
 1.4936496188e+00	 3.7475308694e-02	 2.5827796064e+01
 1.4932812441e+00	 5.0047279025e-02	 3.2553178979e+01
 1.4928052968e+00	 6.2657480444e-02	 3.4792406899e+01
 1.4922207619e+00	 7.5304754845e-02	 3.3468693495e+01
 1.4915266379e+00	 8.7987919871e-02	 2.9517777022e+01
 1.4907219377e+00	 1.0070576901e-01	 2.3887033352e+01
 1.4898056887e+00	 1.1345707170e-01	 1.7534551926e+01
 1.4887769341e+00	 1.2624057345e-01	 1.1428174943e+01
 1.5029426765e+00	 0.0000000000e+00	-3.2554037968e+01
 1.5028904973e+00	 1.2524094746e-02	-8.2127833808e+00
 1.5027332487e+00	 2.5089994111e-02	 9.4334977183e+00
 1.5024698726e+00	 3.7696606734e-02	 2.1197433037e+01
 1.5020993226e+00	 5.0342816678e-02	 2.7905479739e+01
 1.5016205648e+00	 6.3027483470e-02	 3.0397201688e+01
 1.5010325781e+00	 7.5749442167e-02	 2.9524511768e+01
 1.5003343552e+00	 8.8507503430e-02	 2.6150879353e+01
 1.4995249030e+00	 1.0130045362e-01	 2.1150503066e+01
 1.4986032435e+00	 1.1412705491e-01	 1.5407449059e+01
 1.4975684139e+00	 1.2698604541e-01	 9.8147550829e+00
 1.5117657059e+00	 0.0000000000e+00	-3.2922284522e+01
 1.5117132204e+00	 1.2597617481e-02	-1.1122055898e+01
 1.5115550487e+00	 2.5237284994e-02	 4.8113521306e+00
 1.5112901264e+00	 3.7917904774e-02	 1.5579754450e+01
 1.5109174011e+00	 5.0638354330e-02	 2.1896926030e+01
 1.5104358327e+00	 6.3397486497e-02	 2.4487968607e+01
 1.5098443942e+00	 7.6194129490e-02	 2.4088646940e+01
 1.5091420724e+00	 8.9027086989e-02	 2.1444694704e+01
 1.5083278684e+00	 1.0189513823e-01	 1.7311090147e+01
 1.5074007982e+00	 1.1479703812e-01	 1.2451301703e+01
 1.5063598937e+00	 1.2773151736e-01	 7.6365037930e+00
 1.5205887353e+00	 0.0000000000e+00	-3.1378393126e+01
 1.5205359435e+00	 1.2671140216e-02	-1.3415546292e+01
 1.5203768486e+00	 2.5384575878e-02	-1.4373023408e-01
 1.5201103802e+00	 3.8139202814e-02	 8.9860762806e+00
 1.5197354796e+00	 5.0933891983e-02	 1.4532257098e+01
 1.5192511007e+00	 6.3767489523e-02	 1.7062051995e+01
 1.5186562104e+00	 7.6638816813e-02	 1.7151025938e+01
 1.5179497897e+00	 8.9546670548e-02	 1.5382514313e+01
 1.5171308337e+00	 1.0248982284e-01	 1.2347044246e+01
 1.5161983530e+00	 1.1546702133e-01	 8.6417321437e+00
 1.5151513734e+00	 1.2847698931e-01	 4.8696576485e+00
 1.5294117647e+00	 0.0000000000e+00	-2.7904507863e+01
 1.5293586666e+00	 1.2744662951e-02	-1.5074842637e+01
 1.5291986486e+00	 2.5531866762e-02	-5.4158592626e+00
 1.5289306340e+00	 3.8360500855e-02	 1.4274390584e+00
 1.5285535581e+00	 5.1229429637e-02	 5.8160955922e+00
 1.5280663686e+00	 6.4137492550e-02	 8.1168568919e+00
 1.5274680266e+00	 7.7083504135e-02	 8.7018137538e+00
 1.5267575069e+00	 9.0066254107e-02	 7.9480263401e+00
 1.5259337991e+00	 1.0308450745e-01	 6.2371335270e+00
 1.5249959077e+00	 1.1613700454e-01	 3.9549465693e+00
 1.5239428532e+00	 1.2922246127e-01	 1.4910272061e+00
 1.4360280554e+00	 1.2176774173e-01	 1.1194507556e+01
 1.4349261269e+00	 1.3413023525e-01	 8.1949074381e+00
 1.4337138423e+00	 1.4652127812e-01	 5.8427907533e+00
 1.4323903263e+00	 1.5893956096e-01	 4.0769782578e+00
 1.4309547213e+00	 1.7138375121e-01	 2.8347928318e+00
 1.4294061875e+00	 1.8385249329e-01	 2.0521173898e+00
 1.4277439043e+00	 1.9634440887e-01	 1.6634579226e+00
 1.4259670700e+00	 2.0885809711e-01	 1.6020117940e+00
 1.4240749033e+00	 2.2139213491e-01	 1.7997414079e+00
 1.4220666433e+00	 2.3394507721e-01	 2.1874533432e+00
 1.4199415504e+00	 2.4651545727e-01	 2.6948830409e+00
 1.4448195352e+00	 1.2251321368e-01	 1.2247579853e+01
 1.4437108606e+00	 1.3495139139e-01	 8.4270143803e+00
 1.4424911543e+00	 1.4741829322e-01	 5.5076171352e+00
 1.4411595356e+00	 1.5991260180e-01	 3.3942696993e+00
 1.4397151417e+00	 1.7243297638e-01	 1.9899212514e+00
 1.4381571277e+00	 1.8497805311e-01	 1.1956819359e+00
 1.4364846678e+00	 1.9754644521e-01	 9.1092282742e-01
 1.4346969556e+00	 2.1013674326e-01	 1.0333826060e+00
 1.4327932049e+00	 2.2274751545e-01	 1.4592810387e+00
 1.4307726502e+00	 2.3537730787e-01	 2.0834393503e+00
 1.4286345473e+00	 2.4802464481e-01	 2.7994075412e+00
 1.4536110149e+00	 1.2325868564e-01	 1.2932217080e+01
 1.4524955943e+00	 1.3577254752e-01	 8.4848741650e+00
 1.4512684663e+00	 1.4831530833e-01	 5.1350983650e+00
 1.4499287449e+00	 1.6088564264e-01	 2.7615734529e+00
 1.4484755621e+00	 1.7348220156e-01	 1.2407283013e+00
 1.4469080679e+00	 1.8610361293e-01	 4.4685832808e-01
 1.4452254314e+00	 1.9874848154e-01	 2.5225469872e-01
 1.4434268413e+00	 2.1141538940e-01	 5.2734138939e-01
 1.4415115065e+00	 2.2410289599e-01	 1.1408201977e+00
 1.4394786571e+00	 2.3680953854e-01	 1.9598237672e+00
 1.4373275442e+00	 2.4953383236e-01	 2.8500766695e+00
 1.4624024947e+00	 1.2400415759e-01	 1.3220720105e+01
 1.4612803280e+00	 1.3659370366e-01	 8.3436988522e+00
 1.4600457783e+00	 1.4921232343e-01	 4.7037750396e+00
 1.4586979543e+00	 1.6185868347e-01	 2.1610334419e+00
 1.4572359825e+00	 1.7453142673e-01	 5.7309189246e-01
 1.4556590081e+00	 1.8722917275e-01	-2.0475650226e-01
 1.4539661949e+00	 1.9995051788e-01	-3.1939253391e-01
 1.4521567269e+00	 2.1269403555e-01	 8.0288648900e-02
 1.4502298082e+00	 2.2545827653e-01	 8.4354587432e-01
 1.4481846640e+00	 2.3824176920e-01	 1.8179691299e+00
 1.4460205411e+00	 2.5104301991e-01	 2.8496656275e+00
 1.4711939745e+00	 1.2474962954e-01	 1.3086028414e+01
 1.4700650617e+00	 1.3741485980e-01	 7.9792679076e+00
 1.4688230902e+00	 1.5010933854e-01	 4.1926746281e+00
 1.4674671636e+00	 1.6283172431e-01	 1.5751940251e+00
 1.4659964030e+00	 1.7558065191e-01	-2.6798515560e-02
 1.4644099482e+00	 1.8835473257e-01	-7.6934192525e-01
 1.4627069585e+00	 2.0115255422e-01	-8.1072453566e-01
 1.4608866125e+00	 2.1397268170e-01	-3.1130989292e-01
 1.4589481098e+00	 2.2681365707e-01	 5.6664677274e-01
 1.4568906709e+00	 2.3967399987e-01	 1.6591914743e+00
 1.4547135380e+00	 2.5255220746e-01	 2.8008738193e+00
 1.4799854543e+00	 1.2549510150e-01	 1.2501700915e+01
 1.4788497954e+00	 1.3823601594e-01	 7.3679111705e+00
 1.4776004022e+00	 1.5100635364e-01	 3.5812968972e+00
 1.4762363729e+00	 1.6380476514e-01	 9.8698807012e-01
 1.4747568234e+00	 1.7662987708e-01	-5.7245110496e-01
 1.4731608884e+00	 1.8948029239e-01	-1.2568600825e+00
 1.4714477220e+00	 2.0235459056e-01	-1.2283104369e+00
 1.4696164981e+00	 2.1525132785e-01	-6.5092479207e-01
 1.4676664114e+00	 2.2816903761e-01	 3.0931385728e-01
 1.4655966777e+00	 2.4110623054e-01	 1.4847624841e+00
 1.4634065349e+00	 2.5406139501e-01	 2.7063280541e+00
 1.4887769341e+00	 1.2624057345e-01	 1.1428174943e+01
 1.4876345291e+00	 1.3905717208e-01	 6.4774314582e+00
 1.4863777142e+00	 1.5190336875e-01	 2.8442926539e+00
 1.4850055822e+00	 1.6477780598e-01	 3.7719175934e-01
 1.4835172438e+00	 1.7767910225e-01	-1.0778560384e+00
 1.4819118286e+00	 1.9060585221e-01	-1.6770932237e+00
 1.4801884855e+00	 2.0355662689e-01	-1.5785865492e+00
 1.4783463837e+00	 2.1652997400e-01	-9.4196430703e-01
 1.4763847130e+00	 2.2952441815e-01	 7.0740900378e-02
 1.4743026846e+00	 2.4253846121e-01	 1.2959115877e+00
 1.4720995319e+00	 2.5557058256e-01	 2.5685856648e+00
 1.4975684139e+00	 1.2698604541e-01	 9.8147550829e+00
 1.4964192628e+00	 1.3987832822e-01	 5.2591859033e+00
 1.4951550262e+00	 1.5280038385e-01	 1.9368254539e+00
 1.4937747915e+00	 1.6575084681e-01	-2.9352654552e-01
 1.4922776642e+00	 1.7872832743e-01	-1.5752584622e+00
 1.4906627688e+00	 1.9173141203e-01	-2.0537931319e+00
 1.4889292491e+00	 2.0475866323e-01	-1.8764272939e+00
 1.4870762694e+00	 2.1780862014e-01	-1.1921641404e+00
 1.4851030147e+00	 2.3087979869e-01	-1.5153904492e-01
 1.4830086915e+00	 2.4397069187e-01	 1.0935614549e+00
 1.4807925288e+00	 2.5707977011e-01	 2.3901375426e+00
 1.5063598937e+00	 1.2773151736e-01	 7.6365037930e+00
 1.5052039965e+00	 1.4069948436e-01	 3.6899329862e+00
 1.5039323382e+00	 1.5369739896e-01	 8.3709560455e-01
 1.5025440008e+00	 1.6672388765e-01	-1.0459182077e+00
 1.5010380847e+00	 1.7977755260e-01	-2.0848716729e+00
 1.4994137089e+00	 1.9285697185e-01	-2.4072414138e+00
 1.4976700126e+00	 2.0596069957e-01	-2.1420713184e+00
 1.4958061550e+00	 2.1908726629e-01	-1.4198202957e+00
 1.4938213163e+00	 2.3223517923e-01	-3.7220398966e-01
 1.4917146984e+00	 2.4540292254e-01	 8.6796947906e-01
 1.4894855257e+00	 2.5858895766e-01	 2.1669696659e+00
 1.5151513734e+00	 1.2847698931e-01	 4.8696576485e+00
 1.5139887301e+00	 1.4152064050e-01	 1.7486358879e+00
 1.5127096502e+00	 1.5459441406e-01	-4.7286200828e-01
 1.5113132102e+00	 1.6769692849e-01	-1.8946554503e+00
 1.5097985051e+00	 1.8082677778e-01	-2.6179790263e+00
 1.5081646491e+00	 1.9398253167e-01	-2.7453630231e+00
 1.5064107762e+00	 2.0716273591e-01	-2.3805088492e+00
 1.5045360406e+00	 2.2036591244e-01	-1.6281594175e+00
 1.5025396179e+00	 2.3359055977e-01	-5.9396454964e-01
 1.5004207053e+00	 2.4683515321e-01	 6.1565853184e-01
 1.4981785226e+00	 2.6009814521e-01	 1.8936695583e+00
 1.5239428532e+00	 1.2922246127e-01	 1.4910272061e+00
 1.5227734638e+00	 1.4234179663e-01	-5.8522740249e-01
 1.5214869622e+00	 1.5549142916e-01	-2.0105653455e+00
 1.5200824195e+00	 1.6866996932e-01	-2.8540366265e+00
 1.5185589255e+00	 1.8187600295e-01	-3.1855660336e+00
 1.5169155893e+00	 1.9510809149e-01	-3.0758609197e+00
 1.5151515397e+00	 2.0836477224e-01	-2.5963152464e+00
 1.5132659262e+00	 2.2164455859e-01	-1.8189099442e+00
 1.5112579195e+00	 2.3494594031e-01	-8.1610964492e-01
 1.5091267122e+00	 2.4826738388e-01	 3.3924416031e-01
 1.5068715195e+00	 2.6160733276e-01	 1.5740434836e+00
 1.4199415504e+00	 2.4651545727e-01	 2.6948830409e+00
 1.4176992982e+00	 2.5909964687e-01	 3.1981034326e+00
 1.4153388396e+00	 2.7169827581e-01	 3.6162396564e+00
 1.4128595019e+00	 2.8430981862e-01	 3.9427966956e+00
 1.4102606362e+00	 2.9693272962e-01	 4.1716036818e+00
 1.4075416178e+00	 3.0956544337e-01	 4.2968578583e+00
 1.4047018470e+00	 3.2220637509e-01	 4.3131714402e+00
 1.4017407496e+00	 3.3485392108e-01	 4.2156213566e+00
 1.3986577775e+00	 3.4750645917e-01	 3.9998018345e+00
 1.3954524094e+00	 3.6016234922e-01	 3.6618797699e+00
 1.3921241513e+00	 3.7281993362e-01	 3.2010274571e+00
 1.4286345473e+00	 2.4802464481e-01	 2.7994075412e+00
 1.4263785678e+00	 2.6068587584e-01	 3.4553938534e+00
 1.4240036583e+00	 2.7336163461e-01	 3.9718976482e+00
 1.4215091420e+00	 2.8605038630e-01	 4.3498088966e+00
 1.4188943658e+00	 2.9875057578e-01	 4.5902380109e+00
 1.4161587013e+00	 3.1146062803e-01	 4.6945486678e+00
 1.4133015452e+00	 3.2417894856e-01	 4.6643935635e+00
 1.4103223197e+00	 3.3690392384e-01	 4.5017530997e+00
 1.4072204734e+00	 3.4963392179e-01	 4.2089769831e+00
 1.4039954818e+00	 3.6236729222e-01	 3.7888286995e+00
 1.4006468478e+00	 3.7510236738e-01	 3.2535225637e+00
 1.4373275442e+00	 2.4953383236e-01	 2.8500766695e+00
 1.4350578375e+00	 2.6227210481e-01	 3.6345381903e+00
 1.4326684771e+00	 2.7502499341e-01	 4.2317278128e+00
 1.4301587820e+00	 2.8779095398e-01	 4.6493752838e+00
 1.4275280953e+00	 3.0056842194e-01	 4.8953187020e+00
 1.4247757848e+00	 3.1335581269e-01	 4.9775267529e+00
 1.4219012434e+00	 3.2615152202e-01	 4.9041239322e+00
 1.4189038898e+00	 3.3895392660e-01	 4.6834187784e+00
 1.4157831693e+00	 3.5176138441e-01	 4.3239351136e+00
 1.4125385542e+00	 3.6457223523e-01	 3.8344462723e+00
 1.4091695444e+00	 3.7738480114e-01	 3.2438660542e+00
 1.4460205411e+00	 2.5104301991e-01	 2.8496656275e+00
 1.4437371071e+00	 2.6385833379e-01	 3.7392931451e+00
 1.4413332958e+00	 2.7668835221e-01	 4.4004780512e+00
 1.4388084220e+00	 2.8953152166e-01	 4.8472551965e+00
 1.4361618249e+00	 3.0238626810e-01	 5.0936473398e+00
 1.4333928683e+00	 3.1525099734e-01	 5.1536773360e+00
 1.4305009416e+00	 3.2812409548e-01	 5.0413833975e+00
 1.4274854599e+00	 3.4100392936e-01	 4.7708374679e+00
 1.4243458653e+00	 3.5388884703e-01	 4.3561667232e+00
 1.4210816266e+00	 3.6677717823e-01	 3.8115781989e+00
 1.4176922409e+00	 3.7966723490e-01	 3.1863173886e+00
 1.4547135380e+00	 2.5255220746e-01	 2.8008738193e+00
 1.4524163768e+00	 2.6544456276e-01	 3.7733213051e+00
 1.4499981145e+00	 2.7835171101e-01	 4.4827842698e+00
 1.4474580620e+00	 2.9127208935e-01	 4.9490782754e+00
 1.4447955545e+00	 3.0420411427e-01	 5.1918780164e+00
 1.4420099519e+00	 3.1714618200e-01	 5.2307199970e+00
 1.4391006398e+00	 3.3009666894e-01	 5.0850083934e+00
 1.4360670301e+00	 3.4305393212e-01	 4.7740241545e+00
 1.4329085612e+00	 3.5601630965e-01	 4.3169373776e+00
 1.4296246990e+00	 3.6898212123e-01	 3.7328229713e+00
 1.4262149375e+00	 3.8194966865e-01	 3.0948257776e+00
 1.4634065349e+00	 2.5406139501e-01	 2.7063280541e+00
 1.4610956464e+00	 2.6703079174e-01	 3.7401950910e+00
 1.4586629333e+00	 2.8001506981e-01	 4.4831750746e+00
 1.4561077021e+00	 2.9301265703e-01	 4.9603499110e+00
 1.4534292840e+00	 3.0602196043e-01	 5.1965235516e+00
 1.4506270354e+00	 3.1904136666e-01	 5.2162156905e+00
 1.4477003380e+00	 3.3206924241e-01	 5.0436587817e+00
 1.4446486002e+00	 3.4510393488e-01	 4.7027984492e+00
 1.4414712571e+00	 3.5814377228e-01	 4.2172973422e+00
 1.4381677714e+00	 3.7118706424e-01	 3.6107921358e+00
 1.4347376340e+00	 3.8423210241e-01	 2.9830395370e+00
 1.4720995319e+00	 2.5557058256e-01	 2.5685856648e+00
 1.4697749161e+00	 2.6861702071e-01	 3.6434005956e+00
 1.4673277520e+00	 2.8167842861e-01	 4.4060763322e+00
 1.4647573421e+00	 2.9475322471e-01	 4.8864565359e+00
 1.4620630136e+00	 3.0783980660e-01	 5.1139615335e+00
 1.4592441189e+00	 3.2093655132e-01	 5.1175735574e+00
 1.4563000362e+00	 3.3404181587e-01	 4.9258254674e+00
 1.4532301703e+00	 3.4715393765e-01	 4.5667930444e+00
 1.4500339530e+00	 3.6027123490e-01	 4.0680909246e+00
 1.4467108438e+00	 3.7339200724e-01	 3.4604668986e+00
 1.4432603305e+00	 3.8651453617e-01	 2.8643150932e+00
 1.4807925288e+00	 2.5707977011e-01	 2.3901375426e+00
 1.4784541858e+00	 2.7020324969e-01	 3.4863413167e+00
 1.4759925707e+00	 2.8334178740e-01	 4.2558156028e+00
 1.4734069821e+00	 2.9649379240e-01	 4.7326707676e+00
 1.4706967432e+00	 3.0965765276e-01	 4.9504401859e+00
 1.4678612024e+00	 3.2283173597e-01	 4.9420575404e+00
 1.4648997344e+00	 3.3601438933e-01	 4.7398377913e+00
 1.4618117405e+00	 3.4920394041e-01	 4.3754619216e+00
 1.4585966490e+00	 3.6239869752e-01	 3.8799655439e+00
 1.4552539162e+00	 3.7559695024e-01	 3.2945020788e+00
 1.4517830271e+00	 3.8879696993e-01	 2.7517256522e+00
 1.4894855257e+00	 2.5858895766e-01	 2.1669696659e+00
 1.4871334554e+00	 2.7178947866e-01	 3.2694469685e+00
 1.4846573895e+00	 2.8500514620e-01	 4.0358005561e+00
 1.4820566222e+00	 2.9823436008e-01	 4.5041321244e+00
 1.4793304727e+00	 3.1147549892e-01	 4.7120840686e+00
 1.4764782859e+00	 3.2472692063e-01	 4.6967928094e+00
 1.4734994326e+00	 3.3798696279e-01	 4.4938707106e+00
 1.4703933106e+00	 3.5125394317e-01	 4.1380883229e+00
 1.4671593449e+00	 3.6452616014e-01	 3.6633805344e+00
 1.4637969887e+00	 3.7780189324e-01	 3.1244895177e+00
 1.4603057236e+00	 3.9107940368e-01	 2.6580695482e+00
 1.4981785226e+00	 2.6009814521e-01	 1.8936695583e+00
 1.4958127251e+00	 2.7337570764e-01	 2.9867156741e+00
 1.4933222082e+00	 2.8666850500e-01	 3.7416128632e+00
 1.4907062622e+00	 2.9997492776e-01	 4.1998882207e+00
 1.4879642023e+00	 3.1329334509e-01	 4.4021401777e+00
 1.4850953694e+00	 3.2662210529e-01	 4.3879726473e+00
 1.4820991308e+00	 3.3995953626e-01	 4.1959298596e+00
 1.4789748807e+00	 3.5330394593e-01	 3.8637924941e+00
 1.4757220408e+00	 3.6665362276e-01	 3.4286156982e+00
 1.4723400611e+00	 3.8000683624e-01	 2.9617817286e+00
 1.4688284202e+00	 3.9336183744e-01	 2.5958782822e+00
 1.5068715195e+00	 2.6160733276e-01	 1.5740434836e+00
 1.5044919947e+00	 2.7496193661e-01	 2.6419958950e+00
 1.5019870269e+00	 2.8833186380e-01	 3.3762349760e+00
 1.4993559022e+00	 3.0171549544e-01	 3.8212537609e+00
 1.4965979319e+00	 3.1511119125e-01	 4.0204614785e+00
 1.4937124529e+00	 3.2851728995e-01	 4.0161101962e+00
 1.4906988290e+00	 3.4193210972e-01	 3.8492221412e+00
 1.4875564508e+00	 3.5535394869e-01	 3.5595179224e+00
 1.4842847367e+00	 3.6878108538e-01	 3.1853458937e+00
 1.4808831335e+00	 3.8221177925e-01	 2.8174989127e+00
 1.4773511167e+00	 3.9564427119e-01	 2.5774242660e+00
 1.3921241513e+00	 3.7281993362e-01	 3.2010274571e+00
 1.3886725372e+00	 3.8547753797e-01	 2.6610870071e+00
 1.3850971308e+00	 3.9813347216e-01	 2.0599433512e+00
 1.3813975249e+00	 4.1078603044e-01	 1.4195274672e+00
 1.3775733421e+00	 4.2343349180e-01	 7.6133972231e-01
 1.3736242346e+00	 4.3607412057e-01	 1.0642612090e-01
 1.3695498853e+00	 4.4870616704e-01	-5.2464731657e-01
 1.3653500079e+00	 4.6132786810e-01	-1.1118221581e+00
 1.3610243479e+00	 4.7393744782e-01	-1.6355772503e+00
 1.3565726823e+00	 4.8653311820e-01	-2.0769605870e+00
 1.3519948207e+00	 4.9911307980e-01	-2.4176234357e+00
 1.4006468478e+00	 3.7510236738e-01	 3.2535225637e+00
 1.3971741027e+00	 3.8783746261e-01	 2.6547535781e+00
 1.3935768073e+00	 4.0057087745e-01	 1.9880484136e+00
 1.3898545522e+00	 4.1330089571e-01	 1.2784210918e+00
 1.3860069574e+00	 4.2602578585e-01	 5.5087118781e-01
 1.3820336731e+00	 4.3874380157e-01	-1.6963706022e-01
 1.3779343803e+00	 4.5145318246e-01	-8.5819812029e-01
 1.3737087910e+00	 4.6415215458e-01	-1.4899911472e+00
 1.3693566489e+00	 4.7683893117e-01	-2.0403086969e+00
 1.3648777299e+00	 4.8951171327e-01	-2.4845882857e+00
 1.3602718422e+00	 5.0216869040e-01	-2.7984468891e+00
 1.4091695444e+00	 3.7738480114e-01	 3.2438660542e+00
 1.4056756681e+00	 3.9019738724e-01	 2.6080439275e+00
 1.4020564839e+00	 4.0300828274e-01	 1.9073499768e+00
 1.3983115795e+00	 4.1581576098e-01	 1.1673762590e+00
 1.3944405727e+00	 4.2861807990e-01	 4.1406564400e-01
 1.3904431117e+00	 4.4141348257e-01	-3.2630366467e-01
 1.3863188754e+00	 4.5420019787e-01	-1.0271365877e+00
 1.3820675741e+00	 4.6697644107e-01	-1.6615427620e+00
 1.3776889500e+00	 4.7974041452e-01	-2.2023614102e+00
 1.3731827774e+00	 4.9249030833e-01	-2.6221896198e+00
 1.3685488637e+00	 5.0522430101e-01	-2.8934141464e+00
 1.4176922409e+00	 3.7966723490e-01	 3.1863173886e+00
 1.4141772336e+00	 3.9255731188e-01	 2.5363097661e+00
 1.4105361604e+00	 4.0544568802e-01	 1.8337056825e+00
 1.4067686067e+00	 4.1833062625e-01	 1.1022139964e+00
 1.4028741880e+00	 4.3121037395e-01	 3.6620947109e-01
 1.3988525502e+00	 4.4408316357e-01	-3.4927476500e-01
 1.3947033704e+00	 4.5694721328e-01	-1.0185581299e+00
 1.3904263571e+00	 4.6980072755e-01	-1.6153270512e+00
 1.3860212510e+00	 4.8264189788e-01	-2.1126531477e+00
 1.3814878250e+00	 4.9546890339e-01	-2.4830152855e+00
 1.3768258853e+00	 5.0827991161e-01	-2.6983256442e+00
 1.4262149375e+00	 3.8194966865e-01	 3.0948257776e+00
 1.4226787991e+00	 3.9491723651e-01	 2.4545670279e+00
 1.4190158370e+00	 4.0788309331e-01	 1.7826256212e+00
 1.4152256340e+00	 4.2084549152e-01	 1.0984087028e+00
 1.4113078033e+00	 4.3380266800e-01	 4.2225496937e-01
 1.4072619888e+00	 4.4675284457e-01	-2.2456242601e-01
 1.4030878655e+00	 4.5969422869e-01	-8.1983662634e-01
 1.3987851402e+00	 4.7262501404e-01	-1.3404316887e+00
 1.3943535520e+00	 4.8554338123e-01	-1.7622912612e+00
 1.3897928726e+00	 4.9844749846e-01	-2.0604514981e+00
 1.3851029068e+00	 5.1133552222e-01	-2.2090583773e+00
 1.4347376340e+00	 3.8423210241e-01	 2.9830395370e+00
 1.4311803646e+00	 3.9727716114e-01	 2.3775059157e+00
 1.4274955135e+00	 4.1032049859e-01	 1.7692826525e+00
 1.4236826613e+00	 4.2336035679e-01	 1.1710983604e+00
 1.4197414186e+00	 4.3639496205e-01	 5.9683011009e-01
 1.4156714273e+00	 4.4942252558e-01	 6.1519265041e-02
 1.4114723605e+00	 4.6244124410e-01	-4.1861652299e-01
 1.4071439233e+00	 4.7544930052e-01	-8.2617539431e-01
 1.4026858530e+00	 4.8844486458e-01	-1.1425676596e+00
 1.3980979202e+00	 5.0142609352e-01	-1.3480166844e+00
 1.3933799283e+00	 5.1439113282e-01	-1.4215644708e+00
 1.4432603305e+00	 3.8651453617e-01	 2.8643150932e+00
 1.4396819301e+00	 3.9963708578e-01	 2.3195005705e+00
 1.4359751901e+00	 4.1275790388e-01	 1.8085223385e+00
 1.4321396885e+00	 4.2587522206e-01	 1.3350943611e+00
 1.4281750339e+00	 4.3898725610e-01	 9.0424791589e-01
 1.4240808659e+00	 4.5209220658e-01	 5.2236282380e-01
 1.4198568556e+00	 4.6518825951e-01	 1.9719476033e-01
 1.4155027064e+00	 4.7827358701e-01	-6.2101617765e-02
 1.4110181541e+00	 4.9134634793e-01	-2.4495398336e-01
 1.4064029677e+00	 5.0440468858e-01	-3.3935832653e-01
 1.4016569499e+00	 5.1744674343e-01	-3.3186984117e-01
 1.4517830271e+00	 3.8879696993e-01	 2.7517256522e+00
 1.4481834955e+00	 4.0199701041e-01	 2.2946183807e+00
 1.4444548666e+00	 4.1519530916e-01	 1.9148725066e+00
 1.4405967158e+00	 4.2839008733e-01	 1.6048909648e+00
 1.4366086492e+00	 4.4157955015e-01	 1.3585154860e+00
 1.4324903045e+00	 4.5476188758e-01	 1.1710756636e+00
 1.4282413507e+00	 4.6793527492e-01	 1.0394341272e+00
 1.4238614894e+00	 4.8109787349e-01	 9.6202752354e-01
 1.4193504551e+00	 4.9424783128e-01	 9.3890301863e-01
 1.4147080153e+00	 5.0738328364e-01	 9.7175004794e-01
 1.4099339714e+00	 5.2050235403e-01	 1.0639270599e+00
 1.4603057236e+00	 3.9107940368e-01	 2.6580695482e+00
 1.4566850610e+00	 4.0435693504e-01	 2.3166289460e+00
 1.4529345432e+00	 4.1763271445e-01	 2.1025524549e+00
 1.4490537431e+00	 4.3090495260e-01	 1.9946744025e+00
 1.4450422646e+00	 4.4417184420e-01	 1.9733426806e+00
 1.4408997430e+00	 4.5743156858e-01	 2.0204880731e+00
 1.4366258457e+00	 4.7068229033e-01	 2.1196898174e+00
 1.4322202725e+00	 4.8392215997e-01	 2.2562370647e+00
 1.4276827561e+00	 4.9714931463e-01	 2.4171859177e+00
 1.4230130629e+00	 5.1036187871e-01	 2.5914117363e+00
 1.4182109929e+00	 5.2355796463e-01	 2.7696564199e+00
 1.4688284202e+00	 3.9336183744e-01	 2.5958782822e+00
 1.4651866265e+00	 4.0671685968e-01	 2.3990127092e+00
 1.4614142197e+00	 4.2007011973e-01	 2.3854818170e+00
 1.4575107703e+00	 4.3341981787e-01	 2.5183316403e+00
 1.4534758799e+00	 4.4676413825e-01	 2.7621504787e+00
 1.4493091816e+00	 4.6010124958e-01	 3.0831608906e+00
 1.4450103408e+00	 4.7342930574e-01	 3.4493081481e+00
 1.4405790556e+00	 4.8674644646e-01	 3.8303447806e+00
 1.4360150572e+00	 5.0005079798e-01	 4.1979108481e+00
 1.4313181105e+00	 5.1334047377e-01	 4.5256095964e+00
 1.4264880145e+00	 5.2661357524e-01	 4.7890781634e+00
 1.4773511167e+00	 3.9564427119e-01	 2.5774242660e+00
 1.4736881920e+00	 4.0907678431e-01	 2.5549692698e+00
 1.4698938963e+00	 4.2250752502e-01	 2.7772890988e+00
 1.4659677976e+00	 4.3593468314e-01	 3.1894588175e+00
 1.4619094952e+00	 4.4935643230e-01	 3.7380790218e+00
 1.4577186201e+00	 4.6277093058e-01	 4.3713928853e+00
 1.4533948358e+00	 4.7617632115e-01	 5.0393999926e+00
 1.4489378386e+00	 4.8957073294e-01	 5.6939665496e+00
 1.4443473582e+00	 5.0295228133e-01	 6.2889315705e+00
 1.4396231580e+00	 5.1631906883e-01	 6.7802086541e+00
 1.4347650360e+00	 5.2966918584e-01	 7.1258829757e+00
 1.3519948207e+00	 4.9911307980e-01	-2.4176234357e+00
 1.3472897946e+00	 5.1167765648e-01	-2.6184343811e+00
 1.3424582464e+00	 5.2422288651e-01	-2.6683025374e+00
 1.3375000841e+00	 5.3674693882e-01	-2.5907566061e+00
 1.3324152499e+00	 5.4924797379e-01	-2.4082201302e+00
 1.3272037201e+00	 5.6172414397e-01	-2.1419704963e+00
 1.3218655059e+00	 5.7417359483e-01	-1.8121016537e+00
 1.3164006534e+00	 5.8659446561e-01	-1.4374906765e+00
 1.3108092439e+00	 5.9898489008e-01	-1.0357682786e+00
 1.3050913945e+00	 6.1134299734e-01	-6.2329336661e-01
 1.2992472579e+00	 6.2366691268e-01	-2.1513170005e-01
 1.3602718422e+00	 5.0216869040e-01	-2.7984468891e+00
 1.3555380116e+00	 5.1481018844e-01	-2.9240766839e+00
 1.3506768843e+00	 5.2743222138e-01	-2.8423070173e+00
 1.3456883677e+00	 5.4003294695e-01	-2.5865439596e+00
 1.3405724037e+00	 5.5261051427e-01	-2.1895576257e+00
 1.3353289685e+00	 5.6516306456e-01	-1.6834332983e+00
 1.3299580733e+00	 5.7768873197e-01	-1.0995256341e+00
 1.3244597645e+00	 5.9018564433e-01	-4.6841608201e-01
 1.3188341240e+00	 6.0265192397e-01	 1.8012637138e-01
 1.3130812695e+00	 6.1508568857e-01	 8.1718103937e-01
 1.3072013546e+00	 6.2748505191e-01	 1.4147078820e+00
 1.3685488637e+00	 5.0522430101e-01	-2.8934141464e+00
 1.3637862286e+00	 5.1794272040e-01	-2.9478325351e+00
 1.3588955221e+00	 5.3064155625e-01	-2.7619651909e+00
 1.3538766513e+00	 5.4331895508e-01	-2.3750962119e+00
 1.3487295575e+00	 5.5597305475e-01	-1.8262718625e+00
 1.3434542169e+00	 5.6860198516e-01	-1.1542483631e+00
 1.3380506407e+00	 5.8120386911e-01	-3.9744229137e-01
 1.3325188757e+00	 5.9377682304e-01	 4.0611627598e-01
 1.3268590041e+00	 6.0631895787e-01	 1.2188277702e+00
 1.3210711445e+00	 6.1882837979e-01	 2.0035641939e+00
 1.3151554513e+00	 6.3130319115e-01	 2.7237071691e+00
 1.3768258853e+00	 5.0827991161e-01	-2.6983256442e+00
 1.3720344456e+00	 5.2107525236e-01	-2.6877439613e+00
 1.3671141600e+00	 5.3385089112e-01	-2.4268068287e+00
 1.3620649349e+00	 5.4660496321e-01	-1.9567491155e+00
 1.3568867113e+00	 5.5933559522e-01	-1.3188957918e+00
 1.3515794653e+00	 5.7204090576e-01	-5.5461088648e-01
 1.3461432082e+00	 5.8471900625e-01	 2.9475125375e-01
 1.3405779869e+00	 5.9736800176e-01	 1.1878922821e+00
 1.3348838842e+00	 6.0998599176e-01	 2.0836136406e+00
 1.3290610194e+00	 6.2257107102e-01	 2.9408577351e+00
 1.3231095480e+00	 6.3512133038e-01	 3.7187464320e+00
 1.3851029068e+00	 5.1133552222e-01	-2.2090583773e+00
 1.3802826626e+00	 5.2420778431e-01	-2.1418782451e+00
 1.3753327978e+00	 5.3706022599e-01	-1.8363539654e+00
 1.3702532185e+00	 5.4989097134e-01	-1.3318142770e+00
 1.3650438651e+00	 5.6269813570e-01	-6.6793664026e-01
 1.3597047137e+00	 5.7547982635e-01	 1.1529817937e-01
 1.3542357756e+00	 5.8823414339e-01	 9.7764937804e-01
 1.3486370980e+00	 6.0095918047e-01	 1.8786571183e+00
 1.3429087643e+00	 6.1365302566e-01	 2.7776811789e+00
 1.3370508944e+00	 6.2631376224e-01	 3.6339371765e+00
 1.3310636447e+00	 6.3893946961e-01	 4.4065303061e+00
 1.3933799283e+00	 5.1439113282e-01	-1.4215644708e+00
 1.3885308796e+00	 5.2734031627e-01	-1.3083281582e+00
 1.3835514357e+00	 5.4026956085e-01	-9.9012225550e-01
 1.3784415020e+00	 5.5317697947e-01	-5.0058114890e-01
 1.3732010190e+00	 5.6606067617e-01	 1.2612189658e-01
 1.3678299621e+00	 5.7891874695e-01	 8.5531011371e-01
 1.3623283430e+00	 5.9174928053e-01	 1.6518364524e+00
 1.3566962092e+00	 6.0455035919e-01	 2.4801145453e+00
 1.3509336445e+00	 6.1732005955e-01	 3.3041473436e+00
 1.3450407694e+00	 6.3005645347e-01	 4.0875533675e+00
 1.3390177414e+00	 6.4275760884e-01	 4.7935905369e+00
 1.4016569499e+00	 5.1744674343e-01	-3.3186984117e-01
 1.3967790965e+00	 5.3047284823e-01	-1.8521222491e-01
 1.3917700735e+00	 5.4347889572e-01	 1.1237767855e-01
 1.3866297856e+00	 5.5646298760e-01	 5.3668100604e-01
 1.3813581728e+00	 5.6942321665e-01	 1.0628174928e+00
 1.3759552106e+00	 5.8235766755e-01	 1.6652664367e+00
 1.3704209105e+00	 5.9526441767e-01	 2.3178853402e+00
 1.3647553204e+00	 6.0814153790e-01	 2.9939261553e+00
 1.3589585246e+00	 6.2098709344e-01	 3.6660490753e+00
 1.3530306443e+00	 6.3379914469e-01	 4.3063338435e+00
 1.3469718381e+00	 6.4657574807e-01	 4.8862885667e+00
 1.4099339714e+00	 5.2050235403e-01	 1.0639270599e+00
 1.4050273135e+00	 5.3360538019e-01	 1.2293249844e+00
 1.3999887114e+00	 5.4668823059e-01	 1.4716389035e+00
 1.3948180692e+00	 5.5974899573e-01	 1.7797211754e+00
 1.3895153266e+00	 5.7278575712e-01	 2.1417070603e+00
 1.3840804590e+00	 5.8579658814e-01	 2.5450169405e+00
 1.3785134779e+00	 5.9877955481e-01	 2.9763558979e+00
 1.3728144315e+00	 6.1173271662e-01	 3.4217105979e+00
 1.3669834047e+00	 6.2465412734e-01	 3.8663434541e+00
 1.3610205193e+00	 6.3754183592e-01	 4.2947840686e+00
 1.3549259348e+00	 6.5039388730e-01	 4.6908179682e+00
 1.4182109929e+00	 5.2355796463e-01	 2.7696564199e+00
 1.4132755305e+00	 5.3673791214e-01	 2.9371125310e+00
 1.4082073493e+00	 5.4989756546e-01	 3.0881568387e+00
 1.4030063528e+00	 5.6303500386e-01	 3.2283046823e+00
 1.3976724804e+00	 5.7614829760e-01	 3.3623646457e+00
 1.3922057074e+00	 5.8923550874e-01	 3.4944177415e+00
 1.3866060454e+00	 6.0229469195e-01	 3.6277934764e+00
 1.3808735427e+00	 6.1532389533e-01	 3.7650427791e+00
 1.3750082848e+00	 6.2832116123e-01	 3.9079077949e+00
 1.3690103943e+00	 6.4128452714e-01	 4.0572885772e+00
 1.3628800315e+00	 6.5421202653e-01	 4.2132067313e+00
 1.4264880145e+00	 5.2661357524e-01	 4.7890781634e+00
 1.4215237475e+00	 5.3987044410e-01	 4.9399527587e+00
 1.4164259871e+00	 5.5310690033e-01	 4.9624279251e+00
 1.4111946364e+00	 5.6632101199e-01	 4.8822112941e+00
 1.4058296342e+00	 5.7951083807e-01	 4.7243793555e+00
 1.4003309558e+00	 5.9267442934e-01	 4.5133293515e+00
 1.3946986128e+00	 6.0580982910e-01	 4.2727274250e+00
 1.3889326539e+00	 6.1891507405e-01	 4.0254530354e+00
 1.3830331649e+00	 6.3198819513e-01	 3.7935396837e+00
 1.3770002693e+00	 6.4502721837e-01	 3.5981120168e+00
 1.3708341282e+00	 6.5803016576e-01	 3.4593194104e+00
 1.4347650360e+00	 5.2966918584e-01	 7.1258829757e+00
 1.4297719645e+00	 5.4300297606e-01	 7.2396209178e+00
 1.4246446250e+00	 5.5631623520e-01	 7.0949482996e+00
 1.4193829200e+00	 5.6960702012e-01	 6.7412333536e+00
 1.4139867881e+00	 5.8287337855e-01	 6.2273533064e+00
 1.4084562042e+00	 5.9611334994e-01	 5.6016147683e+00
 1.4027911802e+00	 6.0932496624e-01	 4.9116695967e+00
 1.3969917650e+00	 6.2250625276e-01	 4.2044262842e+00
 1.3910580450e+00	 6.3565522902e-01	 3.5259569571e+00
 1.3849901442e+00	 6.4876990960e-01	 2.9214000976e+00
 1.3787882249e+00	 6.6184830499e-01	 2.4348591360e+00
 1.2992472579e+00	 6.2366691268e-01	-2.1513170005e-01
 1.2932780484e+00	 6.3595267275e-01	 1.0446525117e-01
 1.2871830074e+00	 6.4820049588e-01	 2.8084161109e-01
 1.2809623955e+00	 6.6040850119e-01	 3.4387718573e-01
 1.2746165096e+00	 6.7257480735e-01	 3.2309261414e-01
 1.2681456837e+00	 6.8469753345e-01	 2.4757112317e-01
 1.2615502884e+00	 6.9677479985e-01	 1.4587778462e-01
 1.2548307312e+00	 7.0880472913e-01	 4.5976516010e-02
 1.2479874567e+00	 7.2078544690e-01	-2.4854912619e-02
 1.2410209464e+00	 7.3271508277e-01	-4.0111582448e-02
 1.2339317191e+00	 7.4459177121e-01	 2.4577315706e-02
 1.3072013546e+00	 6.2748505191e-01	 1.4147078820e+00
 1.3011956011e+00	 6.3984602640e-01	 1.8651087228e+00
 1.2950632458e+00	 6.5216883169e-01	 2.1029082596e+00
 1.2888045507e+00	 6.6445157540e-01	 2.1637159693e+00
 1.2824198149e+00	 6.7669236467e-01	 2.0831787599e+00
 1.2759093741e+00	 6.8888930707e-01	 1.8968964955e+00
 1.2692736012e+00	 7.0104051148e-01	 1.6403343135e+00
 1.2625129063e+00	 7.1314408895e-01	 1.3487319811e+00
 1.2556277367e+00	 7.2519815364e-01	 1.0570105651e+00
 1.2486185769e+00	 7.3720082371e-01	 7.9967670888e-01
 1.2414859488e+00	 7.4915022220e-01	 6.0457795374e-01
 1.3151554513e+00	 6.3130319115e-01	 2.7237071691e+00
 1.3091131538e+00	 6.4373938004e-01	 3.2571060155e+00
 1.3029434842e+00	 6.5613716750e-01	 3.5316933225e+00
 1.2966467060e+00	 6.6849464960e-01	 3.5863657185e+00
 1.2902231202e+00	 6.8080992198e-01	 3.4603937420e+00
 1.2836730644e+00	 6.9308108069e-01	 3.1933338952e+00
 1.2769969140e+00	 7.0530622310e-01	 2.8249368822e+00
 1.2701950814e+00	 7.1748344877e-01	 2.3950522882e+00
 1.2632680168e+00	 7.2961086039e-01	 1.9435299766e+00
 1.2562162074e+00	 7.4168656465e-01	 1.5100374118e+00
 1.2490401784e+00	 7.5370867318e-01	 1.1194887284e+00
 1.3231095480e+00	 6.3512133038e-01	 3.7187464320e+00
 1.3170307065e+00	 6.4763273369e-01	 4.2888428107e+00
 1.3108237225e+00	 6.6010550331e-01	 4.5762684495e+00
 1.3044888613e+00	 6.7253772380e-01	 4.6208090166e+00
 1.2980264254e+00	 6.8492747930e-01	 4.4629012273e+00
 1.2914367548e+00	 6.9727285432e-01	 4.1435441515e+00
 1.2847202268e+00	 7.0957193472e-01	 3.7042062068e+00
 1.2778772566e+00	 7.2182280859e-01	 3.1867280930e+00
 1.2709082968e+00	 7.3402356713e-01	 2.6332219496e+00
 1.2638138379e+00	 7.4617230559e-01	 2.0833927904e+00
 1.2565944081e+00	 7.5826712417e-01	 1.5596683042e+00
 1.3310636447e+00	 6.3893946961e-01	 4.4065303061e+00
 1.3249482592e+00	 6.5152608734e-01	 4.9684883675e+00
 1.3187039609e+00	 6.6407383912e-01	 5.2454674862e+00
 1.3123310166e+00	 6.7658079801e-01	 5.2757876237e+00
 1.3058297307e+00	 6.8904503661e-01	 5.0986383405e+00
 1.2992004451e+00	 7.0146462794e-01	 4.7539920561e+00
 1.2924435396e+00	 7.1383764634e-01	 4.2825125994e+00
 1.2855594317e+00	 7.2616216841e-01	 3.7254593006e+00
 1.2785485769e+00	 7.3843627387e-01	 3.1245869094e+00
 1.2714114684e+00	 7.5065804652e-01	 2.5133593678e+00
 1.2641486378e+00	 7.6282557515e-01	 1.9156681742e+00
 1.3390177414e+00	 6.4275760884e-01	 4.7935905369e+00
 1.3328658119e+00	 6.5541944098e-01	 5.3039992899e+00
 1.3265841993e+00	 6.6804217492e-01	 5.5478906839e+00
 1.3201731719e+00	 6.8062387221e-01	 5.5598065793e+00
 1.3136330360e+00	 6.9316259392e-01	 5.3753191438e+00
 1.3069641355e+00	 7.0565640156e-01	 5.0309487355e+00
 1.3001668524e+00	 7.1810335797e-01	 4.5640767817e+00
 1.2932416068e+00	 7.3050152823e-01	 4.0128539021e+00
 1.2861888569e+00	 7.4284898062e-01	 3.4157105773e+00
 1.2790090990e+00	 7.5514378746e-01	 2.7946628371e+00
 1.2717028675e+00	 7.6738402614e-01	 2.1782266544e+00
 1.3469718381e+00	 6.4657574807e-01	 4.8862885667e+00
 1.3407833646e+00	 6.5931279463e-01	 5.3031230962e+00
 1.3344644377e+00	 6.7201051073e-01	 5.4919086920e+00
 1.3280153272e+00	 6.8466694641e-01	 5.4811380894e+00
 1.3214363412e+00	 6.9728015123e-01	 5.3004379204e+00
 1.3147278258e+00	 7.0984817518e-01	 4.9804938627e+00
 1.3078901652e+00	 7.2236906959e-01	 4.5529705904e+00
 1.3009237820e+00	 7.3484088805e-01	 4.0504267706e+00
 1.2938291369e+00	 7.4726168736e-01	 3.5024922122e+00
 1.2866067295e+00	 7.5962952840e-01	 2.9221161866e+00
 1.2792570972e+00	 7.7194247712e-01	 2.3382631161e+00
 1.3549259348e+00	 6.5039388730e-01	 4.6908179682e+00
 1.3487009174e+00	 6.6320614827e-01	 4.9734015988e+00
 1.3423446760e+00	 6.7597884654e-01	 5.0856663437e+00
 1.3358574825e+00	 6.8871002062e-01	 5.0478252069e+00
 1.3292396465e+00	 7.0139770855e-01	 4.8812722690e+00
 1.3224915161e+00	 7.1403994880e-01	 4.6085177161e+00
 1.3156134780e+00	 7.2663478121e-01	 4.2531175800e+00
 1.3086059571e+00	 7.3918024787e-01	 3.8395984194e+00
 1.3014694170e+00	 7.5167439410e-01	 3.3827957834e+00
 1.2942043600e+00	 7.6411526934e-01	 2.8906168701e+00
 1.2868113269e+00	 7.7650092810e-01	 2.3868724465e+00
 1.3628800315e+00	 6.5421202653e-01	 4.2132067313e+00
 1.3566184701e+00	 6.6709950192e-01	 4.3221741002e+00
 1.3502249144e+00	 6.7994718235e-01	 4.3370862411e+00
 1.3436996378e+00	 6.9275309482e-01	 4.2676853137e+00
 1.3370429517e+00	 7.0551526586e-01	 4.1248860177e+00
 1.3302552065e+00	 7.1823172242e-01	 3.9207230910e+00
 1.3233367908e+00	 7.3090049283e-01	 3.6682935262e+00
 1.3162881322e+00	 7.4351960770e-01	 3.3810161306e+00
 1.3091096970e+00	 7.5608710085e-01	 3.0549230447e+00
 1.3018019905e+00	 7.6860101028e-01	 2.6951440996e+00
 1.2943655566e+00	 7.8105937909e-01	 2.3153197275e+00
 1.3708341282e+00	 6.5803016576e-01	 3.4593194104e+00
 1.3645360228e+00	 6.7099285557e-01	 3.3565804160e+00
 1.3581051528e+00	 6.8391551816e-01	 3.2538721505e+00
 1.3515417930e+00	 6.9679616903e-01	 3.1483134123e+00
 1.3448462570e+00	 7.0963282317e-01	 3.0381319655e+00
 1.3380188968e+00	 7.2242349604e-01	 2.9226270698e+00
 1.3310601036e+00	 7.3516620445e-01	 2.8021268346e+00
 1.3239703073e+00	 7.4785896752e-01	 2.6735187802e+00
 1.3167499771e+00	 7.6049980759e-01	 2.5171781970e+00
 1.3093996210e+00	 7.7308675121e-01	 2.3307562556e+00
 1.3019197862e+00	 7.8561783007e-01	 2.1150351252e+00
 1.3787882249e+00	 6.6184830499e-01	 2.4348591360e+00
 1.3724535755e+00	 6.7488620921e-01	 2.0835637286e+00
 1.3659853912e+00	 6.8788385397e-01	 1.8435122134e+00
 1.3593839483e+00	 7.0083924323e-01	 1.6970852351e+00
 1.3526495623e+00	 7.1375038049e-01	 1.6276544566e+00
 1.3457825872e+00	 7.2661526967e-01	 1.6195626571e+00
 1.3387834164e+00	 7.3943191608e-01	 1.6580988585e+00
 1.3316524825e+00	 7.5219832734e-01	 1.7179716202e+00
 1.3243902571e+00	 7.6491251433e-01	 1.7678675813e+00
 1.3169972515e+00	 7.7757249215e-01	 1.7925884114e+00
 1.3094740159e+00	 7.9017628106e-01	 1.7776089797e+00
 1.2339317191e+00	 7.4459177121e-01	 2.4577315706e-02
 1.2267203306e+00	 7.5641365271e-01	 2.0560888954e-01
 1.2193873752e+00	 7.6817887538e-01	 5.0488055069e-01
 1.2119334843e+00	 7.7988559522e-01	 8.7802762683e-01
 1.2043593259e+00	 7.9153197674e-01	 1.2809572875e+00
 1.1966656050e+00	 8.0311619394e-01	 1.6699127972e+00
 1.1888530631e+00	 8.1463643115e-01	 2.0015392077e+00
 1.1809224780e+00	 8.2609088398e-01	 2.2329503569e+00
 1.1728746636e+00	 8.3747776019e-01	 2.3217970283e+00
 1.1647104700e+00	 8.4879528062e-01	 2.2263361163e+00
 1.1564307828e+00	 8.6004168007e-01	 1.9055006346e+00
 1.2414859488e+00	 7.4915022220e-01	 6.0457795374e-01
 1.2342304116e+00	 7.6104447821e-01	 5.2563897377e-01
 1.2268525633e+00	 7.7288172853e-01	 5.8521851915e-01
 1.2193530390e+00	 7.8466011784e-01	 7.4434174832e-01
 1.2117325110e+00	 7.9637779946e-01	 9.6403561174e-01
 1.2039916885e+00	 8.0803293617e-01	 1.2053849060e+00
 1.1961313176e+00	 8.1962370120e-01	 1.4295901440e+00
 1.1881521808e+00	 8.3114827912e-01	 1.5980271206e+00
 1.1800550971e+00	 8.4260486670e-01	 1.6723080427e+00
 1.1718409216e+00	 8.5399167391e-01	 1.6143440807e+00
 1.1635105455e+00	 8.6530692473e-01	 1.3864091878e+00
 1.2490401784e+00	 7.5370867318e-01	 1.1194887284e+00
 1.2417404926e+00	 7.6567530371e-01	 8.4346554677e-01
 1.2343177513e+00	 7.7758458167e-01	 7.1683784336e-01
 1.2267725937e+00	 7.8943464047e-01	 7.0603900235e-01
 1.2191056961e+00	 8.0122362217e-01	 7.7727376136e-01
 1.2113177721e+00	 8.1294967840e-01	 8.9656619005e-01
 1.2034095721e+00	 8.2461097126e-01	 1.0298098090e+00
 1.1953818836e+00	 8.3620567426e-01	 1.1428197420e+00
 1.1872355305e+00	 8.4773197322e-01	 1.2013867821e+00
 1.1789713732e+00	 8.5918806720e-01	 1.1713332413e+00
 1.1705903082e+00	 8.7057216938e-01	 1.0185704404e+00
 1.2565944081e+00	 7.5826712417e-01	 1.5596683042e+00
 1.2492505736e+00	 7.7030612921e-01	 1.1453938314e+00
 1.2417829393e+00	 7.8228743481e-01	 8.8265886666e-01
 1.2341921484e+00	 7.9420916310e-01	 7.4332226600e-01
 1.2264788812e+00	 8.0606944489e-01	 6.9882291262e-01
 1.2186438556e+00	 8.1786642063e-01	 7.2021974245e-01
 1.2106878266e+00	 8.2959824131e-01	 7.7823418249e-01
 1.2026115865e+00	 8.4126306939e-01	 8.4329490819e-01
 1.1944159640e+00	 8.5285907973e-01	 8.8558481246e-01
 1.1861018248e+00	 8.6438446049e-01	 8.7509006663e-01
 1.1776700709e+00	 8.7583741404e-01	 7.8165114152e-01
 1.2641486378e+00	 7.6282557515e-01	 1.9156681742e+00
 1.2567606546e+00	 7.7493695470e-01	 1.4180183517e+00
 1.2492481274e+00	 7.8699028795e-01	 1.0659718197e+00
 1.2416117031e+00	 7.9898368572e-01	 8.3682902694e-01
 1.2338520663e+00	 8.1091526761e-01	 7.0731774891e-01
 1.2259699391e+00	 8.2278316286e-01	 6.5362528041e-01
 1.2179660812e+00	 8.3458551136e-01	 6.5143326403e-01
 1.2098412893e+00	 8.4632046453e-01	 6.7595507130e-01
 1.2015963974e+00	 8.5798618625e-01	 7.0197564139e-01
 1.1932322764e+00	 8.6958085378e-01	 7.0389366812e-01
 1.1847498336e+00	 8.8110265869e-01	 6.5576601378e-01
 1.2717028675e+00	 7.6738402614e-01	 2.1782266544e+00
 1.2642707355e+00	 7.7956778020e-01	 1.6482141048e+00
 1.2567133154e+00	 7.9169314109e-01	 1.2504256425e+00
 1.2490312578e+00	 8.0375820835e-01	 9.6761832898e-01
 1.2412252514e+00	 8.1576109032e-01	 7.8186200068e-01
 1.2332960227e+00	 8.2769990509e-01	 6.7456374930e-01
 1.2252443357e+00	 8.3957278141e-01	 6.2649520948e-01
 1.2170709921e+00	 8.5137785967e-01	 6.1782258273e-01
 1.2087768309e+00	 8.6311329276e-01	 6.2813931303e-01
 1.2003627280e+00	 8.7477724707e-01	 6.3650131558e-01
 1.1918295963e+00	 8.8636790335e-01	 6.2146464681e-01
 1.2792570972e+00	 7.7194247712e-01	 2.3382631161e+00
 1.2717808165e+00	 7.8419860570e-01	 1.8231280714e+00
 1.2641785035e+00	 7.9639599424e-01	 1.4200172304e+00
 1.2564508126e+00	 8.0853273098e-01	 1.1171582083e+00
 1.2485984365e+00	 8.2060691304e-01	 9.0201452716e-01
 1.2406221062e+00	 8.3261664732e-01	 7.6130250289e-01
 1.2325225902e+00	 8.4456005147e-01	 6.8101106101e-01
 1.2243006949e+00	 8.5643525481e-01	 6.4642442215e-01
 1.2159572644e+00	 8.6824039928e-01	 6.4214758254e-01
 1.2074931796e+00	 8.7997364036e-01	 6.5213450111e-01
 1.1989093590e+00	 8.9163314800e-01	 6.5971889075e-01
 1.2868113269e+00	 7.7650092810e-01	 2.3868724465e+00
 1.2792908975e+00	 7.8882943120e-01	 1.9301710516e+00
 1.2716436915e+00	 8.0109884738e-01	 1.5590810853e+00
 1.2638703673e+00	 8.1330725360e-01	 1.2673136004e+00
 1.2559716216e+00	 8.2545273575e-01	 1.0477759176e+00
 1.2479481897e+00	 8.3753338955e-01	 8.9258103595e-01
 1.2398008447e+00	 8.4954732152e-01	 7.9306004640e-01
 1.2315303978e+00	 8.6149264994e-01	 7.3977749688e-01
 1.2231376978e+00	 8.7336750579e-01	 7.2254964647e-01
 1.2146236312e+00	 8.8517003365e-01	 7.3046552849e-01
 1.2059891216e+00	 8.9689839266e-01	 7.5191072973e-01
 1.2943655566e+00	 7.8105937909e-01	 2.3153197275e+00
 1.2868009785e+00	 7.9346025670e-01	 1.9570098121e+00
 1.2791088795e+00	 8.0580170052e-01	 1.6522793563e+00
 1.2712899220e+00	 8.1808177623e-01	 1.4003346988e+00
 1.2633448067e+00	 8.3029855847e-01	 1.1995755904e+00
 1.2552742732e+00	 8.4245013178e-01	 1.0475972465e+00
 1.2470790992e+00	 8.5453459157e-01	 9.4119542439e-01
 1.2387601006e+00	 8.6655004508e-01	 8.7637448839e-01
 1.2303181313e+00	 8.7849461231e-01	 8.4835840615e-01
 1.2217540829e+00	 8.9036642693e-01	 8.5160460663e-01
 1.2130688843e+00	 9.0216363731e-01	 8.7982061550e-01
 1.3019197862e+00	 7.8561783007e-01	 2.1150351252e+00
 1.2943110595e+00	 7.9809108220e-01	 1.8915595325e+00
 1.2865740676e+00	 8.1050455366e-01	 1.6845922539e+00
 1.2787094767e+00	 8.2285629886e-01	 1.4988457460e+00
 1.2707179918e+00	 8.3514438118e-01	 1.3382593713e+00
 1.2626003568e+00	 8.4736687401e-01	 1.2059942065e+00
 1.2543573537e+00	 8.5952186162e-01	 1.1044308539e+00
 1.2459898034e+00	 8.7160744022e-01	 1.0351702237e+00
 1.2374985648e+00	 8.8362171882e-01	 9.9903724261e-01
 1.2288845345e+00	 8.9556282022e-01	 9.9608742664e-01
 1.2201486470e+00	 9.0742888197e-01	 1.0256162426e+00
 1.3094740159e+00	 7.9017628106e-01	 1.7776089797e+00
 1.3018211405e+00	 8.0272190770e-01	 1.7219765389e+00
 1.2940392556e+00	 8.1520740681e-01	 1.6413088226e+00
 1.2861290314e+00	 8.2763082149e-01	 1.5458342414e+00
 1.2780911770e+00	 8.3999020390e-01	 1.4450775285e+00
 1.2699264403e+00	 8.5228361624e-01	 1.3478474200e+00
 1.2616356082e+00	 8.6450913168e-01	 1.2622272660e+00
 1.2532195063e+00	 8.7666483536e-01	 1.1955685505e+00
 1.2446789982e+00	 8.8874882534e-01	 1.1544872822e+00
 1.2360149861e+00	 9.0075921351e-01	 1.1448632031e+00
 1.2272284097e+00	 9.1269412663e-01	 1.1718417471e+00
 1.1564307828e+00	 8.6004168007e-01	 1.9055006346e+00
 1.1480350871e+00	 8.7121710044e-01	 1.3905091752e+00
 1.1395257413e+00	 8.8231788280e-01	 7.7634823038e-01
 1.1309037418e+00	 8.9334230186e-01	 1.1673357377e-01
 1.1221701192e+00	 9.0428864976e-01	-5.3625948755e-01
 1.1133259384e+00	 9.1515523699e-01	-1.1322600955e+00
 1.1043722979e+00	 9.2594039318e-01	-1.6259440809e+00
 1.0953103293e+00	 9.3664246796e-01	-1.9777094372e+00
 1.0861411972e+00	 9.4725983182e-01	-2.1412477958e+00
 1.0768660984e+00	 9.5779087687e-01	-2.0715212343e+00
 1.0674862614e+00	 9.6823401769e-01	-1.7251989633e+00
 1.1635105455e+00	 8.6530692473e-01	 1.3864091878e+00
 1.1550634506e+00	 8.7655076192e-01	 1.0014685574e+00
 1.1465020100e+00	 8.8771950417e-01	 5.2865325474e-01
 1.1378272259e+00	 8.9881141561e-01	 1.3418615873e-02
 1.1290401354e+00	 9.0982477794e-01	-5.0044062350e-01
 1.1201418098e+00	 9.2075789130e-01	-9.7084292748e-01
 1.1111333543e+00	 9.3160907508e-01	-1.3574695887e+00
 1.1020159077e+00	 9.4237666883e-01	-1.6272724619e+00
 1.0927906414e+00	 9.5305903305e-01	-1.7478847749e+00
 1.0834587597e+00	 9.6365455001e-01	-1.6824611904e+00
 1.0740214985e+00	 9.7416162458e-01	-1.3958048491e+00
 1.1705903082e+00	 8.7057216938e-01	 1.0185704404e+00
 1.1620918142e+00	 8.8188442340e-01	 7.4065874986e-01
 1.1534782787e+00	 8.9312112554e-01	 3.8391043758e-01
 1.1447507100e+00	 9.0428052936e-01	-1.3862544638e-02
 1.1359101515e+00	 9.1536090612e-01	-4.1650272248e-01
 1.1269576812e+00	 9.2636054560e-01	-7.8954893789e-01
 1.1178944108e+00	 9.3727775698e-01	-1.1002751651e+00
 1.1087214860e+00	 9.4811086970e-01	-1.3180896106e+00
 1.0994400856e+00	 9.5885823428e-01	-1.4208231360e+00
 1.0900514209e+00	 9.6951822314e-01	-1.3822070584e+00
 1.0805567357e+00	 9.8008923147e-01	-1.1743915500e+00
 1.1776700709e+00	 8.7583741404e-01	 7.8165114152e-01
 1.1691201778e+00	 8.8721808488e-01	 5.9015365304e-01
 1.1604545473e+00	 8.9852274690e-01	 3.2700531359e-01
 1.1516741941e+00	 9.0974964312e-01	 2.2981784771e-02
 1.1427801677e+00	 9.2089703430e-01	-2.9276368554e-01
 1.1337735525e+00	 9.3196319991e-01	-5.9273195656e-01
 1.1246554672e+00	 9.4294643889e-01	-8.5110665045e-01
 1.1154270644e+00	 9.5384507057e-01	-1.0437798131e+00
 1.1060895298e+00	 9.6465743550e-01	-1.1498077228e+00
 1.0966440822e+00	 9.7538189628e-01	-1.1551506342e+00
 1.0870919728e+00	 9.8601683836e-01	-1.0396828448e+00
 1.1847498336e+00	 8.8110265869e-01	 6.5576601378e-01
 1.1761485413e+00	 8.9255174637e-01	 5.3241792816e-01
 1.1674308160e+00	 9.0392436827e-01	 3.4314733997e-01
 1.1585976782e+00	 9.1521875687e-01	 1.1229098743e-01
 1.1496501838e+00	 9.2643316248e-01	-1.3737910962e-01
 1.1405894239e+00	 9.3756585421e-01	-3.8467780493e-01
 1.1314165237e+00	 9.4861512079e-01	-6.1002596616e-01
 1.1221326427e+00	 9.5957927144e-01	-7.9546666284e-01
 1.1127389739e+00	 9.7045663673e-01	-9.2467847368e-01
 1.1032367435e+00	 9.8124556942e-01	-9.8605194547e-01
 1.0936272100e+00	 9.9194444525e-01	-9.7090591411e-01
 1.1918295963e+00	 8.8636790335e-01	 6.2146464681e-01
 1.1831769049e+00	 8.9788540785e-01	 5.5029564043e-01
 1.1744070847e+00	 9.0932598964e-01	 4.1786057589e-01
 1.1655211622e+00	 9.2068787062e-01	 2.4264513151e-01
 1.1565202000e+00	 9.3196929066e-01	 4.1653292451e-02
 1.1474052952e+00	 9.4316850852e-01	-1.6960586614e-01
 1.1381775801e+00	 9.5428380269e-01	-3.7712844076e-01
 1.1288382210e+00	 9.6531347231e-01	-5.6842308755e-01
 1.1193884181e+00	 9.7625583796e-01	-7.3251562785e-01
 1.1098294047e+00	 9.8710924255e-01	-8.6002741151e-01
 1.1001624471e+00	 9.9787205214e-01	-9.4777546523e-01
 1.1989093590e+00	 8.9163314800e-01	 6.5971889075e-01
 1.1902052685e+00	 9.0321906933e-01	 6.2699934205e-01
 1.1813833533e+00	 9.1472761101e-01	 5.3697473021e-01
 1.1724446463e+00	 9.2615698437e-01	 4.0285825139e-01
 1.1633902161e+00	 9.3750541884e-01	 2.3648946876e-01
 1.1542211666e+00	 9.4877116282e-01	 4.8329441644e-02
 1.1449386366e+00	 9.5995248459e-01	-1.5254128638e-01
 1.1355437994e+00	 9.7104767318e-01	-3.5842194059e-01
 1.1260378623e+00	 9.8205503919e-01	-5.6298811898e-01
 1.1164220660e+00	 9.9297291569e-01	-7.6128586553e-01
 1.1066976842e+00	 1.0037996590e+00	-9.5047839164e-01
 1.2059891216e+00	 8.9689839266e-01	 7.5191072973e-01
 1.1972336320e+00	 9.0855273081e-01	 7.4609957642e-01
 1.1883596220e+00	 9.2012923238e-01	 6.8661656246e-01
 1.1793681304e+00	 9.3162609812e-01	 5.8197190460e-01
 1.1702602322e+00	 9.4304154702e-01	 4.3943499371e-01
 1.1610370379e+00	 9.5437381712e-01	 2.6503728473e-01
 1.1516996930e+00	 9.6562116649e-01	 6.3577913107e-02
 1.1422493777e+00	 9.7678187404e-01	-1.6136808041e-01
 1.1326873064e+00	 9.8785424042e-01	-4.0743904396e-01
 1.1230147273e+00	 9.9883658883e-01	-6.7347366379e-01
 1.1132329214e+00	 1.0097272659e+00	-9.5949571224e-01
 1.2130688843e+00	 9.0216363731e-01	 8.7982061550e-01
 1.2042619956e+00	 9.1388639229e-01	 8.9151478656e-01
 1.1953358906e+00	 9.2553085375e-01	 8.5320162252e-01
 1.1862916145e+00	 9.3709521188e-01	 7.6924899306e-01
 1.1771302484e+00	 9.4857767520e-01	 6.4294121446e-01
 1.1678529093e+00	 9.5997647143e-01	 4.7648912239e-01
 1.1584607494e+00	 9.7128984840e-01	 2.7104270271e-01
 1.1489549560e+00	 9.8251607491e-01	 2.6706144942e-02
 1.1393367506e+00	 9.9365344164e-01	-2.5744482604e-01
 1.1296073885e+00	 1.0047002620e+00	-5.8334349294e-01
 1.1197681585e+00	 1.0156548728e+00	-9.5391072365e-01
 1.2201486470e+00	 9.0742888197e-01	 1.0256162426e+00
 1.2112903592e+00	 9.1922005377e-01	 1.0475016113e+00
 1.2023121593e+00	 9.3093247511e-01	 1.0234263153e+00
 1.1932150986e+00	 9.4256432563e-01	 9.5416783781e-01
 1.1840002645e+00	 9.5411380338e-01	 8.3960157086e-01
 1.1746687806e+00	 9.6557912573e-01	 6.7871750066e-01
 1.1652218059e+00	 9.7695853030e-01	 4.6963924595e-01
 1.1556605344e+00	 9.8825027578e-01	 2.0964529847e-01
 1.1459861948e+00	 9.9945264287e-01	-1.0480769524e-01
 1.1362000498e+00	 1.0105639351e+00	-4.7805977993e-01
 1.1263033957e+00	 1.0215824797e+00	-9.1522084092e-01
 1.2272284097e+00	 9.1269412663e-01	 1.1718417471e+00
 1.2183187227e+00	 9.2455371526e-01	 1.1986455532e+00
 1.2092884280e+00	 9.3633409648e-01	 1.1842602776e+00
 1.2001385827e+00	 9.4803343938e-01	 1.1264164971e+00
 1.1908702807e+00	 9.5964993156e-01	 1.0221480821e+00
 1.1814846520e+00	 9.7118178004e-01	 8.6781492822e-01
 1.1719828623e+00	 9.8262721220e-01	 6.5912780415e-01
 1.1623661127e+00	 9.9398447665e-01	 3.9117514456e-01
 1.1526356390e+00	 1.0052518441e+00	 5.8451613923e-02
 1.1427927111e+00	 1.0164276082e+00	-3.4511174385e-01
 1.1328386328e+00	 1.0275100866e+00	-8.2611596025e-01
 1.0674862614e+00	 9.6823401769e-01	-1.7251989633e+00
 1.0580045638e+00	 9.7858594266e-01	-1.2163494183e+00
 1.0484206960e+00	 9.8884691112e-01	-7.1017460829e-01
 1.0387359610e+00	 9.9901542729e-01	-2.4012419751e-01
 1.0289516911e+00	 1.0090900209e+00	 1.6237941748e-01
 1.0190692479e+00	 1.0190692479e+00	 4.6798909118e-01
 1.0090900209e+00	 1.0289516911e+00	 6.4947737501e-01
 9.9901542729e-01	 1.0387359610e+00	 6.8177731622e-01
 9.8884691112e-01	 1.0484206960e+00	 5.4201951119e-01
 9.7858594266e-01	 1.0580045638e+00	 2.0956532455e-01
 9.6823401769e-01	 1.0674862614e+00	-3.3396380302e-01
 1.0740214985e+00	 9.7416162458e-01	-1.3958048491e+00
 1.0644817533e+00	 9.8457692488e-01	-9.7673504460e-01
 1.0548392122e+00	 9.9490071181e-01	-5.5811458017e-01
 1.0450951864e+00	 1.0051314805e+00	-1.7044128418e-01
 1.0352510165e+00	 1.0152677516e+00	 1.5828384106e-01
 1.0253080722e+00	 1.0253080722e+00	 4.0260077360e-01
 1.0152677516e+00	 1.0352510165e+00	 5.3963038728e-01
 1.0051314805e+00	 1.0450951864e+00	 5.4911002500e-01
 9.9490071181e-01	 1.0548392122e+00	 4.1342463820e-01
 9.8457692488e-01	 1.0644817533e+00	 1.1763341268e-01
 9.7416162458e-01	 1.0740214985e+00	-3.5050818624e-01
 1.0805567357e+00	 9.8008923147e-01	-1.1743915500e+00
 1.0709589427e+00	 9.9056790709e-01	-8.5779758677e-01
 1.0612577285e+00	 1.0009545125e+00	-5.3030232180e-01
 1.0514544119e+00	 1.0112475336e+00	-2.1949763092e-01
 1.0415503419e+00	 1.0214454822e+00	 4.9852787689e-02
 1.0315468965e+00	 1.0315468965e+00	 2.5585385866e-01
 1.0214454822e+00	 1.0415503419e+00	 3.7951483089e-01
 1.0112475336e+00	 1.0514544119e+00	 4.0478013733e-01
 1.0009545125e+00	 1.0612577285e+00	 3.1855532756e-01
 9.9056790709e-01	 1.0709589427e+00	 1.1072800133e-01
 9.8008923147e-01	 1.0805567357e+00	-2.2581631596e-01
 1.0870919728e+00	 9.8601683836e-01	-1.0396828448e+00
 1.0774361321e+00	 9.9655888930e-01	-8.3355322810e-01
 1.0676762447e+00	 1.0070083132e+00	-5.9827205542e-01
 1.0578136374e+00	 1.0173635868e+00	-3.5856969039e-01
 1.0478496673e+00	 1.0276232128e+00	-1.3615347052e-01
 1.0377857207e+00	 1.0377857207e+00	 5.0329147946e-02
 1.0276232128e+00	 1.0478496673e+00	 1.8532239092e-01
 1.0173635868e+00	 1.0578136374e+00	 2.5638882012e-01
 1.0070083132e+00	 1.0676762447e+00	 2.5423075942e-01
 9.9655888930e-01	 1.0774361321e+00	 1.7270642822e-01
 9.8601683836e-01	 1.0870919728e+00	 8.8407301560e-03
 1.0936272100e+00	 9.9194444525e-01	-9.7090591411e-01
 1.0839133215e+00	 1.0025498715e+00	-8.7863382535e-01
 1.0740947609e+00	 1.0130621139e+00	-7.3423281064e-01
 1.0641728629e+00	 1.0234796400e+00	-5.5961475589e-01
 1.0541489927e+00	 1.0338009435e+00	-3.7360851233e-01
 1.0440245450e+00	 1.0440245450e+00	-1.9192651326e-01
 1.0338009435e+00	 1.0541489927e+00	-2.7136562909e-02
 1.0234796400e+00	 1.0641728629e+00	 1.1136111378e-01
 1.0130621139e+00	 1.0740947609e+00	 2.1735148529e-01
 1.0025498715e+00	 1.0839133215e+00	 2.8781693097e-01
 9.9194444525e-01	 1.0936272100e+00	 3.2294401555e-01
 1.1001624471e+00	 9.9787205214e-01	-9.4777546523e-01
 1.0903905110e+00	 1.0085408537e+00	-9.6826768045e-01
 1.0805132771e+00	 1.0191159146e+00	-9.1104742264e-01
 1.0705320884e+00	 1.0295956931e+00	-7.9524976501e-01
 1.0604483181e+00	 1.0399786741e+00	-6.3699995337e-01
 1.0502633693e+00	 1.0502633693e+00	-4.4938337747e-01
 1.0399786741e+00	 1.0604483181e+00	-2.4242064174e-01
 1.0295956931e+00	 1.0705320884e+00	-2.3047820233e-02
 1.0191159146e+00	 1.0805132771e+00	 2.0489803314e-01
 1.0085408537e+00	 1.0903905110e+00	 4.4068806218e-01
 9.9787205214e-01	 1.1001624471e+00	 6.8670543156e-01
 1.1066976842e+00	 1.0037996590e+00	-9.5047839164e-01
 1.0968677004e+00	 1.0145318359e+00	-1.0782609647e+00
 1.0869317933e+00	 1.0251697153e+00	-1.1022122454e+00
 1.0768913139e+00	 1.0357117463e+00	-1.0387308251e+00
 1.0667476435e+00	 1.0461564048e+00	-9.0141030446e-01
 1.0565021936e+00	 1.0565021936e+00	-7.0101250385e-01
 1.0461564048e+00	 1.0667476435e+00	-4.4544551012e-01
 1.0357117463e+00	 1.0768913139e+00	-1.3974664294e-01
 1.0251697153e+00	 1.0869317933e+00	 2.1392959215e-01
 1.0145318359e+00	 1.0968677004e+00	 6.1631850980e-01
 1.0037996590e+00	 1.1066976842e+00	 1.0710471700e+00
 1.1132329214e+00	 1.0097272659e+00	-9.5949571224e-01
 1.1033448898e+00	 1.0205228181e+00	-1.1849797685e+00
 1.0933503095e+00	 1.0312235159e+00	-1.2818375508e+00
 1.0832505393e+00	 1.0418277995e+00	-1.2639334304e+00
 1.0730469689e+00	 1.0523341354e+00	-1.1424984748e+00
 1.0627410179e+00	 1.0627410179e+00	-9.2627001132e-01
 1.0523341354e+00	 1.0730469689e+00	-6.2147234873e-01
 1.0418277995e+00	 1.0832505393e+00	-2.3180196468e-01
 1.0312235159e+00	 1.0933503095e+00	 2.4158277403e-01
 1.0205228181e+00	 1.1033448898e+00	 8.0006730659e-01
 1.0097272659e+00	 1.1132329214e+00	 1.4478327460e+00
 1.1197681585e+00	 1.0156548728e+00	-9.5391072365e-01
 1.1098220793e+00	 1.0265138003e+00	-1.2653327519e+00
 1.0997688257e+00	 1.0372773166e+00	-1.4246285847e+00
 1.0896097648e+00	 1.0479438526e+00	-1.4453333435e+00
 1.0793462943e+00	 1.0585118661e+00	-1.3364818934e+00
 1.0689798421e+00	 1.0689798421e+00	-1.1050818535e+00
 1.0585118661e+00	 1.0793462943e+00	-7.5609669154e-01
 1.0479438526e+00	 1.0896097648e+00	-2.9243264775e-01
 1.0372773166e+00	 1.0997688257e+00	 2.8507044774e-01
 1.0265138003e+00	 1.1098220793e+00	 9.7764441236e-01
 1.0156548728e+00	 1.1197681585e+00	 1.7928512151e+00
 1.1263033957e+00	 1.0215824797e+00	-9.1522084092e-01
 1.1162992687e+00	 1.0325047826e+00	-1.2960965337e+00
 1.1061873419e+00	 1.0433311173e+00	-1.5058672551e+00
 1.0959689903e+00	 1.0540599058e+00	-1.5579881129e+00
 1.0856456197e+00	 1.0646895967e+00	-1.4601192245e+00
 1.0752186664e+00	 1.0752186664e+00	-1.2178290946e+00
 1.0646895967e+00	 1.0856456197e+00	-8.3523762198e-01
 1.0540599058e+00	 1.0959689903e+00	-3.1500427772e-01
 1.0433311173e+00	 1.1061873419e+00	 3.4168064458e-01
 1.0325047826e+00	 1.1162992687e+00	 1.1366095253e+00
 1.0215824797e+00	 1.1263033957e+00	 2.0804220814e+00
 1.1328386328e+00	 1.0275100866e+00	-8.2611596025e-01
 1.1227764581e+00	 1.0384957648e+00	-1.2542814306e+00
 1.1126058582e+00	 1.0493849180e+00	-1.5013603535e+00
 1.1023282158e+00	 1.0601759590e+00	-1.5775192020e+00
 1.0919449451e+00	 1.0708673273e+00	-1.4906936510e+00
 1.0814574907e+00	 1.0814574907e+00	-1.2453336653e+00
 1.0708673273e+00	 1.0919449451e+00	-8.4512731375e-01
 1.0601759590e+00	 1.1023282158e+00	-2.9302379651e-01
 1.0493849180e+00	 1.1126058582e+00	 4.0889903658e-01
 1.0384957648e+00	 1.1227764581e+00	 1.2666022375e+00
 1.0275100866e+00	 1.1328386328e+00	 2.2844346379e+00
 9.6823401769e-01	 1.0674862614e+00	-3.3396380302e-01
 9.5779087687e-01	 1.0768660984e+00	-9.0246035050e-01
 9.4725983182e-01	 1.0861411972e+00	-1.2966485989e+00
 9.3664246796e-01	 1.0953103293e+00	-1.5149879136e+00
 9.2594039318e-01	 1.1043722979e+00	-1.5575459374e+00
 9.1515523699e-01	 1.1133259384e+00	-1.4257318404e+00
 9.0428864976e-01	 1.1221701192e+00	-1.1170230961e+00
 8.9334230186e-01	 1.1309037418e+00	-6.3384864449e-01
 8.8231788280e-01	 1.1395257413e+00	 1.7267077641e-02
 8.7121710044e-01	 1.1480350871e+00	 8.2804194686e-01
 8.6004168007e-01	 1.1564307828e+00	 1.7884422642e+00
 9.7416162458e-01	 1.0740214985e+00	-3.5050818624e-01
 9.6365455001e-01	 1.0834587597e+00	-8.3471005660e-01
 9.5305903305e-01	 1.0927906414e+00	-1.1678685868e+00
 9.4237666883e-01	 1.1020159077e+00	-1.3461312935e+00
 9.3160907508e-01	 1.1111333543e+00	-1.3681367093e+00
 9.2075789130e-01	 1.1201418098e+00	-1.2305759235e+00
 9.0982477794e-01	 1.1290401354e+00	-9.3255663788e-01
 8.9881141561e-01	 1.1378272259e+00	-4.8011031082e-01
 8.8771950417e-01	 1.1465020100e+00	 1.1808961091e-01
 8.7655076192e-01	 1.1550634506e+00	 8.5073616162e-01
 8.6530692473e-01	 1.1635105455e+00	 1.7039016590e+00
 9.8008923147e-01	 1.0805567357e+00	-2.2581631596e-01
 9.6951822314e-01	 1.0900514209e+00	-5.7459375976e-01
 9.5885823428e-01	 1.0994400856e+00	-8.1053928052e-01
 9.4811086970e-01	 1.1087214860e+00	-9.2818658642e-01
 9.3727775698e-01	 1.1178944108e+00	-9.2266597987e-01
 9.2636054560e-01	 1.1269576812e+00	-7.8825114930e-01
 9.1536090612e-01	 1.1359101515e+00	-5.2833535375e-01
 9.0428052936e-01	 1.1447507100e+00	-1.4989139774e-01
 8.9312112554e-01	 1.1534782787e+00	 3.3683850424e-01
 8.8188442340e-01	 1.1620918142e+00	 9.1835502390e-01
 8.7057216938e-01	 1.1705903082e+00	 1.5779192585e+00
 9.8601683836e-01	 1.0870919728e+00	 8.8407301560e-03
 9.7538189628e-01	 1.0966440822e+00	-1.6753591416e-01
 9.6465743550e-01	 1.1060895298e+00	-2.8011958316e-01
 9.5384507057e-01	 1.1154270644e+00	-3.2149627303e-01
 9.4294643889e-01	 1.1246554672e+00	-2.8150837813e-01
 9.3196319991e-01	 1.1337735525e+00	-1.5909433395e-01
 9.2089703430e-01	 1.1427801677e+00	 4.1807837954e-02
 9.0974964312e-01	 1.1516741941e+00	 3.1360531192e-01
 8.9852274690e-01	 1.1604545473e+00	 6.4505918426e-01
 8.8721808488e-01	 1.1691201778e+00	 1.0212990016e+00
 8.7583741404e-01	 1.1776700709e+00	 1.4238431026e+00
 9.9194444525e-01	 1.0936272100e+00	 3.2294401555e-01
 9.8124556942e-01	 1.1032367435e+00	 3.4212902653e-01
 9.7045663673e-01	 1.1127389739e+00	 3.6940719257e-01
 9.5957927144e-01	 1.1221326427e+00	 4.1782644095e-01
 9.4861512079e-01	 1.1314165237e+00	 4.9413563078e-01
 9.3756585421e-01	 1.1405894239e+00	 5.9800974921e-01
 9.2643316248e-01	 1.1496501838e+00	 7.2533648674e-01
 9.1521875687e-01	 1.1585976782e+00	 8.6821937532e-01
 9.0392436827e-01	 1.1674308160e+00	 1.0149869337e+00
 8.9255174637e-01	 1.1761485413e+00	 1.1502078489e+00
 8.8110265869e-01	 1.1847498336e+00	 1.2547122031e+00
 9.9787205214e-01	 1.1001624471e+00	 6.8670543156e-01
 9.8710924255e-01	 1.1098294047e+00	 9.1112526025e-01
 9.7625583796e-01	 1.1193884181e+00	 1.0886256807e+00
 9.6531347231e-01	 1.1288382210e+00	 1.2320253300e+00
 9.5428380269e-01	 1.1381775801e+00	 1.3445284736e+00
 9.4316850852e-01	 1.1474052952e+00	 1.4255840000e+00
 9.3196929066e-01	 1.1565202000e+00	 1.4709708544e+00
 9.2068787062e-01	 1.1655211622e+00	 1.4728004787e+00
 9.0932598964e-01	 1.1744070847e+00	 1.4195251497e+00
 8.9788540785e-01	 1.1831769049e+00	 1.2959522492e+00
 8.8636790335e-01	 1.1918295963e+00	 1.0832644794e+00
 1.0037996590e+00	 1.1066976842e+00	 1.0710471700e+00
 9.9297291569e-01	 1.1164220660e+00	 1.4987872693e+00
 9.8205503919e-01	 1.1260378623e+00	 1.8276811189e+00
 9.7104767318e-01	 1.1355437994e+00	 2.0644201685e+00
 9.5995248459e-01	 1.1449386366e+00	 2.2113510045e+00
 9.4877116282e-01	 1.1542211666e+00	 2.2675161476e+00
 9.3750541884e-01	 1.1633902161e+00	 2.2286495219e+00
 9.2615698437e-01	 1.1724446463e+00	 2.0871773212e+00
 9.1472761101e-01	 1.1813833533e+00	 1.8322243253e+00
 9.0321906933e-01	 1.1902052685e+00	 1.4496257091e+00
 8.9163314800e-01	 1.1989093590e+00	 9.2194436599e-01
 1.0097272659e+00	 1.1132329214e+00	 1.4478327460e+00
 9.9883658883e-01	 1.1230147273e+00	 2.0672560693e+00
 9.8785424042e-01	 1.1326873064e+00	 2.5365858086e+00
 9.7678187404e-01	 1.1422493777e+00	 2.8596680221e+00
 9.6562116649e-01	 1.1516996930e+00	 3.0376595615e+00
 9.5437381712e-01	 1.1610370379e+00	 3.0690173702e+00
 9.4304154702e-01	 1.1702602322e+00	 2.9494923030e+00
 9.3162609812e-01	 1.1793681304e+00	 2.6721275496e+00
 9.2012923238e-01	 1.1883596220e+00	 2.2272617267e+00
 9.0855273081e-01	 1.1972336320e+00	 1.6025366910e+00
 8.9689839266e-01	 1.2059891216e+00	 7.8291010709e-01
 1.0156548728e+00	 1.1197681585e+00	 1.7928512151e+00
 1.0047002620e+00	 1.1296073885e+00	 2.5766988333e+00
 9.9365344164e-01	 1.1393367506e+00	 3.1665243505e+00
 9.8251607491e-01	 1.1489549560e+00	 3.5637228901e+00
 9.7128984840e-01	 1.1584607494e+00	 3.7678444808e+00
 9.5997647143e-01	 1.1678529093e+00	 3.7765823184e+00
 9.4857767520e-01	 1.1771302484e+00	 3.5857644106e+00
 9.3709521188e-01	 1.1862916145e+00	 3.1893486991e+00
 9.2553085375e-01	 1.1953358906e+00	 2.5794217354e+00
 9.1388639229e-01	 1.2042619956e+00	 1.7462009762e+00
 9.0216363731e-01	 1.2130688843e+00	 6.7804074948e-01
 1.0215824797e+00	 1.1263033957e+00	 2.0804220814e+00
 1.0105639351e+00	 1.1362000498e+00	 2.9881248817e+00
 9.9945264287e-01	 1.1459861948e+00	 3.6698182792e+00
 9.8825027578e-01	 1.1556605344e+00	 4.1237967077e+00
 9.7695853030e-01	 1.1652218059e+00	 4.3475900113e+00
 9.6557912573e-01	 1.1746687806e+00	 4.3379504847e+00
 9.5411380338e-01	 1.1840002645e+00	 4.0908418253e+00
 9.4256432563e-01	 1.1932150986e+00	 3.6014301014e+00
 9.3093247511e-01	 1.2023121593e+00	 2.8640768299e+00
 9.1922005377e-01	 1.2112903592e+00	 1.8723342479e+00
 9.0742888197e-01	 1.2201486470e+00	 6.1894284703e-01
 1.0275100866e+00	 1.1328386328e+00	 2.2844346379e+00
 1.0164276082e+00	 1.1427927111e+00	 3.2634462996e+00
 1.0052518441e+00	 1.1526356390e+00	 3.9998918775e+00
 9.9398447665e-01	 1.1623661127e+00	 4.4883216539e+00
 9.8262721220e-01	 1.1719828623e+00	 4.7238355706e+00
 9.7118178004e-01	 1.1814846520e+00	 4.7020688658e+00
 9.5964993156e-01	 1.1908702807e+00	 4.4191778185e+00
 9.4803343938e-01	 1.2001385827e+00	 3.8718257192e+00
 9.3633409648e-01	 1.2092884280e+00	 3.0571691800e+00
 9.2455371526e-01	 1.2183187227e+00	 1.9728448864e+00
 9.1269412663e-01	 1.2272284097e+00	 6.1695688792e-01
 8.6004168007e-01	 1.1564307828e+00	 1.7884422642e+00
 8.4879528062e-01	 1.1647104700e+00	 2.7019485114e+00
 8.3747776019e-01	 1.1728746636e+00	 3.3823256164e+00
 8.2609088398e-01	 1.1809224780e+00	 3.8345630382e+00
 8.1463643115e-01	 1.1888530631e+00	 4.0655315456e+00
 8.0311619394e-01	 1.1966656050e+00	 4.0839487253e+00
 7.9153197674e-01	 1.2043593259e+00	 3.9003430647e+00
 7.7988559522e-01	 1.2119334843e+00	 3.5270166983e+00
 7.6817887538e-01	 1.2193873752e+00	 2.9780069019e+00
 7.5641365271e-01	 1.2267203306e+00	 2.2690464169e+00
 7.4459177121e-01	 1.2339317191e+00	 1.4175226826e+00
 8.6530692473e-01	 1.1635105455e+00	 1.7039016590e+00
 8.5399167391e-01	 1.1718409216e+00	 2.5131776304e+00
 8.4260486670e-01	 1.1800550971e+00	 3.1239096941e+00
 8.3114827912e-01	 1.1881521808e+00	 3.5365386889e+00
 8.1962370120e-01	 1.1961313176e+00	 3.7543527635e+00
 8.0803293617e-01	 1.2039916885e+00	 3.7834505552e+00
 7.9637779946e-01	 1.2117325110e+00	 3.6327016378e+00
 7.8466011784e-01	 1.2193530390e+00	 3.3137043456e+00
 7.7288172853e-01	 1.2268525633e+00	 2.8407410766e+00
 7.6104447821e-01	 1.2342304116e+00	 2.2307311770e+00
 7.4915022220e-01	 1.2414859488e+00	 1.5031815078e+00
 8.7057216938e-01	 1.1705903082e+00	 1.5779192585e+00
 8.5918806720e-01	 1.1789713732e+00	 2.1971447494e+00
 8.4773197322e-01	 1.1872355305e+00	 2.6669286034e+00
 8.3620567426e-01	 1.1953818836e+00	 2.9843551610e+00
 8.2461097126e-01	 1.2034095721e+00	 3.1500370861e+00
 8.1294967840e-01	 1.2113177721e+00	 3.1680769596e+00
 8.0122362217e-01	 1.2191056961e+00	 3.0460252320e+00
 7.8943464047e-01	 1.2267725937e+00	 2.7948346498e+00
 7.7758458167e-01	 1.2343177513e+00	 2.4288112741e+00
 7.6567530371e-01	 1.2417404926e+00	 1.9655622074e+00
 7.5370867318e-01	 1.2490401784e+00	 1.4259401453e+00
 8.7583741404e-01	 1.1776700709e+00	 1.4238431026e+00
 8.6438446049e-01	 1.1861018248e+00	 1.7899013491e+00
 8.5285907973e-01	 1.1944159640e+00	 2.0655670244e+00
 8.4126306939e-01	 1.2026115865e+00	 2.2457491883e+00
 8.2959824131e-01	 1.2106878266e+00	 2.3292847015e+00
 8.1786642063e-01	 1.2186438556e+00	 2.3188989706e+00
 8.0606944489e-01	 1.2264788812e+00	 2.2211625284e+00
 7.9420916310e-01	 1.2341921484e+00	 2.0464435705e+00
 7.8228743481e-01	 1.2417829393e+00	 1.8088565753e+00
 7.7030612921e-01	 1.2492505736e+00	 1.5262071303e+00
 7.5826712417e-01	 1.2565944081e+00	 1.2199330901e+00
 8.8110265869e-01	 1.1847498336e+00	 1.2547122031e+00
 8.6958085378e-01	 1.1932322764e+00	 1.3266474834e+00
 8.5798618625e-01	 1.2015963974e+00	 1.3727251338e+00
 8.4632046453e-01	 1.2098412893e+00	 1.3868495053e+00
 8.3458551136e-01	 1.2179660812e+00	 1.3669740609e+00
 8.2278316286e-01	 1.2259699391e+00	 1.3150619974e+00
 8.1091526761e-01	 1.2338520663e+00	 1.2370425620e+00
 7.9898368572e-01	 1.2416117031e+00	 1.1427631911e+00
 7.8699028795e-01	 1.2492481274e+00	 1.0459375954e+00
 7.7493695470e-01	 1.2567606546e+00	 9.6408991911e-01
 7.6282557515e-01	 1.2641486378e+00	 9.1849510044e-01
 8.8636790335e-01	 1.1918295963e+00	 1.0832644794e+00
 8.7477724707e-01	 1.2003627280e+00	 8.4175583420e-01
 8.6311329276e-01	 1.2087768309e+00	 6.4005553448e-01
 8.5137785967e-01	 1.2170709921e+00	 4.7222340105e-01
 8.3957278141e-01	 1.2252443357e+00	 3.3621479981e-01
 8.2769990509e-01	 1.2332960227e+00	 2.3384185456e-01
 8.1576109032e-01	 1.2412252514e+00	 1.7073059806e-01
 8.0375820835e-01	 1.2490312578e+00	 1.5627418428e-01
 7.9169314109e-01	 1.2567133154e+00	 2.0358228434e-01
 7.7956778020e-01	 1.2642707355e+00	 3.2942678885e-01
 7.6738402614e-01	 1.2717028675e+00	 5.5418393881e-01
 8.9163314800e-01	 1.1989093590e+00	 9.2194436599e-01
 8.7997364036e-01	 1.2074931796e+00	 3.6879486775e-01
 8.6824039928e-01	 1.2159572644e+00	-8.2001168285e-02
 8.5643525481e-01	 1.2243006949e+00	-4.3507842179e-01
 8.4456005147e-01	 1.2325225902e+00	-6.9160126212e-01
 8.3261664732e-01	 1.2406221062e+00	-8.4930123956e-01
 8.2060691304e-01	 1.2485984365e+00	-9.0251801697e-01
 8.0853273098e-01	 1.2564508126e+00	-8.4224362674e-01
 7.9639599424e-01	 1.2641785035e+00	-6.5616993917e-01
 7.8419860570e-01	 1.2717808165e+00	-3.2873922987e-01
 7.7194247712e-01	 1.2792570972e+00	 1.5880226430e-01
 8.9689839266e-01	 1.2059891216e+00	 7.8291010709e-01
 8.8517003365e-01	 1.2146236312e+00	-5.9448870757e-02
 8.7336750579e-01	 1.2231376978e+00	-7.4418209032e-01
 8.6149264994e-01	 1.2315303978e+00	-1.2734786138e+00
 8.4954732152e-01	 1.2398008447e+00	-1.6467509615e+00
 8.3753338955e-01	 1.2479481897e+00	-1.8606706119e+00
 8.2545273575e-01	 1.2559716216e+00	-1.9092059456e+00
 8.1330725360e-01	 1.2638703673e+00	-1.7836625313e+00
 8.0109884738e-01	 1.2716436915e+00	-1.4727256518e+00
 7.8882943120e-01	 1.2792908975e+00	-9.6250497708e-01
 7.7650092810e-01	 1.2868113269e+00	-2.3658128889e-01
 9.0216363731e-01	 1.2130688843e+00	 6.7804074948e-01
 8.9036642693e-01	 1.2217540829e+00	-4.1094928837e-01
 8.7849461231e-01	 1.2303181313e+00	-1.2983690369e+00
 8.6655004508e-01	 1.2387601006e+00	-1.9828315045e+00
 8.5453459157e-01	 1.2470790992e+00	-2.4611323988e+00
 8.4245013178e-01	 1.2552742732e+00	-2.7282829503e+00
 8.3029855847e-01	 1.2633448067e+00	-2.7775438114e+00
 8.1808177623e-01	 1.2712899220e+00	-2.6004599450e+00
 8.0580170052e-01	 1.2791088795e+00	-2.1868964230e+00
 7.9346025670e-01	 1.2868009785e+00	-1.5250750595e+00
 7.8105937909e-01	 1.2943655566e+00	-6.0161181348e-01
 9.0742888197e-01	 1.2201486470e+00	 6.1894284703e-01
 8.9556282022e-01	 1.2288845345e+00	-6.5442006827e-01
 8.8362171882e-01	 1.2374985648e+00	-1.6975566666e+00
 8.7160744022e-01	 1.2459898034e+00	-2.5043829236e+00
 8.5952186162e-01	 1.2543573537e+00	-3.0682192399e+00
 8.4736687401e-01	 1.2626003568e+00	-3.3818199112e+00
 8.3514438118e-01	 1.2707179918e+00	-3.4374019371e+00
 8.2285629886e-01	 1.2787094767e+00	-3.2266731033e+00
 8.1050455366e-01	 1.2865740676e+00	-2.7408592822e+00
 7.9809108220e-01	 1.2943110595e+00	-1.9707309067e+00
 7.8561783007e-01	 1.3019197862e+00	-9.0662858005e-01
 9.1269412663e-01	 1.2272284097e+00	 6.1695688792e-01
 9.0075921351e-01	 1.2360149861e+00	-7.5929475432e-01
 8.8874882534e-01	 1.2446789982e+00	-1.8958218012e+00
 8.7666483536e-01	 1.2532195063e+00	-2.7807314578e+00
 8.6450913168e-01	 1.2616356082e+00	-3.4030166444e+00
 8.5228361624e-01	 1.2699264403e+00	-3.7525814461e+00
 8.3999020390e-01	 1.2780911770e+00	-3.8202637978e+00
 8.2763082149e-01	 1.2861290314e+00	-3.5978553656e+00
 8.1520740681e-01	 1.2940392556e+00	-3.0781185987e+00
 8.0272190770e-01	 1.3018211405e+00	-2.2548009414e+00
 7.9017628106e-01	 1.3094740159e+00	-1.1226462065e+00
 7.4459177121e-01	 1.2339317191e+00	 1.4175226826e+00
 7.3271508277e-01	 1.2410209464e+00	 5.6027257340e-01
 7.2078544690e-01	 1.2479874567e+00	-1.8848172986e-01
 7.0880472913e-01	 1.2548307312e+00	-8.2315789704e-01
 6.9677479985e-01	 1.2615502884e+00	-1.3379981899e+00
 6.8469753345e-01	 1.2681456837e+00	-1.7287736922e+00
 6.7257480735e-01	 1.2746165096e+00	-1.9927564018e+00
 6.6040850119e-01	 1.2809623955e+00	-2.1286902893e+00
 6.4820049588e-01	 1.2871830074e+00	-2.1367614150e+00
 6.3595267275e-01	 1.2932780484e+00	-2.0185671933e+00
 6.2366691268e-01	 1.2992472579e+00	-1.7770848868e+00
 7.4915022220e-01	 1.2414859488e+00	 1.5031815078e+00
 7.3720082371e-01	 1.2486185769e+00	 7.7221171378e-01
 7.2519815364e-01	 1.2556277367e+00	 1.2441550990e-01
 7.1314408895e-01	 1.2625129063e+00	-4.3767312829e-01
 7.0104051148e-01	 1.2692736012e+00	-9.0544938493e-01
 6.8888930707e-01	 1.2759093741e+00	-1.2724202651e+00
 6.7669236467e-01	 1.2824198149e+00	-1.5341727736e+00
 6.6445157540e-01	 1.2888045507e+00	-1.6883403296e+00
 6.5216883169e-01	 1.2950632458e+00	-1.7345675260e+00
 6.3984602640e-01	 1.3011956011e+00	-1.6744733408e+00
 6.2748505191e-01	 1.3072013546e+00	-1.5116129031e+00
 7.5370867318e-01	 1.2490401784e+00	 1.4259401453e+00
 7.4168656465e-01	 1.2562162074e+00	 8.8519008835e-01
 7.2961086039e-01	 1.2632680168e+00	 3.9978399548e-01
 7.1748344877e-01	 1.2701950814e+00	-3.6329461508e-02
 7.0530622310e-01	 1.2769969140e+00	-4.1264707089e-01
 6.9308108069e-01	 1.2836730644e+00	-7.2107021998e-01
 6.8080992198e-01	 1.2902231202e+00	-9.5598286660e-01
 6.6849464960e-01	 1.2966467060e+00	-1.1142145795e+00
 6.5613716750e-01	 1.3029434842e+00	-1.1950014375e+00
 6.4373938004e-01	 1.3091131538e+00	-1.1999449067e+00
 6.3130319115e-01	 1.3151554513e+00	-1.1329688131e+00
 7.5826712417e-01	 1.2565944081e+00	 1.2199330901e+00
 7.4617230559e-01	 1.2638138379e+00	 9.1709148167e-01
 7.3402356713e-01	 1.2709082968e+00	 6.3580937346e-01
 7.2182280859e-01	 1.2778772566e+00	 3.6542519184e-01
 7.0957193472e-01	 1.2847202268e+00	 1.1421240927e-01
 6.9727285432e-01	 1.2914367548e+00	-1.0877921809e-01
 6.8492747930e-01	 1.2980264254e+00	-2.9721068492e-01
 6.7253772380e-01	 1.3044888613e+00	-4.4741465751e-01
 6.6010550331e-01	 1.3108237225e+00	-5.5835399165e-01
 6.4763273369e-01	 1.3170307065e+00	-6.3157797522e-01
 6.3512133038e-01	 1.3231095480e+00	-6.7117642059e-01
 7.6282557515e-01	 1.2641486378e+00	 9.1849510044e-01
 7.5065804652e-01	 1.2714114684e+00	 8.8377746318e-01
 7.3843627387e-01	 1.2785485769e+00	 8.3074270190e-01
 7.2616216841e-01	 1.2855594317e+00	 7.5253457331e-01
 7.1383764634e-01	 1.2924435396e+00	 6.4958157934e-01
 7.0146462794e-01	 1.2992004451e+00	 5.3123403451e-01
 6.8904503661e-01	 1.3058297307e+00	 4.0407563896e-01
 6.7658079801e-01	 1.3123310166e+00	 2.7196343853e-01
 6.6407383912e-01	 1.3187039609e+00	 1.3607022613e-01
 6.5152608734e-01	 1.3249482592e+00	-5.0707461655e-03
 6.3893946961e-01	 1.3310636447e+00	-1.5551887177e-01
 7.6738402614e-01	 1.2717028675e+00	 5.5418393881e-01
 7.5514378746e-01	 1.2790090990e+00	 7.9934404722e-01
 7.4284898062e-01	 1.2861888569e+00	 9.8345245536e-01
 7.3050152823e-01	 1.2932416068e+00	 1.1103228298e+00
 7.1810335797e-01	 1.3001668524e+00	 1.1685429634e+00
 7.0565640156e-01	 1.3069641355e+00	 1.1665633531e+00
 6.9316259392e-01	 1.3136330360e+00	 1.1107358959e+00
 6.8062387221e-01	 1.3201731719e+00	 1.0047999213e+00
 6.6804217492e-01	 1.3265841993e+00	 8.4992406625e-01
 6.5541944098e-01	 1.3328658119e+00	 6.4475028126e-01
 6.4275760884e-01	 1.3390177414e+00	 3.8543984169e-01
 7.7194247712e-01	 1.2792570972e+00	 1.5880226430e-01
 7.5962952840e-01	 1.2866067295e+00	 6.7756925610e-01
 7.4726168736e-01	 1.2938291369e+00	 1.0958564598e+00
 7.3484088805e-01	 1.3009237820e+00	 1.4244836631e+00
 7.2236906959e-01	 1.3078901652e+00	 1.6467908869e+00
 7.0984817518e-01	 1.3147278258e+00	 1.7655915055e+00
 6.9728015123e-01	 1.3214363412e+00	 1.7865308420e+00
 6.8466694641e-01	 1.3280153272e+00	 1.7129228461e+00
 6.7201051073e-01	 1.3344644377e+00	 1.5457900156e+00
 6.5931279463e-01	 1.3407833646e+00	 1.2839050533e+00
 6.4657574807e-01	 1.3469718381e+00	 9.2383414222e-01
 7.7650092810e-01	 1.2868113269e+00	-2.3658128889e-01
 7.6411526934e-01	 1.2942043600e+00	 5.3192140767e-01
 7.5167439410e-01	 1.3014694170e+00	 1.1670524986e+00
 7.3918024787e-01	 1.3086059571e+00	 1.6810698599e+00
 7.2663478121e-01	 1.3156134780e+00	 2.0606139173e+00
 7.1403994880e-01	 1.3224915161e+00	 2.2974674731e+00
 7.0139770855e-01	 1.3292396465e+00	 2.3960961890e+00
 6.8871002062e-01	 1.3358574825e+00	 2.3590807419e+00
 6.7597884654e-01	 1.3423446760e+00	 2.1871533779e+00
 6.6320614827e-01	 1.3487009174e+00	 1.8792355964e+00
 6.5039388730e-01	 1.3549259348e+00	 1.4324768574e+00
 7.8105937909e-01	 1.2943655566e+00	-6.0161181348e-01
 7.6860101028e-01	 1.3018019905e+00	 3.7556707071e-01
 7.5608710085e-01	 1.3091096970e+00	 1.1955672636e+00
 7.4351960770e-01	 1.3162881322e+00	 1.8674601469e+00
 7.3090049283e-01	 1.3233367908e+00	 2.3868779192e+00
 7.1823172242e-01	 1.3302552065e+00	 2.7320845067e+00
 7.0551526586e-01	 1.3370429517e+00	 2.9049175061e+00
 6.9275309482e-01	 1.3436996378e+00	 2.9069162007e+00
 6.7994718235e-01	 1.3502249144e+00	 2.7383763928e+00
 6.6709950192e-01	 1.3566184701e+00	 2.3983825059e+00
 6.5421202653e-01	 1.3628800315e+00	 1.8848399122e+00
 7.8561783007e-01	 1.3019197862e+00	-9.0662858005e-01
 7.7308675121e-01	 1.3093996210e+00	 2.2137870175e-01
 7.6049980759e-01	 1.3167499771e+00	 1.1799743083e+00
 7.4785896752e-01	 1.3239703073e+00	 1.9737941892e+00
 7.3516620445e-01	 1.3310601036e+00	 2.6030096984e+00
 7.2242349604e-01	 1.3380188968e+00	 3.0400589468e+00
 7.0963282317e-01	 1.3448462570e+00	 3.2793059944e+00
 6.9679616903e-01	 1.3515417930e+00	 3.3209403872e+00
 6.8391551816e-01	 1.3581051528e+00	 3.1646732573e+00
 6.7099285557e-01	 1.3645360228e+00	 2.8097622534e+00
 6.5803016576e-01	 1.3708341282e+00	 2.2550356949e+00
 7.9017628106e-01	 1.3094740159e+00	-1.1226462065e+00
 7.7757249215e-01	 1.3169972515e+00	 8.1941976077e-02
 7.6491251433e-01	 1.3243902571e+00	 1.1188915871e+00
 7.5219832734e-01	 1.3316524825e+00	 1.9874485904e+00
 7.3943191608e-01	 1.3387834164e+00	 2.6869812099e+00
 7.2661526967e-01	 1.3457825872e+00	 3.1927097752e+00
 7.1375038049e-01	 1.3526495623e+00	 3.4863750998e+00
 7.0083924323e-01	 1.3593839483e+00	 3.5665084292e+00
 6.8788385397e-01	 1.3659853912e+00	 3.4320860108e+00
 6.7488620921e-01	 1.3724535755e+00	 3.0825452808e+00
 6.6184830499e-01	 1.3787882249e+00	 2.5177990678e+00
 6.2366691268e-01	 1.2992472579e+00	-1.7770848868e+00
 6.1134299734e-01	 1.3050913945e+00	-1.4672073083e+00
 5.9898489008e-01	 1.3108092439e+00	-1.1463105821e+00
 5.8659446561e-01	 1.3164006534e+00	-8.2151940607e-01
 5.7417359483e-01	 1.3218655059e+00	-4.9936610000e-01
 5.6172414397e-01	 1.3272037201e+00	-1.8578364099e-01
 5.4924797379e-01	 1.3324152499e+00	 1.1389958836e-01
 5.3674693882e-01	 1.3375000841e+00	 3.9496336437e-01
 5.2422288651e-01	 1.3424582464e+00	 6.5329753194e-01
 5.1167765648e-01	 1.3472897946e+00	 8.8540229779e-01
 4.9911307980e-01	 1.3519948207e+00	 1.0883869521e+00
 6.2748505191e-01	 1.3072013546e+00	-1.5116129031e+00
 6.1508568857e-01	 1.3130812695e+00	-1.2830160280e+00
 6.0265192397e-01	 1.3188341240e+00	-1.0283301333e+00
 5.9018564433e-01	 1.3244597645e+00	-7.5577456237e-01
 5.7768873197e-01	 1.3299580733e+00	-4.7278653085e-01
 5.6516306456e-01	 1.3353289685e+00	-1.8601557193e-01
 5.5261051427e-01	 1.3405724037e+00	 9.8680031086e-02
 5.4003294695e-01	 1.3456883677e+00	 3.7623485867e-01
 5.2743222138e-01	 1.3506768843e+00	 6.4237605577e-01
 5.1481018844e-01	 1.3555380116e+00	 8.9362116651e-01
 5.0216869040e-01	 1.3602718422e+00	 1.1272741564e+00
 6.3130319115e-01	 1.3151554513e+00	-1.1329688131e+00
 6.1882837979e-01	 1.3210711445e+00	-1.0076041496e+00
 6.0631895787e-01	 1.3268590041e+00	-8.4000640397e-01
 5.9377682304e-01	 1.3325188757e+00	-6.3902060056e-01
 5.8120386911e-01	 1.3380506407e+00	-4.1258130413e-01
 5.6860198516e-01	 1.3434542169e+00	-1.6770814042e-01
 5.5597305475e-01	 1.3487295575e+00	 8.9496498950e-02
 5.4331895508e-01	 1.3538766513e+00	 3.5384760648e-01
 5.3064155625e-01	 1.3588955221e+00	 6.2107561006e-01
 5.1794272040e-01	 1.3637862286e+00	 8.8782237932e-01
 5.0522430101e-01	 1.3685488637e+00	 1.1516352475e+00
 6.3512133038e-01	 1.3231095480e+00	-6.7117642059e-01
 6.2257107102e-01	 1.3290610194e+00	-6.6348376778e-01
 6.0998599176e-01	 1.3348838842e+00	-5.9733905210e-01
 5.9736800176e-01	 1.3405779869e+00	-4.8174825390e-01
 5.8471900625e-01	 1.3461432082e+00	-3.2473922610e-01
 5.7204090576e-01	 1.3515794653e+00	-1.3335795948e-01
 5.5933559522e-01	 1.3568867113e+00	 8.6332846208e-02
 5.4660496321e-01	 1.3620649349e+00	 3.2925294854e-01
 5.3385089112e-01	 1.3671141600e+00	 5.9130151670e-01
 5.2107525236e-01	 1.3720344456e+00	 8.6935193206e-01
 5.0827991161e-01	 1.3768258853e+00	 1.1612445003e+00
 6.3893946961e-01	 1.3310636447e+00	-1.5551887177e-01
 6.2631376224e-01	 1.3370508944e+00	-2.7260607470e-01
 6.1365302566e-01	 1.3429087643e+00	-3.1592277526e-01
 6.0095918047e-01	 1.3486370980e+00	-2.9417532277e-01
 5.8823414339e-01	 1.3542357756e+00	-2.1508419836e-01
 5.7547982635e-01	 1.3597047137e+00	-8.5380699571e-02
 5.6269813570e-01	 1.3650438651e+00	 8.9194023047e-02
 5.4989097134e-01	 1.3702532185e+00	 3.0388762252e-01
 5.3706022599e-01	 1.3753327978e+00	 5.5493295827e-01
 5.2420778431e-01	 1.3802826626e+00	 8.3954230593e-01
 5.1133552222e-01	 1.3851029068e+00	 1.1558994421e+00
 6.4275760884e-01	 1.3390177414e+00	 3.8543984169e-01
 6.3005645347e-01	 1.3450407694e+00	 1.4362248487e-01
 6.1732005955e-01	 1.3509336445e+00	-1.0958827074e-02
 6.0455035919e-01	 1.3566962092e+00	-8.6254264150e-02
 5.9174928053e-01	 1.3623283430e+00	-8.9279595002e-02
 5.7891874695e-01	 1.3678299621e+00	-2.6112969976e-02
 5.6606067617e-01	 1.3732010190e+00	 9.8105972054e-02
 5.5317697947e-01	 1.3784415020e+00	 2.7917471852e-01
 5.4026956085e-01	 1.3835514357e+00	 5.1382427326e-01
 5.2734031627e-01	 1.3885308796e+00	 7.9971338312e-01
 5.1439113282e-01	 1.3933799283e+00	 1.1354206696e+00
 6.4657574807e-01	 1.3469718381e+00	 9.2383414222e-01
 6.3379914469e-01	 1.3530306443e+00	 5.6432463177e-01
 6.2098709344e-01	 1.3589585246e+00	 3.0273387586e-01
 6.0814153790e-01	 1.3647553204e+00	 1.3232048934e-01
 5.9526441767e-01	 1.3704209105e+00	 4.7167516997e-02
 5.8235766755e-01	 1.3759552106e+00	 4.2185868323e-02
 5.6942321665e-01	 1.3813581728e+00	 1.1311553036e-01
 5.5646298760e-01	 1.3866297856e+00	 2.5652460284e-01
 5.4347889572e-01	 1.3917700735e+00	 4.6980620762e-01
 5.3047284823e-01	 1.3967790965e+00	 7.5117333248e-01
 5.1744674343e-01	 1.4016569499e+00	 1.0996516762e+00
 6.5039388730e-01	 1.3549259348e+00	 1.4324768574e+00
 6.3754183592e-01	 1.3610205193e+00	 9.6913722068e-01
 6.2465412734e-01	 1.3669834047e+00	 6.1070803947e-01
 6.1173271662e-01	 1.3728144315e+00	 3.5210546959e-01
 5.9877955481e-01	 1.3785134779e+00	 1.8890230768e-01
 5.8579658814e-01	 1.3840804590e+00	 1.1733195549e-01
 5.7278575712e-01	 1.3895153266e+00	 1.3429033726e-01
 5.5974899573e-01	 1.3948180692e+00	 2.3733581129e-01
 5.4668823059e-01	 1.3999887114e+00	 4.2468712444e-01
 5.3360538019e-01	 1.4050273135e+00	 6.9521946630e-01
 5.2050235403e-01	 1.4099339714e+00	 1.0484586865e+00
 6.5421202653e-01	 1.3628800315e+00	 1.8848399122e+00
 6.4128452714e-01	 1.3690103943e+00	 1.3381967357e+00
 6.2832116123e-01	 1.3750082848e+00	 8.9887765419e-01
 6.1532389533e-01	 1.3808735427e+00	 5.6390136193e-01
 6.0229469195e-01	 1.3866060454e+00	 3.3071825821e-01
 5.8923550874e-01	 1.3922057074e+00	 1.9721524865e-01
 5.7614829760e-01	 1.3976724804e+00	 1.6171874697e-01
 5.6303500386e-01	 1.4030063528e+00	 2.2299591338e-01
 5.4989756546e-01	 1.4082073493e+00	 3.8025417356e-01
 5.3673791214e-01	 1.4132755305e+00	 6.3313906948e-01
 5.2355796463e-01	 1.4182109929e+00	 9.8173050018e-01
 6.5803016576e-01	 1.3708341282e+00	 2.2550356949e+00
 6.4502721837e-01	 1.3770002693e+00	 1.6521252918e+00
 6.3198819513e-01	 1.3830331649e+00	 1.1535080181e+00
 6.1891507405e-01	 1.3889326539e+00	 7.5874643261e-01
 6.0580982910e-01	 1.3946986128e+00	 4.6755337331e-01
 5.9267442934e-01	 1.4003309558e+00	 2.7979789823e-01
 5.7951083807e-01	 1.4058296342e+00	 1.9550974649e-01
 5.6632101199e-01	 1.4111946364e+00	 2.1488234856e-01
 5.5310690033e-01	 1.4164259871e+00	 3.3827442271e-01
 5.3987044410e-01	 1.4215237475e+00	 5.6621020208e-01
 5.2661357524e-01	 1.4264880145e+00	 8.9937834287e-01
 6.6184830499e-01	 1.3787882249e+00	 2.5177990678e+00
 6.4876990960e-01	 1.3849901442e+00	 1.8920171223e+00
 6.3565522902e-01	 1.3910580450e+00	 1.3612061066e+00
 6.2250625276e-01	 1.3969917650e+00	 9.2791018518e-01
 6.0932496624e-01	 1.4027911802e+00	 5.9448652641e-01
 5.9611334994e-01	 1.4084562042e+00	 3.6311268218e-01
 5.8287337855e-01	 1.4139867881e+00	 2.3579287823e-01
 5.6960702012e-01	 1.4193829200e+00	 2.1436323555e-01
 5.5631623520e-01	 1.4246446250e+00	 3.0049595161e-01
 5.4300297606e-01	 1.4297719645e+00	 4.9570247648e-01
 5.2966918584e-01	 1.4347650360e+00	 8.0133572507e-01
 4.9911307980e-01	 1.3519948207e+00	 1.0883869521e+00
 4.8653311820e-01	 1.3565726823e+00	 1.2645572934e+00
 4.7393744782e-01	 1.3610243479e+00	 1.4189736691e+00
 4.6132786810e-01	 1.3653500079e+00	 1.5531258569e+00
 4.4870616704e-01	 1.3695498853e+00	 1.6683567265e+00
 4.3607412057e-01	 1.3736242346e+00	 1.7658631551e+00
 4.2343349180e-01	 1.3775733421e+00	 1.8466965544e+00
 4.1078603044e-01	 1.3813975249e+00	 1.9117630482e+00
 3.9813347216e-01	 1.3850971308e+00	 1.9618233475e+00
 3.8547753797e-01	 1.3886725372e+00	 1.9974923642e+00
 3.7281993362e-01	 1.3921241513e+00	 2.0192386128e+00
 5.0216869040e-01	 1.3602718422e+00	 1.1272741564e+00
 4.8951171327e-01	 1.3648777299e+00	 1.3382754023e+00
 4.7683893117e-01	 1.3693566489e+00	 1.5241470382e+00
 4.6415215458e-01	 1.3737087910e+00	 1.6863516434e+00
 4.5145318246e-01	 1.3779343803e+00	 1.8261056902e+00
 4.3874380157e-01	 1.3820336731e+00	 1.9443820655e+00
 4.2602578585e-01	 1.3860069574e+00	 2.0419122817e+00
 4.1330089571e-01	 1.3898545522e+00	 2.1191884179e+00
 4.0057087745e-01	 1.3935768073e+00	 2.1764648319e+00
 3.8783746261e-01	 1.3971741027e+00	 2.2137596852e+00
 3.7510236738e-01	 1.4006468478e+00	 2.2308563242e+00
 5.0522430101e-01	 1.3685488637e+00	 1.1516352475e+00
 4.9249030833e-01	 1.3731827774e+00	 1.3980213288e+00
 4.7974041452e-01	 1.3776889500e+00	 1.6148053776e+00
 4.6697644107e-01	 1.3820675741e+00	 1.8033145626e+00
 4.5420019787e-01	 1.3863188754e+00	 1.9645622978e+00
 4.4141348257e-01	 1.3904431117e+00	 2.0992519573e+00
 4.2861807990e-01	 1.3944405727e+00	 2.2077803244e+00
 4.1581576098e-01	 1.3983115795e+00	 2.2902408148e+00
 4.0300828274e-01	 1.4020564839e+00	 2.3464265141e+00
 3.9019738724e-01	 1.4056756681e+00	 2.3758330693e+00
 3.7738480114e-01	 1.4091695444e+00	 2.3776614776e+00
 5.0827991161e-01	 1.3768258853e+00	 1.1612445003e+00
 4.9546890339e-01	 1.3814878250e+00	 1.4417637046e+00
 4.8264189788e-01	 1.3860212510e+00	 1.6876550968e+00
 4.6980072755e-01	 1.3904263571e+00	 1.9000027476e+00
 4.5694721328e-01	 1.3947033704e+00	 2.0795405027e+00
 4.4408316357e-01	 1.3988525502e+00	 2.2266564818e+00
 4.3121037395e-01	 1.4028741880e+00	 2.3413973248e+00
 4.1833062625e-01	 1.4067686067e+00	 2.4234722208e+00
 4.0544568802e-01	 1.4105361604e+00	 2.4722567631e+00
 3.9255731188e-01	 1.4141772336e+00	 2.4867966699e+00
 3.7966723490e-01	 1.4176922409e+00	 2.4658114128e+00
 5.1133552222e-01	 1.3851029068e+00	 1.1558994421e+00
 4.9844749846e-01	 1.3897928726e+00	 1.4675367185e+00
 4.8554338123e-01	 1.3943535520e+00	 1.7394974277e+00
 4.7262501404e-01	 1.3987851402e+00	 1.9725153721e+00
 4.5969422869e-01	 1.4030878655e+00	 2.1669684698e+00
 4.4675284457e-01	 1.4072619888e+00	 2.3228836359e+00
 4.3380266800e-01	 1.4113078033e+00	 2.4399413864e+00
 4.2084549152e-01	 1.4152256340e+00	 2.5174802032e+00
 4.0788309331e-01	 1.4190158370e+00	 2.5545007034e+00
 3.9491723651e-01	 1.4226787991e+00	 2.5496696562e+00
 3.8194966865e-01	 1.4262149375e+00	 2.5013238892e+00
 5.1439113282e-01	 1.3933799283e+00	 1.1354206696e+00
 5.0142609352e-01	 1.3980979202e+00	 1.4734386698e+00
 4.8844486458e-01	 1.4026858530e+00	 1.7672261006e+00
 4.7544930052e-01	 1.4071439233e+00	 2.0170598339e+00
 4.6244124410e-01	 1.4114723605e+00	 2.2228856536e+00
 4.4942252558e-01	 1.4156714273e+00	 2.3843231199e+00
 4.3639496205e-01	 1.4197414186e+00	 2.5006700976e+00
 4.2336035679e-01	 1.4236826613e+00	 2.5709069898e+00
 4.1032049859e-01	 1.4274955135e+00	 2.5937007247e+00
 3.9727716114e-01	 1.4311803646e+00	 2.5674085398e+00
 3.8423210241e-01	 1.4347376340e+00	 2.4900816107e+00
 5.1744674343e-01	 1.4016569499e+00	 1.0996516762e+00
 5.0440468858e-01	 1.4064029677e+00	 1.4576305758e+00
 4.9134634793e-01	 1.4110181541e+00	 1.7678251044e+00
 4.7827358701e-01	 1.4155027064e+00	 2.0299490410e+00
 4.6518825951e-01	 1.4198568556e+00	 2.2434399823e+00
 4.5209220658e-01	 1.4240808659e+00	 2.4074637928e+00
 4.3898725610e-01	 1.4281750339e+00	 2.5209186289e+00
 4.2587522206e-01	 1.4321396885e+00	 2.5824385793e+00
 4.1275790388e-01	 1.4359751901e+00	 2.5903969757e+00
 3.9963708578e-01	 1.4396819301e+00	 2.5429094217e+00
 3.8651453617e-01	 1.4432603305e+00	 2.4378365924e+00
 5.2050235403e-01	 1.4099339714e+00	 1.0484586865e+00
 5.0738328364e-01	 1.4147080153e+00	 1.4183348312e+00
 4.9424783128e-01	 1.4193504551e+00	 1.7383665283e+00
 4.8109787349e-01	 1.4238614894e+00	 2.0075987961e+00
 4.6793527492e-01	 1.4282413507e+00	 2.2248851438e+00
 4.5476188758e-01	 1.4324903045e+00	 2.3888912188e+00
 4.4157955015e-01	 1.4366086492e+00	 2.4980978995e+00
 4.2839008733e-01	 1.4405967158e+00	 2.5508038857e+00
 4.1519530916e-01	 1.4444548666e+00	 2.5451278438e+00
 4.0199701041e-01	 1.4481834955e+00	 2.4790101625e+00
 3.8879696993e-01	 1.4517830271e+00	 2.3502143772e+00
 5.2355796463e-01	 1.4182109929e+00	 9.8173050018e-01
 5.1036187871e-01	 1.4230130629e+00	 1.3538339157e+00
 4.9714931463e-01	 1.4276827561e+00	 1.6760084827e+00
 4.8392215997e-01	 1.4322202725e+00	 1.9465252748e+00
 4.7068229033e-01	 1.4366258457e+00	 2.1635779693e+00
 4.5743156858e-01	 1.4408997430e+00	 2.3252853028e+00
 4.4417184420e-01	 1.4450422646e+00	 2.4296928107e+00
 4.3090495260e-01	 1.4490537431e+00	 2.4747739151e+00
 4.1763271445e-01	 1.4529345432e+00	 2.4584304197e+00
 4.0435693504e-01	 1.4566850610e+00	 2.3784924791e+00
 3.9107940368e-01	 1.4603057236e+00	 2.2327181059e+00
 5.2661357524e-01	 1.4264880145e+00	 8.9937834287e-01
 5.1334047377e-01	 1.4313181105e+00	 1.2624691510e+00
 5.0005079798e-01	 1.4360150572e+00	 1.5779930935e+00
 4.8674644646e-01	 1.4405790556e+00	 1.8433425945e+00
 4.7342930574e-01	 1.4450103408e+00	 2.0559759111e+00
 4.6010124958e-01	 1.4493091816e+00	 2.2134180108e+00
 4.4676413825e-01	 1.4534758799e+00	 2.3132605436e+00
 4.3341981787e-01	 1.4575107703e+00	 2.3531609743e+00
 4.2007011973e-01	 1.4614142197e+00	 2.3308409497e+00
 4.0671685968e-01	 1.4651866265e+00	 2.2440839713e+00
 3.9336183744e-01	 1.4688284202e+00	 2.0907324488e+00
 5.2966918584e-01	 1.4347650360e+00	 8.0133572507e-01
 5.1631906883e-01	 1.4396231580e+00	 1.1426395015e+00
 5.0295228133e-01	 1.4443473582e+00	 1.4416445693e+00
 4.8957073294e-01	 1.4489378386e+00	 1.6947604704e+00
 4.7617632115e-01	 1.4533948358e+00	 1.8986346091e+00
 4.6277093058e-01	 1.4577186201e+00	 2.0501511723e+00
 4.4935643230e-01	 1.4619094952e+00	 2.1464289180e+00
 4.3593468314e-01	 1.4659677976e+00	 2.1848179087e+00
 4.2250752502e-01	 1.4698938963e+00	 2.1628952734e+00
 4.0907678431e-01	 1.4736881920e+00	 2.0784600802e+00
 3.9564427119e-01	 1.4773511167e+00	 1.9295274037e+00
 3.7281993362e-01	 1.3921241513e+00	 2.0192386128e+00
 3.6016234922e-01	 1.3954524094e+00	 2.0227435664e+00
 3.4750645917e-01	 1.3986577775e+00	 2.0074727502e+00
 3.3485392108e-01	 1.4017407496e+00	 1.9708402584e+00
 3.2220637509e-01	 1.4047018470e+00	 1.9101638226e+00
 3.0956544337e-01	 1.4075416178e+00	 1.8229985875e+00
 2.9693272962e-01	 1.4102606362e+00	 1.7071303699e+00
 2.8430981862e-01	 1.4128595019e+00	 1.5605694435e+00
 2.7169827581e-01	 1.4153388396e+00	 1.3815448282e+00
 2.5909964687e-01	 1.4176992982e+00	 1.1684990599e+00
 2.4651545727e-01	 1.4199415504e+00	 9.2008341220e-01
 3.7510236738e-01	 1.4006468478e+00	 2.2308563242e+00
 3.6236729222e-01	 1.4039954818e+00	 2.2242255609e+00
 3.4963392179e-01	 1.4072204734e+00	 2.1979126843e+00
 3.3690392384e-01	 1.4103223197e+00	 2.1500028919e+00
 3.2417894856e-01	 1.4133015452e+00	 2.0777301204e+00
 3.1146062803e-01	 1.4161587013e+00	 1.9787009389e+00
 2.9875057578e-01	 1.4188943658e+00	 1.8508850639e+00
 2.8605038630e-01	 1.4215091420e+00	 1.6926063198e+00
 2.7336163461e-01	 1.4240036583e+00	 1.5025340298e+00
 2.6068587584e-01	 1.4263785678e+00	 1.2796748173e+00
 2.4802464481e-01	 1.4286345473e+00	 1.0233647945e+00
 3.7738480114e-01	 1.4091695444e+00	 2.3776614776e+00
 3.6457223523e-01	 1.4125385542e+00	 2.3518824255e+00
 3.5176138441e-01	 1.4157831693e+00	 2.3078919064e+00
 3.3895392660e-01	 1.4189038898e+00	 2.2450373712e+00
 3.2615152202e-01	 1.4219012434e+00	 2.1605434612e+00
 3.1335581269e-01	 1.4247757848e+00	 2.0521032837e+00
 3.0056842194e-01	 1.4275280953e+00	 1.9178668854e+00
 2.8779095398e-01	 1.4301587820e+00	 1.7564301294e+00
 2.7502499341e-01	 1.4326684771e+00	 1.5668239634e+00
 2.6227210481e-01	 1.4350578375e+00	 1.3485040600e+00
 2.4953383236e-01	 1.4373275442e+00	 1.1013408119e+00
 3.7966723490e-01	 1.4176922409e+00	 2.4658114128e+00
 3.6677717823e-01	 1.4210816266e+00	 2.4147796947e+00
 3.5388884703e-01	 1.4243458653e+00	 2.3487405713e+00
 3.4100392936e-01	 1.4274854599e+00	 2.2688204357e+00
 3.2812409548e-01	 1.4305009416e+00	 2.1723100505e+00
 3.1525099734e-01	 1.4333928683e+00	 2.0570255420e+00
 3.0238626810e-01	 1.4361618249e+00	 1.9212955294e+00
 2.8953152166e-01	 1.4388084220e+00	 1.7639486499e+00
 2.7668835221e-01	 1.4413332958e+00	 1.5843014711e+00
 2.6385833379e-01	 1.4437371071e+00	 1.3821467707e+00
 2.5104301991e-01	 1.4460205411e+00	 1.1577421674e+00
 3.8194966865e-01	 1.4262149375e+00	 2.5013238892e+00
 3.6898212123e-01	 1.4296246990e+00	 2.4217715190e+00
 3.5601630965e-01	 1.4329085612e+00	 2.3315212200e+00
 3.4305393212e-01	 1.4360670301e+00	 2.2339223017e+00
 3.3009666894e-01	 1.4391006398e+00	 2.1264079617e+00
 3.1714618200e-01	 1.4420099519e+00	 2.0069551636e+00
 3.0420411427e-01	 1.4447955545e+00	 1.8740711098e+00
 2.9127208935e-01	 1.4474580620e+00	 1.7267801413e+00
 2.7835171101e-01	 1.4499981145e+00	 1.5646110515e+00
 2.6544456276e-01	 1.4524163768e+00	 1.3875847979e+00
 2.5255220746e-01	 1.4547135380e+00	 1.1962025901e+00
 3.8423210241e-01	 1.4347376340e+00	 2.4900816107e+00
 3.7118706424e-01	 1.4381677714e+00	 2.3814783478e+00
 3.5814377228e-01	 1.4414712571e+00	 2.2670374131e+00
 3.4510393488e-01	 1.4446486002e+00	 2.1526163745e+00
 3.3206924241e-01	 1.4477003380e+00	 2.0358974177e+00
 3.1904136666e-01	 1.4506270354e+00	 1.9150574686e+00
 3.0602196043e-01	 1.4534292840e+00	 1.7887840527e+00
 2.9301265703e-01	 1.4561077021e+00	 1.6562622857e+00
 2.8001506981e-01	 1.4586629333e+00	 1.5171623416e+00
 2.6703079174e-01	 1.4610956464e+00	 1.3716273787e+00
 2.5406139501e-01	 1.4634065349e+00	 1.2202618986e+00
 3.8651453617e-01	 1.4432603305e+00	 2.4378365924e+00
 3.7339200724e-01	 1.4467108438e+00	 2.3020365750e+00
 3.6027123490e-01	 1.4500339530e+00	 2.1658420747e+00
 3.4715393765e-01	 1.4532301703e+00	 2.0368886305e+00
 3.3404181587e-01	 1.4563000362e+00	 1.9135307201e+00
 3.2093655132e-01	 1.4592441189e+00	 1.7941856342e+00
 3.0783980660e-01	 1.4620630136e+00	 1.6777246496e+00
 2.9475322471e-01	 1.4647573421e+00	 1.5634608201e+00
 2.8167842861e-01	 1.4673277520e+00	 1.4511373428e+00
 2.6861702071e-01	 1.4697749161e+00	 1.3409164737e+00
 2.5557058256e-01	 1.4720995319e+00	 1.2333689641e+00
 3.8879696993e-01	 1.4517830271e+00	 2.3502143772e+00
 3.7559695024e-01	 1.4552539162e+00	 2.1916749947e+00
 3.6239869752e-01	 1.4585966490e+00	 2.0382455563e+00
 3.4920394041e-01	 1.4618117405e+00	 1.8984466832e+00
 3.3601438933e-01	 1.4648997344e+00	 1.7717618421e+00
 3.2283173597e-01	 1.4678612024e+00	 1.6568903409e+00
 3.0965765276e-01	 1.4706967432e+00	 1.5528922854e+00
 2.9649379240e-01	 1.4734069821e+00	 1.4591778746e+00
 2.8334178740e-01	 1.4759925707e+00	 1.3754974006e+00
 2.7020324969e-01	 1.4784541858e+00	 1.3019319223e+00
 2.5707977011e-01	 1.4807925288e+00	 1.2388845760e+00
 3.9107940368e-01	 1.4603057236e+00	 2.2327181059e+00
 3.7780189324e-01	 1.4637969887e+00	 2.0585361328e+00
 3.6452616014e-01	 1.4671593449e+00	 1.8943234341e+00
 3.5125394317e-01	 1.4703933106e+00	 1.7487285451e+00
 3.3798696279e-01	 1.4734994326e+00	 1.6227556980e+00
 3.2472692063e-01	 1.4764782859e+00	 1.5154290921e+00
 3.1147549892e-01	 1.4793304727e+00	 1.4260043534e+00
 2.9823436008e-01	 1.4820566222e+00	 1.3539650583e+00
 2.8500514620e-01	 1.4846573895e+00	 1.2991382182e+00
 2.7178947866e-01	 1.4871334554e+00	 1.2614395768e+00
 2.5858895766e-01	 1.4894855257e+00	 1.2409136000e+00
 3.9336183744e-01	 1.4688284202e+00	 2.0907324488e+00
 3.8000683624e-01	 1.4723400611e+00	 1.9105815874e+00
 3.6665362276e-01	 1.4757220408e+00	 1.7439240486e+00
 3.5330394593e-01	 1.4789748807e+00	 1.5989110979e+00
 3.3995953626e-01	 1.4820991308e+00	 1.4784038020e+00
 3.2662210529e-01	 1.4850953694e+00	 1.3820037978e+00
 3.1329334509e-01	 1.4879642023e+00	 1.3092210566e+00
 2.9997492776e-01	 1.4907062622e+00	 1.2595037562e+00
 2.8666850500e-01	 1.4933222082e+00	 1.2323530549e+00
 2.7337570764e-01	 1.4958127251e+00	 1.2273242014e+00
 2.6009814521e-01	 1.4981785226e+00	 1.2440277757e+00
 3.9564427119e-01	 1.4773511167e+00	 1.9295274037e+00
 3.8221177925e-01	 1.4808831335e+00	 1.7555976100e+00
 3.6878108538e-01	 1.4842847367e+00	 1.5968230709e+00
 3.5535394869e-01	 1.4875564508e+00	 1.4606143235e+00
 3.4193210972e-01	 1.4906988290e+00	 1.3518926628e+00
 3.2851728995e-01	 1.4937124529e+00	 1.2703876700e+00
 3.1511119125e-01	 1.4965979319e+00	 1.2156840508e+00
 3.0171549544e-01	 1.4993559022e+00	 1.1872260483e+00
 2.8833186380e-01	 1.5019870269e+00	 1.1843222083e+00
 2.7496193661e-01	 1.5044919947e+00	 1.2061504636e+00
 2.6160733276e-01	 1.5068715195e+00	 1.2517635066e+00
 2.4651545727e-01	 1.4199415504e+00	 9.2008341220e-01
 2.3394507721e-01	 1.4220666433e+00	 6.7185651996e-01
 2.2139213491e-01	 1.4240749033e+00	 4.6242285153e-01
 2.0885809711e-01	 1.4259670700e+00	 2.9489414852e-01
 1.9634440887e-01	 1.4277439043e+00	 1.7221339508e-01
 1.8385249329e-01	 1.4294061875e+00	 9.7154848508e-02
 1.7138375121e-01	 1.4309547213e+00	 7.2324679770e-02
 1.5893956096e-01	 1.4323903263e+00	 1.0016216926e-01
 1.4652127812e-01	 1.4337138423e+00	 1.8294140328e-01
 1.3413023525e-01	 1.4349261269e+00	 3.2277341619e-01
 1.2176774173e-01	 1.4360280554e+00	 5.2160872383e-01
 2.4802464481e-01	 1.4286345473e+00	 1.0233647945e+00
 2.3537730787e-01	 1.4307726502e+00	 7.6598306947e-01
 2.2274751545e-01	 1.4327932049e+00	 5.4340253975e-01
 2.1013674326e-01	 1.4346969556e+00	 3.6008129662e-01
 1.9754644521e-01	 1.4364846678e+00	 2.2018210491e-01
 1.8497805311e-01	 1.4381571277e+00	 1.2757390276e-01
 1.7243297638e-01	 1.4397151417e+00	 8.5834058106e-02
 1.5991260180e-01	 1.4411595356e+00	 9.8251319598e-02
 1.4741829322e-01	 1.4424911543e+00	 1.6782939918e-01
 1.3495139139e-01	 1.4437108606e+00	 2.9729112336e-01
 1.2251321368e-01	 1.4448195352e+00	 4.8908309059e-01
 2.4953383236e-01	 1.4373275442e+00	 1.1013408119e+00
 2.3680953854e-01	 1.4394786571e+00	 8.5235594856e-01
 2.2410289599e-01	 1.4415115065e+00	 6.3239122564e-01
 2.1141538940e-01	 1.4434268413e+00	 4.4692618257e-01
 1.9874848154e-01	 1.4452254314e+00	 3.0105154519e-01
 1.8610361293e-01	 1.4469080679e+00	 1.9947183247e-01
 1.7348220156e-01	 1.4484755621e+00	 1.4650883568e-01
 1.6088564264e-01	 1.4499287449e+00	 1.4610590075e-01
 1.4831530833e-01	 1.4512684663e+00	 2.0183294474e-01
 1.3577254752e-01	 1.4524955943e+00	 3.1689213631e-01
 1.2325868564e-01	 1.4536110149e+00	 4.9412417135e-01
 2.5104301991e-01	 1.4460205411e+00	 1.1577421674e+00
 2.3824176920e-01	 1.4481846640e+00	 9.3121652922e-01
 2.2545827653e-01	 1.4502298082e+00	 7.2672435831e-01
 2.1269403555e-01	 1.4521567269e+00	 5.5044494712e-01
 1.9995051788e-01	 1.4539661949e+00	 4.0810795908e-01
 1.8722917275e-01	 1.4556590081e+00	 3.0499678554e-01
 1.7453142673e-01	 1.4572359825e+00	 2.4595285953e-01
 1.6185868347e-01	 1.4586979543e+00	 2.3538085197e-01
 1.4921232343e-01	 1.4600457783e+00	 2.7725467558e-01
 1.3659370366e-01	 1.4612803280e+00	 3.7512422130e-01
 1.2400415759e-01	 1.4624024947e+00	 5.3212275264e-01
 2.5255220746e-01	 1.4547135380e+00	 1.1962025901e+00
 2.3967399987e-01	 1.4568906709e+00	 1.0027919630e+00
 2.2681365707e-01	 1.4589481098e+00	 8.2379213102e-01
 2.1397268170e-01	 1.4608866125e+00	 6.6576357103e-01
 2.0115255422e-01	 1.4627069585e+00	 5.3478858660e-01
 1.8835473257e-01	 1.4644099482e+00	 4.3647506326e-01
 1.7558065191e-01	 1.4659964030e+00	 3.7596123436e-01
 1.6283172431e-01	 1.4674671636e+00	 3.5792137901e-01
 1.5010933854e-01	 1.4688230902e+00	 3.8657237311e-01
 1.3741485980e-01	 1.4700650617e+00	 4.6568101444e-01
 1.2474962954e-01	 1.4711939745e+00	 5.9857204298e-01
 2.5406139501e-01	 1.4634065349e+00	 1.2202618986e+00
 2.4110623054e-01	 1.4655966777e+00	 1.0672957431e+00
 2.2816903761e-01	 1.4676664114e+00	 9.2103795521e-01
 2.1525132785e-01	 1.4696164981e+00	 7.8811467709e-01
 2.0235459056e-01	 1.4714477220e+00	 6.7467721254e-01
 1.8948029239e-01	 1.4731608884e+00	 5.8640583403e-01
 1.7662987708e-01	 1.4747568234e+00	 5.2851462329e-01
 1.6380476514e-01	 1.4762363729e+00	 5.0575726440e-01
 1.5100635364e-01	 1.4776004022e+00	 5.2243370762e-01
 1.3823601594e-01	 1.4788497954e+00	 5.8239762185e-01
 1.2549510150e-01	 1.4799854543e+00	 6.8906455432e-01
 2.5557058256e-01	 1.4720995319e+00	 1.2333689641e+00
 2.4253846121e-01	 1.4743026846e+00	 1.1249282532e+00
 2.2952441815e-01	 1.4763847130e+00	 1.0159569945e+00
 2.1652997400e-01	 1.4783463837e+00	 9.1283445051e-01
 2.0355662689e-01	 1.4801884855e+00	 8.2149987668e-01
 1.9060585221e-01	 1.4819118286e+00	 7.4745715321e-01
 1.7767910225e-01	 1.4835172438e+00	 6.9579523989e-01
 1.6477780598e-01	 1.4850055822e+00	 6.7115057987e-01
 1.5190336875e-01	 1.4863777142e+00	 6.7773365732e-01
 1.3905717208e-01	 1.4876345291e+00	 7.1934786398e-01
 1.2624057345e-01	 1.4887769341e+00	 7.9939671087e-01
 2.5707977011e-01	 1.4807925288e+00	 1.2388845760e+00
 2.4397069187e-01	 1.4830086915e+00	 1.1759029430e+00
 2.3087979869e-01	 1.4851030147e+00	 1.1062261823e+00
 2.1780862014e-01	 1.4870762694e+00	 1.0356409526e+00
 2.0475866323e-01	 1.4889292491e+00	 9.6956096548e-01
 1.9173141203e-01	 1.4906627688e+00	 9.1303658349e-01
 1.7872832743e-01	 1.4922776642e+00	 8.7075911947e-01
 1.6575084681e-01	 1.4937747915e+00	 8.4706562003e-01
 1.5280038385e-01	 1.4951550262e+00	 8.4594410209e-01
 1.3987832822e-01	 1.4964192628e+00	 8.7103921289e-01
 1.2698604541e-01	 1.4975684139e+00	 9.2565828407e-01
 2.5858895766e-01	 1.4894855257e+00	 1.2409136000e+00
 2.4540292254e-01	 1.4917146984e+00	 1.2215698701e+00
 2.3223517923e-01	 1.4938213163e+00	 1.1907053934e+00
 2.1908726629e-01	 1.4958061550e+00	 1.1532393768e+00
 2.0596069957e-01	 1.4976700126e+00	 1.1138236075e+00
 1.9285697185e-01	 1.4994137089e+00	 1.0768450218e+00
 1.7977755260e-01	 1.5010380847e+00	 1.0464286933e+00
 1.6672388765e-01	 1.5025440008e+00	 1.0264412155e+00
 1.5369739896e-01	 1.5039323382e+00	 1.0204944512e+00
 1.4069948436e-01	 1.5052039965e+00	 1.0319496230e+00
 1.2773151736e-01	 1.5063598937e+00	 1.0639217209e+00
 2.6009814521e-01	 1.4981785226e+00	 1.2440277757e+00
 2.4683515321e-01	 1.5004207053e+00	 1.2630245934e+00
 2.3359055977e-01	 1.5025396179e+00	 1.2676698599e+00
 2.2036591244e-01	 1.5045360406e+00	 1.2617188426e+00
 2.0716273591e-01	 1.5064107762e+00	 1.2487898045e+00
 1.9398253167e-01	 1.5081646491e+00	 1.2323650114e+00
 1.8082677778e-01	 1.5097985051e+00	 1.2157920344e+00
 1.6769692849e-01	 1.5113132102e+00	 1.2022853271e+00
 1.5459441406e-01	 1.5127096502e+00	 1.1949280548e+00
 1.4152064050e-01	 1.5139887301e+00	 1.1966741574e+00
 1.2847698931e-01	 1.5151513734e+00	 1.2103506252e+00
 2.6160733276e-01	 1.5068715195e+00	 1.2517635066e+00
 2.4826738388e-01	 1.5091267122e+00	 1.3008300583e+00
 2.3494594031e-01	 1.5112579195e+00	 1.3352068877e+00
 2.2164455859e-01	 1.5132659262e+00	 1.3571857804e+00
 2.0836477224e-01	 1.5151515397e+00	 1.3690822970e+00
 1.9510809149e-01	 1.5169155893e+00	 1.3732348776e+00
 1.8187600295e-01	 1.5185589255e+00	 1.3720040883e+00
 1.6866996932e-01	 1.5200824195e+00	 1.3677719920e+00
 1.5549142916e-01	 1.5214869622e+00	 1.3629416305e+00
 1.4234179663e-01	 1.5227734638e+00	 1.3599366049e+00
 1.2922246127e-01	 1.5239428532e+00	 1.3612007409e+00
 1.2176774173e-01	 1.4360280554e+00	 5.2160872383e-01
 1.0943717242e-01	 1.4370203602e+00	 7.4739951923e-01
 9.7137661338e-02	 1.4379041455e+00	 9.6715072133e-01
 8.4870418512e-02	 1.4386803344e+00	 1.1811130410e+00
 7.2636630905e-02	 1.4393498649e+00	 1.3894820405e+00
 6.0437462281e-02	 1.4399136891e+00	 1.5924016307e+00
 4.8274053106e-02	 1.4403727731e+00	 1.7899675571e+00
 3.6147520452e-02	 1.4407280959e+00	 1.9822308333e+00
 2.4058957924e-02	 1.4409806490e+00	 2.1692010821e+00
 1.2009435603e-02	 1.4411314357e+00	 2.3508497493e+00
 0.0000000000e+00	 1.4411814706e+00	 2.5271131563e+00
 1.2251321368e-01	 1.4448195352e+00	 4.8908309059e-01
 1.1010715563e-01	 1.4458179149e+00	 7.1286105610e-01
 9.7732345950e-02	 1.4467071109e+00	 9.3570602916e-01
 8.5390002073e-02	 1.4474880517e+00	 1.1559435600e+00
 7.3081318229e-02	 1.4481616810e+00	 1.3719805442e+00
 6.0807465309e-02	 1.4487289571e+00	 1.5823079715e+00
 4.8569590760e-02	 1.4491908516e+00	 1.7855035176e+00
 3.6368818493e-02	 1.4495483497e+00	 1.9802339398e+00
 2.4206248808e-02	 1.4498024489e+00	 2.1652572420e+00
 1.2082958338e-02	 1.4499541587e+00	 2.3394245774e+00
 0.0000000000e+00	 1.4500045000e+00	 2.5016818578e+00
 1.2325868564e-01	 1.4536110149e+00	 4.9412417135e-01
 1.1077713885e-01	 1.4546154697e+00	 7.0686749403e-01
 9.8327030562e-02	 1.4555100762e+00	 9.2459239520e-01
 8.5909585633e-02	 1.4562957689e+00	 1.1441032165e+00
 7.3526005553e-02	 1.4569734972e+00	 1.3623924384e+00
 6.1177468337e-02	 1.4575442250e+00	 1.5766429597e+00
 4.8865128414e-02	 1.4580089301e+00	 1.7842301027e+00
 3.6590116533e-02	 1.4583686035e+00	 1.9827233076e+00
 2.4353539692e-02	 1.4586242489e+00	 2.1698874848e+00
 1.2156481073e-02	 1.4587768818e+00	 2.3436839939e+00
 0.0000000000e+00	 1.4588275294e+00	 2.5022712245e+00
 1.2400415759e-01	 1.4624024947e+00	 5.3212275264e-01
 1.1144712206e-01	 1.4634130244e+00	 7.2669686387e-01
 9.8921715174e-02	 1.4643130416e+00	 9.3246245067e-01
 8.6429169193e-02	 1.4651034862e+00	 1.1451011594e+00
 7.3970692876e-02	 1.4657853134e+00	 1.3605602381e+00
 6.1547471364e-02	 1.4663594930e+00	 1.5750546220e+00
 4.9160666067e-02	 1.4668270086e+00	 1.7850686570e+00
 3.6811414574e-02	 1.4671888574e+00	 1.9873574264e+00
 2.4500830576e-02	 1.4674460489e+00	 2.1789476491e+00
 1.2230003808e-02	 1.4675996049e+00	 2.3571381207e+00
 0.0000000000e+00	 1.4676505588e+00	 2.5194996732e+00
 1.2474962954e-01	 1.4711939745e+00	 5.9857204298e-01
 1.1211710527e-01	 1.4722105792e+00	 7.6968522631e-01
 9.9516399786e-02	 1.4731160069e+00	 9.5799482458e-01
 8.6948752753e-02	 1.4739112034e+00	 1.1584529868e+00
 7.4415380199e-02	 1.4745971296e+00	 1.3663259557e+00
 6.1917474391e-02	 1.4751747609e+00	 1.5771962327e+00
 4.9456203720e-02	 1.4756450871e+00	 1.7869643219e+00
 3.7032712614e-02	 1.4760091112e+00	 1.9918500177e+00
 2.4648121460e-02	 1.4762678488e+00	 2.1883932055e+00
 1.2303526542e-02	 1.4764223280e+00	 2.3734541461e+00
 0.0000000000e+00	 1.4764735882e+00	 2.5442132189e+00
 1.2549510150e-01	 1.4799854543e+00	 6.8906455432e-01
 1.1278708848e-01	 1.4810081339e+00	 8.3322486625e-01
 1.0011108440e-01	 1.4819189723e+00	 9.9989344158e-01
 8.7468336312e-02	 1.4827189207e+00	 1.1836814735e+00
 7.4860067522e-02	 1.4834089457e+00	 1.3795335099e+00
 6.2287477417e-02	 1.4839900289e+00	 1.5827315432e+00
 4.9751741372e-02	 1.4844631656e+00	 1.7888966223e+00
 3.7254010654e-02	 1.4848293650e+00	 1.9939897890e+00
 2.4795412343e-02	 1.4850896488e+00	 2.1943126091e+00
 1.2377049277e-02	 1.4852450511e+00	 2.3865073023e+00
 0.0000000000e+00	 1.4852966177e+00	 2.5675564774e+00
 1.2624057345e-01	 1.4887769341e+00	 7.9939671087e-01
 1.1345707170e-01	 1.4898056887e+00	 9.1486533080e-01
 1.0070576901e-01	 1.4907219377e+00	 1.0569783363e+00
 8.7987919871e-02	 1.4915266379e+00	 1.2203957234e+00
 7.5304754845e-02	 1.4922207619e+00	 1.4001044391e+00
 6.2657480444e-02	 1.4928052968e+00	 1.5914204122e+00
 5.0047279025e-02	 1.4932812441e+00	 1.7899901727e+00
 3.7475308694e-02	 1.4936496188e+00	 1.9917920618e+00
 2.4942703227e-02	 1.4939114487e+00	 2.1931370361e+00
 1.2450572012e-02	 1.4940677742e+00	 2.3906690722e+00
 0.0000000000e+00	 1.4941196471e+00	 2.5813651753e+00
 1.2698604541e-01	 1.4975684139e+00	 9.2565828407e-01
 1.1412705491e-01	 1.4986032435e+00	 1.0123322788e+00
 1.0130045362e-01	 1.4995249030e+00	 1.1281622022e+00
 8.8507503430e-02	 1.5003343552e+00	 1.2682412302e+00
 7.5749442167e-02	 1.5010325781e+00	 1.4279526324e+00
 6.3027483470e-02	 1.5016205648e+00	 1.6029723161e+00
 5.0342816678e-02	 1.5020993226e+00	 1.7892709901e+00
 3.7696606734e-02	 1.5024698726e+00	 1.9831159464e+00
 2.5089994111e-02	 1.5027332487e+00	 2.1810724629e+00
 1.2524094746e-02	 1.5028904973e+00	 2.3800048309e+00
 0.0000000000e+00	 1.5029426765e+00	 2.5770770108e+00
 1.2773151736e-01	 1.5063598937e+00	 1.0639217209e+00
 1.1479703812e-01	 1.5074007982e+00	 1.1233389444e+00
 1.0189513823e-01	 1.5083278684e+00	 1.2123461381e+00
 8.9027086989e-02	 1.5091420724e+00	 1.3268464833e+00
 7.6194129490e-02	 1.5098443942e+00	 1.4629688698e+00
 6.3397486497e-02	 1.5104358327e+00	 1.6170711959e+00
 5.0638354330e-02	 1.5109174011e+00	 1.7857433429e+00
 3.7917904774e-02	 1.5112901264e+00	 1.9658098247e+00
 2.5237284994e-02	 1.5115550487e+00	 2.1543321091e+00
 1.2597617481e-02	 1.5117132204e+00	 2.3486106139e+00
 0.0000000000e+00	 1.5117657059e+00	 2.5461863774e+00
 1.2847698931e-01	 1.5151513734e+00	 1.2103506252e+00
 1.1546702133e-01	 1.5161983530e+00	 1.2456545365e+00
 1.0248982284e-01	 1.5171308337e+00	 1.3084594794e+00
 8.9546670548e-02	 1.5179497897e+00	 1.3958508805e+00
 7.6638816813e-02	 1.5186562104e+00	 1.5050482897e+00
 6.3767489523e-02	 1.5192511007e+00	 1.6334096711e+00
 5.0933891983e-02	 1.5197354796e+00	 1.7784354555e+00
 3.8139202814e-02	 1.5201103802e+00	 1.9377723474e+00
 2.5384575878e-02	 1.5203768486e+00	 2.1092168833e+00
 1.2671140216e-02	 1.5205359435e+00	 2.2907187370e+00
 0.0000000000e+00	 1.5205887353e+00	 2.4803837692e+00
 1.2922246127e-01	 1.5239428532e+00	 1.3612007409e+00
 1.1613700454e-01	 1.5249959077e+00	 1.3771029446e+00
 1.0308450745e-01	 1.5259337991e+00	 1.4154590430e+00
 9.0066254107e-02	 1.5267575069e+00	 1.4749044699e+00
 7.7083504135e-02	 1.5274680266e+00	 1.5540903138e+00
 6.4137492550e-02	 1.5280663686e+00	 1.6516888346e+00
 5.1229429637e-02	 1.5285535581e+00	 1.7663988548e+00
 3.8360500855e-02	 1.5289306340e+00	 1.8969510138e+00
 2.5531866762e-02	 1.5291986486e+00	 2.0421128747e+00
 1.2744662951e-02	 1.5293586666e+00	 2.2006938767e+00
 0.0000000000e+00	 1.5294117647e+00	 2.3715501242e+00
 1.5294117647e+00	 0.0000000000e+00	-2.7904507863e+01
 1.5293586666e+00	 1.2744662951e-02	-1.5074842637e+01
 1.5291986486e+00	 2.5531866762e-02	-5.4158592626e+00
 1.5289306340e+00	 3.8360500855e-02	 1.4274390584e+00
 1.5285535581e+00	 5.1229429637e-02	 5.8160955922e+00
 1.5280663686e+00	 6.4137492550e-02	 8.1168568919e+00
 1.5274680266e+00	 7.7083504135e-02	 8.7018137538e+00
 1.5267575069e+00	 9.0066254107e-02	 7.9480263401e+00
 1.5259337991e+00	 1.0308450745e-01	 6.2371335270e+00
 1.5249959077e+00	 1.1613700454e-01	 3.9549465693e+00
 1.5239428532e+00	 1.2922246127e-01	 1.4910272061e+00
 1.5382347941e+00	 0.0000000000e+00	-2.3638987502e+01
 1.5381813897e+00	 1.2818185686e-02	-1.6198034666e+01
 1.5380204486e+00	 2.5679157647e-02	-1.0352857021e+01
 1.5377508879e+00	 3.8581798896e-02	-5.9479779048e+00
 1.5373716366e+00	 5.1524967290e-02	-2.8252677074e+00
 1.5368816366e+00	 6.4507495578e-02	-8.2411655835e-01
 1.5362798428e+00	 7.7528191458e-02	 2.1838561087e-01
 1.5355652242e+00	 9.0585837666e-02	 4.6726164398e-01
 1.5347367645e+00	 1.0367919206e-01	 8.9452389699e-02
 1.5337934625e+00	 1.1680698775e-01	-7.4638537991e-01
 1.5327343330e+00	 1.2996793322e-01	-1.8700883110e+00
 1.5470578235e+00	 0.0000000000e+00	-1.9737514014e+01
 1.5470041127e+00	 1.2891708422e-02	-1.6904865133e+01
 1.5468422485e+00	 2.5826448532e-02	-1.4324212564e+01
 1.5465711417e+00	 3.8803096937e-02	-1.2010199339e+01
 1.5461897151e+00	 5.1820504944e-02	-9.9776561527e+00
 1.5456969045e+00	 6.4877498605e-02	-8.2416260731e+00
 1.5450916589e+00	 7.7972878782e-02	-6.8173893691e+00
 1.5443729414e+00	 9.1105421225e-02	-5.7204884807e+00
 1.5435397298e+00	 1.0427387667e-01	-4.9667531514e+00
 1.5425910172e+00	 1.1747697097e-01	-4.5723257414e+00
 1.5415258128e+00	 1.3071340517e-01	-4.5536867387e+00
 1.5558808529e+00	 0.0000000000e+00	-1.6208437865e+01
 1.5558268358e+00	 1.2965231157e-02	-1.7209519059e+01
 1.5556640485e+00	 2.5973739417e-02	-1.7346555534e+01
 1.5553913955e+00	 3.9024394979e-02	-1.6775422062e+01
 1.5550077936e+00	 5.2116042599e-02	-1.5654475933e+01
 1.5545121725e+00	 6.5247501633e-02	-1.4144455965e+01
 1.5539034751e+00	 7.8417566105e-02	-1.2408375627e+01
 1.5531806587e+00	 9.1625004784e-02	-1.0611410306e+01
 1.5523426952e+00	 1.0486856128e-01	-8.9207787935e+00
 1.5513885720e+00	 1.1814695418e-01	-7.5056190487e+00
 1.5503172926e+00	 1.3145887712e-01	-6.5368583202e+00
 1.5647038823e+00	 0.0000000000e+00	-1.3059958359e+01
 1.5646495589e+00	 1.3038753893e-02	-1.7125890120e+01
 1.5644858484e+00	 2.6121030302e-02	-1.9436160936e+01
 1.5642116493e+00	 3.9245693021e-02	-2.0259490320e+01
 1.5638258721e+00	 5.2411580253e-02	-1.9868836379e+01
 1.5633274404e+00	 6.5617504661e-02	-1.8541191199e+01
 1.5627152913e+00	 7.8862253428e-02	-1.6557365550e+01
 1.5619883759e+00	 9.2144588344e-02	-1.4201762973e+01
 1.5611456605e+00	 1.0546324589e-01	-1.1762143355e+01
 1.5601861267e+00	 1.1881693739e-01	-9.5293761017e+00
 1.5591087724e+00	 1.3220434908e-01	-7.7971830416e+00
 1.5735269117e+00	 0.0000000000e+00	-1.0300127883e+01
 1.5734722820e+00	 1.3112276629e-02	-1.6667588700e+01
 1.5733076484e+00	 2.6268321188e-02	-2.0608958858e+01
 1.5730319031e+00	 3.9466991063e-02	-2.2477905356e+01
 1.5726439506e+00	 5.2707117907e-02	-2.2633557903e+01
 1.5721427084e+00	 6.5987507689e-02	-2.1440222543e+01
 1.5715271074e+00	 7.9306940752e-02	-1.9267081017e+01
 1.5707960932e+00	 9.2664171903e-02	-1.6487875952e+01
 1.5699486259e+00	 1.0605793051e-01	-1.3480582018e+01
 1.5689836815e+00	 1.1948692060e-01	-1.0627063209e+01
 1.5679002521e+00	 1.3294982103e-01	-8.3127164428e+00
 1.5823499412e+00	 0.0000000000e+00	-7.9368560005e+00
 1.5822950051e+00	 1.3185799365e-02	-1.5847949667e+01
 1.5821294484e+00	 2.6415612073e-02	-2.0880543871e+01
 1.5818521569e+00	 3.9688289105e-02	-2.3445834672e+01
 1.5814620291e+00	 5.3002655562e-02	-2.3961179675e+01
 1.5809579763e+00	 6.6357510716e-02	-2.2849751550e+01
 1.5803389236e+00	 7.9751628075e-02	-2.0540174897e+01
 1.5796038104e+00	 9.3183755462e-02	-1.7466146595e+01
 1.5787515913e+00	 1.0665261512e-01	-1.4066039801e+01
 1.5777812362e+00	 1.2015690381e-01	-1.0782491797e+01
 1.5766917319e+00	 1.3369529298e-01	-8.0619759133e+00
 1.5911729706e+00	 0.0000000000e+00	-5.9779134116e+00
 1.5911177282e+00	 1.3259322100e-02	-1.4680039898e+01
 1.5909512483e+00	 2.6562902958e-02	-2.0266184105e+01
 1.5906724107e+00	 3.9909587147e-02	-2.3178120970e+01
 1.5902801076e+00	 5.3298193216e-02	-2.3863967049e+01
 1.5897732442e+00	 6.6727513744e-02	-2.2777795378e+01
 1.5891507398e+00	 8.0196315399e-02	-2.0379232491e+01
 1.5884115277e+00	 9.3703339021e-02	-1.7133037763e+01
 1.5875545566e+00	 1.0724729973e-01	-1.3508665262e+01
 1.5865787910e+00	 1.2082688702e-01	-9.9798083758e+00
 1.5854832117e+00	 1.3444076493e-01	-7.0239274530e+00
 1.5999960000e+00	 0.0000000000e+00	-4.4309357851e+00
 1.5999404513e+00	 1.3332844836e-02	-1.3176665553e+01
 1.5997730483e+00	 2.6710193843e-02	-1.8780830041e+01
 1.5994926645e+00	 4.0130885188e-02	-2.1689290812e+01
 1.5990981861e+00	 5.3593730871e-02	-2.2353918736e+01
 1.5985885122e+00	 6.7097516772e-02	-2.1232191446e+01
 1.5979625559e+00	 8.0641002722e-02	-1.8786772947e+01
 1.5972192449e+00	 9.4222922580e-02	-1.5485075553e+01
 1.5963575220e+00	 1.0784198434e-01	-1.1798804406e+01
 1.5953763457e+00	 1.2149687023e-01	-8.2034848400e+00
 1.5942746915e+00	 1.3518623688e-01	-5.1779728814e+00
 1.6088190294e+00	 0.0000000000e+00	-3.3034274608e+00
 1.6087631744e+00	 1.3406367572e-02	-1.1350379107e+01
 1.6085948482e+00	 2.6857484728e-02	-1.6439122998e+01
 1.6083129183e+00	 4.0352183230e-02	-1.8993562984e+01
 1.6079162646e+00	 5.3889268525e-02	-1.9442773752e+01
 1.6074037801e+00	 6.7467519799e-02	-1.8220601953e+01
 1.6067743721e+00	 8.1085690045e-02	-1.5765250613e+01
 1.6060269622e+00	 9.4742506139e-02	-1.2518847090e+01
 1.6051604873e+00	 1.0843666895e-01	-8.9269948071e+00
 1.6041739005e+00	 1.2216685344e-01	-5.4383091004e+00
 1.6030661713e+00	 1.3593170884e-01	-2.5039374760e+00
 1.6176420588e+00	 0.0000000000e+00	-2.6027650326e+00
 1.6175858975e+00	 1.3479890307e-02	-9.2134861515e+00
 1.6174166482e+00	 2.7004775613e-02	-1.3255403354e+01
 1.6171331722e+00	 4.0573481271e-02	-1.5104856592e+01
 1.6167343431e+00	 5.4184806178e-02	-1.5142018136e+01
 1.6162190481e+00	 6.7837522827e-02	-1.3750518232e+01
 1.6155861883e+00	 8.1530377368e-02	-1.1317056365e+01
 1.6148346794e+00	 9.5262089698e-02	-8.2309984036e+00
 1.6139634527e+00	 1.0903135356e-01	-4.8839599237e+00
 1.6129714553e+00	 1.2283683665e-01	-1.6693760282e+00
 1.6118576511e+00	 1.3667718079e-01	 1.0179419736e+00
 1.5239428532e+00	 1.2922246127e-01	 1.4910272061e+00
 1.5227734638e+00	 1.4234179663e-01	-5.8522740249e-01
 1.5214869622e+00	 1.5549142916e-01	-2.0105653455e+00
 1.5200824195e+00	 1.6866996932e-01	-2.8540366265e+00
 1.5185589255e+00	 1.8187600295e-01	-3.1855660336e+00
 1.5169155893e+00	 1.9510809149e-01	-3.0758609197e+00
 1.5151515397e+00	 2.0836477224e-01	-2.5963152464e+00
 1.5132659262e+00	 2.2164455859e-01	-1.8189099442e+00
 1.5112579195e+00	 2.3494594031e-01	-8.1610964492e-01
 1.5091267122e+00	 2.4826738388e-01	 3.3924416031e-01
 1.5068715195e+00	 2.6160733276e-01	 1.5740434836e+00
 1.5327343330e+00	 1.2996793322e-01	-1.8700883110e+00
 1.5315581975e+00	 1.4316295277e-01	-2.8727326830e+00
 1.5302642742e+00	 1.5638844427e-01	-3.4833358849e+00
 1.5288516288e+00	 1.6964301015e-01	-3.7385571983e+00
 1.5273193459e+00	 1.8292522812e-01	-3.6753999487e+00
 1.5256665295e+00	 1.9623365131e-01	-3.3311491431e+00
 1.5238923033e+00	 2.0956680858e-01	-2.7433067858e+00
 1.5219958118e+00	 2.2292320474e-01	-1.9495249195e+00
 1.5199762211e+00	 2.3630132085e-01	-9.8753643779e-01
 1.5178327191e+00	 2.4969961454e-01	 1.0491629302e-01
 1.5155645164e+00	 2.6311652031e-01	 1.2901549632e+00
 1.5415258128e+00	 1.3071340517e-01	-4.5536867387e+00
 1.5403429312e+00	 1.4398410891e-01	-4.6431335084e+00
 1.5390415861e+00	 1.5728545937e-01	-4.5668165358e+00
 1.5376208381e+00	 1.7061605099e-01	-4.3323237729e+00
 1.5360797664e+00	 1.8397445329e-01	-3.9471761686e+00
 1.5344174696e+00	 1.9735921113e-01	-3.4187936368e+00
 1.5326330668e+00	 2.1076884491e-01	-2.7544599385e+00
 1.5307256975e+00	 2.2420185088e-01	-1.9612865158e+00
 1.5286945228e+00	 2.3765670139e-01	-1.0461753100e+00
 1.5265387260e+00	 2.5113184521e-01	-1.5780589141e-02
 1.5242575133e+00	 2.6462570786e-01	 1.1235301955e+00
 1.5503172926e+00	 1.3145887712e-01	-6.5368583202e+00
 1.5491276649e+00	 1.4480526504e-01	-5.8692876599e+00
 1.5478188981e+00	 1.5818247447e-01	-5.2311705077e+00
 1.5463900474e+00	 1.7158909182e-01	-4.6042874025e+00
 1.5448401868e+00	 1.8502367847e-01	-3.9700590664e+00
 1.5431684098e+00	 1.9848477095e-01	-3.3095391918e+00
 1.5413738303e+00	 2.1197088125e-01	-2.6034071992e+00
 1.5394555831e+00	 2.2548049703e-01	-1.8319609913e+00
 1.5374128244e+00	 2.3901208193e-01	-9.7510972359e-01
 1.5352447329e+00	 2.5256407588e-01	-1.2366598958e-02
 1.5329505102e+00	 2.6613489541e-01	 1.0771583138e+00
 1.5591087724e+00	 1.3220434908e-01	-7.7971830416e+00
 1.5579123986e+00	 1.4562642118e-01	-6.5246346373e+00
 1.5565962101e+00	 1.5907948957e-01	-5.4472005936e+00
 1.5551592567e+00	 1.7256213266e-01	-4.5240637328e+00
 1.5536006072e+00	 1.8607290364e-01	-3.7138710520e+00
 1.5519193500e+00	 1.9961033077e-01	-2.9747518306e+00
 1.5501145939e+00	 2.1317291759e-01	-2.2643365867e+00
 1.5481854687e+00	 2.2675914318e-01	-1.5397768984e+00
 1.5461311260e+00	 2.4036746247e-01	-7.5776608954e-01
 1.5439507398e+00	 2.5399630654e-01	 1.2543922585e-01
 1.5416435071e+00	 2.6764408295e-01	 1.1539967652e+00
 1.5679002521e+00	 1.3294982103e-01	-8.3127164428e+00
 1.5666971323e+00	 1.4644757732e-01	-6.5831789396e+00
 1.5653735221e+00	 1.5997650467e-01	-5.1863308943e+00
 1.5639284660e+00	 1.7353517349e-01	-4.0619141101e+00
 1.5623610276e+00	 1.8712212881e-01	-3.1490739644e+00
 1.5606702902e+00	 2.0073589059e-01	-2.3864013490e+00
 1.5588553574e+00	 2.1437495392e-01	-1.7119761655e+00
 1.5569153543e+00	 2.2803778932e-01	-1.0634123732e+00
 1.5548494276e+00	 2.4172284301e-01	-3.7790457465e-01
 1.5526567467e+00	 2.5542853721e-01	 4.0772389011e-01
 1.5503365040e+00	 2.6915327050e-01	 1.3569713844e+00
 1.5766917319e+00	 1.3369529298e-01	-8.0619759133e+00
 1.5754818660e+00	 1.4726873345e-01	-6.0194739169e+00
 1.5741508341e+00	 1.6087351978e-01	-4.4205891677e+00
 1.5726976753e+00	 1.7450821432e-01	-3.1887273364e+00
 1.5711214480e+00	 1.8817135398e-01	-2.2467511047e+00
 1.5694212303e+00	 2.0186145041e-01	-1.5170444655e+00
 1.5675961210e+00	 2.1557699026e-01	-9.2157910979e-01
 1.5656452400e+00	 2.2931643547e-01	-3.8198287843e-01
 1.5635677293e+00	 2.4307822355e-01	 1.8038975272e-01
 1.5613627536e+00	 2.5686076787e-01	 8.4438520682e-01
 1.5590295009e+00	 2.7066245805e-01	 1.6889764256e+00
 1.5854832117e+00	 1.3444076493e-01	-7.0239274530e+00
 1.5842665997e+00	 1.4808988959e-01	-4.8086061710e+00
 1.5829281461e+00	 1.6177053488e-01	-3.1225897803e+00
 1.5814668847e+00	 1.7548125515e-01	-1.8760020482e+00
 1.5798818685e+00	 1.8922057915e-01	-9.7858988702e-01
 1.5781721705e+00	 2.0298701022e-01	-3.3980855310e-01
 1.5763368845e+00	 2.1677902659e-01	 1.3109070921e-01
 1.5743751256e+00	 2.3059508161e-01	 5.2497061747e-01
 1.5722860309e+00	 2.4443360408e-01	 9.3271545023e-01
 1.5700687605e+00	 2.5829299854e-01	 1.4451363689e+00
 1.5677224978e+00	 2.7217164560e-01	 2.1528745541e+00
 1.5942746915e+00	 1.3518623688e-01	-5.1779728814e+00
 1.5930513333e+00	 1.4891104572e-01	-2.9261804841e+00
 1.5917054580e+00	 1.6266754998e-01	-1.2655172359e+00
 1.5902360940e+00	 1.7645429599e-01	-9.5829694735e-02
 1.5886422889e+00	 1.9026980432e-01	 6.8313491792e-01
 1.5869231107e+00	 2.0411257004e-01	 1.1716240697e+00
 1.5850776481e+00	 2.1798106293e-01	 1.4697726356e+00
 1.5831050112e+00	 2.3187372776e-01	 1.6774930420e+00
 1.5810043325e+00	 2.4578898462e-01	 1.8943629155e+00
 1.5787747674e+00	 2.5972522920e-01	 2.2195103342e+00
 1.5764154947e+00	 2.7368083315e-01	 2.7514967991e+00
 1.6030661713e+00	 1.3593170884e-01	-2.5039374760e+00
 1.6018360670e+00	 1.4973220186e-01	-3.4830525470e-01
 1.6004827700e+00	 1.6356456508e-01	 1.1768897399e+00
 1.5990053033e+00	 1.7742733682e-01	 2.1791219077e+00
 1.5974027093e+00	 1.9131902949e-01	 2.7655773693e+00
 1.5956740509e+00	 2.0523812986e-01	 3.0430313082e+00
 1.5938184116e+00	 2.1918309926e-01	 3.1177226577e+00
 1.5918348968e+00	 2.3315237390e-01	 3.0952262168e+00
 1.5897226341e+00	 2.4714436516e-01	 3.0803222983e+00
 1.5874807743e+00	 2.6115745987e-01	 3.1768640318e+00
 1.5851084916e+00	 2.7519002070e-01	 3.4876424691e+00
 1.6118576511e+00	 1.3667718079e-01	 1.0179419736e+00
 1.6106208007e+00	 1.5055335800e-01	 2.9484215781e+00
 1.6092600820e+00	 1.6446158018e-01	 4.2303535799e+00
 1.6077745126e+00	 1.7840037765e-01	 4.9756244666e+00
 1.6061631297e+00	 1.9236825466e-01	 5.2953359936e+00
 1.6044249910e+00	 2.0636368968e-01	 5.2996659429e+00
 1.6025591752e+00	 2.2038513559e-01	 5.0977263730e+00
 1.6005647824e+00	 2.3443102005e-01	 4.7974194688e+00
 1.5984409358e+00	 2.4849974570e-01	 4.5052911225e+00
 1.5961867811e+00	 2.6258969053e-01	 4.3263823947e+00
 1.5938014885e+00	 2.7669920824e-01	 4.3640790317e+00
 1.5068715195e+00	 2.6160733276e-01	 1.5740434836e+00
 1.5044919947e+00	 2.7496193661e-01	 2.6419958950e+00
 1.5019870269e+00	 2.8833186380e-01	 3.3762349760e+00
 1.4993559022e+00	 3.0171549544e-01	 3.8212537609e+00
 1.4965979319e+00	 3.1511119125e-01	 4.0204614785e+00
 1.4937124529e+00	 3.2851728995e-01	 4.0161101962e+00
 1.4906988290e+00	 3.4193210972e-01	 3.8492221412e+00
 1.4875564508e+00	 3.5535394869e-01	 3.5595179224e+00
 1.4842847367e+00	 3.6878108538e-01	 3.1853458937e+00
 1.4808831335e+00	 3.8221177925e-01	 2.8174989127e+00
 1.4773511167e+00	 3.9564427119e-01	 2.5774242660e+00
 1.5155645164e+00	 2.6311652031e-01	 1.2901549632e+00
 1.5131712644e+00	 2.7654816559e-01	 2.3296017254e+00
 1.5106518457e+00	 2.8999522260e-01	 3.0417082360e+00
 1.5080055422e+00	 3.0345606313e-01	 3.4729549848e+00
 1.5052316614e+00	 3.1692903741e-01	 3.6686162664e+00
 1.5023295364e+00	 3.3041247460e-01	 3.6726811655e+00
 1.4992985273e+00	 3.4390468318e-01	 3.5277751952e+00
 1.4961380210e+00	 3.5740395145e-01	 3.2750828249e+00
 1.4928474327e+00	 3.7090854800e-01	 2.9543689582e+00
 1.4894262059e+00	 3.8441672225e-01	 2.6781449195e+00
 1.4858738132e+00	 3.9792670495e-01	 2.5479165530e+00
 1.5242575133e+00	 2.6462570786e-01	 1.1235301955e+00
 1.5218505340e+00	 2.7813439456e-01	 2.1378374996e+00
 1.5193166644e+00	 2.9165858140e-01	 2.8296305708e+00
 1.5166551823e+00	 3.0519663081e-01	 3.2458924429e+00
 1.5138653910e+00	 3.1874688358e-01	 3.4323486002e+00
 1.5109466200e+00	 3.3230765926e-01	 3.4333854956e+00
 1.5078982255e+00	 3.4587725664e-01	 3.2919696655e+00
 1.5047195911e+00	 3.5945395421e-01	 3.0495676853e+00
 1.5014101286e+00	 3.7303601062e-01	 2.7486578303e+00
 1.4979692783e+00	 3.8662166525e-01	 2.5181016627e+00
 1.4943965098e+00	 4.0020913871e-01	 2.4402187838e+00
 1.5329505102e+00	 2.6613489541e-01	 1.0771583138e+00
 1.5305298037e+00	 2.7972062354e-01	 2.0624498451e+00
 1.5279814831e+00	 2.9332194020e-01	 2.7300284930e+00
 1.5253048223e+00	 3.0693719849e-01	 3.1259225187e+00
 1.5224991205e+00	 3.2056472974e-01	 3.2949216084e+00
 1.5195637035e+00	 3.3420284392e-01	 3.2804960828e+00
 1.5164979237e+00	 3.4784983011e-01	 3.1247166164e+00
 1.5133011612e+00	 3.6150395697e-01	 2.8681747093e+00
 1.5099728245e+00	 3.7516347324e-01	 2.5582044186e+00
 1.5065123507e+00	 3.8882660825e-01	 2.3318699903e+00
 1.5029192063e+00	 4.0249157246e-01	 2.2550719893e+00
 1.5416435071e+00	 2.6764408295e-01	 1.1539967652e+00
 1.5392090733e+00	 2.8130685251e-01	 2.0993147936e+00
 1.5366463019e+00	 2.9498529900e-01	 2.7331841351e+00
 1.5339544623e+00	 3.0867776617e-01	 3.0992479515e+00
 1.5311328501e+00	 3.2238257590e-01	 3.2399994417e+00
 1.5281807870e+00	 3.3609802858e-01	 3.1967048723e+00
 1.5250976219e+00	 3.4982240357e-01	 3.0093269967e+00
 1.5218827314e+00	 3.6355395973e-01	 2.7164491024e+00
 1.5185355205e+00	 3.7729093586e-01	 2.3722027772e+00
 1.5150554231e+00	 3.9103155125e-01	 2.1140568632e+00
 1.5114419029e+00	 4.0477400622e-01	 1.9941828834e+00
 1.5503365040e+00	 2.6915327050e-01	 1.3569713844e+00
 1.5478883430e+00	 2.8289308149e-01	 2.2444331165e+00
 1.5453111206e+00	 2.9664865780e-01	 2.8296268105e+00
 1.5426041024e+00	 3.1041833386e-01	 3.1524066001e+00
 1.5397665797e+00	 3.2420042207e-01	 3.2516342357e+00
 1.5367978705e+00	 3.3799321323e-01	 3.1651090321e+00
 1.5336973201e+00	 3.5179497703e-01	 2.9294980552e+00
 1.5304643015e+00	 3.6560396249e-01	 2.5802667700e+00
 1.5270982164e+00	 3.7941839848e-01	 2.1800533964e+00
 1.5235984955e+00	 3.9323649426e-01	 1.8593511864e+00
 1.5199645994e+00	 4.0705643998e-01	 1.6591779945e+00
 1.5590295009e+00	 2.7066245805e-01	 1.6889764256e+00
 1.5565676126e+00	 2.8447931046e-01	 2.4939257745e+00
 1.5539759394e+00	 2.9831201659e-01	 3.0101248079e+00
 1.5512537424e+00	 3.1215890154e-01	 3.2722605302e+00
 1.5484003092e+00	 3.2601826823e-01	 3.3142534529e+00
 1.5454149540e+00	 3.3988839789e-01	 3.1691975296e+00
 1.5422970183e+00	 3.5376755049e-01	 2.8693001437e+00
 1.5390458716e+00	 3.6765396525e-01	 2.4458223569e+00
 1.5356609123e+00	 3.8154586110e-01	 1.9713566337e+00
 1.5321415679e+00	 3.9544143726e-01	 1.5625207691e+00
 1.5284872959e+00	 4.0933887373e-01	 1.2516052133e+00
 1.5677224978e+00	 2.7217164560e-01	 2.1528745541e+00
 1.5652468823e+00	 2.8606553943e-01	 2.8440294740e+00
 1.5626407581e+00	 2.9997537539e-01	 3.2656774123e+00
 1.5599033824e+00	 3.1389946922e-01	 3.4459854128e+00
 1.5570340388e+00	 3.2783611439e-01	 3.4126475905e+00
 1.5540320375e+00	 3.4178358255e-01	 3.1928380927e+00
 1.5508967165e+00	 3.5574012396e-01	 2.8131638941e+00
 1.5476274418e+00	 3.6970396801e-01	 2.2996176143e+00
 1.5442236082e+00	 3.8367332372e-01	 1.7359063920e+00
 1.5406846403e+00	 3.9764638026e-01	 1.2184094171e+00
 1.5370099925e+00	 4.1162130749e-01	 7.7293532181e-01
 1.5764154947e+00	 2.7368083315e-01	 2.7514967991e+00
 1.5739261520e+00	 2.8765176841e-01	 3.2910923280e+00
 1.5713055768e+00	 3.0163873419e-01	 3.5875071417e+00
 1.5685530225e+00	 3.1564003690e-01	 3.6610602220e+00
 1.5656677684e+00	 3.2965396056e-01	 3.5319582375e+00
 1.5626491211e+00	 3.4367876720e-01	 3.2202645417e+00
 1.5594964147e+00	 3.5771269742e-01	 2.7458677531e+00
 1.5562090119e+00	 3.7175397077e-01	 2.1290365639e+00
 1.5527863042e+00	 3.8580078635e-01	 1.4636840334e+00
 1.5492277127e+00	 3.9985132326e-01	 8.2193414991e-01
 1.5455326890e+00	 4.1390374125e-01	 2.2456350350e-01
 1.5851084916e+00	 2.7519002070e-01	 3.4876424691e+00
 1.5826054216e+00	 2.8923799738e-01	 3.8315696170e+00
 1.5799703956e+00	 3.0330209299e-01	 3.9670521935e+00
 1.5772026625e+00	 3.1738060459e-01	 3.9052572206e+00
 1.5743014979e+00	 3.3147180672e-01	 3.6576664698e+00
 1.5712662046e+00	 3.4557395186e-01	 3.2360644779e+00
 1.5680961129e+00	 3.5968527088e-01	 2.6525258622e+00
 1.5647905820e+00	 3.7380397353e-01	 1.9229906922e+00
 1.5613490001e+00	 3.8792824897e-01	 1.1448525223e+00
 1.5577707851e+00	 4.0205626627e-01	 3.6808254132e-01
 1.5540553856e+00	 4.1618617500e-01	-3.9218916266e-01
 1.5938014885e+00	 2.7669920824e-01	 4.3640790317e+00
 1.5912846913e+00	 2.9082422635e-01	 4.4620196462e+00
 1.5886352143e+00	 3.0496545179e-01	 4.3959590897e+00
 1.5858523025e+00	 3.1912117227e-01	 4.1666322220e+00
 1.5829352275e+00	 3.3328965288e-01	 3.7755815693e+00
 1.5798832881e+00	 3.4746913652e-01	 3.2251673145e+00
 1.5766958111e+00	 3.6165784435e-01	 2.5185762694e+00
 1.5733721522e+00	 3.7585397630e-01	 1.6687202684e+00
 1.5699116960e+00	 3.9005571159e-01	 7.6975078652e-01
 1.5663138575e+00	 4.0426120927e-01	-1.4808982469e-01
 1.5625780821e+00	 4.1846860876e-01	-1.0760742256e+00
 1.4773511167e+00	 3.9564427119e-01	 2.5774242660e+00
 1.4736881920e+00	 4.0907678431e-01	 2.5549692698e+00
 1.4698938963e+00	 4.2250752502e-01	 2.7772890988e+00
 1.4659677976e+00	 4.3593468314e-01	 3.1894588175e+00
 1.4619094952e+00	 4.4935643230e-01	 3.7380790218e+00
 1.4577186201e+00	 4.6277093058e-01	 4.3713928853e+00
 1.4533948358e+00	 4.7617632115e-01	 5.0393999926e+00
 1.4489378386e+00	 4.8957073294e-01	 5.6939665496e+00
 1.4443473582e+00	 5.0295228133e-01	 6.2889315705e+00
 1.4396231580e+00	 5.1631906883e-01	 6.7802086541e+00
 1.4347650360e+00	 5.2966918584e-01	 7.1258829757e+00
 1.4858738132e+00	 3.9792670495e-01	 2.5479165530e+00
 1.4821897575e+00	 4.1143670894e-01	 2.6795140370e+00
 1.4783735728e+00	 4.2494493030e-01	 3.1162181328e+00
 1.4744248249e+00	 4.3844954841e-01	 3.7872650610e+00
 1.4703431105e+00	 4.5194872635e-01	 4.6223209660e+00
 1.4661280587e+00	 4.6544061158e-01	 5.5526202883e+00
 1.4617793309e+00	 4.7892333656e-01	 6.5111355177e+00
 1.4572966217e+00	 4.9239501943e-01	 7.4327111446e+00
 1.4526796592e+00	 5.0585376468e-01	 8.2541938710e+00
 1.4479282056e+00	 5.1929766389e-01	 8.9145586553e+00
 1.4430420576e+00	 5.3272479644e-01	 9.3550301792e+00
 1.4943965098e+00	 4.0020913871e-01	 2.4402187838e+00
 1.4906913229e+00	 4.1379663358e-01	 2.6597107605e+00
 1.4868532494e+00	 4.2738233559e-01	 3.2397245990e+00
 1.4828818521e+00	 4.4096441368e-01	 4.0951833739e+00
 1.4787767258e+00	 4.5454102040e-01	 5.1426918922e+00
 1.4745374972e+00	 4.6811029258e-01	 6.3022311595e+00
 1.4701638260e+00	 4.8167035197e-01	 7.4939782196e+00
 1.4656554048e+00	 4.9521930591e-01	 8.6397602072e+00
 1.4610119603e+00	 5.0875524803e-01	 9.6633595775e+00
 1.4562332532e+00	 5.2227625896e-01	 1.0490658001e+01
 1.4513190791e+00	 5.3578040705e-01	 1.1049775884e+01
 1.5029192063e+00	 4.0249157246e-01	 2.2550719893e+00
 1.4991928884e+00	 4.1615655821e-01	 2.5007304284e+00
 1.4953329259e+00	 4.2981974087e-01	 3.1552792752e+00
 1.4913388794e+00	 4.4347927894e-01	 4.1254258453e+00
 1.4872103411e+00	 4.5713331445e-01	 5.3187075701e+00
 1.4829469358e+00	 4.7077997358e-01	 6.6436534272e+00
 1.4785483210e+00	 4.8441736738e-01	 8.0109265641e+00
 1.4740141879e+00	 4.9804359239e-01	 9.3356028736e+00
 1.4693442613e+00	 5.1165673138e-01	 1.0532474410e+01
 1.4645383008e+00	 5.2525485402e-01	 1.1518104640e+01
 1.4595961006e+00	 5.3883601765e-01	 1.2211196530e+01
 1.5114419029e+00	 4.0477400622e-01	 1.9941828834e+00
 1.5076944539e+00	 4.1851648284e-01	 2.2115254690e+00
 1.5038126025e+00	 4.3225714616e-01	 2.8769198161e+00
 1.4997959067e+00	 4.4599414421e-01	 3.8929771405e+00
 1.4956439564e+00	 4.5972560850e-01	 5.1628988787e+00
 1.4913563743e+00	 4.7344965458e-01	 6.5906405427e+00
 1.4869328161e+00	 4.8716438279e-01	 8.0810796599e+00
 1.4823729709e+00	 5.0086787888e-01	 9.5401877022e+00
 1.4776765623e+00	 5.1455821473e-01	 1.0877241073e+01
 1.4728433483e+00	 5.2823344908e-01	 1.2006296084e+01
 1.4678731222e+00	 5.4189162826e-01	 1.2840357129e+01
 1.5199645994e+00	 4.0705643998e-01	 1.6591779945e+00
 1.5161960194e+00	 4.2087640747e-01	 1.8008029292e+00
 1.5122922790e+00	 4.3469455144e-01	 2.4190097925e+00
 1.5082529339e+00	 4.4850900948e-01	 3.4163629099e+00
 1.5040775717e+00	 4.6231790255e-01	 4.6957259183e+00
 1.4997658129e+00	 4.7611933558e-01	 6.1604218390e+00
 1.4953173111e+00	 4.8991139820e-01	 7.7143976936e+00
 1.4907317540e+00	 5.0369216536e-01	 9.2623935829e+00
 1.4860088634e+00	 5.1745969808e-01	 1.0710116126e+01
 1.4811483959e+00	 5.3121204414e-01	 1.1964434020e+01
 1.4761501437e+00	 5.4494723886e-01	 1.2938310434e+01
 1.5284872959e+00	 4.0933887373e-01	 1.2516052133e+00
 1.5246975849e+00	 4.2323633211e-01	 1.2770307039e+00
 1.5207719556e+00	 4.3713195673e-01	 1.7955450916e+00
 1.5167099612e+00	 4.5102387475e-01	 2.7136461502e+00
 1.5125111870e+00	 4.6491019660e-01	 3.9377894551e+00
 1.5081752515e+00	 4.7878901658e-01	 5.3745385252e+00
 1.5037018062e+00	 4.9265841361e-01	 6.9307199313e+00
 1.4990905371e+00	 5.0651645185e-01	 8.5135833205e+00
 1.4943411644e+00	 5.2036118143e-01	 1.0030966281e+01
 1.4894534435e+00	 5.3419063921e-01	 1.1391463938e+01
 1.4844271652e+00	 5.4800284947e-01	 1.2504603151e+01
 1.5370099925e+00	 4.1162130749e-01	 7.7293532181e-01
 1.5331991503e+00	 4.2559625674e-01	 6.4844359181e-01
 1.5292516321e+00	 4.3956936201e-01	 1.0201636237e+00
 1.5251669885e+00	 4.5353874002e-01	 1.8024396406e+00
 1.5209448024e+00	 4.6750249064e-01	 2.9091819613e+00
 1.5165846900e+00	 4.8145869758e-01	 4.2540011156e+00
 1.5120863013e+00	 4.9540542902e-01	 5.7503473180e+00
 1.5074493201e+00	 5.0934073833e-01	 7.3116552889e+00
 1.5026734654e+00	 5.2326266478e-01	 8.8514943814e+00
 1.4977584911e+00	 5.3716923427e-01	 1.0283723946e+01
 1.4927041868e+00	 5.5105846007e-01	 1.1522653826e+01
 1.5455326890e+00	 4.1390374125e-01	 2.2456350350e-01
 1.5417007158e+00	 4.2795618137e-01	-7.6950811780e-02
 1.5377313087e+00	 4.4200676730e-01	 1.0615474644e-01
 1.5336240157e+00	 4.5605360529e-01	 6.9991800728e-01
 1.5293784177e+00	 4.7009478469e-01	 1.6295013872e+00
 1.5249941286e+00	 4.8412837858e-01	 2.8193039355e+00
 1.5204707963e+00	 4.9815244443e-01	 4.1930791016e+00
 1.5158081032e+00	 5.1216502481e-01	 5.6740582575e+00
 1.5110057664e+00	 5.2616414813e-01	 7.1850799818e+00
 1.5060635386e+00	 5.4014782933e-01	 8.6487250793e+00
 1.5009812083e+00	 5.5411407067e-01	 9.9874572807e+00
 1.5540553856e+00	 4.1618617500e-01	-3.9218916266e-01
 1.5502022813e+00	 4.3031610601e-01	-8.9136638285e-01
 1.5462109852e+00	 4.4444417258e-01	-9.3353158439e-01
 1.5420810430e+00	 4.5856847056e-01	-5.7717056783e-01
 1.5378120330e+00	 4.7268707874e-01	 1.1786452481e-01
 1.5334035671e+00	 4.8679805958e-01	 1.0904391967e+00
 1.5288552914e+00	 5.0089945984e-01	 2.2782266367e+00
 1.5241668863e+00	 5.1498931130e-01	 3.6178039031e+00
 1.5193380675e+00	 5.2906563148e-01	 5.0447543106e+00
 1.5143685862e+00	 5.4312642439e-01	 6.4937760513e+00
 1.5092582298e+00	 5.5716968127e-01	 7.8987970474e+00
 1.5625780821e+00	 4.1846860876e-01	-1.0760742256e+00
 1.5587038468e+00	 4.3267603064e-01	-1.7872328883e+00
 1.5546906618e+00	 4.4688157787e-01	-2.0862759248e+00
 1.5505380703e+00	 4.6108333583e-01	-2.0124929816e+00
 1.5462456483e+00	 4.7527937279e-01	-1.6070800233e+00
 1.5418130057e+00	 4.8946774058e-01	-9.1308934215e-01
 1.5372397864e+00	 5.0364647525e-01	 2.4626787246e-02
 1.5325256694e+00	 5.1781359778e-01	 1.1594789640e+00
 1.5276703685e+00	 5.3196711483e-01	 2.4432101513e+00
 1.5226736338e+00	 5.4610501945e-01	 3.8259718966e+00
 1.5175352514e+00	 5.6022529188e-01	 5.2564073423e+00
 1.4347650360e+00	 5.2966918584e-01	 7.1258829757e+00
 1.4297719645e+00	 5.4300297606e-01	 7.2396209178e+00
 1.4246446250e+00	 5.5631623520e-01	 7.0949482996e+00
 1.4193829200e+00	 5.6960702012e-01	 6.7412333536e+00
 1.4139867881e+00	 5.8287337855e-01	 6.2273533064e+00
 1.4084562042e+00	 5.9611334994e-01	 5.6016147683e+00
 1.4027911802e+00	 6.0932496624e-01	 4.9116695967e+00
 1.3969917650e+00	 6.2250625276e-01	 4.2044262842e+00
 1.3910580450e+00	 6.3565522902e-01	 3.5259569571e+00
 1.3849901442e+00	 6.4876990960e-01	 2.9214000976e+00
 1.3787882249e+00	 6.6184830499e-01	 2.4348591360e+00
 1.4430420576e+00	 5.3272479644e-01	 9.3550301792e+00
 1.4380201815e+00	 5.4613550802e-01	 9.4493450393e+00
 1.4328632628e+00	 5.5952557007e-01	 9.1572078458e+00
 1.4275712036e+00	 5.7289302825e-01	 8.5505461399e+00
 1.4221439419e+00	 5.8623591903e-01	 7.7009825915e+00
 1.4165814526e+00	 5.9955227053e-01	 6.6797256694e+00
 1.4108837477e+00	 6.1284010338e-01	 5.5574549582e+00
 1.4050508762e+00	 6.2609743148e-01	 4.4042012105e+00
 1.3990829251e+00	 6.3932226292e-01	 3.2892212571e+00
 1.3929800192e+00	 6.5251260082e-01	 2.2808679303e+00
 1.3867423216e+00	 6.6566644422e-01	 1.4464551918e+00
 1.4513190791e+00	 5.3578040705e-01	 1.1049775884e+01
 1.4462683985e+00	 5.4926803997e-01	 1.1175746799e+01
 1.4410819007e+00	 5.6273490494e-01	 1.0809488998e+01
 1.4357594872e+00	 5.7617903638e-01	 1.0039922689e+01
 1.4303010957e+00	 5.8959845950e-01	 8.9558771764e+00
 1.4247067010e+00	 6.0299119113e-01	 7.6459595228e+00
 1.4189763151e+00	 6.1635524052e-01	 6.1984170881e+00
 1.4131099874e+00	 6.2968861020e-01	 4.7009940646e+00
 1.4071078052e+00	 6.4298929682e-01	 3.2407821550e+00
 1.4009698942e+00	 6.5625529205e-01	 1.9040655801e+00
 1.3946964183e+00	 6.6948458346e-01	 7.7616063689e-01
 1.4595961006e+00	 5.3883601765e-01	 1.2211196530e+01
 1.4545166154e+00	 5.5240057193e-01	 1.2410817881e+01
 1.4493005385e+00	 5.6594423981e-01	 1.2035758236e+01
 1.4439477707e+00	 5.7946504451e-01	 1.1186458620e+01
 1.4384582495e+00	 5.9296099998e-01	 9.9635107705e+00
 1.4328319495e+00	 6.0643011173e-01	 8.4675114198e+00
 1.4270688825e+00	 6.1987037766e-01	 6.7989097502e+00
 1.4211690985e+00	 6.3327978891e-01	 5.0578481553e+00
 1.4151326853e+00	 6.4665633071e-01	 3.3439964651e+00
 1.4089597691e+00	 6.5999798328e-01	 1.7563798425e+00
 1.4026505149e+00	 6.7330272269e-01	 3.9320059110e-01
 1.4678731222e+00	 5.4189162826e-01	 1.2840357129e+01
 1.4627648324e+00	 5.5553310389e-01	 1.3146739912e+01
 1.4575191764e+00	 5.6915357468e-01	 1.2820349112e+01
 1.4521360543e+00	 5.8275105264e-01	 1.1967767389e+01
 1.4466154033e+00	 5.9632354046e-01	 1.0695997192e+01
 1.4409571979e+00	 6.0986903233e-01	 9.1123082187e+00
 1.4351614500e+00	 6.2338551481e-01	 7.3240774122e+00
 1.4292282097e+00	 6.3687096763e-01	 5.4386216119e+00
 1.4231575654e+00	 6.5032336461e-01	 3.5630230327e+00
 1.4169496441e+00	 6.6374067451e-01	 1.8039477786e+00
 1.4106046116e+00	 6.7712086192e-01	 2.6745764150e-01
 1.4761501437e+00	 5.4494723886e-01	 1.2938310434e+01
 1.4710130494e+00	 5.5866563585e-01	 1.3375877833e+01
 1.4657378143e+00	 5.7236290955e-01	 1.3147950504e+01
 1.4603243379e+00	 5.8603706077e-01	 1.2361964154e+01
 1.4547725572e+00	 5.9968608093e-01	 1.1126070632e+01
 1.4490824463e+00	 6.1330795293e-01	 9.5489860649e+00
 1.4432540174e+00	 6.2690065195e-01	 7.7398309315e+00
 1.4372873208e+00	 6.4046214635e-01	 5.8079622077e+00
 1.4311824455e+00	 6.5399039851e-01	 3.8627977255e+00
 1.4249395191e+00	 6.6748336574e-01	 2.0136329606e+00
 1.4185587083e+00	 6.8093900116e-01	 3.6945048916e-01
 1.4844271652e+00	 5.4800284947e-01	 1.2504603151e+01
 1.4792612664e+00	 5.6179816781e-01	 1.3090773459e+01
 1.4739564521e+00	 5.7557224442e-01	 1.3003595220e+01
 1.4685126215e+00	 5.8932306890e-01	 1.2347650131e+01
 1.4629297110e+00	 6.0304862141e-01	 1.1227066538e+01
 1.4572076947e+00	 6.1674687353e-01	 9.7468686161e+00
 1.4513465848e+00	 6.3041578909e-01	 8.0128240074e+00
 1.4453464320e+00	 6.4405332506e-01	 6.1312829754e+00
 1.4392073256e+00	 6.5765743241e-01	 4.2090092074e+00
 1.4329293940e+00	 6.7122605697e-01	 2.3530024564e+00
 1.4265128050e+00	 6.8475714039e-01	 6.7031325176e-01
 1.4927041868e+00	 5.5105846007e-01	 1.1522653826e+01
 1.4875094834e+00	 5.6493069976e-01	 1.2277249528e+01
 1.4821750900e+00	 5.7878157929e-01	 1.2372552199e+01
 1.4767009051e+00	 5.9260907703e-01	 1.1903897437e+01
 1.4710868648e+00	 6.0641116189e-01	 1.0972903084e+01
 1.4653329431e+00	 6.2018579413e-01	 9.6759459469e+00
 1.4594391523e+00	 6.3393092623e-01	 8.1104303669e+00
 1.4534055432e+00	 6.4764450378e-01	 6.3747385831e+00
 1.4472322057e+00	 6.6132446630e-01	 4.5680754656e+00
 1.4409192690e+00	 6.7496874819e-01	 2.7903045245e+00
 1.4344669017e+00	 6.8857527963e-01	 1.1417753966e+00
 1.5009812083e+00	 5.5411407067e-01	 9.9874572807e+00
 1.4957577004e+00	 5.6806323172e-01	 1.0909547371e+01
 1.4903937278e+00	 5.8199091416e-01	 1.1224335444e+01
 1.4848891887e+00	 5.9589508516e-01	 1.1007665928e+01
 1.4792440186e+00	 6.0977370236e-01	 1.0338063216e+01
 1.4734581915e+00	 6.2362471472e-01	 9.3068541051e+00
 1.4675317197e+00	 6.3744606338e-01	 8.0007216588e+00
 1.4614646543e+00	 6.5123568250e-01	 6.5052024414e+00
 1.4552570858e+00	 6.6499150020e-01	 4.9071210618e+00
 1.4489091440e+00	 6.7871143942e-01	 3.2944469914e+00
 1.4424209984e+00	 6.9239341886e-01	 1.7561422799e+00
 1.5092582298e+00	 5.5716968127e-01	 7.8987970474e+00
 1.5040059173e+00	 5.7119576368e-01	 8.9785162351e+00
 1.4986123657e+00	 5.8520024903e-01	 9.5322371313e+00
 1.4930774723e+00	 5.9918109329e-01	 9.6163761332e+00
 1.4874011724e+00	 6.1313624284e-01	 9.2892057101e+00
 1.4815834399e+00	 6.2706363532e-01	 8.6108529449e+00
 1.4756242871e+00	 6.4096120052e-01	 7.6524460266e+00
 1.4695237655e+00	 6.5482686121e-01	 6.4902445137e+00
 1.4632819659e+00	 6.6865853409e-01	 5.1939550788e+00
 1.4568990189e+00	 6.8245413065e-01	 3.8349762853e+00
 1.4503750951e+00	 6.9621155809e-01	 2.4862762688e+00
 1.5175352514e+00	 5.6022529188e-01	 5.2564073423e+00
 1.5122541343e+00	 5.7432829563e-01	 6.4760573703e+00
 1.5068310035e+00	 5.8840958390e-01	 7.2812402602e+00
 1.5012657558e+00	 6.0246710142e-01	 7.7040806108e+00
 1.4955583263e+00	 6.1649878331e-01	 7.7789464260e+00
 1.4897086883e+00	 6.3050255592e-01	 7.5424863159e+00
 1.4837168546e+00	 6.4447633766e-01	 7.0336673850e+00
 1.4775828767e+00	 6.5841803993e-01	 6.2981098031e+00
 1.4713068460e+00	 6.7232556799e-01	 5.3970497374e+00
 1.4648888939e+00	 6.8619682187e-01	 4.3820571021e+00
 1.4583291918e+00	 7.0002969732e-01	 3.3055784240e+00
 1.3787882249e+00	 6.6184830499e-01	 2.4348591360e+00
 1.3724535755e+00	 6.7488620921e-01	 2.0835637286e+00
 1.3659853912e+00	 6.8788385397e-01	 1.8435122134e+00
 1.3593839483e+00	 7.0083924323e-01	 1.6970852351e+00
 1.3526495623e+00	 7.1375038049e-01	 1.6276544566e+00
 1.3457825872e+00	 7.2661526967e-01	 1.6195626571e+00
 1.3387834164e+00	 7.3943191608e-01	 1.6580988585e+00
 1.3316524825e+00	 7.5219832734e-01	 1.7179716202e+00
 1.3243902571e+00	 7.6491251433e-01	 1.7678675813e+00
 1.3169972515e+00	 7.7757249215e-01	 1.7925884114e+00
 1.3094740159e+00	 7.9017628106e-01	 1.7776089797e+00
 1.3867423216e+00	 6.6566644422e-01	 1.4464551918e+00
 1.3803711282e+00	 6.7877956286e-01	 8.4209799445e-01
 1.3738656295e+00	 6.9185218978e-01	 4.5776923800e-01
 1.3672261036e+00	 7.0488231744e-01	 2.6171923950e-01
 1.3604528675e+00	 7.1786793780e-01	 2.2305494793e-01
 1.3535462775e+00	 7.3080704329e-01	 3.1173674210e-01
 1.3465067292e+00	 7.4369762770e-01	 4.9781446093e-01
 1.3393346576e+00	 7.5653768716e-01	 7.3326363659e-01
 1.3320305372e+00	 7.6932522108e-01	 9.7977551626e-01
 1.3245948820e+00	 7.8205823309e-01	 1.2075005607e+00
 1.3170282456e+00	 7.9473473205e-01	 1.3870704911e+00
 1.3946964183e+00	 6.6948458346e-01	 7.7616063689e-01
 1.3882886809e+00	 6.8267291651e-01	-5.0966864444e-02
 1.3817458679e+00	 6.9582052559e-01	-5.7079069642e-01
 1.3750682589e+00	 7.0892539164e-01	-8.2592173257e-01
 1.3682561728e+00	 7.2198549512e-01	-8.5822767253e-01
 1.3613099679e+00	 7.3499881692e-01	-7.0882377964e-01
 1.3542300420e+00	 7.4796333933e-01	-4.2253531709e-01
 1.3470168327e+00	 7.6087704699e-01	-6.1272791411e-02
 1.3396708172e+00	 7.7373792783e-01	 3.3060717374e-01
 1.3321925125e+00	 7.8654397404e-01	 7.1178661078e-01
 1.3245824753e+00	 7.9929318304e-01	 1.0413670517e+00
 1.4026505149e+00	 6.7330272269e-01	 3.9320059110e-01
 1.3962062336e+00	 6.8656627016e-01	-6.2160128083e-01
 1.3896261063e+00	 6.9978886140e-01	-1.2633047707e+00
 1.3829104142e+00	 7.1296846585e-01	-1.5821667284e+00
 1.3760594780e+00	 7.2610305243e-01	-1.6277935579e+00
 1.3690736582e+00	 7.3919059054e-01	-1.4491236862e+00
 1.3619533548e+00	 7.5222905095e-01	-1.1056927901e+00
 1.3546990078e+00	 7.6521640681e-01	-6.6401172672e-01
 1.3473110973e+00	 7.7815063457e-01	-1.7407288949e-01
 1.3397901430e+00	 7.9102971498e-01	 3.1460179622e-01
 1.3321367050e+00	 8.0385163402e-01	 7.5284153976e-01
 1.4106046116e+00	 6.7712086192e-01	 2.6745764150e-01
 1.4041237863e+00	 6.9045962381e-01	-8.9523303438e-01
 1.3975063447e+00	 7.0375719722e-01	-1.6404831832e+00
 1.3907525695e+00	 7.1701154006e-01	-2.0230331029e+00
 1.3838627833e+00	 7.3022060975e-01	-2.0970448354e+00
 1.3768373485e+00	 7.4338236417e-01	-1.9166694582e+00
 1.3696766676e+00	 7.5649476258e-01	-1.5542409140e+00
 1.3623811830e+00	 7.6955576664e-01	-1.0734004918e+00
 1.3549513773e+00	 7.8256334132e-01	-5.2886248647e-01
 1.3473877735e+00	 7.9551545592e-01	 2.4857832553e-02
 1.3396909347e+00	 8.0841008501e-01	 5.3352136701e-01
 1.4185587083e+00	 6.8093900116e-01	 3.6945048916e-01
 1.4120413390e+00	 6.9435297746e-01	-8.9676559104e-01
 1.4053865830e+00	 7.0772553303e-01	-1.7226244549e+00
 1.3985947248e+00	 7.2105461427e-01	-2.1642388032e+00
 1.3916660885e+00	 7.3433816707e-01	-2.2771949189e+00
 1.3846010389e+00	 7.4757413779e-01	-2.1204013881e+00
 1.3773999804e+00	 7.6076047421e-01	-1.7707409143e+00
 1.3700633581e+00	 7.7389512646e-01	-1.2879577800e+00
 1.3625916574e+00	 7.8697604807e-01	-7.2851736850e-01
 1.3549854040e+00	 8.0000119686e-01	-1.4877032997e-01
 1.3472451643e+00	 8.1296853600e-01	 3.9512729769e-01
 1.4265128050e+00	 6.8475714039e-01	 6.7031325176e-01
 1.4199588917e+00	 6.9824633111e-01	-6.5059588975e-01
 1.4132668214e+00	 7.1169386884e-01	-1.5296302858e+00
 1.4064368800e+00	 7.2509768847e-01	-2.0212143082e+00
 1.3994693938e+00	 7.3845572439e-01	-2.1792775786e+00
 1.3923647292e+00	 7.5176591142e-01	-2.0672230555e+00
 1.3851232932e+00	 7.6502618583e-01	-1.7577330797e+00
 1.3777455332e+00	 7.7823448629e-01	-1.3062718105e+00
 1.3702319374e+00	 7.9138875482e-01	-7.6794692025e-01
 1.3625830345e+00	 8.0448693781e-01	-1.9783795617e-01
 1.3547993940e+00	 8.1752698699e-01	 3.4908199689e-01
 1.4344669017e+00	 6.8857527963e-01	 1.1417753966e+00
 1.4278764444e+00	 7.0213968476e-01	-1.8063159827e-01
 1.4211470598e+00	 7.1566220466e-01	-1.0810199809e+00
 1.4142790353e+00	 7.2914076268e-01	-1.6091142376e+00
 1.4072726991e+00	 7.4257328170e-01	-1.8144307261e+00
 1.4001284195e+00	 7.5595768504e-01	-1.7637354729e+00
 1.3928466060e+00	 7.6929189746e-01	-1.5177375097e+00
 1.3854277083e+00	 7.8257384612e-01	-1.1269985225e+00
 1.3778722174e+00	 7.9580146157e-01	-6.4220997649e-01
 1.3701806650e+00	 8.0897267875e-01	-1.1412417106e-01
 1.3623536237e+00	 8.2208543798e-01	 4.0651831767e-01
 1.4424209984e+00	 6.9239341886e-01	 1.7561422799e+00
 1.4357939971e+00	 7.0603303841e-01	 4.8969214173e-01
 1.4290272981e+00	 7.1963054047e-01	-3.9594446080e-01
 1.4221211906e+00	 7.3318383689e-01	-9.4282864140e-01
 1.4150760043e+00	 7.4669083902e-01	-1.1953298909e+00
 1.4078921099e+00	 7.6014945867e-01	-1.2164298219e+00
 1.4005699188e+00	 7.7355760909e-01	-1.0532548180e+00
 1.3931098834e+00	 7.8691320594e-01	-7.4885981062e-01
 1.3855124975e+00	 8.0021416831e-01	-3.4651075598e-01
 1.3777782955e+00	 8.1345841969e-01	 1.1037420712e-01
 1.3699078534e+00	 8.2664388897e-01	 5.7828733743e-01
 1.4503750951e+00	 6.9621155809e-01	 2.4862762688e+00
 1.4437115498e+00	 7.0992639206e-01	 1.3373964605e+00
 1.4369075365e+00	 7.2359887628e-01	 5.0680012487e-01
 1.4299633459e+00	 7.3722691109e-01	-3.6993983675e-02
 1.4228793096e+00	 7.5080839633e-01	-3.3282462996e-01
 1.4156558002e+00	 7.6434123229e-01	-4.3169063543e-01
 1.4082932316e+00	 7.7782332071e-01	-3.6676679360e-01
 1.4007920586e+00	 7.9125256577e-01	-1.7064179650e-01
 1.3931527775e+00	 8.0462687506e-01	 1.2380509221e-01
 1.3853759260e+00	 8.1794416063e-01	 4.8344865318e-01
 1.3774620831e+00	 8.3120233995e-01	 8.7496615310e-01
 1.4583291918e+00	 7.0002969732e-01	 3.3055784240e+00
 1.4516291026e+00	 7.1381974571e-01	 2.3399429781e+00
 1.4447877749e+00	 7.2756721209e-01	 1.6087591684e+00
 1.4378055012e+00	 7.4126998530e-01	 1.0939725540e+00
 1.4306826148e+00	 7.5492595365e-01	 7.6283131739e-01
 1.4234194906e+00	 7.6853300592e-01	 5.8420114253e-01
 1.4160165444e+00	 7.8208903234e-01	 5.3926297922e-01
 1.4084742337e+00	 7.9559192559e-01	 6.0880686216e-01
 1.4007930576e+00	 8.0903958181e-01	 7.7325433410e-01
 1.3929735565e+00	 8.2242990157e-01	 1.0126847475e+00
 1.3850163128e+00	 8.3576079094e-01	 1.3068654444e+00
 1.3094740159e+00	 7.9017628106e-01	 1.7776089797e+00
 1.3018211405e+00	 8.0272190770e-01	 1.7219765389e+00
 1.2940392556e+00	 8.1520740681e-01	 1.6413088226e+00
 1.2861290314e+00	 8.2763082149e-01	 1.5458342414e+00
 1.2780911770e+00	 8.3999020390e-01	 1.4450775285e+00
 1.2699264403e+00	 8.5228361624e-01	 1.3478474200e+00
 1.2616356082e+00	 8.6450913168e-01	 1.2622272660e+00
 1.2532195063e+00	 8.7666483536e-01	 1.1955685505e+00
 1.2446789982e+00	 8.8874882534e-01	 1.1544872822e+00
 1.2360149861e+00	 9.0075921351e-01	 1.1448632031e+00
 1.2272284097e+00	 9.1269412663e-01	 1.1718417471e+00
 1.3170282456e+00	 7.9473473205e-01	 1.3870704911e+00
 1.3093312214e+00	 8.0735273320e-01	 1.4952927953e+00
 1.3015044437e+00	 8.1991025995e-01	 1.5388572624e+00
 1.2935485861e+00	 8.3240534412e-01	 1.5331422568e+00
 1.2854643621e+00	 8.4483602662e-01	 1.4928897093e+00
 1.2772525238e+00	 8.5720035847e-01	 1.4321861286e+00
 1.2689138627e+00	 8.6949640173e-01	 1.3644464791e+00
 1.2604492091e+00	 8.8172223050e-01	 1.3024009109e+00
 1.2518594317e+00	 8.9387593185e-01	 1.2580843115e+00
 1.2431454377e+00	 9.0595560681e-01	 1.2428286351e+00
 1.2343081724e+00	 9.1795937128e-01	 1.2672579474e+00
 1.3245824753e+00	 7.9929318304e-01	 1.0413670517e+00
 1.3168413024e+00	 8.1198355870e-01	 1.2765295720e+00
 1.3089696317e+00	 8.2461311310e-01	 1.4149777270e+00
 1.3009681408e+00	 8.3717986675e-01	 1.4765074659e+00
 1.2928375472e+00	 8.4968184934e-01	 1.4803058490e+00
 1.2845786073e+00	 8.6211710070e-01	 1.4449261866e+00
 1.2761921173e+00	 8.7448367179e-01	 1.3882660434e+00
 1.2676789119e+00	 8.8677962564e-01	 1.3275481007e+00
 1.2590398651e+00	 8.9900303837e-01	 1.2793038516e+00
 1.2502758893e+00	 9.1115200010e-01	 1.2593600903e+00
 1.2413879351e+00	 9.2322461594e-01	 1.2828281422e+00
 1.3321367050e+00	 8.0385163402e-01	 7.5284153976e-01
 1.3243513834e+00	 8.1661438420e-01	 1.0807152967e+00
 1.3164348197e+00	 8.2931596624e-01	 1.2868281922e+00
 1.3083876956e+00	 8.4195438938e-01	 1.3946743870e+00
 1.3002107323e+00	 8.5452767206e-01	 1.4271274199e+00
 1.2919046909e+00	 8.6703384293e-01	 1.4064102667e+00
 1.2834703718e+00	 8.7947094184e-01	 1.3540683238e+00
 1.2749086148e+00	 8.9183702078e-01	 1.2909453152e+00
 1.2662202986e+00	 9.0413014489e-01	 1.2371621044e+00
 1.2574063409e+00	 9.1634839339e-01	 1.2120983762e+00
 1.2484676978e+00	 9.2848986060e-01	 1.2343771406e+00
 1.3396909347e+00	 8.0841008501e-01	 5.3352136701e-01
 1.3318614644e+00	 8.2124520970e-01	 9.2250241426e-01
 1.3239000078e+00	 8.3401881939e-01	 1.1711427807e+00
 1.3158072503e+00	 8.4672891201e-01	 1.3059281600e+00
 1.3075839174e+00	 8.5937349478e-01	 1.3526730301e+00
 1.2992307744e+00	 8.7195058517e-01	 1.3364864140e+00
 1.2907486263e+00	 8.8445821190e-01	 1.2817406883e+00
 1.2821383176e+00	 8.9689441593e-01	 1.2120434404e+00
 1.2734007321e+00	 9.0925725141e-01	 1.1502123618e+00
 1.2645367925e+00	 9.2154478668e-01	 1.1182531464e+00
 1.2555474605e+00	 9.3375510526e-01	 1.1373403467e+00
 1.3472451643e+00	 8.1296853600e-01	 3.9512729769e-01
 1.3393715454e+00	 8.2587603520e-01	 8.1617795413e-01
 1.3313651958e+00	 8.3872167253e-01	 1.0842437218e+00
 1.3232268050e+00	 8.5150343464e-01	 1.2281075568e+00
 1.3149571025e+00	 8.6421931750e-01	 1.2757921474e+00
 1.3065568579e+00	 8.7686732740e-01	 1.2545221547e+00
 1.2980268808e+00	 8.8944548196e-01	 1.1906896830e+00
 1.2893680204e+00	 9.0195181107e-01	 1.1098229858e+00
 1.2805811655e+00	 9.1438435792e-01	 1.0365583970e+00
 1.2716672441e+00	 9.2674117998e-01	 9.9461545942e-01
 1.2626272232e+00	 9.3902034992e-01	 1.0067752057e+00
 1.3547993940e+00	 8.1752698699e-01	 3.4908199689e-01
 1.3468816263e+00	 8.3050686071e-01	 7.7567376751e-01
 1.3388303838e+00	 8.4342452568e-01	 1.0420529383e+00
 1.3306463597e+00	 8.5627795727e-01	 1.1786175825e+00
 1.3223302876e+00	 8.6906514022e-01	 1.2148783905e+00
 1.3138829414e+00	 8.8178406963e-01	 1.1794181611e+00
 1.3053051353e+00	 8.9443275201e-01	 1.0998547634e+00
 1.2965977232e+00	 9.0700920621e-01	 1.0028075828e+00
 1.2877615990e+00	 9.1951146444e-01	 9.1386743871e-01
 1.2787976957e+00	 9.3193757327e-01	 8.5756994985e-01
 1.2697069859e+00	 9.4428559458e-01	 8.5737230146e-01
 1.3623536237e+00	 8.2208543798e-01	 4.0651831767e-01
 1.3543917073e+00	 8.3513768621e-01	 8.1457644920e-01
 1.3462955719e+00	 8.4812737883e-01	 1.0601032725e+00
 1.3380659144e+00	 8.6105247990e-01	 1.1744416842e+00
 1.3297034727e+00	 8.7391096294e-01	 1.1878824065e+00
 1.3212090249e+00	 8.8670081187e-01	 1.1296214911e+00
 1.3125833898e+00	 8.9942002207e-01	 1.0277215981e+00
 1.3038274261e+00	 9.1206660135e-01	 9.0907706368e-01
 1.2949420324e+00	 9.2463857096e-01	 7.9938274662e-01
 1.2859281473e+00	 9.3713396656e-01	 7.2310662791e-01
 1.2767867486e+00	 9.4955083923e-01	 7.0346611846e-01
 1.3699078534e+00	 8.2664388897e-01	 5.7828733743e-01
 1.3619017883e+00	 8.3976851171e-01	 9.4613695533e-01
 1.3537607599e+00	 8.5283023197e-01	 1.1535493663e+00
 1.3454854691e+00	 8.6582700253e-01	 1.2321535826e+00
 1.3370766578e+00	 8.7875678566e-01	 1.2123243492e+00
 1.3285351085e+00	 8.9161755410e-01	 1.1231384182e+00
 1.3198616443e+00	 9.0440729213e-01	 9.9233496217e-01
 1.3110571289e+00	 9.1712399650e-01	 8.4628013911e-01
 1.3021224659e+00	 9.2976567748e-01	 7.0993580145e-01
 1.2930585989e+00	 9.4233035985e-01	 6.0683232081e-01
 1.2838665113e+00	 9.5481608389e-01	 5.5904548135e-01
 1.3774620831e+00	 8.3120233995e-01	 8.7496615310e-01
 1.3694118693e+00	 8.4439933721e-01	 1.1832799289e+00
 1.3612259479e+00	 8.5753308512e-01	 1.3371782093e+00
 1.3529050238e+00	 8.7060152516e-01	 1.3679287403e+00
 1.3444498429e+00	 8.8360260837e-01	 1.3053059744e+00
 1.3358611920e+00	 8.9653429633e-01	 1.1775468675e+00
 1.3271398988e+00	 9.0939456218e-01	 1.0113112357e+00
 1.3182868317e+00	 9.2218139164e-01	 8.3164668858e-01
 1.3093028993e+00	 9.3489278400e-01	 6.6195812576e-01
 1.3001890505e+00	 9.4752675315e-01	 5.2398177013e-01
 1.2909462740e+00	 9.6008132855e-01	 4.3776368435e-01
 1.3850163128e+00	 8.3576079094e-01	 1.3068654444e+00
 1.3769219503e+00	 8.4903016271e-01	 1.5386127442e+00
 1.3686911360e+00	 8.6223593826e-01	 1.6254193657e+00
 1.3603245785e+00	 8.7537604779e-01	 1.5975554805e+00
 1.3518230280e+00	 8.8844843109e-01	 1.4835223667e+00
 1.3431872755e+00	 9.0145103856e-01	 1.3100084724e+00
 1.3344181533e+00	 9.1438183224e-01	 1.1018505223e+00
 1.3255165345e+00	 9.2723878678e-01	 8.8199967894e-01
 1.3164833328e+00	 9.4001989051e-01	 6.7149274895e-01
 1.3073195021e+00	 9.5272314644e-01	 4.8942839830e-01
 1.2980260367e+00	 9.6534657321e-01	 3.5294832241e-01
 1.2272284097e+00	 9.1269412663e-01	 1.1718417471e+00
 1.2183187227e+00	 9.2455371526e-01	 1.1986455532e+00
 1.2092884280e+00	 9.3633409648e-01	 1.1842602776e+00
 1.2001385827e+00	 9.4803343938e-01	 1.1264164971e+00
 1.1908702807e+00	 9.5964993156e-01	 1.0221480821e+00
 1.1814846520e+00	 9.7118178004e-01	 8.6781492822e-01
 1.1719828623e+00	 9.8262721220e-01	 6.5912780415e-01
 1.1623661127e+00	 9.9398447665e-01	 3.9117514456e-01
 1.1526356390e+00	 1.0052518441e+00	 5.8451613923e-02
 1.1427927111e+00	 1.0164276082e+00	-3.4511174385e-01
 1.1328386328e+00	 1.0275100866e+00	-8.2611596025e-01
 1.2343081724e+00	 9.1795937128e-01	 1.2672579474e+00
 1.2253470863e+00	 9.2988737674e-01	 1.2992657867e+00
 1.2162646966e+00	 9.4173571785e-01	 1.2969331050e+00
 1.2070620668e+00	 9.5350255314e-01	 1.2552741327e+00
 1.1977402968e+00	 9.6518605974e-01	 1.1688142095e+00
 1.1883005233e+00	 9.7678443434e-01	 1.0316181716e+00
 1.1787439188e+00	 9.8829589410e-01	 8.3732060809e-01
 1.1690716911e+00	 9.9971867752e-01	 5.7915780513e-01
 1.1592850831e+00	 1.0110510453e+00	 2.5000118464e-01
 1.1493853723e+00	 1.0222912814e+00	-1.5760796015e-01
 1.1393738700e+00	 1.0334376935e+00	-6.5142263764e-01
 1.2413879351e+00	 9.2322461594e-01	 1.2828281422e+00
 1.2323754499e+00	 9.3522103822e-01	 1.3230694406e+00
 1.2232409653e+00	 9.4713733922e-01	 1.3388239990e+00
 1.2139855508e+00	 9.5897166689e-01	 1.3225105683e+00
 1.2046103130e+00	 9.7072218792e-01	 1.2662480907e+00
 1.1951163947e+00	 9.8238708865e-01	 1.1618895152e+00
 1.1855049752e+00	 9.9396457601e-01	 1.0010572651e+00
 1.1757772694e+00	 1.0054528784e+00	 7.7518015803e-01
 1.1659345273e+00	 1.0168502466e+00	 4.7553157298e-01
 1.1559780336e+00	 1.0281549545e+00	 9.3268649769e-02
 1.1459091071e+00	 1.0393653004e+00	-3.8052769685e-01
 1.2484676978e+00	 9.2848986060e-01	 1.2343771406e+00
 1.2394038134e+00	 9.4055469971e-01	 1.2837043576e+00
 1.2302172340e+00	 9.5253896060e-01	 1.3211100798e+00
 1.2209090349e+00	 9.6444078065e-01	 1.3365350055e+00
 1.2114803291e+00	 9.7625831610e-01	 1.3197905846e+00
 1.2019322660e+00	 9.8798974295e-01	 1.2605980432e+00
 1.1922660317e+00	 9.9963325791e-01	 1.1486288655e+00
 1.1824828477e+00	 1.0111870793e+00	 9.7354652090e-01
 1.1725839715e+00	 1.0226494478e+00	 7.2504921409e-01
 1.1625706949e+00	 1.0340186276e+00	 3.9291343149e-01
 1.1524443443e+00	 1.0452929072e+00	-3.2961949951e-02
 1.2555474605e+00	 9.3375510526e-01	 1.1373403467e+00
 1.2464321770e+00	 9.4588836119e-01	 1.1944789127e+00
 1.2371935026e+00	 9.5794058197e-01	 1.2546856024e+00
 1.2278325190e+00	 9.6990989440e-01	 1.3055371162e+00
 1.2183503452e+00	 9.8179444428e-01	 1.3346331552e+00
 1.2087481374e+00	 9.9359239726e-01	 1.3296404369e+00
 1.1990270881e+00	 1.0053019398e+00	 1.2783380013e+00
 1.1891884261e+00	 1.0169212801e+00	 1.1686635779e+00
 1.1792334156e+00	 1.0284486490e+00	 9.8876077986e-01
 1.1691633561e+00	 1.0398823008e+00	 7.2702688138e-01
 1.1589795814e+00	 1.0512205141e+00	 3.7216093315e-01
 1.2626272232e+00	 9.3902034992e-01	 1.0067752057e+00
 1.2534605406e+00	 9.5122202268e-01	 1.0683721177e+00
 1.2441697713e+00	 9.6334220334e-01	 1.1501705315e+00
 1.2347560031e+00	 9.7537900816e-01	 1.2374939004e+00
 1.2252203614e+00	 9.8733057246e-01	 1.3158228193e+00
 1.2155640087e+00	 9.9919505157e-01	 1.3708438199e+00
 1.2057881445e+00	 1.0109706217e+00	 1.3884993130e+00
 1.1958940044e+00	 1.0226554810e+00	 1.3550384334e+00
 1.1858828598e+00	 1.0342478502e+00	 1.2570685408e+00
 1.1757560174e+00	 1.0457459739e+00	 1.0816071175e+00
 1.1655148185e+00	 1.0571481210e+00	 8.1613380439e-01
 1.2697069859e+00	 9.4428559458e-01	 8.5737230146e-01
 1.2604889041e+00	 9.5655568416e-01	 9.1804342247e-01
 1.2511460399e+00	 9.6874382471e-01	 1.0179188662e+00
 1.2416794872e+00	 9.8084812191e-01	 1.1401763504e+00
 1.2320903775e+00	 9.9286670064e-01	 1.2682669665e+00
 1.2223798801e+00	 1.0047977059e+00	 1.3859685470e+00
 1.2125492010e+00	 1.0166393036e+00	 1.4774400593e+00
 1.2025995827e+00	 1.0283896819e+00	 1.5272767712e+00
 1.1925323040e+00	 1.0400470515e+00	 1.5205659244e+00
 1.1823486786e+00	 1.0516096471e+00	 1.4429426446e+00
 1.1720500557e+00	 1.0630757279e+00	 1.2806458157e+00
 1.2767867486e+00	 9.4955083923e-01	 7.0346611846e-01
 1.2675172677e+00	 9.6188934565e-01	 7.5584222545e-01
 1.2581223086e+00	 9.7414544608e-01	 8.6802672389e-01
 1.2486029713e+00	 9.8631723567e-01	 1.0211559309e+00
 1.2389603937e+00	 9.9840282883e-01	 1.1967380568e+00
 1.2291957514e+00	 1.0104003602e+00	 1.3767109383e+00
 1.2193102574e+00	 1.0223079855e+00	 1.5435007064e+00
 1.2093051611e+00	 1.0341238827e+00	 1.6800811160e+00
 1.1991817481e+00	 1.0458462527e+00	 1.7700332631e+00
 1.1889413399e+00	 1.0574733202e+00	 1.7976054024e+00
 1.1785852928e+00	 1.0690033348e+00	 1.7477725802e+00
 1.2838665113e+00	 9.5481608389e-01	 5.5904548135e-01
 1.2745456313e+00	 9.6722300713e-01	 5.9381710346e-01
 1.2650985773e+00	 9.7954706745e-01	 7.1034019103e-01
 1.2555264553e+00	 9.9178634942e-01	 8.8781088125e-01
 1.2458304098e+00	 1.0039389570e+00	 1.1058782000e+00
 1.2360116228e+00	 1.0160030145e+00	 1.3447059624e+00
 1.2260713138e+00	 1.0279766674e+00	 1.5850355374e+00
 1.2160107394e+00	 1.0398580836e+00	 1.8082491917e+00
 1.2058311923e+00	 1.0516454539e+00	 1.9964337231e+00
 1.1955340012e+00	 1.0633369933e+00	 2.1324440851e+00
 1.1851205300e+00	 1.0749309417e+00	 2.1999667015e+00
 1.2909462740e+00	 9.6008132855e-01	 4.3776368435e-01
 1.2815739948e+00	 9.7255666862e-01	 4.4372477250e-01
 1.2720748459e+00	 9.8494868882e-01	 5.5446295231e-01
 1.2624499394e+00	 9.9725546318e-01	 7.4733234573e-01
 1.2527004259e+00	 1.0094750852e+00	 1.0002036218e+00
 1.2428274941e+00	 1.0216056688e+00	 1.2915298684e+00
 1.2328323703e+00	 1.0336453493e+00	 1.6004132811e+00
 1.2227163177e+00	 1.0455922845e+00	 1.9066723745e+00
 1.2124806365e+00	 1.0574446552e+00	 2.1909094090e+00
 1.2021266624e+00	 1.0692006665e+00	 2.4345777230e+00
 1.1916557671e+00	 1.0808585486e+00	 2.6200486573e+00
 1.2980260367e+00	 9.6534657321e-01	 3.5294832241e-01
 1.2886023584e+00	 9.7789033010e-01	 3.1703878953e-01
 1.2790511146e+00	 9.9035031019e-01	 4.0976370442e-01
 1.2693734235e+00	 1.0027245769e+00	 6.0673034042e-01
 1.2595704421e+00	 1.0150112134e+00	 8.8410902106e-01
 1.2496433655e+00	 1.0272083231e+00	 1.2187027701e+00
 1.2395934267e+00	 1.0393140312e+00	 1.5880177584e+00
 1.2294218961e+00	 1.0513264853e+00	 1.9703342362e+00
 1.2191300806e+00	 1.0632438564e+00	 2.3447776356e+00
 1.2087193237e+00	 1.0750643396e+00	 2.6913895154e+00
 1.1981910043e+00	 1.0867861555e+00	 2.9911980234e+00
 1.1328386328e+00	 1.0275100866e+00	-8.2611596025e-01
 1.1227764581e+00	 1.0384957648e+00	-1.2542814306e+00
 1.1126058582e+00	 1.0493849180e+00	-1.5013603535e+00
 1.1023282158e+00	 1.0601759590e+00	-1.5775192020e+00
 1.0919449451e+00	 1.0708673273e+00	-1.4906936510e+00
 1.0814574907e+00	 1.0814574907e+00	-1.2453336653e+00
 1.0708673273e+00	 1.0919449451e+00	-8.4512731375e-01
 1.0601759590e+00	 1.1023282158e+00	-2.9302379651e-01
 1.0493849180e+00	 1.1126058582e+00	 4.0889903658e-01
 1.0384957648e+00	 1.1227764581e+00	 1.2666022375e+00
 1.0275100866e+00	 1.1328386328e+00	 2.2844346379e+00
 1.1393738700e+00	 1.0334376935e+00	-6.5142263764e-01
 1.1292536475e+00	 1.0444867470e+00	-1.0983828894e+00
 1.1190243744e+00	 1.0554387187e+00	-1.3649847853e+00
 1.1086874413e+00	 1.0662920121e+00	-1.4585333203e+00
 1.0982442704e+00	 1.0770450580e+00	-1.3863571051e+00
 1.0876963150e+00	 1.0876963150e+00	-1.1527609440e+00
 1.0770450580e+00	 1.0982442704e+00	-7.6128609584e-01
 1.0662920121e+00	 1.1086874413e+00	-2.1544793213e-01
 1.0554387187e+00	 1.1190243744e+00	 4.8478442107e-01
 1.0444867470e+00	 1.1292536475e+00	 1.3446360815e+00
 1.0334376935e+00	 1.1393738700e+00	 2.3620276829e+00
 1.1459091071e+00	 1.0393653004e+00	-3.8052769685e-01
 1.1357308370e+00	 1.0504777292e+00	-8.1685028875e-01
 1.1254428906e+00	 1.0614925194e+00	-1.0841947097e+00
 1.1150466667e+00	 1.0724080653e+00	-1.1881970584e+00
 1.1045435958e+00	 1.0832227886e+00	-1.1352014947e+00
 1.0939351392e+00	 1.0939351392e+00	-9.2988999786e-01
 1.0832227886e+00	 1.1045435958e+00	-5.7584922687e-01
 1.0724080653e+00	 1.1150466667e+00	-7.6330394037e-02
 1.0614925194e+00	 1.1254428906e+00	 5.7321112197e-01
 1.0504777292e+00	 1.1357308370e+00	 1.3709956197e+00
 1.0393653004e+00	 1.1459091071e+00	 2.3123426777e+00
 1.1524443443e+00	 1.0452929072e+00	-3.2961949951e-02
 1.1422080264e+00	 1.0564687114e+00	-4.3324819004e-01
 1.1318614068e+00	 1.0675463201e+00	-6.8448219236e-01
 1.1214058922e+00	 1.0785241184e+00	-7.9123144027e-01
 1.1108429212e+00	 1.0894005193e+00	-7.5940808098e-01
 1.1001739635e+00	 1.1001739635e+00	-5.9446678758e-01
 1.0894005193e+00	 1.1108429212e+00	-2.9999480018e-01
 1.0785241184e+00	 1.1214058922e+00	 1.2521167863e-01
 1.0675463201e+00	 1.1318614068e+00	 6.8279306494e-01
 1.0564687114e+00	 1.1422080264e+00	 1.3672749369e+00
 1.0452929072e+00	 1.1524443443e+00	 2.1720905656e+00
 1.1589795814e+00	 1.0512205141e+00	 3.7216093315e-01
 1.1486852158e+00	 1.0624596936e+00	 2.9367813107e-02
 1.1382799230e+00	 1.0736001208e+00	-1.9078605752e-01
 1.1277651177e+00	 1.0846401716e+00	-2.9235861632e-01
 1.1171422466e+00	 1.0955782499e+00	-2.8106210103e-01
 1.1064127878e+00	 1.1064127878e+00	-1.6382077665e-01
 1.0955782499e+00	 1.1171422466e+00	 5.7338632578e-02
 1.0846401716e+00	 1.1277651177e+00	 3.8731484308e-01
 1.0736001208e+00	 1.1382799230e+00	 8.2194923810e-01
 1.0624596936e+00	 1.1486852158e+00	 1.3545796047e+00
 1.0512205141e+00	 1.1589795814e+00	 1.9771520853e+00
 1.1655148185e+00	 1.0571481210e+00	 8.1613380439e-01
 1.1551624052e+00	 1.0684506758e+00	 5.4843794658e-01
 1.1446984392e+00	 1.0796539214e+00	 3.7249376680e-01
 1.1341243432e+00	 1.0907562248e+00	 2.8420262572e-01
 1.1234415720e+00	 1.1017559805e+00	 2.7763578819e-01
 1.1126516121e+00	 1.1126516121e+00	 3.4519686363e-01
 1.1017559805e+00	 1.1234415720e+00	 4.8794782800e-01
 1.0907562248e+00	 1.1341243432e+00	 7.0784952970e-01
 1.0796539214e+00	 1.1446984392e+00	 9.9890768876e-01
 1.0684506758e+00	 1.1551624052e+00	 1.3535388802e+00
 1.0571481210e+00	 1.1655148185e+00	 1.7625995215e+00
 1.1720500557e+00	 1.0630757279e+00	 1.2806458157e+00
 1.1616395947e+00	 1.0744416580e+00	 1.1018855914e+00
 1.1511169554e+00	 1.0857077221e+00	 9.8148242813e-01
 1.1404835687e+00	 1.0968722779e+00	 9.1475535472e-01
 1.1297408974e+00	 1.1079337112e+00	 8.9514929531e-01
 1.1188904363e+00	 1.1188904363e+00	 9.1749227475e-01
 1.1079337112e+00	 1.1297408974e+00	 9.8162432234e-01
 1.0968722779e+00	 1.1404835687e+00	 1.0847309930e+00
 1.0857077221e+00	 1.1511169554e+00	 1.2217093449e+00
 1.0744416580e+00	 1.1616395947e+00	 1.3843174539e+00
 1.0630757279e+00	 1.1720500557e+00	 1.5627176870e+00
 1.1785852928e+00	 1.0690033348e+00	 1.7477725802e+00
 1.1681167841e+00	 1.0804326402e+00	 1.6681050842e+00
 1.1575354716e+00	 1.0917615228e+00	 1.6128168333e+00
 1.1468427941e+00	 1.1029883311e+00	 1.5761113119e+00
 1.1360402228e+00	 1.1141114418e+00	 1.5508662734e+00
 1.1251292606e+00	 1.1251292606e+00	 1.5369395041e+00
 1.1141114418e+00	 1.1360402228e+00	 1.5280462324e+00
 1.1029883311e+00	 1.1468427941e+00	 1.5159165668e+00
 1.0917615228e+00	 1.1575354716e+00	 1.4982116684e+00
 1.0804326402e+00	 1.1681167841e+00	 1.4666267652e+00
 1.0690033348e+00	 1.1785852928e+00	 1.4110241639e+00
 1.1851205300e+00	 1.0749309417e+00	 2.1999667015e+00
 1.1745939735e+00	 1.0864236224e+00	 2.2259499655e+00
 1.1639539878e+00	 1.0978153235e+00	 2.2436328168e+00
 1.1532020196e+00	 1.1091043843e+00	 2.2455782077e+00
 1.1423395482e+00	 1.1202891725e+00	 2.2271376440e+00
 1.1313680849e+00	 1.1313680849e+00	 2.1870193629e+00
 1.1202891725e+00	 1.1423395482e+00	 2.1150051719e+00
 1.1091043843e+00	 1.1532020196e+00	 1.9994029689e+00
 1.0978153235e+00	 1.1639539878e+00	 1.8360921459e+00
 1.0864236224e+00	 1.1745939735e+00	 1.6197359024e+00
 1.0749309417e+00	 1.1851205300e+00	 1.3402888330e+00
 1.1916557671e+00	 1.0808585486e+00	 2.6200486573e+00
 1.1810711629e+00	 1.0924146047e+00	 2.7547216566e+00
 1.1703725041e+00	 1.1038691242e+00	 2.8515527757e+00
 1.1595612451e+00	 1.1152204374e+00	 2.9017865662e+00
 1.1486388736e+00	 1.1264669031e+00	 2.9044054857e+00
 1.1376069092e+00	 1.1376069092e+00	 2.8515407318e+00
 1.1264669031e+00	 1.1486388736e+00	 2.7317171910e+00
 1.1152204374e+00	 1.1595612451e+00	 2.5323431635e+00
 1.1038691242e+00	 1.1703725041e+00	 2.2428516246e+00
 1.0924146047e+00	 1.1810711629e+00	 1.8624821025e+00
 1.0808585486e+00	 1.1916557671e+00	 1.3825527202e+00
 1.1981910043e+00	 1.0867861555e+00	 2.9911980234e+00
 1.1875483523e+00	 1.0984055869e+00	 3.2341585516e+00
 1.1767910203e+00	 1.1099229249e+00	 3.4146737526e+00
 1.1659204706e+00	 1.1213364906e+00	 3.5257137692e+00
 1.1549381990e+00	 1.1326446337e+00	 3.5630082570e+00
 1.1438457334e+00	 1.1438457334e+00	 3.5146326216e+00
 1.1326446337e+00	 1.1549381990e+00	 3.3679255877e+00
 1.1213364906e+00	 1.1659204706e+00	 3.1095902538e+00
 1.1099229249e+00	 1.1767910203e+00	 2.7258174978e+00
 1.0984055869e+00	 1.1875483523e+00	 2.2132808664e+00
 1.0867861555e+00	 1.1981910043e+00	 1.5691461836e+00
 1.0275100866e+00	 1.1328386328e+00	 2.2844346379e+00
 1.0164276082e+00	 1.1427927111e+00	 3.2634462996e+00
 1.0052518441e+00	 1.1526356390e+00	 3.9998918775e+00
 9.9398447665e-01	 1.1623661127e+00	 4.4883216539e+00
 9.8262721220e-01	 1.1719828623e+00	 4.7238355706e+00
 9.7118178004e-01	 1.1814846520e+00	 4.7020688658e+00
 9.5964993156e-01	 1.1908702807e+00	 4.4191778185e+00
 9.4803343938e-01	 1.2001385827e+00	 3.8718257192e+00
 9.3633409648e-01	 1.2092884280e+00	 3.0571691800e+00
 9.2455371526e-01	 1.2183187227e+00	 1.9728448864e+00
 9.1269412663e-01	 1.2272284097e+00	 6.1695688792e-01
 1.0334376935e+00	 1.1393738700e+00	 2.3620276829e+00
 1.0222912814e+00	 1.1493853723e+00	 3.3409927789e+00
 1.0110510453e+00	 1.1592850831e+00	 4.0800187339e+00
 9.9971867752e-01	 1.1690716911e+00	 4.5702689719e+00
 9.8829589410e-01	 1.1787439188e+00	 4.8047451455e+00
 9.7678443434e-01	 1.1883005233e+00	 4.7782709475e+00
 9.6518605974e-01	 1.1977402968e+00	 4.4874742620e+00
 9.5350255314e-01	 1.2070620668e+00	 3.9307677867e+00
 9.4173571785e-01	 1.2162646966e+00	 3.1083282586e+00
 9.2988737674e-01	 1.2253470863e+00	 2.0220744076e+00
 9.1795937128e-01	 1.2343081724e+00	 6.7564375833e-01
 1.0393653004e+00	 1.1459091071e+00	 2.3123426777e+00
 1.0281549545e+00	 1.1559780336e+00	 3.2184839782e+00
 1.0168502466e+00	 1.1659345273e+00	 3.9050786664e+00
 1.0054528784e+00	 1.1757772694e+00	 4.3612453688e+00
 9.9396457601e-01	 1.1855049752e+00	 4.5789483299e+00
 9.8238708865e-01	 1.1951163947e+00	 4.5529787428e+00
 9.7072218792e-01	 1.2046103130e+00	 4.2809330448e+00
 9.5897166689e-01	 1.2139855508e+00	 3.7631883261e+00
 9.4713733922e-01	 1.2232409653e+00	 3.0028749994e+00
 9.3522103822e-01	 1.2323754499e+00	 2.0058468736e+00
 9.2322461594e-01	 1.2413879351e+00	 7.8064877489e-01
 1.0452929072e+00	 1.1524443443e+00	 2.1720905656e+00
 1.0340186276e+00	 1.1625706949e+00	 2.9466975041e+00
 1.0226494478e+00	 1.1725839715e+00	 3.5356621428e+00
 1.0111870793e+00	 1.1824828477e+00	 3.9273828819e+00
 9.9963325791e-01	 1.1922660317e+00	 4.1138331808e+00
 9.8798974295e-01	 1.2019322660e+00	 4.0905397551e+00
 9.7625831610e-01	 1.2114803291e+00	 3.8565567564e+00
 9.6444078065e-01	 1.2209090349e+00	 3.4144360987e+00
 9.5253896060e-01	 1.2302172340e+00	 2.7701940930e+00
 9.4055469971e-01	 1.2394038134e+00	 1.9332745522e+00
 9.2848986060e-01	 1.2484676978e+00	 9.1650852407e-01
 1.0512205141e+00	 1.1589795814e+00	 1.9771520853e+00
 1.0398823008e+00	 1.1691633561e+00	 2.5752628352e+00
 1.0284486490e+00	 1.1792334156e+00	 3.0309896122e+00
 1.0169212801e+00	 1.1891884261e+00	 3.3333180699e+00
 1.0053019398e+00	 1.1990270881e+00	 3.4752635733e+00
 9.9359239726e-01	 1.2087481374e+00	 3.4538456117e+00
 9.8179444428e-01	 1.2183503452e+00	 3.2700576032e+00
 9.6990989440e-01	 1.2278325190e+00	 2.9288322672e+00
 9.5794058197e-01	 1.2371935026e+00	 2.4390027404e+00
 9.4588836119e-01	 1.2464321770e+00	 1.8132596123e+00
 9.3375510526e-01	 1.2555474605e+00	 1.0681040531e+00
 1.0571481210e+00	 1.1655148185e+00	 1.7625995215e+00
 1.0457459739e+00	 1.1757560174e+00	 2.1526919637e+00
 1.0342478502e+00	 1.1858828598e+00	 2.4489483469e+00
 1.0226554810e+00	 1.1958940044e+00	 2.6422323555e+00
 1.0109706217e+00	 1.2057881445e+00	 2.7276203341e+00
 9.9919505157e-01	 1.2155640087e+00	 2.7043712711e+00
 9.8733057246e-01	 1.2252203614e+00	 2.5758919680e+00
 9.7537900816e-01	 1.2347560031e+00	 2.3496975844e+00
 9.6334220334e-01	 1.2441697713e+00	 2.0373677451e+00
 9.5122202268e-01	 1.2534605406e+00	 1.6544983969e+00
 9.3902034992e-01	 1.2626272232e+00	 1.2206496016e+00
 1.0630757279e+00	 1.1720500557e+00	 1.5627176870e+00
 1.0516096471e+00	 1.1823486786e+00	 1.7264089684e+00
 1.0400470515e+00	 1.1925323040e+00	 1.8461280087e+00
 1.0283896819e+00	 1.2025995827e+00	 1.9158909740e+00
 1.0166393036e+00	 1.2125492010e+00	 1.9338409545e+00
 1.0047977059e+00	 1.2223798801e+00	 1.9022128749e+00
 9.9286670064e-01	 1.2320903775e+00	 1.8272937710e+00
 9.8084812191e-01	 1.2416794872e+00	 1.7193786296e+00
 9.6874382471e-01	 1.2511460399e+00	 1.5927219907e+00
 9.5655568416e-01	 1.2604889041e+00	 1.4654855083e+00
 9.4428559458e-01	 1.2697069859e+00	 1.3596816657e+00
 1.0690033348e+00	 1.1785852928e+00	 1.4110241639e+00
 1.0574733202e+00	 1.1889413399e+00	 1.3427785629e+00
 1.0458462527e+00	 1.1991817481e+00	 1.2778549897e+00
 1.0341238827e+00	 1.2093051611e+00	 1.2146805849e+00
 1.0223079855e+00	 1.2193102574e+00	 1.1554579401e+00
 1.0104003602e+00	 1.2291957514e+00	 1.1061242981e+00
 9.9840282883e-01	 1.2389603937e+00	 1.0763066775e+00
 9.8631723567e-01	 1.2486029713e+00	 1.0792731281e+00
 9.7414544608e-01	 1.2581223086e+00	 1.1318803266e+00
 9.6188934565e-01	 1.2675172677e+00	 1.2545177152e+00
 9.4955083923e-01	 1.2767867486e+00	 1.4710483844e+00
 1.0749309417e+00	 1.1851205300e+00	 1.3402888330e+00
 1.0633369933e+00	 1.1955340012e+00	 1.0471336552e+00
 1.0516454539e+00	 1.2058311923e+00	 7.9822557407e-01
 1.0398580836e+00	 1.2160107394e+00	 5.9764559463e-01
 1.0279766674e+00	 1.2260713138e+00	 4.5263584786e-01
 1.0160030145e+00	 1.2360116228e+00	 3.7355244602e-01
 1.0039389570e+00	 1.2458304098e+00	 3.7381519605e-01
 9.9178634942e-01	 1.2555264553e+00	 4.6985438979e-01
 9.7954706745e-01	 1.2650985773e+00	 6.8105488504e-01
 9.6722300713e-01	 1.2745456313e+00	 1.0296976868e+00
 9.5481608389e-01	 1.2838665113e+00	 1.5408992321e+00
 1.0808585486e+00	 1.1916557671e+00	 1.3825527202e+00
 1.0692006665e+00	 1.2021266624e+00	 8.8380196053e-01
 1.0574446552e+00	 1.2124806365e+00	 4.6013796702e-01
 1.0455922845e+00	 1.2227163177e+00	 1.2252324329e-01
 1.0336453493e+00	 1.2328323703e+00	-1.1579293698e-01
 1.0216056688e+00	 1.2428274941e+00	-2.3932865236e-01
 1.0094750852e+00	 1.2527004259e+00	-2.3042528854e-01
 9.9725546318e-01	 1.2624499394e+00	-6.9305098594e-02
 9.8494868882e-01	 1.2720748459e+00	 2.6586985107e-01
 9.7255666862e-01	 1.2815739948e+00	 7.9893756112e-01
 9.6008132855e-01	 1.2909462740e+00	 1.5556750090e+00
 1.0867861555e+00	 1.1981910043e+00	 1.5691461836e+00
 1.0750643396e+00	 1.2087193237e+00	 8.9613170050e-01
 1.0632438564e+00	 1.2191300806e+00	 3.1532323298e-01
 1.0513264853e+00	 1.2294218961e+00	-1.5422249991e-01
 1.0393140312e+00	 1.2395934267e+00	-4.9229363811e-01
 1.0272083231e+00	 1.2496433655e+00	-6.7758490902e-01
 1.0150112134e+00	 1.2595704421e+00	-6.8775950810e-01
 1.0027245769e+00	 1.2693734235e+00	-4.9951089674e-01
 9.9035031019e-01	 1.2790511146e+00	-8.8624293413e-02
 9.7789033010e-01	 1.2886023584e+00	 5.6996235418e-01
 9.6534657321e-01	 1.2980260367e+00	 1.5020981159e+00
 9.1269412663e-01	 1.2272284097e+00	 6.1695688792e-01
 9.0075921351e-01	 1.2360149861e+00	-7.5929475432e-01
 8.8874882534e-01	 1.2446789982e+00	-1.8958218012e+00
 8.7666483536e-01	 1.2532195063e+00	-2.7807314578e+00
 8.6450913168e-01	 1.2616356082e+00	-3.4030166444e+00
 8.5228361624e-01	 1.2699264403e+00	-3.7525814461e+00
 8.3999020390e-01	 1.2780911770e+00	-3.8202637978e+00
 8.2763082149e-01	 1.2861290314e+00	-3.5978553656e+00
 8.1520740681e-01	 1.2940392556e+00	-3.0781185987e+00
 8.0272190770e-01	 1.3018211405e+00	-2.2548009414e+00
 7.9017628106e-01	 1.3094740159e+00	-1.1226462065e+00
 9.1795937128e-01	 1.2343081724e+00	 6.7564375833e-01
 9.0595560681e-01	 1.2431454377e+00	-6.9164179554e-01
 8.9387593185e-01	 1.2518594317e+00	-1.8314904269e+00
 8.8172223050e-01	 1.2604492091e+00	-2.7265174744e+00
 8.6949640173e-01	 1.2689138627e+00	-3.3616711782e+00
 8.5720035847e-01	 1.2772525238e+00	-3.7242539390e+00
 8.4483602662e-01	 1.2854643621e+00	-3.8039387518e+00
 8.3240534412e-01	 1.2935485861e+00	-3.5927807982e+00
 8.1991025995e-01	 1.3015044437e+00	-3.0852242054e+00
 8.0735273320e-01	 1.3093312214e+00	-2.2781039911e+00
 7.9473473205e-01	 1.3170282456e+00	-1.1706432374e+00
 9.2322461594e-01	 1.2413879351e+00	 7.8064877489e-01
 9.1115200010e-01	 1.2502758893e+00	-4.6450409583e-01
 8.9900303837e-01	 1.2590398651e+00	-1.5130601393e+00
 8.8677962564e-01	 1.2676789119e+00	-2.3438700301e+00
 8.7448367179e-01	 1.2761921173e+00	-2.9392412166e+00
 8.6211710070e-01	 1.2845786073e+00	-3.2849553078e+00
 8.4968184934e-01	 1.2928375472e+00	-3.3702790149e+00
 8.3717986675e-01	 1.3009681408e+00	-3.1879686583e+00
 8.2461311310e-01	 1.3089696317e+00	-2.7342682676e+00
 8.1198355870e-01	 1.3168413024e+00	-2.0089013245e+00
 7.9929318304e-01	 1.3245824753e+00	-1.0150562212e+00
 9.2848986060e-01	 1.2484676978e+00	 9.1650852407e-01
 9.1634839339e-01	 1.2574063409e+00	-1.1761953486e-01
 9.0413014489e-01	 1.2662202986e+00	-9.9963771518e-01
 8.9183702078e-01	 1.2749086148e+00	-1.7063411106e+00
 8.7947094184e-01	 1.2834703718e+00	-2.2187859026e+00
 8.6703384293e-01	 1.2919046909e+00	-2.5223031839e+00
 8.5452767206e-01	 1.3002107323e+00	-2.6065051607e+00
 8.4195438938e-01	 1.3083876956e+00	-2.4652837594e+00
 8.2931596624e-01	 1.3164348197e+00	-2.0968016856e+00
 8.1661438420e-01	 1.3243513834e+00	-1.5034760072e+00
 8.0385163402e-01	 1.3321367050e+00	-6.9195435521e-01
 9.3375510526e-01	 1.2555474605e+00	 1.0681040531e+00
 9.2154478668e-01	 1.2645367925e+00	 3.1016634157e-01
 9.0925725141e-01	 1.2734007321e+00	-3.4900026322e-01
 8.9689441593e-01	 1.2821383176e+00	-8.8582664840e-01
 8.8445821190e-01	 1.2907486263e+00	-1.2814932146e+00
 8.7195058517e-01	 1.2992307744e+00	-1.5219404401e+00
 8.5937349478e-01	 1.3075839174e+00	-1.5978710838e+00
 8.4672891201e-01	 1.3158072503e+00	-1.5047440651e+00
 8.3401881939e-01	 1.3239000078e+00	-1.2427600806e+00
 8.2124520970e-01	 1.3318614644e+00	-8.1683904658e-01
 8.0841008501e-01	 1.3396909347e+00	-2.3658947722e-01
 9.3902034992e-01	 1.2626272232e+00	 1.2206496016e+00
 9.2674117998e-01	 1.2716672441e+00	 7.8087370271e-01
 9.1438435792e-01	 1.2805811655e+00	 3.8236590943e-01
 9.0195181107e-01	 1.2893680204e+00	 4.7385477482e-02
 8.8944548196e-01	 1.2980268808e+00	-2.0673397730e-01
 8.7686732740e-01	 1.3065568579e+00	-3.6759208148e-01
 8.6421931750e-01	 1.3149571025e+00	-4.2772063842e-01
 8.5150343464e-01	 1.3232268050e+00	-3.8457393891e-01
 8.3872167253e-01	 1.3313651958e+00	-2.4051051842e-01
 8.2587603520e-01	 1.3393715454e+00	-2.7664571583e-03
 8.1296853600e-01	 1.3472451643e+00	 3.1657965583e-01
 9.4428559458e-01	 1.2697069859e+00	 1.3596816657e+00
 9.3193757327e-01	 1.2787976957e+00	 1.2573626612e+00
 9.1951146444e-01	 1.2877615990e+00	 1.1392276878e+00
 9.0700920621e-01	 1.2965977232e+00	 1.0245690039e+00
 8.9443275201e-01	 1.3053051353e+00	 9.2788589132e-01
 8.8178406963e-01	 1.3138829414e+00	 8.5887972267e-01
 8.6906514022e-01	 1.3223302876e+00	 8.2245757585e-01
 8.5627795727e-01	 1.3306463597e+00	 8.1874434687e-01
 8.4342452568e-01	 1.3388303838e+00	 8.4310328817e-01
 8.3050686071e-01	 1.3468816263e+00	 8.8616487297e-01
 8.1752698699e-01	 1.3547993940e+00	 9.3386386103e-01
 9.4955083923e-01	 1.2767867486e+00	 1.4710483844e+00
 9.3713396656e-01	 1.2859281473e+00	 1.7033083156e+00
 9.2463857096e-01	 1.2949420324e+00	 1.8675687478e+00
 9.1206660135e-01	 1.3038274261e+00	 1.9785143485e+00
 8.9942002207e-01	 1.3125833898e+00	 2.0464748290e+00
 8.8670081187e-01	 1.3212090249e+00	 2.0774223969e+00
 8.7391096294e-01	 1.3297034727e+00	 2.0729772086e+00
 8.6105247990e-01	 1.3380659144e+00	 2.0304207733e+00
 8.4812737883e-01	 1.3462955719e+00	 1.9427172399e+00
 8.3513768621e-01	 1.3543917073e+00	 1.7985424683e+00
 8.2208543798e-01	 1.3623536237e+00	 1.5823207644e+00
 9.5481608389e-01	 1.2838665113e+00	 1.5408992321e+00
 9.4233035985e-01	 1.2930585989e+00	 2.0831765758e+00
 9.2976567748e-01	 1.3021224659e+00	 2.5145543166e+00
 9.1712399650e-01	 1.3110571289e+00	 2.8434851181e+00
 9.0440729213e-01	 1.3198616443e+00	 3.0748067080e+00
 8.9161755410e-01	 1.3285351085e+00	 3.2097414366e+00
 8.7875678566e-01	 1.3370766578e+00	 3.2459028654e+00
 8.6582700253e-01	 1.3454854691e+00	 3.1773093448e+00
 8.5283023197e-01	 1.3537607599e+00	 2.9944045176e+00
 8.3976851171e-01	 1.3619017883e+00	 2.6840846601e+00
 8.2664388897e-01	 1.3699078534e+00	 2.2297327487e+00
 9.6008132855e-01	 1.2909462740e+00	 1.5556750090e+00
 9.4752675315e-01	 1.3001890505e+00	 2.3622007409e+00
 9.3489278400e-01	 1.3093028993e+00	 3.0284970500e+00
 9.2218139164e-01	 1.3182868317e+00	 3.5551760068e+00
 9.0939456218e-01	 1.3271398988e+00	 3.9402734823e+00
 8.9653429633e-01	 1.3358611920e+00	 4.1792505383e+00
 8.8360260837e-01	 1.3444498429e+00	 4.2650004609e+00
 8.7060152516e-01	 1.3529050238e+00	 4.1878614053e+00
 8.5753308512e-01	 1.3612259479e+00	 3.9356346013e+00
 8.4439933721e-01	 1.3694118693e+00	 3.4936080458e+00
 8.3120233995e-01	 1.3774620831e+00	 2.8445855877e+00
 9.6534657321e-01	 1.2980260367e+00	 1.5020981159e+00
 9.5272314644e-01	 1.3073195021e+00	 2.5063588020e+00
 9.4001989051e-01	 1.3164833328e+00	 3.3588239842e+00
 9.2723878678e-01	 1.3255165345e+00	 4.0506720289e+00
 9.1438183224e-01	 1.3344181533e+00	 4.5718393413e+00
 9.0145103856e-01	 1.3431872755e+00	 4.9110233208e+00
 8.8844843109e-01	 1.3518230280e+00	 5.0556891553e+00
 8.7537604779e-01	 1.3603245785e+00	 4.9920804407e+00
 8.6223593826e-01	 1.3686911360e+00	 4.7052335890e+00
 8.4903016271e-01	 1.3769219503e+00	 4.1789959733e+00
 8.3576079094e-01	 1.3850163128e+00	 3.3960477388e+00
 7.9017628106e-01	 1.3094740159e+00	-1.1226462065e+00
 7.7757249215e-01	 1.3169972515e+00	 8.1941976077e-02
 7.6491251433e-01	 1.3243902571e+00	 1.1188915871e+00
 7.5219832734e-01	 1.3316524825e+00	 1.9874485904e+00
 7.3943191608e-01	 1.3387834164e+00	 2.6869812099e+00
 7.2661526967e-01	 1.3457825872e+00	 3.1927097752e+00
 7.1375038049e-01	 1.3526495623e+00	 3.4863750998e+00
 7.0083924323e-01	 1.3593839483e+00	 3.5665084292e+00
 6.8788385397e-01	 1.3659853912e+00	 3.4320860108e+00
 6.7488620921e-01	 1.3724535755e+00	 3.0825452808e+00
 6.6184830499e-01	 1.3787882249e+00	 2.5177990678e+00
 7.9473473205e-01	 1.3170282456e+00	-1.1706432374e+00
 7.8205823309e-01	 1.3245948820e+00	 1.3035580295e-02
 7.6932522108e-01	 1.3320305372e+00	 1.0449085517e+00
 7.5653768716e-01	 1.3393346576e+00	 1.9190454698e+00
 7.4369762770e-01	 1.3465067292e+00	 2.6307563572e+00
 7.3080704329e-01	 1.3535462775e+00	 3.1641011975e+00
 7.1786793780e-01	 1.3604528675e+00	 3.4870299921e+00
 7.0488231744e-01	 1.3672261036e+00	 3.5954149305e+00
 6.9185218978e-01	 1.3738656295e+00	 3.4875981635e+00
 6.7877956286e-01	 1.3803711282e+00	 3.1632750262e+00
 6.6566644422e-01	 1.3867423216e+00	 2.6234984055e+00
 7.9929318304e-01	 1.3245824753e+00	-1.0150562212e+00
 7.8654397404e-01	 1.3321925125e+00	 5.2049890390e-02
 7.7373792783e-01	 1.3396708172e+00	 9.9358224569e-01
 7.6087704699e-01	 1.3470168327e+00	 1.7998034108e+00
 7.4796333933e-01	 1.3542300420e+00	 2.4629237177e+00
 7.3499881692e-01	 1.3613099679e+00	 2.9729442897e+00
 7.2198549512e-01	 1.3682561728e+00	 3.2932182398e+00
 7.0892539164e-01	 1.3750682589e+00	 3.4131402499e+00
 6.9582052559e-01	 1.3817458679e+00	 3.3307707886e+00
 6.8267291651e-01	 1.3882886809e+00	 3.0462160889e+00
 6.6948458346e-01	 1.3946964183e+00	 2.5616246536e+00
 8.0385163402e-01	 1.3321367050e+00	-6.9195435521e-01
 7.9102971498e-01	 1.3397901430e+00	 1.8404063783e-01
 7.7815063457e-01	 1.3473110973e+00	 9.6796674620e-01
 7.6521640681e-01	 1.3546990078e+00	 1.6476354086e+00
 7.5222905095e-01	 1.3619533548e+00	 2.2133097345e+00
 7.3919059054e-01	 1.3690736582e+00	 2.6574023496e+00
 7.2610305243e-01	 1.3760594780e+00	 2.9484712254e+00
 7.1296846585e-01	 1.3829104142e+00	 3.0654151764e+00
 6.9978886140e-01	 1.3896261063e+00	 3.0063644037e+00
 6.8656627016e-01	 1.3962062336e+00	 2.7719903436e+00
 6.7330272269e-01	 1.4026505149e+00	 2.3654962654e+00
 8.0841008501e-01	 1.3396909347e+00	-2.3658947722e-01
 7.9551545592e-01	 1.3473877735e+00	 3.9440574055e-01
 7.8256334132e-01	 1.3549513773e+00	 9.7105373300e-01
 7.6955576664e-01	 1.3623811830e+00	 1.4800583489e+00
 7.5649476258e-01	 1.3696766676e+00	 1.9108776863e+00
 7.4338236417e-01	 1.3768373485e+00	 2.2557126446e+00
 7.3022060975e-01	 1.3838627833e+00	 2.4953644388e+00
 7.1701154006e-01	 1.3907525695e+00	 2.5969652456e+00
 7.0375719722e-01	 1.3975063447e+00	 2.5581563195e+00
 6.9045962381e-01	 1.4041237863e+00	 2.3803298822e+00
 6.7712086192e-01	 1.4106046116e+00	 2.0677066320e+00
 8.1296853600e-01	 1.3472451643e+00	 3.1657965583e-01
 8.0000119686e-01	 1.3549854040e+00	 6.6887438795e-01
 7.8697604807e-01	 1.3625916574e+00	 1.0057729606e+00
 7.7389512646e-01	 1.3700633581e+00	 1.3142028832e+00
 7.6076047421e-01	 1.3773999804e+00	 1.5839494184e+00
 7.4757413779e-01	 1.3846010389e+00	 1.8076427341e+00
 7.3433816707e-01	 1.3916660885e+00	 1.9755446917e+00
 7.2105461427e-01	 1.3985947248e+00	 2.0515393550e+00
 7.0772553303e-01	 1.4053865830e+00	 2.0289686534e+00
 6.9435297746e-01	 1.4120413390e+00	 1.9101024225e+00
 6.8093900116e-01	 1.4185587083e+00	 1.7001448842e+00
 8.1752698699e-01	 1.3547993940e+00	 9.3386386103e-01
 8.0448693781e-01	 1.3625830345e+00	 9.9349645112e-01
 7.9138875482e-01	 1.3702319374e+00	 1.0749926755e+00
 7.7823448629e-01	 1.3777455332e+00	 1.1668229344e+00
 7.6502618583e-01	 1.3851232932e+00	 1.2602220133e+00
 7.5176591142e-01	 1.3923647292e+00	 1.3491754693e+00
 7.3845572439e-01	 1.3994693938e+00	 1.4297564195e+00
 7.2509768847e-01	 1.4064368800e+00	 1.4719374217e+00
 7.1169386884e-01	 1.4132668214e+00	 1.4606954056e+00
 6.9824633111e-01	 1.4199588917e+00	 1.3993358671e+00
 6.8475714039e-01	 1.4265128050e+00	 1.2940160012e+00
 8.2208543798e-01	 1.3623536237e+00	 1.5823207644e+00
 8.0897267875e-01	 1.3701806650e+00	 1.3546322055e+00
 7.9580146157e-01	 1.3778722174e+00	 1.1815199796e+00
 7.8257384612e-01	 1.3854277083e+00	 1.0543048479e+00
 7.6929189746e-01	 1.3928466060e+00	 9.6678386839e-01
 7.5595768504e-01	 1.4001284195e+00	 9.1521664444e-01
 7.4257328170e-01	 1.4072726991e+00	 8.9830989485e-01
 7.2914076268e-01	 1.4142790353e+00	 9.0003712059e-01
 7.1566220466e-01	 1.4211470598e+00	 8.9432863515e-01
 7.0213968476e-01	 1.4278764444e+00	 8.8524204565e-01
 6.8857527963e-01	 1.4344669017e+00	 8.7986024974e-01
 8.2664388897e-01	 1.3699078534e+00	 2.2297327487e+00
 8.1345841969e-01	 1.3777782955e+00	 1.7389423542e+00
 8.0021416831e-01	 1.3855124975e+00	 1.3281011439e+00
 7.8691320594e-01	 1.3931098834e+00	 9.9267620143e-01
 7.7355760909e-01	 1.4005699188e+00	 7.3013020399e-01
 7.6014945867e-01	 1.4078921099e+00	 5.3990815056e-01
 7.4669083902e-01	 1.4150760043e+00	 4.2342312455e-01
 7.3318383689e-01	 1.4221211906e+00	 3.7681973736e-01
 7.1963054047e-01	 1.4290272981e+00	 3.6998377020e-01
 7.0603303841e-01	 1.4357939971e+00	 4.0423967256e-01
 6.9239341886e-01	 1.4424209984e+00	 4.8757198132e-01
 8.3120233995e-01	 1.3774620831e+00	 2.8445855877e+00
 8.1794416063e-01	 1.3853759260e+00	 2.1333783397e+00
 8.0462687506e-01	 1.3931527775e+00	 1.5174218714e+00
 7.9125256577e-01	 1.4007920586e+00	 9.9761428689e-01
 7.7782332071e-01	 1.4082932316e+00	 5.7617802351e-01
 7.6434123229e-01	 1.4156558002e+00	 2.5664767034e-01
 7.5080839633e-01	 1.4228793096e+00	 4.3857794563e-02
 7.3722691109e-01	 1.4299633459e+00	-5.7604829402e-02
 7.2359887628e-01	 1.4369075365e+00	-7.3075914846e-02
 7.0992639206e-01	 1.4437115498e+00	-8.0234507636e-03
 6.9621155809e-01	 1.4503750951e+00	 1.4641781168e-01
 8.3576079094e-01	 1.3850163128e+00	 3.3960477388e+00
 8.2242990157e-01	 1.3929735565e+00	 2.5251729344e+00
 8.0903958181e-01	 1.4007930576e+00	 1.7521075139e+00
 7.9559192559e-01	 1.4084742337e+00	 1.0844542761e+00
 7.8208903234e-01	 1.4160165444e+00	 5.3028054650e-01
 7.6853300592e-01	 1.4234194906e+00	 9.8107691409e-02
 7.5492595365e-01	 1.4306826148e+00	-2.0309813133e-01
 7.4126998530e-01	 1.4378055012e+00	-3.6393405737e-01
 7.2756721209e-01	 1.4447877749e+00	-3.9641562251e-01
 7.1381974571e-01	 1.4516291026e+00	-3.1664895941e-01
 7.0002969732e-01	 1.4583291918e+00	-1.1494579408e-01
 6.6184830499e-01	 1.3787882249e+00	 2.5177990678e+00
 6.4876990960e-01	 1.3849901442e+00	 1.8920171223e+00
 6.3565522902e-01	 1.3910580450e+00	 1.3612061066e+00
 6.2250625276e-01	 1.3969917650e+00	 9.2791018518e-01
 6.0932496624e-01	 1.4027911802e+00	 5.9448652641e-01
 5.9611334994e-01	 1.4084562042e+00	 3.6311268218e-01
 5.8287337855e-01	 1.4139867881e+00	 2.3579287823e-01
 5.6960702012e-01	 1.4193829200e+00	 2.1436323555e-01
 5.5631623520e-01	 1.4246446250e+00	 3.0049595161e-01
 5.4300297606e-01	 1.4297719645e+00	 4.9570247648e-01
 5.2966918584e-01	 1.4347650360e+00	 8.0133572507e-01
 6.6566644422e-01	 1.3867423216e+00	 2.6234984055e+00
 6.5251260082e-01	 1.3929800192e+00	 2.0150353426e+00
 6.3932226292e-01	 1.3990829251e+00	 1.4873359583e+00
 6.2609743148e-01	 1.4050508762e+00	 1.0457750589e+00
 6.1284010338e-01	 1.4108837477e+00	 6.9521235476e-01
 5.9955227053e-01	 1.4165814526e+00	 4.4000134534e-01
 5.8623591903e-01	 1.4221439419e+00	 2.8399749011e-01
 5.7289302825e-01	 1.4275712036e+00	 2.3056568027e-01
 5.5952557007e-01	 1.4328632628e+00	 2.8258703001e-01
 5.4613550802e-01	 1.4380201815e+00	 4.4246501400e-01
 5.3272479644e-01	 1.4430420576e+00	 7.1213098322e-01
 6.6948458346e-01	 1.3946964183e+00	 2.5616246536e+00
 6.5625529205e-01	 1.4009698942e+00	 2.0076436835e+00
 6.4298929682e-01	 1.4071078052e+00	 1.5180395838e+00
 6.2968861020e-01	 1.4131099874e+00	 1.1002858551e+00
 6.1635524052e-01	 1.4189763151e+00	 7.6108601803e-01
 6.0299119113e-01	 1.4247067010e+00	 5.0638383975e-01
 5.8959845950e-01	 1.4303010957e+00	 3.4137312700e-01
 5.7617903638e-01	 1.4357594872e+00	 2.7050709188e-01
 5.6273490494e-01	 1.4410819007e+00	 2.9750730454e-01
 5.4926803997e-01	 1.4462683985e+00	 4.2537225226e-01
 5.3578040705e-01	 1.4513190791e+00	 6.5638553027e-01
 6.7330272269e-01	 1.4026505149e+00	 2.3654962654e+00
 6.5999798328e-01	 1.4089597691e+00	 1.8948211256e+00
 6.4665633071e-01	 1.4151326853e+00	 1.4710543566e+00
 6.3327978891e-01	 1.4211690985e+00	 1.1030441281e+00
 6.1987037766e-01	 1.4270688825e+00	 7.9868612834e-01
 6.0643011173e-01	 1.4328319495e+00	 5.6493497264e-01
 5.9296099998e-01	 1.4384582495e+00	 4.0781536159e-01
 5.7946504451e-01	 1.4439477707e+00	 3.3243299036e-01
 5.6594423981e-01	 1.4493005385e+00	 3.4298521917e-01
 5.5240057193e-01	 1.4545166154e+00	 4.4277152002e-01
 5.3883601765e-01	 1.4595961006e+00	 6.3420372071e-01
 6.7712086192e-01	 1.4106046116e+00	 2.0677066320e+00
 6.6374067451e-01	 1.4169496441e+00	 1.7010095890e+00
 6.5032336461e-01	 1.4231575654e+00	 1.3637437427e+00
 6.3687096763e-01	 1.4292282097e+00	 1.0654156514e+00
 6.2338551481e-01	 1.4351614500e+00	 8.1446845883e-01
 6.0986903233e-01	 1.4409571979e+00	 6.1829432889e-01
 5.9632354046e-01	 1.4466154033e+00	 4.8324671538e-01
 5.8275105264e-01	 1.4521360543e+00	 4.1465246852e-01
 5.6915357468e-01	 1.4575191764e+00	 4.1682378466e-01
 5.5553310389e-01	 1.4627648324e+00	 4.9307001266e-01
 5.4189162826e-01	 1.4678731222e+00	 6.4570933558e-01
 6.8093900116e-01	 1.4185587083e+00	 1.7001448842e+00
 6.6748336574e-01	 1.4249395191e+00	 1.4501294759e+00
 6.5399039851e-01	 1.4311824455e+00	 1.2131082786e+00
 6.4046214635e-01	 1.4372873208e+00	 9.9853753015e-01
 6.2690065195e-01	 1.4432540174e+00	 8.1476989490e-01
 6.1330795293e-01	 1.4490824463e+00	 6.6906776949e-01
 5.9968608093e-01	 1.4547725572e+00	 5.6761641593e-01
 5.8603706077e-01	 1.4603243379e+00	 5.1553692249e-01
 5.7236290955e-01	 1.4657378143e+00	 5.1689899930e-01
 5.5866563585e-01	 1.4710130494e+00	 5.7473362174e-01
 5.4494723886e-01	 1.4761501437e+00	 6.9104554092e-01
 6.8475714039e-01	 1.4265128050e+00	 1.2940160012e+00
 6.7122605697e-01	 1.4329293940e+00	 1.1655946944e+00
 6.5765743241e-01	 1.4392073256e+00	 1.0357961826e+00
 6.4405332506e-01	 1.4453464320e+00	 9.1332507740e-01
 6.3041578909e-01	 1.4513465848e+00	 8.0581225497e-01
 6.1674687353e-01	 1.4572076947e+00	 7.1982888159e-01
 6.0304862141e-01	 1.4629297110e+00	 6.6090016404e-01
 5.8932306890e-01	 1.4685126215e+00	 6.3351882675e-01
 5.7557224442e-01	 1.4739564521e+00	 6.4115832448e-01
 5.6179816781e-01	 1.4792612664e+00	 6.8628580591e-01
 5.4800284947e-01	 1.4844271652e+00	 7.7042413763e-01
 6.8857527963e-01	 1.4344669017e+00	 8.7986024974e-01
 6.7496874819e-01	 1.4409192690e+00	 8.7032718402e-01
 6.6132446630e-01	 1.4472322057e+00	 8.4811361502e-01
 6.4764450378e-01	 1.4534055432e+00	 8.2047846222e-01
 6.3393092623e-01	 1.4594391523e+00	 7.9370598560e-01
 6.2018579413e-01	 1.4653329431e+00	 7.7312038206e-01
 6.0641116189e-01	 1.4710868648e+00	 7.6309991067e-01
 5.9260907703e-01	 1.4767009051e+00	 7.6709055187e-01
 5.7878157929e-01	 1.4821750900e+00	 7.8761990758e-01
 5.6493069976e-01	 1.4875094834e+00	 8.2643458736e-01
 5.5105846007e-01	 1.4927041868e+00	 8.8458519832e-01
 6.9239341886e-01	 1.4424209984e+00	 4.8757198132e-01
 6.7871143942e-01	 1.4489091440e+00	 5.8677096098e-01
 6.6499150020e-01	 1.4552570858e+00	 6.6603459960e-01
 6.5123568250e-01	 1.4614646543e+00	 7.3048913971e-01
 6.3744606338e-01	 1.4675317197e+00	 7.8445373596e-01
 6.2362471472e-01	 1.4734581915e+00	 8.3145547633e-01
 6.0977370236e-01	 1.4792440186e+00	 8.7424364302e-01
 5.9589508516e-01	 1.4848891887e+00	 9.1479282419e-01
 5.8199091416e-01	 1.4903937278e+00	 9.5446297430e-01
 5.6806323172e-01	 1.4957577004e+00	 9.9411115325e-01
 5.5411407067e-01	 1.5009812083e+00	 1.0338473927e+00
 6.9621155809e-01	 1.4503750951e+00	 1.4641781168e-01
 6.8245413065e-01	 1.4568990189e+00	 3.3690570250e-01
 6.6865853409e-01	 1.4632819659e+00	 5.0521061986e-01
 6.5482686121e-01	 1.4695237655e+00	 6.5364607068e-01
 6.4096120052e-01	 1.4756242871e+00	 7.8395381620e-01
 6.2706363532e-01	 1.4815834399e+00	 8.9731912398e-01
 6.1313624284e-01	 1.4874011724e+00	 9.9426703168e-01
 5.9918109329e-01	 1.4930774723e+00	 1.0750953079e+00
 5.8520024903e-01	 1.4986123657e+00	 1.1398224115e+00
 5.7119576368e-01	 1.5040059173e+00	 1.1879305325e+00
 5.5716968127e-01	 1.5092582298e+00	 1.2183615978e+00
 7.0002969732e-01	 1.4583291918e+00	-1.1494579408e-01
 6.8619682187e-01	 1.4648888939e+00	 1.4225988764e-01
 6.7232556799e-01	 1.4713068460e+00	 3.8097990251e-01
 6.5841803993e-01	 1.4775828767e+00	 6.0004173916e-01
 6.4447633766e-01	 1.4837168546e+00	 7.9796411064e-01
 6.3050255592e-01	 1.4897086883e+00	 9.7276757882e-01
 6.1649878331e-01	 1.4955583263e+00	 1.1228412734e+00
 6.0246710142e-01	 1.5012657558e+00	 1.2464900822e+00
 5.8840958390e-01	 1.5068310035e+00	 1.3417775189e+00
 5.7432829563e-01	 1.5122541343e+00	 1.4065187439e+00
 5.6022529188e-01	 1.5175352514e+00	 1.4382746277e+00
 5.2966918584e-01	 1.4347650360e+00	 8.0133572507e-01
 5.1631906883e-01	 1.4396231580e+00	 1.1426395015e+00
 5.0295228133e-01	 1.4443473582e+00	 1.4416445693e+00
 4.8957073294e-01	 1.4489378386e+00	 1.6947604704e+00
 4.7617632115e-01	 1.4533948358e+00	 1.8986346091e+00
 4.6277093058e-01	 1.4577186201e+00	 2.0501511723e+00
 4.4935643230e-01	 1.4619094952e+00	 2.1464289180e+00
 4.3593468314e-01	 1.4659677976e+00	 2.1848179087e+00
 4.2250752502e-01	 1.4698938963e+00	 2.1628952734e+00
 4.0907678431e-01	 1.4736881920e+00	 2.0784600802e+00
 3.9564427119e-01	 1.4773511167e+00	 1.9295274037e+00
 5.3272479644e-01	 1.4430420576e+00	 7.1213098322e-01
 5.1929766389e-01	 1.4479282056e+00	 1.0214052734e+00
 5.0585376468e-01	 1.4526796592e+00	 1.2959728252e+00
 4.9239501943e-01	 1.4572966217e+00	 1.5313503709e+00
 4.7892333656e-01	 1.4617793309e+00	 1.7234602241e+00
 4.6544061158e-01	 1.4661280587e+00	 1.8686271866e+00
 4.5194872635e-01	 1.4703431105e+00	 1.9635741037e+00
 4.3844954841e-01	 1.4744248249e+00	 2.0054161535e+00
 4.2494493030e-01	 1.4783735728e+00	 1.9916539649e+00
 4.1143670894e-01	 1.4821897575e+00	 1.9201745459e+00
 3.9792670495e-01	 1.4858738132e+00	 1.7895584743e+00
 5.3578040705e-01	 1.4513190791e+00	 6.5638553027e-01
 5.2227625896e-01	 1.4562332532e+00	 9.2830467523e-01
 5.0875524803e-01	 1.4610119603e+00	 1.1741498111e+00
 4.9521930591e-01	 1.4656554048e+00	 1.3888269719e+00
 4.8167035197e-01	 1.4701638260e+00	 1.5677785727e+00
 4.6811029258e-01	 1.4745374972e+00	 1.7069785690e+00
 4.5454102040e-01	 1.4787767258e+00	 1.8029260867e+00
 4.4096441368e-01	 1.4828818521e+00	 1.8526698130e+00
 4.2738233559e-01	 1.4868532494e+00	 1.8541467514e+00
 4.1379663358e-01	 1.4906913229e+00	 1.8055283534e+00
 4.0020913871e-01	 1.4943965098e+00	 1.7053190523e+00
 5.3883601765e-01	 1.4595961006e+00	 6.3420372071e-01
 5.2525485402e-01	 1.4645383008e+00	 8.6547480931e-01
 5.1165673138e-01	 1.4693442613e+00	 1.0797562763e+00
 4.9804359239e-01	 1.4740141879e+00	 1.2716226880e+00
 4.8441736738e-01	 1.4785483210e+00	 1.4362793120e+00
 4.7077997358e-01	 1.4829469358e+00	 1.5695861859e+00
 4.5713331445e-01	 1.4872103411e+00	 1.6684128493e+00
 4.4347927894e-01	 1.4913388794e+00	 1.7300132193e+00
 4.2981974087e-01	 1.4953329259e+00	 1.7520820817e+00
 4.1615655821e-01	 1.4991928884e+00	 1.7328519851e+00
 4.0249157246e-01	 1.5029192063e+00	 1.6710802603e+00
 5.4189162826e-01	 1.4678731222e+00	 6.4570933558e-01
 5.2823344908e-01	 1.4728433483e+00	 8.3502548051e-01
 5.1455821473e-01	 1.4776765623e+00	 1.0163121746e+00
 5.0086787888e-01	 1.4823729709e+00	 1.1840977779e+00
 4.8716438279e-01	 1.4869328161e+00	 1.3339491085e+00
 4.7344965458e-01	 1.4913563743e+00	 1.4620503804e+00
 4.5972560850e-01	 1.4956439564e+00	 1.5650734309e+00
 4.4599414421e-01	 1.4997959067e+00	 1.6403019659e+00
 4.3225714616e-01	 1.5038126025e+00	 1.6856178867e+00
 4.1851648284e-01	 1.5076944539e+00	 1.6994874178e+00
 4.0477400622e-01	 1.5114419029e+00	 1.6809470425e+00
 5.4494723886e-01	 1.4761501437e+00	 6.9104554092e-01
 5.3121204414e-01	 1.4811483959e+00	 8.3904045826e-01
 5.1745969808e-01	 1.4860088634e+00	 9.8747497775e-01
 5.0369216536e-01	 1.4907317540e+00	 1.1314769014e+00
 4.8991139820e-01	 1.4953173111e+00	 1.2666803760e+00
 4.7611933558e-01	 1.4997658129e+00	 1.3893720590e+00
 4.6231790255e-01	 1.5040775717e+00	 1.4964781639e+00
 4.4850900948e-01	 1.5082529339e+00	 1.5855504028e+00
 4.3469455144e-01	 1.5122922790e+00	 1.6547517177e+00
 4.2087640747e-01	 1.5161960194e+00	 1.7028418078e+00
 4.0705643998e-01	 1.5199645994e+00	 1.7291624628e+00
 5.4800284947e-01	 1.4844271652e+00	 7.7042413763e-01
 5.3419063921e-01	 1.4894534435e+00	 8.8006749051e-01
 5.2036118143e-01	 1.4943411644e+00	 9.9765974465e-01
 5.0651645185e-01	 1.4990905371e+00	 1.1186446486e+00
 4.9265841361e-01	 1.5037018062e+00	 1.2391128160e+00
 4.7878901658e-01	 1.5081752515e+00	 1.3557878093e+00
 4.6491019660e-01	 1.5125111870e+00	 1.4660120319e+00
 4.5102387475e-01	 1.5167099612e+00	 1.5677324385e+00
 4.3713195673e-01	 1.5207719556e+00	 1.6594860687e+00
 4.2323633211e-01	 1.5246975849e+00	 1.7403854134e+00
 4.0933887373e-01	 1.5284872959e+00	 1.8101036197e+00
 5.5105846007e-01	 1.4927041868e+00	 8.8458519832e-01
 5.3716923427e-01	 1.4977584911e+00	 9.6071050393e-01
 5.2326266478e-01	 1.5026734654e+00	 1.0503786021e+00
 5.0934073833e-01	 1.5074493201e+00	 1.1497754753e+00
 4.9540542902e-01	 1.5120863013e+00	 1.2556786989e+00
 4.8145869758e-01	 1.5165846900e+00	 1.3654434881e+00
 4.6750249065e-01	 1.5209448024e+00	 1.4769886344e+00
 4.5353874002e-01	 1.5251669885e+00	 1.5887823391e+00
 4.3956936201e-01	 1.5292516321e+00	 1.6998279457e+00
 4.2559625674e-01	 1.5331991503e+00	 1.8096495785e+00
 4.1162130749e-01	 1.5370099925e+00	 1.9182776900e+00
 5.5411407067e-01	 1.5009812083e+00	 1.0338473927e+00
 5.4014782933e-01	 1.5060635386e+00	 1.0829608783e+00
 5.2616414813e-01	 1.5110057664e+00	 1.1489328670e+00
 5.1216502481e-01	 1.5158081032e+00	 1.2289535953e+00
 4.9815244443e-01	 1.5204707963e+00	 1.3207148679e+00
 4.8412837858e-01	 1.5249941286e+00	 1.4223963374e+00
 4.7009478469e-01	 1.5293784177e+00	 1.5326517977e+00
 4.5605360529e-01	 1.5336240157e+00	 1.6505954932e+00
 4.4200676730e-01	 1.5377313087e+00	 1.7757884418e+00
 4.2795618137e-01	 1.5417007158e+00	 1.9082247755e+00
 4.1390374125e-01	 1.5455326890e+00	 2.0483180961e+00
 5.5716968127e-01	 1.5092582298e+00	 1.2183615978e+00
 5.4312642439e-01	 1.5143685862e+00	 1.2487657553e+00
 5.2906563148e-01	 1.5193380675e+00	 1.2965522781e+00
 5.1498931130e-01	 1.5241668863e+00	 1.3601750028e+00
 5.0089945984e-01	 1.5288552914e+00	 1.4384649332e+00
 4.8679805958e-01	 1.5334035671e+00	 1.5306170208e+00
 4.7268707874e-01	 1.5378120330e+00	 1.6361771242e+00
 4.5856847056e-01	 1.5420810430e+00	 1.7550291424e+00
 4.4444417258e-01	 1.5462109852e+00	 1.8873823181e+00
 4.3031610601e-01	 1.5502022813e+00	 2.0337587045e+00
 4.1618617500e-01	 1.5540553856e+00	 2.1949807924e+00
 5.6022529188e-01	 1.5175352514e+00	 1.4382746277e+00
 5.4610501945e-01	 1.5226736338e+00	 1.4600295819e+00
 5.3196711483e-01	 1.5276703685e+00	 1.4963964572e+00
 5.1781359778e-01	 1.5325256694e+00	 1.5473494172e+00
 5.0364647525e-01	 1.5372397864e+00	 1.6130813838e+00
 4.8946774058e-01	 1.5418130057e+00	 1.6939915842e+00
 4.7527937279e-01	 1.5462456483e+00	 1.7906734816e+00
 4.6108333583e-01	 1.5505380703e+00	 1.9039030800e+00
 4.4688157787e-01	 1.5546906618e+00	 2.0346275903e+00
 4.3267603064e-01	 1.5587038468e+00	 2.1839544477e+00
 4.1846860876e-01	 1.5625780821e+00	 2.3531406655e+00
 3.9564427119e-01	 1.4773511167e+00	 1.9295274037e+00
 3.8221177925e-01	 1.4808831335e+00	 1.7555976100e+00
 3.6878108538e-01	 1.4842847367e+00	 1.5968230709e+00
 3.5535394869e-01	 1.4875564508e+00	 1.4606143235e+00
 3.4193210972e-01	 1.4906988290e+00	 1.3518926628e+00
 3.2851728995e-01	 1.4937124529e+00	 1.2703876700e+00
 3.1511119125e-01	 1.4965979319e+00	 1.2156840508e+00
 3.0171549544e-01	 1.4993559022e+00	 1.1872260483e+00
 2.8833186380e-01	 1.5019870269e+00	 1.1843222083e+00
 2.7496193661e-01	 1.5044919947e+00	 1.2061504636e+00
 2.6160733276e-01	 1.5068715195e+00	 1.2517635066e+00
 3.9792670495e-01	 1.4858738132e+00	 1.7895584743e+00
 3.8441672225e-01	 1.4894262059e+00	 1.6361158312e+00
 3.7090854800e-01	 1.4928474327e+00	 1.4967786657e+00
 3.5740395145e-01	 1.4961380210e+00	 1.3771515474e+00
 3.4390468318e-01	 1.4992985273e+00	 1.2843245192e+00
 3.3041247460e-01	 1.5023295364e+00	 1.2184107414e+00
 3.1692903741e-01	 1.5052316614e+00	 1.1791776419e+00
 3.0345606313e-01	 1.5080055422e+00	 1.1660639651e+00
 2.8999522260e-01	 1.5106518457e+00	 1.1781882799e+00
 2.7654816559e-01	 1.5131712644e+00	 1.2143579715e+00
 2.6311652031e-01	 1.5155645164e+00	 1.2730786739e+00
 4.0020913871e-01	 1.4943965098e+00	 1.7053190523e+00
 3.8662166525e-01	 1.4979692783e+00	 1.5836346320e+00
 3.7303601062e-01	 1.5014101286e+00	 1.4716667026e+00
 3.5945395421e-01	 1.5047195911e+00	 1.3736012400e+00
 3.4587725664e-01	 1.5078982255e+00	 1.2980363323e+00
 3.3230765926e-01	 1.5109466200e+00	 1.2456142177e+00
 3.1874688358e-01	 1.5138653910e+00	 1.2162623458e+00
 3.0519663081e-01	 1.5166551823e+00	 1.2094335706e+00
 2.9165858140e-01	 1.5193166644e+00	 1.2241175753e+00
 2.7813439456e-01	 1.5218505340e+00	 1.2588529057e+00
 2.6462570786e-01	 1.5242575133e+00	 1.3117395652e+00
 4.0249157246e-01	 1.5029192063e+00	 1.6710802603e+00
 3.8882660825e-01	 1.5065123507e+00	 1.5888921228e+00
 3.7516347324e-01	 1.5099728245e+00	 1.5096513235e+00
 3.6150395697e-01	 1.5133011612e+00	 1.4364571394e+00
 3.4784983011e-01	 1.5164979237e+00	 1.3785726804e+00
 3.3420284392e-01	 1.5195637035e+00	 1.3373547152e+00
 3.2056472974e-01	 1.5224991205e+00	 1.3128665119e+00
 3.0693719849e-01	 1.5253048223e+00	 1.3045926619e+00
 2.9332194020e-01	 1.5279814831e+00	 1.3114526008e+00
 2.7972062354e-01	 1.5305298037e+00	 1.3318148298e+00
 2.6613489541e-01	 1.5329505102e+00	 1.3635117835e+00
 4.0477400622e-01	 1.5114419029e+00	 1.6809470425e+00
 3.9103155125e-01	 1.5150554231e+00	 1.6428351672e+00
 3.7729093586e-01	 1.5185355205e+00	 1.5992661588e+00
 3.6355395973e-01	 1.5218827314e+00	 1.5525254490e+00
 3.4982240357e-01	 1.5250976219e+00	 1.5118118827e+00
 3.3609802858e-01	 1.5281807870e+00	 1.4793266911e+00
 3.2238257590e-01	 1.5311328501e+00	 1.4552432883e+00
 3.0867776617e-01	 1.5339544623e+00	 1.4390936920e+00
 2.9498529900e-01	 1.5366463019e+00	 1.4297833302e+00
 2.8130685251e-01	 1.5392090733e+00	 1.4256066044e+00
 2.6764408295e-01	 1.5416435071e+00	 1.4242631507e+00
 4.0705643998e-01	 1.5199645994e+00	 1.7291624628e+00
 3.9323649426e-01	 1.5235984955e+00	 1.7366198940e+00
 3.7941839848e-01	 1.5270982164e+00	 1.7293085164e+00
 3.6560396249e-01	 1.5304643015e+00	 1.7089160172e+00
 3.5179497703e-01	 1.5336973201e+00	 1.6839565963e+00
 3.3799321323e-01	 1.5367978705e+00	 1.6575529391e+00
 3.2420042207e-01	 1.5397665797e+00	 1.6299614947e+00
 3.1041833386e-01	 1.5426041024e+00	 1.6007754997e+00
 2.9664865780e-01	 1.5453111206e+00	 1.5689402681e+00
 2.8289308149e-01	 1.5478883430e+00	 1.5327692592e+00
 2.6915327050e-01	 1.5503365040e+00	 1.4899608622e+00
 4.0933887373e-01	 1.5284872959e+00	 1.8101036197e+00
 3.9544143726e-01	 1.5321415679e+00	 1.8616056536e+00
 3.8154586110e-01	 1.5356609123e+00	 1.8888318466e+00
 3.6765396525e-01	 1.5390458716e+00	 1.8930338084e+00
 3.5376755049e-01	 1.5422970183e+00	 1.8815247234e+00
 3.3988839789e-01	 1.5454149540e+00	 1.8583753980e+00
 3.2601826823e-01	 1.5484003092e+00	 1.8238967970e+00
 3.1215890154e-01	 1.5512537424e+00	 1.7777553121e+00
 2.9831201659e-01	 1.5539759394e+00	 1.7189877416e+00
 2.8447931046e-01	 1.5565676126e+00	 1.6460170340e+00
 2.7066245805e-01	 1.5590295009e+00	 1.5566687343e+00
 4.1162130749e-01	 1.5370099925e+00	 1.9182776900e+00
 3.9764638026e-01	 1.5406846403e+00	 2.0093491697e+00
 3.8367332372e-01	 1.5442236082e+00	 2.0671384510e+00
 3.6970396801e-01	 1.5476274418e+00	 2.0925706514e+00
 3.5574012396e-01	 1.5508967165e+00	 2.0913406167e+00
 3.4178358255e-01	 1.5540320375e+00	 2.0684462621e+00
 3.2783611439e-01	 1.5570340388e+00	 2.0242231707e+00
 3.1389946922e-01	 1.5599033824e+00	 1.9584210092e+00
 2.9997537539e-01	 1.5626407581e+00	 1.8702174123e+00
 2.8606553943e-01	 1.5652468823e+00	 1.7582325810e+00
 2.7217164560e-01	 1.5677224978e+00	 1.6205445390e+00
 4.1390374125e-01	 1.5455326890e+00	 2.0483180961e+00
 3.9985132326e-01	 1.5492277127e+00	 2.1715988771e+00
 3.8580078635e-01	 1.5527863042e+00	 2.2537724263e+00
 3.7175397077e-01	 1.5562090119e+00	 2.2954565612e+00
 3.5771269742e-01	 1.5594964147e+00	 2.3005265702e+00
 3.4367876720e-01	 1.5626491211e+00	 2.2747193815e+00
 3.2965396056e-01	 1.5656677684e+00	 2.2184046441e+00
 3.1564003690e-01	 1.5685530225e+00	 2.1314236420e+00
 3.0163873419e-01	 1.5713055768e+00	 2.0131419993e+00
 2.8765176841e-01	 1.5739261520e+00	 1.8624623237e+00
 2.7368083315e-01	 1.5764154947e+00	 1.6778374255e+00
 4.1618617500e-01	 1.5540553856e+00	 2.1949807924e+00
 4.0205626627e-01	 1.5577707851e+00	 2.3402894393e+00
 3.8792824897e-01	 1.5613490001e+00	 2.4385128341e+00
 3.7380397353e-01	 1.5647905820e+00	 2.4898192918e+00
 3.5968527088e-01	 1.5680961129e+00	 2.4964945867e+00
 3.4557395186e-01	 1.5712662046e+00	 2.4644419408e+00
 3.3147180672e-01	 1.5743014979e+00	 2.3941873086e+00
 3.1738060459e-01	 1.5772026625e+00	 2.2856701916e+00
 3.0330209299e-01	 1.5799703956e+00	 2.1384892060e+00
 2.8923799738e-01	 1.5826054216e+00	 1.9519119643e+00
 2.7519002070e-01	 1.5851084916e+00	 1.7248854238e+00
 4.1846860876e-01	 1.5625780821e+00	 2.3531406655e+00
 4.0426120927e-01	 1.5663138575e+00	 2.5075364382e+00
 3.9005571159e-01	 1.5699116960e+00	 2.6113670879e+00
 3.7585397630e-01	 1.5733721522e+00	 2.6641974773e+00
 3.6165784435e-01	 1.5766958111e+00	 2.6669384095e+00
 3.4746913652e-01	 1.5798832881e+00	 2.6251464066e+00
 3.3328965288e-01	 1.5829352275e+00	 2.5395915862e+00
 3.1912117227e-01	 1.5858523025e+00	 2.4103165634e+00
 3.0496545179e-01	 1.5886352143e+00	 2.2371958415e+00
 2.9082422635e-01	 1.5912846913e+00	 2.0199421365e+00
 2.7669920824e-01	 1.5938014885e+00	 1.7581130259e+00
 2.6160733276e-01	 1.5068715195e+00	 1.2517635066e+00
 2.4826738388e-01	 1.5091267122e+00	 1.3008300583e+00
 2.3494594031e-01	 1.5112579195e+00	 1.3352068877e+00
 2.2164455859e-01	 1.5132659262e+00	 1.3571857804e+00
 2.0836477224e-01	 1.5151515397e+00	 1.3690822970e+00
 1.9510809149e-01	 1.5169155893e+00	 1.3732348776e+00
 1.8187600295e-01	 1.5185589255e+00	 1.3720040883e+00
 1.6866996932e-01	 1.5200824195e+00	 1.3677719920e+00
 1.5549142916e-01	 1.5214869622e+00	 1.3629416305e+00
 1.4234179663e-01	 1.5227734638e+00	 1.3599366049e+00
 1.2922246127e-01	 1.5239428532e+00	 1.3612007409e+00
 2.6311652031e-01	 1.5155645164e+00	 1.2730786739e+00
 2.4969961454e-01	 1.5178327191e+00	 1.3361981663e+00
 2.3630132085e-01	 1.5199762211e+00	 1.3871257556e+00
 2.2292320474e-01	 1.5219958118e+00	 1.4266621825e+00
 2.0956680858e-01	 1.5238923033e+00	 1.4557898488e+00
 1.9623365131e-01	 1.5256665295e+00	 1.4756701232e+00
 1.8292522812e-01	 1.5273193459e+00	 1.4876406325e+00
 1.6964301015e-01	 1.5288516288e+00	 1.4932125303e+00
 1.5638844427e-01	 1.5302642742e+00	 1.4940677347e+00
 1.4316295277e-01	 1.5315581975e+00	 1.4920561292e+00
 1.2996793322e-01	 1.5327343330e+00	 1.4891927210e+00
 2.6462570786e-01	 1.5242575133e+00	 1.3117395652e+00
 2.5113184521e-01	 1.5265387260e+00	 1.3695724766e+00
 2.3765670139e-01	 1.5286945228e+00	 1.4201538469e+00
 2.2420185088e-01	 1.5307256975e+00	 1.4630349638e+00
 2.1076884491e-01	 1.5326330668e+00	 1.4980710059e+00
 1.9735921113e-01	 1.5344174696e+00	 1.5254170884e+00
 1.8397445329e-01	 1.5360797664e+00	 1.5455241688e+00
 1.7061605099e-01	 1.5376208381e+00	 1.5591348119e+00
 1.5728545937e-01	 1.5390415861e+00	 1.5672788097e+00
 1.4398410891e-01	 1.5403429312e+00	 1.5712686560e+00
 1.3071340517e-01	 1.5415258128e+00	 1.5726948737e+00
 2.6613489541e-01	 1.5329505102e+00	 1.3635117835e+00
 2.5256407588e-01	 1.5352447329e+00	 1.4003735829e+00
 2.3901208193e-01	 1.5374128244e+00	 1.4367555849e+00
 2.2548049703e-01	 1.5394555831e+00	 1.4711997150e+00
 2.1197088125e-01	 1.5413738303e+00	 1.5026387657e+00
 1.9848477095e-01	 1.5431684098e+00	 1.5303917136e+00
 1.8502367847e-01	 1.5448401868e+00	 1.5541588039e+00
 1.7158909182e-01	 1.5463900474e+00	 1.5740164034e+00
 1.5818247447e-01	 1.5478188981e+00	 1.5904116227e+00
 1.4480526504e-01	 1.5491276649e+00	 1.6041567100e+00
 1.3145887712e-01	 1.5503172926e+00	 1.6164232184e+00
 2.6764408295e-01	 1.5416435071e+00	 1.4242631507e+00
 2.5399630654e-01	 1.5439507398e+00	 1.4280416501e+00
 2.4036746247e-01	 1.5461311260e+00	 1.4393460844e+00
 2.2675914318e-01	 1.5481854687e+00	 1.4559476400e+00
 2.1317291759e-01	 1.5501145939e+00	 1.4760604856e+00
 1.9961033077e-01	 1.5519193500e+00	 1.4983368864e+00
 1.8607290364e-01	 1.5536006072e+00	 1.5218620252e+00
 1.7256213266e-01	 1.5551592567e+00	 1.5461485296e+00
 1.5907948957e-01	 1.5565962101e+00	 1.5711307100e+00
 1.4562642118e-01	 1.5579123986e+00	 1.5971585115e+00
 1.3220434908e-01	 1.5591087724e+00	 1.6249911844e+00
 2.6915327050e-01	 1.5503365040e+00	 1.4899608622e+00
 2.5542853721e-01	 1.5526567467e+00	 1.4520358938e+00
 2.4172284301e-01	 1.5548494276e+00	 1.4302925696e+00
 2.2803778932e-01	 1.5569153543e+00	 1.4219685248e+00
 2.1437495392e-01	 1.5588553574e+00	 1.4247620138e+00
 2.0073589059e-01	 1.5606702902e+00	 1.4368273451e+00
 1.8712212881e-01	 1.5623610276e+00	 1.4567699881e+00
 1.7353517349e-01	 1.5639284660e+00	 1.4836413560e+00
 1.5997650467e-01	 1.5653735221e+00	 1.5169332660e+00
 1.4644757732e-01	 1.5666971323e+00	 1.5565720824e+00
 1.3294982103e-01	 1.5679002521e+00	 1.6029125465e+00
 2.7066245805e-01	 1.5590295009e+00	 1.5566687343e+00
 2.5686076787e-01	 1.5613627536e+00	 1.4718340752e+00
 2.4307822355e-01	 1.5635677293e+00	 1.4119157431e+00
 2.2931643547e-01	 1.5656452400e+00	 1.3738536044e+00
 2.1557699026e-01	 1.5675961210e+00	 1.3550316804e+00
 2.0186145041e-01	 1.5694212303e+00	 1.3532744173e+00
 1.8817135398e-01	 1.5711214480e+00	 1.3668426260e+00
 1.7450821432e-01	 1.5726976753e+00	 1.3944290935e+00
 1.6087351978e-01	 1.5741508341e+00	 1.4351538671e+00
 1.4726873345e-01	 1.5754818660e+00	 1.4885592144e+00
 1.3369529298e-01	 1.5766917319e+00	 1.5546042624e+00
 2.7217164560e-01	 1.5677224978e+00	 1.6205445390e+00
 2.5829299854e-01	 1.5700687605e+00	 1.4869320098e+00
 2.4443360408e-01	 1.5722860309e+00	 1.3864911062e+00
 2.3059508161e-01	 1.5743751256e+00	 1.3160983335e+00
 2.1677902659e-01	 1.5763368845e+00	 1.2730241533e+00
 2.0298701022e-01	 1.5781721705e+00	 1.2549305989e+00
 1.8922057915e-01	 1.5798818685e+00	 1.2598685882e+00
 1.7548125515e-01	 1.5814668847e+00	 1.2862749323e+00
 1.6177053488e-01	 1.5829281461e+00	 1.3329690379e+00
 1.4808988959e-01	 1.5842665997e+00	 1.3991493041e+00
 1.3444076493e-01	 1.5854832117e+00	 1.4843892153e+00
 2.7368083315e-01	 1.5764154947e+00	 1.6778374255e+00
 2.5972522920e-01	 1.5787747674e+00	 1.4968430902e+00
 2.4578898462e-01	 1.5810043325e+00	 1.3562502339e+00
 2.3187372776e-01	 1.5831050112e+00	 1.2531050626e+00
 2.1798106293e-01	 1.5850776481e+00	 1.1847641654e+00
 2.0411257004e-01	 1.5869231107e+00	 1.1488939801e+00
 1.9026980432e-01	 1.5886422889e+00	 1.1434700138e+00
 1.7645429599e-01	 1.5902360940e+00	 1.1667758112e+00
 1.6266754998e-01	 1.5917054580e+00	 1.2174016642e+00
 1.4891104572e-01	 1.5930513333e+00	 1.2942430604e+00
 1.3518623688e-01	 1.5942746915e+00	 1.3964988645e+00
 2.7519002070e-01	 1.5851084916e+00	 1.7248854238e+00
 2.6115745987e-01	 1.5874807743e+00	 1.5010978223e+00
 2.4714436516e-01	 1.5897226341e+00	 1.3233820053e+00
 2.3315237390e-01	 1.5918348968e+00	 1.1891856244e+00
 2.1918309926e-01	 1.5938184116e+00	 1.0961501173e+00
 2.0523812986e-01	 1.5956740509e+00	 1.0421125245e+00
 1.9131902949e-01	 1.5974027093e+00	 1.0251071464e+00
 1.7742733682e-01	 1.5990053033e+00	 1.0433670285e+00
 1.6356456508e-01	 1.6004827700e+00	 1.0953252618e+00
 1.4973220186e-01	 1.6018360670e+00	 1.1796160891e+00
 1.3593170884e-01	 1.6030661713e+00	 1.2950758083e+00
 2.7669920824e-01	 1.5938014885e+00	 1.7581130259e+00
 2.6258969053e-01	 1.5961867811e+00	 1.4992433735e+00
 2.4849974570e-01	 1.5984409358e+00	 1.2900337922e+00
 2.3443102005e-01	 1.6005647824e+00	 1.1285638336e+00
 2.2038513559e-01	 1.6025591752e+00	 1.0129575600e+00
 2.0636368968e-01	 1.6044249910e+00	 9.4138820603e-01
 1.9236825466e-01	 1.6061631297e+00	 9.1208279689e-01
 1.7840037765e-01	 1.6077745126e+00	 9.2332670170e-01
 1.6446158018e-01	 1.6092600820e+00	 9.7346810212e-01
 1.5055335800e-01	 1.6106208007e+00	 1.0609223593e+00
 1.3667718079e-01	 1.6118576511e+00	 1.1841762625e+00
 1.2922246127e-01	 1.5239428532e+00	 1.3612007409e+00
 1.1613700454e-01	 1.5249959077e+00	 1.3771029446e+00
 1.0308450745e-01	 1.5259337991e+00	 1.4154590430e+00
 9.0066254107e-02	 1.5267575069e+00	 1.4749044699e+00
 7.7083504135e-02	 1.5274680266e+00	 1.5540903138e+00
 6.4137492550e-02	 1.5280663686e+00	 1.6516888346e+00
 5.1229429637e-02	 1.5285535581e+00	 1.7663988548e+00
 3.8360500855e-02	 1.5289306340e+00	 1.8969510138e+00
 2.5531866762e-02	 1.5291986486e+00	 2.0421128747e+00
 1.2744662951e-02	 1.5293586666e+00	 2.2006938767e+00
 0.0000000000e+00	 1.5294117647e+00	 2.3715501242e+00
 1.2996793322e-01	 1.5327343330e+00	 1.4891927210e+00
 1.1680698775e-01	 1.5337934625e+00	 1.4940975943e+00
 1.0367919206e-01	 1.5347367645e+00	 1.5142018702e+00
 9.0585837666e-02	 1.5355652242e+00	 1.5497789946e+00
 7.7528191458e-02	 1.5362798428e+00	 1.6009990016e+00
 6.4507495578e-02	 1.5368816366e+00	 1.6679351607e+00
 5.1524967290e-02	 1.5373716366e+00	 1.7505706143e+00
 3.8581798896e-02	 1.5377508879e+00	 1.8488049902e+00
 2.5679157647e-02	 1.5380204486e+00	 1.9624609728e+00
 1.2818185686e-02	 1.5381813897e+00	 2.0912908206e+00
 0.0000000000e+00	 1.5382347941e+00	 2.2349828172e+00
 1.3071340517e-01	 1.5415258128e+00	 1.5726948737e+00
 1.1747697097e-01	 1.5425910172e+00	 1.5763536875e+00
 1.0427387667e-01	 1.5435397298e+00	 1.5870946477e+00
 9.1105421225e-02	 1.5443729414e+00	 1.6066412720e+00
 7.7972878782e-02	 1.5450916589e+00	 1.6365198814e+00
 6.4877498605e-02	 1.5456969045e+00	 1.6780669572e+00
 5.1820504944e-02	 1.5461897151e+00	 1.7324365849e+00
 3.8803096937e-02	 1.5465711417e+00	 1.8006079638e+00
 2.5826448532e-02	 1.5468422485e+00	 1.8833929663e+00
 1.2891708422e-02	 1.5470041127e+00	 1.9814437264e+00
 0.0000000000e+00	 1.5470578235e+00	 2.0952602427e+00
 1.3145887712e-01	 1.5503172926e+00	 1.6164232184e+00
 1.1814695418e-01	 1.5513885720e+00	 1.6266424695e+00
 1.0486856128e-01	 1.5523426952e+00	 1.6354188767e+00
 9.1625004784e-02	 1.5531806587e+00	 1.6457393834e+00
 7.8417566105e-02	 1.5539034751e+00	 1.6603249416e+00
 6.5247501633e-02	 1.5545121725e+00	 1.6816381629e+00
 5.2116042599e-02	 1.5550077936e+00	 1.7118911323e+00
 3.9024394979e-02	 1.5553913955e+00	 1.7530533622e+00
 2.5973739417e-02	 1.5556640485e+00	 1.8068598659e+00
 1.2965231157e-02	 1.5558268358e+00	 1.8748193284e+00
 0.0000000000e+00	 1.5558808529e+00	 1.9582223580e+00
 1.3220434908e-01	 1.5591087724e+00	 1.6249911844e+00
 1.1881693739e-01	 1.5601861267e+00	 1.6476760521e+00
 1.0546324589e-01	 1.5611456605e+00	 1.6604300969e+00
 9.2144588344e-02	 1.5619883759e+00	 1.6673183061e+00
 7.8862253428e-02	 1.5627152913e+00	 1.6720955867e+00
 6.5617504661e-02	 1.5633274404e+00	 1.6782142989e+00
 5.2411580253e-02	 1.5638258721e+00	 1.6888320091e+00
 3.9245693021e-02	 1.5642116493e+00	 1.7068194384e+00
 2.6121030302e-02	 1.5644858484e+00	 1.7347685826e+00
 1.3038753893e-02	 1.5646495589e+00	 1.7750009829e+00
 0.0000000000e+00	 1.5647038823e+00	 1.8295761259e+00
 1.3294982103e-01	 1.5679002521e+00	 1.6029125465e+00
 1.1948692060e-01	 1.5689836815e+00	 1.6421091305e+00
 1.0605793051e-01	 1.5699486259e+00	 1.6633586706e+00
 9.2664171903e-02	 1.5707960932e+00	 1.6716200527e+00
 7.9306940752e-02	 1.5715271074e+00	 1.6715224207e+00
 6.5987507689e-02	 1.5721427084e+00	 1.6673721865e+00
 5.2707117907e-02	 1.5726439506e+00	 1.6631602955e+00
 3.9466991063e-02	 1.5730319031e+00	 1.6625697241e+00
 2.6268321188e-02	 1.5733076484e+00	 1.6689831846e+00
 1.3112276629e-02	 1.5734722820e+00	 1.6854910167e+00
 0.0000000000e+00	 1.5735269117e+00	 1.7148992433e+00
 1.3369529298e-01	 1.5766917319e+00	 1.5546042624e+00
 1.2015690381e-01	 1.5777812362e+00	 1.6125406413e+00
 1.0665261512e-01	 1.5787515913e+00	 1.6454105397e+00
 9.3183755462e-02	 1.5796038104e+00	 1.6588838055e+00
 7.9751628075e-02	 1.5803389236e+00	 1.6583050386e+00
 6.6357510716e-02	 1.5809579763e+00	 1.6486996747e+00
 5.3002655562e-02	 1.5814620291e+00	 1.6347803424e+00
 3.9688289105e-02	 1.5818521569e+00	 1.6209534683e+00
 2.6415612073e-02	 1.5821294484e+00	 1.6113261106e+00
 1.3185799365e-02	 1.5822950051e+00	 1.6097129963e+00
 0.0000000000e+00	 1.5823499412e+00	 1.6196437447e+00
 1.3444076493e-01	 1.5854832117e+00	 1.4843892153e+00
 1.2082688702e-01	 1.5865787910e+00	 1.5615153654e+00
 1.0724729973e-01	 1.5875545566e+00	 1.6077679576e+00
 9.3703339021e-02	 1.5884115277e+00	 1.6293460467e+00
 8.0196315399e-02	 1.5891507398e+00	 1.6321518237e+00
 6.6727513744e-02	 1.5897732442e+00	 1.6217953757e+00
 5.3298193216e-02	 1.5902801076e+00	 1.6035997157e+00
 3.9909587147e-02	 1.5906724107e+00	 1.5826060619e+00
 2.6562902958e-02	 1.5909512483e+00	 1.5635793445e+00
 1.3259322100e-02	 1.5911177282e+00	 1.5510139219e+00
 0.0000000000e+00	 1.5911729706e+00	 1.5491394869e+00
 1.3518623688e-01	 1.5942746915e+00	 1.3964988645e+00
 1.2149687023e-01	 1.5953763457e+00	 1.4915254772e+00
 1.0784198434e-01	 1.5963575220e+00	 1.5515901959e+00
 9.4222922580e-02	 1.5972192449e+00	 1.5832406832e+00
 8.0641002722e-02	 1.5979625559e+00	 1.5927797523e+00
 6.7097516772e-02	 1.5985885122e+00	 1.5862684093e+00
 5.3593730871e-02	 1.5990981861e+00	 1.5695291434e+00
 4.0130885188e-02	 1.5994926645e+00	 1.5481494470e+00
 2.6710193843e-02	 1.5997730483e+00	 1.5274855498e+00
 1.3332844836e-02	 1.5999404513e+00	 1.5126663484e+00
 0.0000000000e+00	 1.5999960000e+00	 1.5085975169e+00
 1.3593170884e-01	 1.6030661713e+00	 1.2950758083e+00
 1.2216685344e-01	 1.6041739005e+00	 1.4050120422e+00
 1.0843666895e-01	 1.6051604873e+00	 1.4780142282e+00
 9.4742506139e-02	 1.6060269622e+00	 1.5207991676e+00
 8.1085690045e-02	 1.6067743721e+00	 1.5399142038e+00
 6.7467519799e-02	 1.6074037801e+00	 1.5417381564e+00
 5.3889268525e-02	 1.6079162646e+00	 1.5324824627e+00
 4.0352183230e-02	 1.6083129183e+00	 1.5181925133e+00
 2.6857484728e-02	 1.6085948482e+00	 1.5047491673e+00
 1.3406367572e-02	 1.6087631744e+00	 1.4978704374e+00
 0.0000000000e+00	 1.6088190294e+00	 1.5031133306e+00
 1.3667718079e-01	 1.6118576511e+00	 1.1841762625e+00
 1.2283683665e-01	 1.6129714553e+00	 1.3043664650e+00
 1.0903135356e-01	 1.6139634527e+00	 1.3881553900e+00
 9.5262089698e-02	 1.6148346794e+00	 1.4422506144e+00
 8.1530377368e-02	 1.6155861883e+00	 1.4732887771e+00
 6.7837522827e-02	 1.6162190481e+00	 1.4878340187e+00
 5.4184806178e-02	 1.6167343431e+00	 1.4923765706e+00
 4.0573481271e-02	 1.6171331722e+00	 1.4933314815e+00
 2.7004775613e-02	 1.6174166482e+00	 1.4970374766e+00
 1.3479890307e-02	 1.6175858975e+00	 1.5097559413e+00
 0.0000000000e+00	 1.6176420588e+00	 1.5376700232e+00
 1.6176420588e+00	 0.0000000000e+00	-2.6027650326e+00
 1.6175858975e+00	 1.3479890307e-02	-9.2134861515e+00
 1.6174166482e+00	 2.7004775613e-02	-1.3255403354e+01
 1.6171331722e+00	 4.0573481271e-02	-1.5104856592e+01
 1.6167343431e+00	 5.4184806178e-02	-1.5142018136e+01
 1.6162190481e+00	 6.7837522827e-02	-1.3750518232e+01
 1.6155861883e+00	 8.1530377368e-02	-1.1317056365e+01
 1.6148346794e+00	 9.5262089698e-02	-8.2309984036e+00
 1.6139634527e+00	 1.0903135356e-01	-4.8839599237e+00
 1.6129714553e+00	 1.2283683665e-01	-1.6693760282e+00
 1.6118576511e+00	 1.3667718079e-01	 1.0179419736e+00
 1.6264665874e+00	 0.0000000000e+00	-2.1728955718e+00
 1.6264101197e+00	 1.3553425535e-02	-7.1083542870e+00
 1.6262399471e+00	 2.7152091524e-02	-9.9386962104e+00
 1.6259549247e+00	 4.0794816914e-02	-1.0981846465e+01
 1.6255539199e+00	 5.4480394048e-02	-1.0558107829e+01
 1.6250358139e+00	 6.8207588723e-02	-8.9898222554e+00
 1.6243995017e+00	 8.1975140250e-02	-6.6010207636e+00
 1.6236438933e+00	 9.5781761542e-02	-3.7170619909e+00
 1.6227679138e+00	 1.0962613921e-01	-6.6425973034e-01
 1.6217705049e+00	 1.2350693370e-01	 2.2305002007e+00
 1.6206506247e+00	 1.3742277941e-01	 4.6401533891e+00
 1.6352911109e+00	 0.0000000000e+00	-1.8763469751e+00
 1.6352343369e+00	 1.3626960720e-02	-5.3785273953e+00
 1.6350632411e+00	 2.7299407352e-02	-7.1863565080e+00
 1.6347766722e+00	 4.1016152430e-02	-7.5629461588e+00
 1.6343734917e+00	 5.4775981750e-02	-6.7725934633e+00
 1.6338525747e+00	 6.8577654409e-02	-5.0804800945e+00
 1.6332128102e+00	 8.2419902880e-02	-2.7523624204e+00
 1.6324531021e+00	 9.6301433091e-02	-5.4252805178e-02
 1.6315723700e+00	 1.1022092453e-01	 2.7479075892e+00
 1.6305695495e+00	 1.2417703037e-01	 5.3885841445e+00
 1.6294435933e+00	 1.3816837761e-01	 7.6029918909e+00
 1.6441156245e+00	 0.0000000000e+00	-1.7474907433e+00
 1.6440585441e+00	 1.3700495823e-02	-4.0365427272e+00
 1.6438865250e+00	 2.7446723012e-02	-4.9932606296e+00
 1.6435984097e+00	 4.1237487696e-02	-4.8294915942e+00
 1.6431930536e+00	 5.5071569116e-02	-3.7573349475e+00
 1.6426693255e+00	 6.8947719676e-02	-1.9888811294e+00
 1.6420261086e+00	 8.2864665005e-02	 2.6405631552e-01
 1.6412623009e+00	 9.6821104052e-02	 2.7902153647e+00
 1.6403768161e+00	 1.1081570918e-01	 5.3791664186e+00
 1.6393685841e+00	 1.2484712629e-01	 7.8215991187e+00
 1.6382365519e+00	 1.3891397496e-01	 9.9096147067e+00
 1.6529401231e+00	 0.0000000000e+00	-1.8199998280e+00
 1.6528827363e+00	 1.3774030800e-02	-3.0946966478e+00
 1.6527097939e+00	 2.7594038422e-02	-3.3544130519e+00
 1.6524201322e+00	 4.1458822586e-02	-2.7632282442e+00
 1.6520126004e+00	 5.5367155980e-02	-1.4847969021e+00
 1.6514860613e+00	 6.9317784313e-02	 3.1787039427e-01
 1.6508393921e+00	 8.3309426375e-02	 2.4826317316e+00
 1.6500714848e+00	 9.7340774129e-02	 4.8484431084e+00
 1.6491812473e+00	 1.1141049281e-01	 7.2555920197e+00
 1.6481676038e+00	 1.2551722106e-01	 9.5459350301e+00
 1.6470294956e+00	 1.3965957104e-01	 1.1563138973e+01
 1.6617646017e+00	 0.0000000000e+00	-2.1268671794e+00
 1.6617069085e+00	 1.3847565611e-02	-2.5650509396e+00
 1.6615330428e+00	 2.7741353497e-02	-2.2649427707e+00
 1.6612418347e+00	 4.1680156973e-02	-1.3463000184e+00
 1.6608321273e+00	 5.5662742174e-02	 7.1967688903e-02
 1.6603027772e+00	 6.9687848112e-02	 1.8719746778e+00
 1.6596526556e+00	 8.3754186736e-02	 3.9370387910e+00
 1.6588806487e+00	 9.7860443028e-02	 6.1518639598e+00
 1.6579856585e+00	 1.1200527510e-01	 8.4027254652e+00
 1.6569666035e+00	 1.2618731431e-01	 1.0577657556e+01
 1.6558224194e+00	 1.4040516544e-01	 1.2566643081e+01
 1.6705890552e+00	 0.0000000000e+00	-2.7004237086e+00
 1.6705310557e+00	 1.3921100213e-02	-2.4594389065e+00
 1.6703562668e+00	 2.7888668156e-02	-1.7200998403e+00
 1.6700635123e+00	 4.1901490734e-02	-5.6123850092e-01
 1.6696516291e+00	 5.5958327531e-02	 9.3933330992e-01
 1.6691194680e+00	 7.0057910862e-02	 2.7049550692e+00
 1.6684658941e+00	 8.4198945838e-02	 4.6602505355e+00
 1.6676897876e+00	 9.8380110455e-02	 6.7312623723e+00
 1.6667900448e+00	 1.1260005570e-01	 8.8455880933e+00
 1.6657655783e+00	 1.2685740567e-01	 1.0932517025e+01
 1.6646153182e+00	 1.4115075772e-01	 1.2923167972e+01
 1.6794134788e+00	 0.0000000000e+00	-3.5723556843e+00
 1.6793551729e+00	 1.3994634565e-02	-2.7894712854e+00
 1.6791794607e+00	 2.8035982313e-02	-1.7152520212e+00
 1.6788851598e+00	 4.2122823742e-02	-3.9095252646e-01
 1.6784711010e+00	 5.6253911883e-02	 1.1431172459e+00
 1.6779361289e+00	 7.0427972354e-02	 2.8476761732e+00
 1.6772791027e+00	 8.4643703427e-02	 4.6845568745e+00
 1.6764988966e+00	 9.8899776116e-02	 6.6167911243e+00
 1.6755944012e+00	 1.1319483428e-01	 8.6086955022e+00
 1.6745645232e+00	 1.2752749475e-01	 1.0625957009e+01
 1.6734081872e+00	 1.4189634747e-01	 1.2635718382e+01
 1.6882378674e+00	 0.0000000000e+00	-4.7737215855e+00
 1.6881792551e+00	 1.4068168626e-02	-3.5665419736e+00
 1.6880026196e+00	 2.8183295887e-02	-2.2458815327e+00
 1.6877067723e+00	 4.2344155872e-02	-8.1871808351e-01
 1.6872905379e+00	 5.6549495062e-02	 7.0859443395e-01
 1.6867527548e+00	 7.0798032378e-02	 2.3303613924e+00
 1.6860922763e+00	 8.5088459253e-02	 4.0415827833e+00
 1.6853079707e+00	 9.9419439715e-02	 5.8379881752e+00
 1.6843987226e+00	 1.1378961050e-01	 7.7160711002e+00
 1.6833634332e+00	 1.2819758117e-01	 9.6731226467e+00
 1.6822010213e+00	 1.4264193426e-01	 1.1707264035e+01
 1.6970622159e+00	 0.0000000000e+00	-6.3349684300e+00
 1.6970032973e+00	 1.4141702353e-02	-4.8018335774e+00
 1.6968257385e+00	 2.8330608793e-02	-3.3075819075e+00
 1.6965283449e+00	 4.2565487000e-02	-1.8281685323e+00
 1.6961099348e+00	 5.6845076902e-02	-3.3948814893e-01
 1.6955693408e+00	 7.1168090725e-02	 1.1826099206e+00
 1.6949054099e+00	 8.5533213062e-02	 2.7623059325e+00
 1.6941170048e+00	 9.9939100959e-02	 4.4237929933e+00
 1.6932030041e+00	 1.1438438402e-01	 6.1912592296e+00
 1.6921623033e+00	 1.2886766455e-01	 8.0888686874e+00
 1.6909938155e+00	 1.4338751767e-01	 1.0140740796e+01
 1.7058865195e+00	 0.0000000000e+00	-8.2859475971e+00
 1.7058272945e+00	 1.4215235706e-02	-6.5063227892e+00
 1.7056488125e+00	 2.8477920947e-02	-4.8960549436e+00
 1.7053498724e+00	 4.2786816999e-02	-3.4032851263e+00
 1.7049292867e+00	 5.7140657235e-02	-1.9768975443e+00
 1.7043858817e+00	 7.1538147186e-02	-5.6658679204e-01
 1.7037184986e+00	 8.5977964604e-02	 8.7707376755e-01
 1.7029259940e+00	 1.0045875955e-01	 2.4025623734e+00
 1.7020072407e+00	 1.1497915452e-01	 4.0573378772e+00
 1.7009611285e+00	 1.2953774452e-01	 5.8877672910e+00
 1.6997865649e+00	 1.4413309728e-01	 7.9390517728e+00
 1.6118576511e+00	 1.3667718079e-01	 1.0179419736e+00
 1.6106208007e+00	 1.5055335800e-01	 2.9484215781e+00
 1.6092600820e+00	 1.6446158018e-01	 4.2303535799e+00
 1.6077745126e+00	 1.7840037765e-01	 4.9756244666e+00
 1.6061631297e+00	 1.9236825466e-01	 5.2953359936e+00
 1.6044249910e+00	 2.0636368968e-01	 5.2996659429e+00
 1.6025591752e+00	 2.2038513559e-01	 5.0977263730e+00
 1.6005647824e+00	 2.3443102005e-01	 4.7974194688e+00
 1.5984409358e+00	 2.4849974570e-01	 4.5052911225e+00
 1.5961867811e+00	 2.6258969053e-01	 4.3263823947e+00
 1.5938014885e+00	 2.7669920824e-01	 4.3640790317e+00
 1.6206506247e+00	 1.3742277941e-01	 4.6401533891e+00
 1.6194070271e+00	 1.5137465366e-01	 6.3312978626e+00
 1.6180388854e+00	 1.6535874770e-01	 7.3641408204e+00
 1.6165452119e+00	 1.7937358382e-01	 7.8523234045e+00
 1.6149250387e+00	 1.9341765812e-01	 7.9082131909e+00
 1.6131774181e+00	 2.0748944074e-01	 7.6427518954e+00
 1.6113014239e+00	 2.2158737617e-01	 7.1653007851e+00
 1.6092961514e+00	 2.3570988346e-01	 6.5834839251e+00
 1.6071607188e+00	 2.4985535653e-01	 6.0030294143e+00
 1.6048942673e+00	 2.6402216456e-01	 5.5276087833e+00
 1.6024959625e+00	 2.7820865222e-01	 5.2586747531e+00
 1.6294435933e+00	 1.3816837761e-01	 7.6029918909e+00
 1.6281932485e+00	 1.5219594886e-01	 9.1436261931e+00
 1.6268176838e+00	 1.6625591471e-01	 1.0014421975e+01
 1.6253159063e+00	 1.8034678944e-01	 1.0328366142e+01
 1.6236869427e+00	 1.9446706097e-01	 1.0196805824e+01
 1.6219298403e+00	 2.0861519117e-01	 9.7292886402e+00
 1.6200436677e+00	 2.2278961607e-01	 9.0334008570e+00
 1.6180275154e+00	 2.3698874614e-01	 8.2146035738e+00
 1.6158804968e+00	 2.5121096660e-01	 7.3760671061e+00
 1.6136017486e+00	 2.6545463777e-01	 6.6185037530e+00
 1.6111904315e+00	 2.7971809535e-01	 6.0399991625e+00
 1.6382365519e+00	 1.3891397496e-01	 9.9096147067e+00
 1.6369794599e+00	 1.5301724313e-01	 1.1374526578e+01
 1.6355964723e+00	 1.6715308071e-01	 1.2158986078e+01
 1.6340865907e+00	 1.8131999395e-01	 1.2372960046e+01
 1.6324488368e+00	 1.9551646264e-01	 1.2124530764e+01
 1.6306822525e+00	 2.0974094033e-01	 1.1519734349e+01
 1.6287859015e+00	 2.2399185461e-01	 1.0662397188e+01
 1.6267588695e+00	 2.3826760737e-01	 9.6539705554e+00
 1.6246002650e+00	 2.5256657514e-01	 8.5933635826e+00
 1.6223092199e+00	 2.6688710935e-01	 7.5767747824e+00
 1.6198848907e+00	 2.8122753676e-01	 6.6975223325e+00
 1.6470294956e+00	 1.3965957104e-01	 1.1563138973e+01
 1.6457656564e+00	 1.5383853600e-01	 1.3013381627e+01
 1.6443752458e+00	 1.6805024518e-01	 1.3776128966e+01
 1.6428572603e+00	 1.8229319681e-01	 1.3956004056e+01
 1.6412107159e+00	 1.9656586252e-01	 1.3655620895e+01
 1.6394346498e+00	 2.1086668757e-01	 1.2975426442e+01
 1.6375281206e+00	 2.2519409110e-01	 1.2013540811e+01
 1.6354902088e+00	 2.3954646643e-01	 1.0865595761e+01
 1.6333200183e+00	 2.5392218136e-01	 9.6245716517e+00
 1.6310166765e+00	 2.6831957851e-01	 8.3806330522e+00
 1.6285793351e+00	 2.8273697561e-01	 7.2209632112e+00
 1.6558224194e+00	 1.4040516544e-01	 1.2566643081e+01
 1.6545518329e+00	 1.5465982701e-01	 1.4049829801e+01
 1.6531539995e+00	 1.6894740761e-01	 1.4844639959e+01
 1.6516279099e+00	 1.8326639746e-01	 1.5048070366e+01
 1.6499725752e+00	 1.9761526003e-01	 1.4755103378e+01
 1.6481870273e+00	 2.1199243226e-01	 1.4058558037e+01
 1.6462703197e+00	 2.2639632486e-01	 1.3048939451e+01
 1.6442215283e+00	 2.4082532259e-01	 1.1814286557e+01
 1.6420397519e+00	 2.5527778452e-01	 1.0440018404e+01
 1.6397241134e+00	 2.6975204441e-01	 9.0087791327e+00
 1.6372737599e+00	 2.8424641104e-01	 7.6002818488e+00
 1.6646153182e+00	 1.4115075772e-01	 1.2923167972e+01
 1.6633379846e+00	 1.5548111569e-01	 1.4473758858e+01
 1.6619327282e+00	 1.6984456751e-01	 1.5343788954e+01
 1.6603985347e+00	 1.8423959536e-01	 1.5620386664e+01
 1.6587344097e+00	 1.9866465456e-01	 1.5388778573e+01
 1.6569393800e+00	 2.1311817376e-01	 1.4732155110e+01
 1.6550124942e+00	 2.2759855522e-01	 1.3731534508e+01
 1.6529528230e+00	 2.4210417513e-01	 1.2465625185e+01
 1.6507594608e+00	 2.5663338383e-01	 1.1010686649e+01
 1.6484315255e+00	 2.7118450626e-01	 9.4403890909e+00
 1.6459681599e+00	 2.8575584219e-01	 7.8256718315e+00
 1.6734081872e+00	 1.4189634747e-01	 1.2635718382e+01
 1.6721241064e+00	 1.5630240158e-01	 1.4275299500e+01
 1.6707114272e+00	 1.7074172435e-01	 1.5253313906e+01
 1.6691691297e+00	 1.8521278995e-01	 1.5644818919e+01
 1.6674962144e+00	 1.9971404552e-01	 1.5523199611e+01
 1.6656917030e+00	 2.1424391143e-01	 1.4960054362e+01
 1.6637546389e+00	 2.2880078150e-01	 1.4025078744e+01
 1.6616840881e+00	 2.4338302331e-01	 1.2785947813e+01
 1.6594791400e+00	 2.5798897854e-01	 1.1308196900e+01
 1.6571389081e+00	 2.7261696323e-01	 9.6551009994e+00
 1.6546625304e+00	 2.8726526821e-01	 7.8875529171e+00
 1.6822010213e+00	 1.4264193426e-01	 1.1707264035e+01
 1.6809101933e+00	 1.5712368422e-01	 1.3444819202e+01
 1.6794900913e+00	 1.7163887763e-01	 1.4553408689e+01
 1.6779396898e+00	 1.8618598067e-01	 1.5093854686e+01
 1.6762579843e+00	 2.0076343232e-01	 1.5125652587e+01
 1.6744439912e+00	 2.1536964464e-01	 1.4706881756e+01
 1.6724967489e+00	 2.3000300300e-01	 1.3894114638e+01
 1.6704153185e+00	 2.4466186643e-01	 1.2742324220e+01
 1.6681987847e+00	 2.5934456787e-01	 1.1304789899e+01
 1.6658462561e+00	 2.7404941453e-01	 9.6330018351e+00
 1.6633568665e+00	 2.8877468824e-01	 7.7765638631e+00
 1.6909938155e+00	 1.4338751767e-01	 1.0140740796e+01
 1.6896962404e+00	 1.5794496313e-01	 1.1972916225e+01
 1.6882687155e+00	 1.7253602685e-01	 1.3224711320e+01
 1.6867102102e+00	 1.8715916699e-01	 1.3940586918e+01
 1.6850197145e+00	 2.0181281437e-01	 1.4164137346e+01
 1.6831962397e+00	 2.1649537274e-01	 1.3938031695e+01
 1.6812388193e+00	 2.3120521906e-01	 1.3303953398e+01
 1.6791465094e+00	 2.4594070375e-01	 1.2302538075e+01
 1.6769183898e+00	 2.6070015105e-01	 1.0973309650e+01
 1.6745535646e+00	 2.7548185933e-01	 9.3546147501e+00
 1.6720511631e+00	 2.9028410143e-01	 7.4835554410e+00
 1.6997865649e+00	 1.4413309728e-01	 7.9390517728e+00
 1.6984822427e+00	 1.5876623785e-01	 9.8504138014e+00
 1.6970472951e+00	 1.7343317150e-01	 1.1248292537e+01
 1.6954806859e+00	 1.8813234834e-01	 1.2158698258e+01
 1.6937814001e+00	 2.0286219106e-01	 1.2607348849e+01
 1.6919484436e+00	 2.1762109510e-01	 1.2619646826e+01
 1.6899808451e+00	 2.3240742898e-01	 1.2220654588e+01
 1.6878776557e+00	 2.4721953454e-01	 1.1435067814e+01
 1.6856379504e+00	 2.6205572732e-01	 1.0287186946e+01
 1.6832608288e+00	 2.7691429682e-01	 8.8008867056e+00
 1.6807454153e+00	 2.9179350692e-01	 6.9995836303e+00
 1.5938014885e+00	 2.7669920824e-01	 4.3640790317e+00
 1.5912846913e+00	 2.9082422635e-01	 4.4620196462e+00
 1.5886352143e+00	 3.0496545179e-01	 4.3959590897e+00
 1.5858523025e+00	 3.1912117227e-01	 4.1666322220e+00
 1.5829352275e+00	 3.3328965288e-01	 3.7755815693e+00
 1.5798832881e+00	 3.4746913652e-01	 3.2251673145e+00
 1.5766958111e+00	 3.6165784435e-01	 2.5185762694e+00
 1.5733721522e+00	 3.7585397630e-01	 1.6687202684e+00
 1.5699116960e+00	 3.9005571159e-01	 7.6975078652e-01
 1.5663138575e+00	 4.0426120927e-01	-1.4808982469e-01
 1.5625780821e+00	 4.1846860876e-01	-1.0760742256e+00
 1.6024959625e+00	 2.7820865222e-01	 5.2586747531e+00
 1.5999654357e+00	 2.9241072485e-01	 5.0729435871e+00
 1.5973015053e+00	 3.0662909321e-01	 4.7740533816e+00
 1.5945034123e+00	 3.2086203570e-01	 4.3530794732e+00
 1.5915704241e+00	 3.3510780793e-01	 3.8023684798e+00
 1.5885018358e+00	 3.4936464320e-01	 3.1155687713e+00
 1.5852969706e+00	 3.6363075298e-01	 2.2876596112e+00
 1.5819551804e+00	 3.7790432738e-01	 1.3311759915e+00
 1.5784758469e+00	 3.9218353570e-01	 3.3234677128e-01
 1.5748583815e+00	 4.0646652693e-01	-6.9468133031e-01
 1.5711022268e+00	 4.2075143034e-01	-1.7470454078e+00
 1.6111904315e+00	 2.7971809535e-01	 6.0399991625e+00
 1.6086461751e+00	 2.9399722245e-01	 5.5578308430e+00
 1.6059677914e+00	 3.0829273370e-01	 5.0137888683e+00
 1.6031545171e+00	 3.2260289814e-01	 4.3920698032e+00
 1.6002056158e+00	 3.3692596194e-01	 3.6784817545e+00
 1.5971203786e+00	 3.5126014880e-01	 2.8604894337e+00
 1.5938981251e+00	 3.6560366050e-01	 1.9272576118e+00
 1.5905382038e+00	 3.7995467731e-01	 8.9488795618e-01
 1.5870399929e+00	 3.9431135861e-01	-1.6095070163e-01
 1.5834029007e+00	 4.0867184334e-01	-1.2374216274e+00
 1.5796263666e+00	 4.2303425063e-01	-2.3357295233e+00
 1.6198848907e+00	 2.8122753676e-01	 6.6975223325e+00
 1.6173269048e+00	 2.9558371825e-01	 5.9181329714e+00
 1.6146340677e+00	 3.0995637230e-01	 5.1259716748e+00
 1.6118056121e+00	 3.2434375861e-01	 4.3010883811e+00
 1.6088407976e+00	 3.3874411389e-01	 3.4253628119e+00
 1.6057389116e+00	 3.5315565226e-01	 2.4825582898e+00
 1.6024992699e+00	 3.6757656578e-01	 1.4583737071e+00
 1.5991212175e+00	 3.8200502492e-01	 3.7605145224e-01
 1.5956041292e+00	 3.9643917910e-01	-7.0139371365e-01
 1.5919474102e+00	 4.1087715725e-01	-1.7779382090e+00
 1.5881504968e+00	 4.2531706833e-01	-2.8570960079e+00
 1.6285793351e+00	 2.8273697561e-01	 7.2209632112e+00
 1.6260076197e+00	 2.9717021135e-01	 6.1552901866e+00
 1.6233003293e+00	 3.1162000807e-01	 5.1211917671e+00
 1.6204566925e+00	 3.2608461613e-01	 4.0972558695e+00
 1.6174759649e+00	 3.4056226275e-01	 3.0639977232e+00
 1.6143574300e+00	 3.5505115249e-01	 2.0039166592e+00
 1.6111004001e+00	 3.6954946770e-01	 9.0155084428e-01
 1.6077042166e+00	 3.8405536903e-01	-2.0952187300e-01
 1.6041682509e+00	 3.9856699598e-01	-1.2804614993e+00
 1.6004919051e+00	 4.1308246741e-01	-2.3178664239e+00
 1.5966746125e+00	 4.2759988214e-01	-3.3258392082e+00
 1.6372737599e+00	 2.8424641104e-01	 7.6002818488e+00
 1.6346883149e+00	 2.9875670086e-01	 6.2707302498e+00
 1.6319665712e+00	 3.1328364007e-01	 5.0098270163e+00
 1.6291077532e+00	 3.2782546969e-01	 3.7973361466e+00
 1.6261111125e+00	 3.4238040749e-01	 2.6149270502e+00
 1.6229759289e+00	 3.5694664843e-01	 1.4462285764e+00
 1.6197015108e+00	 3.7152236516e-01	 2.7718009890e-01
 1.6162871963e+00	 3.8610570850e-01	-8.4639443616e-01
 1.6127323533e+00	 4.0069480803e-01	-1.8898549532e+00
 1.6090363807e+00	 4.1528777257e-01	-2.8588497275e+00
 1.6051987089e+00	 4.2988269079e-01	-3.7563860560e+00
 1.6459681599e+00	 2.8575584219e-01	 7.8256718315e+00
 1.6433689855e+00	 3.0034318587e-01	 6.2658673520e+00
 1.6406327886e+00	 3.1494726736e-01	 4.8020470895e+00
 1.6377587894e+00	 3.2956631833e-01	 3.4177437357e+00
 1.6347462357e+00	 3.4419854708e-01	 2.0982553188e+00
 1.6315944033e+00	 3.5884213900e-01	 8.3069078858e-01
 1.6283025971e+00	 3.7349525702e-01	-3.9383070260e-01
 1.6248701516e+00	 3.8815604216e-01	-1.5194934174e+00
 1.6212964313e+00	 4.0282261406e-01	-2.5214912844e+00
 1.6175808321e+00	 4.1749307148e-01	-3.4025398951e+00
 1.6137227811e+00	 4.3216549296e-01	-4.1629034683e+00
 1.6546625304e+00	 2.8726526821e-01	 7.8875529171e+00
 1.6520496266e+00	 3.0192966549e-01	 6.1421009920e+00
 1.6492989764e+00	 3.1661088899e-01	 4.5078171727e+00
 1.6464097962e+00	 3.3130716104e-01	 2.9745509522e+00
 1.6433813295e+00	 3.4601668049e-01	 1.5336601413e+00
 1.6402128484e+00	 3.6073762312e-01	 1.7804238160e-01
 1.6369036542e+00	 3.7546814218e-01	-1.0923872701e+00
 1.6334530777e+00	 3.9020636885e-01	-2.2141017275e+00
 1.6298604803e+00	 4.0495041285e-01	-3.1674988108e+00
 1.6261252544e+00	 4.1969836290e-01	-3.9505971997e+00
 1.6222468243e+00	 4.3444828738e-01	-4.5593054835e+00
 1.6633568665e+00	 2.8877468824e-01	 7.7765638631e+00
 1.6607302332e+00	 3.0351613881e-01	 5.9008148478e+00
 1.6579651300e+00	 3.1827450402e-01	 4.1369015341e+00
 1.6550607686e+00	 3.3304799685e-01	 2.4834947778e+00
 1.6520163890e+00	 3.4783480668e-01	 9.4040100048e-01
 1.6488312594e+00	 3.6263309972e-01	-4.9142595254e-01
 1.6455046771e+00	 3.7744101951e-01	-1.8000091336e+00
 1.6420359698e+00	 3.9225668741e-01	-2.9158492332e+00
 1.6384244952e+00	 4.0707820320e-01	-3.8202118904e+00
 1.6346696428e+00	 4.2190364556e-01	-4.5046905555e+00
 1.6307708338e+00	 4.3673107273e-01	-4.9592601426e+00
 1.6720511631e+00	 2.9028410143e-01	 7.4835554410e+00
 1.6694108005e+00	 3.0510260495e-01	 5.5433756432e+00
 1.6666312442e+00	 3.1993811150e-01	 3.6988669301e+00
 1.6637117019e+00	 3.3478882476e-01	 1.9599834728e+00
 1.6606514094e+00	 3.4965292463e-01	 3.3732770858e-01
 1.6574496312e+00	 3.6452856773e-01	-1.1578629932e+00
 1.6541056611e+00	 3.7941388789e-01	-2.4986373229e+00
 1.6506188229e+00	 3.9430699667e-01	-3.6107042304e+00
 1.6469884714e+00	 4.0920598390e-01	-4.4721659837e+00
 1.6432139925e+00	 4.2410891823e-01	-5.0664976271e+00
 1.6392948045e+00	 4.3901384774e-01	-5.3761961258e+00
 1.6807454153e+00	 2.9179350692e-01	 6.9995836303e+00
 1.6780913235e+00	 3.0668906299e-01	 5.0711320092e+00
 1.6752973142e+00	 3.2160171051e-01	 3.2030858636e+00
 1.6723625910e+00	 3.3652964380e-01	 1.4191029366e+00
 1.6692863858e+00	 3.5147103331e-01	-2.5711144862e-01
 1.6660679591e+00	 3.6642402607e-01	-1.8018484015e+00
 1.6627066012e+00	 3.8138674621e-01	-3.1706239993e+00
 1.6592016323e+00	 3.9635729548e-01	-4.2849651578e+00
 1.6555524039e+00	 4.1133375375e-01	-5.1160928415e+00
 1.6517582986e+00	 4.2631417965e-01	-5.6377049078e+00
 1.6478187318e+00	 4.4129661111e-01	-5.8233091520e+00
 1.5625780821e+00	 4.1846860876e-01	-1.0760742256e+00
 1.5587038468e+00	 4.3267603064e-01	-1.7872328883e+00
 1.5546906618e+00	 4.4688157787e-01	-2.0862759248e+00
 1.5505380703e+00	 4.6108333583e-01	-2.0124929816e+00
 1.5462456483e+00	 4.7527937279e-01	-1.6070800233e+00
 1.5418130057e+00	 4.8946774058e-01	-9.1308934215e-01
 1.5372397864e+00	 5.0364647525e-01	 2.4626787246e-02
 1.5325256694e+00	 5.1781359778e-01	 1.1594789640e+00
 1.5276703685e+00	 5.3196711483e-01	 2.4432101513e+00
 1.5226736338e+00	 5.4610501945e-01	 3.8259718966e+00
 1.5175352514e+00	 5.6022529188e-01	 5.2564073423e+00
 1.5711022268e+00	 4.2075143034e-01	-1.7470454078e+00
 1.5672068568e+00	 4.3503635627e-01	-2.6264274471e+00
 1.5631717792e+00	 4.4931939731e-01	-3.1496626030e+00
 1.5589965345e+00	 4.6359862841e-01	-3.3370075352e+00
 1.5546806966e+00	 4.7787210732e-01	-3.2111142339e+00
 1.5502238731e+00	 4.9213787521e-01	-2.7970132316e+00
 1.5456257061e+00	 5.0639395742e-01	-2.1220902048e+00
 1.5408858727e+00	 5.2063836415e-01	-1.2160557491e+00
 1.5360040853e+00	 5.3486909118e-01	-1.1090814172e-01
 1.5309800925e+00	 5.4908412062e-01	 1.1591110676e+00
 1.5258136793e+00	 5.6328142167e-01	 2.5575687599e+00
 1.5796263666e+00	 4.2303425063e-01	-2.3357295233e+00
 1.5757098620e+00	 4.3739668055e-01	-3.2946214782e+00
 1.5716528918e+00	 4.5175721537e-01	-3.9553033537e+00
 1.5674549940e+00	 4.6611391957e-01	-4.3229649321e+00
 1.5631157401e+00	 4.8046484037e-01	-4.4055304918e+00
 1.5586347358e+00	 4.9480800831e-01	-4.2136677601e+00
 1.5540116211e+00	 5.0914143803e-01	-3.7607900693e+00
 1.5492460713e+00	 5.2346312893e-01	-3.0630514515e+00
 1.5443377974e+00	 5.3777106590e-01	-2.1393344335e+00
 1.5392865465e+00	 5.5206322010e-01	-1.0112303262e+00
 1.5340921025e+00	 5.6633754974e-01	 2.9698816433e-01
 1.5881504968e+00	 4.2531706833e-01	-2.8570960079e+00
 1.5842128576e+00	 4.3975700216e-01	-3.8201429230e+00
 1.5801339947e+00	 4.5419503066e-01	-4.5418804778e+00
 1.5759134438e+00	 4.6862920788e-01	-5.0163300030e+00
 1.5715507741e+00	 4.8305757048e-01	-5.2404382308e+00
 1.5670455889e+00	 4.9747813840e-01	-5.2141045994e+00
 1.5623975266e+00	 5.1188891553e-01	-4.9402016427e+00
 1.5576062605e+00	 5.2628789050e-01	-4.4245881609e+00
 1.5526715001e+00	 5.4067303732e-01	-3.6761148985e+00
 1.5475929911e+00	 5.5504231621e-01	-2.7066224872e+00
 1.5423705164e+00	 5.6939367434e-01	-1.5309314438e+00
 1.5966746125e+00	 4.2759988214e-01	-3.3258392082e+00
 1.5927158387e+00	 4.4211731976e-01	-4.2307610253e+00
 1.5886150833e+00	 4.5663284181e-01	-4.9472978149e+00
 1.5843718793e+00	 4.7114449192e-01	-5.4621346484e+00
 1.5799857937e+00	 4.8565029619e-01	-5.7649261983e+00
 1.5754564278e+00	 5.0014826394e-01	-5.8483350761e+00
 1.5707834178e+00	 5.1463638836e-01	-5.7080632015e+00
 1.5659664354e+00	 5.2911264727e-01	-5.3428758762e+00
 1.5610051885e+00	 5.4357500381e-01	-4.7546182616e+00
 1.5558994216e+00	 5.5802140725e-01	-3.9482239968e+00
 1.5506489162e+00	 5.7244979375e-01	-2.9317157230e+00
 1.6051987089e+00	 4.2988269079e-01	-3.7563860560e+00
 1.6012188005e+00	 4.4447763201e-01	-4.5537014370e+00
 1.5970961526e+00	 4.5907064744e-01	-5.2087015743e+00
 1.5928302956e+00	 4.7365977025e-01	-5.7045026520e+00
 1.5884207942e+00	 4.8824301602e-01	-6.0270894712e+00
 1.5838672476e+00	 5.0281838343e-01	-6.1653575714e+00
 1.5791692900e+00	 5.1738385496e-01	-6.1111483950e+00
 1.5743265914e+00	 5.3193739763e-01	-5.8592771558e+00
 1.5693388581e+00	 5.4647696372e-01	-5.4075531013e+00
 1.5642058333e+00	 5.6100049153e-01	-4.7567918919e+00
 1.5589272972e+00	 5.7550590622e-01	-3.9108198556e+00
 1.6137227811e+00	 4.3216549296e-01	-4.1629034683e+00
 1.6097217383e+00	 4.4683793757e-01	-4.8156608112e+00
 1.6055771979e+00	 4.6150844616e-01	-5.3625004711e+00
 1.6012886880e+00	 4.7617504145e-01	-5.7866736707e+00
 1.5968557708e+00	 4.9083572850e-01	-6.0740555748e+00
 1.5922780435e+00	 5.0548849535e-01	-6.2131840107e+00
 1.5875551384e+00	 5.2013131378e-01	-6.1952913099e+00
 1.5826867237e+00	 5.3476213999e-01	-6.0143289303e+00
 1.5776725041e+00	 5.4937891540e-01	-5.6669845511e+00
 1.5725122214e+00	 5.6397956738e-01	-5.1526913644e+00
 1.5672056547e+00	 5.7856201004e-01	-4.4736293246e+00
 1.6222468243e+00	 4.3444828738e-01	-4.5593054835e+00
 1.6182246471e+00	 4.4919823510e-01	-5.0428209038e+00
 1.6140582143e+00	 4.6394623659e-01	-5.4443851925e+00
 1.6097470516e+00	 4.7869030411e-01	-5.7510264315e+00
 1.6052907188e+00	 4.9342843217e-01	-5.9520097393e+00
 1.6006888109e+00	 5.0815859820e-01	-6.0388654743e+00
 1.5959409583e+00	 5.2287876325e-01	-6.0054106989e+00
 1.5910468275e+00	 5.3758687275e-01	-5.8477635791e+00
 1.5860061218e+00	 5.5228085722e-01	-5.5643504231e+00
 1.5808185813e+00	 5.6695863310e-01	-5.1559050987e+00
 1.5754839841e+00	 5.8161810347e-01	-4.6254606050e+00
 1.6307708338e+00	 4.3673107273e-01	-4.9592601426e+00
 1.6267275222e+00	 4.5155852327e-01	-5.2608621996e+00
 1.6225391971e+00	 4.6638401734e-01	-5.4893472198e+00
 1.6182053816e+00	 4.8120555678e-01	-5.6391011634e+00
 1.6137256332e+00	 4.9602112555e-01	-5.7062193248e+00
 1.6090995449e+00	 5.1082869045e-01	-5.6885169642e+00
 1.6043267450e+00	 5.2562620183e-01	-5.5855334052e+00
 1.5994068982e+00	 5.4041159430e-01	-5.3985292972e+00
 1.5943397063e+00	 5.5518278753e-01	-5.1304767717e+00
 1.5891249082e+00	 5.6993768700e-01	-4.7860422598e+00
 1.5837622807e+00	 5.8467418477e-01	-4.3715617730e+00
 1.6392948045e+00	 4.3901384774e-01	-5.3761961258e+00
 1.6352303588e+00	 4.5391880074e-01	-5.4949770812e+00
 1.6310201415e+00	 4.6882178705e-01	-5.5316970278e+00
 1.6266636733e+00	 4.8372079805e-01	-5.4916212934e+00
 1.6221605095e+00	 4.9861380718e-01	-5.3810574443e+00
 1.6175102407e+00	 5.1349877060e-01	-5.2073413546e+00
 1.6127124936e+00	 5.2837362795e-01	-4.9788170095e+00
 1.6077669310e+00	 5.4323630305e-01	-4.7048097779e+00
 1.6026732531e+00	 5.5808470469e-01	-4.3955929215e+00
 1.5974311975e+00	 5.7291672739e-01	-4.0623471458e+00
 1.5920405398e+00	 5.8773025222e-01	-3.7171130371e+00
 1.6478187318e+00	 4.4129661111e-01	-5.8233091520e+00
 1.6437331520e+00	 4.5627906618e-01	-5.7698825568e+00
 1.6395010426e+00	 4.7125954432e-01	-5.6050816854e+00
 1.6351219218e+00	 4.8623602649e-01	-5.3485144318e+00
 1.6305953427e+00	 5.0120647558e-01	-5.0200258152e+00
 1.6259208937e+00	 5.1616883713e-01	-4.6396525583e+00
 1.6210981995e+00	 5.3112104005e-01	-4.2275717302e+00
 1.6161269212e+00	 5.4606099739e-01	-3.8040432365e+00
 1.6110067574e+00	 5.6098660704e-01	-3.3893459755e+00
 1.6057374444e+00	 5.7589575259e-01	-3.0037075155e+00
 1.6003187566e+00	 5.9078630409e-01	-2.6672271914e+00
 1.5175352514e+00	 5.6022529188e-01	 5.2564073423e+00
 1.5122541343e+00	 5.7432829563e-01	 6.4760573703e+00
 1.5068310035e+00	 5.8840958390e-01	 7.2812402602e+00
 1.5012657558e+00	 6.0246710142e-01	 7.7040806108e+00
 1.4955583263e+00	 6.1649878331e-01	 7.7789464260e+00
 1.4897086883e+00	 6.3050255592e-01	 7.5424863159e+00
 1.4837168546e+00	 6.4447633766e-01	 7.0336673850e+00
 1.4775828767e+00	 6.5841803993e-01	 6.2981098031e+00
 1.4713068460e+00	 6.7232556799e-01	 5.3970497374e+00
 1.4648888939e+00	 6.8619682187e-01	 4.3820571021e+00
 1.4583291918e+00	 7.0002969732e-01	 3.3055784240e+00
 1.5258136793e+00	 5.6328142167e-01	 2.5575687599e+00
 1.5205037528e+00	 5.7746135985e-01	 3.8601840600e+00
 1.5150510379e+00	 5.9161946408e-01	 4.8712691635e+00
 1.5094554307e+00	 6.0575366789e-01	 5.5983036509e+00
 1.5037168661e+00	 6.1986189513e-01	 6.0513505995e+00
 1.4978353174e+00	 6.3394206084e-01	 6.2431326691e+00
 1.4918107970e+00	 6.4799207207e-01	 6.1891091111e+00
 1.4856433572e+00	 6.6200982884e-01	 5.9075534653e+00
 1.4793330897e+00	 6.7599322497e-01	 5.4210073559e+00
 1.4728801265e+00	 6.8994014904e-01	 4.7722170262e+00
 1.4662846400e+00	 7.0384848532e-01	 3.9973718830e+00
 1.5340921025e+00	 5.6633754974e-01	 2.9698816433e-01
 1.5287533666e+00	 5.8059442230e-01	 1.6026949106e+00
 1.5232710675e+00	 5.9482934244e-01	 2.7302092853e+00
 1.5176451010e+00	 6.0904023250e-01	 3.6664349985e+00
 1.5118754013e+00	 6.2322500505e-01	 4.4010816750e+00
 1.5059619418e+00	 6.3738156381e-01	 4.9267731561e+00
 1.4999047349e+00	 6.5150780450e-01	 5.2391570362e+00
 1.4937038332e+00	 6.6560161572e-01	 5.3370151509e+00
 1.4873593288e+00	 6.7966087987e-01	 5.2223746941e+00
 1.4808713545e+00	 6.9368347409e-01	 4.9007370511e+00
 1.4742400837e+00	 7.0766727115e-01	 4.3973498597e+00
 1.5423705164e+00	 5.6939367434e-01	-1.5309314438e+00
 1.5370029711e+00	 5.8372748119e-01	-2.8537875468e-01
 1.5314910879e+00	 5.9803921717e-01	 8.8344742050e-01
 1.5258347620e+00	 6.1232679338e-01	 1.9458787471e+00
 1.5200339273e+00	 6.2658811115e-01	 2.8751587503e+00
 1.5140885570e+00	 6.4082106288e-01	 3.6475767268e+00
 1.5079986637e+00	 6.5502353294e-01	 4.2426032809e+00
 1.5017643000e+00	 6.6919339852e-01	 4.6430271630e+00
 1.4953855588e+00	 6.8332853062e-01	 4.8350930466e+00
 1.4888625735e+00	 6.9742679489e-01	 4.8086398436e+00
 1.4821955184e+00	 7.1148605264e-01	 4.5572391160e+00
 1.5506489162e+00	 5.7244979375e-01	-2.9317157230e+00
 1.5452525615e+00	 5.8686053476e-01	-1.7932883203e+00
 1.5397110943e+00	 6.0124908643e-01	-6.4421763529e-01
 1.5340244090e+00	 6.1561334867e-01	 4.7319585241e-01
 1.5281924394e+00	 6.2995121153e-01	 1.5195541679e+00
 1.5222151584e+00	 6.4426055611e-01	 2.4585148183e+00
 1.5160925786e+00	 6.5853925540e-01	 3.2569458625e+00
 1.5098247531e+00	 6.7278517522e-01	 3.8850827214e+00
 1.5034117752e+00	 6.8699617512e-01	 4.3166863373e+00
 1.4968537789e+00	 7.0117010933e-01	 4.5292022469e+00
 1.4901509396e+00	 7.1530482765e-01	 4.5039200927e+00
 1.5589272972e+00	 5.7550590622e-01	-3.9108198556e+00
 1.5535021333e+00	 5.8999358122e-01	-2.9105591603e+00
 1.5479310820e+00	 6.0445894843e-01	-1.8285580730e+00
 1.5422140375e+00	 6.1889989652e-01	-7.1587188568e-01
 1.5363509330e+00	 6.3331430430e-01	 3.7922310389e-01
 1.5303417413e+00	 6.4770004154e-01	 1.4113951531e+00
 1.5241864753e+00	 6.6205496989e-01	 2.3384252713e+00
 1.5178851880e+00	 6.7637694377e-01	 3.1213776847e+00
 1.5114379733e+00	 6.9066381132e-01	 3.7247721591e+00
 1.5048449662e+00	 7.0491341528e-01	 4.1167577247e+00
 1.4981063427e+00	 7.1912359400e-01	 4.2692873019e+00
 1.5672056547e+00	 5.7856201004e-01	-4.4736293246e+00
 1.5617516816e+00	 5.9312661881e-01	-3.6269821318e+00
 1.5561510465e+00	 6.0766880132e-01	-2.6459005275e+00
 1.5504036428e+00	 6.2218643505e-01	-1.5863785283e+00
 1.5445094035e+00	 6.3667738753e-01	-5.0186770278e-01
 1.5384683013e+00	 6.5113951722e-01	 5.5689454933e-01
 1.5322803489e+00	 6.6557067442e-01	 1.5420599748e+00
 1.5259456000e+00	 6.7996870215e-01	 2.4088473278e+00
 1.5194641488e+00	 6.9433143712e-01	 3.1157226969e+00
 1.5128361308e+00	 7.0865671063e-01	 3.6245818317e+00
 1.5060617233e+00	 7.2294234953e-01	 3.9009339573e+00
 1.5754839841e+00	 5.8161810347e-01	-4.6254606050e+00
 1.5700012019e+00	 5.9625964575e-01	-3.9326052709e+00
 1.5643709830e+00	 6.1087864331e-01	-3.0731099871e+00
 1.5585932203e+00	 6.2547296241e-01	-2.1041513629e+00
 1.5526678463e+00	 6.4004045933e-01	-1.0807120495e+00
 1.5465948336e+00	 6.5457898121e-01	-5.5409222551e-02
 1.5403741951e+00	 6.6908636699e-01	 9.2168088699e-01
 1.5340059846e+00	 6.8356044832e-01	 1.8032020497e+00
 1.5274902969e+00	 6.9799905045e-01	 2.5447002663e+00
 1.5208272683e+00	 7.1239999324e-01	 3.1048087047e+00
 1.5140170769e+00	 7.2676109208e-01	 3.4454348324e+00
 1.5837622807e+00	 5.8467418477e-01	-4.3715617730e+00
 1.5782506895e+00	 5.9939266026e-01	-3.8177256855e+00
 1.5725908869e+00	 6.1408847256e-01	-3.0875741389e+00
 1.5667827652e+00	 6.2875947673e-01	-2.2357689062e+00
 1.5608262567e+00	 6.4340351778e-01	-1.3152371667e+00
 1.5547213337e+00	 6.5801843155e-01	-3.7700650011e-01
 1.5484680092e+00	 6.7260204562e-01	 5.2996484320e-01
 1.5420663372e+00	 6.8715218024e-01	 1.3589620504e+00
 1.5355164132e+00	 7.0166664924e-01	 2.0656918309e+00
 1.5288183741e+00	 7.1614326101e-01	 2.6084640284e+00
 1.5219723988e+00	 7.3057981947e-01	 2.9483762544e+00
 1.5920405398e+00	 5.8773025222e-01	-3.7171130371e+00
 1.5865001397e+00	 6.0252566056e-01	-3.2728816356e+00
 1.5808107535e+00	 6.1729828726e-01	-2.6671881342e+00
 1.5749722730e+00	 6.3204597615e-01	-1.9485395204e+00
 1.5689846301e+00	 6.4676656100e-01	-1.1642773841e+00
 1.5628477969e+00	 6.6145786631e-01	-3.6042567479e-01
 1.5565617865e+00	 6.7611770832e-01	 4.1846711373e-01
 1.5501266533e+00	 6.9074389587e-01	 1.1294910139e+00
 1.5435424931e+00	 7.0533423139e-01	 1.7315425352e+00
 1.5368094436e+00	 7.1988651181e-01	 2.1854970687e+00
 1.5299276848e+00	 7.3439852956e-01	 2.4543852623e+00
 1.6003187566e+00	 5.9078630409e-01	-2.6672271914e+00
 1.5947495478e+00	 6.0565864489e-01	-2.2888447967e+00
 1.5890305782e+00	 6.2050808558e-01	-1.7903397588e+00
 1.5831617391e+00	 6.3533245882e-01	-1.2104806213e+00
 1.5771429619e+00	 6.5012958706e-01	-5.8754853794e-01
 1.5709742187e+00	 6.6489728352e-01	 4.0796009792e-02
 1.5646555226e+00	 6.7963335308e-01	 6.3765299304e-01
 1.5581869283e+00	 6.9433559319e-01	 1.1670288341e+00
 1.5515685321e+00	 7.0900179485e-01	 1.5939882869e+00
 1.5448004724e+00	 7.2362974352e-01	 1.8848118068e+00
 1.5378829301e+00	 7.3821722017e-01	 2.0071579579e+00
 1.4583291918e+00	 7.0002969732e-01	 3.3055784240e+00
 1.4516291026e+00	 7.1381974571e-01	 2.3399429781e+00
 1.4447877749e+00	 7.2756721209e-01	 1.6087591684e+00
 1.4378055012e+00	 7.4126998530e-01	 1.0939725540e+00
 1.4306826148e+00	 7.5492595365e-01	 7.6283131739e-01
 1.4234194906e+00	 7.6853300592e-01	 5.8420114253e-01
 1.4160165444e+00	 7.8208903234e-01	 5.3926297922e-01
 1.4084742337e+00	 7.9559192559e-01	 6.0880686216e-01
 1.4007930576e+00	 8.0903958181e-01	 7.7325433410e-01
 1.3929735565e+00	 8.2242990157e-01	 1.0126847475e+00
 1.3850163128e+00	 8.3576079094e-01	 1.3068654444e+00
 1.4662846400e+00	 7.0384848532e-01	 3.9973718830e+00
 1.4595480006e+00	 7.1771376089e-01	 3.2447312140e+00
 1.4526693522e+00	 7.3153622218e-01	 2.6372061554e+00
 1.4456489890e+00	 7.4531374649e-01	 2.1694826734e+00
 1.4384872460e+00	 7.5904421060e-01	 1.8180368554e+00
 1.4311845001e+00	 7.7272549179e-01	 1.5726698153e+00
 1.4237411695e+00	 7.8635546877e-01	 1.4288311790e+00
 1.4161577141e+00	 7.9993202274e-01	 1.3815223966e+00
 1.4084346358e+00	 8.1345303834e-01	 1.4252995347e+00
 1.4005724780e+00	 8.2691640471e-01	 1.5542799583e+00
 1.3925718260e+00	 8.4032001648e-01	 1.7621529317e+00
 1.4742400837e+00	 7.0766727115e-01	 4.3973498597e+00
 1.4674668941e+00	 7.2160777388e-01	 3.8437027444e+00
 1.4605509251e+00	 7.3550523002e-01	 3.3561755501e+00
 1.4534924723e+00	 7.4935750538e-01	 2.9387261867e+00
 1.4462918727e+00	 7.6316246522e-01	 2.5807343199e+00
 1.4389495052e+00	 7.7691797528e-01	 2.2892750703e+00
 1.4314657902e+00	 7.9062190279e-01	 2.0728580963e+00
 1.4238411902e+00	 8.0427211742e-01	 1.9394866570e+00
 1.4160762097e+00	 8.1786649237e-01	 1.8966422092e+00
 1.4081713952e+00	 8.3140290530e-01	 1.9512729186e+00
 1.4001273350e+00	 8.4487923943e-01	 2.1097861447e+00
 1.4821955184e+00	 7.1148605264e-01	 4.5572391160e+00
 1.4753857787e+00	 7.2550178244e-01	 4.1812198739e+00
 1.4684324891e+00	 7.3947423337e-01	 3.8025478588e+00
 1.4613359468e+00	 7.5340125969e-01	 3.4313607725e+00
 1.4540964906e+00	 7.6728071517e-01	 3.0733482489e+00
 1.4467145015e+00	 7.8111045402e-01	 2.7493128803e+00
 1.4391904022e+00	 7.9488833197e-01	 2.4796330510e+00
 1.4315246576e+00	 8.0861220719e-01	 2.2841215231e+00
 1.4237177750e+00	 8.2227994140e-01	 2.1819932584e+00
 1.4157703037e+00	 8.3588940081e-01	 2.1918371949e+00
 1.4076828354e+00	 8.4943845722e-01	 2.3315920675e+00
 1.4901509396e+00	 7.1530482765e-01	 4.5039200927e+00
 1.4833046498e+00	 7.2939578439e-01	 4.2995294511e+00
 1.4763140396e+00	 7.4344322996e-01	 4.0118294803e+00
 1.4691794079e+00	 7.5744500713e-01	 3.6763749920e+00
 1.4619010953e+00	 7.7139895812e-01	 3.3177881762e+00
 1.4544794846e+00	 7.8530292564e-01	 2.9677162559e+00
 1.4469150010e+00	 7.9915475390e-01	 2.6572319980e+00
 1.4392081119e+00	 8.1295228958e-01	 2.4167822870e+00
 1.4313593273e+00	 8.2669338292e-01	 2.2761405788e+00
 1.4233691993e+00	 8.4037588869e-01	 2.2643633672e+00
 1.4152383230e+00	 8.5399766725e-01	 2.4097507761e+00
 1.4981063427e+00	 7.1912359400e-01	 4.2692873019e+00
 1.4912235029e+00	 7.3328977751e-01	 4.2126661676e+00
 1.4841955723e+00	 7.4741221756e-01	 4.0152806889e+00
 1.4770228512e+00	 7.6148874540e-01	 3.7021058890e+00
 1.4697056822e+00	 7.7551719173e-01	 3.3354621818e+00
 1.4622444501e+00	 7.8949538775e-01	 2.9590648047e+00
 1.4546395824e+00	 8.0342116615e-01	 2.6135231624e+00
 1.4468915489e+00	 8.1729236213e-01	 2.3387594422e+00
 1.4390008622e+00	 8.3110681444e-01	 2.1739470941e+00
 1.4309680777e+00	 8.4486236640e-01	 2.1574533984e+00
 1.4227937935e+00	 8.5855686695e-01	 2.3267862532e+00
 1.5060617233e+00	 7.2294234953e-01	 3.9009339573e+00
 1.4991423336e+00	 7.3718375960e-01	 3.9490035532e+00
 1.4920770827e+00	 7.5138119391e-01	 3.8166662663e+00
 1.4848662724e+00	 7.6553247221e-01	 3.5323322090e+00
 1.4775102470e+00	 7.7963541367e-01	 3.1472900314e+00
 1.4700093936e+00	 7.9368783798e-01	 2.7375940062e+00
 1.4623641418e+00	 8.0768756632e-01	 2.3561725160e+00
 1.4545749640e+00	 8.2163242239e-01	 2.0512804367e+00
 1.4466423755e+00	 8.3552023346e-01	 1.8703488688e+00
 1.4385669346e+00	 8.4934883140e-01	 1.8599152027e+00
 1.4303492425e+00	 8.6311605373e-01	 2.0655575149e+00
 1.5140170769e+00	 7.2676109208e-01	 3.4454348324e+00
 1.5070611374e+00	 7.4107772844e-01	 3.5482857697e+00
 1.4999585662e+00	 7.5535015677e-01	 3.4402302801e+00
 1.4927096668e+00	 7.6957618527e-01	 3.1625002069e+00
 1.4853147853e+00	 7.8375362161e-01	 2.7686425085e+00
 1.4777743108e+00	 7.9788027396e-01	 2.3172042134e+00
 1.4700886750e+00	 8.1195395198e-01	 1.8926491000e+00
 1.4622583530e+00	 8.2597246788e-01	 1.5555113904e+00
 1.4542838628e+00	 8.3993363747e-01	 1.3603533016e+00
 1.4461657657e+00	 8.5383528115e-01	 1.3607574068e+00
 1.4379046659e+00	 8.6767522501e-01	 1.6092500389e+00
 1.5219723988e+00	 7.3057981947e-01	 2.9483762544e+00
 1.5149799098e+00	 7.4497168184e-01	 3.0483968878e+00
 1.5078400185e+00	 7.5931910388e-01	 2.9185774031e+00
 1.5005530302e+00	 7.7361988229e-01	 2.6119206882e+00
 1.4931192927e+00	 7.8787181322e-01	 2.1877943710e+00
 1.4855391971e+00	 8.0207269330e-01	 1.7057774994e+00
 1.4778131775e+00	 8.1622032071e-01	 1.2302302006e+00
 1.4699417115e+00	 8.3031249616e-01	 8.5255877835e-01
 1.4619253198e+00	 8.4434702397e-01	 6.3903739677e-01
 1.4537645665e+00	 8.5832171309e-01	 6.4918429627e-01
 1.4454600592e+00	 8.7223437821e-01	 9.4136748353e-01
 1.5299276848e+00	 7.3439852956e-01	 2.4543852623e+00
 1.5228986463e+00	 7.4886561759e-01	 2.4869111206e+00
 1.5157214351e+00	 7.6328803300e-01	 2.2836746442e+00
 1.5083963579e+00	 7.7766356098e-01	 1.9062276826e+00
 1.5009237646e+00	 7.9198998615e-01	 1.4186542446e+00
 1.4933040482e+00	 8.0626509364e-01	 8.8523474720e-01
 1.4855376451e+00	 8.2048667011e-01	 3.7034860758e-01
 1.4776250352e+00	 8.3465250477e-01	-5.6528918613e-02
 1.4695667422e+00	 8.4876039046e-01	-2.9845389131e-01
 1.4613633330e+00	 8.6280812470e-01	-2.8540905948e-01
 1.4530154184e+00	 8.7679351073e-01	 4.5723686391e-02
 1.5378829301e+00	 7.3821722017e-01	 2.0071579579e+00
 1.5308173424e+00	 7.5275953348e-01	 1.9014323436e+00
 1.5236028115e+00	 7.6725694188e-01	 1.5668685292e+00
 1.5162396457e+00	 7.8170721905e-01	 1.0705674000e+00
 1.5087281967e+00	 7.9610813808e-01	 4.8023985789e-01
 1.5010688597e+00	 8.1045747260e-01	-1.3622433876e-01
 1.4932620732e+00	 8.2475299774e-01	-7.1086076162e-01
 1.4853083198e+00	 8.3899249124e-01	-1.1757377971e+00
 1.4772081256e+00	 8.5317373444e-01	-1.4569092414e+00
 1.4689620607e+00	 8.6729451342e-01	-1.4534415105e+00
 1.4605707390e+00	 8.8135262000e-01	-1.0935650672e+00
 1.3850163128e+00	 8.3576079094e-01	 1.3068654444e+00
 1.3769219503e+00	 8.4903016271e-01	 1.5386127442e+00
 1.3686911360e+00	 8.6223593826e-01	 1.6254193657e+00
 1.3603245785e+00	 8.7537604779e-01	 1.5975554805e+00
 1.3518230280e+00	 8.8844843109e-01	 1.4835223667e+00
 1.3431872755e+00	 9.0145103856e-01	 1.3100084724e+00
 1.3344181533e+00	 9.1438183224e-01	 1.1018505223e+00
 1.3255165345e+00	 9.2723878678e-01	 8.8199967894e-01
 1.3164833328e+00	 9.4001989051e-01	 6.7149274895e-01
 1.3073195021e+00	 9.5272314644e-01	 4.8942839830e-01
 1.2980260367e+00	 9.6534657321e-01	 3.5294832241e-01
 1.3925718260e+00	 8.4032001648e-01	 1.7621529317e+00
 1.3844333073e+00	 8.5366177506e-01	 1.9297874130e+00
 1.3761575925e+00	 8.6693959049e-01	 1.9624380717e+00
 1.3677453940e+00	 8.8015138169e-01	 1.8885700960e+00
 1.3591974659e+00	 8.9329507719e-01	 1.7346246005e+00
 1.3505146039e+00	 9.0636861623e-01	 1.5249762572e+00
 1.3416976445e+00	 9.1936994971e-01	 1.2818964335e+00
 1.3327474658e+00	 9.3229704125e-01	 1.0255218472e+00
 1.3236649863e+00	 9.4514786821e-01	 7.7382872201e-01
 1.3144511653e+00	 9.5792042268e-01	 5.4261240321e-01
 1.3051070023e+00	 9.7061271251e-01	 3.4547237143e-01
 1.4001273350e+00	 8.4487923943e-01	 2.1097861447e+00
 1.3919446601e+00	 8.5829338479e-01	 2.2499338955e+00
 1.3836240447e+00	 8.7164324006e-01	 2.2636758125e+00
 1.3751662052e+00	 8.8492671287e-01	 2.1766969852e+00
 1.3665718997e+00	 8.9814172054e-01	 2.0124799511e+00
 1.3578419280e+00	 9.1128619110e-01	 1.7922657429e+00
 1.3489771316e+00	 9.2435806435e-01	 1.5350208144e+00
 1.3399783930e+00	 9.3735529285e-01	 1.2574098477e+00
 1.3308466358e+00	 9.5027584299e-01	 9.7377441682e-01
 1.3215828244e+00	 9.6311769597e-01	 6.9611745911e-01
 1.3121879639e+00	 9.7587884883e-01	 4.3409348006e-01
 1.4076828354e+00	 8.4943845722e-01	 2.3315920675e+00
 1.3994560044e+00	 8.6292498926e-01	 2.4752208780e+00
 1.3910904885e+00	 8.7634688430e-01	 2.5008278928e+00
 1.3825870080e+00	 8.8970203865e-01	 2.4303580444e+00
 1.3739463250e+00	 9.0298835840e-01	 2.2834510860e+00
 1.3651692439e+00	 9.1620376040e-01	 2.0774078872e+00
 1.3562566104e+00	 9.2934617334e-01	 1.8271628890e+00
 1.3472093120e+00	 9.4241353872e-01	 1.5452627085e+00
 1.3380282771e+00	 9.5540381196e-01	 1.2418508573e+00
 1.3287144755e+00	 9.6831496337e-01	 9.2465851044e-01
 1.3192689176e+00	 9.8114497918e-01	 5.9900123976e-01
 1.4152383230e+00	 8.5399766725e-01	 2.4097507761e+00
 1.4069673359e+00	 8.6755658586e-01	 2.5822916466e+00
 1.3985569196e+00	 8.8105052053e-01	 2.6461605388e+00
 1.3900077981e+00	 8.9447735630e-01	 2.6186168974e+00
 1.3813207379e+00	 9.0783498802e-01	 2.5145873764e+00
 1.3724965473e+00	 9.2112132134e-01	 2.3466392027e+00
 1.3635360769e+00	 9.3433427384e-01	 2.1249598866e+00
 1.3544402186e+00	 9.4747177599e-01	 1.8573432561e+00
 1.3452099062e+00	 9.6053177222e-01	 1.5491817623e+00
 1.3358461144e+00	 9.7351222194e-01	 1.2034649788e+00
 1.3263498591e+00	 9.8641110058e-01	 8.2078418808e-01
 1.4227937935e+00	 8.5855686695e-01	 2.3267862532e+00
 1.4144786504e+00	 8.7218817196e-01	 2.5482517351e+00
 1.4060233338e+00	 8.8575414611e-01	 2.6724960509e+00
 1.3974285715e+00	 8.9925266314e-01	 2.7111622299e+00
 1.3886951340e+00	 9.1268160665e-01	 2.6736071010e+00
 1.3798238342e+00	 9.2603887114e-01	 2.5668835258e+00
 1.3708155268e+00	 9.3932236304e-01	 2.3957290778e+00
 1.3616711089e+00	 9.5253000179e-01	 2.1625611252e+00
 1.3523915190e+00	 9.6565972085e-01	 1.8674782447e+00
 1.3429777372e+00	 9.7870946872e-01	 1.5082678704e+00
 1.3334307847e+00	 9.9167721004e-01	 1.0804200493e+00
 1.4303492425e+00	 8.6311605373e-01	 2.0655575149e+00
 1.4219899437e+00	 8.7681974494e-01	 2.3506569865e+00
 1.4134897268e+00	 8.9045775835e-01	 2.5531984482e+00
 1.4048493238e+00	 9.0402795644e-01	 2.6782916770e+00
 1.3960695093e+00	 9.1752821154e-01	 2.7288802406e+00
 1.3871511002e+00	 9.3095640699e-01	 2.7057343899e+00
 1.3780949562e+00	 9.4431043811e-01	 2.6074504056e+00
 1.3689019787e+00	 9.5758821326e-01	 2.4304563349e+00
 1.3595731115e+00	 9.7078765495e-01	 2.1690240233e+00
 1.3501093398e+00	 9.8390670078e-01	 1.8152873217e+00
 1.3405116901e+00	 9.9694330458e-01	 1.3592663160e+00
 1.4379046659e+00	 8.6767522501e-01	 1.6092500389e+00
 1.4295012113e+00	 8.8145130217e-01	 1.9675020138e+00
 1.4209560945e+00	 8.9516135461e-01	 2.2621595908e+00
 1.4122700509e+00	 9.0880323350e-01	 2.4908962414e+00
 1.4034438594e+00	 9.2237479996e-01	 2.6494118380e+00
 1.3944783414e+00	 9.3587392613e-01	 2.7314379796e+00
 1.3853743607e+00	 9.4929849621e-01	 2.7287496916e+00
 1.3761328239e+00	 9.6264640754e-01	 2.6311834106e+00
 1.3667546796e+00	 9.7591557161e-01	 2.4266611309e+00
 1.3572409181e+00	 9.8910391517e-01	 2.1012205681e+00
 1.3475925715e+00	 1.0022093812e+00	 1.6390511580e+00
 1.4454600592e+00	 8.7223437821e-01	 9.4136748353e-01
 1.4370124492e+00	 8.8608284102e-01	 1.3772090439e+00
 1.4284224325e+00	 8.9986493220e-01	 1.7737857582e+00
 1.4196907486e+00	 9.1357849162e-01	 2.1204452250e+00
 1.4108181803e+00	 9.2722136915e-01	 2.4048259059e+00
 1.4018055534e+00	 9.4079142576e-01	 2.6128766448e+00
 1.3926537364e+00	 9.5428653453e-01	 2.7288823949e+00
 1.3833636405e+00	 9.6770458174e-01	 2.7354960309e+00
 1.3739362191e+00	 9.8104346793e-01	 2.6137760985e+00
 1.3643724681e+00	 9.9430110894e-01	 2.3432303196e+00
 1.3546734248e+00	 1.0074754370e+00	 1.9018646486e+00
 1.4530154184e+00	 8.7679351073e-01	 4.5723686391e-02
 1.4445236530e+00	 8.9071435888e-01	 5.5861713286e-01
 1.4358887366e+00	 9.0456848847e-01	 1.0629846710e+00
 1.4271114126e+00	 9.1835372809e-01	 1.5389716540e+00
 1.4181924678e+00	 9.3206791637e-01	 1.9653498605e+00
 1.4091327323e+00	 9.4570890310e-01	 2.3195529555e+00
 1.3999330791e+00	 9.5927455024e-01	 2.5777179042e+00
 1.3905944242e+00	 9.7276273302e-01	 2.7147321817e+00
 1.3811177262e+00	 9.8617134101e-01	 2.7042865990e+00
 1.3715039858e+00	 9.9949827915e-01	 2.5189335293e+00
 1.3617542460e+00	 1.0127414688e+00	 2.1301502945e+00
 1.4605707390e+00	 8.8135262000e-01	-1.0935650672e+00
 1.4520348186e+00	 8.9534585312e-01	-5.0902826280e-01
 1.4433550027e+00	 9.0927202075e-01	 1.0515293752e-01
 1.4345320388e+00	 9.2312894020e-01	 7.1905817980e-01
 1.4255667177e+00	 9.3691443887e-01	 1.3017994629e+00
 1.4164598738e+00	 9.5062635536e-01	 1.8215742757e+00
 1.4072123847e+00	 9.6426254050e-01	 2.2457243441e+00
 1.3978251711e+00	 9.7782085850e-01	 2.5407997977e+00
 1.3882991966e+00	 9.9129918793e-01	 2.6726285351e+00
 1.3786354671e+00	 1.0046954228e+00	 2.6063905388e+00
 1.3688350311e+00	 1.0180074738e+00	 2.3066968599e+00
 1.2980260367e+00	 9.6534657321e-01	 3.5294832241e-01
 1.2886023584e+00	 9.7789033010e-01	 3.1703878953e-01
 1.2790511146e+00	 9.9035031019e-01	 4.0976370442e-01
 1.2693734235e+00	 1.0027245769e+00	 6.0673034042e-01
 1.2595704421e+00	 1.0150112134e+00	 8.8410902106e-01
 1.2496433655e+00	 1.0272083231e+00	 1.2187027701e+00
 1.2395934267e+00	 1.0393140312e+00	 1.5880177584e+00
 1.2294218961e+00	 1.0513264853e+00	 1.9703342362e+00
 1.2191300806e+00	 1.0632438564e+00	 2.3447776356e+00
 1.2087193237e+00	 1.0750643396e+00	 2.6913895154e+00
 1.1981910043e+00	 1.0867861555e+00	 2.9911980234e+00
 1.3051070023e+00	 9.7061271251e-01	 3.4547237143e-01
 1.2956319162e+00	 9.8322489786e-01	 2.5353268887e-01
 1.2860285686e+00	 9.9575284938e-01	 3.1255902652e-01
 1.2762980840e+00	 1.0081946200e+00	 4.9676635441e-01
 1.2664416255e+00	 1.0205482822e+00	 7.8095544752e-01
 1.2564603950e+00	 1.0328119294e+00	 1.1405858229e+00
 1.2463556320e+00	 1.0449836763e+00	 1.5518494847e+00
 1.2361286138e+00	 1.0570616605e+00	 1.9917451549e+00
 1.2257806546e+00	 1.0690440430e+00	 2.4381526585e+00
 1.2153131052e+00	 1.0809290091e+00	 2.8699071267e+00
 1.2047273518e+00	 1.0927147695e+00	 3.2668726772e+00
 1.3121879639e+00	 9.7587884883e-01	 4.3409348006e-01
 1.3026614700e+00	 9.8855946259e-01	 2.7609261151e-01
 1.2930060187e+00	 1.0011553855e+00	 2.8736012727e-01
 1.2832227406e+00	 1.0136646599e+00	 4.4132959848e-01
 1.2733128051e+00	 1.0260853479e+00	 7.1201290402e-01
 1.2632774206e+00	 1.0384155325e+00	 1.0740756655e+00
 1.2531178334e+00	 1.0506533182e+00	 1.5029135438e+00
 1.2428353277e+00	 1.0627968325e+00	 1.9747290627e+00
 1.2324312249e+00	 1.0748442263e+00	 2.4666086184e+00
 1.2219068829e+00	 1.0867936752e+00	 2.9565993253e+00
 1.2112636957e+00	 1.0986433803e+00	 3.4237853465e+00
 1.3192689176e+00	 9.8114497918e-01	 5.9900123976e-01
 1.3096910158e+00	 9.9389402128e-01	 3.7080676564e-01
 1.2999834609e+00	 1.0065579155e+00	 3.2570792403e-01
 1.2901473893e+00	 1.0191346937e+00	 4.3695956767e-01
 1.2801839769e+00	 1.0316224074e+00	 6.7835743425e-01
 1.2700944385e+00	 1.0440191292e+00	 1.0243152987e+00
 1.2598800271e+00	 1.0563229537e+00	 1.4499430819e+00
 1.2495420340e+00	 1.0685319979e+00	 1.9311255712e+00
 1.2390817876e+00	 1.0806444031e+00	 2.4446014021e+00
 1.2285006531e+00	 1.0926583347e+00	 2.9680419385e+00
 1.2178000322e+00	 1.1045719843e+00	 3.4801296920e+00
 1.3263498591e+00	 9.8641110058e-01	 8.2078418808e-01
 1.3167205497e+00	 9.9922857089e-01	 5.2403774725e-01
 1.3069608912e+00	 1.0119604363e+00	 4.1930270440e-01
 1.2970720262e+00	 1.0246047181e+00	 4.8024981830e-01
 1.2870551370e+00	 1.0371594574e+00	 6.8102370343e-01
 1.2769114448e+00	 1.0496227165e+00	 9.9632092733e-01
 1.2666422094e+00	 1.0619925795e+00	 1.4014692003e+00
 1.2562487290e+00	 1.0742671536e+00	 1.8725073050e+00
 1.2457323390e+00	 1.0864445699e+00	 2.3862654036e+00
 1.2350944122e+00	 1.0985229842e+00	 2.9204453544e+00
 1.2243363575e+00	 1.1105005782e+00	 3.4537006627e+00
 1.3334307847e+00	 9.9167721004e-01	 1.0804200493e+00
 1.3237500677e+00	 1.0045631084e+00	 7.2241615329e-01
 1.3139383057e+00	 1.0173629449e+00	 5.6000085778e-01
 1.3039966475e+00	 1.0300747301e+00	 5.6784755916e-01
 1.2939262815e+00	 1.0426964949e+00	 7.2100718602e-01
 1.2837284356e+00	 1.0552262910e+00	 9.9498647732e-01
 1.2734043763e+00	 1.0676621925e+00	 1.3658275303e+00
 1.2629554087e+00	 1.0800022963e+00	 1.8101882578e+00
 1.2523828753e+00	 1.0922447237e+00	 2.3054233840e+00
 1.2416881563e+00	 1.1043876205e+00	 2.8296656026e+00
 1.2308726681e+00	 1.1164291587e+00	 3.3631263281e+00
 1.3405116901e+00	 9.9694330458e-01	 1.3592663160e+00
 1.3307795657e+00	 1.0098976308e+00	 9.5283442998e-01
 1.3209157004e+00	 1.0227654382e+00	 7.3981174444e-01
 1.3109212491e+00	 1.0355447267e+00	 6.9645329084e-01
 1.3007974066e+00	 1.0482335167e+00	 7.9926632023e-01
 1.2905454071e+00	 1.0608298497e+00	 1.0250880064e+00
 1.2801665241e+00	 1.0733317894e+00	 1.3511646368e+00
 1.2696620694e+00	 1.0857374228e+00	 1.7552319235e+00
 1.2590333928e+00	 1.0980448610e+00	 2.2155960585e+00
 1.2482818817e+00	 1.1102522401e+00	 2.7112151252e+00
 1.2374089601e+00	 1.1223577224e+00	 3.2272328332e+00
 1.3475925715e+00	 1.0022093812e+00	 1.6390511580e+00
 1.3378090399e+00	 1.0152321351e+00	 1.2024409474e+00
 1.3278930714e+00	 1.0281679131e+00	 9.5089469696e-01
 1.3178458272e+00	 1.0410147046e+00	 8.6282049101e-01
 1.3076685083e+00	 1.0537705196e+00	 9.1672463050e-01
 1.2973623555e+00	 1.0664333893e+00	 1.0912880129e+00
 1.2869286489e+00	 1.0790013670e+00	 1.3654442586e+00
 1.2763687073e+00	 1.0914725297e+00	 1.7184592103e+00
 1.2656838877e+00	 1.1038449785e+00	 2.1300114225e+00
 1.2548755847e+00	 1.1161168398e+00	 2.5812881886e+00
 1.2439452299e+00	 1.1282862659e+00	 3.0626961597e+00
 1.3546734248e+00	 1.0074754370e+00	 1.9018646486e+00
 1.3448384861e+00	 1.0205666182e+00	 1.4586342924e+00
 1.3348704148e+00	 1.0335703665e+00	 1.1855561490e+00
 1.3247703778e+00	 1.0464846609e+00	 1.0637553444e+00
 1.3145395827e+00	 1.0593075006e+00	 1.0742728192e+00
 1.3041792768e+00	 1.0720369066e+00	 1.1981396462e+00
 1.2936907468e+00	 1.0846709222e+00	 1.4164533915e+00
 1.2830753186e+00	 1.0972076139e+00	 1.7104561441e+00
 1.2723343562e+00	 1.1096450731e+00	 2.0616138235e+00
 1.2614692615e+00	 1.1219814162e+00	 2.4564657443e+00
 1.2504814738e+00	 1.1342147859e+00	 2.8858039750e+00
 1.3617542460e+00	 1.0127414688e+00	 2.1301502945e+00
 1.3518679005e+00	 1.0259010771e+00	 1.7090577713e+00
 1.3418477265e+00	 1.0389727955e+00	 1.4362468873e+00
 1.3316948970e+00	 1.0519545923e+00	 1.2961165154e+00
 1.3214106260e+00	 1.0648444565e+00	 1.2727708285e+00
 1.3109961672e+00	 1.0776403986e+00	 1.3500908220e+00
 1.3004528141e+00	 1.0903404516e+00	 1.5118082177e+00
 1.2897818995e+00	 1.1029426721e+00	 1.7415813716e+00
 1.2789847945e+00	 1.1154451414e+00	 2.0237814926e+00
 1.2680629085e+00	 1.1278459660e+00	 2.3512883532e+00
 1.2570176880e+00	 1.1401432791e+00	 2.7124823316e+00
 1.3688350311e+00	 1.0180074738e+00	 2.3066968599e+00
 1.3588972790e+00	 1.0312355088e+00	 1.9415941154e+00
 1.3488250026e+00	 1.0443751969e+00	 1.6955594215e+00
 1.3386193810e+00	 1.0574244959e+00	 1.5568149621e+00
 1.3282816342e+00	 1.0703813842e+00	 1.5130498736e+00
 1.3178130228e+00	 1.0832438620e+00	 1.5514882468e+00
 1.3072148469e+00	 1.0960099521e+00	 1.6589598897e+00
 1.2964884462e+00	 1.1086777011e+00	 1.8219734679e+00
 1.2856351989e+00	 1.1212451801e+00	 2.0306400949e+00
 1.2746565218e+00	 1.1337104859e+00	 2.2799448551e+00
 1.2635538689e+00	 1.1460717420e+00	 2.5583063478e+00
 1.1981910043e+00	 1.0867861555e+00	 2.9911980234e+00
 1.1875483523e+00	 1.0984055869e+00	 3.2341585516e+00
 1.1767910203e+00	 1.1099229249e+00	 3.4146737526e+00
 1.1659204706e+00	 1.1213364906e+00	 3.5257137692e+00
 1.1549381990e+00	 1.1326446337e+00	 3.5630082570e+00
 1.1438457334e+00	 1.1438457334e+00	 3.5146326216e+00
 1.1326446337e+00	 1.1549381990e+00	 3.3679255877e+00
 1.1213364906e+00	 1.1659204706e+00	 3.1095902538e+00
 1.1099229249e+00	 1.1767910203e+00	 2.7258174978e+00
 1.0984055869e+00	 1.1875483523e+00	 2.2132808664e+00
 1.0867861555e+00	 1.1981910043e+00	 1.5691461836e+00
 1.2047273518e+00	 1.0927147695e+00	 3.2668726772e+00
 1.1940266423e+00	 1.1043975870e+00	 3.6047511584e+00
 1.1832106271e+00	 1.1159777542e+00	 3.8637075042e+00
 1.1722807766e+00	 1.1274535830e+00	 4.0390503430e+00
 1.1612385947e+00	 1.1388234141e+00	 4.1195786033e+00
 1.1500856178e+00	 1.1500856178e+00	 4.0918538714e+00
 1.1388234141e+00	 1.1612385947e+00	 3.9422645470e+00
 1.1274535830e+00	 1.1722807766e+00	 3.6570634532e+00
 1.1159777542e+00	 1.1832106271e+00	 3.2224046058e+00
 1.1043975870e+00	 1.1940266423e+00	 2.6277411268e+00
 1.0927147695e+00	 1.2047273518e+00	 1.8767805967e+00
 1.2112636957e+00	 1.0986433803e+00	 3.4237853465e+00
 1.2005049287e+00	 1.1103895838e+00	 3.8329757055e+00
 1.1896302303e+00	 1.1220325801e+00	 4.1572755283e+00
 1.1786410790e+00	 1.1335706719e+00	 4.3886826532e+00
 1.1675389869e+00	 1.1450021909e+00	 4.5128130995e+00
 1.1563254986e+00	 1.1563254986e+00	 4.5154558360e+00
 1.1450021909e+00	 1.1675389869e+00	 4.3826367234e+00
 1.1335706719e+00	 1.1786410790e+00	 4.1006579494e+00
 1.1220325801e+00	 1.1896302303e+00	 3.6561359842e+00
 1.1103895838e+00	 1.2005049287e+00	 3.0360782455e+00
 1.0986433803e+00	 1.2112636957e+00	 2.2410731132e+00
 1.2178000322e+00	 1.1045719843e+00	 3.4801296920e+00
 1.2069832077e+00	 1.1163815738e+00	 3.9390468715e+00
 1.1960498262e+00	 1.1280873991e+00	 4.3139671487e+00
 1.1850013742e+00	 1.1396877539e+00	 4.5914055981e+00
 1.1738393719e+00	 1.1511809607e+00	 4.7565228436e+00
 1.1625653723e+00	 1.1625653723e+00	 4.7949980550e+00
 1.1511809607e+00	 1.1738393719e+00	 4.6930711150e+00
 1.1396877539e+00	 1.1850013742e+00	 4.4375829744e+00
 1.1280873991e+00	 1.1960498262e+00	 4.0160140116e+00
 1.1163815738e+00	 1.2069832077e+00	 3.4165202275e+00
 1.1045719843e+00	 1.2178000322e+00	 2.6318087901e+00
 1.2243363575e+00	 1.1105005782e+00	 3.4537006627e+00
 1.2134614756e+00	 1.1223735536e+00	 3.9434947880e+00
 1.2024694112e+00	 1.1341422079e+00	 4.3518810714e+00
 1.1913616586e+00	 1.1458048255e+00	 4.6636267871e+00
 1.1801397462e+00	 1.1573597201e+00	 4.8641955377e+00
 1.1688052355e+00	 1.1688052355e+00	 4.9398075715e+00
 1.1573597201e+00	 1.1801397462e+00	 4.8774823665e+00
 1.1458048255e+00	 1.1913616586e+00	 4.6650790105e+00
 1.1341422079e+00	 1.2024694112e+00	 4.2913341921e+00
 1.1223735536e+00	 1.2134614756e+00	 3.7458976271e+00
 1.1105005782e+00	 1.2243363575e+00	 3.0193991482e+00
 1.2308726681e+00	 1.1164291587e+00	 3.3631263281e+00
 1.2199397289e+00	 1.1283655198e+00	 3.8644941185e+00
 1.2088889816e+00	 1.1401970029e+00	 4.2887040041e+00
 1.1977219286e+00	 1.1519218832e+00	 4.6213780150e+00
 1.1864401063e+00	 1.1635384654e+00	 4.8490052876e+00
 1.1750450845e+00	 1.1750450845e+00	 4.9589863364e+00
 1.1635384654e+00	 1.1864401063e+00	 4.9396750515e+00
 1.1519218832e+00	 1.1977219286e+00	 4.7804182193e+00
 1.1401970029e+00	 1.2088889816e+00	 4.4715923784e+00
 1.1283655198e+00	 1.2199397289e+00	 4.0046378341e+00
 1.1164291587e+00	 1.2308726681e+00	 3.3720896702e+00
 1.2374089601e+00	 1.1223577224e+00	 3.2272328332e+00
 1.2264179639e+00	 1.1343574691e+00	 3.7197862444e+00
 1.2153085339e+00	 1.1462517807e+00	 4.1417227504e+00
 1.2040821805e+00	 1.1580389236e+00	 4.4803264245e+00
 1.1927404485e+00	 1.1697171932e+00	 4.7238221426e+00
 1.1812849158e+00	 1.1812849158e+00	 4.8614184282e+00
 1.1697171932e+00	 1.1927404485e+00	 4.8833478699e+00
 1.1580389236e+00	 1.2040821805e+00	 4.7809049068e+00
 1.1462517807e+00	 1.2153085339e+00	 4.5464807921e+00
 1.1343574691e+00	 1.2264179639e+00	 4.1735955577e+00
 1.1223577224e+00	 1.2374089601e+00	 3.6569268191e+00
 1.2439452299e+00	 1.1282862659e+00	 3.0626961597e+00
 1.2328961768e+00	 1.1403493979e+00	 3.5267144744e+00
 1.2217280643e+00	 1.1523065380e+00	 3.9278359736e+00
 1.2104424109e+00	 1.1641559431e+00	 4.2557853677e+00
 1.1990407692e+00	 1.1758959000e+00	 4.5012213860e+00
 1.1875247259e+00	 1.1875247259e+00	 4.6557770976e+00
 1.1758959000e+00	 1.1990407692e+00	 4.7120977649e+00
 1.1641559431e+00	 1.2104424109e+00	 4.6638760267e+00
 1.1523065380e+00	 1.2217280643e+00	 4.5058842205e+00
 1.1403493979e+00	 1.2328961768e+00	 4.2340036668e+00
 1.1282862659e+00	 1.2439452299e+00	 3.8452507555e+00
 1.2504814738e+00	 1.1342147859e+00	 2.8858039750e+00
 1.2393743640e+00	 1.1463413030e+00	 3.3022357219e+00
 1.2281475693e+00	 1.1583612713e+00	 3.6635656411e+00
 1.2168026160e+00	 1.1702729385e+00	 3.9627249769e+00
 1.2053410650e+00	 1.1820745823e+00	 4.1934925849e+00
 1.1937645112e+00	 1.1937645112e+00	 4.3505316417e+00
 1.1820745823e+00	 1.2053410650e+00	 4.4294239614e+00
 1.1702729385e+00	 1.2168026160e+00	 4.4267017179e+00
 1.1583612713e+00	 1.2281475693e+00	 4.3398763841e+00
 1.1463413030e+00	 1.2393743640e+00	 4.1674647122e+00
 1.1342147859e+00	 1.2504814738e+00	 3.9090115971e+00
 1.2570176880e+00	 1.1401432791e+00	 2.7124823316e+00
 1.2458525218e+00	 1.1523331810e+00	 3.0629318670e+00
 1.2345670451e+00	 1.1644159771e+00	 3.3650681625e+00
 1.2231627922e+00	 1.1763899060e+00	 3.6157824572e+00
 1.2116413322e+00	 1.1882532366e+00	 3.8126484087e+00
 1.2000042683e+00	 1.2000042683e+00	 3.9539541150e+00
 1.1882532366e+00	 1.2116413322e+00	 4.0387319302e+00
 1.1763899060e+00	 1.2231627922e+00	 4.0667858767e+00
 1.1644159771e+00	 1.2345670451e+00	 4.0387164671e+00
 1.1523331810e+00	 1.2458525218e+00	 3.9559427634e+00
 1.1401432791e+00	 1.2570176880e+00	 3.8207215179e+00
 1.2635538689e+00	 1.1460717420e+00	 2.5583063478e+00
 1.2523306466e+00	 1.1583250283e+00	 2.8250208149e+00
 1.2409864882e+00	 1.1704706520e+00	 3.0481452306e+00
 1.2295229360e+00	 1.1825068424e+00	 3.2292721082e+00
 1.2179415673e+00	 1.1944318594e+00	 3.3704332235e+00
 1.2062439935e+00	 1.2062439935e+00	 3.4741258818e+00
 1.1944318594e+00	 1.2179415673e+00	 3.5433372789e+00
 1.1825068424e+00	 1.2295229360e+00	 3.5815667618e+00
 1.1704706520e+00	 1.2409864882e+00	 3.5928458072e+00
 1.1583250283e+00	 1.2523306466e+00	 3.5817555489e+00
 1.1460717420e+00	 1.2635538689e+00	 3.5534417025e+00
 1.0867861555e+00	 1.1981910043e+00	 1.5691461836e+00
 1.0750643396e+00	 1.2087193237e+00	 8.9613170050e-01
 1.0632438564e+00	 1.2191300806e+00	 3.1532323298e-01
 1.0513264853e+00	 1.2294218961e+00	-1.5422249991e-01
 1.0393140312e+00	 1.2395934267e+00	-4.9229363811e-01
 1.0272083231e+00	 1.2496433655e+00	-6.7758490902e-01
 1.0150112134e+00	 1.2595704421e+00	-6.8775950810e-01
 1.0027245769e+00	 1.2693734235e+00	-4.9951089674e-01
 9.9035031019e-01	 1.2790511146e+00	-8.8624293413e-02
 9.7789033010e-01	 1.2886023584e+00	 5.6996235418e-01
 9.6534657321e-01	 1.2980260367e+00	 1.5020981159e+00
 1.0927147695e+00	 1.2047273518e+00	 1.8767805967e+00
 1.0809290091e+00	 1.2153131052e+00	 1.0841406412e+00
 1.0690440430e+00	 1.2257806546e+00	 3.8592406012e-01
 1.0570616605e+00	 1.2361286138e+00	-1.9109711580e-01
 1.0449836763e+00	 1.2463556320e+00	-6.2014733676e-01
 1.0328119294e+00	 1.2564603950e+00	-8.7451631694e-01
 1.0205482822e+00	 1.2664416255e+00	-9.2762625703e-01
 1.0081946200e+00	 1.2762980840e+00	-7.5309726481e-01
 9.9575284938e-01	 1.2860285686e+00	-3.2481074666e-01
 9.8322489786e-01	 1.2956319162e+00	 3.8302944155e-01
 9.7061271251e-01	 1.3051070023e+00	 1.3958382798e+00
 1.0986433803e+00	 1.2112636957e+00	 2.2410731132e+00
 1.0867936752e+00	 1.2219068829e+00	 1.3922259407e+00
 1.0748442263e+00	 1.2324312249e+00	 6.2838803754e-01
 1.0627968325e+00	 1.2428353277e+00	-1.7898094184e-02
 1.0506533182e+00	 1.2531178334e+00	-5.1502375897e-01
 1.0384155325e+00	 1.2632774206e+00	-8.3238818288e-01
 1.0260853479e+00	 1.2733128051e+00	-9.4046966007e-01
 1.0136646599e+00	 1.2832227406e+00	-8.1089348324e-01
 1.0011553855e+00	 1.2930060187e+00	-4.1649642853e-01
 9.8855946259e-01	 1.3026614700e+00	 2.6861241632e-01
 9.7587884883e-01	 1.3121879639e+00	 1.2689946720e+00
 1.1045719843e+00	 1.2178000322e+00	 2.6318087901e+00
 1.0926583347e+00	 1.2285006531e+00	 1.7802860286e+00
 1.0806444031e+00	 1.2390817876e+00	 9.9578403810e-01
 1.0685319979e+00	 1.2495420340e+00	 3.1469878494e-01
 1.0563229537e+00	 1.2598800271e+00	-2.2823297568e-01
 1.0440191292e+00	 1.2700944385e+00	-6.0001144067e-01
 1.0316224074e+00	 1.2801839769e+00	-7.6944742445e-01
 1.0191346937e+00	 1.2901473893e+00	-7.0723169700e-01
 1.0065579155e+00	 1.2999834609e+00	-3.8599976271e-01
 9.9389402128e-01	 1.3096910158e+00	 2.1960813027e-01
 9.8114497918e-01	 1.3192689176e+00	 1.1328919384e+00
 1.1105005782e+00	 1.2243363575e+00	 3.0193991482e+00
 1.0985229842e+00	 1.2350944122e+00	 2.2090561335e+00
 1.0864445699e+00	 1.2457323390e+00	 1.4421629089e+00
 1.0742671536e+00	 1.2562487290e+00	 7.5707913642e-01
 1.0619925795e+00	 1.2666422094e+00	 1.8998945777e-01
 1.0496227165e+00	 1.2769114448e+00	-2.2517618111e-01
 1.0371594574e+00	 1.2870551370e+00	-4.5681732254e-01
 1.0246047181e+00	 1.2970720262e+00	-4.7573265031e-01
 1.0119604363e+00	 1.3069608912e+00	-2.5518427099e-01
 9.9922857089e-01	 1.3167205497e+00	 2.2904358651e-01
 9.8641110058e-01	 1.3263498591e+00	 9.9859163905e-01
 1.1164291587e+00	 1.2308726681e+00	 3.3720896702e+00
 1.1043876205e+00	 1.2416881563e+00	 2.6400841843e+00
 1.0922447237e+00	 1.2523828753e+00	 1.9225294988e+00
 1.0800022963e+00	 1.2629554087e+00	 1.2606598721e+00
 1.0676621925e+00	 1.2734043763e+00	 6.9045204238e-01
 1.0552262910e+00	 1.2837284356e+00	 2.4531930395e-01
 1.0426964949e+00	 1.2939262815e+00	-4.3963032108e-02
 1.0300747301e+00	 1.3039966475e+00	-1.4932652444e-01
 1.0173629449e+00	 1.3139383057e+00	-4.5472601068e-02
 1.0045631084e+00	 1.3237500677e+00	 2.9007053715e-01
 9.9167721004e-01	 1.3334307847e+00	 8.7689729297e-01
 1.1223577224e+00	 1.2374089601e+00	 3.6569268191e+00
 1.1102522401e+00	 1.2482818817e+00	 3.0357074337e+00
 1.0980448610e+00	 1.2590333928e+00	 2.3928155290e+00
 1.0857374228e+00	 1.2696620694e+00	 1.7778600136e+00
 1.0733317894e+00	 1.2801665241e+00	 1.2249777979e+00
 1.0608298497e+00	 1.2905454071e+00	 7.6564035462e-01
 1.0482335167e+00	 1.3007974066e+00	 4.2858079901e-01
 1.0355447267e+00	 1.3109212491e+00	 2.3972684185e-01
 1.0227654382e+00	 1.3209157004e+00	 2.2213984811e-01
 1.0098976308e+00	 1.3307795657e+00	 3.9596021079e-01
 9.9694330458e-01	 1.3405116901e+00	 7.7835922217e-01
 1.1282862659e+00	 1.2439452299e+00	 3.8452507555e+00
 1.1161168398e+00	 1.2548755847e+00	 3.3562007655e+00
 1.1038449785e+00	 1.2656838877e+00	 2.8098532771e+00
 1.0914725297e+00	 1.2763687073e+00	 2.2620723821e+00
 1.0790013670e+00	 1.2869286489e+00	 1.7463756136e+00
 1.0664333893e+00	 1.2973623555e+00	 1.2908886207e+00
 1.0537705196e+00	 1.3076685083e+00	 9.2110423541e-01
 1.0410147046e+00	 1.3178458272e+00	 6.5981832689e-01
 1.0281679131e+00	 1.3278930714e+00	 5.2707168844e-01
 1.0152321351e+00	 1.3378090399e+00	 5.4009816502e-01
 1.0022093812e+00	 1.3475925715e+00	 7.1327920325e-01
 1.1342147859e+00	 1.2504814738e+00	 3.9090115971e+00
 1.1219814162e+00	 1.2614692615e+00	 3.5601308442e+00
 1.1096450731e+00	 1.2723343562e+00	 3.1313500437e+00
 1.0972076139e+00	 1.2830753186e+00	 2.6676361339e+00
 1.0846709222e+00	 1.2936907468e+00	 2.2084124543e+00
 1.0720369066e+00	 1.3041792768e+00	 1.7770755537e+00
 1.0593075006e+00	 1.3145395827e+00	 1.3946984567e+00
 1.0464846609e+00	 1.3247703778e+00	 1.0799704739e+00
 1.0335703665e+00	 1.3348704148e+00	 8.4914267840e-01
 1.0205666182e+00	 1.3448384861e+00	 7.1597925952e-01
 1.0074754370e+00	 1.3546734248e+00	 6.9171493311e-01
 1.1401432791e+00	 1.2570176880e+00	 3.8207215179e+00
 1.1278459660e+00	 1.2680629085e+00	 3.6112319468e+00
 1.1154451414e+00	 1.2789847945e+00	 3.3134754056e+00
 1.1029426721e+00	 1.2897818995e+00	 2.9498101098e+00
 1.0903404516e+00	 1.3004528141e+00	 2.5657863915e+00
 1.0776403986e+00	 1.3109961672e+00	 2.1810966827e+00
 1.0648444565e+00	 1.3214106260e+00	 1.8112328541e+00
 1.0519545923e+00	 1.3316948970e+00	 1.4698189912e+00
 1.0389727955e+00	 1.3418477265e+00	 1.1685612187e+00
 1.0259010771e+00	 1.3518679005e+00	 9.1720274543e-01
 1.0127414688e+00	 1.3617542460e+00	 7.2348431561e-01
 1.1460717420e+00	 1.2635538689e+00	 3.5534417025e+00
 1.1337104859e+00	 1.2746565218e+00	 3.4740462896e+00
 1.1212451801e+00	 1.2856351989e+00	 3.3093743028e+00
 1.1086777011e+00	 1.2964884462e+00	 3.0647469704e+00
 1.0960099521e+00	 1.3072148469e+00	 2.7741004289e+00
 1.0832438620e+00	 1.3178130228e+00	 2.4607066478e+00
 1.0703813842e+00	 1.3282816342e+00	 2.1333327954e+00
 1.0574244959e+00	 1.3386193810e+00	 1.7995947853e+00
 1.0443751969e+00	 1.3488250026e+00	 1.4659121949e+00
 1.0312355088e+00	 1.3588972790e+00	 1.1374674667e+00
 1.0180074738e+00	 1.3688350311e+00	 8.1816957591e-01
 9.6534657321e-01	 1.2980260367e+00	 1.5020981159e+00
 9.5272314644e-01	 1.3073195021e+00	 2.5063588020e+00
 9.4001989051e-01	 1.3164833328e+00	 3.3588239842e+00
 9.2723878678e-01	 1.3255165345e+00	 4.0506720289e+00
 9.1438183224e-01	 1.3344181533e+00	 4.5718393413e+00
 9.0145103856e-01	 1.3431872755e+00	 4.9110233208e+00
 8.8844843109e-01	 1.3518230280e+00	 5.0556891553e+00
 8.7537604779e-01	 1.3603245785e+00	 4.9920804407e+00
 8.6223593826e-01	 1.3686911360e+00	 4.7052335890e+00
 8.4903016271e-01	 1.3769219503e+00	 4.1789959733e+00
 8.3576079094e-01	 1.3850163128e+00	 3.3960477388e+00
 9.7061271251e-01	 1.3051070023e+00	 1.3958382798e+00
 9.5792042268e-01	 1.3144511653e+00	 2.5027341028e+00
 9.4514786821e-01	 1.3236649863e+00	 3.4644286985e+00
 9.3229704125e-01	 1.3327474658e+00	 4.2628907705e+00
 9.1936994971e-01	 1.3416976445e+00	 4.8802000725e+00
 9.0636861623e-01	 1.3505146039e+00	 5.2985514704e+00
 8.9329507719e-01	 1.3591974659e+00	 5.5002610169e+00
 8.8015138169e-01	 1.3677453940e+00	 5.4677740378e+00
 8.6693959049e-01	 1.3761575925e+00	 5.1836752131e+00
 8.5366177506e-01	 1.3844333073e+00	 4.6307006228e+00
 8.4032001648e-01	 1.3925718260e+00	 3.7917517103e+00
 9.7587884883e-01	 1.3121879639e+00	 1.2689946720e+00
 9.6311769597e-01	 1.3215828244e+00	 2.3807442742e+00
 9.5027584299e-01	 1.3308466358e+00	 3.3672448334e+00
 9.3735529285e-01	 1.3399783930e+00	 4.2032735462e+00
 9.2435806435e-01	 1.3489771316e+00	 4.8648172052e+00
 9.1128619110e-01	 1.3578419280e+00	 5.3290767217e+00
 8.9814172054e-01	 1.3665718997e+00	 5.5744721923e+00
 8.8492671287e-01	 1.3751662052e+00	 5.5806485230e+00
 8.7164324006e-01	 1.3836240447e+00	 5.3284816112e+00
 8.5829338479e-01	 1.3919446601e+00	 4.8000850705e+00
 8.4487923943e-01	 1.4001273350e+00	 3.9788174723e+00
 9.8114497918e-01	 1.3192689176e+00	 1.1328919384e+00
 9.6831496337e-01	 1.3287144755e+00	 2.1699488617e+00
 9.5540381196e-01	 1.3380282771e+00	 3.1114517522e+00
 9.4241353872e-01	 1.3472093120e+00	 3.9269803031e+00
 9.2934617334e-01	 1.3562566104e+00	 4.5881706737e+00
 9.1620376040e-01	 1.3651692439e+00	 5.0687198256e+00
 9.0298835840e-01	 1.3739463250e+00	 5.3443892953e+00
 8.8970203865e-01	 1.3825870080e+00	 5.3930084261e+00
 8.7634688430e-01	 1.3910904885e+00	 5.1944770712e+00
 8.6292498926e-01	 1.3994560044e+00	 4.7307677683e+00
 8.4943845722e-01	 1.4076828354e+00	 3.9859273762e+00
 9.8641110058e-01	 1.3263498591e+00	 9.9859163905e-01
 9.7351222194e-01	 1.3358461144e+00	 1.8992553242e+00
 9.6053177222e-01	 1.3452099062e+00	 2.7402650518e+00
 9.4747177599e-01	 1.3544402186e+00	 3.4879733861e+00
 9.3433427384e-01	 1.3635360769e+00	 4.1113872752e+00
 9.2112132134e-01	 1.3724965473e+00	 4.5821715615e+00
 9.0783498802e-01	 1.3813207379e+00	 4.8746511732e+00
 8.9447735630e-01	 1.3900077981e+00	 4.9658120299e+00
 8.8105052053e-01	 1.3985569196e+00	 4.8353006839e+00
 8.6755658586e-01	 1.4069673359e+00	 4.4654227078e+00
 8.5399766725e-01	 1.4152383230e+00	 3.8411398291e+00
 9.9167721004e-01	 1.3334307847e+00	 8.7689729297e-01
 9.7870946872e-01	 1.3429777372e+00	 1.5969344157e+00
 9.6565972085e-01	 1.3523915190e+00	 2.2959602334e+00
 9.5253000179e-01	 1.3616711089e+00	 2.9390474314e+00
 9.3932236304e-01	 1.3708155268e+00	 3.4942747129e+00
 9.2603887114e-01	 1.3798238342e+00	 3.9327288447e+00
 9.1268160665e-01	 1.3886951340e+00	 4.2285049818e+00
 8.9925266314e-01	 1.3974285715e+00	 4.3587053114e+00
 8.8575414611e-01	 1.4060233338e+00	 4.3034360437e+00
 8.7218817196e-01	 1.4144786504e+00	 4.0458027662e+00
 8.5855686695e-01	 1.4227937935e+00	 3.5719041721e+00
 9.9694330458e-01	 1.3405116901e+00	 7.7835922217e-01
 9.8390670078e-01	 1.3501093398e+00	 1.2906350413e+00
 9.7078765495e-01	 1.3595731115e+00	 1.8198955837e+00
 9.5758821326e-01	 1.3689019787e+00	 2.3318582767e+00
 9.4431043811e-01	 1.3780949562e+00	 2.7953545243e+00
 9.3095640699e-01	 1.3871511002e+00	 3.1823296522e+00
 9.1752821154e-01	 1.3960695093e+00	 3.4678410816e+00
 9.0402795644e-01	 1.4048493238e+00	 3.6300547727e+00
 8.9045775835e-01	 1.4134897268e+00	 3.6502399707e+00
 8.7681974494e-01	 1.4219899437e+00	 3.5127622763e+00
 8.6311605373e-01	 1.4303492425e+00	 3.2050750494e+00
 1.0022093812e+00	 1.3475925715e+00	 7.1327920325e-01
 9.8910391517e-01	 1.3572409181e+00	 1.0073986043e+00
 9.7591557161e-01	 1.3667546796e+00	 1.3525342966e+00
 9.6264640754e-01	 1.3761328239e+00	 1.7169509219e+00
 9.4929849621e-01	 1.3853743607e+00	 2.0718939338e+00
 9.3587392613e-01	 1.3944783414e+00	 2.3915868118e+00
 9.2237479996e-01	 1.4034438594e+00	 2.6532267977e+00
 9.0880323350e-01	 1.4122700509e+00	 2.8369791989e+00
 8.9516135461e-01	 1.4209560945e+00	 2.9259702925e+00
 8.8145130217e-01	 1.4295012113e+00	 2.9062788492e+00
 8.6767522501e-01	 1.4379046659e+00	 2.7669262891e+00
 1.0074754370e+00	 1.3546734248e+00	 6.9171493311e-01
 9.9430110894e-01	 1.3643724681e+00	 7.7367286587e-01
 9.8104346793e-01	 1.3739362191e+00	 9.3346586410e-01
 9.6770458174e-01	 1.3833636405e+00	 1.1437865757e+00
 9.5428653453e-01	 1.3926537364e+00	 1.3799366707e+00
 9.4079142576e-01	 1.4018055534e+00	 1.6198206948e+00
 9.2722136915e-01	 1.4108181803e+00	 1.8439390841e+00
 9.1357849162e-01	 1.4196907486e+00	 2.0353803862e+00
 8.9986493220e-01	 1.4284224325e+00	 2.1798127177e+00
 8.8608284102e-01	 1.4370124492e+00	 2.2654744763e+00
 8.7223437821e-01	 1.4454600592e+00	 2.2831643113e+00
 1.0127414688e+00	 1.3617542460e+00	 7.2348431561e-01
 9.9949827915e-01	 1.3715039858e+00	 6.1532533297e-01
 9.8617134101e-01	 1.3811177262e+00	 6.0142676054e-01
 9.7276273302e-01	 1.3905944242e+00	 6.6076882087e-01
 9.5927455024e-01	 1.3999330791e+00	 7.7433278765e-01
 9.4570890310e-01	 1.4091327323e+00	 9.2509085256e-01
 9.3206791637e-01	 1.4181924678e+00	 1.0979961346e+00
 9.1835372809e-01	 1.4271114126e+00	 1.2799728739e+00
 9.0456848847e-01	 1.4358887366e+00	 1.4599068360e+00
 8.9071435888e-01	 1.4445236530e+00	 1.6286359366e+00
 8.7679351073e-01	 1.4530154184e+00	 1.7789410824e+00
 1.0180074738e+00	 1.3688350311e+00	 8.1816957591e-01
 1.0046954228e+00	 1.3786354671e+00	 5.5765619222e-01
 9.9129918793e-01	 1.3882991966e+00	 3.9432044849e-01
 9.7782085850e-01	 1.3978251711e+00	 3.1526893156e-01
 9.6426254050e-01	 1.4072123847e+00	 3.0876751884e-01
 9.5062635536e-01	 1.4164598738e+00	 3.6422663568e-01
 9.3691443887e-01	 1.4255667177e+00	 4.7218797534e-01
 9.2312894020e-01	 1.4345320388e+00	 6.2431271927e-01
 9.0927202075e-01	 1.4433550027e+00	 8.1337127568e-01
 8.9534585312e-01	 1.4520348186e+00	 1.0332345361e+00
 8.8135262000e-01	 1.4605707390e+00	 1.2788666309e+00
 8.3576079094e-01	 1.3850163128e+00	 3.3960477388e+00
 8.2242990157e-01	 1.3929735565e+00	 2.5251729344e+00
 8.0903958181e-01	 1.4007930576e+00	 1.7521075139e+00
 7.9559192559e-01	 1.4084742337e+00	 1.0844542761e+00
 7.8208903234e-01	 1.4160165444e+00	 5.3028054650e-01
 7.6853300592e-01	 1.4234194906e+00	 9.8107691409e-02
 7.5492595365e-01	 1.4306826148e+00	-2.0309813133e-01
 7.4126998530e-01	 1.4378055012e+00	-3.6393405737e-01
 7.2756721209e-01	 1.4447877749e+00	-3.9641562251e-01
 7.1381974571e-01	 1.4516291026e+00	-3.1664895941e-01
 7.0002969732e-01	 1.4583291918e+00	-1.1494579408e-01
 8.4032001648e-01	 1.3925718260e+00	 3.7917517103e+00
 8.2691640471e-01	 1.4005724780e+00	 2.8435049679e+00
 8.1345303834e-01	 1.4084346358e+00	 1.9836735804e+00
 7.9993202274e-01	 1.4161577141e+00	 1.2265465953e+00
 7.8635546877e-01	 1.4237411695e+00	 5.8600346111e-01
 7.7272549179e-01	 1.4311845001e+00	 7.5505447152e-02
 7.5904421060e-01	 1.4384872460e+00	-2.9191044641e-01
 7.4531374649e-01	 1.4456489890e+00	-5.0363518446e-01
 7.3153622218e-01	 1.4526693522e+00	-5.5803502807e-01
 7.1771376089e-01	 1.4595480006e+00	-4.7825961218e-01
 7.0384848532e-01	 1.4662846400e+00	-2.5647255790e-01
 8.4487923943e-01	 1.4001273350e+00	 3.9788174723e+00
 8.3140290530e-01	 1.4081713952e+00	 3.0346151399e+00
 8.1786649237e-01	 1.4160762097e+00	 2.1615609586e+00
 8.0427211742e-01	 1.4238411902e+00	 1.3793330673e+00
 7.9062190279e-01	 1.4314657902e+00	 7.0648360330e-01
 7.7691797528e-01	 1.4389495052e+00	 1.6043185489e-01
 7.6316246522e-01	 1.4462918727e+00	-2.4253905285e-01
 7.4935750538e-01	 1.4534924723e+00	-4.8728205728e-01
 7.3550523002e-01	 1.4605509251e+00	-5.6314144831e-01
 7.2160777388e-01	 1.4674668941e+00	-4.9255071412e-01
 7.0766727115e-01	 1.4742400837e+00	-2.7371798394e-01
 8.4943845722e-01	 1.4076828354e+00	 3.9859273762e+00
 8.3588940081e-01	 1.4157703037e+00	 3.1115121459e+00
 8.2227994140e-01	 1.4237177750e+00	 2.2853709813e+00
 8.0861220719e-01	 1.4315246576e+00	 1.5312867412e+00
 7.9488833197e-01	 1.4391904022e+00	 8.7135585071e-01
 7.8111045402e-01	 1.4467145015e+00	 3.2598302059e-01
 7.6728071517e-01	 1.4540964906e+00	-8.6119668976e-02
 7.5340125969e-01	 1.4613359468e+00	-3.4792945452e-01
 7.3947423337e-01	 1.4684324891e+00	-4.4429210040e-01
 7.2550178244e-01	 1.4753857787e+00	-3.8939620522e-01
 7.1148605264e-01	 1.4821955184e+00	-1.9156292943e-01
 8.5399766725e-01	 1.4152383230e+00	 3.8411398291e+00
 8.4037588869e-01	 1.4233691993e+00	 3.0869171177e+00
 8.2669338292e-01	 1.4313593273e+00	 2.3547055046e+00
 8.1295228958e-01	 1.4392081119e+00	 1.6711206971e+00
 7.9915475390e-01	 1.4469150010e+00	 1.0606857940e+00
 7.8530292564e-01	 1.4544794846e+00	 5.4582740892e-01
 7.7139895812e-01	 1.4619010953e+00	 1.4687678198e-01
 7.5744500713e-01	 1.4691794079e+00	-1.1792426863e-01
 7.4344322996e-01	 1.4763140396e+00	-2.3241271949e-01
 7.2939578439e-01	 1.4833046498e+00	-1.9806663009e-01
 7.1530482765e-01	 1.4901509396e+00	-3.5651124934e-02
 8.5855686695e-01	 1.4227937935e+00	 3.5719041721e+00
 8.4486236640e-01	 1.4309680777e+00	 2.9732696152e+00
 8.3110681444e-01	 1.4390008622e+00	 2.3691652984e+00
 8.1729236213e-01	 1.4468915489e+00	 1.7877801291e+00
 8.0342116615e-01	 1.4546395824e+00	 1.2549568106e+00
 7.8949538775e-01	 1.4622444501e+00	 7.9418921221e-01
 7.7551719173e-01	 1.4697056822e+00	 4.2662514484e-01
 7.6148874540e-01	 1.4770228512e+00	 1.7107438327e-01
 7.4741221756e-01	 1.4841955723e+00	 4.3863770456e-02
 7.3328977751e-01	 1.4912235029e+00	 5.1132337020e-02
 7.1912359400e-01	 1.4981063427e+00	 1.6901272529e-01
 8.6311605373e-01	 1.4303492425e+00	 3.2050750494e+00
 8.4934883140e-01	 1.4385669346e+00	 2.7827333912e+00
 8.3552023346e-01	 1.4466423755e+00	 2.3283484512e+00
 8.2163242239e-01	 1.4545749640e+00	 1.8704346411e+00
 8.0768756632e-01	 1.4623641418e+00	 1.4350575105e+00
 7.9368783798e-01	 1.4700093936e+00	 1.0458322094e+00
 7.7963541367e-01	 1.4775102470e+00	 7.2392757179e-01
 7.6553247221e-01	 1.4848662724e+00	 4.8780687186e-01
 7.5138119391e-01	 1.4920770827e+00	 3.5203744856e-01
 7.3718375960e-01	 1.4991423336e+00	 3.2916811588e-01
 7.2294234953e-01	 1.5060617233e+00	 3.9876994449e-01
 8.6767522501e-01	 1.4379046659e+00	 2.7669262891e+00
 8.5383528115e-01	 1.4461657657e+00	 2.5272019373e+00
 8.3993363747e-01	 1.4542838628e+00	 2.2318487875e+00
 8.2597246788e-01	 1.4622583530e+00	 1.9084707497e+00
 8.1195395198e-01	 1.4700886750e+00	 1.5822695414e+00
 7.9788027396e-01	 1.4777743108e+00	 1.2760440971e+00
 7.8375362161e-01	 1.4853147853e+00	 1.0098240042e+00
 7.6957618527e-01	 1.4927096668e+00	 7.9961420175e-01
 7.5535015677e-01	 1.4999585662e+00	 6.6113776952e-01
 7.4107772844e-01	 1.5070611374e+00	 6.0828960004e-01
 7.2676109208e-01	 1.5140170769e+00	 6.3044776981e-01
 8.7223437821e-01	 1.4454600592e+00	 2.2831643113e+00
 8.5832171309e-01	 1.4537645665e+00	 2.2183038195e+00
 8.4434702397e-01	 1.4619253198e+00	 2.0792542991e+00
 8.3031249616e-01	 1.4699417115e+00	 1.8914845836e+00
 8.1622032071e-01	 1.4778131775e+00	 1.6782557390e+00
 8.0207269330e-01	 1.4855391971e+00	 1.4601779173e+00
 7.8787181322e-01	 1.4931192927e+00	 1.2538223985e+00
 7.7361988229e-01	 1.5005530302e+00	 1.0758626820e+00
 7.5931910388e-01	 1.5078400185e+00	 9.4133688641e-01
 7.4497168184e-01	 1.5149799098e+00	 8.6331027417e-01
 7.3057981947e-01	 1.5219723988e+00	 8.4134572249e-01
 8.7679351073e-01	 1.4530154184e+00	 1.7789410824e+00
 8.6280812470e-01	 1.4613633330e+00	 1.8674078110e+00
 8.4876039046e-01	 1.4695667422e+00	 1.8701455874e+00
 8.3465250477e-01	 1.4776250352e+00	 1.8092747758e+00
 8.2048667011e-01	 1.4855376451e+00	 1.7045818956e+00
 8.0626509364e-01	 1.4933040482e+00	 1.5718939089e+00
 7.9198998615e-01	 1.5009237646e+00	 1.4276283164e+00
 7.7766356098e-01	 1.5083963579e+00	 1.2869528022e+00
 7.6328803300e-01	 1.5157214351e+00	 1.1633890481e+00
 7.4886561759e-01	 1.5228986463e+00	 1.0688391189e+00
 7.3439852956e-01	 1.5299276848e+00	 1.0092223869e+00
 8.8135262000e-01	 1.4605707390e+00	 1.2788666309e+00
 8.6729451342e-01	 1.4689620607e+00	 1.4856278291e+00
 8.5317373444e-01	 1.4772081256e+00	 1.6040943186e+00
 8.3899249124e-01	 1.4853083198e+00	 1.6514019966e+00
 8.2475299774e-01	 1.4932620732e+00	 1.6409037522e+00
 8.1045747260e-01	 1.5010688597e+00	 1.5871089045e+00
 7.9610813808e-01	 1.5087281967e+00	 1.5038679946e+00
 7.8170721905e-01	 1.5162396457e+00	 1.4038598855e+00
 7.6725694188e-01	 1.5236028115e+00	 1.2986159724e+00
 7.5275953348e-01	 1.5308173424e+00	 1.1985439290e+00
 7.3821722017e-01	 1.5378829301e+00	 1.1122825833e+00
 7.0002969732e-01	 1.4583291918e+00	-1.1494579408e-01
 6.8619682187e-01	 1.4648888939e+00	 1.4225988764e-01
 6.7232556799e-01	 1.4713068460e+00	 3.8097990251e-01
 6.5841803993e-01	 1.4775828767e+00	 6.0004173916e-01
 6.4447633766e-01	 1.4837168546e+00	 7.9796411064e-01
 6.3050255592e-01	 1.4897086883e+00	 9.7276757882e-01
 6.1649878331e-01	 1.4955583263e+00	 1.1228412734e+00
 6.0246710142e-01	 1.5012657558e+00	 1.2464900822e+00
 5.8840958390e-01	 1.5068310035e+00	 1.3417775189e+00
 5.7432829563e-01	 1.5122541343e+00	 1.4065187439e+00
 5.6022529188e-01	 1.5175352514e+00	 1.4382746277e+00
 7.0384848532e-01	 1.4662846400e+00	-2.5647255790e-01
 6.8994014904e-01	 1.4728801265e+00	 3.6224294787e-02
 6.7599322497e-01	 1.4793330897e+00	 3.1856440326e-01
 6.6200982884e-01	 1.4856433572e+00	 5.8566522515e-01
 6.4799207207e-01	 1.4918107970e+00	 8.3249515420e-01
 6.3394206084e-01	 1.4978353174e+00	 1.0549036500e+00
 6.1986189513e-01	 1.5037168661e+00	 1.2488708593e+00
 6.0575366789e-01	 1.5094554307e+00	 1.4104407259e+00
 5.9161946408e-01	 1.5150510379e+00	 1.5357116456e+00
 5.7746135985e-01	 1.5205037528e+00	 1.6208278239e+00
 5.6328142167e-01	 1.5258136793e+00	 1.6619713211e+00
 7.0766727115e-01	 1.4742400837e+00	-2.7371798394e-01
 6.9368347409e-01	 1.4808713545e+00	 2.5166455482e-02
 6.7966087987e-01	 1.4873593288e+00	 3.2316452809e-01
 6.6560161572e-01	 1.4937038332e+00	 6.1229973505e-01
 6.5150780450e-01	 1.4999047349e+00	 8.8576153498e-01
 6.3738156381e-01	 1.5059619418e+00	 1.1370755106e+00
 6.2322500505e-01	 1.5118754013e+00	 1.3600865944e+00
 6.0904023250e-01	 1.5176451010e+00	 1.5489482799e+00
 5.9482934244e-01	 1.5232710675e+00	 1.6981122453e+00
 5.8059442230e-01	 1.5287533666e+00	 1.8023183819e+00
 5.6633754974e-01	 1.5340921025e+00	 1.8565852187e+00
 7.1148605264e-01	 1.4821955184e+00	-1.9156292943e-01
 6.9742679489e-01	 1.4888625735e+00	 8.9153392227e-02
 6.8332853062e-01	 1.4953855588e+00	 3.7939616420e-01
 6.6919339852e-01	 1.5017643000e+00	 6.6972019521e-01
 6.5502353294e-01	 1.5079986637e+00	 9.5121631694e-01
 6.4082106288e-01	 1.5140885570e+00	 1.2154997123e+00
 6.2658811115e-01	 1.5200339273e+00	 1.4546984185e+00
 6.1232679338e-01	 1.5258347620e+00	 1.6614420077e+00
 5.9803921717e-01	 1.5314910879e+00	 1.8288504436e+00
 5.8372748119e-01	 1.5370029711e+00	 1.9505231129e+00
 5.6939367434e-01	 1.5423705164e+00	 2.0205280239e+00
 7.1530482765e-01	 1.4901509396e+00	-3.5651124934e-02
 7.0117010933e-01	 1.4968537789e+00	 2.0817446094e-01
 6.8699617512e-01	 1.5034117752e+00	 4.7313589822e-01
 6.7278517522e-01	 1.5098247531e+00	 7.4805842690e-01
 6.5853925540e-01	 1.5160925786e+00	 1.0224455419e+00
 6.4426055611e-01	 1.5222151584e+00	 1.2864673304e+00
 6.2995121153e-01	 1.5281924394e+00	 1.5309488111e+00
 6.1561334867e-01	 1.5340244090e+00	 1.7473582800e+00
 6.0124908643e-01	 1.5397110943e+00	 1.9277956637e+00
 5.8686053476e-01	 1.5452525615e+00	 2.0649808802e+00
 5.7244979375e-01	 1.5506489162e+00	 2.1522422032e+00
 7.1912359400e-01	 1.4981063427e+00	 1.6901272529e-01
 7.0491341528e-01	 1.5048449662e+00	 3.6361498954e-01
 6.9066381132e-01	 1.5114379733e+00	 5.9060727653e-01
 6.7637694377e-01	 1.5178851880e+00	 8.3764772948e-01
 6.6205496989e-01	 1.5241864753e+00	 1.0931639159e+00
 6.4770004154e-01	 1.5303417413e+00	 1.3463412316e+00
 6.3331430430e-01	 1.5363509330e+00	 1.5871112032e+00
 6.1889989652e-01	 1.5422140375e+00	 1.8061396931e+00
 6.0445894843e-01	 1.5479310820e+00	 1.9948150093e+00
 5.8999358122e-01	 1.5535021333e+00	 2.1452359198e+00
 5.7550590622e-01	 1.5589272972e+00	 2.2501995701e+00
 7.2294234953e-01	 1.5060617233e+00	 3.9876994449e-01
 7.0865671063e-01	 1.5128361308e+00	 5.3724907688e-01
 6.9433143712e-01	 1.5194641488e+00	 7.1831546050e-01
 6.7996870215e-01	 1.5259456000e+00	 9.2901673662e-01
 6.6557067442e-01	 1.5322803489e+00	 1.1572106174e+00
 6.5113951722e-01	 1.5384683013e+00	 1.3915534141e+00
 6.3667738753e-01	 1.5445094035e+00	 1.6214884270e+00
 6.2218643505e-01	 1.5504036428e+00	 1.8372342022e+00
 6.0766880132e-01	 1.5561510465e+00	 2.0297726550e+00
 5.9312661881e-01	 1.5617516816e+00	 2.1908370595e+00
 5.7856201004e-01	 1.5672056547e+00	 2.3128999021e+00
 7.2676109208e-01	 1.5140170769e+00	 6.3044776981e-01
 7.1239999324e-01	 1.5208272683e+00	 7.1122306486e-01
 6.9799905045e-01	 1.5274902969e+00	 8.4303896573e-01
 6.8356044832e-01	 1.5340059846e+00	 1.0128834515e+00
 6.6908636699e-01	 1.5403741951e+00	 1.2085452245e+00
 6.5457898121e-01	 1.5465948336e+00	 1.4186024187e+00
 6.4004045933e-01	 1.5526678463e+00	 1.6324112011e+00
 6.2547296241e-01	 1.5585932203e+00	 1.8400942693e+00
 6.1087864331e-01	 1.5643709830e+00	 2.0325292436e+00
 5.9625964575e-01	 1.5700012019e+00	 2.2013369503e+00
 5.8161810347e-01	 1.5754839841e+00	 2.3388695907e+00
 7.3057981947e-01	 1.5219723988e+00	 8.4134572249e-01
 7.1614326101e-01	 1.5288183741e+00	 8.6804490793e-01
 7.0166664924e-01	 1.5355164132e+00	 9.5182164498e-01
 6.8715218024e-01	 1.5420663372e+00	 1.0801494540e+00
 6.7260204562e-01	 1.5484680092e+00	 1.2412437545e+00
 6.5801843155e-01	 1.5547213337e+00	 1.4240508074e+00
 6.4340351778e-01	 1.5608262567e+00	 1.6182366506e+00
 6.2875947673e-01	 1.5667827652e+00	 1.8141760258e+00
 6.1408847256e-01	 1.5725908869e+00	 2.0029412905e+00
 5.9939266026e-01	 1.5782506895e+00	 2.1762913105e+00
 5.8467418477e-01	 1.5837622807e+00	 2.3266603216e+00
 7.3439852956e-01	 1.5299276848e+00	 1.0092223869e+00
 7.1988651181e-01	 1.5368094436e+00	 9.9057385830e-01
 7.0533423139e-01	 1.5435424931e+00	 1.0319649060e+00
 6.9074389587e-01	 1.5501266533e+00	 1.1218942750e+00
 6.7611770832e-01	 1.5565617865e+00	 1.2494948139e+00
 6.6145786631e-01	 1.5628477969e+00	 1.4045227062e+00
 6.4676656100e-01	 1.5689846301e+00	 1.5773468597e+00
 6.3204597615e-01	 1.5749722730e+00	 1.7589384481e+00
 6.1729828726e-01	 1.5808107535e+00	 1.9408605940e+00
 6.0252566056e-01	 1.5865001397e+00	 2.1152581818e+00
 5.8773025222e-01	 1.5920405398e+00	 2.2748477854e+00
 7.3821722017e-01	 1.5378829301e+00	 1.1122825833e+00
 7.2362974352e-01	 1.5448004724e+00	 1.0620104557e+00
 7.0900179485e-01	 1.5515685321e+00	 1.0710201560e+00
 6.9433559319e-01	 1.5581869283e+00	 1.1293699294e+00
 6.7963335308e-01	 1.5646555226e+00	 1.2275958539e+00
 6.6489728352e-01	 1.5709742187e+00	 1.3567014125e+00
 6.5012958706e-01	 1.5771429619e+00	 1.5081474569e+00
 6.3533245882e-01	 1.5831617391e+00	 1.6738425471e+00
 6.2050808558e-01	 1.5890305782e+00	 1.8461336527e+00
 6.0565864489e-01	 1.5947495478e+00	 2.0177971963e+00
 5.9078630409e-01	 1.6003187566e+00	 2.1820304170e+00
 5.6022529188e-01	 1.5175352514e+00	 1.4382746277e+00
 5.4610501945e-01	 1.5226736338e+00	 1.4600295819e+00
 5.3196711483e-01	 1.5276703685e+00	 1.4963964572e+00
 5.1781359778e-01	 1.5325256694e+00	 1.5473494172e+00
 5.0364647525e-01	 1.5372397864e+00	 1.6130813838e+00
 4.8946774058e-01	 1.5418130057e+00	 1.6939915842e+00
 4.7527937279e-01	 1.5462456483e+00	 1.7906734816e+00
 4.6108333583e-01	 1.5505380703e+00	 1.9039030800e+00
 4.4688157787e-01	 1.5546906618e+00	 2.0346275903e+00
 4.3267603064e-01	 1.5587038468e+00	 2.1839544477e+00
 4.1846860876e-01	 1.5625780821e+00	 2.3531406655e+00
 5.6328142167e-01	 1.5258136793e+00	 1.6619713211e+00
 5.4908412062e-01	 1.5309800925e+00	 1.6840231696e+00
 5.3486909118e-01	 1.5360040853e+00	 1.7153716690e+00
 5.2063836415e-01	 1.5408858727e+00	 1.7575243987e+00
 5.0639395742e-01	 1.5456257061e+00	 1.8120456098e+00
 4.9213787521e-01	 1.5502238731e+00	 1.8805445901e+00
 4.7787210732e-01	 1.5546806966e+00	 1.9646646249e+00
 4.6359862841e-01	 1.5589965345e+00	 2.0660725345e+00
 4.4931939731e-01	 1.5631717792e+00	 2.1864487708e+00
 4.3503635627e-01	 1.5672068568e+00	 2.3274780535e+00
 4.2075143034e-01	 1.5711022268e+00	 2.4908405263e+00
 5.6633754974e-01	 1.5340921025e+00	 1.8565852187e+00
 5.5206322010e-01	 1.5392865465e+00	 1.8847214226e+00
 5.3777106590e-01	 1.5443377974e+00	 1.9156408866e+00
 5.2346312893e-01	 1.5492460713e+00	 1.9521568972e+00
 5.0914143803e-01	 1.5540116211e+00	 1.9970035950e+00
 4.9480800831e-01	 1.5586347358e+00	 2.0528250028e+00
 4.8046484037e-01	 1.5631157401e+00	 2.1221648282e+00
 4.6611391957e-01	 1.5674549940e+00	 2.2074570165e+00
 4.5175721537e-01	 1.5716528918e+00	 2.3110170289e+00
 4.3739668055e-01	 1.5757098620e+00	 2.4350338211e+00
 4.2303425063e-01	 1.5796263666e+00	 2.5815624954e+00
 5.6939367434e-01	 1.5423705164e+00	 2.0205280239e+00
 5.5504231621e-01	 1.5475929911e+00	 2.0592189343e+00
 5.4067303732e-01	 1.5526715001e+00	 2.0933744365e+00
 5.2628789050e-01	 1.5576062605e+00	 2.1268882913e+00
 5.1188891553e-01	 1.5623975266e+00	 2.1634652718e+00
 4.9747813840e-01	 1.5670455889e+00	 2.2066107019e+00
 4.8305757048e-01	 1.5715507741e+00	 2.2596209162e+00
 4.6862920788e-01	 1.5759134438e+00	 2.3255746120e+00
 4.5419503066e-01	 1.5801339947e+00	 2.4073250648e+00
 4.3975700216e-01	 1.5842128576e+00	 2.5074931744e+00
 4.2531706833e-01	 1.5881504968e+00	 2.6284613119e+00
 5.7244979375e-01	 1.5506489162e+00	 2.1522422032e+00
 5.5802140725e-01	 1.5558994216e+00	 2.2046698547e+00
 5.4357500381e-01	 1.5610051885e+00	 2.2448226123e+00
 5.2911264727e-01	 1.5659664354e+00	 2.2774518963e+00
 5.1463638836e-01	 1.5707834178e+00	 2.3070359875e+00
 5.0014826394e-01	 1.5754564278e+00	 2.3377699246e+00
 4.8565029619e-01	 1.5799857937e+00	 2.3735564390e+00
 4.7114449192e-01	 1.5843718793e+00	 2.4179978940e+00
 4.5663284181e-01	 1.5886150833e+00	 2.4743891940e+00
 4.4211731976e-01	 1.5927158387e+00	 2.5457116287e+00
 4.2759988214e-01	 1.5966746125e+00	 2.6346276156e+00
 5.7550590622e-01	 1.5589272972e+00	 2.2501995701e+00
 5.6100049153e-01	 1.5642058333e+00	 2.3182857419e+00
 5.4647696372e-01	 1.5693388581e+00	 2.3663130157e+00
 5.3193739763e-01	 1.5743265914e+00	 2.3996700195e+00
 5.1738385496e-01	 1.5791692900e+00	 2.4234134991e+00
 5.0281838343e-01	 1.5838672476e+00	 2.4422584256e+00
 4.8824301602e-01	 1.5884207942e+00	 2.4605692254e+00
 4.7365977025e-01	 1.5928302956e+00	 2.4823520960e+00
 4.5907064744e-01	 1.5970961526e+00	 2.5112483711e+00
 4.4447763201e-01	 1.6012188005e+00	 2.5505288935e+00
 4.2988269079e-01	 1.6051987089e+00	 2.6030893589e+00
 5.7856201004e-01	 1.5672056547e+00	 2.3128999021e+00
 5.6397956738e-01	 1.5725122214e+00	 2.3973334696e+00
 5.4937891540e-01	 1.5776725041e+00	 2.4542479711e+00
 5.3476213999e-01	 1.5826867237e+00	 2.4894510985e+00
 5.2013131378e-01	 1.5875551384e+00	 2.5083850535e+00
 5.0548849535e-01	 1.5922780435e+00	 2.5161167185e+00
 4.9083572850e-01	 1.5968557708e+00	 2.5173290045e+00
 4.7617504145e-01	 1.6012886880e+00	 2.5163133366e+00
 4.6150844616e-01	 1.6055771979e+00	 2.5169632374e+00
 4.4683793757e-01	 1.6097217383e+00	 2.5227689653e+00
 4.3216549296e-01	 1.6137227811e+00	 2.5368131672e+00
 5.8161810347e-01	 1.5754839841e+00	 2.3388695907e+00
 5.6695863310e-01	 1.5808185813e+00	 2.4391331906e+00
 5.5228085722e-01	 1.5860061218e+00	 2.5051020112e+00
 5.3758687275e-01	 1.5910468275e+00	 2.5427869190e+00
 5.2287876325e-01	 1.5959409583e+00	 2.5578245490e+00
 5.0815859820e-01	 1.6006888109e+00	 2.5554673937e+00
 4.9342843217e-01	 1.6052907188e+00	 2.5405750943e+00
 4.7869030411e-01	 1.6097470516e+00	 2.5176068909e+00
 4.6394623659e-01	 1.6140582143e+00	 2.4906151907e+00
 4.4919823510e-01	 1.6182246471e+00	 2.4632402104e+00
 4.3444828738e-01	 1.6222468243e+00	 2.4387056489e+00
 5.8467418477e-01	 1.5837622807e+00	 2.3266603216e+00
 5.6993768700e-01	 1.5891249082e+00	 2.4410563529e+00
 5.5518278753e-01	 1.5943397063e+00	 2.5154194308e+00
 5.4041159430e-01	 1.5994068982e+00	 2.5557499106e+00
 5.2562620183e-01	 1.6043267450e+00	 2.5676897774e+00
 5.1082869045e-01	 1.6090995449e+00	 2.5565125123e+00
 4.9602112555e-01	 1.6137256332e+00	 2.5271141532e+00
 4.8120555678e-01	 1.6182053816e+00	 2.4840055077e+00
 4.6638401734e-01	 1.6225391971e+00	 2.4313054758e+00
 4.5155852327e-01	 1.6267275222e+00	 2.3727354371e+00
 4.3673107273e-01	 1.6307708338e+00	 2.3116146585e+00
 5.8773025222e-01	 1.5920405398e+00	 2.2748477854e+00
 5.7291672739e-01	 1.5974311975e+00	 2.4005237669e+00
 5.5808470469e-01	 1.6026732531e+00	 2.4818119069e+00
 5.4323630305e-01	 1.6077669310e+00	 2.5244905159e+00
 5.2837362795e-01	 1.6127124936e+00	 2.5340197416e+00
 5.1349877060e-01	 1.6175102407e+00	 2.5155310714e+00
 4.9861380718e-01	 1.6221605095e+00	 2.4738179933e+00
 4.8372079805e-01	 1.6266636733e+00	 2.4133277718e+00
 4.6882178705e-01	 1.6310201415e+00	 2.3381542965e+00
 4.5391880074e-01	 1.6352303588e+00	 2.2520319591e+00
 4.3901384774e-01	 1.6392948045e+00	 2.1583305131e+00
 5.9078630409e-01	 1.6003187566e+00	 2.1820304170e+00
 5.7589575259e-01	 1.6057374444e+00	 2.3150037215e+00
 5.6098660704e-01	 1.6110067574e+00	 2.4009561820e+00
 5.4606099739e-01	 1.6161269212e+00	 2.4452346329e+00
 5.3112104005e-01	 1.6210981995e+00	 2.4529320476e+00
 5.1616883713e-01	 1.6259208937e+00	 2.4288765393e+00
 5.0120647558e-01	 1.6305953427e+00	 2.3776214532e+00
 4.8623602649e-01	 1.6351219218e+00	 2.3034365083e+00
 4.7125954432e-01	 1.6395010426e+00	 2.2102999473e+00
 4.5627906618e-01	 1.6437331520e+00	 2.1018916495e+00
 4.4129661111e-01	 1.6478187318e+00	 1.9815871646e+00
 4.1846860876e-01	 1.5625780821e+00	 2.3531406655e+00
 4.0426120927e-01	 1.5663138575e+00	 2.5075364382e+00
 3.9005571159e-01	 1.5699116960e+00	 2.6113670879e+00
 3.7585397630e-01	 1.5733721522e+00	 2.6641974773e+00
 3.6165784435e-01	 1.5766958111e+00	 2.6669384095e+00
 3.4746913652e-01	 1.5798832881e+00	 2.6251464066e+00
 3.3328965288e-01	 1.5829352275e+00	 2.5395915862e+00
 3.1912117227e-01	 1.5858523025e+00	 2.4103165634e+00
 3.0496545179e-01	 1.5886352143e+00	 2.2371958415e+00
 2.9082422635e-01	 1.5912846913e+00	 2.0199421365e+00
 2.7669920824e-01	 1.5938014885e+00	 1.7581130259e+00
 4.2075143034e-01	 1.5711022268e+00	 2.4908405263e+00
 4.0646652693e-01	 1.5748583815e+00	 2.6408098693e+00
 3.9218353570e-01	 1.5784758469e+00	 2.7398085318e+00
 3.7790432738e-01	 1.5819551804e+00	 2.7867665336e+00
 3.6363075298e-01	 1.5852969706e+00	 2.7814726801e+00
 3.4936464320e-01	 1.5885018358e+00	 2.7287657635e+00
 3.3510780793e-01	 1.5915704241e+00	 2.6297218165e+00
 3.2086203570e-01	 1.5945034123e+00	 2.4844733908e+00
 3.0662909321e-01	 1.5973015053e+00	 2.2931621709e+00
 2.9241072485e-01	 1.5999654357e+00	 2.0559416588e+00
 2.7820865222e-01	 1.6024959625e+00	 1.7729800358e+00
 4.2303425063e-01	 1.5796263666e+00	 2.5815624954e+00
 4.0867184334e-01	 1.5834029007e+00	 2.7163401750e+00
 3.9431135861e-01	 1.5870399929e+00	 2.8026228362e+00
 3.7995467731e-01	 1.5905382038e+00	 2.8387972103e+00
 3.6560366050e-01	 1.5938981251e+00	 2.8238248337e+00
 3.5126014880e-01	 1.5971203786e+00	 2.7615943473e+00
 3.3692596194e-01	 1.6002056158e+00	 2.6535274100e+00
 3.2260289814e-01	 1.6031545171e+00	 2.4998173656e+00
 3.0829273370e-01	 1.6059677914e+00	 2.3008152876e+00
 2.9399722245e-01	 1.6086461751e+00	 2.0570296480e+00
 2.7971809535e-01	 1.6111904315e+00	 1.7691260364e+00
 4.2531706833e-01	 1.5881504968e+00	 2.6284613119e+00
 4.1087715725e-01	 1.5919474102e+00	 2.7395147200e+00
 3.9643917910e-01	 1.5956041292e+00	 2.8069237935e+00
 3.8200502492e-01	 1.5991212175e+00	 2.8286237199e+00
 3.6757656578e-01	 1.6024992699e+00	 2.8030005497e+00
 3.5315565226e-01	 1.6057389116e+00	 2.7328427649e+00
 3.3874411389e-01	 1.6088407976e+00	 2.6199212768e+00
 3.2434375861e-01	 1.6118056121e+00	 2.4644625831e+00
 3.0995637230e-01	 1.6146340677e+00	 2.2669711741e+00
 2.9558371825e-01	 1.6173269048e+00	 2.0282268009e+00
 2.8122753676e-01	 1.6198848907e+00	 1.7492816917e+00
 4.2759988214e-01	 1.5966746125e+00	 2.6346276156e+00
 4.1308246741e-01	 1.6004919051e+00	 2.7156096325e+00
 3.9856699598e-01	 1.6041682509e+00	 2.7596775998e+00
 3.8405536903e-01	 1.6077042166e+00	 2.7644070894e+00
 3.6954946770e-01	 1.6111004001e+00	 2.7278197917e+00
 3.5505115249e-01	 1.6143574300e+00	 2.6515315442e+00
 3.4056226275e-01	 1.6174759649e+00	 2.5376326041e+00
 3.2608461613e-01	 1.6204566925e+00	 2.3863564580e+00
 3.1162000807e-01	 1.6233003293e+00	 2.1983068188e+00
 2.9717021135e-01	 1.6260076197e+00	 1.9744531041e+00
 2.8273697561e-01	 1.6285793351e+00	 1.7161257831e+00
 4.2988269079e-01	 1.6051987089e+00	 2.6030893589e+00
 4.1528777257e-01	 1.6090363807e+00	 2.6497924955e+00
 4.0069480803e-01	 1.6127323533e+00	 2.6677065390e+00
 3.8610570850e-01	 1.6162871963e+00	 2.6541395501e+00
 3.7152236516e-01	 1.6197015108e+00	 2.6069075289e+00
 3.5694664843e-01	 1.6229759289e+00	 2.5264961055e+00
 3.4238040749e-01	 1.6261111125e+00	 2.4152116742e+00
 3.2782546969e-01	 1.6291077532e+00	 2.2732841035e+00
 3.1328364007e-01	 1.6319665712e+00	 2.1013638733e+00
 2.9875670086e-01	 1.6346883149e+00	 1.9005304878e+00
 2.8424641104e-01	 1.6372737599e+00	 1.6722865785e+00
 4.3216549296e-01	 1.6137227811e+00	 2.5368131672e+00
 4.1749307148e-01	 1.6175808321e+00	 2.5471249471e+00
 4.0282261406e-01	 1.6212964313e+00	 2.5376925443e+00
 3.8815604216e-01	 1.6248701516e+00	 2.5056487834e+00
 3.7349525702e-01	 1.6283025971e+00	 2.4486760200e+00
 3.5884213900e-01	 1.6315944033e+00	 2.3663915716e+00
 3.4419854708e-01	 1.6347462357e+00	 2.2610345259e+00
 3.2956631833e-01	 1.6377587894e+00	 2.1328725688e+00
 3.1494726736e-01	 1.6406327886e+00	 1.9825521921e+00
 3.0034318587e-01	 1.6433689855e+00	 1.8111853930e+00
 2.8575584219e-01	 1.6459681599e+00	 1.6203431554e+00
 4.3444828738e-01	 1.6222468243e+00	 2.4387056489e+00
 4.1969836290e-01	 1.6261252544e+00	 2.4125651917e+00
 4.0495041285e-01	 1.6298604803e+00	 2.3761806422e+00
 3.9020636885e-01	 1.6334530777e+00	 2.3266020274e+00
 3.7546814218e-01	 1.6369036542e+00	 2.2614413028e+00
 3.6073762312e-01	 1.6402128484e+00	 2.1796974228e+00
 3.4601668049e-01	 1.6433813295e+00	 2.0833074657e+00
 3.3130716104e-01	 1.6464097962e+00	 1.9725949403e+00
 3.1661088899e-01	 1.6492989764e+00	 1.8481532565e+00
 3.0192966549e-01	 1.6520496266e+00	 1.7110512546e+00
 2.8726526821e-01	 1.6546625304e+00	 1.5628266797e+00
 4.3673107273e-01	 1.6307708338e+00	 2.3116146585e+00
 4.2190364556e-01	 1.6346696428e+00	 2.2509704268e+00
 4.0707820320e-01	 1.6384244952e+00	 2.1895822822e+00
 3.9225668741e-01	 1.6420359698e+00	 2.1245100497e+00
 3.7744101951e-01	 1.6455046771e+00	 2.0533589880e+00
 3.6263309972e-01	 1.6488312594e+00	 1.9747220024e+00
 3.4783480668e-01	 1.6520163890e+00	 1.8900714350e+00
 3.3304799685e-01	 1.6550607686e+00	 1.7997743105e+00
 3.1827450402e-01	 1.6579651300e+00	 1.7043234889e+00
 3.0351613881e-01	 1.6607302332e+00	 1.6046709043e+00
 2.8877468824e-01	 1.6633568665e+00	 1.5022216423e+00
 4.3901384774e-01	 1.6392948045e+00	 2.1583305131e+00
 4.2410891823e-01	 1.6432139925e+00	 2.0670991882e+00
 4.0920598390e-01	 1.6469884714e+00	 1.9841785572e+00
 3.9430699667e-01	 1.6506188229e+00	 1.9067309901e+00
 3.7941388789e-01	 1.6541056611e+00	 1.8324191989e+00
 3.6452856773e-01	 1.6574496312e+00	 1.7596068780e+00
 3.4965292463e-01	 1.6606514094e+00	 1.6892062361e+00
 3.3478882476e-01	 1.6637117019e+00	 1.6215876201e+00
 3.1993811150e-01	 1.6666312442e+00	 1.5570974612e+00
 3.0510260495e-01	 1.6694108005e+00	 1.4964988963e+00
 2.9028410143e-01	 1.6720511631e+00	 1.4409670537e+00
 4.4129661111e-01	 1.6478187318e+00	 1.9815871646e+00
 4.2631417965e-01	 1.6517582986e+00	 1.8656136152e+00
 4.1133375375e-01	 1.6555524039e+00	 1.7661233181e+00
 3.9635729548e-01	 1.6592016323e+00	 1.6804740798e+00
 3.8138674621e-01	 1.6627066012e+00	 1.6064506504e+00
 3.6642402607e-01	 1.6660679591e+00	 1.5423310634e+00
 3.5147103331e-01	 1.6692863858e+00	 1.4884346255e+00
 3.3652964380e-01	 1.6723625910e+00	 1.4450693784e+00
 3.2160171051e-01	 1.6752973142e+00	 1.4123909996e+00
 3.0668906299e-01	 1.6780913235e+00	 1.3909037569e+00
 2.9179350692e-01	 1.6807454153e+00	 1.3814576003e+00
 2.7669920824e-01	 1.5938014885e+00	 1.7581130259e+00
 2.6258969053e-01	 1.5961867811e+00	 1.4992433735e+00
 2.4849974570e-01	 1.5984409358e+00	 1.2900337922e+00
 2.3443102005e-01	 1.6005647824e+00	 1.1285638336e+00
 2.2038513559e-01	 1.6025591752e+00	 1.0129575600e+00
 2.0636368968e-01	 1.6044249910e+00	 9.4138820603e-01
 1.9236825466e-01	 1.6061631297e+00	 9.1208279689e-01
 1.7840037765e-01	 1.6077745126e+00	 9.2332670170e-01
 1.6446158018e-01	 1.6092600820e+00	 9.7346810212e-01
 1.5055335800e-01	 1.6106208007e+00	 1.0609223593e+00
 1.3667718079e-01	 1.6118576511e+00	 1.1841762625e+00
 2.7820865222e-01	 1.6024959625e+00	 1.7729800358e+00
 2.6402216456e-01	 1.6048942673e+00	 1.4928473963e+00
 2.4985535653e-01	 1.6071607188e+00	 1.2633472390e+00
 2.3570988346e-01	 1.6092961514e+00	 1.0832686483e+00
 2.2158737617e-01	 1.6113014239e+00	 9.5129192062e-01
 2.0748944074e-01	 1.6131774181e+00	 8.6599608368e-01
 1.9341765812e-01	 1.6149250387e+00	 8.2586649131e-01
 1.7937358382e-01	 1.6165452119e+00	 8.2930246592e-01
 1.6535874770e-01	 1.6180388854e+00	 8.7462496088e-01
 1.5137465366e-01	 1.6194070271e+00	 9.6008421783e-01
 1.3742277941e-01	 1.6206506247e+00	 1.0838673953e+00
 2.7971809535e-01	 1.6111904315e+00	 1.7691260364e+00
 2.6545463777e-01	 1.6136017486e+00	 1.4840424308e+00
 2.5121096660e-01	 1.6158804968e+00	 1.2480385049e+00
 2.3698874614e-01	 1.6180275154e+00	 1.0605379330e+00
 2.2278961607e-01	 1.6200436677e+00	 9.2072659473e-01
 2.0861519117e-01	 1.6219298403e+00	 8.2756248429e-01
 1.9446706097e-01	 1.6236869427e+00	 7.7978579641e-01
 1.8034678944e-01	 1.6253159063e+00	 7.7592915396e-01
 1.6625591471e-01	 1.6268176838e+00	 8.1432794349e-01
 1.5219594886e-01	 1.6281932485e+00	 8.9313072711e-01
 1.3816837761e-01	 1.6294435933e+00	 1.0103097009e+00
 2.8122753676e-01	 1.6198848907e+00	 1.7492816917e+00
 2.6688710935e-01	 1.6223092199e+00	 1.4732308929e+00
 2.5256657514e-01	 1.6246002650e+00	 1.2425989614e+00
 2.3826760737e-01	 1.6267588695e+00	 1.0573687080e+00
 2.2399185461e-01	 1.6287859015e+00	 9.1718017815e-01
 2.0974094033e-01	 1.6306822525e+00	 8.2134248950e-01
 1.9551646264e-01	 1.6324488368e+00	 7.6884592745e-01
 1.8131999395e-01	 1.6340865907e+00	 7.5837425951e-01
 1.6715308071e-01	 1.6355964723e+00	 7.8831722873e-01
 1.5301724313e-01	 1.6369794599e+00	 8.5678318963e-01
 1.3891397496e-01	 1.6382365519e+00	 9.6161185139e-01
 2.8273697561e-01	 1.6285793351e+00	 1.7161257831e+00
 2.6831957851e-01	 1.6310166765e+00	 1.4608129360e+00
 2.5392218136e-01	 1.6333200183e+00	 1.2455584028e+00
 2.3954646643e-01	 1.6354902088e+00	 1.0708281762e+00
 2.2519409110e-01	 1.6375281206e+00	 9.3666429949e-01
 2.1086668757e-01	 1.6394346498e+00	 8.4269817412e-01
 1.9656586252e-01	 1.6412107159e+00	 7.8816418973e-01
 1.8229319681e-01	 1.6428572603e+00	 7.7191363111e-01
 1.6805024518e-01	 1.6443752458e+00	 7.9242881959e-01
 1.5383853600e-01	 1.6457656564e+00	 8.4783744759e-01
 1.3965957104e-01	 1.6470294956e+00	 9.3592706733e-01
 2.8424641104e-01	 1.6372737599e+00	 1.6722865785e+00
 2.6975204441e-01	 1.6397241134e+00	 1.4471865132e+00
 2.5527778452e-01	 1.6420397519e+00	 1.2554840380e+00
 2.4082532259e-01	 1.6442215283e+00	 1.0980518810e+00
 2.2639632486e-01	 1.6462703197e+00	 9.7528117848e-01
 2.1199243226e-01	 1.6481870273e+00	 8.8709580039e-01
 1.9761526003e-01	 1.6499725752e+00	 8.3296704300e-01
 1.8326639746e-01	 1.6516279099e+00	 8.1192864006e-01
 1.6894740761e-01	 1.6531539995e+00	 8.2259204701e-01
 1.5465982701e-01	 1.6545518329e+00	 8.6316195397e-01
 1.4040516544e-01	 1.6558224194e+00	 9.3145198572e-01
 2.8575584219e-01	 1.6459681599e+00	 1.6203431554e+00
 2.7118450626e-01	 1.6484315255e+00	 1.4327474353e+00
 2.5663338383e-01	 1.6507594608e+00	 1.2709795121e+00
 2.4210417513e-01	 1.6529528230e+00	 1.1362419195e+00
 2.2759855522e-01	 1.6550124942e+00	 1.0292212597e+00
 2.1311817376e-01	 1.6569393800e+00	 9.5010309932e-01
 1.9866465456e-01	 1.6587344097e+00	 8.9858725724e-01
 1.8423959536e-01	 1.6603985347e+00	 8.7390343665e-01
 1.6984456751e-01	 1.6619327282e+00	 8.7482715169e-01
 1.5548111569e-01	 1.6633379846e+00	 8.9969590372e-01
 1.4115075772e-01	 1.6646153182e+00	 9.4642556352e-01
 2.8726526821e-01	 1.6546625304e+00	 1.5628266797e+00
 2.7261696323e-01	 1.6571389081e+00	 1.4178894248e+00
 2.5798897854e-01	 1.6594791400e+00	 1.2906839567e+00
 2.4338302331e-01	 1.6616840881e+00	 1.1826652104e+00
 2.2880078150e-01	 1.6637546389e+00	 1.0947609191e+00
 2.1424391143e-01	 1.6656917030e+00	 1.0273866360e+00
 1.9971404552e-01	 1.6674962144e+00	 9.8046115655e-01
 1.8521278995e-01	 1.6691691297e+00	 9.5342229151e-01
 1.7074172435e-01	 1.6707114272e+00	 9.4524294077e-01
 1.5630240158e-01	 1.6721241064e+00	 9.5444742282e-01
 1.4189634747e-01	 1.6734081872e+00	 9.7912801485e-01
 2.8877468824e-01	 1.6633568665e+00	 1.5022216423e+00
 2.7404941453e-01	 1.6658462561e+00	 1.4030041653e+00
 2.5934456787e-01	 1.6681987847e+00	 1.3132710674e+00
 2.4466186643e-01	 1.6704153185e+00	 1.2346518144e+00
 2.3000300300e-01	 1.6724967489e+00	 1.1682602402e+00
 2.1536964464e-01	 1.6744439912e+00	 1.1147092557e+00
 2.0076343232e-01	 1.6762579843e+00	 1.0741259478e+00
 1.8618598067e-01	 1.6779396898e+00	 1.0461670189e+00
 1.7163887763e-01	 1.6794900913e+00	 1.0300345169e+00
 1.5712368422e-01	 1.6809101933e+00	 1.0244918132e+00
 1.4264193426e-01	 1.6822010213e+00	 1.0278797807e+00
 2.9028410143e-01	 1.6720511631e+00	 1.4409670537e+00
 2.7548185933e-01	 1.6745535646e+00	 1.3884813473e+00
 2.6070015105e-01	 1.6769183898e+00	 1.3374482080e+00
 2.4594070375e-01	 1.6791465094e+00	 1.2895933039e+00
 2.3120521906e-01	 1.6812388193e+00	 1.2461608577e+00
 2.1649537274e-01	 1.6831962397e+00	 1.2079276079e+00
 2.0181281437e-01	 1.6850197145e+00	 1.1752171313e+00
 1.8715916699e-01	 1.6867102102e+00	 1.1479144789e+00
 1.7253602685e-01	 1.6882687155e+00	 1.1254810770e+00
 1.5794496313e-01	 1.6896962404e+00	 1.1069698513e+00
 1.4338751767e-01	 1.6909938155e+00	 1.0910405300e+00
 2.9179350692e-01	 1.6807454153e+00	 1.3814576003e+00
 2.7691429682e-01	 1.6832608288e+00	 1.3747087100e+00
 2.6205572732e-01	 1.6856379504e+00	 1.3619555403e+00
 2.4721953454e-01	 1.6878776557e+00	 1.3449411826e+00
 2.3240742898e-01	 1.6899808451e+00	 1.3249838670e+00
 2.1762109510e-01	 1.6919484436e+00	 1.3029897457e+00
 2.0286219106e-01	 1.6937814001e+00	 1.2794659899e+00
 1.8813234834e-01	 1.6954806859e+00	 1.2545341563e+00
 1.7343317150e-01	 1.6970472951e+00	 1.2279437780e+00
 1.5876623785e-01	 1.6984822427e+00	 1.1990861387e+00
 1.4413309728e-01	 1.6997865649e+00	 1.1670081909e+00
 1.3667718079e-01	 1.6118576511e+00	 1.1841762625e+00
 1.2283683665e-01	 1.6129714553e+00	 1.3043664650e+00
 1.0903135356e-01	 1.6139634527e+00	 1.3881553900e+00
 9.5262089698e-02	 1.6148346794e+00	 1.4422506144e+00
 8.1530377368e-02	 1.6155861883e+00	 1.4732887771e+00
 6.7837522827e-02	 1.6162190481e+00	 1.4878340187e+00
 5.4184806178e-02	 1.6167343431e+00	 1.4923765706e+00
 4.0573481271e-02	 1.6171331722e+00	 1.4933314815e+00
 2.7004775613e-02	 1.6174166482e+00	 1.4970374766e+00
 1.3479890307e-02	 1.6175858975e+00	 1.5097559413e+00
 0.0000000000e+00	 1.6176420588e+00	 1.5376700232e+00
 1.3742277941e-01	 1.6206506247e+00	 1.0838673953e+00
 1.2350693370e-01	 1.6217705049e+00	 1.2071809639e+00
 1.0962613921e-01	 1.6227679138e+00	 1.2968659721e+00
 9.5781761542e-02	 1.6236438933e+00	 1.3594708977e+00
 8.1975140250e-02	 1.6243995017e+00	 1.4015740650e+00
 6.8207588723e-02	 1.6250358139e+00	 1.4297797060e+00
 5.4480394048e-02	 1.6255539199e+00	 1.4507141042e+00
 4.0794816914e-02	 1.6259549247e+00	 1.4710218163e+00
 2.7152091524e-02	 1.6262399471e+00	 1.4973619704e+00
 1.3553425535e-02	 1.6264101197e+00	 1.5364046388e+00
 0.0000000000e+00	 1.6264665874e+00	 1.5948272850e+00
 1.3816837761e-01	 1.6294435933e+00	 1.0103097009e+00
 1.2417703037e-01	 1.6305695495e+00	 1.1291785618e+00
 1.1022092453e-01	 1.6315723700e+00	 1.2186542717e+00
 9.6301433091e-02	 1.6324531021e+00	 1.2850064132e+00
 8.2419902880e-02	 1.6332128102e+00	 1.3346168589e+00
 6.8577654409e-02	 1.6338525747e+00	 1.3739740643e+00
 5.4775981750e-02	 1.6343734917e+00	 1.4096673827e+00
 4.1016152430e-02	 1.6347766722e+00	 1.4483814034e+00
 2.7299407352e-02	 1.6350632411e+00	 1.4968903149e+00
 1.3626960720e-02	 1.6352343369e+00	 1.5620522959e+00
 0.0000000000e+00	 1.6352911109e+00	 1.6508039384e+00
 1.3891397496e-01	 1.6382365519e+00	 9.6161185139e-01
 1.2484712629e-01	 1.6393685841e+00	 1.0698668442e+00
 1.1081570918e-01	 1.6403768161e+00	 1.1540478853e+00
 9.6821104052e-02	 1.6412623009e+00	 1.2200292333e+00
 8.2864665005e-02	 1.6420261086e+00	 1.2738617351e+00
 6.8947719676e-02	 1.6426693255e+00	 1.3217659543e+00
 5.5071569116e-02	 1.6431930536e+00	 1.3701252675e+00
 4.1237487696e-02	 1.6435984097e+00	 1.4254789343e+00
 2.7446723012e-02	 1.6438865250e+00	 1.4945151452e+00
 1.3700495823e-02	 1.6440585441e+00	 1.5840640538e+00
 0.0000000000e+00	 1.6441156245e+00	 1.7010908008e+00
 1.3965957104e-01	 1.6470294956e+00	 9.3592706733e-01
 1.2551722106e-01	 1.6481676038e+00	 1.0287676751e+00
 1.1141049281e-01	 1.6491812473e+00	 1.1035664775e+00
 9.7340774129e-02	 1.6500714848e+00	 1.1656892754e+00
 8.3309426375e-02	 1.6508393921e+00	 1.2207248023e+00
 6.9317784313e-02	 1.6514860613e+00	 1.2744772865e+00
 5.5367155980e-02	 1.6520126004e+00	 1.3329589332e+00
 4.1458822586e-02	 1.6524201322e+00	 1.4023823352e+00
 2.7594038422e-02	 1.6527097939e+00	 1.4891528193e+00
 1.3774030800e-02	 1.6528827363e+00	 1.5998607360e+00
 0.0000000000e+00	 1.6529401231e+00	 1.7412737035e+00
 1.4040516544e-01	 1.6558224194e+00	 9.3145198572e-01
 1.2618731431e-01	 1.6569666035e+00	 1.0054168690e+00
 1.1200527510e-01	 1.6579856585e+00	 1.0677220416e+00
 9.7860443028e-02	 1.6588806487e+00	 1.1231149374e+00
 8.3754186736e-02	 1.6596526556e+00	 1.1765945012e+00
 6.9687848112e-02	 1.6603027772e+00	 1.2334037762e+00
 5.5662742174e-02	 1.6608321273e+00	 1.2990223709e+00
 4.1680156973e-02	 1.6612418347e+00	 1.3791588140e+00
 2.7741353498e-02	 1.6615330428e+00	 1.4797428059e+00
 1.3847565611e-02	 1.6617069085e+00	 1.6069173777e+00
 0.0000000000e+00	 1.6617646017e+00	 1.7670309672e+00
 1.4115075772e-01	 1.6646153182e+00	 9.4642556352e-01
 1.2685740567e-01	 1.6657655783e+00	 9.9936387245e-01
 1.1260005570e-01	 1.6667900448e+00	 1.0470191512e+00
 9.8380110455e-02	 1.6676897876e+00	 1.0934137131e+00
 8.4198945838e-02	 1.6684658941e+00	 1.1428323784e+00
 7.0057910862e-02	 1.6691194680e+00	 1.1998156736e+00
 5.5958327531e-02	 1.6696516291e+00	 1.2691528750e+00
 4.1901490734e-02	 1.6700635123e+00	 1.3558749053e+00
 2.7888668156e-02	 1.6703562668e+00	 1.4652470928e+00
 1.3921100213e-02	 1.6705310557e+00	 1.6027618037e+00
 0.0000000000e+00	 1.6705890552e+00	 1.7741309576e+00
 1.4189634747e-01	 1.6734081872e+00	 9.7912801485e-01
 1.2752749475e-01	 1.6745645232e+00	 1.0101714553e+00
 1.1319483428e-01	 1.6755944012e+00	 1.0419552030e+00
 9.8899776116e-02	 1.6764988966e+00	 1.0776727871e+00
 8.4643703427e-02	 1.6772791027e+00	 1.1207738364e+00
 7.0427972354e-02	 1.6779361289e+00	 1.1749584721e+00
 5.6253911883e-02	 1.6784711010e+00	 1.2441715144e+00
 4.2122823742e-02	 1.6788851598e+00	 1.3325965136e+00
 2.8035982313e-02	 1.6791794607e+00	 1.4446496120e+00
 1.3994634565e-02	 1.6793551729e+00	 1.5849732491e+00
 0.0000000000e+00	 1.6794134788e+00	 1.7584297174e+00
 1.4264193426e-01	 1.6822010213e+00	 1.0278797807e+00
 1.2819758117e-01	 1.6833634332e+00	 1.0374154108e+00
 1.1378961050e-01	 1.6843987226e+00	 1.0530206529e+00
 9.9419439715e-02	 1.6853079707e+00	 1.0769596118e+00
 8.5088459253e-02	 1.6860922763e+00	 1.1117288590e+00
 7.0798032378e-02	 1.6867527548e+00	 1.1600535925e+00
 5.6549495062e-02	 1.6872905379e+00	 1.2248835892e+00
 4.2344155872e-02	 1.6877067723e+00	 1.3093889558e+00
 2.8183295887e-02	 1.6880026196e+00	 1.4169556846e+00
 1.4068168626e-02	 1.6881792551e+00	 1.5511810243e+00
 0.0000000000e+00	 1.6882378674e+00	 1.7158686725e+00
 1.4338751767e-01	 1.6909938155e+00	 1.0910405300e+00
 1.2886766455e-01	 1.6921623033e+00	 1.0806842647e+00
 1.1438438402e-01	 1.6932030041e+00	 1.0806992427e+00
 9.9939100959e-02	 1.6941170048e+00	 1.0923224656e+00
 8.5533213062e-02	 1.6949054099e+00	 1.1169827144e+00
 7.1168090725e-02	 1.6955693408e+00	 1.1562990474e+00
 5.6845076902e-02	 1.6961099348e+00	 1.2120790729e+00
 4.2565487000e-02	 1.6965283449e+00	 1.2863170017e+00
 2.8330608793e-02	 1.6968257385e+00	 1.3811914816e+00
 1.4141702353e-02	 1.6970032973e+00	 1.4990632212e+00
 0.0000000000e+00	 1.6970622159e+00	 1.6424724099e+00
 1.4413309728e-01	 1.6997865649e+00	 1.1670081909e+00
 1.2953774452e-01	 1.7009611285e+00	 1.1395789927e+00
 1.1497915452e-01	 1.7020072407e+00	 1.1254682203e+00
 1.0045875955e-01	 1.7029259940e+00	 1.1247909929e+00
 8.5977964604e-02	 1.7037184986e+00	 1.1377966363e+00
 7.1538147186e-02	 1.7043858817e+00	 1.1648700838e+00
 5.7140657235e-02	 1.7049292867e+00	 1.2065330409e+00
 4.2786816999e-02	 1.7053498724e+00	 1.2634449137e+00
 2.8477920947e-02	 1.7056488125e+00	 1.3364035020e+00
 1.4215235706e-02	 1.7058272945e+00	 1.4263454593e+00
 0.0000000000e+00	 1.7058865195e+00	 1.5343465235e+00
 1.7058865195e+00	 0.0000000000e+00	-8.2859475971e+00
 1.7058272945e+00	 1.4215235706e-02	-6.5063227892e+00
 1.7056488125e+00	 2.8477920947e-02	-4.8960549436e+00
 1.7053498724e+00	 4.2786816999e-02	-3.4032851263e+00
 1.7049292867e+00	 5.7140657235e-02	-1.9768975443e+00
 1.7043858817e+00	 7.1538147186e-02	-5.6658679204e-01
 1.7037184986e+00	 8.5977964604e-02	 8.7707376755e-01
 1.7029259940e+00	 1.0045875955e-01	 2.4025623734e+00
 1.7020072407e+00	 1.1497915452e-01	 4.0573378772e+00
 1.7009611285e+00	 1.2953774452e-01	 5.8877672910e+00
 1.6997865649e+00	 1.4413309728e-01	 7.9390517728e+00
 1.7147092756e+00	 0.0000000000e+00	-1.0178176468e+01
 1.7146497443e+00	 1.4288756164e-02	-8.2255057671e+00
 1.7144703392e+00	 2.8625207270e-02	-6.5431158422e+00
 1.7141698530e+00	 4.3008108185e-02	-5.0578643172e+00
 1.7137470921e+00	 5.7436185734e-02	-3.6982223771e+00
 1.7132008766e+00	 7.1908138752e-02	-2.3943877812e+00
 1.7125300418e+00	 8.6422638153e-02	-1.0783991423e+00
 1.7117334384e+00	 1.0097832702e-01	 3.1574846493e-01
 1.7108099334e+00	 1.1557382071e-01	 1.8519865166e+00
 1.7097584107e+00	 1.3020770698e-01	 3.5920546268e+00
 1.7085777723e+00	 1.4487854614e-01	 5.5953806735e+00
 1.7235319917e+00	 0.0000000000e+00	-1.1494357988e+01
 1.7234721541e+00	 1.4362276288e-02	-9.4690927164e+00
 1.7232918259e+00	 2.8772492924e-02	-7.7725895954e+00
 1.7229897936e+00	 4.3229398368e-02	-6.3201882810e+00
 1.7225648574e+00	 5.7731712894e-02	-5.0296086208e+00
 1.7220158315e+00	 7.2278128642e-02	-3.8210949279e+00
 1.7213415451e+00	 8.6867309687e-02	-2.6175614260e+00
 1.7205408429e+00	 1.0149789213e-01	-1.3447388862e+00
 1.7196125861e+00	 1.1616848420e-01	 6.8677532515e-02
 1.7185556531e+00	 1.3087766640e-01	 1.6908792377e+00
 1.7173689399e+00	 1.4562399163e-01	 3.5867939598e+00
 1.7323546778e+00	 0.0000000000e+00	-1.2160759019e+01
 1.7322945339e+00	 1.4435796163e-02	-1.0193930275e+01
 1.7321132826e+00	 2.8919778079e-02	-8.5676037929e+00
 1.7318097042e+00	 4.3450687800e-02	-7.1952072407e+00
 1.7313825928e+00	 5.8027239050e-02	-5.9932121516e+00
 1.7308307565e+00	 7.2648117275e-02	-4.8812950786e+00
 1.7301530184e+00	 8.7311979709e-02	-3.7824995981e+00
 1.7293482174e+00	 1.0201745547e-01	-2.6233991566e+00
 1.7284152090e+00	 1.1676314568e-01	-1.3342607478e+00
 1.7273528655e+00	 1.3154762354e-01	 1.5079060294e-01
 1.7261600776e+00	 1.4636943457e-01	 1.8936065803e+00
 1.7411773439e+00	 0.0000000000e+00	-1.2105179984e+01
 1.7411168937e+00	 1.4509315872e-02	-1.0357767531e+01
 1.7409347193e+00	 2.9067062899e-02	-8.9116455936e+00
 1.7406295949e+00	 4.3671976730e-02	-7.6877795356e+00
 1.7402003082e+00	 5.8322764537e-02	-6.6107401168e+00
 1.7396456614e+00	 7.3018105069e-02	-5.6088672724e+00
 1.7389644717e+00	 8.7756648724e-02	-4.6144341911e+00
 1.7381555720e+00	 1.0253701764e-01	-3.5638116790e+00
 1.7372178118e+00	 1.1735780580e-01	-2.3976327870e+00
 1.7361500580e+00	 1.3221757917e-01	-1.0609576688e+00
 1.7349511954e+00	 1.4711487583e-01	 4.9656136967e-01
 1.7500000000e+00	 0.0000000000e+00	-1.1256916362e+01
 1.7499392435e+00	 1.4582835497e-02	-9.9192332904e+00
 1.7497561460e+00	 2.9214347553e-02	-8.7885525666e+00
 1.7494494755e+00	 4.3893265410e-02	-7.8026737556e+00
 1.7490180136e+00	 5.8618289688e-02	-6.9034620026e+00
 1.7484605564e+00	 7.3388092444e-02	-6.0370003006e+00
 1.7477759150e+00	 8.8201317235e-02	-5.1537412837e+00
 1.7469629166e+00	 1.0305657922e-01	-4.2086585389e+00
 1.7460204047e+00	 1.1795246526e-01	-3.1613974214e+00
 1.7449472406e+00	 1.3288753404e-01	-1.9764253506e+00
 1.7437423032e+00	 1.4786031625e-01	-6.2318155495e-01
 1.7588226561e+00	 0.0000000000e+00	-9.5467213586e+00
 1.7587615933e+00	 1.4656355122e-02	-8.8378140333e+00
 1.7585775727e+00	 2.9361632207e-02	-8.1825038092e+00
 1.7582693561e+00	 4.4114554089e-02	-7.5445708119e+00
 1.7578357190e+00	 5.8913814840e-02	-6.8922203669e+00
 1.7572754514e+00	 7.3758079819e-02	-6.1982097350e+00
 1.7565873584e+00	 8.8645985747e-02	-5.4399733800e+00
 1.7557702612e+00	 1.0357614080e-01	-4.5997467804e+00
 1.7548229977e+00	 1.1854712471e-01	-3.6646887952e+00
 1.7537444231e+00	 1.3355748891e-01	-2.6270025849e+00
 1.7525334110e+00	 1.4860575666e-01	-1.4840550841e+00
 1.7676453222e+00	 0.0000000000e+00	-6.9067696900e+00
 1.7675839531e+00	 1.4729874830e-02	-7.0738325370e+00
 1.7673990094e+00	 2.9508917028e-02	-7.0780113347e+00
 1.7670892468e+00	 4.4335843020e-02	-6.9180659460e+00
 1.7666534344e+00	 5.9209340326e-02	-6.5974412504e+00
 1.7660903563e+00	 7.4128067613e-02	-6.1243544450e+00
 1.7653988117e+00	 8.9090654762e-02	-5.5118796605e+00
 1.7645776158e+00	 1.0409570297e-01	-4.7780299464e+00
 1.7636256005e+00	 1.1914178483e-01	-3.9458366683e+00
 1.7625416156e+00	 1.3422744453e-01	-3.0434263648e+00
 1.7613245288e+00	 1.4935119792e-01	-2.1040951038e+00
 1.7764680083e+00	 0.0000000000e+00	-3.2706224660e+00
 1.7764063329e+00	 1.4803394705e-02	-4.5884271398e+00
 1.7762204661e+00	 2.9656202182e-02	-5.4599117182e+00
 1.7759091574e+00	 4.4557132451e-02	-5.9276706783e+00
 1.7754711698e+00	 5.9504866482e-02	-6.0391442761e+00
 1.7749052813e+00	 7.4498056245e-02	-5.8466526201e+00
 1.7742102850e+00	 8.9535324784e-02	-5.4074256288e+00
 1.7733849903e+00	 1.0461526631e-01	-4.7836289754e+00
 1.7724282234e+00	 1.1973644631e-01	-4.0423861188e+00
 1.7713388280e+00	 1.3489740168e-01	-3.2557965266e+00
 1.7701156665e+00	 1.5009664087e-01	-2.5009501917e+00
 1.7852907244e+00	 0.0000000000e+00	 1.4268068837e+00
 1.7852287427e+00	 1.4876914830e-02	-1.3435316249e+00
 1.7850419528e+00	 2.9803487837e-02	-3.3133579924e+00
 1.7847290980e+00	 4.4778422635e-02	-4.5778147005e+00
 1.7842889352e+00	 5.9800393642e-02	-5.2369524480e+00
 1.7837202362e+00	 7.4868046135e-02	-5.3956973167e+00
 1.7830217883e+00	 8.9979996318e-02	-5.1638121737e+00
 1.7821923948e+00	 1.0513483142e-01	-4.6558524782e+00
 1.7812308761e+00	 1.2033110980e-01	-3.9911166631e+00
 1.7801360704e+00	 1.3556736110e-01	-3.2935912717e+00
 1.7789068341e+00	 1.5084208636e-01	-2.6918910311e+00
 1.7941134805e+00	 0.0000000000e+00	 7.2492856683e+00
 1.7940511925e+00	 1.4950435288e-02	 2.6981442967e+00
 1.7938634795e+00	 2.9950774159e-02	-6.2381178579e-01
 1.7935490786e+00	 4.4999713821e-02	-2.8728477118e+00
 1.7931067405e+00	 6.0095922142e-02	-4.2101016603e+00
 1.7925352311e+00	 7.5238037701e-02	-4.8014715435e+00
 1.7918333315e+00	 9.0424669867e-02	-4.8174940676e+00
 1.7909998392e+00	 1.0565439889e-01	-4.4332164158e+00
 1.7900335688e+00	 1.2092577599e-01	-3.8280608118e+00
 1.7889333526e+00	 1.3623732356e-01	-3.1856822331e+00
 1.7876980416e+00	 1.5158753522e-01	-2.6938195543e+00
 1.6997865649e+00	 1.4413309728e-01	 7.9390517728e+00
 1.6984822427e+00	 1.5876623785e-01	 9.8504138014e+00
 1.6970472951e+00	 1.7343317150e-01	 1.1248292537e+01
 1.6954806859e+00	 1.8813234834e-01	 1.2158698258e+01
 1.6937814001e+00	 2.0286219106e-01	 1.2607348849e+01
 1.6919484436e+00	 2.1762109510e-01	 1.2619646826e+01
 1.6899808451e+00	 2.3240742898e-01	 1.2220654588e+01
 1.6878776557e+00	 2.4721953454e-01	 1.1435067814e+01
 1.6856379504e+00	 2.6205572732e-01	 1.0287186946e+01
 1.6832608288e+00	 2.7691429682e-01	 8.8008867056e+00
 1.6807454153e+00	 2.9179350692e-01	 6.9995836303e+00
 1.7085777723e+00	 1.4487854614e-01	 5.5953806735e+00
 1.7072667043e+00	 1.5958736855e-01	 7.5284435159e+00
 1.7058243352e+00	 1.7433015881e-01	 9.0242990776e+00
 1.7042496236e+00	 1.8910535904e-01	 1.0091742972e+01
 1.7025415491e+00	 2.0391138373e-01	 1.0739861128e+01
 1.7006991127e+00	 2.1874662005e-01	 1.0978041364e+01
 1.6987213379e+00	 2.3360942808e-01	 1.0815983081e+01
 1.6966072709e+00	 2.4849814108e-01	 1.0263704926e+01
 1.6943559820e+00	 2.6341106587e-01	 9.3315503084e+00
 1.6919665660e+00	 2.7834648312e-01	 8.0301906608e+00
 1.6894381429e+00	 2.9330264772e-01	 6.3706263630e+00
 1.7173689399e+00	 1.4562399163e-01	 3.5867939598e+00
 1.7160511260e+00	 1.6040849553e-01	 5.4603361019e+00
 1.7146013355e+00	 1.7522714206e-01	 6.9701304495e+00
 1.7130185215e+00	 1.9007836532e-01	 8.1122385169e+00
 1.7113016584e+00	 2.0496057165e-01	 8.8834997025e+00
 1.7094497422e+00	 2.1987213991e-01	 9.2815698735e+00
 1.7074617910e+00	 2.3481142173e-01	 9.3049578965e+00
 1.7053368465e+00	 2.4977674182e-01	 8.9530599199e+00
 1.7030739740e+00	 2.6476639828e-01	 8.2261912327e+00
 1.7006722637e+00	 2.7977866292e-01	 7.1256155468e+00
 1.6981308311e+00	 2.9481178167e-01	 5.6535715729e+00
 1.7261600776e+00	 1.4636943457e-01	 1.8936065803e+00
 1.7248355179e+00	 1.6122961972e-01	 3.6417200242e+00
 1.7233783059e+00	 1.7612412227e-01	 5.0941257634e+00
 1.7217873896e+00	 1.9105136829e-01	 6.2385586162e+00
 1.7200617380e+00	 2.0600975600e-01	 7.0639246565e+00
 1.7182003418e+00	 2.2099765593e-01	 7.5603593361e+00
 1.7162022144e+00	 2.3601341129e-01	 7.7192833218e+00
 1.7140663924e+00	 2.5105533822e-01	 7.5334558126e+00
 1.7117919364e+00	 2.6612172608e-01	 6.9970251212e+00
 1.7093779318e+00	 2.8121083786e-01	 6.1055763272e+00
 1.7068234898e+00	 2.9632091050e-01	 4.8561758309e+00
 1.7349511954e+00	 1.4711487583e-01	 4.9656136967e-01
 1.7336198899e+00	 1.6205074205e-01	 2.0683432558e+00
 1.7321552565e+00	 1.7702110044e-01	 3.4044872370e+00
 1.7305562378e+00	 1.9202436906e-01	 4.4887371267e+00
 1.7288217977e+00	 2.0705893797e-01	 5.3063080951e+00
 1.7269509217e+00	 2.2212316940e-01	 5.8439569227e+00
 1.7249426181e+00	 2.3721539814e-01	 6.0900496793e+00
 1.7227959186e+00	 2.5233393171e-01	 6.0346265610e+00
 1.7205098790e+00	 2.6747705081e-01	 5.6694636403e+00
 1.7180835802e+00	 2.8264300955e-01	 4.9881313049e+00
 1.7155161287e+00	 2.9783003590e-01	 3.9860491871e+00
 1.7437423032e+00	 1.4786031625e-01	-6.2318155495e-01
 1.7424042519e+00	 1.6287186345e-01	 7.3607037572e-01
 1.7409321971e+00	 1.7791807759e-01	 1.9092836659e+00
 1.7393250761e+00	 1.9299736873e-01	 2.8804765166e+00
 1.7375818474e+00	 2.0810811875e-01	 3.6353462277e+00
 1.7357014916e+00	 2.2324868160e-01	 4.1613442429e+00
 1.7336830118e+00	 2.3841738361e-01	 4.4477482697e+00
 1.7315254348e+00	 2.5361252376e-01	 4.4857311885e+00
 1.7292278118e+00	 2.6883237400e-01	 4.2684264818e+00
 1.7267892188e+00	 2.8407517962e-01	 3.7909899414e+00
 1.7242087578e+00	 2.9933915960e-01	 3.0506574357e+00
 1.7525334110e+00	 1.4860575666e-01	-1.4840550841e+00
 1.7511886139e+00	 1.6369298484e-01	-3.5912025435e-01
 1.7497091377e+00	 1.7881505474e-01	 6.1645377813e-01
 1.7480939144e+00	 1.9397036840e-01	 1.4311560735e+00
 1.7463418972e+00	 2.0915729953e-01	 2.0752710705e+00
 1.7444520615e+00	 2.2437419380e-01	 2.5409511455e+00
 1.7424234055e+00	 2.3961936909e-01	 2.8222858396e+00
 1.7402549511e+00	 2.5489111581e-01	 2.9153674547e+00
 1.7379457445e+00	 2.7018769720e-01	 2.8183527388e+00
 1.7354948573e+00	 2.8550734969e-01	 2.5315204076e+00
 1.7329013869e+00	 3.0084828329e-01	 2.0573242771e+00
 1.7613245288e+00	 1.4935119792e-01	-2.1040951038e+00
 1.7599729859e+00	 1.6451410717e-01	-1.2211392389e+00
 1.7584860883e+00	 1.7971203291e-01	-4.6619052474e-01
 1.7568627626e+00	 1.9494336917e-01	 1.5783985096e-01
 1.7551019569e+00	 2.1020648150e-01	 6.4986177764e-01
 1.7532026413e+00	 2.2549970728e-01	 1.0106690818e+00
 1.7511638091e+00	 2.4082135594e-01	 1.2429985897e+00
 1.7489844772e+00	 2.5616970931e-01	 1.3515850890e+00
 1.7466636871e+00	 2.7154302193e-01	 1.3432119105e+00
 1.7442005057e+00	 2.8693952138e-01	 1.2267568743e+00
 1.7415940259e+00	 3.0235740870e-01	 1.0132333781e+00
 1.7701156665e+00	 1.5009664087e-01	-2.5009501917e+00
 1.7687573777e+00	 1.6533523136e-01	-1.8537888245e+00
 1.7672630587e+00	 1.8060901311e-01	-1.3309610356e+00
 1.7656316307e+00	 1.9591637214e-01	-9.2271563830e-01
 1.7638620365e+00	 2.1125566585e-01	-6.1754438336e-01
 1.7619532410e+00	 2.2662522330e-01	-4.0213595023e-01
 1.7599042326e+00	 2.4202334550e-01	-2.6133425869e-01
 1.7577140231e+00	 2.5744830570e-01	-1.7810139886e-01
 1.7553816495e+00	 2.7289834973e-01	-1.3348545232e-01
 1.7529061738e+00	 2.8837169632e-01	-1.0659344799e-01
 1.7502866845e+00	 3.0386653752e-01	-7.4569664931e-02
 1.7789068341e+00	 1.5084208636e-01	-2.6918910311e+00
 1.7775417995e+00	 1.6615635834e-01	-2.2607655054e+00
 1.7760400590e+00	 1.8150599636e-01	-1.9702902153e+00
 1.7744005286e+00	 1.9688937842e-01	-1.7940539726e+00
 1.7726221458e+00	 2.1230485376e-01	-1.7040414009e+00
 1.7707038704e+00	 2.2775074315e-01	-1.6706108688e+00
 1.7686446857e+00	 2.4322533915e-01	-1.6624773247e+00
 1.7664435988e+00	 2.5872690644e-01	-1.6467003156e+00
 1.7640996415e+00	 2.7425368214e-01	-1.5886774477e+00
 1.7616118716e+00	 2.8980387613e-01	-1.4521435104e+00
 1.7589793727e+00	 3.0537567148e-01	-1.1991754563e+00
 1.7876980416e+00	 1.5158753522e-01	-2.6938195543e+00
 1.7863262610e+00	 1.6697748904e-01	-2.4456625619e+00
 1.7848170991e+00	 1.8240298368e-01	-2.3767282678e+00
 1.7831694663e+00	 1.9786238912e-01	-2.4400116071e+00
 1.7813822948e+00	 2.1335404644e-01	-2.5871442208e+00
 1.7794545395e+00	 2.2887626810e-01	-2.7684033618e+00
 1.7773851785e+00	 2.4442733825e-01	-2.9327263415e+00
 1.7751732139e+00	 2.6000551298e-01	-3.0277307750e+00
 1.7728176731e+00	 2.7560902069e-01	-2.9997408572e+00
 1.7703176088e+00	 2.9123606242e-01	-2.7938198617e+00
 1.7676721003e+00	 3.0688481227e-01	-2.3538090228e+00
 1.6807454153e+00	 2.9179350692e-01	 6.9995836303e+00
 1.6780913235e+00	 3.0668906299e-01	 5.0711320092e+00
 1.6752973142e+00	 3.2160171051e-01	 3.2030858636e+00
 1.6723625910e+00	 3.3652964380e-01	 1.4191029366e+00
 1.6692863858e+00	 3.5147103331e-01	-2.5711144862e-01
 1.6660679591e+00	 3.6642402607e-01	-1.8018484015e+00
 1.6627066012e+00	 3.8138674621e-01	-3.1706239993e+00
 1.6592016323e+00	 3.9635729548e-01	-4.2849651578e+00
 1.6555524039e+00	 4.1133375375e-01	-5.1160928415e+00
 1.6517582986e+00	 4.2631417965e-01	-5.6377049078e+00
 1.6478187318e+00	 4.4129661111e-01	-5.8233091520e+00
 1.6894381429e+00	 2.9330264772e-01	 6.3706263630e+00
 1.6867703243e+00	 3.0827524282e-01	 4.5318467657e+00
 1.6839618645e+00	 3.2326501778e-01	 2.7091399424e+00
 1.6810119631e+00	 3.3827015757e-01	 9.3876062480e-01
 1.6779198479e+00	 3.5328882316e-01	-7.4359416193e-01
 1.6746847757e+00	 3.6831915202e-01	-2.3028586360e+00
 1.6713060330e+00	 3.8335925857e-01	-3.6779545765e+00
 1.6677829366e+00	 3.9840723473e-01	-4.7892731254e+00
 1.6641148345e+00	 4.1346115047e-01	-5.6006369450e+00
 1.6603011064e+00	 4.2851905435e-01	-6.0770831181e+00
 1.6563411643e+00	 4.4357897416e-01	-6.1842460259e+00
 1.6981308311e+00	 2.9481178167e-01	 5.6535715729e+00
 1.6954492858e+00	 3.0986141547e-01	 3.9699593672e+00
 1.6926263755e+00	 3.2492831751e-01	 2.2621530055e+00
 1.6896612960e+00	 3.4001066344e-01	 5.7445345045e-01
 1.6865532709e+00	 3.5510660477e-01	-1.0498987286e+00
 1.6833015532e+00	 3.7021426938e-01	-2.5688187033e+00
 1.6799054258e+00	 3.8533176199e-01	-3.9089852382e+00
 1.6763642020e+00	 4.0045716469e-01	-4.9950626761e+00
 1.6726772264e+00	 4.1558853754e-01	-5.7860904386e+00
 1.6688438754e+00	 4.3072391905e-01	-6.2422645629e+00
 1.6648635582e+00	 4.4586132687e-01	-6.3250189822e+00
 1.7068234898e+00	 2.9632091050e-01	 4.8561758309e+00
 1.7041282177e+00	 3.1144758272e-01	 3.3821445857e+00
 1.7012908571e+00	 3.2659161159e-01	 1.8501176312e+00
 1.6983105994e+00	 3.4175116339e-01	 3.0796566105e-01
 1.6951866645e+00	 3.5692438020e-01	-1.1979019879e+00
 1.6919183014e+00	 3.7210938029e-01	-2.6222656620e+00
 1.6885047894e+00	 3.8730425869e-01	-3.8852890091e+00
 1.6849454382e+00	 4.0250708769e-01	-4.9194945005e+00
 1.6812395891e+00	 4.1771591738e-01	-5.6823556607e+00
 1.6773866154e+00	 4.3292877626e-01	-6.1329796594e+00
 1.6733859231e+00	 4.4814367181e-01	-6.2322067918e+00
 1.7155161287e+00	 2.9783003590e-01	 3.9860491871e+00
 1.7128071300e+00	 3.1303374638e-01	 2.7651484559e+00
 1.7099553191e+00	 3.2825490189e-01	 1.4612659090e+00
 1.7069598833e+00	 3.4349165940e-01	 1.2143827317e-01
 1.7038200385e+00	 3.5874215151e-01	-1.2090591772e+00
 1.7005350301e+00	 3.7400448691e-01	-2.4853067682e+00
 1.6971041335e+00	 3.8927675093e-01	-3.6280413429e+00
 1.6935266550e+00	 4.0455700604e-01	-4.5794234773e+00
 1.6898019324e+00	 4.1984329240e-01	-5.2991782015e+00
 1.6859293360e+00	 4.3513362847e-01	-5.7490097770e+00
 1.6819082687e+00	 4.5042601159e-01	-5.8927068203e+00
 1.7242087578e+00	 2.9933915960e-01	 3.0506574357e+00
 1.7214860324e+00	 3.1461990824e-01	 2.1157847729e+00
 1.7186197712e+00	 3.2991819031e-01	 1.0840613978e+00
 1.7156091573e+00	 3.4523215344e-01	-2.6422411347e-03
 1.7124534028e+00	 3.6055992076e-01	-1.1044172130e+00
 1.7091517490e+00	 3.7589959138e-01	-2.1802898876e+00
 1.7057034678e+00	 3.9124924093e-01	-3.1580305943e+00
 1.7021078620e+00	 4.0660692206e-01	-3.9914067636e+00
 1.6983642661e+00	 4.2197066501e-01	-4.6461511560e+00
 1.6944720469e+00	 4.3733847818e-01	-5.0901861618e+00
 1.6904306047e+00	 4.5270834877e-01	-5.2937270994e+00
 1.7329013869e+00	 3.0084828329e-01	 2.0573242771e+00
 1.7301649348e+00	 3.1620607010e-01	 1.4309316563e+00
 1.7272842233e+00	 3.3158147874e-01	 7.0719128489e-01
 1.7242584314e+00	 3.4697264748e-01	-8.1454972468e-02
 1.7210867670e+00	 3.6237769001e-01	-9.0462762197e-01
 1.7177684679e+00	 3.7779469586e-01	-1.7291570210e+00
 1.7143028022e+00	 3.9322173094e-01	-2.4956681518e+00
 1.7106890691e+00	 4.0865683809e-01	-3.1717116178e+00
 1.7069265997e+00	 4.2409803761e-01	-3.7327192232e+00
 1.7030147579e+00	 4.3954332789e-01	-4.1563888670e+00
 1.6989529406e+00	 4.5499068596e-01	-4.4227786100e+00
 1.7415940259e+00	 3.0235740870e-01	 1.0132333781e+00
 1.7388438471e+00	 3.1779223376e-01	 7.0752817920e-01
 1.7359486853e+00	 3.3324476904e-01	 3.1955873856e-01
 1.7329077153e+00	 3.4871314349e-01	-1.3185530734e-01
 1.7297201411e+00	 3.6419546132e-01	-6.2995913318e-01
 1.7263851966e+00	 3.7968980247e-01	-1.1534499995e+00
 1.7229021463e+00	 3.9519422317e-01	-1.6609982460e+00
 1.7192702858e+00	 4.1070675643e-01	-2.1363229635e+00
 1.7154889430e+00	 4.2622541263e-01	-2.5681826580e+00
 1.7115574785e+00	 4.4174818010e-01	-2.9475456889e+00
 1.7074752862e+00	 4.5727302573e-01	-3.2676677691e+00
 1.7502866845e+00	 3.0386653752e-01	-7.4569664931e-02
 1.7475227790e+00	 3.1937840101e-01	-5.7428941413e-02
 1.7446131668e+00	 3.3490806312e-01	-8.9724553841e-02
 1.7415570187e+00	 3.5045364345e-01	-1.7038538661e-01
 1.7383535347e+00	 3.6601323675e-01	-3.0030994420e-01
 1.7350019448e+00	 3.8158491339e-01	-4.7432085763e-01
 1.7315015099e+00	 3.9716671988e-01	-6.7370744165e-01
 1.7278515220e+00	 4.1275667943e-01	-9.0095070544e-01
 1.7240513058e+00	 4.2835279247e-01	-1.1617010793e+00
 1.7201002185e+00	 4.4395303731e-01	-1.4636311088e+00
 1.7159976511e+00	 4.5955537068e-01	-1.8164891134e+00
 1.7589793727e+00	 3.0537567148e-01	-1.1991754563e+00
 1.7562017405e+00	 3.2096457366e-01	-8.6688859421e-01
 1.7532776779e+00	 3.3657136285e-01	-5.3134566733e-01
 1.7502063516e+00	 3.5219414932e-01	-2.1328429869e-01
 1.7469869577e+00	 3.6783101836e-01	 6.4780327643e-02
 1.7436187224e+00	 3.8348003074e-01	 2.8745812128e-01
 1.7401009027e+00	 3.9913922329e-01	 4.4686617274e-01
 1.7364327874e+00	 4.1480660939e-01	 5.1896319658e-01
 1.7326136976e+00	 4.3048017954e-01	 4.7770285916e-01
 1.7286429875e+00	 4.4615790201e-01	 2.9533476038e-01
 1.7245200450e+00	 4.6183772338e-01	-5.7618173671e-02
 1.7676721003e+00	 3.0688481227e-01	-2.3538090228e+00
 1.7648807413e+00	 3.2255075349e-01	-1.7237484655e+00
 1.7619422282e+00	 3.3823467012e-01	-1.0157975475e+00
 1.7588557237e+00	 3.5393466308e-01	-2.7649801699e-01
 1.7556204198e+00	 3.6964880820e-01	 4.4611899782e-01
 1.7522355389e+00	 3.8537515669e-01	 1.1114846763e+00
 1.7487003345e+00	 4.0111173565e-01	 1.6817240889e+00
 1.7450140917e+00	 4.1685654864e-01	 2.1082378848e+00
 1.7411761283e+00	 4.3260757626e-01	 2.3411399310e+00
 1.7371857953e+00	 4.4836277670e-01	 2.3292872214e+00
 1.7330424775e+00	 4.6412008643e-01	 2.0202954687e+00
 1.6478187318e+00	 4.4129661111e-01	-5.8233091520e+00
 1.6437331520e+00	 4.5627906618e-01	-5.7698825568e+00
 1.6395010426e+00	 4.7125954432e-01	-5.6050816854e+00
 1.6351219218e+00	 4.8623602649e-01	-5.3485144318e+00
 1.6305953427e+00	 5.0120647558e-01	-5.0200258152e+00
 1.6259208937e+00	 5.1616883713e-01	-4.6396525583e+00
 1.6210981995e+00	 5.3112104005e-01	-4.2275717302e+00
 1.6161269212e+00	 5.4606099739e-01	-3.8040432365e+00
 1.6110067574e+00	 5.6098660704e-01	-3.3893459755e+00
 1.6057374444e+00	 5.7589575259e-01	-3.0037075155e+00
 1.6003187566e+00	 5.9078630409e-01	-2.6672271914e+00
 1.6563411643e+00	 4.4357897416e-01	-6.1842460259e+00
 1.6522344541e+00	 4.5863891770e-01	-6.0086708883e+00
 1.6479804565e+00	 4.7369687410e-01	-5.6821328567e+00
 1.6435786871e+00	 4.8875081386e-01	-5.2382190188e+00
 1.6390286967e+00	 5.0379868933e-01	-4.7099549538e+00
 1.6343300717e+00	 5.1883843543e-01	-4.1297282656e+00
 1.6294824348e+00	 5.3386797037e-01	-3.5292065045e+00
 1.6244854453e+00	 5.4888519638e-01	-2.9392493074e+00
 1.6193388003e+00	 5.6388800051e-01	-2.3898146234e+00
 1.6140422347e+00	 5.7887425538e-01	-1.9098589332e+00
 1.6085955217e+00	 5.9384182003e-01	-1.5272314078e+00
 1.6648635582e+00	 4.4586132687e-01	-6.3250189822e+00
 1.6607357177e+00	 4.6099875853e-01	-6.1002036706e+00
 1.6564598319e+00	 4.7613419283e-01	-5.6882708322e+00
 1.6520354140e+00	 4.9126558982e-01	-5.1326849169e+00
 1.6474620126e+00	 5.0639089132e-01	-4.4756990449e+00
 1.6427392117e+00	 5.2150802163e-01	-3.7582552181e+00
 1.6378666321e+00	 5.3661488823e-01	-3.0198791693e+00
 1.6328439316e+00	 5.5170938257e-01	-2.2985697118e+00
 1.6276708055e+00	 5.6678938082e-01	-1.6306824941e+00
 1.6223469873e+00	 5.8185274467e-01	-1.0508081006e+00
 1.6168722493e+00	 5.9689732213e-01	-5.9164448676e-01
 1.6733859231e+00	 4.4814367181e-01	-6.2322067918e+00
 1.6692369523e+00	 4.6335859134e-01	-6.0177981840e+00
 1.6649391785e+00	 4.7857150328e-01	-5.5863992324e+00
 1.6604921122e+00	 4.9378035724e-01	-4.9873155124e+00
 1.6558952997e+00	 5.0898308450e-01	-4.2681388397e+00
 1.6511483230e+00	 5.2417759875e-01	-3.4746318165e+00
 1.6462508009e+00	 5.3936179675e-01	-2.6506071893e+00
 1.6412023894e+00	 5.5453355916e-01	-1.8378019032e+00
 1.6360027823e+00	 5.6969075127e-01	-1.0757457763e+00
 1.6306517117e+00	 5.8483122383e-01	-4.0162476035e-01
 1.6251489488e+00	 5.9995281383e-01	 1.4986120184e-01
 1.6819082687e+00	 4.5042601159e-01	-5.8927068203e+00
 1.6777381677e+00	 4.6571841880e-01	-5.7353596954e+00
 1.6734185059e+00	 4.8100880820e-01	-5.3402208661e+00
 1.6689487913e+00	 4.9629511895e-01	-4.7584650811e+00
 1.6643285677e+00	 5.1157527181e-01	-4.0391968979e+00
 1.6595574153e+00	 5.2684716982e-01	-3.2293271558e+00
 1.6546349507e+00	 5.4210869904e-01	-2.3734443591e+00
 1.6495608283e+00	 5.5735772935e-01	-1.5136808652e+00
 1.6443347402e+00	 5.7259211515e-01	-6.8957380704e-01
 1.6389564173e+00	 5.8780969624e-01	 6.2079273744e-02
 1.6334256295e+00	 6.0300829862e-01	 7.0737006320e-01
 1.6904306047e+00	 4.5270834877e-01	-5.2937270994e+00
 1.6862393735e+00	 4.6807824359e-01	-5.2273666191e+00
 1.6818978236e+00	 4.8344611036e-01	-4.9142174374e+00
 1.6774054607e+00	 4.9880987782e-01	-4.4034145289e+00
 1.6727618262e+00	 5.1416745618e-01	-3.7418108834e+00
 1.6679664980e+00	 5.2951673787e-01	-2.9738534305e+00
 1.6630190910e+00	 5.4485559823e-01	-2.1414539030e+00
 1.6579192577e+00	 5.6018189633e-01	-1.2838545233e+00
 1.6526666887e+00	 5.7549347574e-01	-4.3748843996e-01
 1.6472611135e+00	 5.9078816528e-01	 3.6416511719e-01
 1.6417023008e+00	 6.0606377994e-01	 1.0907309448e+00
 1.6989529406e+00	 4.5499068596e-01	-4.4227786100e+00
 1.6947405793e+00	 4.7043806837e-01	-4.4688560974e+00
 1.6903771414e+00	 4.8588341251e-01	-4.2736298326e+00
 1.6858621302e+00	 5.0132463668e-01	-3.8803478309e+00
 1.6811950847e+00	 5.1675964055e-01	-3.3299076304e+00
 1.6763755808e+00	 5.3218630591e-01	-2.6607391349e+00
 1.6714032313e+00	 5.4760249741e-01	-1.9086823462e+00
 1.6662776871e+00	 5.6300606332e-01	-1.1068598539e+00
 1.6609986372e+00	 5.7839483632e-01	-2.8554398793e-01
 1.6555658097e+00	 5.9376663432e-01	 5.2798141486e-01
 1.6499789722e+00	 6.0911926126e-01	 1.3095646284e+00
 1.7074752862e+00	 4.5727302573e-01	-3.2676677691e+00
 1.7032417947e+00	 4.7279789583e-01	-3.4354099841e+00
 1.6988564688e+00	 4.8832071743e-01	-3.3844389701e+00
 1.6943188092e+00	 5.0383939840e-01	-3.1483291448e+00
 1.6896283527e+00	 5.1935182786e-01	-2.7583779532e+00
 1.6847846730e+00	 5.3485587698e-01	-2.2435030295e+00
 1.6797873811e+00	 5.5034939971e-01	-1.6301341298e+00
 1.6746361260e+00	 5.6583023351e-01	-9.4209966675e-01
 1.6693305951e+00	 5.8129620020e-01	-2.0050772029e-01
 1.6638705153e+00	 5.9674510673e-01	 5.7637855435e-01
 1.6582556529e+00	 6.1217474604e-01	 1.3732711538e+00
 1.7159976511e+00	 4.5955537068e-01	-1.8164891134e+00
 1.7117430294e+00	 4.7515772864e-01	-2.1031412178e+00
 1.7073358154e+00	 4.9075802788e-01	-2.2133471896e+00
 1.7027755074e+00	 5.0635416581e-01	-2.1672805763e+00
 1.6980616399e+00	 5.2194402104e-01	-1.9830521732e+00
 1.6931937844e+00	 5.3752545410e-01	-1.6766288483e+00
 1.6881715499e+00	 5.5309630823e-01	-1.2617469433e+00
 1.6829945838e+00	 5.6865441010e-01	-7.4982003640e-01
 1.6776625720e+00	 5.8419757065e-01	-1.4984089500e-01
 1.6721752397e+00	 5.9972358590e-01	 5.3172250646e-01
 1.6665323523e+00	 6.1523023775e-01	 1.2910369789e+00
 1.7245200450e+00	 4.6183772338e-01	-5.7618173671e-02
 1.7202442929e+00	 4.7751756946e-01	-4.4868057195e-01
 1.7158151908e+00	 4.9319534661e-01	-7.2776016551e-01
 1.7112322343e+00	 5.0886894177e-01	-8.9796057132e-01
 1.7064949557e+00	 5.2453622303e-01	-9.6067633848e-01
 1.7016029243e+00	 5.4019504030e-01	-9.1554071923e-01
 1.6965557473e+00	 5.5584322609e-01	-7.6036774895e-01
 1.6913530700e+00	 5.7147859629e-01	-4.9108836119e-01
 1.6859945771e+00	 5.8709895097e-01	-1.0168030691e-01
 1.6804799924e+00	 6.0270207519e-01	 4.1590830565e-01
 1.6748090800e+00	 6.1828573985e-01	 1.0718419832e+00
 1.7330424775e+00	 4.6412008643e-01	 2.0202954687e+00
 1.7287455951e+00	 4.7987742099e-01	 1.5508362327e+00
 1.7242946047e+00	 4.9563267639e-01	 1.1042306763e+00
 1.7196889996e+00	 5.1138372914e-01	 6.9805708419e-01
 1.7149283098e+00	 5.2712843678e-01	 3.5111088843e-01
 1.7100121024e+00	 5.4286463860e-01	 8.3420725436e-02
 1.7049399826e+00	 5.5859015640e-01	-8.3729475594e-02
 1.6997115942e+00	 5.7430279528e-01	-1.2777202671e-01
 1.6943266200e+00	 5.9000034444e-01	-2.4820334412e-02
 1.6887847827e+00	 6.0568057798e-01	 2.5037318329e-01
 1.6830858451e+00	 6.2134125579e-01	 7.2446631924e-01
 1.6003187566e+00	 5.9078630409e-01	-2.6672271914e+00
 1.5947495478e+00	 6.0565864489e-01	-2.2888447967e+00
 1.5890305782e+00	 6.2050808558e-01	-1.7903397588e+00
 1.5831617391e+00	 6.3533245882e-01	-1.2104806213e+00
 1.5771429619e+00	 6.5012958706e-01	-5.8754853794e-01
 1.5709742187e+00	 6.6489728352e-01	 4.0796009792e-02
 1.5646555226e+00	 6.7963335308e-01	 6.3765299304e-01
 1.5581869283e+00	 6.9433559319e-01	 1.1670288341e+00
 1.5515685321e+00	 7.0900179485e-01	 1.5939882869e+00
 1.5448004724e+00	 7.2362974352e-01	 1.8848118068e+00
 1.5378829301e+00	 7.3821722017e-01	 2.0071579579e+00
 1.6085955217e+00	 5.9384182003e-01	-1.5272314078e+00
 1.6029975093e+00	 6.0879107980e-01	-1.1604023605e+00
 1.5972489615e+00	 6.2371732103e-01	-7.2854299822e-01
 1.5913497690e+00	 6.3861836515e-01	-2.5969106531e-01
 1.5852998630e+00	 6.5349202336e-01	 2.1793440463e-01
 1.5790992154e+00	 6.6833609758e-01	 6.7604611542e-01
 1.5727478394e+00	 6.8314838133e-01	 1.0864089357e+00
 1.5662457898e+00	 6.9792666066e-01	 1.4209674893e+00
 1.5595931636e+00	 7.1266871514e-01	 1.6519806105e+00
 1.5527900999e+00	 7.2737231881e-01	 1.7521623089e+00
 1.5458367804e+00	 7.4203524112e-01	 1.6947405485e+00
 1.6168722493e+00	 5.9689732213e-01	-5.9164448676e-01
 1.6112454334e+00	 6.1192350052e-01	-1.9129050091e-01
 1.6054673075e+00	 6.2692654193e-01	 2.2065390297e-01
 1.5995377618e+00	 6.4190425659e-01	 6.2533915324e-01
 1.5934567272e+00	 6.5685444443e-01	 1.0031913279e+00
 1.5872241753e+00	 6.7177489606e-01	 1.3340084652e+00
 1.5808401194e+00	 6.8666339364e-01	 1.5970650617e+00
 1.5743046148e+00	 7.0151771185e-01	 1.7712245526e+00
 1.5676177588e+00	 7.1633561882e-01	 1.8350595107e+00
 1.5607796911e+00	 7.3111487713e-01	 1.7669792340e+00
 1.5537905946e+00	 7.4585324477e-01	 1.5441283984e+00
 1.6251489488e+00	 5.9995281383e-01	 1.4986120184e-01
 1.6194933294e+00	 6.1505591059e-01	 6.1356169620e-01
 1.6136856256e+00	 6.3013575192e-01	 1.0391427175e+00
 1.6077257268e+00	 6.4519013686e-01	 1.4154230784e+00
 1.6016135636e+00	 6.6021685407e-01	 1.7300784137e+00
 1.5953491075e+00	 6.7521368285e-01	 1.9697242843e+00
 1.5889323720e+00	 6.9017839401e-01	 2.1200081392e+00
 1.5823634124e+00	 7.0510875083e-01	 2.1657099578e+00
 1.5756423266e+00	 7.2000251003e-01	 2.0908513321e+00
 1.5687692552e+00	 7.3485742272e-01	 1.8788126811e+00
 1.5617443818e+00	 7.4967123543e-01	 1.5089933698e+00
 1.6334256295e+00	 6.0300829862e-01	 7.0737006320e-01
 1.6277412067e+00	 6.1818831355e-01	 1.2492942960e+00
 1.6219039250e+00	 6.3334495464e-01	 1.7091549005e+00
 1.6159136732e+00	 6.4847600968e-01	 2.0819416545e+00
 1.6097703815e+00	 6.6357925609e-01	 2.3612052058e+00
 1.6034740214e+00	 6.7865246184e-01	 2.5391304476e+00
 1.5970246062e+00	 6.9369338641e-01	 2.6066193100e+00
 1.5904221917e+00	 7.0869978167e-01	 2.5533828074e+00
 1.5836668763e+00	 7.2366939293e-01	 2.3680421189e+00
 1.5767588012e+00	 7.3859995984e-01	 2.0382384081e+00
 1.5696981510e+00	 7.5348921745e-01	 1.5443103732e+00
 1.6417023008e+00	 6.0606377994e-01	 1.0907309448e+00
 1.6359890748e+00	 6.2132071297e-01	 1.7111165138e+00
 1.6301222151e+00	 6.3655415373e-01	 2.2132549815e+00
 1.6241016104e+00	 6.5176187878e-01	 2.5968315856e+00
 1.6179271902e+00	 6.6694165429e-01	 2.8599180209e+00
 1.6115989260e+00	 6.8209123694e-01	 2.9990395374e+00
 1.6051168312e+00	 6.9720837482e-01	 3.0092518973e+00
 1.5984809619e+00	 7.1229080845e-01	 2.8842280446e+00
 1.5916914169e+00	 7.2733627167e-01	 2.6163542722e+00
 1.5847483381e+00	 7.4234249271e-01	 2.1967329679e+00
 1.5776519112e+00	 7.5730719513e-01	 1.6060030032e+00
 1.6499789722e+00	 6.0911926126e-01	 1.3095646284e+00
 1.6442369428e+00	 6.2445311239e-01	 1.9943067745e+00
 1.6383405052e+00	 6.3976335281e-01	 2.5343342225e+00
 1.6322895475e+00	 6.5504774788e-01	 2.9325736315e+00
 1.6260839989e+00	 6.7030405250e-01	 3.1902839349e+00
 1.6197238306e+00	 6.8553001204e-01	 3.3071205809e+00
 1.6132090563e+00	 7.0072336324e-01	 3.2812099658e+00
 1.6065397321e+00	 7.1588183522e-01	 3.1092339148e+00
 1.5997159574e+00	 7.3100315041e-01	 2.7865240010e+00
 1.5927378750e+00	 7.4608502559e-01	 2.3061655568e+00
 1.5856056713e+00	 7.6112517282e-01	 1.6509203105e+00
 1.6582556529e+00	 6.1217474604e-01	 1.3732711538e+00
 1.6524848201e+00	 6.2758551536e-01	 2.0942128320e+00
 1.6465588047e+00	 6.4297255553e-01	 2.6556045303e+00
 1.6404774939e+00	 6.5833362070e-01	 3.0621813240e+00
 1.6342408168e+00	 6.7366645452e-01	 3.3170753220e+00
 1.6278487445e+00	 6.8896879103e-01	 3.4218804432e+00
 1.6213012905e+00	 7.0423835564e-01	 3.3767276068e+00
 1.6145985114e+00	 7.1947286606e-01	 3.1803701905e+00
 1.6077405071e+00	 7.3467003331e-01	 2.8302795400e+00
 1.6007274210e+00	 7.4982756270e-01	 2.3202006718e+00
 1.5935594405e+00	 7.6494315484e-01	 1.6368142507e+00
 1.6665323523e+00	 6.1523023775e-01	 1.2910369789e+00
 1.6607327161e+00	 6.3071792543e-01	 2.0062519440e+00
 1.6547771228e+00	 6.4618176552e-01	 2.5605926153e+00
 1.6486654589e+00	 6.6161950097e-01	 2.9591900888e+00
 1.6423976532e+00	 6.7702886416e-01	 3.2057549305e+00
 1.6359736767e+00	 6.9240757782e-01	 3.3026458539e+00
 1.6293935430e+00	 7.0775335601e-01	 3.2509489238e+00
 1.6226573090e+00	 7.2306390505e-01	 3.0505671310e+00
 1.6157650750e+00	 7.3833692452e-01	 2.7003201074e+00
 1.6087169851e+00	 7.5357010830e-01	 2.1936468778e+00
 1.6015132277e+00	 7.6876114550e-01	 1.5223177864e+00
 1.6748090800e+00	 6.1828573985e-01	 1.0718419832e+00
 1.6689806402e+00	 6.3385034615e-01	 1.7259111022e+00
 1.6629954688e+00	 6.4939098642e-01	 2.2331343889e+00
 1.6568534517e+00	 6.6490539241e-01	 2.5976467600e+00
 1.6505545174e+00	 6.8039128522e-01	 2.8224614733e+00
 1.6440986366e+00	 6.9584637630e-01	 2.9095460442e+00
 1.6374858231e+00	 7.1126836832e-01	 2.8599086936e+00
 1.6307161340e+00	 7.2665495624e-01	 2.6736951525e+00
 1.6237896701e+00	 7.4200382820e-01	 2.3502515676e+00
 1.6167065763e+00	 7.5731266662e-01	 1.8822467972e+00
 1.6094670419e+00	 7.7257914915e-01	 1.2669236181e+00
 1.6830858451e+00	 6.2134125579e-01	 7.2446631924e-01
 1.6772286017e+00	 6.3698278107e-01	 1.2487473160e+00
 1.6712138520e+00	 6.5260022188e-01	 1.6573695905e+00
 1.6650414817e+00	 6.6819129874e-01	 1.9520994728e+00
 1.6587114185e+00	 6.8375372154e-01	 2.1339957183e+00
 1.6522236333e+00	 6.9928519036e-01	 2.2034959752e+00
 1.6455781398e+00	 7.1478339657e-01	 2.1605136802e+00
 1.6387749955e+00	 7.3024602370e-01	 2.0045451849e+00
 1.6318143016e+00	 7.4567074850e-01	 1.7342415463e+00
 1.6246962038e+00	 7.6105524190e-01	 1.3426546673e+00
 1.6174208922e+00	 7.7639717010e-01	 8.3096352444e-01
 1.5378829301e+00	 7.3821722017e-01	 2.0071579579e+00
 1.5308173424e+00	 7.5275953348e-01	 1.9014323436e+00
 1.5236028115e+00	 7.6725694188e-01	 1.5668685292e+00
 1.5162396457e+00	 7.8170721905e-01	 1.0705674000e+00
 1.5087281967e+00	 7.9610813808e-01	 4.8023985789e-01
 1.5010688597e+00	 8.1045747260e-01	-1.3622433876e-01
 1.4932620732e+00	 8.2475299774e-01	-7.1086076162e-01
 1.4853083198e+00	 8.3899249124e-01	-1.1757377971e+00
 1.4772081256e+00	 8.5317373444e-01	-1.4569092414e+00
 1.4689620607e+00	 8.6729451342e-01	-1.4534415105e+00
 1.4605707390e+00	 8.8135262000e-01	-1.0935650672e+00
 1.5458367804e+00	 7.4203524112e-01	 1.6947405485e+00
 1.5387346498e+00	 7.5665276651e-01	 1.4178741548e+00
 1.5314828057e+00	 7.7122515476e-01	 9.2704289816e-01
 1.5240815581e+00	 7.8575016800e-01	 2.9198925958e-01
 1.5165312603e+00	 8.0022556784e-01	-4.1727987663e-01
 1.5088323095e+00	 8.1464911637e-01	-1.1305988207e+00
 1.5009851467e+00	 8.2901857722e-01	-1.7777522721e+00
 1.4929902569e+00	 8.4333171663e-01	-2.2885879398e+00
 1.4848481689e+00	 8.5758630449e-01	-2.5931323898e+00
 1.4765594558e+00	 8.7178011540e-01	-2.6137213364e+00
 1.4681247347e+00	 8.8591092977e-01	-2.2475690445e+00
 1.5537905946e+00	 7.4585324477e-01	 1.5441283984e+00
 1.5466519214e+00	 7.6054598190e-01	 1.1097073124e+00
 1.5393627643e+00	 7.7519334965e-01	 4.7832983722e-01
 1.5319234349e+00	 7.8979309863e-01	-2.7950935868e-01
 1.5243342884e+00	 8.0434297893e-01	-1.0930710092e+00
 1.5165957242e+00	 8.1884074113e-01	-1.8914795199e+00
 1.5087081853e+00	 8.3328413736e-01	-2.6038349423e+00
 1.5006721592e+00	 8.4767092236e-01	-3.1593284748e+00
 1.4924881777e+00	 8.6199885453e-01	-3.4873612885e+00
 1.4841568165e+00	 8.7626569704e-01	-3.5176664485e+00
 1.4756786961e+00	 8.9046921888e-01	-3.1696421821e+00
 1.5617443818e+00	 7.4967123543e-01	 1.5089933698e+00
 1.5545691660e+00	 7.6443918406e-01	 9.3627850489e-01
 1.5472426960e+00	 7.7916153105e-01	 1.8545401026e-01
 1.5397652850e+00	 7.9383601552e-01	-6.7376662615e-01
 1.5321372901e+00	 8.0846037603e-01	-1.5714496528e+00
 1.5243591124e+00	 8.2303235165e-01	-2.4375498134e+00
 1.5164311976e+00	 8.3754968300e-01	-3.2020228906e+00
 1.5083540355e+00	 8.5201011333e-01	-3.7949418554e+00
 1.5001281604e+00	 8.6641138957e-01	-4.1466164157e+00
 1.4917541514e+00	 8.8075126344e-01	-4.1877157327e+00
 1.4832326318e+00	 8.9502749249e-01	-3.8493940471e+00
 1.5696981510e+00	 7.5348921745e-01	 1.5443103732e+00
 1.5624863927e+00	 7.6833237739e-01	 8.5780012006e-01
 1.5551226099e+00	 7.8312970346e-01	 1.3898082255e-02
 1.5476071174e+00	 7.9787892324e-01	-9.1997170445e-01
 1.5399402740e+00	 8.1257776380e-01	-1.8761937049e+00
 1.5321224831e+00	 8.2722395267e-01	-2.7870679697e+00
 1.5241541924e+00	 8.4181521898e-01	-3.5849210586e+00
 1.5160358943e+00	 8.5634929447e-01	-4.2022206245e+00
 1.5077681259e+00	 8.7082391461e-01	-4.5716934513e+00
 1.4993514691e+00	 8.8523681966e-01	-4.6264467138e+00
 1.4907865505e+00	 8.9958575577e-01	-4.3000922015e+00
 1.5776519112e+00	 7.5730719513e-01	 1.6060030032e+00
 1.5704036104e+00	 7.7222556631e-01	 8.3532897014e-01
 1.5630025149e+00	 7.8709787137e-01	-7.0115884613e-02
 1.5554489409e+00	 8.0192182639e-01	-1.0466806481e+00
 1.5477432491e+00	 8.1669514690e-01	-2.0305560051e+00
 1.5398858449e+00	 8.3141554894e-01	-2.9578775050e+00
 1.5318771784e+00	 8.4608075012e-01	-3.7648326952e+00
 1.5237177443e+00	 8.6068847069e-01	-4.3877719444e+00
 1.5154080827e+00	 8.7523643465e-01	-4.7633227564e+00
 1.5069487781e+00	 8.8972237081e-01	-4.8285073420e+00
 1.4983404605e+00	 9.0414401388e-01	-4.5208631964e+00
 1.5856056713e+00	 7.6112517282e-01	 1.6509203105e+00
 1.5783208281e+00	 7.7611875523e-01	 8.3074563646e-01
 1.5708824199e+00	 7.9106603928e-01	-9.9644497573e-02
 1.5632907644e+00	 8.0596472953e-01	-1.0818318531e+00
 1.5555462242e+00	 8.2081253000e-01	-2.0572771234e+00
 1.5476492068e+00	 8.3560714521e-01	-2.9674172568e+00
 1.5396001644e+00	 8.5034628126e-01	-3.7537666472e+00
 1.5313995944e+00	 8.6502764692e-01	-4.3580220231e+00
 1.5230480395e+00	 8.7964895470e-01	-4.7221708411e+00
 1.5145460872e+00	 8.9420792196e-01	-4.7886029605e+00
 1.5058943706e+00	 9.0870227200e-01	-4.5002253479e+00
 1.5935594405e+00	 7.6494315484e-01	 1.6368142507e+00
 1.5862380548e+00	 7.8001194856e-01	 8.0673441160e-01
 1.5787623338e+00	 7.9503421169e-01	-1.0704058172e-01
 1.5711325967e+00	 8.1000763725e-01	-1.0527610676e+00
 1.5633492082e+00	 8.2492991776e-01	-1.9785977927e+00
 1.5554125775e+00	 8.3979874622e-01	-2.8327311835e+00
 1.5473231592e+00	 8.5461181723e-01	-3.5634444610e+00
 1.5390814532e+00	 8.6936682806e-01	-4.1192204392e+00
 1.5306880049e+00	 8.8406147974e-01	-4.4488418232e+00
 1.5221434049e+00	 8.9869347818e-01	-4.5014947933e+00
 1.5134482892e+00	 9.1326053528e-01	-4.2268756334e+00
 1.6015132277e+00	 7.6876114550e-01	 1.5223177864e+00
 1.5941552995e+00	 7.8390515072e-01	 7.2676381833e-01
 1.5866422655e+00	 7.9900239309e-01	-1.2397022830e-01
 1.5789744469e+00	 8.1405055414e-01	-9.8621597998e-01
 1.5711522098e+00	 8.2904731486e-01	-1.8162709962e+00
 1.5631759657e+00	 8.4399035674e-01	-2.5704779004e+00
 1.5550461715e+00	 8.5887736287e-01	-3.2053073031e+00
 1.5467633295e+00	 8.7370601903e-01	-3.6774443717e+00
 1.5383279877e+00	 8.8847401478e-01	-3.9438788769e+00
 1.5297407397e+00	 9.0317904458e-01	-3.9619985138e+00
 1.5210022250e+00	 9.1781880889e-01	-3.6896852680e+00
 1.6094670419e+00	 7.7257914915e-01	 1.2669236181e+00
 1.6020725710e+00	 7.8779836611e-01	 5.5506768502e-01
 1.5945222240e+00	 8.0297058798e-01	-1.8142936036e-01
 1.5868163237e+00	 8.1809348477e-01	-9.0837039846e-01
 1.5789552380e+00	 8.3316472596e-01	-1.5915737236e+00
 1.5709393804e+00	 8.4818198151e-01	-2.1969399622e+00
 1.5627692100e+00	 8.6314292302e-01	-2.6905227058e+00
 1.5544452318e+00	 8.7804522476e-01	-3.0386027347e+00
 1.5459679964e+00	 8.9288656483e-01	-3.2077656730e+00
 1.5373381004e+00	 9.0766462623e-01	-3.1649828922e+00
 1.5285561864e+00	 9.2237709800e-01	-2.8776954496e+00
 1.6174208922e+00	 7.7639717010e-01	 8.3096352444e-01
 1.6099898785e+00	 7.9169159915e-01	 2.5662675843e-01
 1.6024022183e+00	 8.0693880086e-01	-3.0975983238e-01
 1.5946582360e+00	 8.2213643373e-01	-8.4483803768e-01
 1.5867583015e+00	 8.3728215572e-01	-1.3253184068e+00
 1.5787028302e+00	 8.5237362528e-01	-1.7280328979e+00
 1.5704922835e+00	 8.6740850250e-01	-2.0299911435e+00
 1.5621271689e+00	 8.8238445016e-01	-2.2084402234e+00
 1.5536080398e+00	 8.9729913487e-01	-2.2409278097e+00
 1.5449354956e+00	 9.1215022821e-01	-2.1053685176e+00
 1.5361101821e+00	 9.2693540778e-01	-1.7801132668e+00
 1.4605707390e+00	 8.8135262000e-01	-1.0935650672e+00
 1.4520348186e+00	 8.9534585312e-01	-5.0902826280e-01
 1.4433550027e+00	 9.0927202075e-01	 1.0515293752e-01
 1.4345320388e+00	 9.2312894020e-01	 7.1905817980e-01
 1.4255667177e+00	 9.3691443887e-01	 1.3017994629e+00
 1.4164598738e+00	 9.5062635536e-01	 1.8215742757e+00
 1.4072123847e+00	 9.6426254050e-01	 2.2457243441e+00
 1.3978251711e+00	 9.7782085850e-01	 2.5407997977e+00
 1.3882991966e+00	 9.9129918793e-01	 2.6726285351e+00
 1.3786354671e+00	 1.0046954228e+00	 2.6063905388e+00
 1.3688350311e+00	 1.0180074738e+00	 2.3066968599e+00
 1.4681247347e+00	 8.8591092977e-01	-2.2475690445e+00
 1.4595446669e+00	 8.9997653516e-01	-1.6152453956e+00
 1.4508199595e+00	 9.1397472821e-01	-9.1237729111e-01
 1.4419513637e+00	 9.2790331492e-01	-1.7830514655e-01
 1.4329396744e+00	 9.4176011147e-01	 5.4706335763e-01
 1.4237857304e+00	 9.5554294527e-01	 1.2233232778e+00
 1.4144904137e+00	 9.6924965605e-01	 1.8096476812e+00
 1.4050546500e+00	 9.8287809696e-01	 2.2648679667e+00
 1.3954794076e+00	 9.9642613561e-01	 2.5475589750e+00
 1.3857656978e+00	 1.0098916552e+00	 2.6161286030e+00
 1.3759145745e+00	 1.0232725554e+00	 2.4289116089e+00
 1.4756786961e+00	 8.9046921888e-01	-3.1696421821e+00
 1.4670544812e+00	 9.0460719621e-01	-2.5245335434e+00
 1.4582848825e+00	 9.1867741434e-01	-1.7714338386e+00
 1.4493706549e+00	 9.3267766800e-01	-9.5698253060e-01
 1.4403125977e+00	 9.4660576211e-01	-1.2806623849e-01
 1.4311115537e+00	 9.6045951290e-01	 6.6826480772e-01
 1.4217684098e+00	 9.7423674900e-01	 1.3848853406e+00
 1.4122840961e+00	 9.8793531250e-01	 1.9746884015e+00
 1.4026595860e+00	 1.0015530601e+00	 2.3906831731e+00
 1.3928958962e+00	 1.0150878639e+00	 2.5860969820e+00
 1.3829940857e+00	 1.0285376131e+00	 2.5144811272e+00
 1.4832326318e+00	 8.9502749249e-01	-3.8493940471e+00
 1.4745642700e+00	 9.0923784152e-01	-3.2195019754e+00
 1.4657497800e+00	 9.2338008449e-01	-2.4498122088e+00
 1.4567899209e+00	 9.3745200484e-01	-1.5912064415e+00
 1.4476854959e+00	 9.5145139626e-01	-6.9554075084e-01
 1.4384373522e+00	 9.6537606381e-01	 1.8541607312e-01
 1.4290463811e+00	 9.7922382499e-01	 1.0000812028e+00
 1.4195135176e+00	 9.9299251085e-01	 1.6971610460e+00
 1.4098397401e+00	 1.0066799671e+00	 2.2257588061e+00
 1.4000260704e+00	 1.0202840550e+00	 2.5354859885e+00
 1.3900735730e+00	 1.0338026528e+00	 2.5765774845e+00
 1.4907865505e+00	 8.9958575577e-01	-4.3000922015e+00
 1.4820740417e+00	 9.1386847633e-01	-3.6832483823e+00
 1.4732146607e+00	 9.2808274398e-01	-2.9257869938e+00
 1.4642091701e+00	 9.4222633087e-01	-2.0557591625e+00
 1.4550583774e+00	 9.5629701944e-01	-1.1279060179e+00
 1.4457631341e+00	 9.7029260358e-01	-1.9681800674e-01
 1.4363243359e+00	 9.8421088968e-01	 6.8327628776e-01
 1.4267429227e+00	 9.9804969774e-01	 1.4586202751e+00
 1.4170198779e+00	 1.0118068625e+00	 2.0760436787e+00
 1.4071562284e+00	 1.0254802343e+00	 2.4830806894e+00
 1.3971530441e+00	 1.0390676807e+00	 2.6280915618e+00
 1.4983404605e+00	 9.0414401388e-01	-4.5208631964e+00
 1.4895838049e+00	 9.1849910590e-01	-3.9187257698e+00
 1.4806795329e+00	 9.3278539815e-01	-3.1780993125e+00
 1.4716284109e+00	 9.4700065148e-01	-2.3259583759e+00
 1.4624312505e+00	 9.6114263713e-01	-1.3982866790e+00
 1.4530889076e+00	 9.7520913778e-01	-4.5062866362e-01
 1.4436022825e+00	 9.8919794872e-01	 4.6192472942e-01
 1.4339723197e+00	 1.0031068789e+00	 1.2848500040e+00
 1.4242000076e+00	 1.0169337520e+00	 1.9643092519e+00
 1.4142863783e+00	 1.0306764078e+00	 2.4472721221e+00
 1.4042325073e+00	 1.0443327026e+00	 2.6816412141e+00
 1.5058943706e+00	 9.0870227200e-01	-4.5002253479e+00
 1.4970935682e+00	 9.2312973546e-01	-3.9235208640e+00
 1.4881444050e+00	 9.3748805231e-01	-3.1988157461e+00
 1.4790476517e+00	 9.5177497210e-01	-2.3776431609e+00
 1.4698041237e+00	 9.6598825482e-01	-1.4803710101e+00
 1.4604146812e+00	 9.8012567198e-01	-5.4878760669e-01
 1.4508802291e+00	 9.9418500776e-01	 3.6290929237e-01
 1.4412017166e+00	 1.0081640601e+00	 1.2010983676e+00
 1.4313801372e+00	 1.0220606416e+00	 1.9128537897e+00
 1.4214165282e+00	 1.0358725812e+00	 2.4460682016e+00
 1.4113119704e+00	 1.0495977244e+00	 2.7495792163e+00
 1.5134482892e+00	 9.1326053528e-01	-4.2268756334e+00
 1.5046033399e+00	 9.2776037028e-01	-3.6807016321e+00
 1.4956092857e+00	 9.4219071180e-01	-2.9862300143e+00
 1.4864669009e+00	 9.5654929812e-01	-2.1939996983e+00
 1.4771770052e+00	 9.7083387800e-01	-1.3483961932e+00
 1.4677404630e+00	 9.8504221176e-01	-4.6463179613e-01
 1.4581581839e+00	 9.9917207245e-01	 4.1255644718e-01
 1.4484311217e+00	 1.0132212469e+00	 1.2320919837e+00
 1.4385602750e+00	 1.0271875370e+00	 1.9435151379e+00
 1.4285466862e+00	 1.0410687605e+00	 2.4971043272e+00
 1.4183914416e+00	 1.0548627523e+00	 2.8440009998e+00
 1.5210022250e+00	 9.1781880889e-01	-3.6896852680e+00
 1.5121131287e+00	 9.3239101559e-01	-3.1736214067e+00
 1.5030741833e+00	 9.4689338195e-01	-2.5194743323e+00
 1.4938861669e+00	 9.6132363497e-01	-1.7731916253e+00
 1.4845499034e+00	 9.7567951216e-01	-9.7957206079e-01
 1.4750662615e+00	 9.8995876267e-01	-1.7204864836e-01
 1.4654361552e+00	 1.0041591484e+00	 6.3665101958e-01
 1.4556605433e+00	 1.0182784453e+00	 1.4020498166e+00
 1.4457404291e+00	 1.0323144440e+00	 2.0776831473e+00
 1.4356768604e+00	 1.0462649516e+00	 2.6176537010e+00
 1.4254709288e+00	 1.0601277921e+00	 2.9767521874e+00
 1.5285561864e+00	 9.2237709800e-01	-2.8776954496e+00
 1.5196229430e+00	 9.3702167664e-01	-2.3859119411e+00
 1.5105391062e+00	 9.5159606809e-01	-1.7778544790e+00
 1.5013054582e+00	 9.6609798805e-01	-1.0929727749e+00
 1.4919228267e+00	 9.8052516279e-01	-3.6974530767e-01
 1.4823920849e+00	 9.9487533030e-01	 3.5433942727e-01
 1.4727141512e+00	 1.0091462414e+00	 1.0604504285e+00
 1.4628899893e+00	 1.0233356608e+00	 1.7346966533e+00
 1.4529206076e+00	 1.0374413685e+00	 2.3363117551e+00
 1.4428070588e+00	 1.0514611604e+00	 2.8246373668e+00
 1.4325504401e+00	 1.0653928498e+00	 3.1594359324e+00
 1.5361101821e+00	 9.2693540778e-01	-1.7801132668e+00
 1.5271327913e+00	 9.4165235869e-01	-1.3014767099e+00
 1.5180040630e+00	 9.5629877555e-01	-7.4103246038e-01
 1.5087247831e+00	 9.7087236277e-01	-1.2985355786e-01
 1.4992957834e+00	 9.8537083540e-01	 5.0170777284e-01
 1.4897179414e+00	 9.9979192022e-01	 1.1240244578e+00
 1.4799921803e+00	 1.0141333570e+00	 1.7086985273e+00
 1.4701194682e+00	 1.0283928993e+00	 2.2532762063e+00
 1.4601008186e+00	 1.0425683162e+00	 2.7399307338e+00
 1.4499372895e+00	 1.0566573927e+00	 3.1346339796e+00
 1.4396299835e+00	 1.0706579313e+00	 3.4034200715e+00
 1.3688350311e+00	 1.0180074738e+00	 2.3066968599e+00
 1.3588972790e+00	 1.0312355088e+00	 1.9415941154e+00
 1.3488250026e+00	 1.0443751969e+00	 1.6955594215e+00
 1.3386193810e+00	 1.0574244959e+00	 1.5568149621e+00
 1.3282816342e+00	 1.0703813842e+00	 1.5130498736e+00
 1.3178130228e+00	 1.0832438620e+00	 1.5514882468e+00
 1.3072148469e+00	 1.0960099521e+00	 1.6589598897e+00
 1.2964884462e+00	 1.1086777011e+00	 1.8219734679e+00
 1.2856351989e+00	 1.1212451801e+00	 2.0306400949e+00
 1.2746565218e+00	 1.1337104859e+00	 2.2799448551e+00
 1.2635538689e+00	 1.1460717420e+00	 2.5583063478e+00
 1.3759145745e+00	 1.0232725554e+00	 2.4289116089e+00
 1.3659254249e+00	 1.0365690051e+00	 2.1458285940e+00
 1.3558010551e+00	 1.0497766510e+00	 1.9497545299e+00
 1.3455426506e+00	 1.0628934402e+00	 1.8326876427e+00
 1.3351514376e+00	 1.0759173409e+00	 1.7858706747e+00
 1.3246286830e+00	 1.0888463427e+00	 1.7998555076e+00
 1.3139756939e+00	 1.1016784584e+00	 1.8645709039e+00
 1.3031938168e+00	 1.1144117243e+00	 1.9697727151e+00
 1.2922844371e+00	 1.1270442017e+00	 2.1126650000e+00
 1.2812489788e+00	 1.1395739774e+00	 2.2867645700e+00
 1.2700889036e+00	 1.1519991652e+00	 2.4825317308e+00
 1.3829940857e+00	 1.0285376131e+00	 2.5144811272e+00
 1.3729535388e+00	 1.0419024772e+00	 2.3240148409e+00
 1.3627770760e+00	 1.0551780805e+00	 2.1909567792e+00
 1.3524658888e+00	 1.0683623597e+00	 2.1104484366e+00
 1.3420212097e+00	 1.0814532724e+00	 2.0767123479e+00
 1.3314443123e+00	 1.0944487981e+00	 2.0831143301e+00
 1.3207365103e+00	 1.1073469390e+00	 2.1222291203e+00
 1.3098991570e+00	 1.1201457216e+00	 2.1887237771e+00
 1.2989336452e+00	 1.1328431970e+00	 2.2827901986e+00
 1.2878414060e+00	 1.1454374423e+00	 2.3977351884e+00
 1.2766239087e+00	 1.1579265616e+00	 2.5260689881e+00
 1.3900735730e+00	 1.0338026528e+00	 2.5765774845e+00
 1.3799816289e+00	 1.0472359311e+00	 2.4829866294e+00
 1.3697530733e+00	 1.0605794917e+00	 2.4204968737e+00
 1.3593891035e+00	 1.0738312607e+00	 2.3867679464e+00
 1.3488909586e+00	 1.0869891852e+00	 2.3784354727e+00
 1.3382599185e+00	 1.1000512344e+00	 2.3911718251e+00
 1.3274973037e+00	 1.1130154003e+00	 2.4198664983e+00
 1.3166044744e+00	 1.1258796993e+00	 2.4655576107e+00
 1.3055828306e+00	 1.1386421726e+00	 2.5271698366e+00
 1.2944338107e+00	 1.1513008873e+00	 2.5995162655e+00
 1.2831588916e+00	 1.1638539379e+00	 2.6769623670e+00
 1.3971530441e+00	 1.0390676807e+00	 2.6280915618e+00
 1.3870097031e+00	 1.0525693730e+00	 2.6294270964e+00
 1.3767290547e+00	 1.0659808906e+00	 2.6396685027e+00
 1.3663123025e+00	 1.0793001492e+00	 2.6583762860e+00
 1.3557606918e+00	 1.0925250854e+00	 2.6840394182e+00
 1.3450755092e+00	 1.1056536580e+00	 2.7141357837e+00
 1.3342580817e+00	 1.1186838488e+00	 2.7469995547e+00
 1.3233097767e+00	 1.1316136641e+00	 2.7870540431e+00
 1.3122320010e+00	 1.1444411350e+00	 2.8322216183e+00
 1.3010262005e+00	 1.1571643190e+00	 2.8790214925e+00
 1.2896938596e+00	 1.1697813007e+00	 2.9234829201e+00
 1.4042325073e+00	 1.0443327026e+00	 2.6816412141e+00
 1.3940377693e+00	 1.0579028088e+00	 2.7698736856e+00
 1.3837050282e+00	 1.0713822835e+00	 2.8497304907e+00
 1.3732354936e+00	 1.0847690316e+00	 2.9220628668e+00
 1.3626304173e+00	 1.0980609794e+00	 2.9866601994e+00
 1.3518910922e+00	 1.1112560752e+00	 3.0423116915e+00
 1.3410188521e+00	 1.1243522909e+00	 3.0923028576e+00
 1.3300150713e+00	 1.1373476223e+00	 3.1402429989e+00
 1.3188811638e+00	 1.1502400909e+00	 3.1846215851e+00
 1.3076185829e+00	 1.1630277441e+00	 3.2234137509e+00
 1.2962288203e+00	 1.1757086568e+00	 3.2541242848e+00
 1.4113119704e+00	 1.0495977244e+00	 2.7495792163e+00
 1.4010658355e+00	 1.0632362446e+00	 2.9107229732e+00
 1.3906810017e+00	 1.0767836763e+00	 3.0519089143e+00
 1.3801586848e+00	 1.0902379140e+00	 3.1746762237e+00
 1.3695001428e+00	 1.1035968733e+00	 3.2795684310e+00
 1.3587066751e+00	 1.1168584925e+00	 3.3671342384e+00
 1.3477796225e+00	 1.1300207330e+00	 3.4442174165e+00
 1.3367203659e+00	 1.1430815806e+00	 3.5123996470e+00
 1.3255303266e+00	 1.1560390467e+00	 3.5712990982e+00
 1.3142109652e+00	 1.1688911691e+00	 3.6201003631e+00
 1.3027637809e+00	 1.1816360129e+00	 3.6575986358e+00
 1.4183914416e+00	 1.0548627523e+00	 2.8440009998e+00
 1.4080939096e+00	 1.0685696865e+00	 3.0582353782e+00
 1.3976569831e+00	 1.0821850752e+00	 3.2473991881e+00
 1.3870818838e+00	 1.0957068025e+00	 3.4131238792e+00
 1.3763698760e+00	 1.1091327735e+00	 3.5561673791e+00
 1.3655222658e+00	 1.1224609161e+00	 3.6800703033e+00
 1.3545404005e+00	 1.1356891814e+00	 3.7914004550e+00
 1.3434256681e+00	 1.1488155453e+00	 3.8910397382e+00
 1.3321794970e+00	 1.1618380092e+00	 3.9794320161e+00
 1.3208033550e+00	 1.1747546008e+00	 4.0567285309e+00
 1.3092987489e+00	 1.1875633757e+00	 4.1228328063e+00
 1.4254709288e+00	 1.0601277921e+00	 2.9767521874e+00
 1.4151219997e+00	 1.0739031404e+00	 3.2185397641e+00
 1.4046329803e+00	 1.0875864864e+00	 3.4373681199e+00
 1.3940050985e+00	 1.1011757035e+00	 3.6343722453e+00
 1.3832396249e+00	 1.1146686863e+00	 3.8103128977e+00
 1.3723378720e+00	 1.1280633524e+00	 3.9718904391e+00
 1.3613011939e+00	 1.1413576428e+00	 4.1227214918e+00
 1.3501309856e+00	 1.1545495231e+00	 4.2639151273e+00
 1.3388286824e+00	 1.1676369847e+00	 4.3964420625e+00
 1.3273957597e+00	 1.1806180458e+00	 4.5211809564e+00
 1.3158337318e+00	 1.1934907519e+00	 4.6389645712e+00
 1.4325504401e+00	 1.0653928498e+00	 3.1594359324e+00
 1.4221501137e+00	 1.0792366125e+00	 3.3976379324e+00
 1.4116090012e+00	 1.0929879160e+00	 3.6229559366e+00
 1.4009283367e+00	 1.1066446230e+00	 3.8354465607e+00
 1.3901093970e+00	 1.1202046179e+00	 4.0367546936e+00
 1.3791535013e+00	 1.1336658078e+00	 4.2335349045e+00
 1.3680620102e+00	 1.1470261234e+00	 4.4272585827e+00
 1.3568363258e+00	 1.1602835203e+00	 4.6190094718e+00
 1.3454778905e+00	 1.1734359800e+00	 4.8099903763e+00
 1.3339881869e+00	 1.1864815107e+00	 5.0015716380e+00
 1.3223687369e+00	 1.1994181483e+00	 5.1953390869e+00
 1.4396299835e+00	 1.0706579313e+00	 3.4034200715e+00
 1.4291782595e+00	 1.0845701087e+00	 3.6014090154e+00
 1.4185850537e+00	 1.0983893700e+00	 3.8052782818e+00
 1.4078516063e+00	 1.1121135673e+00	 4.0134536644e+00
 1.3969792004e+00	 1.1257405746e+00	 4.2292730692e+00
 1.3859691615e+00	 1.1392682885e+00	 4.4561109660e+00
 1.3748228572e+00	 1.1526946297e+00	 4.6942947162e+00
 1.3635416964e+00	 1.1660175436e+00	 4.9445341022e+00
 1.3521271287e+00	 1.1792350016e+00	 5.2079732382e+00
 1.3405806439e+00	 1.1923450022e+00	 5.4862418372e+00
 1.3289037716e+00	 1.2053455716e+00	 5.7815054817e+00
 1.2635538689e+00	 1.1460717420e+00	 2.5583063478e+00
 1.2523306466e+00	 1.1583250283e+00	 2.8250208149e+00
 1.2409864882e+00	 1.1704706520e+00	 3.0481452306e+00
 1.2295229360e+00	 1.1825068424e+00	 3.2292721082e+00
 1.2179415673e+00	 1.1944318594e+00	 3.3704332235e+00
 1.2062439935e+00	 1.2062439935e+00	 3.4741258818e+00
 1.1944318594e+00	 1.2179415673e+00	 3.5433372789e+00
 1.1825068424e+00	 1.2295229360e+00	 3.5815667618e+00
 1.1704706520e+00	 1.2409864882e+00	 3.5928458072e+00
 1.1583250283e+00	 1.2523306466e+00	 3.5817555489e+00
 1.1460717420e+00	 1.2635538689e+00	 3.5534417025e+00
 1.2700889036e+00	 1.1519991652e+00	 2.4825317308e+00
 1.2588076354e+00	 1.1643158249e+00	 2.6630285766e+00
 1.2474048056e+00	 1.1765242651e+00	 2.8018786985e+00
 1.2358819645e+00	 1.1886227061e+00	 2.9052915394e+00
 1.2242406976e+00	 1.2006093986e+00	 2.9796437889e+00
 1.2124826245e+00	 1.2124826245e+00	 3.0315000266e+00
 1.2006093986e+00	 1.2242406976e+00	 3.0676317991e+00
 1.1886227061e+00	 1.2358819645e+00	 3.0950349405e+00
 1.1765242651e+00	 1.2474048056e+00	 3.1209449585e+00
 1.1643158249e+00	 1.2588076354e+00	 3.1528503206e+00
 1.1519991652e+00	 1.2700889036e+00	 3.1985034917e+00
 1.2766239087e+00	 1.1579265616e+00	 2.5260689881e+00
 1.2652845948e+00	 1.1703065944e+00	 2.6340045878e+00
 1.2538230939e+00	 1.1825778509e+00	 2.6996192351e+00
 1.2422409642e+00	 1.1947385421e+00	 2.7328487694e+00
 1.2305397993e+00	 1.2067869099e+00	 2.7435437378e+00
 1.2187212272e+00	 1.2187212272e+00	 2.7414857252e+00
 1.2067869099e+00	 1.2305397993e+00	 2.7364024287e+00
 1.1947385421e+00	 1.2422409642e+00	 2.7379812864e+00
 1.1825778509e+00	 1.2538230939e+00	 2.7558814867e+00
 1.1703065944e+00	 1.2652845948e+00	 2.7997441921e+00
 1.1579265616e+00	 1.2766239087e+00	 2.8792008298e+00
 1.2831588916e+00	 1.1638539379e+00	 2.6769623670e+00
 1.2717615322e+00	 1.1762973435e+00	 2.7279465430e+00
 1.2602413604e+00	 1.1886314160e+00	 2.7335845960e+00
 1.2485999422e+00	 1.2008543573e+00	 2.7066625818e+00
 1.2368388796e+00	 1.2129644002e+00	 2.6596480049e+00
 1.2249598088e+00	 1.2249598088e+00	 2.6047031352e+00
 1.2129644002e+00	 1.2368388796e+00	 2.5536973493e+00
 1.2008543573e+00	 1.2485999422e+00	 2.5182183082e+00
 1.1886314160e+00	 1.2602413604e+00	 2.5095817934e+00
 1.1762973435e+00	 1.2717615322e+00	 2.5388400375e+00
 1.1638539379e+00	 1.2831588916e+00	 2.6167883989e+00
 1.2896938596e+00	 1.1697813007e+00	 2.9234829201e+00
 1.2782384550e+00	 1.1822880790e+00	 2.9350399921e+00
 1.2666596123e+00	 1.1946849674e+00	 2.8961359441e+00
 1.2549589059e+00	 1.2069701586e+00	 2.8215449299e+00
 1.2431379456e+00	 1.2191418765e+00	 2.7255083801e+00
 1.2311983762e+00	 1.2311983762e+00	 2.6217465942e+00
 1.2191418765e+00	 1.2431379456e+00	 2.5234696102e+00
 1.2069701586e+00	 1.2549589059e+00	 2.4433871588e+00
 1.1946849674e+00	 1.2666596123e+00	 2.3937175224e+00
 1.1822880790e+00	 1.2782384550e+00	 2.3861951312e+00
 1.1697813007e+00	 1.2896938596e+00	 2.4320767428e+00
 1.2962288203e+00	 1.1757086568e+00	 3.2541242848e+00
 1.2847153703e+00	 1.1882788078e+00	 3.2456551339e+00
 1.2730778569e+00	 1.2007385120e+00	 3.1797757930e+00
 1.2613178623e+00	 1.2130859530e+00	 3.0724001728e+00
 1.2494370044e+00	 1.2253193457e+00	 2.9387141870e+00
 1.2374369365e+00	 1.2374369365e+00	 2.7931868995e+00
 1.2253193457e+00	 1.2494370044e+00	 2.6495811724e+00
 1.2130859530e+00	 1.2613178623e+00	 2.5209636159e+00
 1.2007385120e+00	 1.2730778569e+00	 2.4197136554e+00
 1.1882788078e+00	 1.2847153703e+00	 2.3575315425e+00
 1.1757086568e+00	 1.2962288203e+00	 2.3454451526e+00
 1.3027637809e+00	 1.1816360129e+00	 3.6575986358e+00
 1.2911922857e+00	 1.1942695365e+00	 3.6503437525e+00
 1.2794961016e+00	 1.2067920565e+00	 3.5771460591e+00
 1.2676768187e+00	 1.2192017474e+00	 3.4542243818e+00
 1.2557360633e+00	 1.2314968150e+00	 3.2968929896e+00
 1.2436754968e+00	 1.2436754968e+00	 3.1195735669e+00
 1.2314968150e+00	 1.2557360633e+00	 2.9358068798e+00
 1.2192017474e+00	 1.2676768187e+00	 2.7582639310e+00
 1.2067920565e+00	 1.2794961016e+00	 2.5987564111e+00
 1.1942695365e+00	 1.2911922857e+00	 2.4682462655e+00
 1.1816360129e+00	 1.3027637809e+00	 2.3768542118e+00
 1.3092987489e+00	 1.1875633757e+00	 4.1228328063e+00
 1.2976692084e+00	 1.2002602720e+00	 4.1398362937e+00
 1.2859143535e+00	 1.2128456079e+00	 4.0810262203e+00
 1.2740357824e+00	 1.2253175488e+00	 3.9621047156e+00
 1.2620351293e+00	 1.2376742913e+00	 3.7977113255e+00
 1.2499140642e+00	 1.2499140642e+00	 3.6014370700e+00
 1.2376742913e+00	 1.2620351293e+00	 3.3858383585e+00
 1.2253175488e+00	 1.2740357824e+00	 3.1624505504e+00
 1.2128456079e+00	 1.2859143535e+00	 2.9418009561e+00
 1.2002602720e+00	 1.2976692084e+00	 2.7334210922e+00
 1.1875633757e+00	 1.3092987489e+00	 2.5458580126e+00
 1.3158337318e+00	 1.1934907519e+00	 4.6389645712e+00
 1.3041461458e+00	 1.2062510211e+00	 4.7050390747e+00
 1.2923326200e+00	 1.2188991731e+00	 4.6843315759e+00
 1.2803947604e+00	 1.2314333640e+00	 4.5912188610e+00
 1.2683342096e+00	 1.2438517815e+00	 4.4388754640e+00
 1.2561526457e+00	 1.2561526457e+00	 4.2392910592e+00
 1.2438517815e+00	 1.2683342096e+00	 4.0032878477e+00
 1.2314333640e+00	 1.2803947604e+00	 3.7405377132e+00
 1.2188991731e+00	 1.2923326200e+00	 3.4595789323e+00
 1.2062510211e+00	 1.3041461458e+00	 3.1678322387e+00
 1.1934907519e+00	 1.3158337318e+00	 2.8716160541e+00
 1.3223687369e+00	 1.1994181483e+00	 5.1953390869e+00
 1.3106231052e+00	 1.2122417906e+00	 5.3370316234e+00
 1.2987509083e+00	 1.2249527588e+00	 5.3801116055e+00
 1.2867537601e+00	 1.2375492000e+00	 5.3368345378e+00
 1.2746333113e+00	 1.2500292928e+00	 5.2181321900e+00
 1.2623912484e+00	 1.2623912484e+00	 5.0336345639e+00
 1.2500292928e+00	 1.2746333113e+00	 4.7916919642e+00
 1.2375492000e+00	 1.2867537601e+00	 4.4993969313e+00
 1.2249527588e+00	 1.2987509083e+00	 4.1626058090e+00
 1.2122417906e+00	 1.3106231052e+00	 3.7859597324e+00
 1.1994181483e+00	 1.3223687369e+00	 3.3729048352e+00
 1.3289037716e+00	 1.2053455716e+00	 5.7815054817e+00
 1.3171000940e+00	 1.2182325872e+00	 6.0270641428e+00
 1.3051692256e+00	 1.2310063719e+00	 6.1615484231e+00
 1.2931127885e+00	 1.2436650637e+00	 6.1943090655e+00
 1.2809324416e+00	 1.2562068321e+00	 6.1332696115e+00
 1.2686298794e+00	 1.2686298794e+00	 5.9849541758e+00
 1.2562068321e+00	 1.2809324416e+00	 5.7545154035e+00
 1.2436650637e+00	 1.2931127885e+00	 5.4457623538e+00
 1.2310063719e+00	 1.3051692256e+00	 5.0611880645e+00
 1.2182325872e+00	 1.3171000940e+00	 4.6019965696e+00
 1.2053455716e+00	 1.3289037716e+00	 4.0681291515e+00
 1.1460717420e+00	 1.2635538689e+00	 3.5534417025e+00
 1.1337104859e+00	 1.2746565218e+00	 3.4740462896e+00
 1.1212451801e+00	 1.2856351989e+00	 3.3093743028e+00
 1.1086777011e+00	 1.2964884462e+00	 3.0647469704e+00
 1.0960099521e+00	 1.3072148469e+00	 2.7741004289e+00
 1.0832438620e+00	 1.3178130228e+00	 2.4607066478e+00
 1.0703813842e+00	 1.3282816342e+00	 2.1333327954e+00
 1.0574244959e+00	 1.3386193810e+00	 1.7995947853e+00
 1.0443751969e+00	 1.3488250026e+00	 1.4659121949e+00
 1.0312355088e+00	 1.3588972790e+00	 1.1374674667e+00
 1.0180074738e+00	 1.3688350311e+00	 8.1816957591e-01
 1.1519991652e+00	 1.2700889036e+00	 3.1985034917e+00
 1.1395739774e+00	 1.2812489788e+00	 3.2187495464e+00
 1.1270442017e+00	 1.2922844371e+00	 3.1661050732e+00
 1.1144117243e+00	 1.3031938168e+00	 3.0360846558e+00
 1.1016784584e+00	 1.3139756939e+00	 2.8372355583e+00
 1.0888463427e+00	 1.3246286830e+00	 2.6014473403e+00
 1.0759173409e+00	 1.3351514376e+00	 2.3323835879e+00
 1.0628934402e+00	 1.3455426506e+00	 2.0317823498e+00
 1.0497766510e+00	 1.3558010551e+00	 1.7009474372e+00
 1.0365690051e+00	 1.3659254249e+00	 1.3407114419e+00
 1.0232725554e+00	 1.3759145745e+00	 9.5140222787e-01
 1.1579265616e+00	 1.2766239087e+00	 2.8792008298e+00
 1.1454374423e+00	 1.2878414060e+00	 2.9560280772e+00
 1.1328431970e+00	 1.2989336452e+00	 2.9773118890e+00
 1.1201457216e+00	 1.3098991570e+00	 2.9311981649e+00
 1.1073469390e+00	 1.3207365103e+00	 2.8086364068e+00
 1.0944487981e+00	 1.3314443123e+00	 2.6358241418e+00
 1.0814532724e+00	 1.3420212097e+00	 2.4212738033e+00
 1.0683623597e+00	 1.3524658888e+00	 2.1620241340e+00
 1.0551780805e+00	 1.3627770760e+00	 1.8553238020e+00
 1.0419024772e+00	 1.3729535388e+00	 1.4985971069e+00
 1.0285376131e+00	 1.3829940857e+00	 1.0894123392e+00
 1.1638539379e+00	 1.2831588916e+00	 2.6167883989e+00
 1.1513008873e+00	 1.2944338107e+00	 2.7114421146e+00
 1.1386421726e+00	 1.3055828306e+00	 2.7713664859e+00
 1.1258796993e+00	 1.3166044744e+00	 2.7789474535e+00
 1.1130154003e+00	 1.3274973037e+00	 2.7178023363e+00
 1.1000512344e+00	 1.3382599185e+00	 2.5920945498e+00
 1.0869891852e+00	 1.3488909586e+00	 2.4248876533e+00
 1.0738312607e+00	 1.3593891035e+00	 2.2102369359e+00
 1.0605794917e+00	 1.3697530733e+00	 1.9423793062e+00
 1.0472359311e+00	 1.3799816289e+00	 1.6162563064e+00
 1.0338026528e+00	 1.3900735730e+00	 1.2274833900e+00
 1.1697813007e+00	 1.2896938596e+00	 2.4320767428e+00
 1.1571643190e+00	 1.3010262005e+00	 2.5100201973e+00
 1.1444411350e+00	 1.3122320010e+00	 2.5760515367e+00
 1.1316136641e+00	 1.3233097767e+00	 2.6083826481e+00
 1.1186838488e+00	 1.3342580817e+00	 2.5868851644e+00
 1.1056536580e+00	 1.3450755092e+00	 2.4979025465e+00
 1.0925250854e+00	 1.3557606918e+00	 2.3675640233e+00
 1.0793001492e+00	 1.3663123025e+00	 2.1958928748e+00
 1.0659808906e+00	 1.3767290547e+00	 1.9751407404e+00
 1.0525693730e+00	 1.3870097031e+00	 1.6986762355e+00
 1.0390676807e+00	 1.3971530441e+00	 1.3609542088e+00
 1.1757086568e+00	 1.2962288203e+00	 2.3454451526e+00
 1.1630277441e+00	 1.3076185829e+00	 2.3762742674e+00
 1.1502400909e+00	 1.3188811638e+00	 2.4185771946e+00
 1.1373476223e+00	 1.3300150713e+00	 2.4479553041e+00
 1.1243522909e+00	 1.3410188521e+00	 2.4419908630e+00
 1.1112560752e+00	 1.3518910922e+00	 2.3802881371e+00
 1.0980609794e+00	 1.3626304173e+00	 2.2731079850e+00
 1.0847690316e+00	 1.3732354936e+00	 2.1380283637e+00
 1.0713822835e+00	 1.3837050282e+00	 1.9663292757e+00
 1.0579028088e+00	 1.3940377693e+00	 1.7507008501e+00
 1.0443327026e+00	 1.4042325073e+00	 1.4852153455e+00
 1.1816360129e+00	 1.3027637809e+00	 2.3768542118e+00
 1.1688911691e+00	 1.3142109652e+00	 2.3342143592e+00
 1.1560390467e+00	 1.3255303266e+00	 2.3255971845e+00
 1.1430815806e+00	 1.3367203659e+00	 2.3255351475e+00
 1.1300207330e+00	 1.3477796225e+00	 2.3107566625e+00
 1.1168584925e+00	 1.3587066751e+00	 2.2602282849e+00
 1.1035968733e+00	 1.3695001428e+00	 2.1648019208e+00
 1.0902379140e+00	 1.3801586848e+00	 2.0552527696e+00
 1.0767836763e+00	 1.3906810017e+00	 1.9283658618e+00
 1.0632362446e+00	 1.4010658355e+00	 1.7770321942e+00
 1.0495977244e+00	 1.4113119704e+00	 1.5957055147e+00
 1.1875633757e+00	 1.3092987489e+00	 2.5458580126e+00
 1.1747546008e+00	 1.3208033550e+00	 2.4073628950e+00
 1.1618380092e+00	 1.3321794970e+00	 2.3232244594e+00
 1.1488155453e+00	 1.3434256681e+00	 2.2684263601e+00
 1.1356891814e+00	 1.3545404005e+00	 2.2202582727e+00
 1.1224609161e+00	 1.3655222658e+00	 2.1583574810e+00
 1.1091327735e+00	 1.3763698760e+00	 2.0654162710e+00
 1.0957068025e+00	 1.3870818838e+00	 1.9657567718e+00
 1.0821850752e+00	 1.3976569831e+00	 1.8733764207e+00
 1.0685696865e+00	 1.4080939096e+00	 1.7822316468e+00
 1.0548627523e+00	 1.4183914416e+00	 1.6879081053e+00
 1.1934907519e+00	 1.3158337318e+00	 2.8716160541e+00
 1.1806180458e+00	 1.3273957597e+00	 2.6187686008e+00
 1.1676369847e+00	 1.3388286824e+00	 2.4370464353e+00
 1.1545495231e+00	 1.3501309856e+00	 2.3033834263e+00
 1.1413576428e+00	 1.3613011939e+00	 2.1970256211e+00
 1.1280633524e+00	 1.3723378720e+00	 2.0995705636e+00
 1.1146686863e+00	 1.3832396249e+00	 1.9950000586e+00
 1.1011757035e+00	 1.3940050985e+00	 1.8873204295e+00
 1.0875864864e+00	 1.4046329803e+00	 1.8131968448e+00
 1.0739031404e+00	 1.4151219997e+00	 1.7707210918e+00
 1.0601277921e+00	 1.4254709288e+00	 1.7573477553e+00
 1.1994181483e+00	 1.3223687369e+00	 3.3729048352e+00
 1.1864815107e+00	 1.3339881869e+00	 2.9910200557e+00
 1.1734359800e+00	 1.3454778905e+00	 2.6921398213e+00
 1.1602835203e+00	 1.3568363258e+00	 2.4566265554e+00
 1.1470261234e+00	 1.3680620102e+00	 2.2670581707e+00
 1.1336658078e+00	 1.3791535013e+00	 2.1082634617e+00
 1.1202046179e+00	 1.3901093970e+00	 1.9673509804e+00
 1.1066446230e+00	 1.4009283367e+00	 1.8373209683e+00
 1.0929879160e+00	 1.4116090012e+00	 1.7593778062e+00
 1.0792366125e+00	 1.4221501137e+00	 1.7467840121e+00
 1.0653928498e+00	 1.4325504401e+00	 1.7995869887e+00
 1.2053455716e+00	 1.3289037716e+00	 4.0681291515e+00
 1.1923450022e+00	 1.3405806439e+00	 3.5462588882e+00
 1.1792350016e+00	 1.3521271287e+00	 3.1130850576e+00
 1.1660175436e+00	 1.3635416964e+00	 2.7538566949e+00
 1.1526946297e+00	 1.3748228572e+00	 2.4558398319e+00
 1.1392682885e+00	 1.3859691615e+00	 2.2083473194e+00
 1.1257405746e+00	 1.3969792004e+00	 2.0027623205e+00
 1.1121135673e+00	 1.4078516063e+00	 1.8325553996e+00
 1.0983893700e+00	 1.4185850537e+00	 1.7231893822e+00
 1.0845701087e+00	 1.4291782595e+00	 1.7145665119e+00
 1.0706579313e+00	 1.4396299835e+00	 1.8102229130e+00
 1.0180074738e+00	 1.3688350311e+00	 8.1816957591e-01
 1.0046954228e+00	 1.3786354671e+00	 5.5765619222e-01
 9.9129918793e-01	 1.3882991966e+00	 3.9432044849e-01
 9.7782085850e-01	 1.3978251711e+00	 3.1526893156e-01
 9.6426254050e-01	 1.4072123847e+00	 3.0876751884e-01
 9.5062635536e-01	 1.4164598738e+00	 3.6422663568e-01
 9.3691443887e-01	 1.4255667177e+00	 4.7218797534e-01
 9.2312894020e-01	 1.4345320388e+00	 6.2431271927e-01
 9.0927202075e-01	 1.4433550027e+00	 8.1337127568e-01
 8.9534585312e-01	 1.4520348186e+00	 1.0332345361e+00
 8.8135262000e-01	 1.4605707390e+00	 1.2788666309e+00
 1.0232725554e+00	 1.3759145745e+00	 9.5140222787e-01
 1.0098916552e+00	 1.3857656978e+00	 5.9345753946e-01
 9.9642613561e-01	 1.3954794076e+00	 3.2404258838e-01
 9.8287809696e-01	 1.4050546500e+00	 1.3860240151e-01
 9.6924965605e-01	 1.4144904137e+00	 3.2853828572e-02
 9.5554294527e-01	 1.4237857304e+00	 2.7662351302e-03
 9.4176011147e-01	 1.4329396744e+00	 4.4545048649e-02
 9.2790331492e-01	 1.4419513637e+00	 1.5461818942e-01
 9.1397472821e-01	 1.4508199595e+00	 3.2962539617e-01
 8.9997653516e-01	 1.4595446669e+00	 5.6641043426e-01
 8.8591092977e-01	 1.4681247347e+00	 8.6201615282e-01
 1.0285376131e+00	 1.3829940857e+00	 1.0894123392e+00
 1.0150878639e+00	 1.3928958962e+00	 6.8917016475e-01
 1.0015530601e+00	 1.4026595860e+00	 3.6250917937e-01
 9.8793531250e-01	 1.4122840961e+00	 1.1182617895e-01
 9.7423674900e-01	 1.4217684098e+00	-6.0958216585e-02
 9.6045951290e-01	 1.4311115537e+00	-1.5442272768e-01
 9.4660576211e-01	 1.4403125977e+00	-1.6766453272e-01
 9.3267766800e-01	 1.4493706549e+00	-1.0031431130e-01
 9.1867741434e-01	 1.4582848825e+00	 4.7452788901e-02
 9.0460719621e-01	 1.4670544812e+00	 2.7491023931e-01
 8.9046921888e-01	 1.4756786961e+00	 5.8077722518e-01
 1.0338026528e+00	 1.3900735730e+00	 1.2274833900e+00
 1.0202840550e+00	 1.4000260704e+00	 8.3034399668e-01
 1.0066799671e+00	 1.4098397401e+00	 4.8742587722e-01
 9.9299251085e-01	 1.4195135176e+00	 2.0670756132e-01
 9.7922382499e-01	 1.4290463811e+00	-4.9186221522e-03
 9.6537606381e-01	 1.4384373522e+00	-1.4167286522e-01
 9.5145139626e-01	 1.4476854959e+00	-1.9890915440e-01
 9.3745200484e-01	 1.4567899209e+00	-1.7313147466e-01
 9.2338008449e-01	 1.4657497800e+00	-6.2004947972e-02
 9.0923784152e-01	 1.4745642700e+00	 1.3563806218e-01
 8.9502749249e-01	 1.4832326318e+00	 4.1969865398e-01
 1.0390676807e+00	 1.3971530441e+00	 1.3609542088e+00
 1.0254802343e+00	 1.4071562284e+00	 1.0027821168e+00
 1.0118068625e+00	 1.4170198779e+00	 6.7691114106e-01
 9.9804969774e-01	 1.4267429227e+00	 3.9554781507e-01
 9.8421088968e-01	 1.4363243359e+00	 1.6933895396e-01
 9.7029260358e-01	 1.4457631341e+00	 7.3428761582e-03
 9.5629701944e-01	 1.4550583774e+00	-8.2993521916e-02
 9.4222633087e-01	 1.4642091701e+00	-9.5851818239e-02
 9.2808274398e-01	 1.4732146607e+00	-2.7053254405e-02
 9.1386847633e-01	 1.4820740417e+00	 1.2592464287e-01
 8.9958575577e-01	 1.4907865505e+00	 3.6110504288e-01
 1.0443327026e+00	 1.4042325073e+00	 1.4852153455e+00
 1.0306764078e+00	 1.4142863783e+00	 1.1925321538e+00
 1.0169337520e+00	 1.4242000076e+00	 9.0948361431e-01
 1.0031068789e+00	 1.4339723197e+00	 6.5116651739e-01
 9.8919794872e-01	 1.4436022825e+00	 4.3077948620e-01
 9.7520913778e-01	 1.4530889076e+00	 2.5959243291e-01
 9.6114263713e-01	 1.4624312505e+00	 1.4692248320e-01
 9.4700065148e-01	 1.4716284109e+00	 1.0011638634e-01
 9.3278539815e-01	 1.4806795329e+00	 1.2453939659e-01
 9.1849910590e-01	 1.4895838049e+00	 2.2134640633e-01
 9.0414401388e-01	 1.4983404605e+00	 3.8871129121e-01
 1.0495977244e+00	 1.4113119704e+00	 1.5957055147e+00
 1.0358725812e+00	 1.4214165282e+00	 1.3858778984e+00
 1.0220606416e+00	 1.4313801372e+00	 1.1640498482e+00
 1.0081640601e+00	 1.4412017166e+00	 9.4688633311e-01
 9.9418500776e-01	 1.4508802291e+00	 7.4894936371e-01
 9.8012567198e-01	 1.4604146812e+00	 5.8266637113e-01
 9.6598825482e-01	 1.4698041237e+00	 4.5830547988e-01
 9.5177497210e-01	 1.4790476517e+00	 3.8395769004e-01
 9.3748805231e-01	 1.4881444050e+00	 3.6401340080e-01
 9.2312973546e-01	 1.4970935682e+00	 3.9815569750e-01
 9.0870227200e-01	 1.5058943706e+00	 4.8754914691e-01
 1.0548627523e+00	 1.4183914416e+00	 1.6879081053e+00
 1.0410687605e+00	 1.4285466862e+00	 1.5693311315e+00
 1.0271875370e+00	 1.4385602750e+00	 1.4198923558e+00
 1.0132212469e+00	 1.4484311217e+00	 1.2565182109e+00
 9.9917207245e-01	 1.4581581839e+00	 1.0939596525e+00
 9.8504221176e-01	 1.4677404630e+00	 9.4476014488e-01
 9.7083387800e-01	 1.4771770052e+00	 8.1923077804e-01
 9.5654929812e-01	 1.4864669009e+00	 7.2458578487e-01
 9.4219071180e-01	 1.4956092857e+00	 6.6212693622e-01
 9.2776037028e-01	 1.5046033399e+00	 6.3452338725e-01
 9.1326053528e-01	 1.5134482892e+00	 6.4291915907e-01
 1.0601277921e+00	 1.4254709288e+00	 1.7573477553e+00
 1.0462649516e+00	 1.4356768604e+00	 1.7296236569e+00
 1.0323144440e+00	 1.4457404291e+00	 1.6566579847e+00
 1.0182784453e+00	 1.4556605433e+00	 1.5543469845e+00
 1.0041591484e+00	 1.4654361552e+00	 1.4364698208e+00
 9.8995876267e-01	 1.4750662615e+00	 1.3146568480e+00
 9.7567951216e-01	 1.4845499034e+00	 1.1980461676e+00
 9.6132363497e-01	 1.4938861669e+00	 1.0894458284e+00
 9.4689338195e-01	 1.5030741833e+00	 9.9223332697e-01
 9.3239101559e-01	 1.5121131287e+00	 9.0902531245e-01
 9.1781880889e-01	 1.5210022250e+00	 8.4038514094e-01
 1.0653928498e+00	 1.4325504401e+00	 1.7995869887e+00
 1.0514611604e+00	 1.4428070588e+00	 1.8536995331e+00
 1.0374413685e+00	 1.4529206076e+00	 1.8543465971e+00
 1.0233356608e+00	 1.4628899893e+00	 1.8151173641e+00
 1.0091462414e+00	 1.4727141512e+00	 1.7476719111e+00
 9.9487533030e-01	 1.4823920849e+00	 1.6616828426e+00
 9.8052516279e-01	 1.4919228267e+00	 1.5611410788e+00
 9.6609798805e-01	 1.5013054582e+00	 1.4488628041e+00
 9.5159606809e-01	 1.5105391062e+00	 1.3282064014e+00
 9.3702167664e-01	 1.5196229430e+00	 1.2006334902e+00
 9.2237709800e-01	 1.5285561864e+00	 1.0657688474e+00
 1.0706579313e+00	 1.4396299835e+00	 1.8102229130e+00
 1.0566573927e+00	 1.4499372895e+00	 1.9287074955e+00
 1.0425683162e+00	 1.4601008186e+00	 1.9933000477e+00
 1.0283928993e+00	 1.4701194682e+00	 2.0140203052e+00
 1.0141333570e+00	 1.4799921803e+00	 1.9992751435e+00
 9.9979192022e-01	 1.4897179414e+00	 1.9534881318e+00
 9.8537083540e-01	 1.4992957834e+00	 1.8773968392e+00
 9.7087236277e-01	 1.5087247831e+00	 1.7739122577e+00
 9.5629877555e-01	 1.5180040630e+00	 1.6444080488e+00
 9.4165235869e-01	 1.5271327913e+00	 1.4887076432e+00
 9.2693540778e-01	 1.5361101821e+00	 1.3051448594e+00
 8.8135262000e-01	 1.4605707390e+00	 1.2788666309e+00
 8.6729451342e-01	 1.4689620607e+00	 1.4856278291e+00
 8.5317373444e-01	 1.4772081256e+00	 1.6040943186e+00
 8.3899249124e-01	 1.4853083198e+00	 1.6514019966e+00
 8.2475299774e-01	 1.4932620732e+00	 1.6409037522e+00
 8.1045747260e-01	 1.5010688597e+00	 1.5871089045e+00
 7.9610813808e-01	 1.5087281967e+00	 1.5038679946e+00
 7.8170721905e-01	 1.5162396457e+00	 1.4038598855e+00
 7.6725694188e-01	 1.5236028115e+00	 1.2986159724e+00
 7.5275953348e-01	 1.5308173424e+00	 1.1985439290e+00
 7.3821722017e-01	 1.5378829301e+00	 1.1122825833e+00
 8.8591092977e-01	 1.4681247347e+00	 8.6201615282e-01
 8.7178011540e-01	 1.4765594558e+00	 1.1400898007e+00
 8.5758630449e-01	 1.4848481689e+00	 1.3347361694e+00
 8.4333171663e-01	 1.4929902569e+00	 1.4556323313e+00
 8.2901857722e-01	 1.5009851467e+00	 1.5140835318e+00
 8.1464911637e-01	 1.5088323095e+00	 1.5214388759e+00
 8.0022556784e-01	 1.5165312603e+00	 1.4883821780e+00
 7.8575016800e-01	 1.5240815581e+00	 1.4249553514e+00
 7.7122515476e-01	 1.5314828057e+00	 1.3405805687e+00
 7.5665276651e-01	 1.5387346498e+00	 1.2440811953e+00
 7.4203524112e-01	 1.5458367804e+00	 1.1437015080e+00
 8.9046921888e-01	 1.4756786961e+00	 5.8077722518e-01
 8.7626569704e-01	 1.4841568165e+00	 8.8541751720e-01
 8.6199885453e-01	 1.4924881777e+00	 1.1132752036e+00
 8.4767092236e-01	 1.5006721592e+00	 1.2719551760e+00
 8.3328413736e-01	 1.5087081853e+00	 1.3698353109e+00
 8.1884074113e-01	 1.5165957242e+00	 1.4150504738e+00
 8.0434297893e-01	 1.5243342884e+00	 1.4155169245e+00
 7.8979309863e-01	 1.5319234349e+00	 1.3789548209e+00
 7.7519334965e-01	 1.5393627643e+00	 1.3129088247e+00
 7.6054598190e-01	 1.5466519214e+00	 1.2247668206e+00
 7.4585324477e-01	 1.5537905946e+00	 1.1217767792e+00
 8.9502749249e-01	 1.4832326318e+00	 4.1969865398e-01
 8.8075126344e-01	 1.4917541514e+00	 7.1161861672e-01
 8.6641138957e-01	 1.5001281604e+00	 9.3848971384e-01
 8.5201011333e-01	 1.5083540355e+00	 1.1054986589e+00
 8.3754968300e-01	 1.5164311976e+00	 1.2179253548e+00
 8.2303235165e-01	 1.5243591124e+00	 1.2811698381e+00
 8.0846037603e-01	 1.5321372901e+00	 1.3007767535e+00
 7.9383601552e-01	 1.5397652850e+00	 1.2824573528e+00
 7.7916153105e-01	 1.5472426960e+00	 1.2321090320e+00
 7.6443918406e-01	 1.5545691660e+00	 1.1558324305e+00
 7.4967123543e-01	 1.5617443818e+00	 1.0599461334e+00
 8.9958575577e-01	 1.4907865505e+00	 3.6110504288e-01
 8.8523681966e-01	 1.4993514691e+00	 6.1041552171e-01
 8.7082391461e-01	 1.5077681259e+00	 8.0967574683e-01
 8.5634929447e-01	 1.5160358943e+00	 9.6125322240e-01
 8.4181521898e-01	 1.5241541924e+00	 1.0678881145e+00
 8.2722395267e-01	 1.5321224831e+00	 1.1327210047e+00
 8.1257776380e-01	 1.5399402740e+00	 1.1593176997e+00
 7.9787892324e-01	 1.5476071174e+00	 1.1516911011e+00
 7.8312970346e-01	 1.5551226099e+00	 1.1143201547e+00
 7.6833237739e-01	 1.5624863927e+00	 1.0521659161e+00
 7.5348921745e-01	 1.5696981510e+00	 9.7068478084e-01
 9.0414401388e-01	 1.4983404605e+00	 3.8871129121e-01
 8.8972237081e-01	 1.5069487781e+00	 5.7438403205e-01
 8.7523643465e-01	 1.5154080827e+00	 7.2611097094e-01
 8.6068847069e-01	 1.5237177443e+00	 8.4407598064e-01
 8.4608075012e-01	 1.5318771784e+00	 9.2903291371e-01
 8.3141554894e-01	 1.5398858449e+00	 9.8233431825e-01
 8.1669514690e-01	 1.5477432491e+00	 1.0059568460e+00
 8.0192182639e-01	 1.5554489409e+00	 1.0025233620e+00
 7.8709787137e-01	 1.5630025149e+00	 9.7532178286e-01
 7.7222556631e-01	 1.5704036104e+00	 9.2832068633e-01
 7.5730719513e-01	 1.5776519112e+00	 8.6618175138e-01
 9.0870227200e-01	 1.5058943706e+00	 4.8754914691e-01
 8.9420792196e-01	 1.5145460872e+00	 5.9621757829e-01
 8.7964895470e-01	 1.5230480395e+00	 6.8705610834e-01
 8.6502764692e-01	 1.5313995944e+00	 7.5869499293e-01
 8.5034628126e-01	 1.5396001644e+00	 8.1045047940e-01
 8.3560714521e-01	 1.5476492068e+00	 8.4235463486e-01
 8.2081253000e-01	 1.5555462242e+00	 8.5518161101e-01
 8.0596472953e-01	 1.5632907644e+00	 8.5047035895e-01
 7.9106603928e-01	 1.5708824199e+00	 8.3054382554e-01
 7.7611875523e-01	 1.5783208281e+00	 7.9852468034e-01
 7.6112517282e-01	 1.5856056713e+00	 7.5834763804e-01
 9.1326053528e-01	 1.5134482892e+00	 6.4291915907e-01
 8.9869347818e-01	 1.5221434049e+00	 6.6872534078e-01
 8.8406147974e-01	 1.5306880049e+00	 6.9175637177e-01
 8.6936682806e-01	 1.5390814532e+00	 7.0971345464e-01
 8.5461181723e-01	 1.5473231592e+00	 7.2101932165e-01
 8.3979874622e-01	 1.5554125775e+00	 7.2484932278e-01
 8.2492991776e-01	 1.5633492082e+00	 7.2115880174e-01
 8.1000763725e-01	 1.5711325967e+00	 7.1070677583e-01
 7.9503421169e-01	 1.5787623338e+00	 6.9507595460e-01
 7.8001194856e-01	 1.5862380548e+00	 6.7668914986e-01
 7.6494315484e-01	 1.5935594405e+00	 6.5882214633e-01
 9.1781880889e-01	 1.5210022250e+00	 8.4038514094e-01
 9.0317904458e-01	 1.5297407397e+00	 7.8483047364e-01
 8.8847401478e-01	 1.5383279877e+00	 7.3944290587e-01
 8.7370601903e-01	 1.5467633295e+00	 7.0161380939e-01
 8.5887736287e-01	 1.5550461715e+00	 6.6941196762e-01
 8.4399035674e-01	 1.5631759657e+00	 6.4161606761e-01
 8.2904731486e-01	 1.5711522098e+00	 6.1774343759e-01
 8.1405055414e-01	 1.5789744469e+00	 5.9807504714e-01
 7.9900239309e-01	 1.5866422655e+00	 5.8367680636e-01
 7.8390515072e-01	 1.5941552995e+00	 5.7641721842e-01
 7.6876114550e-01	 1.6015132277e+00	 5.7898145698e-01
 9.2237709800e-01	 1.5285561864e+00	 1.0657688474e+00
 9.0766462623e-01	 1.5373381004e+00	 9.3756843014e-01
 8.9288656483e-01	 1.5459679964e+00	 8.2933423290e-01
 8.7804522476e-01	 1.5544452318e+00	 7.3876178490e-01
 8.6314292302e-01	 1.5627692100e+00	 6.6410105517e-01
 8.4818198151e-01	 1.5709393804e+00	 6.0419048933e-01
 8.3316472596e-01	 1.5789552380e+00	 5.5848735514e-01
 8.1809348477e-01	 1.5868163237e+00	 5.2709441343e-01
 8.0297058798e-01	 1.5945222240e+00	 5.1078295042e-01
 7.8779836611e-01	 1.6020725710e+00	 5.1101222586e-01
 7.7257914915e-01	 1.6094670419e+00	 5.2994540853e-01
 9.2693540778e-01	 1.5361101821e+00	 1.3051448594e+00
 9.1215022821e-01	 1.5449354956e+00	 1.1200853859e+00
 8.9729913487e-01	 1.5536080398e+00	 9.6063770275e-01
 8.8238445016e-01	 1.5621271689e+00	 8.2541035538e-01
 8.6740850250e-01	 1.5704922835e+00	 7.1336529092e-01
 8.5237362528e-01	 1.5787028302e+00	 6.2385357756e-01
 8.3728215572e-01	 1.5867583015e+00	 5.5664760071e-01
 8.2213643373e-01	 1.5946582360e+00	 5.1196975034e-01
 8.0693880086e-01	 1.6024022183e+00	 4.9051763364e-01
 7.9169159915e-01	 1.6099898785e+00	 4.9348586542e-01
 7.7639717010e-01	 1.6174208922e+00	 5.2258450588e-01
 7.3821722017e-01	 1.5378829301e+00	 1.1122825833e+00
 7.2362974352e-01	 1.5448004724e+00	 1.0620104557e+00
 7.0900179485e-01	 1.5515685321e+00	 1.0710201560e+00
 6.9433559319e-01	 1.5581869283e+00	 1.1293699294e+00
 6.7963335308e-01	 1.5646555226e+00	 1.2275958539e+00
 6.6489728352e-01	 1.5709742187e+00	 1.3567014125e+00
 6.5012958706e-01	 1.5771429619e+00	 1.5081474569e+00
 6.3533245882e-01	 1.5831617391e+00	 1.6738425471e+00
 6.2050808558e-01	 1.5890305782e+00	 1.8461336527e+00
 6.0565864489e-01	 1.5947495478e+00	 2.0177971963e+00
 5.9078630409e-01	 1.6003187566e+00	 2.1820304170e+00
 7.4203524112e-01	 1.5458367804e+00	 1.1437015080e+00
 7.2737231881e-01	 1.5527900999e+00	 1.0784806660e+00
 7.1266871514e-01	 1.5595931636e+00	 1.0690246727e+00
 6.9792666066e-01	 1.5662457898e+00	 1.1069499438e+00
 6.8314838133e-01	 1.5727478394e+00	 1.1843687168e+00
 6.6833609758e-01	 1.5790992154e+00	 1.2936934200e+00
 6.5349202336e-01	 1.5852998630e+00	 1.4276271582e+00
 6.3861836515e-01	 1.5913497690e+00	 1.5791548189e+00
 6.2371732103e-01	 1.5972489615e+00	 1.7415347754e+00
 6.0879107980e-01	 1.6029975093e+00	 1.9082911612e+00
 5.9384182003e-01	 1.6085955217e+00	 2.0732066861e+00
 7.4585324477e-01	 1.5537905946e+00	 1.1217767792e+00
 7.3111487713e-01	 1.5607796911e+00	 1.0540078155e+00
 7.1633561882e-01	 1.5676177588e+00	 1.0393275550e+00
 7.0151771185e-01	 1.5743046148e+00	 1.0684056237e+00
 6.8666339364e-01	 1.5808401194e+00	 1.1347946804e+00
 6.7177489606e-01	 1.5872241753e+00	 1.2322056455e+00
 6.5685444443e-01	 1.5934567272e+00	 1.3544984938e+00
 6.4190425659e-01	 1.5995377618e+00	 1.4956738804e+00
 6.2692654193e-01	 1.6054673075e+00	 1.6498655705e+00
 6.1192350052e-01	 1.6112454334e+00	 1.8113336410e+00
 5.9689732213e-01	 1.6168722493e+00	 1.9744584189e+00
 7.4967123543e-01	 1.5617443818e+00	 1.0599461334e+00
 7.3485742272e-01	 1.5687692552e+00	 9.9869886659e-01
 7.2000251003e-01	 1.5756423266e+00	 9.8949450250e-01
 7.0510875083e-01	 1.5823634124e+00	 1.0191234344e+00
 6.9017839401e-01	 1.5889323720e+00	 1.0824436150e+00
 6.7521368285e-01	 1.5953491075e+00	 1.1743543492e+00
 6.6021685407e-01	 1.6016135636e+00	 1.2897871804e+00
 6.4519013686e-01	 1.6077257268e+00	 1.4236977923e+00
 6.3013575192e-01	 1.6136856256e+00	 1.5710588936e+00
 6.1505591059e-01	 1.6194933294e+00	 1.7268540468e+00
 5.9995281383e-01	 1.6251489488e+00	 1.8860724013e+00
 7.5348921745e-01	 1.5696981510e+00	 9.7068478084e-01
 7.3859995984e-01	 1.5767588012e+00	 9.2243907324e-01
 7.2366939293e-01	 1.5836668763e+00	 9.2692175197e-01
 7.0869978167e-01	 1.5904221917e+00	 9.6436532428e-01
 6.9369338641e-01	 1.5970246062e+00	 1.0307985057e+00
 6.7865246184e-01	 1.6034740214e+00	 1.1221992133e+00
 6.6357925609e-01	 1.6097703815e+00	 1.2344853332e+00
 6.4847600968e-01	 1.6159136732e+00	 1.3635066596e+00
 6.3334495464e-01	 1.6219039250e+00	 1.5050379641e+00
 6.1818831355e-01	 1.6277412067e+00	 1.6547731565e+00
 6.0300829862e-01	 1.6334256295e+00	 1.8083204881e+00
 7.5730719513e-01	 1.5776519112e+00	 8.6618175138e-01
 7.4234249271e-01	 1.5847483381e+00	 8.3514417606e-01
 7.2733627167e-01	 1.5916914169e+00	 8.5883941537e-01
 7.1229080845e-01	 1.5984809619e+00	 9.0927096053e-01
 6.9720837482e-01	 1.6051168312e+00	 9.8325677096e-01
 6.8209123694e-01	 1.6115989260e+00	 1.0777439274e+00
 6.6694165429e-01	 1.6179271902e+00	 1.1895515046e+00
 6.5176187878e-01	 1.6241016104e+00	 1.3153623087e+00
 6.3655415373e-01	 1.6301222151e+00	 1.4517158671e+00
 6.2132071297e-01	 1.6359890748e+00	 1.5950026263e+00
 6.0606377994e-01	 1.6417023008e+00	 1.7414593067e+00
 7.6112517282e-01	 1.5856056713e+00	 7.5834763804e-01
 7.4608502559e-01	 1.5927378750e+00	 7.4811686295e-01
 7.3100315041e-01	 1.5997159574e+00	 7.9231470216e-01
 7.1588183522e-01	 1.6065397321e+00	 8.5885988257e-01
 7.0072336324e-01	 1.6132090563e+00	 9.4313152609e-01
 6.8553001204e-01	 1.6197238306e+00	 1.0429367436e+00
 6.7030405250e-01	 1.6260839989e+00	 1.1559107096e+00
 6.5504774788e-01	 1.6322895475e+00	 1.2795079637e+00
 6.3976335281e-01	 1.6383405052e+00	 1.4109950585e+00
 6.2445311239e-01	 1.6442369428e+00	 1.5474445044e+00
 6.0911926126e-01	 1.6499789722e+00	 1.6857299599e+00
 7.6494315484e-01	 1.5935594405e+00	 6.5882214633e-01
 7.4982756270e-01	 1.6007274210e+00	 6.7076916340e-01
 7.3467003331e-01	 1.6077405071e+00	 7.3425502989e-01
 7.1947286606e-01	 1.6145985114e+00	 8.1803357633e-01
 7.0423835564e-01	 1.6213012905e+00	 9.1365279605e-01
 6.8896879103e-01	 1.6278487445e+00	 1.0196710010e+00
 6.7366645452e-01	 1.6342408168e+00	 1.1344544373e+00
 6.5833362070e-01	 1.6404774939e+00	 1.2561679188e+00
 6.4297255553e-01	 1.6465588047e+00	 1.3827668733e+00
 6.2758551536e-01	 1.6524848201e+00	 1.5119907488e+00
 6.1217474604e-01	 1.6582556529e+00	 1.6413577251e+00
 7.6876114550e-01	 1.6015132277e+00	 5.7898145698e-01
 7.5357010830e-01	 1.6087169851e+00	 6.1187718795e-01
 7.3833692452e-01	 1.6157650750e+00	 6.9141102684e-01
 7.2306390505e-01	 1.6226573090e+00	 7.9157747226e-01
 7.0775335601e-01	 1.6293935430e+00	 8.9796867752e-01
 6.9240757782e-01	 1.6359736767e+00	 1.0097856217e+00
 6.7702886416e-01	 1.6423976532e+00	 1.1260406493e+00
 6.6161950097e-01	 1.6486654589e+00	 1.2455472081e+00
 6.4618176552e-01	 1.6547771228e+00	 1.3669110364e+00
 6.3071792543e-01	 1.6607327161e+00	 1.4885227474e+00
 6.1523023775e-01	 1.6665323523e+00	 1.6085517530e+00
 7.7257914915e-01	 1.6094670419e+00	 5.2994540853e-01
 7.5731266662e-01	 1.6167065763e+00	 5.8001151055e-01
 7.4200382820e-01	 1.6237896701e+00	 6.7051113900e-01
 7.2665495624e-01	 1.6307161340e+00	 7.8416286950e-01
 7.1126836832e-01	 1.6374858231e+00	 8.9914645283e-01
 6.9584637630e-01	 1.6440986366e+00	 1.0150655781e+00
 6.8039128522e-01	 1.6505545174e+00	 1.1314937655e+00
 6.6490539241e-01	 1.6568534517e+00	 1.2478312740e+00
 6.4939098642e-01	 1.6629954688e+00	 1.3632951764e+00
 6.3385034615e-01	 1.6689806402e+00	 1.4769108413e+00
 6.1828573985e-01	 1.6748090800e+00	 1.5875047635e+00
 7.7639717010e-01	 1.6174208922e+00	 5.2258450588e-01
 7.6105524190e-01	 1.6246962038e+00	 5.8354286629e-01
 7.4567074850e-01	 1.6318143016e+00	 6.7945587538e-01
 7.3024602370e-01	 1.6387749955e+00	 8.0034878890e-01
 7.1478339657e-01	 1.6455781398e+00	 9.2017365711e-01
 6.9928519036e-01	 1.6522236333e+00	 1.0372423336e+00
 6.8375372154e-01	 1.6587114185e+00	 1.1516046370e+00
 6.6819129874e-01	 1.6650414817e+00	 1.2631856319e+00
 6.5260022188e-01	 1.6712138520e+00	 1.3717743418e+00
 6.3698278107e-01	 1.6772286017e+00	 1.4770138510e+00
 6.2134125579e-01	 1.6830858451e+00	 1.5783927392e+00
 5.9078630409e-01	 1.6003187566e+00	 2.1820304170e+00
 5.7589575259e-01	 1.6057374444e+00	 2.3150037215e+00
 5.6098660704e-01	 1.6110067574e+00	 2.4009561820e+00
 5.4606099739e-01	 1.6161269212e+00	 2.4452346329e+00
 5.3112104005e-01	 1.6210981995e+00	 2.4529320476e+00
 5.1616883713e-01	 1.6259208937e+00	 2.4288765393e+00
 5.0120647558e-01	 1.6305953427e+00	 2.3776214532e+00
 4.8623602649e-01	 1.6351219218e+00	 2.3034365083e+00
 4.7125954432e-01	 1.6395010426e+00	 2.2102999473e+00
 4.5627906618e-01	 1.6437331520e+00	 2.1018916495e+00
 4.4129661111e-01	 1.6478187318e+00	 1.9815871646e+00
 5.9384182003e-01	 1.6085955217e+00	 2.0732066861e+00
 5.7887425538e-01	 1.6140422347e+00	 2.2094583021e+00
 5.6388800051e-01	 1.6193388003e+00	 2.2975799692e+00
 5.4888519638e-01	 1.6244854453e+00	 2.3423689748e+00
 5.3386797037e-01	 1.6294824348e+00	 2.3484417701e+00
 5.1883843543e-01	 1.6343300717e+00	 2.3202224823e+00
 5.0379868933e-01	 1.6390286967e+00	 2.2619324400e+00
 4.8875081386e-01	 1.6435786871e+00	 2.1775806715e+00
 4.7369687410e-01	 1.6479804565e+00	 2.0709553327e+00
 4.5863891770e-01	 1.6522344541e+00	 1.9456160237e+00
 4.4357897416e-01	 1.6563411643e+00	 1.8048869508e+00
 5.9689732213e-01	 1.6168722493e+00	 1.9744584189e+00
 5.8185274467e-01	 1.6223469873e+00	 2.1110040105e+00
 5.6678938082e-01	 1.6276708055e+00	 2.1993434808e+00
 5.5170938257e-01	 1.6328439316e+00	 2.2436967358e+00
 5.3661488823e-01	 1.6378666321e+00	 2.2481694565e+00
 5.2150802163e-01	 1.6427392117e+00	 2.2167412866e+00
 5.0639089132e-01	 1.6474620126e+00	 2.1532549604e+00
 4.9126558982e-01	 1.6520354140e+00	 2.0614063311e+00
 4.7613419283e-01	 1.6564598319e+00	 1.9447352558e+00
 4.6099875853e-01	 1.6607357177e+00	 1.8066172980e+00
 4.4586132687e-01	 1.6648635582e+00	 1.6502562045e+00
 5.9995281383e-01	 1.6251489488e+00	 1.8860724013e+00
 5.8483122383e-01	 1.6306517117e+00	 2.0204129248e+00
 5.6969075127e-01	 1.6360027823e+00	 2.1074004281e+00
 5.5453355916e-01	 1.6412023894e+00	 2.1506502417e+00
 5.3936179675e-01	 1.6462508009e+00	 2.1537237345e+00
 5.2417759875e-01	 1.6511483230e+00	 2.1201163406e+00
 5.0898308450e-01	 1.6558952997e+00	 2.0532464573e+00
 4.9378035724e-01	 1.6604921122e+00	 1.9564451755e+00
 4.7857150328e-01	 1.6649391785e+00	 1.8329468008e+00
 4.6335859134e-01	 1.6692369523e+00	 1.6858801225e+00
 4.4814367181e-01	 1.6733859231e+00	 1.5182603904e+00
 6.0300829862e-01	 1.6334256295e+00	 1.8083204881e+00
 5.8780969624e-01	 1.6389564173e+00	 1.9384333072e+00
 5.7259211515e-01	 1.6443347402e+00	 2.0228739260e+00
 5.5735772935e-01	 1.6495608283e+00	 2.0646265279e+00
 5.4210869904e-01	 1.6546349507e+00	 2.0666753162e+00
 5.2684716982e-01	 1.6595574153e+00	 2.0319925402e+00
 5.1157527181e-01	 1.6643285677e+00	 1.9635273310e+00
 4.9629511895e-01	 1.6689487913e+00	 1.8641953066e+00
 4.8100880820e-01	 1.6734185059e+00	 1.7368689039e+00
 4.6571841880e-01	 1.6777381677e+00	 1.5843683954e+00
 4.5042601159e-01	 1.6819082687e+00	 1.4094535499e+00
 6.0606377994e-01	 1.6417023008e+00	 1.7414593067e+00
 5.9078816528e-01	 1.6472611135e+00	 1.8657895674e+00
 5.7549347574e-01	 1.6526666887e+00	 1.9468566617e+00
 5.6018189633e-01	 1.6579192577e+00	 1.9869876614e+00
 5.4485559823e-01	 1.6630190910e+00	 1.9885574198e+00
 5.2951673787e-01	 1.6679664980e+00	 1.9539767584e+00
 5.1416745618e-01	 1.6727618262e+00	 1.8856814068e+00
 4.9880987782e-01	 1.6774054607e+00	 1.7861216530e+00
 4.8344611036e-01	 1.6818978236e+00	 1.6577526613e+00
 4.6807824359e-01	 1.6862393735e+00	 1.5030254163e+00
 4.5270834877e-01	 1.6904306047e+00	 1.3243782506e+00
 6.0911926126e-01	 1.6499789722e+00	 1.6857299599e+00
 5.9376663432e-01	 1.6555658097e+00	 1.8031822156e+00
 5.7839483632e-01	 1.6609986372e+00	 1.8804110479e+00
 5.6300606332e-01	 1.6662776871e+00	 1.9190610420e+00
 5.4760249741e-01	 1.6714032313e+00	 1.9208661687e+00
 5.3218630591e-01	 1.6763755808e+00	 1.8876382925e+00
 5.1675964055e-01	 1.6811950847e+00	 1.8212563792e+00
 5.0132463668e-01	 1.6858621302e+00	 1.7236563623e+00
 4.8588341251e-01	 1.6903771414e+00	 1.5968216208e+00
 4.7043806837e-01	 1.6947405793e+00	 1.4427740288e+00
 4.5499068596e-01	 1.6989529406e+00	 1.2635655308e+00
 6.1217474604e-01	 1.6582556529e+00	 1.6413577251e+00
 5.9674510673e-01	 1.6638705153e+00	 1.7512878064e+00
 5.8129620020e-01	 1.6693305951e+00	 1.8245693608e+00
 5.6583023351e-01	 1.6746361260e+00	 1.8621396852e+00
 5.5034939971e-01	 1.6797873811e+00	 1.8650609705e+00
 5.3485587698e-01	 1.6847846730e+00	 1.8345092888e+00
 5.1935182786e-01	 1.6896283527e+00	 1.7717642344e+00
 5.0383939840e-01	 1.6943188092e+00	 1.6781991736e+00
 4.8832071743e-01	 1.6988564688e+00	 1.5552720571e+00
 4.7279789583e-01	 1.7032417947e+00	 1.4045167507e+00
 4.5727302573e-01	 1.7074752862e+00	 1.2275348398e+00
 6.1523023775e-01	 1.6665323523e+00	 1.6085517530e+00
 5.9972358590e-01	 1.6721752397e+00	 1.7107588748e+00
 5.8419757065e-01	 1.6776625720e+00	 1.7803338643e+00
 5.6865441010e-01	 1.6829945838e+00	 1.8174824870e+00
 5.5309630823e-01	 1.6881715499e+00	 1.8225648736e+00
 5.3752545410e-01	 1.6931937844e+00	 1.7960851455e+00
 5.2194402104e-01	 1.6980616399e+00	 1.7386816520e+00
 5.0635416581e-01	 1.7027755074e+00	 1.6511177717e+00
 4.9075802788e-01	 1.7073358154e+00	 1.5342732313e+00
 4.7515772864e-01	 1.7117430294e+00	 1.3891358938e+00
 4.5955537068e-01	 1.7159976511e+00	 1.2167939721e+00
 6.1828573985e-01	 1.6748090800e+00	 1.5875047635e+00
 6.0270207519e-01	 1.6804799924e+00	 1.6822238619e+00
 5.8709895097e-01	 1.6859945771e+00	 1.7486769202e+00
 5.7147859629e-01	 1.6913530700e+00	 1.7863144710e+00
 5.5584322609e-01	 1.6965557473e+00	 1.7947649057e+00
 5.4019504030e-01	 1.7016029243e+00	 1.7738248954e+00
 5.2453622303e-01	 1.7064949557e+00	 1.7234503865e+00
 5.0886894177e-01	 1.7112322343e+00	 1.6437481215e+00
 4.9319534661e-01	 1.7158151908e+00	 1.5349676347e+00
 4.7751756946e-01	 1.7202442929e+00	 1.3974936733e+00
 4.6183772338e-01	 1.7245200450e+00	 1.2318389982e+00
 6.2134125579e-01	 1.6830858451e+00	 1.5783927392e+00
 6.0568057798e-01	 1.6887847827e+00	 1.6662870336e+00
 5.9000034444e-01	 1.6943266200e+00	 1.7305410849e+00
 5.7430279528e-01	 1.6997115942e+00	 1.7698270185e+00
 5.5859015640e-01	 1.7049399826e+00	 1.7830123919e+00
 5.4286463860e-01	 1.7100121024e+00	 1.7691515675e+00
 5.2712843678e-01	 1.7149283098e+00	 1.7274776288e+00
 5.1138372914e-01	 1.7196889996e+00	 1.6573947859e+00
 4.9563267639e-01	 1.7242946047e+00	 1.5584712189e+00
 4.7987742099e-01	 1.7287455951e+00	 1.4304323065e+00
 4.6412008643e-01	 1.7330424775e+00	 1.2731541900e+00
 4.4129661111e-01	 1.6478187318e+00	 1.9815871646e+00
 4.2631417965e-01	 1.6517582986e+00	 1.8656136152e+00
 4.1133375375e-01	 1.6555524039e+00	 1.7661233181e+00
 3.9635729548e-01	 1.6592016323e+00	 1.6804740798e+00
 3.8138674621e-01	 1.6627066012e+00	 1.6064506504e+00
 3.6642402607e-01	 1.6660679591e+00	 1.5423310634e+00
 3.5147103331e-01	 1.6692863858e+00	 1.4884346255e+00
 3.3652964380e-01	 1.6723625910e+00	 1.4450693784e+00
 3.2160171051e-01	 1.6752973142e+00	 1.4123909996e+00
 3.0668906299e-01	 1.6780913235e+00	 1.3909037569e+00
 2.9179350692e-01	 1.6807454153e+00	 1.3814576003e+00
 4.4357897416e-01	 1.6563411643e+00	 1.8048869508e+00
 4.2851905435e-01	 1.6603011064e+00	 1.6699983412e+00
 4.1346115047e-01	 1.6641148345e+00	 1.5583382572e+00
 3.9840723473e-01	 1.6677829366e+00	 1.4675485017e+00
 3.8335925857e-01	 1.6713060330e+00	 1.3956126304e+00
 3.6831915202e-01	 1.6746847757e+00	 1.3408631594e+00
 3.5328882316e-01	 1.6779198479e+00	 1.3030948925e+00
 3.3827015757e-01	 1.6810119631e+00	 1.2825234091e+00
 3.2326501778e-01	 1.6839618645e+00	 1.2791440575e+00
 3.0827524282e-01	 1.6867703243e+00	 1.2932216100e+00
 2.9330264772e-01	 1.6894381429e+00	 1.3252893616e+00
 4.4586132687e-01	 1.6648635582e+00	 1.6502562045e+00
 4.3072391905e-01	 1.6688438754e+00	 1.5007025020e+00
 4.1558853754e-01	 1.6726772264e+00	 1.3794989848e+00
 4.0045716469e-01	 1.6763642020e+00	 1.2846545853e+00
 3.8533176199e-01	 1.6799054258e+00	 1.2144392724e+00
 3.7021426938e-01	 1.6833015532e+00	 1.1673774372e+00
 3.5510660477e-01	 1.6865532709e+00	 1.1429021158e+00
 3.4001066344e-01	 1.6896612960e+00	 1.1411422314e+00
 3.2492831751e-01	 1.6926263755e+00	 1.1620356818e+00
 3.0986141547e-01	 1.6954492858e+00	 1.2057140445e+00
 2.9481178167e-01	 1.6981308311e+00	 1.2725034897e+00
 4.4814367181e-01	 1.6733859231e+00	 1.5182603904e+00
 4.3292877626e-01	 1.6773866154e+00	 1.3578690812e+00
 4.1771591738e-01	 1.6812395891e+00	 1.2294143665e+00
 4.0250708769e-01	 1.6849454382e+00	 1.1313538379e+00
 3.8730425869e-01	 1.6885047894e+00	 1.0623298398e+00
 3.7210938029e-01	 1.6919183014e+00	 1.0211639145e+00
 3.5692438020e-01	 1.6951866645e+00	 1.0071452470e+00
 3.4175116339e-01	 1.6983105994e+00	 1.0202914032e+00
 3.2659161159e-01	 1.7012908571e+00	 1.0605871558e+00
 3.1144758272e-01	 1.7041282177e+00	 1.1281353742e+00
 2.9632091050e-01	 1.7068234898e+00	 1.2231627894e+00
 4.5042601159e-01	 1.6819082687e+00	 1.4094535499e+00
 4.3513362847e-01	 1.6859293360e+00	 1.2416390019e+00
 4.1984329240e-01	 1.6898019324e+00	 1.1078987429e+00
 4.0455700604e-01	 1.6935266550e+00	 1.0072189781e+00
 3.8927675093e-01	 1.6971041335e+00	 9.3869877427e-01
 3.7400448691e-01	 1.7005350301e+00	 9.0154545917e-01
 3.5874215151e-01	 1.7038200385e+00	 8.9513320677e-01
 3.4349165940e-01	 1.7069598833e+00	 9.1935503401e-01
 3.2825490189e-01	 1.7099553191e+00	 9.7433526654e-01
 3.1303374638e-01	 1.7128071300e+00	 1.0602507727e+00
 2.9783003590e-01	 1.7155161287e+00	 1.1773347191e+00
 4.5270834877e-01	 1.6904306047e+00	 1.3243782506e+00
 4.3733847818e-01	 1.6944720469e+00	 1.1521508709e+00
 4.2197066501e-01	 1.6983642661e+00	 1.0147715141e+00
 4.0660692206e-01	 1.7021078620e+00	 9.1183340472e-01
 3.9124924093e-01	 1.7057034678e+00	 8.4297509196e-01
 3.7589959138e-01	 1.7091517490e+00	 8.0787661987e-01
 3.6055992076e-01	 1.7124534028e+00	 8.0619429123e-01
 3.4523215344e-01	 1.7156091573e+00	 8.3773524328e-01
 3.2991819031e-01	 1.7186197712e+00	 9.0283185545e-01
 3.1461990824e-01	 1.7214860324e+00	 1.0018359550e+00
 2.9933915960e-01	 1.7242087578e+00	 1.1350912430e+00
 4.5499068596e-01	 1.6989529406e+00	 1.2635655308e+00
 4.3954332789e-01	 1.7030147579e+00	 1.0895407248e+00
 4.2409803761e-01	 1.7069265997e+00	 9.4985673018e-01
 4.0865683809e-01	 1.7106890691e+00	 8.4479067575e-01
 3.9322173094e-01	 1.7143028022e+00	 7.7460179356e-01
 3.7779469586e-01	 1.7177684679e+00	 7.3952817902e-01
 3.6237769001e-01	 1.7210867670e+00	 7.3967559248e-01
 3.4697264748e-01	 1.7242584314e+00	 7.7485163226e-01
 3.3158147874e-01	 1.7272842233e+00	 8.4564338013e-01
 3.1620607010e-01	 1.7301649348e+00	 9.5267686793e-01
 3.0084828329e-01	 1.7329013869e+00	 1.0965086865e+00
 4.5727302573e-01	 1.7074752862e+00	 1.2275348398e+00
 4.4174818010e-01	 1.7115574785e+00	 1.0539417773e+00
 4.2622541263e-01	 1.7154889430e+00	 9.1298268894e-01
 4.1070675643e-01	 1.7192702858e+00	 8.0569399782e-01
 3.9519422317e-01	 1.7229021463e+00	 7.3303528668e-01
 3.7968980247e-01	 1.7263851966e+00	 6.9588646944e-01
 3.6419546132e-01	 1.7297201411e+00	 6.9494243360e-01
 3.4871314349e-01	 1.7329077153e+00	 7.3014076833e-01
 3.3324476904e-01	 1.7359486853e+00	 8.0235048612e-01
 3.1779223376e-01	 1.7388438471e+00	 9.1256938584e-01
 3.0235740870e-01	 1.7415940259e+00	 1.0616675924e+00
 4.5955537068e-01	 1.7159976511e+00	 1.2167939721e+00
 4.4395303731e-01	 1.7201002185e+00	 1.0454841671e+00
 4.2835279247e-01	 1.7240513058e+00	 9.0398153926e-01
 4.1275667943e-01	 1.7278515220e+00	 7.9415572544e-01
 3.9716671988e-01	 1.7315015099e+00	 7.1774482072e-01
 3.8158491339e-01	 1.7350019448e+00	 6.7635278376e-01
 3.6601323675e-01	 1.7383535347e+00	 6.7137781695e-01
 3.5045364345e-01	 1.7415570187e+00	 7.0305568175e-01
 3.3490806312e-01	 1.7446131668e+00	 7.7254758875e-01
 3.1937840101e-01	 1.7475227790e+00	 8.8131901384e-01
 3.0386653752e-01	 1.7502866845e+00	 1.0306525802e+00
 4.6183772338e-01	 1.7245200450e+00	 1.2318389982e+00
 4.4615790201e-01	 1.7286429875e+00	 1.0642947086e+00
 4.3048017954e-01	 1.7326136976e+00	 9.2268889092e-01
 4.1480660939e-01	 1.7364327874e+00	 8.0979686992e-01
 3.9913922329e-01	 1.7401009027e+00	 7.2821193359e-01
 3.8348003074e-01	 1.7436187224e+00	 6.8034279680e-01
 3.6783101836e-01	 1.7469869577e+00	 6.6838188548e-01
 3.5219414932e-01	 1.7502063516e+00	 6.9306537425e-01
 3.3657136285e-01	 1.7532776779e+00	 7.5584246455e-01
 3.2096457366e-01	 1.7562017405e+00	 8.5874059659e-01
 3.0537567148e-01	 1.7589793727e+00	 1.0035522067e+00
 4.6412008643e-01	 1.7330424775e+00	 1.2731541900e+00
 4.4836277670e-01	 1.7371857953e+00	 1.1104966428e+00
 4.3260757626e-01	 1.7411761283e+00	 9.6894343008e-01
 4.1685654864e-01	 1.7450140917e+00	 8.5224661743e-01
 4.0111173565e-01	 1.7487003345e+00	 7.6392990978e-01
 3.8537515669e-01	 1.7522355389e+00	 7.0728600058e-01
 3.6964880820e-01	 1.7556204198e+00	 6.8537139671e-01
 3.5393466308e-01	 1.7588557237e+00	 6.9965433908e-01
 3.3823467012e-01	 1.7619422282e+00	 7.5185585202e-01
 3.2255075349e-01	 1.7648807413e+00	 8.4465803352e-01
 3.0688481227e-01	 1.7676721003e+00	 9.8045882801e-01
 2.9179350692e-01	 1.6807454153e+00	 1.3814576003e+00
 2.7691429682e-01	 1.6832608288e+00	 1.3747087100e+00
 2.6205572732e-01	 1.6856379504e+00	 1.3619555403e+00
 2.4721953454e-01	 1.6878776557e+00	 1.3449411826e+00
 2.3240742898e-01	 1.6899808451e+00	 1.3249838670e+00
 2.1762109510e-01	 1.6919484436e+00	 1.3029897457e+00
 2.0286219106e-01	 1.6937814001e+00	 1.2794659899e+00
 1.8813234834e-01	 1.6954806859e+00	 1.2545341563e+00
 1.7343317150e-01	 1.6970472951e+00	 1.2279437780e+00
 1.5876623785e-01	 1.6984822427e+00	 1.1990861387e+00
 1.4413309728e-01	 1.6997865649e+00	 1.1670081909e+00
 2.9330264772e-01	 1.6894381429e+00	 1.3252893616e+00
 2.7834648312e-01	 1.6919665660e+00	 1.3598116439e+00
 2.6341106587e-01	 1.6943559820e+00	 1.3820539800e+00
 2.4849814108e-01	 1.6966072709e+00	 1.3936969801e+00
 2.3360942808e-01	 1.6987213379e+00	 1.3960618142e+00
 2.1874662005e-01	 1.7006991127e+00	 1.3901217040e+00
 2.0391138373e-01	 1.7025415491e+00	 1.3765136753e+00
 1.8910535904e-01	 1.7042496236e+00	 1.3555505258e+00
 1.7433015881e-01	 1.7058243352e+00	 1.3272329685e+00
 1.5958736855e-01	 1.7072667043e+00	 1.2912619117e+00
 1.4487854614e-01	 1.7085777723e+00	 1.2470508402e+00
 2.9481178167e-01	 1.6981308311e+00	 1.2725034897e+00
 2.7977866292e-01	 1.7006722637e+00	 1.3418941169e+00
 2.6476639828e-01	 1.7030739740e+00	 1.3942131726e+00
 2.4977674182e-01	 1.7053368465e+00	 1.4309990071e+00
 2.3481142173e-01	 1.7074617910e+00	 1.4534914235e+00
 2.1987213991e-01	 1.7094497422e+00	 1.4626420833e+00
 2.0496057165e-01	 1.7113016584e+00	 1.4591251155e+00
 1.9007836532e-01	 1.7130185215e+00	 1.4433478901e+00
 1.7522714206e-01	 1.7146013355e+00	 1.4154619166e+00
 1.6040849553e-01	 1.7160511260e+00	 1.3753738322e+00
 1.4562399163e-01	 1.7173689399e+00	 1.3227564470e+00
 2.9632091050e-01	 1.7068234898e+00	 1.2231627894e+00
 2.8121083786e-01	 1.7093779318e+00	 1.3213160320e+00
 2.6612172608e-01	 1.7117919364e+00	 1.3989939225e+00
 2.5105533822e-01	 1.7140663924e+00	 1.4575141910e+00
 2.3601341129e-01	 1.7162022144e+00	 1.4979524345e+00
 2.2099765593e-01	 1.7182003418e+00	 1.5211516365e+00
 2.0600975600e-01	 1.7200617380e+00	 1.5277318353e+00
 1.9105136829e-01	 1.7217873896e+00	 1.5180999043e+00
 1.7612412227e-01	 1.7233783059e+00	 1.4924594060e+00
 1.6122961972e-01	 1.7248355179e+00	 1.4508204898e+00
 1.4636943457e-01	 1.7261600776e+00	 1.3930098007e+00
 2.9783003590e-01	 1.7155161287e+00	 1.1773347191e+00
 2.8264300955e-01	 1.7180835802e+00	 1.2984359365e+00
 2.6747705081e-01	 1.7205098790e+00	 1.3969515832e+00
 2.5233393171e-01	 1.7227959186e+00	 1.4739017985e+00
 2.3721539814e-01	 1.7249426181e+00	 1.5301165700e+00
 2.2212316940e-01	 1.7269509217e+00	 1.5662445670e+00
 2.0705893797e-01	 1.7288217977e+00	 1.5827620685e+00
 1.9202436906e-01	 1.7305562378e+00	 1.5799819483e+00
 1.7702110044e-01	 1.7321552565e+00	 1.5580626860e+00
 1.6205074205e-01	 1.7336198899e+00	 1.5170173718e+00
 1.4711487583e-01	 1.7349511954e+00	 1.4567226763e+00
 2.9933915960e-01	 1.7242087578e+00	 1.1350912430e+00
 2.8407517962e-01	 1.7267892188e+00	 1.2736110384e+00
 2.6883237400e-01	 1.7292278118e+00	 1.3886361891e+00
 2.5361252376e-01	 1.7315254348e+00	 1.4808136331e+00
 2.3841738361e-01	 1.7336830118e+00	 1.5506477518e+00
 2.2324868160e-01	 1.7357014916e+00	 1.5985087156e+00
 2.0810811875e-01	 1.7375818474e+00	 1.6246408682e+00
 1.9299736873e-01	 1.7393250761e+00	 1.6291711170e+00
 1.7791807759e-01	 1.7409321971e+00	 1.6121172966e+00
 1.6287186345e-01	 1.7424042519e+00	 1.5733964783e+00
 1.4786031625e-01	 1.7437423032e+00	 1.5128331977e+00
 3.0084828329e-01	 1.7329013869e+00	 1.0965086865e+00
 2.8550734969e-01	 1.7354948573e+00	 1.2471972210e+00
 2.7018769720e-01	 1.7379457445e+00	 1.3745925813e+00
 2.5489111581e-01	 1.7402549511e+00	 1.4788942252e+00
 2.3961936909e-01	 1.7424234055e+00	 1.5602023088e+00
 2.2437419380e-01	 1.7444520615e+00	 1.6185257395e+00
 2.0915729953e-01	 1.7463418972e+00	 1.6537902142e+00
 1.9397036840e-01	 1.7480939144e+00	 1.6658462100e+00
 1.7881505474e-01	 1.7497091377e+00	 1.6544768974e+00
 1.6369298484e-01	 1.7511886139e+00	 1.6194059489e+00
 1.4860575666e-01	 1.7525334110e+00	 1.5603052191e+00
 3.0235740870e-01	 1.7415940259e+00	 1.0616675924e+00
 2.8693952138e-01	 1.7442005057e+00	 1.2195490546e+00
 2.7154302193e-01	 1.7466636871e+00	 1.3553605273e+00
 2.5616970931e-01	 1.7489844772e+00	 1.4687810144e+00
 2.4082135594e-01	 1.7511638091e+00	 1.5594291764e+00
 2.2549970728e-01	 1.7532026413e+00	 1.6268712859e+00
 2.1020648150e-01	 1.7551019569e+00	 1.6706291151e+00
 1.9494336917e-01	 1.7568627626e+00	 1.6901877205e+00
 1.7971203291e-01	 1.7584860883e+00	 1.6850031010e+00
 1.6451410717e-01	 1.7599729859e+00	 1.6545096989e+00
 1.4935119792e-01	 1.7613245288e+00	 1.5981277250e+00
 3.0386653752e-01	 1.7502866845e+00	 1.0306525802e+00
 2.8837169632e-01	 1.7529061738e+00	 1.1910198054e+00
 2.7289834973e-01	 1.7553816495e+00	 1.3314748358e+00
 2.5744830570e-01	 1.7577140231e+00	 1.4511045251e+00
 2.4202334550e-01	 1.7599042326e+00	 1.5489700891e+00
 2.2662522330e-01	 1.7619532410e+00	 1.6241151586e+00
 2.1125566585e-01	 1.7638620365e+00	 1.6755737067e+00
 1.9591637214e-01	 1.7656316307e+00	 1.7023778240e+00
 1.8060901311e-01	 1.7672630587e+00	 1.7035653114e+00
 1.6533523136e-01	 1.7687573777e+00	 1.6781870671e+00
 1.5009664087e-01	 1.7701156665e+00	 1.6253142474e+00
 3.0537567148e-01	 1.7589793727e+00	 1.0035522067e+00
 2.8980387613e-01	 1.7616118716e+00	 1.1619614426e+00
 2.7425368214e-01	 1.7640996415e+00	 1.3034654660e+00
 2.5872690644e-01	 1.7664435988e+00	 1.4264885347e+00
 2.4322533915e-01	 1.7686446857e+00	 1.5294597662e+00
 2.2775074315e-01	 1.7707038704e+00	 1.6108214775e+00
 2.1230485376e-01	 1.7726221458e+00	 1.6690373462e+00
 1.9688937842e-01	 1.7744005286e+00	 1.7026003657e+00
 1.8150599636e-01	 1.7760400590e+00	 1.7100405651e+00
 1.6615635834e-01	 1.7775417995e+00	 1.6899324723e+00
 1.5084208636e-01	 1.7789068341e+00	 1.6409022998e+00
 3.0688481227e-01	 1.7676721003e+00	 9.8045882801e-01
 2.9123606242e-01	 1.7703176088e+00	 1.1327246426e+00
 2.7560902069e-01	 1.7728176731e+00	 1.2718576310e+00
 2.6000551298e-01	 1.7751732139e+00	 1.3955502356e+00
 2.4442733825e-01	 1.7773851785e+00	 1.5015260895e+00
 2.2887626810e-01	 1.7794545395e+00	 1.5875488337e+00
 2.1335404644e-01	 1.7813822948e+00	 1.6514307025e+00
 1.9786238912e-01	 1.7831694663e+00	 1.6910408480e+00
 1.8240298368e-01	 1.7848170991e+00	 1.7043133774e+00
 1.6697748904e-01	 1.7863262610e+00	 1.6892550804e+00
 1.5158753522e-01	 1.7876980416e+00	 1.6439528279e+00
 1.4413309728e-01	 1.6997865649e+00	 1.1670081909e+00
 1.2953774452e-01	 1.7009611285e+00	 1.1395789927e+00
 1.1497915452e-01	 1.7020072407e+00	 1.1254682203e+00
 1.0045875955e-01	 1.7029259940e+00	 1.1247909929e+00
 8.5977964604e-02	 1.7037184986e+00	 1.1377966363e+00
 7.1538147186e-02	 1.7043858817e+00	 1.1648700838e+00
 5.7140657235e-02	 1.7049292867e+00	 1.2065330409e+00
 4.2786816999e-02	 1.7053498724e+00	 1.2634449137e+00
 2.8477920947e-02	 1.7056488125e+00	 1.3364035020e+00
 1.4215235706e-02	 1.7058272945e+00	 1.4263454593e+00
 0.0000000000e+00	 1.7058865195e+00	 1.5343465235e+00
 1.4487854614e-01	 1.7085777723e+00	 1.2470508402e+00
 1.3020770698e-01	 1.7097584107e+00	 1.2061459382e+00
 1.1557382071e-01	 1.7108099334e+00	 1.1799716126e+00
 1.0097832702e-01	 1.7117334384e+00	 1.1676265725e+00
 8.6422638153e-02	 1.7125300418e+00	 1.1682814178e+00
 7.1908138752e-02	 1.7132008766e+00	 1.1811829521e+00
 5.7436185734e-02	 1.7137470921e+00	 1.2056582534e+00
 4.3008108185e-02	 1.7141698530e+00	 1.2411184991e+00
 2.8625207270e-02	 1.7144703392e+00	 1.2870625425e+00
 1.4288756164e-02	 1.7146497443e+00	 1.3430802387e+00
 0.0000000000e+00	 1.7147092756e+00	 1.4088555207e+00
 1.4562399163e-01	 1.7173689399e+00	 1.3227564470e+00
 1.3087766640e-01	 1.7185556531e+00	 1.2716510849e+00
 1.1616848420e-01	 1.7196125861e+00	 1.2353254170e+00
 1.0149789213e-01	 1.7205408429e+00	 1.2121616266e+00
 8.6867309687e-02	 1.7213415451e+00	 1.2005586956e+00
 7.2278128642e-02	 1.7220158315e+00	 1.1989390899e+00
 5.7731712894e-02	 1.7225648574e+00	 1.2057552030e+00
 4.3229398368e-02	 1.7229897936e+00	 1.2194955503e+00
 2.8772492924e-02	 1.7232918259e+00	 1.2386907058e+00
 1.4362276288e-02	 1.7234721541e+00	 1.2619189798e+00
 0.0000000000e+00	 1.7235319917e+00	 1.2878118326e+00
 1.4636943457e-01	 1.7261600776e+00	 1.3930098007e+00
 1.3154762354e-01	 1.7273528655e+00	 1.3345274517e+00
 1.1676314568e-01	 1.7284152090e+00	 1.2897137421e+00
 1.0201745547e-01	 1.7293482174e+00	 1.2565289838e+00
 8.7311979709e-02	 1.7301530184e+00	 1.2329023549e+00
 7.2648117275e-02	 1.7308307565e+00	 1.2167404265e+00
 5.8027239050e-02	 1.7313825928e+00	 1.2059354495e+00
 4.3450687800e-02	 1.7318097042e+00	 1.1983733938e+00
 2.8919778079e-02	 1.7321132826e+00	 1.1919417298e+00
 1.4435796163e-02	 1.7322945339e+00	 1.1845369466e+00
 0.0000000000e+00	 1.7323546778e+00	 1.1740717995e+00
 1.4711487583e-01	 1.7349511954e+00	 1.4567226763e+00
 1.3221757917e-01	 1.7361500580e+00	 1.3932438354e+00
 1.1735780580e-01	 1.7372178118e+00	 1.3413611161e+00
 1.0253701764e-01	 1.7381555720e+00	 1.2989024850e+00
 8.7756648724e-02	 1.7389644717e+00	 1.2636239448e+00
 7.3018105069e-02	 1.7396456614e+00	 1.2332193715e+00
 5.8322764537e-02	 1.7402003082e+00	 1.2053301211e+00
 4.3671976730e-02	 1.7406295949e+00	 1.1775543953e+00
 2.9067062899e-02	 1.7409347193e+00	 1.1474563546e+00
 1.4509315872e-02	 1.7411168937e+00	 1.1125749704e+00
 0.0000000000e+00	 1.7411773439e+00	 1.0704326088e+00
 1.4786031625e-01	 1.7437423032e+00	 1.5128331977e+00
 1.3288753404e-01	 1.7449472406e+00	 1.4463039538e+00
 1.1795246526e-01	 1.7460204047e+00	 1.3885315109e+00
 1.0305657922e-01	 1.7469629166e+00	 1.3374959921e+00
 8.8201317235e-02	 1.7477759150e+00	 1.2910717682e+00
 7.3388092444e-02	 1.7484605564e+00	 1.2470380813e+00
 5.8618289688e-02	 1.7490180136e+00	 1.2030894522e+00
 4.3893265410e-02	 1.7494494755e+00	 1.1568458576e+00
 2.9214347553e-02	 1.7497561460e+00	 1.1058626666e+00
 1.4582835497e-02	 1.7499392435e+00	 1.0476403256e+00
 0.0000000000e+00	 1.7500000000e+00	 9.7963378345e-01
 1.4860575666e-01	 1.7525334110e+00	 1.5603052191e+00
 1.3355748891e-01	 1.7537444231e+00	 1.4922456124e+00
 1.1854712471e-01	 1.7548229977e+00	 1.4295273965e+00
 1.0357614080e-01	 1.7557702612e+00	 1.3705624260e+00
 8.8645985747e-02	 1.7565873584e+00	 1.3136299996e+00
 7.3758079819e-02	 1.7572754514e+00	 1.2568877499e+00
 5.8913814840e-02	 1.7578357190e+00	 1.1983823354e+00
 4.4114554089e-02	 1.7582693561e+00	 1.1360599210e+00
 2.9361632207e-02	 1.7585775727e+00	 1.0677764329e+00
 1.4656355122e-02	 1.7587615933e+00	 9.9130757905e-01
 0.0000000000e+00	 1.7588226561e+00	 9.0435862489e-01
 1.4935119792e-01	 1.7613245288e+00	 1.5981277250e+00
 1.3422744453e-01	 1.7625416156e+00	 1.5296398974e+00
 1.1914178483e-01	 1.7636256005e+00	 1.4626888232e+00
 1.0409570297e-01	 1.7645776158e+00	 1.3963928341e+00
 8.9090654762e-02	 1.7653988117e+00	 1.3297178297e+00
 7.4128067613e-02	 1.7660903563e+00	 1.2614879189e+00
 5.9209340326e-02	 1.7666534344e+00	 1.1903958858e+00
 4.4335843020e-02	 1.7670892468e+00	 1.1150134666e+00
 2.9508917028e-02	 1.7673990094e+00	 1.0338014249e+00
 1.4729874830e-02	 1.7675839531e+00	 9.4511941307e-01
 0.0000000000e+00	 1.7676453222e+00	 8.4723561297e-01
 1.5009664087e-01	 1.7701156665e+00	 1.6253142474e+00
 1.3489740168e-01	 1.7713388280e+00	 1.5570903915e+00
 1.1973644631e-01	 1.7724282234e+00	 1.4863925311e+00
 1.0461526631e-01	 1.7733849903e+00	 1.4133154845e+00
 8.9535324784e-02	 1.7742102850e+00	 1.3377886345e+00
 7.4498056245e-02	 1.7749052813e+00	 1.2595858100e+00
 5.9504866482e-02	 1.7754711698e+00	 1.1783350195e+00
 4.4557132451e-02	 1.7759091574e+00	 1.0935280234e+00
 2.9656202182e-02	 1.7762204661e+00	 1.0045297330e+00
 1.4803394705e-02	 1.7764063329e+00	 9.1058742480e-01
 0.0000000000e+00	 1.7764680083e+00	 8.1083976348e-01
 1.5084208636e-01	 1.7789068341e+00	 1.6409022998e+00
 1.3556736110e-01	 1.7801360704e+00	 1.5732324132e+00
 1.2033110980e-01	 1.7812308761e+00	 1.4990510860e+00
 1.0513483142e-01	 1.7821923948e+00	 1.4196949882e+00
 8.9979996318e-02	 1.7830217883e+00	 1.3363291699e+00
 7.4868046135e-02	 1.7837202362e+00	 1.2499556759e+00
 5.9800393642e-02	 1.7842889352e+00	 1.1614220442e+00
 4.4778422635e-02	 1.7847290980e+00	 1.0714296767e+00
 2.9803487837e-02	 1.7850419528e+00	 9.8054207078e-01
 1.4876914830e-02	 1.7852287427e+00	 8.8919290088e-01
 0.0000000000e+00	 1.7852907244e+00	 7.9769394522e-01
 1.5158753522e-01	 1.7876980416e+00	 1.6439528279e+00
 1.3623732356e-01	 1.7889333526e+00	 1.5767322782e+00
 1.2092577599e-01	 1.7900335688e+00	 1.4991120402e+00
 1.0565439889e-01	 1.7909998392e+00	 1.4139314463e+00
 9.0424669867e-02	 1.7918333315e+00	 1.3238587901e+00
 7.5238037701e-02	 1.7925352311e+00	 1.2313981713e+00
 6.0095922142e-02	 1.7931067405e+00	 1.1388962616e+00
 4.4999713821e-02	 1.7935490786e+00	 1.0485489806e+00
 2.9950774159e-02	 1.7938634795e+00	 9.6240807140e-01
 1.4950435288e-02	 1.7940511925e+00	 8.8238756945e-01
 0.0000000000e+00	 1.7941134805e+00	 8.1027015793e-01
 1.7941134805e+00	 0.0000000000e+00	 7.2492856683e+00
 1.7940511925e+00	 1.4950435288e-02	 2.6981442967e+00
 1.7938634795e+00	 2.9950774159e-02	-6.2381178579e-01
 1.7935490786e+00	 4.4999713821e-02	-2.8728477118e+00
 1.7931067405e+00	 6.0095922142e-02	-4.2101016603e+00
 1.7925352311e+00	 7.5238037701e-02	-4.8014715435e+00
 1.7918333315e+00	 9.0424669867e-02	-4.8174940676e+00
 1.7909998392e+00	 1.0565439889e-01	-4.4332164158e+00
 1.7900335688e+00	 1.2092577599e-01	-3.8280608118e+00
 1.7889333526e+00	 1.3623732356e-01	-3.1856822331e+00
 1.7876980416e+00	 1.5158753522e-01	-2.6938195543e+00
 1.8029377841e+00	 0.0000000000e+00	 1.3302196471e+01
 1.8028751897e+00	 1.5023968640e-02	 6.9142625404e+00
 1.8026865534e+00	 3.0098086314e-02	 2.1864073997e+00
 1.8023706061e+00	 4.5221043820e-02	-1.0965970595e+00
 1.8019260924e+00	 6.0391502475e-02	-3.1547589020e+00
 1.8013517720e+00	 7.5608094162e-02	-4.2126731310e+00
 1.8006464202e+00	 9.0869421409e-02	-4.4993192764e+00
 1.7998088284e+00	 1.0617405748e-01	-4.2478499209e+00
 1.7988378054e+00	 1.2152054649e-01	-3.6953705079e+00
 1.7977321778e+00	 1.3690740352e-01	-3.0827107970e+00
 1.7964907909e+00	 1.5233311483e-01	-2.6541883422e+00
 1.8117621326e+00	 0.0000000000e+00	 1.8595263251e+01
 1.8116992318e+00	 1.5097502368e-02	 1.0620902295e+01
 1.8115096724e+00	 3.0245399219e-02	 4.6630458135e+00
 1.8111921787e+00	 4.5442374947e-02	 4.6019512053e-01
 1.8107454893e+00	 6.0687084314e-02	-2.2538169188e+00
 1.8101683580e+00	 7.5978152509e-02	-3.7495681543e+00
 1.8094595538e+00	 9.1314175218e-02	-4.3017786591e+00
 1.8086178625e+00	 1.0669371872e-01	-4.1890318793e+00
 1.8076420869e+00	 1.2211532001e-01	-3.6934858476e+00
 1.8065310479e+00	 1.3757748691e-01	-3.1005749038e+00
 1.8052835851e+00	 1.5307869824e-01	-2.6987023854e+00
 1.8205865212e+00	 0.0000000000e+00	 2.3052162101e+01
 1.8205233140e+00	 1.5171036428e-02	 1.3765438657e+01
 1.8203328313e+00	 3.0392712793e-02	 6.7744828218e+00
 1.8200137912e+00	 4.5663707077e-02	 1.7840216160e+00
 1.8195649262e+00	 6.0982667494e-02	-1.5057568295e+00
 1.8189849839e+00	 7.6348212533e-02	-3.3988956883e+00
 1.8182727274e+00	 9.1758931044e-02	-4.2033501228e+00
 1.8174269365e+00	 1.0721338232e-01	-4.2306567031e+00
 1.8164464083e+00	 1.2271009623e-01	-3.7955920444e+00
 1.8153299579e+00	 1.3824757333e-01	-3.2158211757e+00
 1.8140764192e+00	 1.5382428503e-01	-2.8115361709e+00
 1.8294109448e+00	 0.0000000000e+00	 2.6598006913e+01
 1.8293474312e+00	 1.5244570780e-02	 1.6296238749e+01
 1.8291560252e+00	 3.0540026950e-02	 8.4896949241e+00
 1.8288354387e+00	 4.5885040085e-02	 2.8616321358e+00
 1.8283843981e+00	 6.1278251845e-02	-9.0908456636e-01
 1.8278016448e+00	 7.6718274025e-02	-3.1476390711e+00
 1.8270859360e+00	 9.2203688633e-02	-4.1829091934e+00
 1.8262360455e+00	 1.0773304798e-01	-4.3470998710e+00
 1.8252507647e+00	 1.2330487481e-01	-3.9753651090e+00
 1.8241289028e+00	 1.3891766241e-01	-3.4054192364e+00
 1.8228692882e+00	 1.5456987478e-01	-2.9771380664e+00
 1.8382353983e+00	 0.0000000000e+00	 2.9159314817e+01
 1.8381715784e+00	 1.5318105382e-02	 1.8162637971e+01
 1.8379792491e+00	 3.0687341608e-02	 9.7782415857e+00
 1.8376571162e+00	 4.6106373845e-02	 3.6800273809e+00
 1.8372039000e+00	 6.1573837201e-02	-4.6232999196e-01
 1.8366183356e+00	 7.7088336774e-02	-2.9830197273e+00
 1.8358991745e+00	 9.2648447734e-02	-4.2197191521e+00
 1.8350451845e+00	 1.0825271541e-01	-4.5132060786e+00
 1.8340551510e+00	 1.2389965541e-01	-4.2069598013e+00
 1.8329278776e+00	 1.3958775376e-01	-3.6467513469e+00
 1.8316621870e+00	 1.5531546706e-01	-3.1802236084e+00
 1.8470598769e+00	 0.0000000000e+00	 3.0663972603e+01
 1.8469957507e+00	 1.5391640192e-02	 1.9314916944e+01
 1.8468024981e+00	 3.0834656683e-02	 1.0610251474e+01
 1.8464788188e+00	 4.6327708232e-02	 4.2264532835e+00
 1.8460234268e+00	 6.1869423394e-02	-1.6404604368e-01
 1.8454350515e+00	 7.7458400572e-02	-2.8924911696e+00
 1.8447124380e+00	 9.3093208094e-02	-4.2934214580e+00
 1.8438543484e+00	 1.0877238431e-01	-4.7042777308e+00
 1.8428595622e+00	 1.2449443770e-01	-4.4649979329e+00
 1.8417268773e+00	 1.4025784702e-01	-3.9176023429e+00
 1.8404551108e+00	 1.5606106146e-01	-3.4057689910e+00
 1.8558843755e+00	 0.0000000000e+00	 3.1049969013e+01
 1.8558199429e+00	 1.5465175169e-02	 1.9712352287e+01
 1.8556257670e+00	 3.0981972092e-02	 1.0963327332e+01
 1.8553005413e+00	 4.6549043120e-02	 4.4938447453e+00
 1.8548429736e+00	 6.2165010257e-02	-8.9607216389e-03
 1.8542517873e+00	 7.7828465208e-02	-2.8614237135e+00
 1.8535257214e+00	 9.3537969462e-02	-4.3829900541e+00
 1.8526635322e+00	 1.0929205438e-01	-4.8958468201e+00
 1.8516639934e+00	 1.2508922133e-01	-4.7245570070e+00
 1.8505258970e+00	 1.4092794179e-01	-4.1961498664e+00
 1.8492480545e+00	 1.5680665754e-01	-3.6390047473e+00
 1.8647088891e+00	 0.0000000000e+00	 3.0312507214e+01
 1.8646441501e+00	 1.5538710271e-02	 1.9368413897e+01
 1.8644490509e+00	 3.1129287751e-02	 1.0866536761e+01
 1.8641222788e+00	 4.6770378385e-02	 4.5239302965e+00
 1.8636625355e+00	 6.2460597622e-02	 5.4050813244e-02
 1.8630685381e+00	 7.8198530473e-02	-2.8329234981e+00
 1.8623390199e+00	 9.3982731586e-02	-4.4297616760e+00
 1.8614727311e+00	 1.0981172534e-01	-5.0318383070e+00
 1.8604684395e+00	 1.2568400597e-01	-4.9367811100e+00
 1.8593249316e+00	 1.4159803770e-01	-4.4441078550e+00
 1.8580410131e+00	 1.5755225489e-01	-3.8548527016e+00
 1.8735334126e+00	 0.0000000000e+00	 2.8398437521e+01
 1.8734683673e+00	 1.5612245456e-02	 1.8250450444e+01
 1.8732723448e+00	 3.1276603577e-02	 1.0305932939e+01
 1.8729440263e+00	 4.6991713900e-02	 4.3194755382e+00
 1.8724821073e+00	 6.2756185322e-02	 4.2303182136e-02
 1.8718852989e+00	 7.8568596157e-02	-2.7774454347e+00
 1.8711523283e+00	 9.4427494214e-02	-4.3944290028e+00
 1.8702819399e+00	 1.1033139689e-01	-5.0658052304e+00
 1.8692728957e+00	 1.2627879129e-01	-5.0509229892e+00
 1.8681239762e+00	 1.4226813437e-01	-4.6110050038e+00
 1.8668339817e+00	 1.5829785309e-01	-4.0088211266e+00
 1.8823579412e+00	 0.0000000000e+00	 2.5243214506e+01
 1.8822925895e+00	 1.5685780682e-02	 1.6314300136e+01
 1.8820956438e+00	 3.1423919486e-02	 9.2553913199e+00
 1.8817657788e+00	 4.7213049540e-02	 3.8698767763e+00
 1.8813016841e+00	 6.3051773189e-02	-4.1973231096e-02
 1.8807020647e+00	 7.8938662051e-02	-2.6827824751e+00
 1.8799656418e+00	 9.4872257094e-02	-4.2578365226e+00
 1.8790911537e+00	 1.1085106873e-01	-4.9748426346e+00
 1.8780773568e+00	 1.2687357695e-01	-5.0436817792e+00
 1.8769230258e+00	 1.4293823142e-01	-4.6761527356e+00
 1.8756269553e+00	 1.5904345171e-01	-4.0857082728e+00
 1.7876980416e+00	 1.5158753522e-01	-2.6938195543e+00
 1.7863262610e+00	 1.6697748904e-01	-2.4456625619e+00
 1.7848170991e+00	 1.8240298368e-01	-2.3767282678e+00
 1.7831694663e+00	 1.9786238912e-01	-2.4400116071e+00
 1.7813822948e+00	 2.1335404644e-01	-2.5871442208e+00
 1.7794545395e+00	 2.2887626810e-01	-2.7684033618e+00
 1.7773851785e+00	 2.4442733825e-01	-2.9327263415e+00
 1.7751732139e+00	 2.6000551298e-01	-3.0277307750e+00
 1.7728176731e+00	 2.7560902069e-01	-2.9997408572e+00
 1.7703176088e+00	 2.9123606242e-01	-2.7938198617e+00
 1.7676721003e+00	 3.0688481227e-01	-2.3538090228e+00
 1.7964907909e+00	 1.5233311483e-01	-2.6541883422e+00
 1.7951122633e+00	 1.6779876376e-01	-2.5358598657e+00
 1.7935956786e+00	 1.8330012833e-01	-2.6451169331e+00
 1.7919399420e+00	 1.9883557047e-01	-2.9147727523e+00
 1.7901439804e+00	 2.1440342313e-01	-3.2765391238e+00
 1.7882067434e+00	 2.3000199047e-01	-3.6610664269e+00
 1.7861272043e+00	 2.4562954817e-01	-3.9979897666e+00
 1.7839043603e+00	 2.6128434378e-01	-4.2159815193e+00
 1.7815372337e+00	 2.7696459696e-01	-4.2428104776e+00
 1.7790248729e+00	 2.9266849992e-01	-4.0054077616e+00
 1.7763663526e+00	 3.0839421776e-01	-3.4299396203e+00
 1.8052835851e+00	 1.5307869824e-01	-2.6987023854e+00
 1.8038983104e+00	 1.6862004267e-01	-2.6518057881e+00
 1.8023743029e+00	 1.8419727754e-01	-2.8756039524e+00
 1.8007104624e+00	 1.9980875679e-01	-3.2874043604e+00
 1.7989057106e+00	 2.1545280517e-01	-3.8036295546e+00
 1.7969589920e+00	 2.3112771857e-01	-4.3398814486e+00
 1.7948692747e+00	 2.4683176423e-01	-4.8110123312e+00
 1.7926355511e+00	 2.6256318109e-01	-5.1312027838e+00
 1.7902568388e+00	 2.7832018014e-01	-5.2140466934e+00
 1.7877321814e+00	 2.9410094472e-01	-4.9726435084e+00
 1.7850606492e+00	 3.0990363095e-01	-4.3196978366e+00
 1.8140764192e+00	 1.5382428503e-01	-2.8115361709e+00
 1.8126843974e+00	 1.6944132531e-01	-2.7867337784e+00
 1.8111529670e+00	 1.8509443083e-01	-3.0688965246e+00
 1.8094810226e+00	 2.0078194751e-01	-3.5644313107e+00
 1.8076674805e+00	 2.1650219197e-01	-4.1790313764e+00
 1.8057112802e+00	 2.3225345178e-01	-4.8177582352e+00
 1.8036113847e+00	 2.4803398573e-01	-5.3851307454e+00
 1.8013667815e+00	 2.6384202421e-01	-5.7852215267e+00
 1.7989764835e+00	 2.7967576947e-01	-5.9217608974e+00
 1.7964395295e+00	 2.9553339601e-01	-5.6982484642e+00
 1.7937549852e+00	 3.1141305098e-01	-5.0180724519e+00
 1.8228692882e+00	 1.5456987478e-01	-2.9771380664e+00
 1.8214705192e+00	 1.7026261120e-01	-2.9339754081e+00
 1.8199316659e+00	 1.8599158767e-01	-3.2256557855e+00
 1.8182516175e+00	 2.0175514210e-01	-3.7522211916e+00
 1.8164292852e+00	 2.1755158294e-01	-4.4131262693e+00
 1.8144636031e+00	 2.3337918945e-01	-5.1073312243e+00
 1.8123535294e+00	 2.4923621200e-01	-5.7334022249e+00
 1.8100980466e+00	 2.6512087240e-01	-6.1896195010e+00
 1.8076961627e+00	 2.8103136417e-01	-6.3740933156e+00
 1.8051469120e+00	 2.9696585299e-01	-6.1848879355e+00
 1.8024493558e+00	 3.1292247700e-01	-5.5201536838e+00
 1.8316621870e+00	 1.5531546706e-01	-3.1802236084e+00
 1.8302566708e+00	 1.7108389988e-01	-3.0869579705e+00
 1.8287103947e+00	 1.8688874757e-01	-3.3464979802e+00
 1.8270222423e+00	 2.0272834000e-01	-3.8569882747e+00
 1.8251911197e+00	 2.1860097747e-01	-4.5160677030e+00
 1.8232159558e+00	 2.3450493095e-01	-5.2209666175e+00
 1.8210957038e+00	 2.5043844236e-01	-5.8686119193e+00
 1.8188293413e+00	 2.6639972493e-01	-6.3557400752e+00
 1.8164158716e+00	 2.8238696349e-01	-6.5790182877e+00
 1.8138543242e+00	 2.9839831483e-01	-6.4351739487e+00
 1.8111437558e+00	 3.1443190815e-01	-5.8211324629e+00
 1.8404551108e+00	 1.5606106146e-01	-3.4057689910e+00
 1.8390428474e+00	 1.7190519089e-01	-3.2392021589e+00
 1.8374891483e+00	 1.8778591000e-01	-3.4319956139e+00
 1.8357928920e+00	 2.0370154065e-01	-3.8847973907e+00
 1.8339529790e+00	 2.1965037497e-01	-4.4977867556e+00
 1.8319683333e+00	 2.3563067564e-01	-5.1707693307e+00
 1.8298379030e+00	 2.5164067613e-01	-5.8032801500e+00
 1.8275606608e+00	 2.6767858109e-01	-6.2946948839e+00
 1.8251356052e+00	 2.8374256664e-01	-6.5443494243e+00
 1.8225617610e+00	 2.9983078073e-01	-6.4516679777e+00
 1.8198381805e+00	 3.1594134357e-01	-5.9162997623e+00
 1.8492480545e+00	 1.5680665754e-01	-3.6390047473e+00
 1.8478290439e+00	 1.7272648376e-01	-3.3843198209e+00
 1.8462679219e+00	 1.8868307447e-01	-3.4826785828e+00
 1.8445635615e+00	 2.0467474351e-01	-3.8415677083e+00
 1.8427148581e+00	 2.2069977486e-01	-4.3679977839e+00
 1.8407207307e+00	 2.3675642288e-01	-4.9685897656e+00
 1.8385801220e+00	 2.5284291262e-01	-5.5496694639e+00
 1.8362920001e+00	 2.6895744015e-01	-6.0173703136e+00
 1.8338553585e+00	 2.8509817287e-01	-6.2777446448e+00
 1.8312692176e+00	 3.0126324989e-01	-6.2368836237e+00
 1.8285326250e+00	 3.1745078242e-01	-5.8010459800e+00
 1.8580410131e+00	 1.5755225489e-01	-3.8548527016e+00
 1.8566152553e+00	 1.7354777803e-01	-3.5103361780e+00
 1.8550467103e+00	 1.8958024046e-01	-3.4967387202e+00
 1.8533342459e+00	 2.0564794802e-01	-3.7326417877e+00
 1.8514767522e+00	 2.2174917652e-01	-4.1362039495e+00
 1.8494731429e+00	 2.3788217203e-01	-4.6260304095e+00
 1.8473223559e+00	 2.5404515116e-01	-5.1197915096e+00
 1.8450233542e+00	 2.7023630138e-01	-5.5344338299e+00
 1.8425751267e+00	 2.8645378140e-01	-5.7867111004e+00
 1.8399766890e+00	 3.0269572147e-01	-5.7932892496e+00
 1.8372270842e+00	 3.1896022383e-01	-5.4708603720e+00
 1.8668339817e+00	 1.5829785309e-01	-4.0088211266e+00
 1.8654014767e+00	 1.7436907323e-01	-3.5821013532e+00
 1.8638255088e+00	 1.9047740747e-01	-3.4491025476e+00
 1.8621049403e+00	 2.0662115364e-01	-3.5436286196e+00
 1.8602386562e+00	 2.2279857938e-01	-3.7989670076e+00
 1.8582255650e+00	 2.3900792246e-01	-4.1479316755e+00
 1.8560645997e+00	 2.5524739105e-01	-4.5229078576e+00
 1.8537547182e+00	 2.7151516407e-01	-4.8558983650e+00
 1.8512949048e+00	 2.8780939147e-01	-5.0786099852e+00
 1.8486841702e+00	 3.0412819468e-01	-5.1233105704e+00
 1.8459215532e+00	 3.2046966696e-01	-4.9213305348e+00
 1.8756269553e+00	 1.5904345171e-01	-4.0857082728e+00
 1.8741877030e+00	 1.7519036889e-01	-3.5902571985e+00
 1.8726043121e+00	 1.9137457499e-01	-3.3339887278e+00
 1.8708756396e+00	 2.0759435981e-01	-3.2700582243e+00
 1.8690005651e+00	 2.2384798283e-01	-3.3510011466e+00
 1.8669779921e+00	 2.4013367353e-01	-3.5287505302e+00
 1.8648068484e+00	 2.5644963163e-01	-3.7546556903e+00
 1.8624860872e+00	 2.7279402747e-01	-3.9795019756e+00
 1.8600146878e+00	 2.8916500231e-01	-4.1535313978e+00
 1.8573916564e+00	 3.0556066871e-01	-4.2264639684e+00
 1.8546160272e+00	 3.2197911094e-01	-4.1475195742e+00
 1.7676721003e+00	 3.0688481227e-01	-2.3538090228e+00
 1.7648807413e+00	 3.2255075349e-01	-1.7237484655e+00
 1.7619422282e+00	 3.3823467012e-01	-1.0157975475e+00
 1.7588557237e+00	 3.5393466308e-01	-2.7649801699e-01
 1.7556204198e+00	 3.6964880820e-01	 4.4611899782e-01
 1.7522355389e+00	 3.8537515669e-01	 1.1114846763e+00
 1.7487003345e+00	 4.0111173565e-01	 1.6817240889e+00
 1.7450140917e+00	 4.1685654864e-01	 2.1082378848e+00
 1.7411761283e+00	 4.3260757626e-01	 2.3411399310e+00
 1.7371857953e+00	 4.4836277670e-01	 2.3292872214e+00
 1.7330424775e+00	 4.6412008643e-01	 2.0202954687e+00
 1.7763663526e+00	 3.0839421776e-01	-3.4299396203e+00
 1.7735612643e+00	 3.2413721153e-01	-2.5577218560e+00
 1.7706082982e+00	 3.3989826912e-01	-1.5263605929e+00
 1.7675066128e+00	 3.5567548212e-01	-4.0722793310e-01
 1.7642553962e+00	 3.7146691688e-01	 7.2715726885e-01
 1.7608538668e+00	 3.8727061503e-01	 1.8109555392e+00
 1.7573012746e+00	 4.0308459397e-01	 2.7782088646e+00
 1.7535969011e+00	 4.1890684744e-01	 3.5571213401e+00
 1.7497400608e+00	 4.3473534610e-01	 4.0750606400e+00
 1.7457301014e+00	 4.5056803812e-01	 4.2586036255e+00
 1.7415664048e+00	 4.6640284979e-01	 4.0335892390e+00
 1.7850606492e+00	 3.0990363095e-01	-4.3196978366e+00
 1.7822418316e+00	 3.2572367766e-01	-3.2874927587e+00
 1.7792744124e+00	 3.4156187660e-01	-2.0261165147e+00
 1.7761575461e+00	 3.5741631003e-01	-6.2592100178e-01
 1.7728904166e+00	 3.7328503483e-01	 8.2194832630e-01
 1.7694722387e+00	 3.8916608304e-01	 2.2307470655e+00
 1.7659022585e+00	 4.0505746235e-01	 3.5135223436e+00
 1.7621797543e+00	 4.2095715670e-01	 4.5809271732e+00
 1.7583040369e+00	 4.3686312680e-01	 5.3431257128e+00
 1.7542744511e+00	 4.5277331079e-01	 5.7098669861e+00
 1.7500903756e+00	 4.6868562480e-01	 5.5905662098e+00
 1.7937549852e+00	 3.1141305098e-01	-5.0180724519e+00
 1.7909224383e+00	 3.2731015098e-01	-3.9000298150e+00
 1.7879405660e+00	 3.4322549163e-01	-2.4956818400e+00
 1.7848085185e+00	 3.5915714584e-01	-9.0859714532e-01
 1.7815254761e+00	 3.7510316102e-01	 7.5702046653e-01
 1.7780906496e+00	 3.9106155964e-01	 2.3982475262e+00
 1.7745032815e+00	 4.0703033968e-01	 3.9139417144e+00
 1.7707626464e+00	 4.2300747525e-01	 5.2027434717e+00
 1.7668680519e+00	 4.3899091715e-01	 6.1630709518e+00
 1.7628188395e+00	 4.5497859345e-01	 6.6932131129e+00
 1.7586143850e+00	 4.7096841015e-01	 6.6914306804e+00
 1.8024493558e+00	 3.1292247700e-01	-5.5201536838e+00
 1.7996030793e+00	 3.2889663060e-01	-4.3825671745e+00
 1.7966067538e+00	 3.4488911326e-01	-2.9160714891e+00
 1.7934595253e+00	 3.6089798855e-01	-1.2317746466e+00
 1.7901605699e+00	 3.7692129443e-01	 5.5833287919e-01
 1.7867090948e+00	 3.9295704375e-01	 2.3402781355e+00
 1.7831043386e+00	 4.0900322483e-01	 4.0051967478e+00
 1.7793455725e+00	 4.2505780194e-01	 5.4451710445e+00
 1.7754321008e+00	 4.4111871593e-01	 6.5522471962e+00
 1.7713632618e+00	 4.5718388486e-01	 7.2185390046e+00
 1.7671384283e+00	 4.7325120456e-01	 7.3363397728e+00
 1.8111437558e+00	 3.1443190815e-01	-5.8211324629e+00
 1.8082837500e+00	 3.3048311561e-01	-4.7226001329e+00
 1.8052729712e+00	 3.4655274055e-01	-3.2686915423e+00
 1.8021105615e+00	 3.6263883718e-01	-1.5724608555e+00
 1.7987956931e+00	 3.7873943401e-01	 2.5130966096e-01
 1.7953275692e+00	 3.9485253432e-01	 2.0831063650e+00
 1.7917054249e+00	 4.1097611669e-01	 3.8124827138e+00
 1.7879285278e+00	 4.2710813559e-01	 5.3303349820e+00
 1.7839961789e+00	 4.4324652196e-01	 6.5276295237e+00
 1.7799077132e+00	 4.5938918377e-01	 7.2955086523e+00
 1.7756625005e+00	 4.7553400674e-01	 7.5254047573e+00
 1.8198381805e+00	 3.1594134357e-01	-5.9162997623e+00
 1.8169644452e+00	 3.3206960512e-01	-4.9078809307e+00
 1.8139392131e+00	 3.4821637254e-01	-3.5353322554e+00
 1.8107616222e+00	 3.6437969074e-01	-1.9081432045e+00
 1.8074308407e+00	 3.8055757875e-01	-1.3914774260e-01
 1.8039460681e+00	 3.9674803025e-01	 1.6524588968e+00
 1.8003065356e+00	 4.1294901414e-01	 3.3604729510e+00
 1.7965115075e+00	 4.2915847506e-01	 4.8798959079e+00
 1.7925602812e+00	 4.4537433401e-01	 6.1058262134e+00
 1.7884521888e+00	 4.6159448893e-01	 6.9335587031e+00
 1.7841865969e+00	 4.7781681538e-01	 7.2586923691e+00
 1.8285326250e+00	 3.1745078242e-01	-5.8010459800e+00
 1.8256451600e+00	 3.3365609822e-01	-4.9264147091e+00
 1.8226054747e+00	 3.4988000831e-01	-3.6981613126e+00
 1.8194127026e+00	 3.6612054825e-01	-2.2167805240e+00
 1.8160660079e+00	 3.8237572761e-01	-5.8864843155e-01
 1.8125645864e+00	 3.9864353048e-01	 1.0735342268e+00
 1.8089076658e+00	 4.1492191607e-01	 2.6733310999e+00
 1.8050945065e+00	 4.3120881918e-01	 4.1150609342e+00
 1.8011244030e+00	 4.4750215088e-01	 5.3030874787e+00
 1.7969966837e+00	 4.6379979908e-01	 6.1419039893e+00
 1.7927107126e+00	 4.8009962919e-01	 6.5362261160e+00
 1.8372270842e+00	 3.1896022383e-01	-5.4708603720e+00
 1.8343258897e+00	 3.3524259402e-01	-4.7664556161e+00
 1.8312717510e+00	 3.5154364691e-01	-3.7397173114e+00
 1.8280637976e+00	 3.6786140872e-01	-2.4767946466e+00
 1.8247011898e+00	 3.8419387956e-01	-1.0733002715e+00
 1.8211831195e+00	 4.0053903394e-01	 3.7101493131e-01
 1.8175088106e+00	 4.1689482134e-01	 1.7747230090e+00
 1.8136775202e+00	 4.3325916678e-01	 3.0565943284e+00
 1.8096885393e+00	 4.4962997137e-01	 4.1353139772e+00
 1.8055411932e+00	 4.6600511299e-01	 4.9295429279e+00
 1.8012348428e+00	 4.8238244689e-01	 5.3579875778e+00
 1.8459215532e+00	 3.2046966696e-01	-4.9213305348e+00
 1.8430066292e+00	 3.3682909162e-01	-4.4165030588e+00
 1.8399380371e+00	 3.5320728740e-01	-3.6429034701e+00
 1.8367149024e+00	 3.6960227117e-01	-2.6670622913e+00
 1.8333363815e+00	 3.8601203357e-01	-1.5696984284e+00
 1.8298016623e+00	 4.0243453954e-01	-4.3092039455e-01
 1.8261099651e+00	 4.1886772886e-01	 6.8782832821e-01
 1.8222605436e+00	 4.3530951671e-01	 1.7248279030e+00
 1.8182526853e+00	 4.5175779428e-01	 2.6180651053e+00
 1.8140857124e+00	 4.6821042940e-01	 3.3052627935e+00
 1.8097589826e+00	 4.8466526717e-01	 3.7239176964e+00
 1.8546160272e+00	 3.2197911094e-01	-4.1475195742e+00
 1.8516873736e+00	 3.3841559011e-01	-3.8652980975e+00
 1.8486043281e+00	 3.5487092882e-01	-3.3909815512e+00
 1.8453660122e+00	 3.7134313460e-01	-2.7669686257e+00
 1.8419715781e+00	 3.8783018861e-01	-2.0549142072e+00
 1.8384202100e+00	 4.0433004622e-01	-1.3085855130e+00
 1.8347111246e+00	 4.2084063749e-01	-5.6464820392e-01
 1.8308435719e+00	 4.3735986779e-01	 1.3967113542e-01
 1.8268168362e+00	 4.5388561839e-01	 7.6656708426e-01
 1.8226302364e+00	 4.7041574706e-01	 1.2776448699e+00
 1.8182831273e+00	 4.8694808875e-01	 1.6339180586e+00
 1.7330424775e+00	 4.6412008643e-01	 2.0202954687e+00
 1.7287455951e+00	 4.7987742099e-01	 1.5508362327e+00
 1.7242946047e+00	 4.9563267639e-01	 1.1042306763e+00
 1.7196889996e+00	 5.1138372914e-01	 6.9805708419e-01
 1.7149283098e+00	 5.2712843678e-01	 3.5111088843e-01
 1.7100121024e+00	 5.4286463860e-01	 8.3420725436e-02
 1.7049399826e+00	 5.5859015640e-01	-8.3729475594e-02
 1.6997115942e+00	 5.7430279528e-01	-1.2777202671e-01
 1.6943266200e+00	 5.9000034444e-01	-2.4820334412e-02
 1.6887847827e+00	 6.0568057798e-01	 2.5037318329e-01
 1.6830858451e+00	 6.2134125579e-01	 7.2446631924e-01
 1.7415664048e+00	 4.6640284979e-01	 4.0335892390e+00
 1.7372483882e+00	 4.8223768642e-01	 3.5307936131e+00
 1.7327755058e+00	 4.9807043366e-01	 2.9555301974e+00
 1.7281472482e+00	 5.1389895758e-01	 2.3454602270e+00
 1.7233631430e+00	 5.2972110518e-01	 1.7389370683e+00
 1.7184227553e+00	 5.4553470513e-01	 1.1749861646e+00
 1.7133256884e+00	 5.6133756851e-01	 6.9329140729e-01
 1.7080715843e+00	 5.7712748962e-01	 3.3418835369e-01
 1.7026601243e+00	 5.9290224679e-01	 1.3866466791e-01
 1.6970910296e+00	 6.0865960318e-01	 1.4836811309e-01
 1.6913640619e+00	 6.2439730766e-01	 4.0562236962e-01
 1.7500903756e+00	 4.6868562480e-01	 5.5905662098e+00
 1.7457512248e+00	 4.8459796389e-01	 5.1040355088e+00
 1.7412564501e+00	 5.0050820336e-01	 4.4648094876e+00
 1.7366055398e+00	 5.1641419885e-01	 3.7259006272e+00
 1.7317980192e+00	 5.3231378681e-01	 2.9405594636e+00
 1.7268334512e+00	 5.4820478528e-01	 2.1622256992e+00
 1.7217114371e+00	 5.6408499463e-01	 1.4444861713e+00
 1.7164316171e+00	 5.7995219837e-01	 8.4104016278e-01
 1.7109936711e+00	 5.9580416395e-01	 4.0567249373e-01
 1.7053973189e+00	 6.1163864358e-01	 1.9223478409e-01
 1.6996423210e+00	 6.2745337511e-01	 2.5463522188e-01
 1.7586143850e+00	 4.7096841015e-01	 6.6914306804e+00
 1.7542540999e+00	 4.8695825206e-01	 6.2604719972e+00
 1.7497374329e+00	 5.0294598412e-01	 5.6133939203e+00
 1.7450638699e+00	 5.1892945152e-01	 4.8138998665e+00
 1.7402329337e+00	 5.3490648019e-01	 3.9255474414e+00
 1.7352441852e+00	 5.5087487753e-01	 3.0116779306e+00
 1.7300972237e+00	 5.6683243321e-01	 2.1353531168e+00
 1.7247916878e+00	 5.8277691993e-01	 1.3592999616e+00
 1.7193272557e+00	 5.9870609426e-01	 7.4586364129e-01
 1.7137036458e+00	 6.1461769748e-01	 3.5696937803e-01
 1.7079206175e+00	 6.3050945642e-01	 2.5409344994e-01
 1.7671384283e+00	 4.7325120456e-01	 7.3363397728e+00
 1.7627570088e+00	 4.8931854959e-01	 6.9901651271e+00
 1.7582184494e+00	 5.0538377454e-01	 6.3829275230e+00
 1.7535222335e+00	 5.2144471417e-01	 5.5844310125e+00
 1.7486678816e+00	 5.3749918386e-01	 4.6640194626e+00
 1.7436549525e+00	 5.5354498038e-01	 3.6904915787e+00
 1.7384830437e+00	 5.6957988268e-01	 2.7320237602e+00
 1.7331517917e+00	 5.8560165268e-01	 1.8561013678e+00
 1.7276608733e+00	 6.0160803608e-01	 1.1294589367e+00
 1.7220100057e+00	 6.1759676320e-01	 6.1802981225e-01
 1.7161989469e+00	 6.3356554985e-01	 3.8690563275e-01
 1.7756625005e+00	 4.7553400674e-01	 7.5254047573e+00
 1.7712599465e+00	 4.9167885515e-01	 7.2833255997e+00
 1.7666994947e+00	 5.0782157326e-01	 6.7553658041e+00
 1.7619806258e+00	 5.2395998537e-01	 6.0129084150e+00
 1.7571028582e+00	 5.4009189634e-01	 5.1266307046e+00
 1.7520657485e+00	 5.5621509230e-01	 4.1664118203e+00
 1.7468688921e+00	 5.7232734150e-01	 3.2012488068e+00
 1.7415119240e+00	 5.8842639505e-01	 2.2991816152e+00
 1.7359945193e+00	 6.0450998777e-01	 1.5272276626e+00
 1.7303163938e+00	 6.2057583905e-01	 9.5132645064e-01
 1.7244773045e+00	 6.3662165367e-01	 6.3629469077e-01
 1.7841865969e+00	 4.7781681538e-01	 7.2586923691e+00
 1.7797629084e+00	 4.9403916739e-01	 7.1303095748e+00
 1.7751805640e+00	 5.1025937888e-01	 6.7129688178e+00
 1.7704390421e+00	 5.2647526371e-01	 6.0751778297e+00
 1.7655378587e+00	 5.4268461617e-01	 5.2845610755e+00
 1.7604765683e+00	 5.5888521179e-01	 4.4077670564e+00
 1.7552547643e+00	 5.7507480810e-01	 3.5103845670e+00
 1.7498720800e+00	 5.9125114541e-01	 2.6568685419e+00
 1.7443281889e+00	 6.0741194768e-01	 1.9104760739e+00
 1.7386228055e+00	 6.2355492334e-01	 1.3332131316e+00
 1.7327556855e+00	 6.3967776615e-01	 9.8579243912e-01
 1.7927107126e+00	 4.8009962919e-01	 6.5362261160e+00
 1.7882658895e+00	 4.9639948499e-01	 6.5216155988e+00
 1.7836616526e+00	 5.1269719003e-01	 6.2382944586e+00
 1.7788974776e+00	 5.2899054774e-01	 5.7475068578e+00
 1.7739728784e+00	 5.4527734187e-01	 5.1095036070e+00
 1.7688874071e+00	 5.6155533733e-01	 4.3834560970e+00
 1.7636406555e+00	 5.7782228093e-01	 3.6273798012e+00
 1.7582322549e+00	 5.9407590218e-01	 2.8980679956e+00
 1.7526618774e+00	 6.1031391417e-01	 2.2510362897e+00
 1.7469292360e+00	 6.2653401438e-01	 1.7404785024e+00
 1.7410340853e+00	 6.4273388556e-01	 1.4192343502e+00
 1.8012348428e+00	 4.8238244689e-01	 5.3579875778e+00
 1.7967688850e+00	 4.9875980660e-01	 5.4478816501e+00
 1.7921427555e+00	 5.1513500533e-01	 5.3141919788e+00
 1.7873559275e+00	 5.3150583605e-01	 5.0065756904e+00
 1.7824079123e+00	 5.4787007199e-01	 4.5736532123e+00
 1.7772982603e+00	 5.6422546742e-01	 4.0629357485e+00
 1.7720265610e+00	 5.8056975843e-01	 3.5207629802e+00
 1.7665924441e+00	 5.9690066376e-01	 2.9922516391e+00
 1.7609955800e+00	 6.1321588560e-01	 2.5212555467e+00
 1.7552356806e+00	 6.2951311049e-01	 2.1503376506e+00
 1.7493124992e+00	 6.4579001016e-01	 1.9207545185e+00
 1.8097589826e+00	 4.8466526717e-01	 3.7239176964e+00
 1.8052718903e+00	 5.0112013088e-01	 3.8998822976e+00
 1.8006238681e+00	 5.1757282338e-01	 3.9237957205e+00
 1.7958143869e+00	 5.3402112720e-01	 3.8294681498e+00
 1.7908429559e+00	 5.5046280504e-01	 3.6496957989e+00
 1.7857091230e+00	 5.6689560052e-01	 3.4162087897e+00
 1.7804124759e+00	 5.8331723904e-01	 3.1596299463e+00
 1.7749526427e+00	 5.9972542853e-01	 2.9094451455e+00
 1.7693292921e+00	 6.1611786031e-01	 2.6939858039e+00
 1.7635421346e+00	 6.3249220997e-01	 2.5404240211e+00
 1.7575909224e+00	 6.4884613823e-01	 2.4747808220e+00
 1.8182831273e+00	 4.8694808875e-01	 1.6339180586e+00
 1.8137749003e+00	 5.0348045650e-01	 1.8685259694e+00
 1.8091049855e+00	 5.2001064282e-01	 2.0505190562e+00
 1.8042728512e+00	 5.3653641979e-01	 2.1936630152e+00
 1.7992780042e+00	 5.5305553956e-01	 2.3107977232e+00
 1.7941199904e+00	 5.6956573515e-01	 2.4138123254e+00
 1.7887983956e+00	 5.8606472121e-01	 2.5136319633e+00
 1.7833128461e+00	 6.0255019490e-01	 2.6202167689e+00
 1.7776630090e+00	 6.1901983667e-01	 2.7425736861e+00
 1.7718485933e+00	 6.3547131114e-01	 2.8887816115e+00
 1.7658693503e+00	 6.5190226803e-01	 3.0660302715e+00
 1.6830858451e+00	 6.2134125579e-01	 7.2446631924e-01
 1.6772286017e+00	 6.3698278107e-01	 1.2487473160e+00
 1.6712138520e+00	 6.5260022188e-01	 1.6573695905e+00
 1.6650414817e+00	 6.6819129874e-01	 1.9520994728e+00
 1.6587114185e+00	 6.8375372154e-01	 2.1339957183e+00
 1.6522236333e+00	 6.9928519036e-01	 2.2034959752e+00
 1.6455781398e+00	 7.1478339657e-01	 2.1605136802e+00
 1.6387749955e+00	 7.3024602370e-01	 2.0045451849e+00
 1.6318143016e+00	 7.4567074850e-01	 1.7342415463e+00
 1.6246962038e+00	 7.6105524190e-01	 1.3426546673e+00
 1.6174208922e+00	 7.7639717010e-01	 8.3096352444e-01
 1.6913640619e+00	 6.2439730766e-01	 4.0562236962e-01
 1.6854780098e+00	 6.4011576540e-01	 7.6226734874e-01
 1.6794336767e+00	 6.5581002021e-01	 1.0410389432e+00
 1.6732309477e+00	 6.7147778141e-01	 1.2410713921e+00
 1.6668697503e+00	 6.8711674760e-01	 1.3612295473e+00
 1.6603500551e+00	 7.0272460758e-01	 1.4002066265e+00
 1.6536718759e+00	 7.1829904134e-01	 1.3566322765e+00
 1.6468352705e+00	 7.3383772102e-01	 1.2291907233e+00
 1.6398403406e+00	 7.4933831195e-01	 1.0154057607e+00
 1.6326872326e+00	 7.6479847361e-01	 7.1027844357e-01
 1.6253761376e+00	 7.8021586071e-01	 3.1758598607e-01
 1.6996423210e+00	 6.2745337511e-01	 2.5463522188e-01
 1.6937274600e+00	 6.4324876571e-01	 4.5090545801e-01
 1.6876535434e+00	 6.5901983491e-01	 6.0124319006e-01
 1.6814204555e+00	 6.7476428084e-01	 7.0297568946e-01
 1.6750281237e+00	 6.9047979081e-01	 7.5353307440e-01
 1.6684765183e+00	 7.0616404233e-01	 7.5055553022e-01
 1.6617656533e+00	 7.2181470403e-01	 6.9201079772e-01
 1.6548955866e+00	 7.3742943666e-01	 5.7632168628e-01
 1.6478664205e+00	 7.5300589411e-01	 4.0040424220e-01
 1.6406783021e+00	 7.6854172442e-01	 1.6264429345e-01
 1.6333314235e+00	 7.8403457080e-01	-1.3121375256e-01
 1.7079206175e+00	 6.3050945642e-01	 2.5409344994e-01
 1.7019769476e+00	 6.4638178022e-01	 3.0549396136e-01
 1.6958734473e+00	 6.6222966416e-01	 3.3605018964e-01
 1.6896100005e+00	 6.7805079516e-01	 3.4209526144e-01
 1.6831865341e+00	 6.9384284927e-01	 3.2037203328e-01
 1.6766030184e+00	 7.0960349268e-01	 2.6814797779e-01
 1.6698594673e+00	 7.2533038267e-01	 1.8334037287e-01
 1.6629559392e+00	 7.4102116858e-01	 6.4650153488e-02
 1.6558925368e+00	 7.5667349290e-01	-9.0758396491e-02
 1.6486694079e+00	 7.7228499219e-01	-2.8034781047e-01
 1.6412867455e+00	 7.8785329820e-01	-4.9673444047e-01
 1.7161989469e+00	 6.3356554985e-01	 3.8690563275e-01
 1.7102264679e+00	 6.4951480716e-01	 3.1703126563e-01
 1.7040933838e+00	 6.6543950615e-01	 2.4355979315e-01
 1.6977995779e+00	 6.8133732252e-01	 1.6263094263e-01
 1.6913449769e+00	 6.9720592107e-01	 7.1036291618e-02
 1.6847295507e+00	 7.1304295667e-01	-3.3659963992e-02
 1.6779533135e+00	 7.2884607524e-01	-1.5298982791e-01
 1.6710163238e+00	 7.4461291475e-01	-2.8759118620e-01
 1.6639186849e+00	 7.6034110623e-01	-4.3842251542e-01
 1.6566605454e+00	 7.7602827481e-01	-5.9913948934e-01
 1.6492420990e+00	 7.9167204075e-01	-7.6059206564e-01
 1.7244773045e+00	 6.3662165367e-01	 6.3629469077e-01
 1.7184760163e+00	 6.5264784475e-01	 4.7668012933e-01
 1.7123133482e+00	 6.6864935905e-01	 3.2190556485e-01
 1.7059891832e+00	 6.8462386106e-01	 1.6870621044e-01
 1.6995034474e+00	 7.0056900431e-01	 1.4647061583e-02
 1.6928561106e+00	 7.1648243236e-01	-1.4175222112e-01
 1.6860471872e+00	 7.3236177978e-01	-3.0088182830e-01
 1.6790767358e+00	 7.4820467313e-01	-4.6222118597e-01
 1.6719448604e+00	 7.6400873204e-01	-6.2326472091e-01
 1.6646517100e+00	 7.7977157016e-01	-7.7450535631e-01
 1.6571974796e+00	 7.9549079628e-01	-9.0471188418e-01
 1.7327556855e+00	 6.3967776615e-01	 9.8579243912e-01
 1.7267255880e+00	 6.5578089122e-01	 7.7576603262e-01
 1.7205333360e+00	 6.7185922104e-01	 5.6925651447e-01
 1.7141788117e+00	 6.8791040891e-01	 3.6437182010e-01
 1.7076619410e+00	 7.0393209707e-01	 1.6016397219e-01
 1.7009826936e+00	 7.1992191779e-01	-4.3243672582e-02
 1.6941410838e+00	 7.3587749427e-01	-2.4451831342e-01
 1.6871371707e+00	 7.5179644169e-01	-4.4117532258e-01
 1.6799710586e+00	 7.6767636823e-01	-6.2628941041e-01
 1.6726428973e+00	 7.8351487611e-01	-7.8754468345e-01
 1.6651528827e+00	 7.9930956263e-01	-9.1132070135e-01
 1.7410340853e+00	 6.4273388556e-01	 1.4192343502e+00
 1.7349751784e+00	 6.5891394479e-01	 1.2057756514e+00
 1.7287533424e+00	 6.7506909032e-01	 9.8381884133e-01
 1.7223684588e+00	 6.9119696421e-01	 7.5361037199e-01
 1.7158204531e+00	 7.0729519746e-01	 5.1639200808e-01
 1.7091092950e+00	 7.2336141102e-01	 2.7452870320e-01
 1.7022349988e+00	 7.3939321673e-01	 3.1647677521e-02
 1.6951976238e+00	 7.5538821839e-01	-2.0669231268e-01
 1.6879972749e+00	 7.7134401274e-01	-4.2882057954e-01
 1.6806341027e+00	 7.8725819055e-01	-6.1967332858e-01
 1.6731083039e+00	 8.0312833764e-01	-7.6293939623e-01
 1.7493124992e+00	 6.4579001016e-01	 1.9207545185e+00
 1.7432247829e+00	 6.6204700368e-01	 1.7583554319e+00
 1.7369733627e+00	 6.7827896504e-01	 1.5638376897e+00
 1.7305581198e+00	 6.9448352509e-01	 1.3403408137e+00
 1.7239789791e+00	 7.1065830357e-01	 1.0919883192e+00
 1.7172359102e+00	 7.2680091010e-01	 8.2401450197e-01
 1.7103289275e+00	 7.4290894517e-01	 5.4291083583e-01
 1.7032580906e+00	 7.5898000120e-01	 2.5869348265e-01
 1.6960235049e+00	 7.7501166349e-01	-1.2493882579e-02
 1.6886253217e+00	 7.9100151136e-01	-2.5261591333e-01
 1.6810637386e+00	 8.0694711914e-01	-4.4237568192e-01
 1.7575909224e+00	 6.4884613823e-01	 2.4747808220e+00
 1.7514743967e+00	 6.6518006613e-01	 2.4253102627e+00
 1.7451933924e+00	 6.8148884341e-01	 2.3075989152e+00
 1.7387477900e+00	 6.9777008970e-01	 2.1284228788e+00
 1.7321375143e+00	 7.1402141348e-01	 1.8954689053e+00
 1.7253625346e+00	 7.3024041307e-01	 1.6174583931e+00
 1.7184228654e+00	 7.4642467760e-01	 1.3044667043e+00
 1.7113185666e+00	 7.6257178807e-01	 9.7215941880e-01
 1.7040497440e+00	 7.7867931839e-01	 6.4075106176e-01
 1.6966165497e+00	 7.9474483640e-01	 3.3160175570e-01
 1.6890191823e+00	 8.1076590497e-01	 6.7282906439e-02
 1.7658693503e+00	 6.5190226803e-01	 3.0660302715e+00
 1.7597240152e+00	 6.6831313035e-01	 3.1986022406e+00
 1.7534134267e+00	 6.8469872359e-01	 3.2134308610e+00
 1.7469374649e+00	 7.0105665617e-01	 3.1216614643e+00
 1.7402960542e+00	 7.1738452531e-01	 2.9352151799e+00
 1.7334891636e+00	 7.3367991799e-01	 2.6669084503e+00
 1.7265168079e+00	 7.4994041202e-01	 2.3313954625e+00
 1.7193790471e+00	 7.6616357699e-01	 1.9506017019e+00
 1.7120759877e+00	 7.8234697537e-01	 1.5486781274e+00
 1.7046077823e+00	 7.9848816357e-01	 1.1506600307e+00
 1.6969746305e+00	 8.1458469296e-01	 7.8267580330e-01
 1.6174208922e+00	 7.7639717010e-01	 8.3096352444e-01
 1.6099898785e+00	 7.9169159915e-01	 2.5662675843e-01
 1.6024022183e+00	 8.0693880086e-01	-3.0975983238e-01
 1.5946582360e+00	 8.2213643373e-01	-8.4483803768e-01
 1.5867583015e+00	 8.3728215572e-01	-1.3253184068e+00
 1.5787028302e+00	 8.5237362528e-01	-1.7280328979e+00
 1.5704922835e+00	 8.6740850250e-01	-2.0299911435e+00
 1.5621271689e+00	 8.8238445016e-01	-2.2084402234e+00
 1.5536080398e+00	 8.9729913487e-01	-2.2409278097e+00
 1.5449354956e+00	 9.1215022821e-01	-2.1053685176e+00
 1.5361101821e+00	 9.2693540778e-01	-1.7801132668e+00
 1.6253761376e+00	 7.8021586071e-01	 3.1758598607e-01
 1.6179085745e+00	 7.9558551504e-01	-1.0218269115e-01
 1.6102835947e+00	 8.1090770974e-01	-4.8308961979e-01
 1.6025015238e+00	 8.2618009180e-01	-8.1225277761e-01
 1.5945627336e+00	 8.4140030765e-01	-1.0769114495e+00
 1.5864676417e+00	 8.5656600424e-01	-1.2644649980e+00
 1.5782167117e+00	 8.7167483014e-01	-1.3625151574e+00
 1.5698104534e+00	 8.8672443663e-01	-1.3589117623e+00
 1.5612494232e+00	 9.0171247886e-01	-1.2418017935e+00
 1.5525342233e+00	 9.1663661694e-01	-9.9968159387e-01
 1.5436655027e+00	 9.3149451705e-01	-6.2145207639e-01
 1.6333314235e+00	 7.8403457080e-01	-1.3121375256e-01
 1.6258273110e+00	 7.9947945079e-01	-4.2044986619e-01
 1.6181650112e+00	 8.1487663886e-01	-6.4540604308e-01
 1.6103448516e+00	 8.3022377049e-01	-8.0161513013e-01
 1.6023672056e+00	 8.4551848059e-01	-8.8477844646e-01
 1.5942324928e+00	 8.6075840458e-01	-8.9079348736e-01
 1.5859411792e+00	 8.7594117953e-01	-8.1578509978e-01
 1.5774937771e+00	 8.9106444524e-01	-6.5614005589e-01
 1.5688908455e+00	 9.0612584536e-01	-4.0854492109e-01
 1.5601329897e+00	 9.2112302855e-01	-7.0027083091e-02
 1.5512208618e+00	 9.3605364958e-01	 3.6200122147e-01
 1.6412867455e+00	 7.8785329820e-01	-4.9673444047e-01
 1.6337460834e+00	 8.0337340419e-01	-6.8124898458e-01
 1.6260464635e+00	 8.1884558597e-01	-7.8163513710e-01
 1.6181882149e+00	 8.3426746751e-01	-7.9981038140e-01
 1.6101717129e+00	 8.4963667220e-01	-7.3790250865e-01
 1.6019973791e+00	 8.6495082393e-01	-5.9826904446e-01
 1.5936656817e+00	 8.8020754827e-01	-3.8352013570e-01
 1.5851771357e+00	 8.9540447352e-01	-9.6544834579e-02
 1.5765323025e+00	 9.1053923186e-01	 2.5945931345e-01
 1.5677317906e+00	 9.2560946050e-01	 6.8095350222e-01
 1.5587762552e+00	 9.4061280278e-01	 1.1640218721e+00
 1.6492420990e+00	 7.9167204075e-01	-7.6059206564e-01
 1.6416648872e+00	 8.0726737304e-01	-8.6793615151e-01
 1.6339279471e+00	 8.2281454883e-01	-8.7694812358e-01
 1.6260316094e+00	 8.3831118058e-01	-7.9393034751e-01
 1.6179762512e+00	 8.5375488014e-01	-6.2543205406e-01
 1.6097622962e+00	 8.6914325991e-01	-3.7826325528e-01
 1.6013902149e+00	 8.8447393394e-01	-5.9512149585e-02
 1.5928605247e+00	 8.9974451902e-01	 3.2343404057e-01
 1.5841737898e+00	 9.1495263588e-01	 7.6286488632e-01
 1.5753306217e+00	 9.3009591025e-01	 1.2507193445e+00
 1.5663316785e+00	 9.4517197406e-01	 1.7785552741e+00
 1.6571974796e+00	 7.9549079628e-01	-9.0471188418e-01
 1.6495837179e+00	 8.1116135513e-01	-9.6414228650e-01
 1.6418094574e+00	 8.2678352519e-01	-9.1675527129e-01
 1.6338750305e+00	 8.4235490739e-01	-7.7126821732e-01
 1.6257808160e+00	 8.5787310209e-01	-5.3667669707e-01
 1.6175272397e+00	 8.7333571015e-01	-2.2226562712e-01
 1.6091147744e+00	 8.8874033411e-01	 1.6237602372e-01
 1.6005439398e+00	 9.0408457928e-01	 6.0733702257e-01
 1.5918153031e+00	 9.1936605489e-01	 1.1023622435e+00
 1.5829294785e+00	 9.3458237525e-01	 1.6368277395e+00
 1.5738871276e+00	 9.4973116085e-01	 2.1997126671e+00
 1.6651528827e+00	 7.9930956263e-01	-9.1132070135e-01
 1.6575025710e+00	 8.1505534825e-01	-9.5376627788e-01
 1.6496909901e+00	 8.3075251279e-01	-8.8669995816e-01
 1.6417184739e+00	 8.4639864566e-01	-7.1931357043e-01
 1.6335854030e+00	 8.6199133570e-01	-4.6110328430e-01
 1.6252922052e+00	 8.7752817226e-01	-1.2188071841e-01
 1.6168393557e+00	 8.9300674637e-01	 2.8821228540e-01
 1.6082273767e+00	 9.0842465183e-01	 7.5868527738e-01
 1.5994568381e+00	 9.2377948642e-01	 1.2786772940e+00
 1.5905283569e+00	 9.3906885296e-01	 1.8369315530e+00
 1.5814425980e+00	 9.5429036055e-01	 2.4217669055e+00
 1.6731083039e+00	 8.0312833764e-01	-7.6293939623e-01
 1.6654214421e+00	 8.1894935020e-01	-8.2096835726e-01
 1.6575725407e+00	 8.3472150939e-01	-7.7265292888e-01
 1.6495619350e+00	 8.5044239310e-01	-6.2574756471e-01
 1.6413900076e+00	 8.6610957865e-01	-3.8833207234e-01
 1.6330571883e+00	 8.8172064388e-01	-6.8825380435e-02
 1.6245639546e+00	 8.9727316830e-01	 3.2399687952e-01
 1.6159108311e+00	 9.1276473423e-01	 7.8098103842e-01
 1.6070983903e+00	 9.2819292795e-01	 1.2925703981e+00
 1.5981272526e+00	 9.4355534085e-01	 1.8487767140e+00
 1.5889980856e+00	 9.5884957059e-01	 2.4391483163e+00
 1.6810637386e+00	 8.0694711914e-01	-4.4237568192e-01
 1.6733403267e+00	 8.2284335877e-01	-5.5016368667e-01
 1.6654541046e+00	 8.3869051273e-01	-5.6070674147e-01
 1.6574054094e+00	 8.5448614741e-01	-4.7843828763e-01
 1.6491946255e+00	 8.7022782860e-01	-3.0813304258e-01
 1.6408221847e+00	 8.8591312262e-01	-5.4926107406e-02
 1.6322885665e+00	 9.0153959748e-01	 2.7566392288e-01
 1.6235942984e+00	 9.1710482400e-01	 6.7770791827e-01
 1.6147399556e+00	 9.3260637698e-01	 1.1448353494e+00
 1.6057261611e+00	 9.4804183636e-01	 1.6701997430e+00
 1.5965535860e+00	 9.6340878838e-01	 2.2464406360e+00
 1.6890191823e+00	 8.1076590497e-01	 6.7282906439e-02
 1.6812592202e+00	 8.2673737175e-01	-1.2601615149e-01
 1.6733356775e+00	 8.4265952057e-01	-2.3717039648e-01
 1.6652488928e+00	 8.5852990631e-01	-2.6543626618e-01
 1.6569992522e+00	 8.7434608322e-01	-2.1042234863e-01
 1.6485871898e+00	 8.9010560612e-01	-7.2116491196e-02
 1.6400131873e+00	 9.0580603150e-01	 1.4908286037e-01
 1.6312777745e+00	 9.2144491869e-01	 4.5233117890e-01
 1.6223815295e+00	 9.3701983101e-01	 8.3629835167e-01
 1.6133250783e+00	 9.5252833696e-01	 1.2991253153e+00
 1.6041090950e+00	 9.6796801134e-01	 1.8383770263e+00
 1.6969746305e+00	 8.1458469296e-01	 7.8267580330e-01
 1.6891781183e+00	 8.3063138694e-01	 4.6656764767e-01
 1.6812172549e+00	 8.4662853067e-01	 2.1143585691e-01
 1.6730923806e+00	 8.6257366750e-01	 2.5029869951e-02
 1.6648038834e+00	 8.7846434017e-01	-8.5258892079e-02
 1.6563521993e+00	 8.9429809199e-01	-1.1243477742e-01
 1.6477378124e+00	 9.1007246793e-01	-4.9940151631e-02
 1.6389612550e+00	 9.2578501584e-01	 1.0829796184e-01
 1.6300231078e+00	 9.4143328755e-01	 3.6781699122e-01
 1.6209239997e+00	 9.5701484010e-01	 7.3356385721e-01
 1.6116646083e+00	 9.7252723688e-01	 1.2098361648e+00
 1.5361101821e+00	 9.2693540778e-01	-1.7801132668e+00
 1.5271327913e+00	 9.4165235869e-01	-1.3014767099e+00
 1.5180040630e+00	 9.5629877555e-01	-7.4103246038e-01
 1.5087247831e+00	 9.7087236277e-01	-1.2985355786e-01
 1.4992957834e+00	 9.8537083540e-01	 5.0170777284e-01
 1.4897179414e+00	 9.9979192022e-01	 1.1240244578e+00
 1.4799921803e+00	 1.0141333570e+00	 1.7086985273e+00
 1.4701194682e+00	 1.0283928993e+00	 2.2532762063e+00
 1.4601008186e+00	 1.0425683162e+00	 2.7399307338e+00
 1.4499372895e+00	 1.0566573927e+00	 3.1346339796e+00
 1.4396299835e+00	 1.0706579313e+00	 3.4034200715e+00
 1.5436655027e+00	 9.3149451705e-01	-6.2145207639e-01
 1.5346439568e+00	 9.4628385293e-01	-1.4207599283e-01
 1.5254703291e+00	 9.6100230784e-01	 3.8074903152e-01
 1.5161454092e+00	 9.7564757489e-01	 9.2403768449e-01
 1.5066700332e+00	 9.9021735790e-01	 1.4652731200e+00
 1.4970450829e+00	 1.0047093725e+00	 1.9823971678e+00
 1.4872714859e+00	 1.0191213472e+00	 2.4537980441e+00
 1.4773502151e+00	 1.0334510248e+00	 2.8618187708e+00
 1.4672822890e+00	 1.0476961631e+00	 3.2137250320e+00
 1.4570687708e+00	 1.0618545364e+00	 3.4891844620e+00
 1.4467107686e+00	 1.0759239363e+00	 3.6602009049e+00
 1.5512208618e+00	 9.3605364958e-01	 3.6200122147e-01
 1.5421551607e+00	 9.5091537079e-01	 8.5306621060e-01
 1.5329366332e+00	 9.6570586411e-01	 1.3554871771e+00
 1.5235660733e+00	 9.8042281137e-01	 1.8519490437e+00
 1.5140443207e+00	 9.9506390513e-01	 2.3254210054e+00
 1.5043722618e+00	 1.0096268498e+00	 2.7591363354e+00
 1.4945508286e+00	 1.0241093629e+00	 3.1365698106e+00
 1.4845809988e+00	 1.0385091761e+00	 3.4414130349e+00
 1.4744637960e+00	 1.0528240362e+00	 3.6667329195e+00
 1.4642002885e+00	 1.0670517066e+00	 3.8202028654e+00
 1.4537915898e+00	 1.0811899682e+00	 3.8798490575e+00
 1.5587762552e+00	 9.4061280278e-01	 1.1640218721e+00
 1.5496663985e+00	 9.5554690965e-01	 1.6744610934e+00
 1.5404029713e+00	 9.7040944171e-01	 2.1714374228e+00
 1.5309867709e+00	 9.8519806950e-01	 2.6409242201e+00
 1.5214186416e+00	 9.9991047433e-01	 3.0690624238e+00
 1.5116994739e+00	 1.0145443495e+00	 3.4421336452e+00
 1.5018302042e+00	 1.0290974013e+00	 3.7465309246e+00
 1.4918118154e+00	 1.0435673503e+00	 3.9687274526e+00
 1.4816453355e+00	 1.0579519325e+00	 4.0952435774e+00
 1.4713318385e+00	 1.0722489004e+00	 4.1297296626e+00
 1.4608724430e+00	 1.0864560239e+00	 4.0714278652e+00
 1.5663316785e+00	 9.4517197406e-01	 1.7785552741e+00
 1.5571776662e+00	 9.6017846689e-01	 2.3128532712e+00
 1.5478693389e+00	 9.7511303797e-01	 2.8171324260e+00
 1.5384074980e+00	 9.8997334657e-01	 3.2783077434e+00
 1.5287929918e+00	 1.0047570627e+00	 3.6834119756e+00
 1.5190267150e+00	 1.0194618686e+00	 4.0195656598e+00
 1.5091096088e+00	 1.0340854594e+00	 4.2739447923e+00
 1.4990426606e+00	 1.0486255446e+00	 4.4337464541e+00
 1.4888269036e+00	 1.0630798492e+00	 4.4861527234e+00
 1.4784634168e+00	 1.0774461148e+00	 4.4197618997e+00
 1.4679533244e+00	 1.0917221006e+00	 4.2438243056e+00
 1.5738871276e+00	 9.4973116085e-01	 2.1997126671e+00
 1.5646889594e+00	 9.6481003987e-01	 2.7592148884e+00
 1.5553357319e+00	 9.7981665023e-01	 3.2813750455e+00
 1.5458282504e+00	 9.9474863987e-01	 3.7517373339e+00
 1.5361673670e+00	 1.0096036677e+00	 4.1559800969e+00
 1.5263539811e+00	 1.0243794045e+00	 4.4798864357e+00
 1.5163890381e+00	 1.0390735344e+00	 4.7093123548e+00
 1.5062735304e+00	 1.0536837560e+00	 4.8301527667e+00
 1.4960084961e+00	 1.0682077833e+00	 4.8283057033e+00
 1.4855950194e+00	 1.0826433468e+00	 4.6896350985e+00
 1.4750342299e+00	 1.0969881951e+00	 4.4057545610e+00
 1.5814425980e+00	 9.5429036055e-01	 2.4217669055e+00
 1.5722002739e+00	 9.6944162597e-01	 3.0047398533e+00
 1.5628021461e+00	 9.8452027581e-01	 3.5532314941e+00
 1.5532490237e+00	 9.9952394671e-01	 4.0491364394e+00
 1.5435417632e+00	 1.0144502863e+00	 4.4745654692e+00
 1.5336812679e+00	 1.0292969543e+00	 4.8118203072e+00
 1.5236684881e+00	 1.0440616236e+00	 5.0433657612e+00
 1.5135044207e+00	 1.0587419819e+00	 5.1517995547e+00
 1.5031901089e+00	 1.0733357319e+00	 5.1198201968e+00
 1.4927266421e+00	 1.0878405936e+00	 4.9301932615e+00
 1.4821151554e+00	 1.1022543046e+00	 4.5657164668e+00
 1.5889980856e+00	 9.5884957059e-01	 2.4391483163e+00
 1.5797116054e+00	 9.7407322258e-01	 3.0408382001e+00
 1.5702685772e+00	 9.8922391205e-01	 3.6220246442e+00
 1.5606698139e+00	 1.0042992644e+00	 4.1587069450e+00
 1.5509161760e+00	 1.0192969159e+00	 4.6272476035e+00
 1.5410085713e+00	 1.0342145152e+00	 5.0043548310e+00
 1.5309479545e+00	 1.0490497242e+00	 5.2670621782e+00
 1.5207353274e+00	 1.0638002191e+00	 5.3927056086e+00
 1.5103717380e+00	 1.0784636922e+00	 5.3588983607e+00
 1.4998582811e+00	 1.0930378522e+00	 5.1435039670e+00
 1.4891960970e+00	 1.1075204260e+00	 4.7246078188e+00
 1.5965535860e+00	 9.6340878838e-01	 2.2464406360e+00
 1.5872229497e+00	 9.7870482706e-01	 2.8591305711e+00
 1.5777350210e+00	 9.9392755629e-01	 3.4773274854e+00
 1.5680906167e+00	 1.0090745901e+00	 4.0689220473e+00
 1.5582906014e+00	 1.0241435538e+00	 4.6023795911e+00
 1.5483358872e+00	 1.0391320845e+00	 5.0467338883e+00
 1.5382274334e+00	 1.0540378332e+00	 5.3715777289e+00
 1.5279662463e+00	 1.0688584650e+00	 5.5470506236e+00
 1.5175533793e+00	 1.0835916612e+00	 5.5438239622e+00
 1.5069899321e+00	 1.0982351196e+00	 5.3330839876e+00
 1.4962770506e+00	 1.1127865563e+00	 4.8865509436e+00
 1.6041090950e+00	 9.6796801134e-01	 1.8383770263e+00
 1.5947343026e+00	 9.8333643678e-01	 2.4514428170e+00
 1.5852014733e+00	 9.9863120585e-01	 3.1089567261e+00
 1.5755114279e+00	 1.0138499213e+00	 3.7685192895e+00
 1.5656650352e+00	 1.0289901971e+00	 4.3885810178e+00
 1.5556632114e+00	 1.0440496594e+00	 4.9284509375e+00
 1.5455069204e+00	 1.0590259478e+00	 5.3483015592e+00
 1.5351971735e+00	 1.0739167166e+00	 5.6091705668e+00
 1.5247350288e+00	 1.0887196359e+00	 5.6729595476e+00
 1.5141215913e+00	 1.1034323929e+00	 5.5024301098e+00
 1.5033580123e+00	 1.1180526927e+00	 5.0618107455e+00
 1.6116646083e+00	 9.7252723688e-01	 1.2098361648e+00
 1.6022456596e+00	 9.8796804913e-01	 1.8098007111e+00
 1.5926679297e+00	 1.0033348581e+00	 2.5069665353e+00
 1.5829322433e+00	 1.0186252552e+00	 3.2464937508e+00
 1.5730394731e+00	 1.0338368432e+00	 3.9747310345e+00
 1.5629905397e+00	 1.0489672371e+00	 4.6392424134e+00
 1.5527864116e+00	 1.0640140653e+00	 5.1888300261e+00
 1.5424281048e+00	 1.0789749711e+00	 5.5735531283e+00
 1.5319166823e+00	 1.0938476136e+00	 5.7447436436e+00
 1.5212532544e+00	 1.1086296691e+00	 5.6550185839e+00
 1.5104389779e+00	 1.1233188320e+00	 5.2600704208e+00
 1.4396299835e+00	 1.0706579313e+00	 3.4034200715e+00
 1.4291782595e+00	 1.0845701087e+00	 3.6014090154e+00
 1.4185850537e+00	 1.0983893700e+00	 3.8052782818e+00
 1.4078516063e+00	 1.1121135673e+00	 4.0134536644e+00
 1.3969792004e+00	 1.1257405746e+00	 4.2292730692e+00
 1.3859691615e+00	 1.1392682885e+00	 4.4561109660e+00
 1.3748228572e+00	 1.1526946297e+00	 4.6942947162e+00
 1.3635416964e+00	 1.1660175436e+00	 4.9445341022e+00
 1.3521271287e+00	 1.1792350016e+00	 5.2079732382e+00
 1.3405806439e+00	 1.1923450022e+00	 5.4862418372e+00
 1.3289037716e+00	 1.2053455716e+00	 5.7815054817e+00
 1.4467107686e+00	 1.0759239363e+00	 3.6602009049e+00
 1.4362076381e+00	 1.0899045405e+00	 3.7844223137e+00
 1.4255623298e+00	 1.1037917714e+00	 3.9364384843e+00
 1.4147760902e+00	 1.1175834709e+00	 4.1144850228e+00
 1.4038502086e+00	 1.1312775022e+00	 4.3227958087e+00
 1.3927860171e+00	 1.1448717519e+00	 4.5619699464e+00
 1.3815848900e+00	 1.1583641302e+00	 4.8321264753e+00
 1.3702482431e+00	 1.1717525725e+00	 5.1340454076e+00
 1.3587775331e+00	 1.1850350403e+00	 5.4692221582e+00
 1.3471742572e+00	 1.1982095221e+00	 5.8399209173e+00
 1.3354399525e+00	 1.2112740345e+00	 6.2492265996e+00
 1.4537915898e+00	 1.0811899682e+00	 3.8798490575e+00
 1.4432370525e+00	 1.0952389994e+00	 3.9081217755e+00
 1.4325396415e+00	 1.1091942004e+00	 3.9821935240e+00
 1.4217006094e+00	 1.1230534023e+00	 4.1030202083e+00
 1.4107212519e+00	 1.1368144581e+00	 4.2748055234e+00
 1.3996029075e+00	 1.1504752439e+00	 4.4981156025e+00
 1.3883469573e+00	 1.1640336596e+00	 4.7742054233e+00
 1.3769548240e+00	 1.1774876307e+00	 5.1051464490e+00
 1.3654279714e+00	 1.1908351086e+00	 5.4938814400e+00
 1.3537679042e+00	 1.2040740719e+00	 5.9442779616e+00
 1.3419761667e+00	 1.2172025276e+00	 6.4611802130e+00
 1.4608724430e+00	 1.0864560239e+00	 4.0714278652e+00
 1.4502664987e+00	 1.1005734825e+00	 3.9884845310e+00
 1.4395169849e+00	 1.1145966539e+00	 3.9641333592e+00
 1.4286251600e+00	 1.1285233586e+00	 4.0041151690e+00
 1.4175923263e+00	 1.1423514391e+00	 4.1125789124e+00
 1.4064198288e+00	 1.1560787612e+00	 4.2924432593e+00
 1.3951090553e+00	 1.1697032148e+00	 4.5474229718e+00
 1.3836614353e+00	 1.1832227149e+00	 4.8820829728e+00
 1.3720784399e+00	 1.1966352032e+00	 5.3018914203e+00
 1.3603615810e+00	 1.2099386484e+00	 5.8132713992e+00
 1.3485124106e+00	 1.2231310476e+00	 6.4236508472e+00
 1.4679533244e+00	 1.0917221006e+00	 4.2438243056e+00
 1.4572959729e+00	 1.1059079868e+00	 4.0411805337e+00
 1.4464943559e+00	 1.1199991288e+00	 3.9039632468e+00
 1.4355497381e+00	 1.1339933365e+00	 3.8423344916e+00
 1.4244634280e+00	 1.1478884421e+00	 3.8628599992e+00
 1.4132367772e+00	 1.1616823008e+00	 3.9723051039e+00
 1.4018711800e+00	 1.1753727924e+00	 4.1781481733e+00
 1.3903680732e+00	 1.1889578219e+00	 4.4886307510e+00
 1.3787289348e+00	 1.2024353208e+00	 4.9128067942e+00
 1.3669552840e+00	 1.2158032480e+00	 5.4605906149e+00
 1.3550486804e+00	 1.2290595912e+00	 6.1428031394e+00
 1.4750342299e+00	 1.0969881951e+00	 4.4057545610e+00
 1.4643254709e+00	 1.1112425092e+00	 4.0815816467e+00
 1.4534717506e+00	 1.1254016221e+00	 3.8221821028e+00
 1.4424743398e+00	 1.1394633331e+00	 3.6417647334e+00
 1.4313345531e+00	 1.1534254639e+00	 3.5518745087e+00
 1.4200537487e+00	 1.1672858595e+00	 3.5645248658e+00
 1.4086333278e+00	 1.1810423893e+00	 3.6922419525e+00
 1.3970747339e+00	 1.1946929483e+00	 3.9481086029e+00
 1.3853794522e+00	 1.2082354581e+00	 4.3458076575e+00
 1.3735490094e+00	 1.2216678676e+00	 4.8996642373e+00
 1.3615849724e+00	 1.2349881549e+00	 5.6246865877e+00
 1.4821151554e+00	 1.1022543046e+00	 4.5657164668e+00
 1.4713549888e+00	 1.1165770467e+00	 4.1252402686e+00
 1.4604491651e+00	 1.1308041306e+00	 3.7388201457e+00
 1.4493989610e+00	 1.1449333451e+00	 3.4260274130e+00
 1.4382056976e+00	 1.1589625014e+00	 3.2053438743e+00
 1.4268707396e+00	 1.1728894340e+00	 3.0954121187e+00
 1.4153954947e+00	 1.1867120023e+00	 3.1150709727e+00
 1.4037814136e+00	 1.2004280910e+00	 3.2833910875e+00
 1.3920299886e+00	 1.2140356118e+00	 3.6197102785e+00
 1.3801427535e+00	 1.2275325039e+00	 4.1436682335e+00
 1.3681212829e+00	 1.2409167354e+00	 4.8752402089e+00
 1.4891960970e+00	 1.1075204260e+00	 4.7246078188e+00
 1.4783845227e+00	 1.1219115964e+00	 4.1872968495e+00
 1.4674265954e+00	 1.1362066515e+00	 3.6735217856e+00
 1.4563235979e+00	 1.1504033696e+00	 3.2182916707e+00
 1.4450768577e+00	 1.1644995514e+00	 2.8484988867e+00
 1.4336877458e+00	 1.1784930213e+00	 2.5907762168e+00
 1.4221576770e+00	 1.1923816281e+00	 2.4715211498e+00
 1.4104881085e+00	 1.2061632467e+00	 2.5169208764e+00
 1.3986805400e+00	 1.2198357787e+00	 2.7529776038e+00
 1.3867365125e+00	 1.2333971534e+00	 3.2055338163e+00
 1.3746576083e+00	 1.2468453293e+00	 3.9002971062e+00
 1.4962770506e+00	 1.1127865563e+00	 4.8865509436e+00
 1.4854140686e+00	 1.1272461550e+00	 4.2804888014e+00
 1.4744040376e+00	 1.1416091815e+00	 3.6455563331e+00
 1.4632482467e+00	 1.1558734033e+00	 3.0412866105e+00
 1.4519480295e+00	 1.1700366109e+00	 2.5060929964e+00
 1.4405047637e+00	 1.1840966180e+00	 2.0759398772e+00
 1.4289198707e+00	 1.1980512636e+00	 1.7860108250e+00
 1.4171948148e+00	 1.2118984122e+00	 1.6707208193e+00
 1.4053311027e+00	 1.2256359554e+00	 1.7637295116e+00
 1.3933302828e+00	 1.2392618129e+00	 2.0979551714e+00
 1.3811939448e+00	 1.2527739333e+00	 2.7055889514e+00
 1.5033580123e+00	 1.1180526927e+00	 5.0618107455e+00
 1.4924436224e+00	 1.1325807198e+00	 4.4116861823e+00
 1.4813814877e+00	 1.1470117176e+00	 3.6738284444e+00
 1.4701729032e+00	 1.1613434433e+00	 2.9173133324e+00
 1.4588192090e+00	 1.1755736766e+00	 2.2024152812e+00
 1.4473217893e+00	 1.1897002211e+00	 1.5757524200e+00
 1.4356820722e+00	 1.2037209055e+00	 1.0825036067e+00
 1.4239015287e+00	 1.2176335841e+00	 7.6640571028e-01
 1.4119816729e+00	 1.2314361387e+00	 6.6975281604e-01
 1.3999240605e+00	 1.2451264790e+00	 8.3339700843e-01
 1.3877302886e+00	 1.2587025440e+00	 1.2967503846e+00
 1.5104389779e+00	 1.1233188320e+00	 5.2600704208e+00
 1.4994731802e+00	 1.1379152875e+00	 4.5953327697e+00
 1.4883589417e+00	 1.1524142568e+00	 3.7730901365e+00
 1.4770975637e+00	 1.1668134863e+00	 2.8682566675e+00
 1.4656903925e+00	 1.1811107454e+00	 1.9613030899e+00
 1.4541388188e+00	 1.1953038274e+00	 1.1146026777e+00
 1.4424442774e+00	 1.2093905506e+00	 3.8452089463e-01
 1.4306082465e+00	 1.2233687593e+00	-1.7480623367e-01
 1.4186322469e+00	 1.2372363253e+00	-5.1148896555e-01
 1.4065178420e+00	 1.2509911485e+00	-5.7589805643e-01
 1.3942666362e+00	 1.2646311581e+00	-3.2067666808e-01
 1.3289037716e+00	 1.2053455716e+00	 5.7815054817e+00
 1.3171000940e+00	 1.2182325872e+00	 6.0270641428e+00
 1.3051692256e+00	 1.2310063719e+00	 6.1615484231e+00
 1.2931127885e+00	 1.2436650637e+00	 6.1943090655e+00
 1.2809324416e+00	 1.2562068321e+00	 6.1332696115e+00
 1.2686298794e+00	 1.2686298794e+00	 5.9849541758e+00
 1.2562068321e+00	 1.2809324416e+00	 5.7545154035e+00
 1.2436650637e+00	 1.2931127885e+00	 5.4457623538e+00
 1.2310063719e+00	 1.3051692256e+00	 5.0611880645e+00
 1.2182325872e+00	 1.3171000940e+00	 4.6019965696e+00
 1.2053455716e+00	 1.3289037716e+00	 4.0681291515e+00
 1.3354399525e+00	 1.2112740345e+00	 6.2492265996e+00
 1.3235782188e+00	 1.2242244346e+00	 6.6154607053e+00
 1.3115886688e+00	 1.2370610469e+00	 6.8592470901e+00
 1.2994729324e+00	 1.2497820000e+00	 6.9864204215e+00
 1.2872326766e+00	 1.2623854548e+00	 7.0013354102e+00
 1.2748696047e+00	 1.2748696047e+00	 6.9069012613e+00
 1.2623854548e+00	 1.2872326766e+00	 6.7046163126e+00
 1.2497820000e+00	 1.2994729324e+00	 6.3946025842e+00
 1.2370610469e+00	 1.3115886688e+00	 5.9756399790e+00
 1.2242244346e+00	 1.3235782188e+00	 5.4451998866e+00
 1.2112740345e+00	 1.3354399525e+00	 4.7994779578e+00
 1.3419761667e+00	 1.2172025276e+00	 6.4611802130e+00
 1.3300563767e+00	 1.2302163125e+00	 6.9468923545e+00
 1.3180081446e+00	 1.2431157527e+00	 7.3021596306e+00
 1.3058331086e+00	 1.2558989676e+00	 7.5288568364e+00
 1.2935329439e+00	 1.2685641091e+00	 7.6274090578e+00
 1.2811093617e+00	 1.2811093617e+00	 7.5968333091e+00
 1.2685641091e+00	 1.2935329439e+00	 7.4347802381e+00
 1.2558989676e+00	 1.3058331086e+00	 7.1375756065e+00
 1.2431157527e+00	 1.3180081446e+00	 6.7002612640e+00
 1.2302163125e+00	 1.3300563767e+00	 6.1166353536e+00
 1.2172025276e+00	 1.3419761667e+00	 5.3792914982e+00
 1.3485124106e+00	 1.2231310476e+00	 6.4236508472e+00
 1.3365345639e+00	 1.2362082176e+00	 7.0196474839e+00
 1.3244276496e+00	 1.2491704859e+00	 7.4816354224e+00
 1.3121933137e+00	 1.2620159630e+00	 7.8070893497e+00
 1.2998332396e+00	 1.2747427914e+00	 7.9921466884e+00
 1.2873491471e+00	 1.2873491471e+00	 8.0316569288e+00
 1.2747427914e+00	 1.2998332396e+00	 7.9192307874e+00
 1.2620159630e+00	 1.3121933137e+00	 7.6472888795e+00
 1.2491704859e+00	 1.3244276496e+00	 7.2071096080e+00
 1.2362082176e+00	 1.3365345639e+00	 6.5888759848e+00
 1.2231310476e+00	 1.3485124106e+00	 5.7817211228e+00
 1.3550486804e+00	 1.2290595912e+00	 6.1428031394e+00
 1.3430127768e+00	 1.2422001465e+00	 6.8320498784e+00
 1.3308471800e+00	 1.2552252432e+00	 7.3891940157e+00
 1.3185535440e+00	 1.2681329825e+00	 7.8068733771e+00
 1.3061335604e+00	 1.2809214982e+00	 8.0765823786e+00
 1.2935889571e+00	 1.2935889571e+00	 8.1887295575e+00
 1.2809214982e+00	 1.3061335604e+00	 8.1326945693e+00
 1.2681329825e+00	 1.3185535440e+00	 7.8968843160e+00
 1.2552252432e+00	 1.3308471800e+00	 7.4687878888e+00
 1.2422001465e+00	 1.3430127768e+00	 6.8350300243e+00
 1.2290595912e+00	 1.3550486804e+00	 5.9814227940e+00
 1.3615849724e+00	 1.2349881549e+00	 5.6246865877e+00
 1.3494910117e+00	 1.2481920957e+00	 6.3824597750e+00
 1.3372667322e+00	 1.2612800210e+00	 7.0165229930e+00
 1.3249137960e+00	 1.2742500229e+00	 7.5142438620e+00
 1.3124339026e+00	 1.2871002260e+00	 7.8621210820e+00
 1.2998287885e+00	 1.2998287885e+00	 8.0458506690e+00
 1.2871002260e+00	 1.3124339026e+00	 8.0503911729e+00
 1.2742500229e+00	 1.3249137960e+00	 7.8600275242e+00
 1.2612800210e+00	 1.3372667322e+00	 7.4584331719e+00
 1.2481920957e+00	 1.3494910117e+00	 6.8287301927e+00
 1.2349881549e+00	 1.3615849724e+00	 5.9535470746e+00
 1.3681212829e+00	 1.2409167354e+00	 4.8752402089e+00
 1.3559692650e+00	 1.2541840620e+00	 5.6692749370e+00
 1.3436863027e+00	 1.2673348161e+00	 6.3554759363e+00
 1.3312740660e+00	 1.2803670806e+00	 6.9155106101e+00
 1.3187342626e+00	 1.2932789713e+00	 7.3305318107e+00
 1.3060686374e+00	 1.3060686374e+00	 7.5812532812e+00
 1.2932789713e+00	 1.3187342626e+00	 7.6480234792e+00
 1.2803670806e+00	 1.3312740660e+00	 7.5108974036e+00
 1.2673348161e+00	 1.3436863027e+00	 7.1497060689e+00
 1.2541840620e+00	 1.3559692650e+00	 6.5441232877e+00
 1.2409167354e+00	 1.3681212829e+00	 5.6737294476e+00
 1.3746576083e+00	 1.2468453293e+00	 3.9002971062e+00
 1.3624475330e+00	 1.2601760418e+00	 4.6909317418e+00
 1.3501058877e+00	 1.2733896248e+00	 5.3980704949e+00
 1.3376343504e+00	 1.2864841522e+00	 5.9972538023e+00
 1.3250346370e+00	 1.2994577307e+00	 6.4639410553e+00
 1.3123085006e+00	 1.3123085006e+00	 6.7735957491e+00
 1.2994577307e+00	 1.3250346370e+00	 6.9017682932e+00
 1.2864841522e+00	 1.3376343504e+00	 6.8241760814e+00
 1.2733896248e+00	 1.3501058877e+00	 6.5167804444e+00
 1.2601760418e+00	 1.3624475330e+00	 5.9558601270e+00
 1.2468453293e+00	 1.3746576083e+00	 5.1180809588e+00
 1.3811939448e+00	 1.2527739333e+00	 2.7055889514e+00
 1.3689258119e+00	 1.2661680317e+00	 3.4459062812e+00
 1.3565254836e+00	 1.2794444438e+00	 4.1364865529e+00
 1.3439946455e+00	 1.2926012342e+00	 4.7463196778e+00
 1.3313350220e+00	 1.3056365005e+00	 5.2448264365e+00
 1.3185483743e+00	 1.3185483743e+00	 5.6019538358e+00
 1.3056365005e+00	 1.3313350220e+00	 5.7882672866e+00
 1.2926012342e+00	 1.3439946455e+00	 5.7750391800e+00
 1.2794444438e+00	 1.3565254836e+00	 5.5343334605e+00
 1.2661680317e+00	 1.3689258119e+00	 5.0390858208e+00
 1.2527739333e+00	 1.3811939448e+00	 4.2631791691e+00
 1.3877302886e+00	 1.2587025440e+00	 1.2967503846e+00
 1.3754040983e+00	 1.2721600285e+00	 1.9327154746e+00
 1.3629450867e+00	 1.2854992697e+00	 2.5630644918e+00
 1.3503549480e+00	 1.2987183231e+00	 3.1498163837e+00
 1.3376354142e+00	 1.3118152773e+00	 3.6560105794e+00
 1.3247882551e+00	 1.3247882551e+00	 4.0458130512e+00
 1.3118152773e+00	 1.3376354142e+00	 4.2846182408e+00
 1.2987183231e+00	 1.3503549480e+00	 4.3391464038e+00
 1.2854992697e+00	 1.3629450867e+00	 4.1775359469e+00
 1.2721600285e+00	 1.3754040983e+00	 3.7694303646e+00
 1.2587025440e+00	 1.3877302886e+00	 3.0860594083e+00
 1.3942666362e+00	 1.2646311581e+00	-3.2067666808e-01
 1.3818823883e+00	 1.2781520287e+00	 1.4991819365e-01
 1.3693646936e+00	 1.2915540990e+00	 6.7030354498e-01
 1.3567152540e+00	 1.3048354155e+00	 1.1951099846e+00
 1.3439358099e+00	 1.3179940577e+00	 1.6806552041e+00
 1.3310281395e+00	 1.3310281395e+00	 2.0850612501e+00
 1.3179940577e+00	 1.3439358099e+00	 2.3683665796e+00
 1.3048354155e+00	 1.3567152540e+00	 2.4926324342e+00
 1.2915540990e+00	 1.3693646936e+00	 2.4220430861e+00
 1.2781520287e+00	 1.3818823883e+00	 2.1229995418e+00
 1.2646311581e+00	 1.3942666362e+00	 1.5642063201e+00
 1.2053455716e+00	 1.3289037716e+00	 4.0681291515e+00
 1.1923450022e+00	 1.3405806439e+00	 3.5462588882e+00
 1.1792350016e+00	 1.3521271287e+00	 3.1130850576e+00
 1.1660175436e+00	 1.3635416964e+00	 2.7538566949e+00
 1.1526946297e+00	 1.3748228572e+00	 2.4558398319e+00
 1.1392682885e+00	 1.3859691615e+00	 2.2083473194e+00
 1.1257405746e+00	 1.3969792004e+00	 2.0027623205e+00
 1.1121135673e+00	 1.4078516063e+00	 1.8325553996e+00
 1.0983893700e+00	 1.4185850537e+00	 1.7231893822e+00
 1.0845701087e+00	 1.4291782595e+00	 1.7145665119e+00
 1.0706579313e+00	 1.4396299835e+00	 1.8102229130e+00
 1.2112740345e+00	 1.3354399525e+00	 4.7994779578e+00
 1.1982095221e+00	 1.3471742572e+00	 4.1430266357e+00
 1.1850350403e+00	 1.3587775331e+00	 3.5766411473e+00
 1.1717525725e+00	 1.3702482431e+00	 3.0908971235e+00
 1.1583641302e+00	 1.3815848900e+00	 2.6781439171e+00
 1.1448717519e+00	 1.3927860171e+00	 2.3325284345e+00
 1.1312775022e+00	 1.4038502086e+00	 2.0500128864e+00
 1.1175834709e+00	 1.4147760902e+00	 1.8283863920e+00
 1.1037917714e+00	 1.4255623298e+00	 1.6772215755e+00
 1.0899045405e+00	 1.4362076381e+00	 1.6527265163e+00
 1.0759239363e+00	 1.4467107686e+00	 1.7693662353e+00
 1.2172025276e+00	 1.3419761667e+00	 5.3792914982e+00
 1.2040740719e+00	 1.3537679042e+00	 4.6090812577e+00
 1.1908351086e+00	 1.3654279714e+00	 3.9287914228e+00
 1.1774876307e+00	 1.3769548240e+00	 3.3337637455e+00
 1.1640336596e+00	 1.3883469573e+00	 2.8208819956e+00
 1.1504752439e+00	 1.3996029075e+00	 2.3885905898e+00
 1.1368144581e+00	 1.4107212519e+00	 2.0369073674e+00
 1.1230534023e+00	 1.4217006094e+00	 1.7674304503e+00
 1.1091942004e+00	 1.4325396415e+00	 1.5840223590e+00
 1.0952389994e+00	 1.4432370525e+00	 1.5369525183e+00
 1.0811899682e+00	 1.4537915898e+00	 1.6622953992e+00
 1.2231310476e+00	 1.3485124106e+00	 5.7817211228e+00
 1.2099386484e+00	 1.3603615810e+00	 4.9207474401e+00
 1.1966352032e+00	 1.3720784399e+00	 4.1481681232e+00
 1.1832227149e+00	 1.3836614353e+00	 3.4635397268e+00
 1.1697032148e+00	 1.3951090553e+00	 2.8677405868e+00
 1.1560787612e+00	 1.4064198288e+00	 2.3629850286e+00
 1.1423514391e+00	 1.4175923263e+00	 1.9528319276e+00
 1.1285233586e+00	 1.4286251600e+00	 1.6421875624e+00
 1.1145966539e+00	 1.4395169849e+00	 1.4373027379e+00
 1.1005734825e+00	 1.4502664987e+00	 1.3667768786e+00
 1.0864560239e+00	 1.4608724430e+00	 1.4922855473e+00
 1.2290595912e+00	 1.3550486804e+00	 5.9814227940e+00
 1.2158032480e+00	 1.3669552840e+00	 5.0548122353e+00
 1.2024353208e+00	 1.3787289348e+00	 4.2138208685e+00
 1.1889578219e+00	 1.3903680732e+00	 3.4616777108e+00
 1.1753727924e+00	 1.4018711800e+00	 2.8027246902e+00
 1.1616823008e+00	 1.4132367772e+00	 2.2424272107e+00
 1.1478884421e+00	 1.4244634280e+00	 1.7873792495e+00
 1.1339933365e+00	 1.4355497381e+00	 1.4453029333e+00
 1.1199991288e+00	 1.4464943559e+00	 1.2250425737e+00
 1.1059079868e+00	 1.4572959729e+00	 1.1416785912e+00
 1.0917221006e+00	 1.4679533244e+00	 1.2624866854e+00
 1.2349881549e+00	 1.3615849724e+00	 5.9535470746e+00
 1.2216678676e+00	 1.3735490094e+00	 4.9885160656e+00
 1.2082354581e+00	 1.3853794522e+00	 4.1052087408e+00
 1.1946929483e+00	 1.3970747339e+00	 3.3099930424e+00
 1.1810423893e+00	 1.4086333278e+00	 2.6101522237e+00
 1.1672858595e+00	 1.4200537487e+00	 2.0138925391e+00
 1.1534254639e+00	 1.4313345531e+00	 1.5303456257e+00
 1.1394633331e+00	 1.4424743398e+00	 1.1695655269e+00
 1.1254016221e+00	 1.4534717506e+00	 9.4252033737e-01
 1.1112425092e+00	 1.4643254709e+00	 8.6107848665e-01
 1.0969881951e+00	 1.4750342299e+00	 9.7592417481e-01
 1.2409167354e+00	 1.3681212829e+00	 5.6737294476e+00
 1.2275325039e+00	 1.3801427535e+00	 4.6995440310e+00
 1.2140356118e+00	 1.3920299886e+00	 3.8021926383e+00
 1.2004280910e+00	 1.4037814136e+00	 2.9906572337e+00
 1.1867120023e+00	 1.4153954947e+00	 2.2746486677e+00
 1.1728894340e+00	 1.4268707396e+00	 1.6646122549e+00
 1.1589625014e+00	 1.4382056976e+00	 1.1717281821e+00
 1.1449333451e+00	 1.4493989610e+00	 8.0790669465e-01
 1.1308041306e+00	 1.4604491651e+00	 5.8577804583e-01
 1.1165770467e+00	 1.4713549888e+00	 5.1867722470e-01
 1.1022543046e+00	 1.4821151554e+00	 6.3548690169e-01
 1.2468453293e+00	 1.3746576083e+00	 5.1180809588e+00
 1.2333971534e+00	 1.3867365125e+00	 4.1660175097e+00
 1.2198357787e+00	 1.3986805400e+00	 3.2850278938e+00
 1.2061632467e+00	 1.4104881085e+00	 2.4861916616e+00
 1.1923816281e+00	 1.4221576770e+00	 1.7811419082e+00
 1.1784930213e+00	 1.4336877458e+00	 1.1820694965e+00
 1.1644995514e+00	 1.4450768577e+00	 7.0172222532e-01
 1.1504033696e+00	 1.4563235979e+00	 3.5339889091e-01
 1.1362066515e+00	 1.4674265954e+00	 1.5093822693e-01
 1.1219115964e+00	 1.4783845227e+00	 1.0870273849e-01
 1.1075204260e+00	 1.4891960970e+00	 2.4214202752e-01
 1.2527739333e+00	 1.3811939448e+00	 4.2631791691e+00
 1.2392618129e+00	 1.3933302828e+00	 3.3664860434e+00
 1.2256359554e+00	 1.4053311027e+00	 2.5343571482e+00
 1.2118984122e+00	 1.4171948148e+00	 1.7794614902e+00
 1.1980512636e+00	 1.4289198707e+00	 1.1148572731e+00
 1.1840966180e+00	 1.4405047637e+00	 5.5399551654e-01
 1.1700366109e+00	 1.4519480295e+00	 1.1071871299e-01
 1.1558734033e+00	 1.4632482467e+00	-2.0074552944e-01
 1.1416091815e+00	 1.4744040376e+00	-3.6579587599e-01
 1.1272461550e+00	 1.4854140686e+00	-3.6993590811e-01
 1.1127865563e+00	 1.4962770506e+00	-2.0325500426e-01
 1.2587025440e+00	 1.3877302886e+00	 3.0860594083e+00
 1.2451264790e+00	 1.3999240605e+00	 2.2799194971e+00
 1.2314361387e+00	 1.4119816729e+00	 1.5312034712e+00
 1.2176335841e+00	 1.4239015287e+00	 8.5366981126e-01
 1.2037209055e+00	 1.4356820722e+00	 2.6131275378e-01
 1.1897002211e+00	 1.4473217893e+00	-2.3163394890e-01
 1.1755736766e+00	 1.4588192090e+00	-6.1069815964e-01
 1.1613434433e+00	 1.4701729032e+00	-8.6117543335e-01
 1.1470117176e+00	 1.4813814877e+00	-9.6814005918e-01
 1.1325807198e+00	 1.4924436224e+00	-9.2002432579e-01
 1.1180526927e+00	 1.5033580123e+00	-7.0552338870e-01
 1.2646311581e+00	 1.3942666362e+00	 1.5642063201e+00
 1.2509911485e+00	 1.4065178420e+00	 8.8570048395e-01
 1.2372363253e+00	 1.4186322469e+00	 2.5696372022e-01
 1.2233687593e+00	 1.4306082465e+00	-3.0764800612e-01
 1.2093905506e+00	 1.4424442774e+00	-7.9368559339e-01
 1.1953038274e+00	 1.4541388188e+00	-1.1866021625e+00
 1.1811107454e+00	 1.4656903925e+00	-1.4717532588e+00
 1.1668134863e+00	 1.4770975637e+00	-1.6344019546e+00
 1.1524142568e+00	 1.4883589417e+00	-1.6610744685e+00
 1.1379152875e+00	 1.4994731802e+00	-1.5423278655e+00
 1.1233188320e+00	 1.5104389779e+00	-1.2643221227e+00
 1.0706579313e+00	 1.4396299835e+00	 1.8102229130e+00
 1.0566573927e+00	 1.4499372895e+00	 1.9287074955e+00
 1.0425683162e+00	 1.4601008186e+00	 1.9933000477e+00
 1.0283928993e+00	 1.4701194682e+00	 2.0140203052e+00
 1.0141333570e+00	 1.4799921803e+00	 1.9992751435e+00
 9.9979192022e-01	 1.4897179414e+00	 1.9534881318e+00
 9.8537083540e-01	 1.4992957834e+00	 1.8773968392e+00
 9.7087236277e-01	 1.5087247831e+00	 1.7739122577e+00
 9.5629877555e-01	 1.5180040630e+00	 1.6444080488e+00
 9.4165235869e-01	 1.5271327913e+00	 1.4887076432e+00
 9.2693540778e-01	 1.5361101821e+00	 1.3051448594e+00
 1.0759239363e+00	 1.4467107686e+00	 1.7693662353e+00
 1.0618545364e+00	 1.4570687708e+00	 1.9324819136e+00
 1.0476961631e+00	 1.4672822890e+00	 2.0472229775e+00
 1.0334510248e+00	 1.4773502151e+00	 2.1196441788e+00
 1.0191213472e+00	 1.4872714859e+00	 2.1534009048e+00
 1.0047093725e+00	 1.4970450829e+00	 2.1468499989e+00
 9.9021735790e-01	 1.5066700332e+00	 2.1011274065e+00
 9.7564757489e-01	 1.5161454092e+00	 2.0166362191e+00
 9.6100230784e-01	 1.5254703291e+00	 1.8925503715e+00
 9.4628385293e-01	 1.5346439568e+00	 1.7268774244e+00
 9.3149451705e-01	 1.5436655027e+00	 1.5165198731e+00
 1.0811899682e+00	 1.4537915898e+00	 1.6622953992e+00
 1.0670517066e+00	 1.4642002885e+00	 1.8559193124e+00
 1.0528240362e+00	 1.4744637960e+00	 2.0092130671e+00
 1.0385091761e+00	 1.4845809988e+00	 2.1244068563e+00
 1.0241093629e+00	 1.4945508286e+00	 2.1981206036e+00
 1.0096268498e+00	 1.5043722618e+00	 2.2288271434e+00
 9.9506390513e-01	 1.5140443207e+00	 2.2155491236e+00
 9.8042281137e-01	 1.5235660733e+00	 2.1563409313e+00
 9.6570586411e-01	 1.5329366332e+00	 2.0483548582e+00
 9.5091537079e-01	 1.5421551607e+00	 1.8879053843e+00
 9.3605364958e-01	 1.5512208618e+00	 1.6705314115e+00
 1.0864560239e+00	 1.4608724430e+00	 1.4922855473e+00
 1.0722489004e+00	 1.4713318385e+00	 1.7057890442e+00
 1.0579519325e+00	 1.4816453355e+00	 1.8888178915e+00
 1.0435673503e+00	 1.4918118154e+00	 2.0372600230e+00
 1.0290974013e+00	 1.5018302042e+00	 2.1461093379e+00
 1.0145443495e+00	 1.5116994739e+00	 2.2127691963e+00
 9.9991047433e-01	 1.5214186416e+00	 2.2338741849e+00
 9.8519806950e-01	 1.5309867709e+00	 2.2053606457e+00
 9.7040944171e-01	 1.5404029713e+00	 2.1225350094e+00
 9.5554690965e-01	 1.5496663985e+00	 1.9801397409e+00
 9.4061280278e-01	 1.5587762552e+00	 1.7724167297e+00
 1.0917221006e+00	 1.4679533244e+00	 1.2624866854e+00
 1.0774461148e+00	 1.4784634168e+00	 1.4886685411e+00
 1.0630798492e+00	 1.4888269036e+00	 1.6935653485e+00
 1.0486255446e+00	 1.4990426606e+00	 1.8688176454e+00
 1.0340854594e+00	 1.5091096088e+00	 2.0098504580e+00
 1.0194618686e+00	 1.5190267150e+00	 2.1117483871e+00
 1.0047570627e+00	 1.5287929918e+00	 2.1690401908e+00
 9.8997334657e-01	 1.5384074980e+00	 2.1757720028e+00
 9.7511303797e-01	 1.5478693389e+00	 2.1255779213e+00
 9.6017846689e-01	 1.5571776662e+00	 2.0117477749e+00
 9.4517197406e-01	 1.5663316785e+00	 1.8272919002e+00
 1.0969881951e+00	 1.4750342299e+00	 9.7592417481e-01
 1.0826433468e+00	 1.4855950194e+00	 1.2104042928e+00
 1.0682077833e+00	 1.4960084961e+00	 1.4308238098e+00
 1.0536837560e+00	 1.5062735304e+00	 1.6300207755e+00
 1.0390735344e+00	 1.5163890381e+00	 1.8015692435e+00
 1.0243794045e+00	 1.5263539811e+00	 1.9385678138e+00
 1.0096036677e+00	 1.5361673670e+00	 2.0337183237e+00
 9.9474863987e-01	 1.5458282504e+00	 2.0794017702e+00
 9.7981665023e-01	 1.5553357319e+00	 2.0677512409e+00
 9.6481003987e-01	 1.5646889594e+00	 1.9907216573e+00
 9.4973116085e-01	 1.5738871276e+00	 1.8401561670e+00
 1.1022543046e+00	 1.4821151554e+00	 6.3548690169e-01
 1.0878405936e+00	 1.4927266421e+00	 8.7475033142e-01
 1.0733357319e+00	 1.5031901089e+00	 1.1093590389e+00
 1.0587419819e+00	 1.5135044207e+00	 1.3315844345e+00
 1.0440616236e+00	 1.5236684881e+00	 1.5332407479e+00
 1.0292969543e+00	 1.5336812679e+00	 1.7057695281e+00
 1.0144502863e+00	 1.5435417632e+00	 1.8403213411e+00
 9.9952394671e-01	 1.5532490237e+00	 1.9278344102e+00
 9.8452027581e-01	 1.5628021461e+00	 1.9591099732e+00
 9.6944162597e-01	 1.5722002739e+00	 1.9248841600e+00
 9.5429036055e-01	 1.5814425980e+00	 1.8158962231e+00
 1.1075204260e+00	 1.4891960970e+00	 2.4214202752e-01
 1.0930378522e+00	 1.4998582811e+00	 4.8741447016e-01
 1.0784636922e+00	 1.5103717380e+00	 7.3775450488e-01
 1.0638002191e+00	 1.5207353274e+00	 9.8400472964e-01
 1.0490497242e+00	 1.5309479545e+00	 1.2165974701e+00
 1.0342145152e+00	 1.5410085713e+00	 1.4256424409e+00
 1.0192969159e+00	 1.5509161760e+00	 1.6010113919e+00
 1.0042992644e+00	 1.5606698139e+00	 1.7324194812e+00
 9.8922391205e-01	 1.5702685772e+00	 1.8095031428e+00
 9.7407322258e-01	 1.5797116054e+00	 1.8218942513e+00
 9.5884957059e-01	 1.5889980856e+00	 1.7592904137e+00
 1.1127865563e+00	 1.4962770506e+00	-2.0325500426e-01
 1.0982351196e+00	 1.5069899321e+00	 5.4267743036e-02
 1.0835916612e+00	 1.5175533793e+00	 3.2441749843e-01
 1.0688584650e+00	 1.5279662463e+00	 5.9756582111e-01
 1.0540378332e+00	 1.5382274334e+00	 8.6313686139e-01
 1.0391320845e+00	 1.5483358872e+00	 1.1102300547e+00
 1.0241435538e+00	 1.5582906014e+00	 1.3277076606e+00
 1.0090745901e+00	 1.5680906167e+00	 1.5042788798e+00
 9.9392755629e-01	 1.5777350210e+00	 1.6285803165e+00
 9.7870482706e-01	 1.5872229497e+00	 1.6892525818e+00
 9.6340878838e-01	 1.5965535860e+00	 1.6750128680e+00
 1.1180526927e+00	 1.5033580123e+00	-7.0552338870e-01
 1.1034323929e+00	 1.5141215913e+00	-4.1894177040e-01
 1.0887196359e+00	 1.5247350288e+00	-1.2241487190e-01
 1.0739167166e+00	 1.5351971735e+00	 1.8234674383e-01
 1.0590259478e+00	 1.5455069204e+00	 4.8412867012e-01
 1.0440496594e+00	 1.5556632114e+00	 7.7133802939e-01
 1.0289901971e+00	 1.5656650352e+00	 1.0320938471e+00
 1.0138499213e+00	 1.5755114279e+00	 1.2543139272e+00
 9.9863120585e-01	 1.5852014733e+00	 1.4257979898e+00
 9.8333643678e-01	 1.5947343026e+00	 1.5343068639e+00
 9.6796801134e-01	 1.6041090950e+00	 1.5676375620e+00
 1.1233188320e+00	 1.5104389779e+00	-1.2643221227e+00
 1.1086296691e+00	 1.5212532544e+00	-9.2658416072e-01
 1.0938476136e+00	 1.5319166823e+00	-5.9466980086e-01
 1.0789749711e+00	 1.5424281048e+00	-2.5177191099e-01
 1.0640140653e+00	 1.5527864116e+00	 9.0622132175e-02
 1.0489672371e+00	 1.5629905397e+00	 4.2054158425e-01
 1.0338368432e+00	 1.5730394731e+00	 7.2562548558e-01
 1.0186252552e+00	 1.5829322433e+00	 9.9321230695e-01
 1.0033348581e+00	 1.5926679297e+00	 1.2104258437e+00
 9.8796804913e-01	 1.6022456596e+00	 1.3642571470e+00
 9.7252723688e-01	 1.6116646083e+00	 1.4416423134e+00
 9.2693540778e-01	 1.5361101821e+00	 1.3051448594e+00
 9.1215022821e-01	 1.5449354956e+00	 1.1200853859e+00
 8.9729913487e-01	 1.5536080398e+00	 9.6063770275e-01
 8.8238445016e-01	 1.5621271689e+00	 8.2541035538e-01
 8.6740850250e-01	 1.5704922835e+00	 7.1336529092e-01
 8.5237362528e-01	 1.5787028302e+00	 6.2385357756e-01
 8.3728215572e-01	 1.5867583015e+00	 5.5664760071e-01
 8.2213643373e-01	 1.5946582360e+00	 5.1196975034e-01
 8.0693880086e-01	 1.6024022183e+00	 4.9051763364e-01
 7.9169159915e-01	 1.6099898785e+00	 4.9348586542e-01
 7.7639717010e-01	 1.6174208922e+00	 5.2258450588e-01
 9.3149451705e-01	 1.5436655027e+00	 1.5165198731e+00
 9.1663661694e-01	 1.5525342233e+00	 1.2962542669e+00
 9.0171247886e-01	 1.5612494232e+00	 1.1032566379e+00
 8.8672443663e-01	 1.5698104534e+00	 9.3731062203e-01
 8.7167483014e-01	 1.5782167117e+00	 7.9833155309e-01
 8.5656600424e-01	 1.5864676417e+00	 6.8640375953e-01
 8.4140030765e-01	 1.5945627336e+00	 6.0181453428e-01
 8.2618009180e-01	 1.6025015238e+00	 5.4508478969e-01
 8.1090770974e-01	 1.6102835947e+00	 5.1699642951e-01
 7.9558551504e-01	 1.6179085745e+00	 5.1861648847e-01
 7.8021586071e-01	 1.6253761376e+00	 5.5131810671e-01
 9.3605364958e-01	 1.5512208618e+00	 1.6705314115e+00
 9.2112302855e-01	 1.5601329897e+00	 1.4357546494e+00
 9.0612584536e-01	 1.5688908455e+00	 1.2270624312e+00
 8.9106444524e-01	 1.5774937771e+00	 1.0453315060e+00
 8.7594117953e-01	 1.5859411792e+00	 8.9138468712e-01
 8.6075840458e-01	 1.5942324928e+00	 7.6602938209e-01
 8.4551848059e-01	 1.6023672056e+00	 6.7009294293e-01
 8.3022377049e-01	 1.6103448516e+00	 6.0445484992e-01
 8.1487663886e-01	 1.6181650112e+00	 5.7007575900e-01
 7.9947945079e-01	 1.6258273110e+00	 5.6802346317e-01
 7.8403457080e-01	 1.6333314235e+00	 5.9949583447e-01
 9.4061280278e-01	 1.5587762552e+00	 1.7724167297e+00
 9.2560946050e-01	 1.5677317906e+00	 1.5405784555e+00
 9.1053923186e-01	 1.5765323025e+00	 1.3312790455e+00
 8.9540447352e-01	 1.5851771357e+00	 1.1464060600e+00
 8.8020754827e-01	 1.5936656817e+00	 9.8764322438e-01
 8.6495082393e-01	 1.6019973791e+00	 8.5650984928e-01
 8.4963667220e-01	 1.6101717129e+00	 7.5439717172e-01
 8.3426746751e-01	 1.6181882149e+00	 6.8260163144e-01
 8.1884558597e-01	 1.6260464635e+00	 6.4235511325e-01
 8.0337340419e-01	 1.6337460834e+00	 6.3485220637e-01
 7.8785329820e-01	 1.6412867455e+00	 6.6127454860e-01
 9.4517197406e-01	 1.5663316785e+00	 1.8272919002e+00
 9.3009591025e-01	 1.5753306217e+00	 1.6126586785e+00
 9.1495263588e-01	 1.5841737898e+00	 1.4151244692e+00
 8.9974451902e-01	 1.5928605247e+00	 1.2375050303e+00
 8.8447393394e-01	 1.6013902149e+00	 1.0822977908e+00
 8.6914325991e-01	 1.6097622962e+00	 9.5172182074e-01
 8.5375488014e-01	 1.6179762512e+00	 8.4775477583e-01
 8.3831118058e-01	 1.6260316094e+00	 7.7216683336e-01
 8.2281454883e-01	 1.6339279471e+00	 7.2655165201e-01
 8.0726737304e-01	 1.6416648872e+00	 7.1235440879e-01
 7.9167204075e-01	 1.6492420990e+00	 7.3089698365e-01
 9.4973116085e-01	 1.5738871276e+00	 1.8401561670e+00
 9.3458237525e-01	 1.5829294785e+00	 1.6538721992e+00
 9.1936605489e-01	 1.5918153031e+00	 1.4778122156e+00
 9.0408457928e-01	 1.6005439398e+00	 1.3156372588e+00
 8.8874033411e-01	 1.6091147744e+00	 1.1706106315e+00
 8.7333571015e-01	 1.6175272397e+00	 1.0456380775e+00
 8.5787310209e-01	 1.6257808160e+00	 9.4330494609e-01
 8.4235490739e-01	 1.6338750305e+00	 8.6591035641e-01
 8.2678352519e-01	 1.6418094574e+00	 8.1549840074e-01
 8.1116135513e-01	 1.6495837179e+00	 7.9388644199e-01
 7.9549079628e-01	 1.6571974796e+00	 8.0269058047e-01
 9.5429036055e-01	 1.5814425980e+00	 1.8158962231e+00
 9.3906885296e-01	 1.5905283569e+00	 1.6660425695e+00
 9.2377948642e-01	 1.5994568381e+00	 1.5185528258e+00
 9.0842465183e-01	 1.6082273767e+00	 1.3778501192e+00
 8.9300674637e-01	 1.6168393557e+00	 1.2479151931e+00
 8.7752817226e-01	 1.6252922052e+00	 1.1323264639e+00
 8.6199133570e-01	 1.6335854030e+00	 1.0342970223e+00
 8.4639864566e-01	 1.6417184739e+00	 9.5670859906e-01
 8.3075251279e-01	 1.6496909901e+00	 9.0214254012e-01
 8.1505534825e-01	 1.6575025710e+00	 8.7290785073e-01
 7.9930956263e-01	 1.6651528827e+00	 8.7106638980e-01
 9.5884957059e-01	 1.5889980856e+00	 1.7592904137e+00
 9.4355534085e-01	 1.5981272526e+00	 1.6509427635e+00
 9.2819292795e-01	 1.6070983903e+00	 1.5365553756e+00
 9.1276473423e-01	 1.6159108311e+00	 1.4212299863e+00
 8.9727316830e-01	 1.6245639546e+00	 1.3096157630e+00
 8.8172064388e-01	 1.6330571883e+00	 1.2059489029e+00
 8.6610957865e-01	 1.6413900076e+00	 1.1140890912e+00
 8.5044239310e-01	 1.6495619350e+00	 1.0375528437e+00
 8.3472150939e-01	 1.6575725407e+00	 9.7954378485e-01
 8.1894935020e-01	 1.6654214421e+00	 9.4297992792e-01
 8.0312833764e-01	 1.6731083039e+00	 9.3051804564e-01
 9.6340878838e-01	 1.5965535860e+00	 1.6750128680e+00
 9.4804183636e-01	 1.6057261611e+00	 1.6102978973e+00
 9.3260637698e-01	 1.6147399556e+00	 1.5310289845e+00
 9.1710482400e-01	 1.6235942984e+00	 1.4429027365e+00
 9.0153959748e-01	 1.6322885665e+00	 1.3511871624e+00
 8.8591312262e-01	 1.6408221847e+00	 1.2607604827e+00
 8.7022782860e-01	 1.6491946255e+00	 1.1761466668e+00
 8.5448614741e-01	 1.6574054094e+00	 1.1015477300e+00
 8.3869051273e-01	 1.6654541046e+00	 1.0408728488e+00
 8.2284335877e-01	 1.6733403267e+00	 9.9776436935e-01
 8.0694711914e-01	 1.6810637386e+00	 9.7562080628e-01
 9.6796801134e-01	 1.6041090950e+00	 1.5676375620e+00
 9.5252833696e-01	 1.6133250783e+00	 1.5457879185e+00
 9.3701983101e-01	 1.6223815295e+00	 1.5011843283e+00
 9.2144491869e-01	 1.6312777745e+00	 1.4400342792e+00
 9.0580603150e-01	 1.6400131873e+00	 1.3681744919e+00
 8.9010560612e-01	 1.6485871898e+00	 1.2911086119e+00
 8.7434608322e-01	 1.6569992522e+00	 1.2140414495e+00
 8.5852990631e-01	 1.6652488928e+00	 1.1419098122e+00
 8.4265952057e-01	 1.6733356775e+00	 1.0794099935e+00
 8.2673737175e-01	 1.6812592202e+00	 1.0310220056e+00
 8.1076590497e-01	 1.6890191823e+00	 1.0010306606e+00
 9.7252723688e-01	 1.6116646083e+00	 1.4416423134e+00
 9.5701484010e-01	 1.6209239997e+00	 1.4590502663e+00
 9.4143328755e-01	 1.6300231078e+00	 1.4462351549e+00
 9.2578501584e-01	 1.6389612550e+00	 1.4098311176e+00
 9.1007246793e-01	 1.6477378124e+00	 1.3561929283e+00
 8.9429809199e-01	 1.6563521993e+00	 1.2914322412e+00
 8.7846434017e-01	 1.6648038834e+00	 1.2214501623e+00
 8.6257366750e-01	 1.6730923806e+00	 1.1519661979e+00
 8.4662853067e-01	 1.6812172549e+00	 1.0885436577e+00
 8.3063138694e-01	 1.6891781183e+00	 1.0366116088e+00
 8.1458469296e-01	 1.6969746305e+00	 1.0014834975e+00
 7.7639717010e-01	 1.6174208922e+00	 5.2258450588e-01
 7.6105524190e-01	 1.6246962038e+00	 5.8354286629e-01
 7.4567074850e-01	 1.6318143016e+00	 6.7945587538e-01
 7.3024602370e-01	 1.6387749955e+00	 8.0034878890e-01
 7.1478339657e-01	 1.6455781398e+00	 9.2017365711e-01
 6.9928519036e-01	 1.6522236333e+00	 1.0372423336e+00
 6.8375372154e-01	 1.6587114185e+00	 1.1516046370e+00
 6.6819129874e-01	 1.6650414817e+00	 1.2631856319e+00
 6.5260022188e-01	 1.6712138520e+00	 1.3717743418e+00
 6.3698278107e-01	 1.6772286017e+00	 1.4770138510e+00
 6.2134125579e-01	 1.6830858451e+00	 1.5783927392e+00
 7.8021586071e-01	 1.6253761376e+00	 5.5131810671e-01
 7.6479847361e-01	 1.6326872326e+00	 6.1609486164e-01
 7.4933831195e-01	 1.6398403406e+00	 7.1164568587e-01
 7.3383772102e-01	 1.6468352705e+00	 8.3278641416e-01
 7.1829904134e-01	 1.6536718759e+00	 9.5329445390e-01
 7.0272460758e-01	 1.6603500551e+00	 1.0682947401e+00
 6.8711674760e-01	 1.6668697503e+00	 1.1782075060e+00
 6.7147778141e-01	 1.6732309477e+00	 1.2833849752e+00
 6.5581002021e-01	 1.6794336767e+00	 1.3840987312e+00
 6.4011576540e-01	 1.6854780098e+00	 1.4805284474e+00
 6.2439730766e-01	 1.6913640619e+00	 1.5727519229e+00
 7.8403457080e-01	 1.6333314235e+00	 5.9949583447e-01
 7.6854172442e-01	 1.6406783021e+00	 6.6266604933e-01
 7.5300589411e-01	 1.6478664205e+00	 7.5356497580e-01
 7.3742943666e-01	 1.6548955866e+00	 8.6956291749e-01
 7.2181470403e-01	 1.6617656533e+00	 9.8780383201e-01
 7.0616404233e-01	 1.6684765183e+00	 1.0985928533e+00
 6.9047979081e-01	 1.6750281237e+00	 1.2025950219e+00
 6.7476428084e-01	 1.6814204555e+00	 1.3004578817e+00
 6.5901983491e-01	 1.6876535434e+00	 1.3927977915e+00
 6.4324876571e-01	 1.6937274600e+00	 1.4801875742e+00
 6.2745337511e-01	 1.6996423210e+00	 1.5631454452e+00
 7.8785329820e-01	 1.6412867455e+00	 6.6127454860e-01
 7.7228499219e-01	 1.6486694079e+00	 7.1860224062e-01
 7.5667349290e-01	 1.6558925368e+00	 8.0164097172e-01
 7.4102116858e-01	 1.6629559392e+00	 9.0834627580e-01
 7.2533038267e-01	 1.6698594673e+00	 1.0222275796e+00
 7.0960349268e-01	 1.6766030184e+00	 1.1274254875e+00
 6.9384284927e-01	 1.6831865341e+00	 1.2247201694e+00
 6.7805079516e-01	 1.6896100005e+00	 1.3149248564e+00
 6.6222966416e-01	 1.6958734473e+00	 1.3988651565e+00
 6.4638178022e-01	 1.7019769476e+00	 1.4773659101e+00
 6.3050945642e-01	 1.7079206175e+00	 1.5512393042e+00
 7.9167204075e-01	 1.6492420990e+00	 7.3089698365e-01
 7.7602827481e-01	 1.6566605454e+00	 7.7931128585e-01
 7.6034110623e-01	 1.6639186849e+00	 8.5234117578e-01
 7.4461291475e-01	 1.6710163238e+00	 9.4771383406e-01
 7.2884607524e-01	 1.6779533135e+00	 1.0550971581e+00
 7.1304295667e-01	 1.6847295507e+00	 1.1540735515e+00
 6.9720592107e-01	 1.6913449769e+00	 1.2445163892e+00
 6.8133732252e-01	 1.6977995779e+00	 1.3272771141e+00
 6.6543950615e-01	 1.7040933838e+00	 1.4032572661e+00
 6.4951480716e-01	 1.7102264679e+00	 1.4733948302e+00
 6.3356554985e-01	 1.7161989469e+00	 1.5386518260e+00
 7.9549079628e-01	 1.6571974796e+00	 8.0269058047e-01
 7.7977157016e-01	 1.6646517100e+00	 8.4026241113e-01
 7.6400873204e-01	 1.6719448604e+00	 9.0217315699e-01
 7.4820467313e-01	 1.6790767358e+00	 9.8582535022e-01
 7.3236177978e-01	 1.6860471872e+00	 1.0849486045e+00
 7.1648243236e-01	 1.6928561106e+00	 1.1778093115e+00
 7.0056900431e-01	 1.6995034474e+00	 1.2618971552e+00
 6.8462386106e-01	 1.7059891832e+00	 1.3379764258e+00
 6.6864935905e-01	 1.7123133482e+00	 1.4068934394e+00
 6.5264784475e-01	 1.7184760163e+00	 1.4695626622e+00
 6.3662165367e-01	 1.7244773045e+00	 1.5269540635e+00
 7.9930956263e-01	 1.6651528827e+00	 8.7106638980e-01
 7.8351487611e-01	 1.6726428973e+00	 8.9698561179e-01
 7.6767636823e-01	 1.6799710586e+00	 9.4768438537e-01
 7.5179644169e-01	 1.6871371707e+00	 1.0201464775e+00
 7.3587749427e-01	 1.6941410838e+00	 1.1103214519e+00
 7.1992191779e-01	 1.7009826936e+00	 1.1978956623e+00
 7.0393209707e-01	 1.7076619410e+00	 1.2767555523e+00
 6.8791040891e-01	 1.7141788117e+00	 1.3474549600e+00
 6.7185922104e-01	 1.7205333360e+00	 1.4106559356e+00
 6.5578089122e-01	 1.7267255880e+00	 1.4671149251e+00
 6.3967776615e-01	 1.7327556855e+00	 1.5176701726e+00
 8.0312833764e-01	 1.6731083039e+00	 9.3051804564e-01
 7.8725819055e-01	 1.6806341027e+00	 9.4507110085e-01
 7.7134401274e-01	 1.6879972749e+00	 9.8546210742e-01
 7.5538821839e-01	 1.6951976238e+00	 1.0481640980e+00
 7.3939321673e-01	 1.7022349988e+00	 1.1297576684e+00
 7.2336141102e-01	 1.7091092950e+00	 1.2135854081e+00
 7.0729519746e-01	 1.7158204531e+00	 1.2889638547e+00
 6.9119696421e-01	 1.7223684588e+00	 1.3561151154e+00
 6.7506909032e-01	 1.7287533424e+00	 1.4153900011e+00
 6.5891394479e-01	 1.7349751784e+00	 1.4672545511e+00
 6.4273388556e-01	 1.7410340853e+00	 1.5122777687e+00
 8.0694711914e-01	 1.6810637386e+00	 9.7562080628e-01
 7.9100151136e-01	 1.6886253217e+00	 9.8016881062e-01
 7.7501166349e-01	 1.6960235049e+00	 1.0121332616e+00
 7.5898000120e-01	 1.7032580906e+00	 1.0673866062e+00
 7.4290894517e-01	 1.7103289275e+00	 1.1420166457e+00
 7.2680091010e-01	 1.7172359102e+00	 1.2241205510e+00
 7.1065830357e-01	 1.7239789791e+00	 1.2983731046e+00
 6.9448352509e-01	 1.7305581198e+00	 1.3643293488e+00
 6.7827896504e-01	 1.7369733627e+00	 1.4219039057e+00
 6.6204700368e-01	 1.7432247829e+00	 1.4711420903e+00
 6.4579001016e-01	 1.7493124992e+00	 1.5122082623e+00
 8.1076590497e-01	 1.6890191823e+00	 1.0010306606e+00
 7.9474483640e-01	 1.6966165497e+00	 9.9798794561e-01
 7.7867931839e-01	 1.7040497440e+00	 1.0243644328e+00
 7.6257178807e-01	 1.7113185666e+00	 1.0753442202e+00
 7.4642467760e-01	 1.7184228654e+00	 1.1463457376e+00
 7.3024041307e-01	 1.7253625346e+00	 1.2287315879e+00
 7.1402141348e-01	 1.7321375143e+00	 1.3048126909e+00
 6.9777008970e-01	 1.7387477900e+00	 1.3724399959e+00
 6.8148884341e-01	 1.7451933924e+00	 1.4309689663e+00
 6.6518006613e-01	 1.7514743967e+00	 1.4798958991e+00
 6.4884613823e-01	 1.7575909224e+00	 1.5188471758e+00
 8.1458469296e-01	 1.6969746305e+00	 1.0014834975e+00
 7.9848816357e-01	 1.7046077823e+00	 9.9429658509e-01
 7.8234697537e-01	 1.7120759877e+00	 1.0188618434e+00
 7.6616357699e-01	 1.7193790471e+00	 1.0695893195e+00
 7.4994041202e-01	 1.7265168079e+00	 1.1411362330e+00
 7.3367991799e-01	 1.7334891636e+00	 1.2266368152e+00
 7.1738452531e-01	 1.7402960542e+00	 1.3080899284e+00
 7.0105665617e-01	 1.7469374649e+00	 1.3807590862e+00
 6.8469872359e-01	 1.7534134267e+00	 1.4433195592e+00
 6.6831313035e-01	 1.7597240152e+00	 1.4945923142e+00
 6.5190226803e-01	 1.7658693503e+00	 1.5335344409e+00
 6.2134125579e-01	 1.6830858451e+00	 1.5783927392e+00
 6.0568057798e-01	 1.6887847827e+00	 1.6662870336e+00
 5.9000034444e-01	 1.6943266200e+00	 1.7305410849e+00
 5.7430279528e-01	 1.6997115942e+00	 1.7698270185e+00
 5.5859015640e-01	 1.7049399826e+00	 1.7830123919e+00
 5.4286463860e-01	 1.7100121024e+00	 1.7691515675e+00
 5.2712843678e-01	 1.7149283098e+00	 1.7274776288e+00
 5.1138372914e-01	 1.7196889996e+00	 1.6573947859e+00
 4.9563267639e-01	 1.7242946047e+00	 1.5584712189e+00
 4.7987742099e-01	 1.7287455951e+00	 1.4304323065e+00
 4.6412008643e-01	 1.7330424775e+00	 1.2731541900e+00
 6.2439730766e-01	 1.6913640619e+00	 1.5727519229e+00
 6.0865960318e-01	 1.6970910296e+00	 1.6539991610e+00
 5.9290224679e-01	 1.7026601243e+00	 1.7160914915e+00
 5.7712748962e-01	 1.7080715843e+00	 1.7570250906e+00
 5.6133756851e-01	 1.7133256884e+00	 1.7750017611e+00
 5.4553470513e-01	 1.7184227553e+00	 1.7684212698e+00
 5.2972110518e-01	 1.7233631430e+00	 1.7358742050e+00
 5.1389895758e-01	 1.7281472482e+00	 1.6761352989e+00
 4.9807043366e-01	 1.7327755058e+00	 1.5881571579e+00
 4.8223768642e-01	 1.7372483882e+00	 1.4710643471e+00
 4.6640284979e-01	 1.7415664048e+00	 1.3241477762e+00
 6.2745337511e-01	 1.6996423210e+00	 1.5631454452e+00
 6.1163864358e-01	 1.7053973189e+00	 1.6372934684e+00
 5.9580416395e-01	 1.7109936711e+00	 1.6962247028e+00
 5.7995219837e-01	 1.7164316171e+00	 1.7374852516e+00
 5.6408499463e-01	 1.7217114371e+00	 1.7588282213e+00
 5.4820478528e-01	 1.7268334512e+00	 1.7582068910e+00
 5.3231378681e-01	 1.7317980192e+00	 1.7337683952e+00
 5.1641419885e-01	 1.7366055398e+00	 1.6838478585e+00
 5.0050820336e-01	 1.7412564501e+00	 1.6069629248e+00
 4.8459796389e-01	 1.7457512248e+00	 1.5018086220e+00
 4.6868562480e-01	 1.7500903756e+00	 1.3672525072e+00
 6.3050945642e-01	 1.7079206175e+00	 1.5512393042e+00
 6.1461769748e-01	 1.7137036458e+00	 1.6180368731e+00
 5.9870609426e-01	 1.7193272557e+00	 1.6729138174e+00
 5.8277691993e-01	 1.7247916878e+00	 1.7131888802e+00
 5.6683243321e-01	 1.7300972237e+00	 1.7363804558e+00
 5.5087487753e-01	 1.7352441852e+00	 1.7402004621e+00
 5.3490648019e-01	 1.7402329337e+00	 1.7225487312e+00
 5.1892945152e-01	 1.7450638699e+00	 1.6815078563e+00
 5.0294598412e-01	 1.7497374329e+00	 1.6153384308e+00
 4.8695825206e-01	 1.7542540999e+00	 1.5224746188e+00
 4.7096841015e-01	 1.7586143850e+00	 1.4015199996e+00
 6.3356554985e-01	 1.7161989469e+00	 1.5386518260e+00
 6.1759676320e-01	 1.7220100057e+00	 1.5980460025e+00
 6.0160803608e-01	 1.7276608733e+00	 1.6480808549e+00
 5.8560165268e-01	 1.7331517917e+00	 1.6860673722e+00
 5.6957988268e-01	 1.7384830437e+00	 1.7095002022e+00
 5.5354498038e-01	 1.7436549525e+00	 1.7160520980e+00
 5.3749918386e-01	 1.7486678816e+00	 1.7035689039e+00
 5.2144471417e-01	 1.7535222335e+00	 1.6700650122e+00
 5.0538377454e-01	 1.7582184494e+00	 1.6137192262e+00
 4.8931854959e-01	 1.7627570088e+00	 1.5328709635e+00
 4.7325120456e-01	 1.7671384283e+00	 1.4260167391e+00
 6.3662165367e-01	 1.7244773045e+00	 1.5269540635e+00
 6.2057583905e-01	 1.7303163938e+00	 1.5790876921e+00
 6.0450998777e-01	 1.7359945193e+00	 1.6235973099e+00
 5.8842639505e-01	 1.7415119240e+00	 1.6580027054e+00
 5.7232734150e-01	 1.7468688921e+00	 1.6799827798e+00
 5.5621509230e-01	 1.7520657485e+00	 1.6873704414e+00
 5.4009189634e-01	 1.7571028582e+00	 1.6781480727e+00
 5.2395998537e-01	 1.7619806258e+00	 1.6504434990e+00
 5.0782157326e-01	 1.7666994947e+00	 1.6025263889e+00
 4.9167885515e-01	 1.7712599465e+00	 1.5328050189e+00
 4.7553400674e-01	 1.7756625005e+00	 1.4398233359e+00
 6.3967776615e-01	 1.7327556855e+00	 1.5176701726e+00
 6.2355492334e-01	 1.7386228055e+00	 1.5628794594e+00
 6.0741194768e-01	 1.7443281889e+00	 1.6012846801e+00
 5.9125114541e-01	 1.7498720800e+00	 1.6308279778e+00
 5.7507480810e-01	 1.7552547643e+00	 1.6495775940e+00
 5.5888521179e-01	 1.7604765683e+00	 1.6557230851e+00
 5.4268461617e-01	 1.7655378587e+00	 1.6475711587e+00
 5.2647526371e-01	 1.7704390421e+00	 1.6235420568e+00
 5.1025937888e-01	 1.7751805640e+00	 1.5821664096e+00
 4.9403916739e-01	 1.7797629084e+00	 1.5220824897e+00
 4.7781681538e-01	 1.7841865969e+00	 1.4420337958e+00
 6.4273388556e-01	 1.7410340853e+00	 1.5122777687e+00
 6.2653401438e-01	 1.7469292360e+00	 1.5510899551e+00
 6.1031391417e-01	 1.7526618774e+00	 1.5829149707e+00
 5.9407590218e-01	 1.7582322549e+00	 1.6063279231e+00
 5.7782228093e-01	 1.7636406555e+00	 1.6199886181e+00
 5.6155533733e-01	 1.7688874071e+00	 1.6226369747e+00
 5.4527734187e-01	 1.7739728784e+00	 1.6130891215e+00
 5.2899054774e-01	 1.7788974776e+00	 1.5902340968e+00
 5.1269719003e-01	 1.7836616526e+00	 1.5530310730e+00
 4.9639948499e-01	 1.7882658895e+00	 1.5005070302e+00
 4.8009962919e-01	 1.7927107126e+00	 1.4317548047e+00
 6.4579001016e-01	 1.7493124992e+00	 1.5122082623e+00
 6.2951311049e-01	 1.7552356806e+00	 1.5453393913e+00
 6.1321588560e-01	 1.7609955800e+00	 1.5702111757e+00
 5.9690066376e-01	 1.7665924441e+00	 1.5862394022e+00
 5.8056975843e-01	 1.7720265610e+00	 1.5928748520e+00
 5.6422546742e-01	 1.7772982603e+00	 1.5895987916e+00
 5.4787007199e-01	 1.7824079123e+00	 1.5759192207e+00
 5.3150583605e-01	 1.7873559275e+00	 1.5513677942e+00
 5.1513500533e-01	 1.7921427555e+00	 1.5154973351e+00
 4.9875980660e-01	 1.7967688850e+00	 1.4678798584e+00
 4.8238244689e-01	 1.8012348428e+00	 1.4081050284e+00
 6.4884613823e-01	 1.7575909224e+00	 1.5188471758e+00
 6.3249220997e-01	 1.7635421346e+00	 1.5471999485e+00
 6.1611786031e-01	 1.7693292921e+00	 1.5648477354e+00
 5.9972542853e-01	 1.7749526427e+00	 1.5722518720e+00
 5.8331723904e-01	 1.7804124759e+00	 1.5698507607e+00
 5.6689560052e-01	 1.7857091230e+00	 1.5580553171e+00
 5.5046280504e-01	 1.7908429559e+00	 1.5372452623e+00
 5.3402112720e-01	 1.7958143869e+00	 1.5077661720e+00
 5.1757282338e-01	 1.8006238681e+00	 1.4699271978e+00
 5.0112013088e-01	 1.8052718903e+00	 1.4239993733e+00
 4.8466526717e-01	 1.8097589826e+00	 1.3702144248e+00
 6.5190226803e-01	 1.7658693503e+00	 1.5335344409e+00
 6.3547131114e-01	 1.7718485933e+00	 1.5581961616e+00
 6.1901983667e-01	 1.7776630090e+00	 1.5684509730e+00
 6.0255019490e-01	 1.7833128461e+00	 1.5660078324e+00
 5.8606472121e-01	 1.7887983956e+00	 1.5524866915e+00
 5.6956573515e-01	 1.7941199904e+00	 1.5294137791e+00
 5.5305553956e-01	 1.7992780042e+00	 1.4982178309e+00
 5.3653641979e-01	 1.8042728512e+00	 1.4602271750e+00
 5.2001064282e-01	 1.8091049855e+00	 1.4166675798e+00
 5.0348045650e-01	 1.8137749003e+00	 1.3686607769e+00
 4.8694808875e-01	 1.8182831273e+00	 1.3172235702e+00
 4.6412008643e-01	 1.7330424775e+00	 1.2731541900e+00
 4.4836277670e-01	 1.7371857953e+00	 1.1104966428e+00
 4.3260757626e-01	 1.7411761283e+00	 9.6894343008e-01
 4.1685654864e-01	 1.7450140917e+00	 8.5224661743e-01
 4.0111173565e-01	 1.7487003345e+00	 7.6392990978e-01
 3.8537515669e-01	 1.7522355389e+00	 7.0728600058e-01
 3.6964880820e-01	 1.7556204198e+00	 6.8537139671e-01
 3.5393466308e-01	 1.7588557237e+00	 6.9965433908e-01
 3.3823467012e-01	 1.7619422282e+00	 7.5185585202e-01
 3.2255075349e-01	 1.7648807413e+00	 8.4465803352e-01
 3.0688481227e-01	 1.7676721003e+00	 9.8045882801e-01
 4.6640284979e-01	 1.7415664048e+00	 1.3241477762e+00
 4.5056803812e-01	 1.7457301014e+00	 1.1685022190e+00
 4.3473534610e-01	 1.7497400608e+00	 1.0288393459e+00
 4.1890684744e-01	 1.7535969011e+00	 9.0979896623e-01
 4.0308459397e-01	 1.7573012746e+00	 8.1575431019e-01
 3.8727061503e-01	 1.7608538668e+00	 7.5080921503e-01
 3.7146691688e-01	 1.7642553962e+00	 7.1879583226e-01
 3.5567548212e-01	 1.7675066128e+00	 7.2200811240e-01
 3.3989826912e-01	 1.7706082982e+00	 7.6229623025e-01
 3.2413721153e-01	 1.7735612643e+00	 8.4294801577e-01
 3.0839421776e-01	 1.7763663526e+00	 9.6693245577e-01
 4.6868562480e-01	 1.7500903756e+00	 1.3672525072e+00
 4.5277331079e-01	 1.7542744511e+00	 1.2214757842e+00
 4.3686312680e-01	 1.7583040369e+00	 1.0869959502e+00
 4.2095715670e-01	 1.7621797543e+00	 9.6909404194e-01
 4.0505746235e-01	 1.7659022585e+00	 8.7275829645e-01
 3.8916608304e-01	 1.7694722387e+00	 8.0268125018e-01
 3.7328503483e-01	 1.7728904166e+00	 7.6325738697e-01
 3.5741631003e-01	 1.7761575461e+00	 7.5747326797e-01
 3.4156187660e-01	 1.7792744124e+00	 7.8713038534e-01
 3.2572367766e-01	 1.7822418316e+00	 8.5590527069e-01
 3.0990363095e-01	 1.7850606492e+00	 9.6717556471e-01
 4.7096841015e-01	 1.7586143850e+00	 1.4015199996e+00
 4.5497859345e-01	 1.7628188395e+00	 1.2677199234e+00
 4.3899091715e-01	 1.7668680519e+00	 1.1411055095e+00
 4.2300747525e-01	 1.7707626464e+00	 1.0273553673e+00
 4.0703033968e-01	 1.7745032815e+00	 9.3184096728e-01
 3.9106155964e-01	 1.7780906496e+00	 8.5962372936e-01
 3.7510316102e-01	 1.7815254761e+00	 8.1545267006e-01
 3.5915714584e-01	 1.7848085185e+00	 8.0284555569e-01
 3.4322549163e-01	 1.7879405660e+00	 8.2342421007e-01
 3.2731015098e-01	 1.7909224383e+00	 8.8102323872e-01
 3.1141305098e-01	 1.7937549852e+00	 9.7926860714e-01
 4.7325120456e-01	 1.7671384283e+00	 1.4260167391e+00
 4.5718388486e-01	 1.7713632618e+00	 1.3055676127e+00
 4.4111871593e-01	 1.7754321008e+00	 1.1889034844e+00
 4.2505780194e-01	 1.7793455725e+00	 1.0818596822e+00
 4.0900322483e-01	 1.7831043386e+00	 9.8996182423e-01
 3.9295704375e-01	 1.7867090948e+00	 9.1842297199e-01
 3.7692129443e-01	 1.7901605699e+00	 8.7214133511e-01
 3.6089798855e-01	 1.7934595253e+00	 8.5498715169e-01
 3.4488911326e-01	 1.7966067538e+00	 8.6830506692e-01
 3.2889663060e-01	 1.7996030793e+00	 9.1584879890e-01
 3.1292247700e-01	 1.8024493558e+00	 1.0013343259e+00
 4.7553400674e-01	 1.7756625005e+00	 1.4398233359e+00
 4.5938918377e-01	 1.7799077132e+00	 1.3333811360e+00
 4.4324652196e-01	 1.7839961789e+00	 1.2281671708e+00
 4.2710813559e-01	 1.7879285278e+00	 1.1299353756e+00
 4.1097611669e-01	 1.7917054249e+00	 1.0441390617e+00
 3.9485253432e-01	 1.7953275692e+00	 9.7592820986e-01
 3.7873943401e-01	 1.7987956931e+00	 9.3014729184e-01
 3.6263883718e-01	 1.8021105615e+00	 9.1082496123e-01
 3.4655274055e-01	 1.8052729712e+00	 9.1896022714e-01
 3.3048311561e-01	 1.8082837500e+00	 9.5798091683e-01
 3.1443190815e-01	 1.8111437558e+00	 1.0315366850e+00
 4.7781681538e-01	 1.7841865969e+00	 1.4420337958e+00
 4.6159448893e-01	 1.7884521888e+00	 1.3495510261e+00
 4.4537433401e-01	 1.7925602812e+00	 1.2567143746e+00
 4.2915847506e-01	 1.7965115075e+00	 1.1689609578e+00
 4.1294901414e-01	 1.8003065356e+00	 1.0914479012e+00
 3.9674803025e-01	 1.8039460681e+00	 1.0290498499e+00
 3.8055757875e-01	 1.8074308407e+00	 9.8635696491e-01
 3.6437969074e-01	 1.8107616222e+00	 9.6734896699e-01
 3.4821637254e-01	 1.8139392131e+00	 9.7263535160e-01
 3.3206960512e-01	 1.8169644452e+00	 1.0050693287e+00
 3.1594134357e-01	 1.8198381805e+00	 1.0680798283e+00
 4.8009962919e-01	 1.7927107126e+00	 1.4317548047e+00
 4.6379979908e-01	 1.7969966837e+00	 1.3524950301e+00
 4.4750215088e-01	 1.8011244030e+00	 1.2724021182e+00
 4.3120881918e-01	 1.8050945065e+00	 1.1963635697e+00
 4.1492191607e-01	 1.8089076658e+00	 1.1290189677e+00
 3.9864353048e-01	 1.8125645864e+00	 1.0747577816e+00
 3.8237572761e-01	 1.8160660079e+00	 1.0377175982e+00
 3.6612054825e-01	 1.8194127026e+00	 1.0216106210e+00
 3.4988000831e-01	 1.8226054747e+00	 1.0266330118e+00
 3.3365609822e-01	 1.8256451600e+00	 1.0548132601e+00
 3.1745078242e-01	 1.8285326250e+00	 1.1092070656e+00
 4.8238244689e-01	 1.8012348428e+00	 1.4081050284e+00
 4.6600511299e-01	 1.8055411932e+00	 1.3406570985e+00
 4.4962997137e-01	 1.8096885393e+00	 1.2731253789e+00
 4.3325916678e-01	 1.8136775202e+00	 1.2096175306e+00
 4.1689482134e-01	 1.8175088106e+00	 1.1540367074e+00
 4.0053903394e-01	 1.8211831195e+00	 1.1100797282e+00
 3.8419387956e-01	 1.8247011898e+00	 1.0812356026e+00
 3.6786140872e-01	 1.8280637976e+00	 1.0707212790e+00
 3.5154364691e-01	 1.8312717510e+00	 1.0783112498e+00
 3.3524259402e-01	 1.8343258897e+00	 1.1049601781e+00
 3.1896022383e-01	 1.8372270842e+00	 1.1531998849e+00
 4.8466526717e-01	 1.8097589826e+00	 1.3702144248e+00
 4.6821042940e-01	 1.8140857124e+00	 1.3125063969e+00
 4.5175779428e-01	 1.8182526853e+00	 1.2568158560e+00
 4.3530951671e-01	 1.8222605436e+00	 1.2062429205e+00
 4.1886772886e-01	 1.8261099651e+00	 1.1637378452e+00
 4.0243453954e-01	 1.8298016623e+00	 1.1320996399e+00
 3.8601203357e-01	 1.8333363815e+00	 1.1139749468e+00
 3.6960227117e-01	 1.8367149024e+00	 1.1118506758e+00
 3.5320728740e-01	 1.8399380371e+00	 1.1250821759e+00
 3.3682909162e-01	 1.8430066292e+00	 1.1533045763e+00
 3.2046966696e-01	 1.8459215532e+00	 1.1983769895e+00
 4.8694808875e-01	 1.8182831273e+00	 1.3172235702e+00
 4.7041574706e-01	 1.8226302364e+00	 1.2665363395e+00
 4.5388561839e-01	 1.8268168362e+00	 1.2214407687e+00
 4.3735986779e-01	 1.8308435719e+00	 1.1838041979e+00
 4.2084063749e-01	 1.8347111246e+00	 1.1554098810e+00
 4.0433004622e-01	 1.8384202100e+00	 1.1379561268e+00
 3.8783018861e-01	 1.8419715781e+00	 1.1330555883e+00
 3.7134313460e-01	 1.8453660122e+00	 1.1422346472e+00
 3.5487092882e-01	 1.8486043281e+00	 1.1644106029e+00
 3.3841559011e-01	 1.8516873736e+00	 1.1976867908e+00
 3.2197911094e-01	 1.8546160272e+00	 1.2431013400e+00
 3.0688481227e-01	 1.7676721003e+00	 9.8045882801e-01
 2.9123606242e-01	 1.7703176088e+00	 1.1327246426e+00
 2.7560902069e-01	 1.7728176731e+00	 1.2718576310e+00
 2.6000551298e-01	 1.7751732139e+00	 1.3955502356e+00
 2.4442733825e-01	 1.7773851785e+00	 1.5015260895e+00
 2.2887626810e-01	 1.7794545395e+00	 1.5875488337e+00
 2.1335404644e-01	 1.7813822948e+00	 1.6514307025e+00
 1.9786238912e-01	 1.7831694663e+00	 1.6910408480e+00
 1.8240298368e-01	 1.7848170991e+00	 1.7043133774e+00
 1.6697748904e-01	 1.7863262610e+00	 1.6892550804e+00
 1.5158753522e-01	 1.7876980416e+00	 1.6439528279e+00
 3.0839421776e-01	 1.7763663526e+00	 9.6693245577e-01
 2.9266849992e-01	 1.7790248729e+00	 1.1099056637e+00
 2.7696459696e-01	 1.7815372337e+00	 1.2436451099e+00
 2.6128434378e-01	 1.7839043603e+00	 1.3651715597e+00
 2.4562954817e-01	 1.7861272043e+00	 1.4715584032e+00
 2.3000199047e-01	 1.7882067434e+00	 1.5599409990e+00
 2.1440342313e-01	 1.7901439804e+00	 1.6275257362e+00
 1.9883557047e-01	 1.7919399420e+00	 1.6715987869e+00
 1.8330012833e-01	 1.7935956786e+00	 1.6895345224e+00
 1.6779876376e-01	 1.7951122633e+00	 1.6788035704e+00
 1.5233311483e-01	 1.7964907909e+00	 1.6369804957e+00
 3.0990363095e-01	 1.7850606492e+00	 9.6717556471e-01
 2.9410094472e-01	 1.7877321814e+00	 1.0990097767e+00
 2.7832018014e-01	 1.7902568388e+00	 1.2250137895e+00
 2.6256318109e-01	 1.7926355511e+00	 1.3417240244e+00
 2.4683176423e-01	 1.7948692747e+00	 1.4457453395e+00
 2.3112771857e-01	 1.7969589920e+00	 1.5337608089e+00
 2.1545280517e-01	 1.7989057106e+00	 1.6025411807e+00
 1.9980875679e-01	 1.8007104624e+00	 1.6489539826e+00
 1.8419727754e-01	 1.8023743029e+00	 1.6699722523e+00
 1.6862004267e-01	 1.8038983104e+00	 1.6626828685e+00
 1.5307869824e-01	 1.8052835851e+00	 1.6242944648e+00
 3.1141305098e-01	 1.7937549852e+00	 9.7926860714e-01
 2.9553339601e-01	 1.7964395295e+00	 1.0987583237e+00
 2.7967576947e-01	 1.7989764835e+00	 1.2152710242e+00
 2.6384202421e-01	 1.8013667815e+00	 1.3250437229e+00
 2.4803398573e-01	 1.8036113847e+00	 1.4243921244e+00
 2.3225345178e-01	 1.8057112802e+00	 1.5097207490e+00
 2.1650219197e-01	 1.8076674805e+00	 1.5775327034e+00
 2.0078194751e-01	 1.8094810226e+00	 1.6244390681e+00
 1.8509443083e-01	 1.8111529670e+00	 1.6471678769e+00
 1.6944132531e-01	 1.8126843974e+00	 1.6425726647e+00
 1.5382428503e-01	 1.8140764192e+00	 1.6076405682e+00
 3.1292247700e-01	 1.8024493558e+00	 1.0013343259e+00
 2.9696585299e-01	 1.8051469120e+00	 1.1079027076e+00
 2.8103136417e-01	 1.8076961627e+00	 1.2137430140e+00
 2.6512087240e-01	 1.8100980466e+00	 1.3149754389e+00
 2.4923621200e-01	 1.8123535294e+00	 1.4078036241e+00
 2.3337918945e-01	 1.8144636031e+00	 1.4885250409e+00
 2.1755158294e-01	 1.8164292852e+00	 1.5535409928e+00
 2.0175514210e-01	 1.8182516175e+00	 1.5993662126e+00
 1.8599158767e-01	 1.8199316659e+00	 1.6226380259e+00
 1.7026261120e-01	 1.8214705192e+00	 1.6201250614e+00
 1.5456987478e-01	 1.8228692882e+00	 1.5887354887e+00
 3.1443190815e-01	 1.8111437558e+00	 1.0315366850e+00
 2.9839831483e-01	 1.8138543242e+00	 1.1252236299e+00
 2.8238696349e-01	 1.8164158716e+00	 1.2197743244e+00
 2.6639972493e-01	 1.8188293413e+00	 1.3113724221e+00
 2.5043844236e-01	 1.8210957038e+00	 1.3962843476e+00
 2.3450493095e-01	 1.8232159558e+00	 1.4708698443e+00
 2.1860097747e-01	 1.8251911197e+00	 1.5315921302e+00
 2.0272834000e-01	 1.8270222423e+00	 1.5750276313e+00
 1.8688874757e-01	 1.8287103947e+00	 1.5978752668e+00
 1.7108389988e-01	 1.8302566708e+00	 1.5969652649e+00
 1.5531546706e-01	 1.8316621870e+00	 1.5692674914e+00
 3.1594134357e-01	 1.8198381805e+00	 1.0680798283e+00
 2.9983078073e-01	 1.8225617610e+00	 1.1495303483e+00
 2.8374256664e-01	 1.8251356052e+00	 1.2327274182e+00
 2.6767858109e-01	 1.8275606608e+00	 1.3140961685e+00
 2.5164067613e-01	 1.8298379030e+00	 1.3901384481e+00
 2.3563067564e-01	 1.8319683333e+00	 1.4574434520e+00
 2.1965037497e-01	 1.8339529790e+00	 1.5126979490e+00
 2.0370154065e-01	 1.8357928920e+00	 1.5526960802e+00
 1.8778591000e-01	 1.8374891483e+00	 1.5743487028e+00
 1.7190519089e-01	 1.8390428474e+00	 1.5746922562e+00
 1.5606106146e-01	 1.8404551108e+00	 1.5508971344e+00
 3.1745078242e-01	 1.8285326250e+00	 1.1092070656e+00
 3.0126324989e-01	 1.8312692176e+00	 1.1796599534e+00
 2.8509817287e-01	 1.8338553585e+00	 1.2519821988e+00
 2.6895744015e-01	 1.8362920001e+00	 1.3230162043e+00
 2.5284291262e-01	 1.8385801220e+00	 1.3896697232e+00
 2.3675642288e-01	 1.8407207307e+00	 1.4489264784e+00
 2.2069977486e-01	 1.8427148581e+00	 1.4978563833e+00
 2.0467474351e-01	 1.8445635615e+00	 1.5336253352e+00
 1.8868307447e-01	 1.8462679219e+00	 1.5535045535e+00
 1.7272648376e-01	 1.8478290439e+00	 1.5548794426e+00
 1.5680665754e-01	 1.8492480545e+00	 1.5352579591e+00
 3.1896022383e-01	 1.8372270842e+00	 1.1531998849e+00
 3.0269572147e-01	 1.8399766890e+00	 1.2144766635e+00
 2.8645378140e-01	 1.8425751267e+00	 1.2769355639e+00
 2.7023630138e-01	 1.8450233542e+00	 1.3380098755e+00
 2.5404515116e-01	 1.8473223559e+00	 1.3951816130e+00
 2.3788217203e-01	 1.8494731429e+00	 1.4459920400e+00
 2.2174917652e-01	 1.8514767522e+00	 1.4880518047e+00
 2.0564794802e-01	 1.8533342459e+00	 1.5190471118e+00
 1.8958024046e-01	 1.8550467103e+00	 1.5367448183e+00
 1.7354777803e-01	 1.8566152553e+00	 1.5390160208e+00
 1.5755225489e-01	 1.8580410131e+00	 1.5238414661e+00
 3.2046966696e-01	 1.8459215532e+00	 1.1983769895e+00
 3.0412819468e-01	 1.8486841702e+00	 1.2528711370e+00
 2.8780939147e-01	 1.8512949048e+00	 1.3070009708e+00
 2.7151516407e-01	 1.8537547182e+00	 1.3589623394e+00
 2.5524739105e-01	 1.8560645997e+00	 1.4069684218e+00
 2.3900792246e-01	 1.8582255650e+00	 1.4492635176e+00
 2.2279857938e-01	 1.8602386562e+00	 1.4841443577e+00
 2.0662115364e-01	 1.8621049403e+00	 1.5099700481e+00
 1.9047740747e-01	 1.8638255088e+00	 1.5251709980e+00
 1.7436907323e-01	 1.8654014767e+00	 1.5282570932e+00
 1.5829785309e-01	 1.8668339817e+00	 1.5178251683e+00
 3.2197911094e-01	 1.8546160272e+00	 1.2431013400e+00
 3.0556066871e-01	 1.8573916564e+00	 1.2937773810e+00
 2.8916500231e-01	 1.8600146878e+00	 1.3416121895e+00
 2.7279402747e-01	 1.8624860872e+00	 1.3857127949e+00
 2.5644963163e-01	 1.8648068484e+00	 1.4251918954e+00
 2.4013367353e-01	 1.8669779921e+00	 1.4591787238e+00
 2.2384798283e-01	 1.8690005651e+00	 1.4868290415e+00
 2.0759435981e-01	 1.8708756396e+00	 1.5073343101e+00
 1.9137457499e-01	 1.8726043121e+00	 1.5199300947e+00
 1.7519036889e-01	 1.8741877030e+00	 1.5239037510e+00
 1.5904345171e-01	 1.8756269553e+00	 1.5186014466e+00
 1.5158753522e-01	 1.7876980416e+00	 1.6439528279e+00
 1.3623732356e-01	 1.7889333526e+00	 1.5767322782e+00
 1.2092577599e-01	 1.7900335688e+00	 1.4991120402e+00
 1.0565439889e-01	 1.7909998392e+00	 1.4139314463e+00
 9.0424669867e-02	 1.7918333315e+00	 1.3238587901e+00
 7.5238037701e-02	 1.7925352311e+00	 1.2313981713e+00
 6.0095922142e-02	 1.7931067405e+00	 1.1388962616e+00
 4.4999713821e-02	 1.7935490786e+00	 1.0485489806e+00
 2.9950774159e-02	 1.7938634795e+00	 9.6240807140e-01
 1.4950435288e-02	 1.7940511925e+00	 8.8238756945e-01
 0.0000000000e+00	 1.7941134805e+00	 8.1027015793e-01
 1.5233311483e-01	 1.7964907909e+00	 1.6369804957e+00
 1.3690740352e-01	 1.7977321778e+00	 1.5704896586e+00
 1.2152054649e-01	 1.7988378054e+00	 1.4902363573e+00
 1.0617405748e-01	 1.7998088284e+00	 1.4005010408e+00
 9.0869421409e-02	 1.8006464202e+00	 1.3053981490e+00
 7.5608094162e-02	 1.8013517720e+00	 1.2088811395e+00
 6.0391502475e-02	 1.8019260924e+00	 1.1147474665e+00
 4.5221043820e-02	 1.8023706061e+00	 1.0266435045e+00
 3.0098086314e-02	 1.8026865534e+00	 9.4806940709e-01
 1.5023968640e-02	 1.8028751897e+00	 8.8238389619e-01
 0.0000000000e+00	 1.8029377841e+00	 8.3280897728e-01
 1.5307869824e-01	 1.8052835851e+00	 1.6242944648e+00
 1.3757748691e-01	 1.8065310479e+00	 1.5594587830e+00
 1.2211532001e-01	 1.8076420869e+00	 1.4782493964e+00
 1.0669371872e-01	 1.8086178625e+00	 1.3860101982e+00
 9.1314175218e-02	 1.8094595538e+00	 1.2879262476e+00
 7.5978152509e-02	 1.8101683580e+00	 1.1890273790e+00
 6.0687084314e-02	 1.8107454893e+00	 1.0941917827e+00
 4.5442374947e-02	 1.8111921787e+00	 1.0081495493e+00
 3.0245399219e-02	 1.8115096724e+00	 9.3548617145e-01
 1.5097502368e-02	 1.8116992318e+00	 8.8064599967e-01
 0.0000000000e+00	 1.8117621326e+00	 8.4793564915e-01
 1.5382428503e-01	 1.8140764192e+00	 1.6076405682e+00
 1.3824757333e-01	 1.8153299579e+00	 1.5453863708e+00
 1.2271009623e-01	 1.8164464083e+00	 1.4648455058e+00
 1.0721338232e-01	 1.8174269365e+00	 1.3720532396e+00
 9.1758931044e-02	 1.8182727274e+00	 1.2728952979e+00
 7.6348212533e-02	 1.8189849839e+00	 1.1731104557e+00
 6.0982667494e-02	 1.8195649262e+00	 1.0782931028e+00
 4.5663707077e-02	 1.8200137912e+00	 9.9389577978e-01
 3.0392712793e-02	 1.8203328313e+00	 9.2523167989e-01
 1.5171036428e-02	 1.8205233140e+00	 8.7747711394e-01
 0.0000000000e+00	 1.8205865212e+00	 8.5567393757e-01
 1.5456987478e-01	 1.8228692882e+00	 1.5887354887e+00
 1.3891766241e-01	 1.8241289028e+00	 1.5299896394e+00
 1.2330487481e-01	 1.8252507647e+00	 1.4516901572e+00
 1.0773304798e-01	 1.8262360455e+00	 1.3601971036e+00
 9.2203688633e-02	 1.8270859360e+00	 1.2617323848e+00
 7.6718274025e-02	 1.8278016448e+00	 1.1623817159e+00
 6.1278251845e-02	 1.8283843981e+00	 1.0680965528e+00
 4.5885040085e-02	 1.8288354387e+00	 9.8469598724e-01
 3.0540026950e-02	 1.8291560252e+00	 9.1786860206e-01
 1.5244570780e-02	 1.8293474312e+00	 8.7317428538e-01
 0.0000000000e+00	 1.8294109448e+00	 8.5604600447e-01
 1.5531546706e-01	 1.8316621870e+00	 1.5692674914e+00
 1.3958775376e-01	 1.8329278776e+00	 1.5149570469e+00
 1.2389965541e-01	 1.8340551510e+00	 1.4404206749e+00
 1.0825271541e-01	 1.8350451845e+00	 1.3519820404e+00
 9.2648447734e-02	 1.8358991745e+00	 1.2558401040e+00
 7.7088336774e-02	 1.8366183356e+00	 1.1580708517e+00
 6.1573837201e-02	 1.8372039000e+00	 1.0646289711e+00
 4.6106373845e-02	 1.8376571162e+00	 9.8134946958e-01
 3.0687341608e-02	 1.8379792491e+00	 9.1394923364e-01
 1.5318105382e-02	 1.8381715784e+00	 8.6802852960e-01
 0.0000000000e+00	 1.8382353983e+00	 8.4907244728e-01
 1.5606106146e-01	 1.8404551108e+00	 1.5508971344e+00
 1.4025784702e-01	 1.8417268773e+00	 1.5019490135e+00
 1.2449443770e-01	 1.8428595622e+00	 1.4326469440e+00
 1.0877238431e-01	 1.8438543484e+00	 1.3489222845e+00
 9.3093208094e-02	 1.8447124380e+00	 1.2565971809e+00
 7.7458400572e-02	 1.8454350515e+00	 1.1613864498e+00
 6.1869423394e-02	 1.8460234268e+00	 1.0688993729e+00
 4.6327708232e-02	 1.8464788188e+00	 9.8464140002e-01
 3.0834656683e-02	 1.8468024981e+00	 9.1401576031e-01
 1.5391640193e-02	 1.8469957507e+00	 8.6232498384e-01
 0.0000000000e+00	 1.8470598769e+00	 8.3477233540e-01
 1.5680665754e-01	 1.8492480545e+00	 1.5352579591e+00
 1.4092794179e-01	 1.8505258970e+00	 1.4925986225e+00
 1.2508922133e-01	 1.8516639934e+00	 1.4299520978e+00
 1.0929205438e-01	 1.8526635322e+00	 1.3525044820e+00
 9.3537969462e-02	 1.8535257214e+00	 1.2653487753e+00
 7.7828465208e-02	 1.8542517873e+00	 1.1734947596e+00
 6.2165010257e-02	 1.8548429736e+00	 1.0818657336e+00
 4.6549043120e-02	 1.8553005413e+00	 9.9529994969e-01
 3.0981972092e-02	 1.8556257670e+00	 9.1855218002e-01
 1.5465175169e-02	 1.8558199429e+00	 8.5629527092e-01
 0.0000000000e+00	 1.8558843755e+00	 8.1312170984e-01
 1.5755225489e-01	 1.8580410131e+00	 1.5238414661e+00
 1.4159803770e-01	 1.8593249316e+00	 1.4883244173e+00
 1.2568400597e-01	 1.8604684395e+00	 1.4336231833e+00
 1.0981172534e-01	 1.8614727311e+00	 1.3638449670e+00
 9.3982731586e-02	 1.8623390199e+00	 1.2830256248e+00
 7.8198530473e-02	 1.8630685381e+00	 1.1951321624e+00
 6.2460597622e-02	 1.8636625355e+00	 1.1040650889e+00
 4.6770378385e-02	 1.8641222788e+00	 1.0136606623e+00
 3.1129287751e-02	 1.8644490509e+00	 9.2769305602e-01
 1.5538710271e-02	 1.8646441501e+00	 8.4987647696e-01
 0.0000000000e+00	 1.8647088891e+00	 7.8386725942e-01
 1.5829785309e-01	 1.8668339817e+00	 1.5178251683e+00
 1.4226813437e-01	 1.8681239762e+00	 1.4903043584e+00
 1.2627879129e-01	 1.8692728957e+00	 1.4448248165e+00
 1.1033139689e-01	 1.8702819399e+00	 1.3840729350e+00
 9.4427494214e-02	 1.8711523283e+00	 1.3106843626e+00
 7.8568596157e-02	 1.8718852989e+00	 1.2272475930e+00
 6.2756185322e-02	 1.8724821073e+00	 1.1363073589e+00
 4.6991713900e-02	 1.8729440263e+00	 1.0403678636e+00
 3.1276603577e-02	 1.8732723448e+00	 9.4189588442e-01
 1.5612245456e-02	 1.8734683673e+00	 8.4332377652e-01
 0.0000000000e+00	 1.8735334126e+00	 7.4705240363e-01
 1.5904345171e-01	 1.8756269553e+00	 1.5186014466e+00
 1.4293823142e-01	 1.8769230258e+00	 1.4999604227e+00
 1.2687357695e-01	 1.8780773568e+00	 1.4649552214e+00
 1.1085106873e-01	 1.8790911537e+00	 1.4145167279e+00
 9.4872257094e-02	 1.8799656418e+00	 1.3495475075e+00
 7.8938662051e-02	 1.8807020647e+00	 1.2709268562e+00
 6.3051773189e-02	 1.8813016841e+00	 1.1795155897e+00
 4.7213049540e-02	 1.8817657788e+00	 1.0761606078e+00
 3.1423919486e-02	 1.8820956438e+00	 9.6169926538e-01
 1.5685780682e-02	 1.8822925895e+00	 8.3696358211e-01
 0.0000000000e+00	 1.8823579412e+00	 7.0278431777e-01
 1.8823579412e+00	 0.0000000000e+00	 2.5243214506e+01
 1.8822925895e+00	 1.5685780682e-02	 1.6314300136e+01
 1.8820956438e+00	 3.1423919486e-02	 9.2553913199e+00
 1.8817657788e+00	 4.7213049540e-02	 3.8698767763e+00
 1.8813016841e+00	 6.3051773189e-02	-4.1973231096e-02
 1.8807020647e+00	 7.8938662051e-02	-2.6827824751e+00
 1.8799656418e+00	 9.4872257094e-02	-4.2578365226e+00
 1.8790911537e+00	 1.1085106873e-01	-4.9748426346e+00
 1.8780773568e+00	 1.2687357695e-01	-5.0436817792e+00
 1.8769230258e+00	 1.4293823142e-01	-4.6761527356e+00
 1.8756269553e+00	 1.5904345171e-01	-4.0857082728e+00
 1.8911809706e+00	 0.0000000000e+00	 2.1649320122e+01
 1.8911153126e+00	 1.5759303416e-02	 1.4073350673e+01
 1.8909174437e+00	 3.1571210368e-02	 8.0123707976e+00
 1.8905860326e+00	 4.7434347578e-02	 3.3196233975e+00
 1.8901197626e+00	 6.3347310839e-02	-1.5451922201e-01
 1.8895173326e+00	 7.9308665075e-02	-2.5623876236e+00
 1.8887774579e+00	 9.5316944414e-02	-4.0588414209e+00
 1.8878988710e+00	 1.1137065229e-01	-4.8010892970e+00
 1.8868803221e+00	 1.2746826155e-01	-4.9485027785e+00
 1.8857205806e+00	 1.4360821463e-01	-4.6624236885e+00
 1.8844184351e+00	 1.5978892366e-01	-4.1059652039e+00
 1.9000040000e+00	 0.0000000000e+00	 1.8481978591e+01
 1.8999380357e+00	 1.5832826150e-02	 1.2082134879e+01
 1.8997392437e+00	 3.1718501251e-02	 6.8964759520e+00
 1.8994062864e+00	 4.7655645616e-02	 2.8191681128e+00
 1.8989378411e+00	 6.3642848489e-02	-2.5825765166e-01
 1.8983326006e+00	 7.9678668098e-02	-2.4467840872e+00
 1.8975892741e+00	 9.5761631733e-02	-3.8597814601e+00
 1.8967065882e+00	 1.1189023584e-01	-4.6128766030e+00
 1.8956832875e+00	 1.2806294616e-01	-4.8238170963e+00
 1.8945181354e+00	 1.4427819784e-01	-4.6123304639e+00
 1.8932099149e+00	 1.6053439561e-01	-4.0999782579e+00
 1.9088270294e+00	 0.0000000000e+00	 1.5773170844e+01
 1.9087607588e+00	 1.5906348884e-02	 1.0359778699e+01
 1.9085610437e+00	 3.1865792133e-02	 5.9157307634e+00
 1.9082265403e+00	 4.7876943654e-02	 2.3673178593e+00
 1.9077559196e+00	 6.3938386140e-02	-3.6158149677e-01
 1.9071478685e+00	 8.0048671122e-02	-2.3494152003e+00
 1.9064010903e+00	 9.6206319053e-02	-3.6768682207e+00
 1.9055143055e+00	 1.1240981940e-01	-4.4267696743e+00
 1.9044862529e+00	 1.2865763077e-01	-4.6839961537e+00
 1.9033156901e+00	 1.4494818105e-01	-4.5353711555e+00
 1.9020013947e+00	 1.6127986756e-01	-4.0695604415e+00
 1.9176500588e+00	 0.0000000000e+00	 1.3554303152e+01
 1.9175834819e+00	 1.5979871618e-02	 8.9250666384e+00
 1.9173828436e+00	 3.2013083015e-02	 5.0780188267e+00
 1.9170467941e+00	 4.8098241692e-02	 1.9629056680e+00
 1.9165739981e+00	 6.4233923790e-02	-4.7272814896e-01
 1.9159631365e+00	 8.0418674146e-02	-2.2834786275e+00
 1.9152129065e+00	 9.6651006372e-02	-3.5260193549e+00
 1.9143220227e+00	 1.1292940296e-01	-4.2590356936e+00
 1.9132892182e+00	 1.2925231538e-01	-4.5431560913e+00
 1.9121132449e+00	 1.4561816426e-01	-4.4408803241e+00
 1.9107928745e+00	 1.6202533951e-01	-4.0165044787e+00
 1.9264730883e+00	 0.0000000000e+00	 1.1856220277e+01
 1.9264062049e+00	 1.6053394352e-02	 7.7964495351e+00
 1.9262046436e+00	 3.2160373898e-02	 4.3910864805e+00
 1.9258670479e+00	 4.8319539731e-02	 1.6047899482e+00
 1.9253920766e+00	 6.4529461441e-02	-5.9978312250e-01
 1.9247784044e+00	 8.0788677170e-02	-2.2619321532e+00
 1.9240247226e+00	 9.7095693692e-02	-3.4228654931e+00
 1.9231297400e+00	 1.1344898651e-01	-4.1256509073e+00
 1.9220921836e+00	 1.2984699999e-01	-4.4151637914e+00
 1.9209107996e+00	 1.4628814746e-01	-4.3380329057e+00
 1.9195843543e+00	 1.6277081146e-01	-3.9425834181e+00
 1.9352961177e+00	 0.0000000000e+00	 1.0709218279e+01
 1.9352289280e+00	 1.6126917087e-02	 6.9920521194e+00
 1.9350264435e+00	 3.2307664781e-02	 3.8625458516e+00
 1.9346873017e+00	 4.8540837769e-02	 1.2918537911e+00
 1.9342101551e+00	 6.4824999092e-02	-7.5068365987e-01
 1.9335936724e+00	 8.1158680194e-02	-2.2974993122e+00
 1.9328365388e+00	 9.7540381012e-02	-3.3827569604e+00
 1.9319374572e+00	 1.1396857007e-01	-4.0423074347e+00
 1.9308951489e+00	 1.3044168459e-01	-4.3136427319e+00
 1.9297083544e+00	 1.4695813067e-01	-4.2358480094e+00
 1.9283758340e+00	 1.6351628341e-01	-3.8495512192e+00
 1.9441191471e+00	 0.0000000000e+00	 1.0143056961e+01
 1.9440516511e+00	 1.6200439821e-02	 6.5296803694e+00
 1.9438482435e+00	 3.2454955664e-02	 3.4998778157e+00
 1.9435075555e+00	 4.8762135809e-02	 1.0230042928e+00
 1.9430282336e+00	 6.5120536743e-02	-9.3322223873e-01
 1.9424089403e+00	 8.1528683219e-02	-2.4026748658e+00
 1.9416483550e+00	 9.7985068333e-02	-3.4207703085e+00
 1.9407451745e+00	 1.1448815362e-01	-4.0244198891e+00
 1.9396981143e+00	 1.3103636920e-01	-4.2519786790e+00
 1.9385059091e+00	 1.4762811388e-01	-4.1431926091e+00
 1.9371673138e+00	 1.6426175536e-01	-3.7391433182e+00
 1.9529421765e+00	 0.0000000000e+00	 1.0186971986e+01
 1.9528743742e+00	 1.6273962556e-02	 6.4268286660e+00
 1.9526700435e+00	 3.2602246547e-02	 3.3104348788e+00
 1.9523278093e+00	 4.8983433848e-02	 7.9717189660e-01
 1.9518463121e+00	 6.5416074395e-02	-1.1550499831e+00
 1.9512242083e+00	 8.1898686244e-02	-2.5897301284e+00
 1.9504601711e+00	 9.8429755654e-02	-3.5517146693e+00
 1.9495528917e+00	 1.1500773718e-01	-4.0871318187e+00
 1.9485010797e+00	 1.3163105381e-01	-4.2433252226e+00
 1.9473034639e+00	 1.4829809709e-01	-4.0687851311e+00
 1.9459587936e+00	 1.6500722731e-01	-3.6130771750e+00
 1.9617652059e+00	 0.0000000000e+00	 1.0869686663e+01
 1.9616970973e+00	 1.6347485291e-02	 6.7006867553e+00
 1.9614918434e+00	 3.2749537431e-02	 3.3014439804e+00
 1.9611480631e+00	 4.9204731888e-02	 6.1330975263e-01
 1.9606643906e+00	 6.5711612047e-02	-1.4236799817e+00
 1.9600394762e+00	 8.2268689270e-02	-2.8707181501e+00
 1.9592719873e+00	 9.8874442976e-02	-3.7901379358e+00
 1.9583606090e+00	 1.1552732074e-01	-4.2453219708e+00
 1.9573040450e+00	 1.3222573842e-01	-4.3006091597e+00
 1.9561010187e+00	 1.4896808030e-01	-4.0211989430e+00
 1.9547502734e+00	 1.6575269926e-01	-3.4730528015e+00
 1.9705882353e+00	 0.0000000000e+00	 1.2219423415e+01
 1.9705198204e+00	 1.6421008026e-02	 7.3681465235e+00
 1.9703136434e+00	 3.2896828315e-02	 3.4800092220e+00
 1.9699683169e+00	 4.9426029929e-02	 4.7039309535e-01
 1.9694824691e+00	 6.6007149700e-02	-1.7464905171e+00
 1.9688547442e+00	 8.2638692297e-02	-3.2574787581e+00
 1.9680838035e+00	 9.9319130298e-02	-4.1503327752e+00
 1.9671683262e+00	 1.1604690430e-01	-4.5136103864e+00
 1.9661070104e+00	 1.3282042303e-01	-4.4365357313e+00
 1.9648985734e+00	 1.4963806351e-01	-4.0088657438e+00
 1.9635417532e+00	 1.6649817121e-01	-3.3207532712e+00
 1.8756269553e+00	 1.5904345171e-01	-4.0857082728e+00
 1.8741877030e+00	 1.7519036889e-01	-3.5902571985e+00
 1.8726043121e+00	 1.9137457499e-01	-3.3339887278e+00
 1.8708756396e+00	 2.0759435981e-01	-3.2700582243e+00
 1.8690005651e+00	 2.2384798283e-01	-3.3510011466e+00
 1.8669779921e+00	 2.4013367353e-01	-3.5287505302e+00
 1.8648068484e+00	 2.5644963163e-01	-3.7546556903e+00
 1.8624860872e+00	 2.7279402747e-01	-3.9795019756e+00
 1.8600146878e+00	 2.8916500231e-01	-4.1535313978e+00
 1.8573916564e+00	 3.0556066871e-01	-4.2264639684e+00
 1.8546160272e+00	 3.2197911094e-01	-4.1475195742e+00
 1.8844184351e+00	 1.5978892366e-01	-4.1059652039e+00
 1.8829724367e+00	 1.7601152503e-01	-3.5668615573e+00
 1.8813816241e+00	 1.9227159009e-01	-3.2056153069e+00
 1.8796448489e+00	 2.0856740064e-01	-2.9948458612e+00
 1.8777609856e+00	 2.2489720800e-01	-2.9064625435e+00
 1.8757289323e+00	 2.4125923334e-01	-2.9116565796e+00
 1.8735476120e+00	 2.5765166797e-01	-2.9808937613e+00
 1.8712159728e+00	 2.7407267362e-01	-3.0839076271e+00
 1.8687329894e+00	 2.9052038284e-01	-3.1896930050e+00
 1.8660976633e+00	 3.0699289937e-01	-3.2664997623e+00
 1.8633090241e+00	 3.2348829849e-01	-3.2818266189e+00
 1.8932099149e+00	 1.6053439561e-01	-4.0999782579e+00
 1.8917571704e+00	 1.7683268116e-01	-3.5429503218e+00
 1.8901589361e+00	 1.9316860519e-01	-3.1082829184e+00
 1.8884140582e+00	 2.0954044147e-01	-2.7842418388e+00
 1.8865214060e+00	 2.2594643317e-01	-2.5583593469e+00
 1.8844798725e+00	 2.4238479316e-01	-2.4174068654e+00
 1.8822883755e+00	 2.5885370430e-01	-2.3473678436e+00
 1.8799458584e+00	 2.7535131976e-01	-2.3334106576e+00
 1.8774512910e+00	 2.9187576338e-01	-2.3598613936e+00
 1.8748036702e+00	 3.0842513004e-01	-2.4101763711e+00
 1.8720020210e+00	 3.2499748604e-01	-2.4669142702e+00
 1.9020013947e+00	 1.6127986756e-01	-4.0695604415e+00
 1.9005419041e+00	 1.7765383730e-01	-3.5120381250e+00
 1.8989362481e+00	 1.9406562030e-01	-3.0289216216e+00
 1.8971832676e+00	 2.1051348230e-01	-2.6203614788e+00
 1.8952818264e+00	 2.2699565834e-01	-2.2858175318e+00
 1.8932308127e+00	 2.4351035298e-01	-2.0240184308e+00
 1.8910291390e+00	 2.6005574064e-01	-1.8329209122e+00
 1.8886757441e+00	 2.7662996591e-01	-1.7096686618e+00
 1.8861695926e+00	 2.9323114392e-01	-1.6505506201e+00
 1.8835096771e+00	 3.0985736070e-01	-1.6509585877e+00
 1.8806950179e+00	 3.2650667358e-01	-1.7053439969e+00
 1.9107928745e+00	 1.6202533951e-01	-4.0165044787e+00
 1.9093266378e+00	 1.7847499343e-01	-3.4677735964e+00
 1.9077135601e+00	 1.9496263540e-01	-2.9547179363e+00
 1.9059524769e+00	 2.1148652314e-01	-2.4856661690e+00
 1.9040422468e+00	 2.2804488351e-01	-2.0683648501e+00
 1.9019817528e+00	 2.4463591280e-01	-1.7099308890e+00
 1.8997699026e+00	 2.6125777697e-01	-1.4168033756e+00
 1.8974056297e+00	 2.7790861205e-01	-1.1946946028e+00
 1.8948878943e+00	 2.9458652446e-01	-1.0485401288e+00
 1.8922156840e+00	 3.1128959137e-01	-9.8244772709e-01
 1.8893880148e+00	 3.2801586113e-01	-9.9964508320e-01
 1.9195843543e+00	 1.6277081146e-01	-3.9425834181e+00
 1.9181113715e+00	 1.7929614957e-01	-3.4039364056e+00
 1.9164908721e+00	 1.9585965050e-01	-2.8731090439e+00
 1.9147216862e+00	 2.1245956397e-01	-2.3629554635e+00
 1.9128026673e+00	 2.2909410868e-01	-1.8859215980e+00
 1.9107326930e+00	 2.4576147262e-01	-1.4539966480e+00
 1.9085106661e+00	 2.6245981331e-01	-1.0786635698e+00
 1.9061355153e+00	 2.7918725820e-01	-7.7084841050e-01
 1.9036061959e+00	 2.9594190500e-01	-5.4086831418e-01
 1.9009216909e+00	 3.1272182203e-01	-3.9837803264e-01
 1.8980810117e+00	 3.2952504868e-01	-3.5231478195e-01
 1.9283758340e+00	 1.6351628341e-01	-3.8495512192e+00
 1.9268961052e+00	 1.8011730570e-01	-3.3144343828e+00
 1.9252681841e+00	 1.9675666560e-01	-2.7717771407e+00
 1.9234908955e+00	 2.1343260480e-01	-2.2353593930e+00
 1.9215630877e+00	 2.3014333386e-01	-1.7187916282e+00
 1.9194836332e+00	 2.4688703243e-01	-1.2354713917e+00
 1.9172514297e+00	 2.6366184964e-01	-7.9853850083e-01
 1.9148654009e+00	 2.8046590435e-01	-4.2082879810e-01
 1.9123244975e+00	 2.9729728554e-01	-1.1482624556e-01
 1.9096276978e+00	 3.1415405270e-01	 1.0738683457e-01
 1.9067740086e+00	 3.3103423623e-01	 2.3418155435e-01
 1.9371673138e+00	 1.6426175536e-01	-3.7391433182e+00
 1.9356808389e+00	 1.8093846184e-01	-3.1933007122e+00
 1.9340454961e+00	 1.9765368070e-01	-2.6386439392e+00
 1.9322601048e+00	 2.1440564563e-01	-2.0863309767e+00
 1.9303235081e+00	 2.3119255903e-01	-1.5476535973e+00
 1.9282345734e+00	 2.4801259225e-01	-1.0340048118e+00
 1.9259921932e+00	 2.6486388598e-01	-5.5684482840e-01
 1.9235952865e+00	 2.8174455049e-01	-1.2766528892e-01
 1.9210427991e+00	 2.9865266608e-01	 2.4204845134e-01
 1.9183337047e+00	 3.1558628337e-01	 5.4085722665e-01
 1.9154670055e+00	 3.3254342378e-01	 7.5741036327e-01
 1.9459587936e+00	 1.6500722731e-01	-3.6130771750e+00
 1.9444655726e+00	 1.8175961797e-01	-3.0346911965e+00
 1.9428228080e+00	 1.9855069580e-01	-2.4618653132e+00
 1.9410293141e+00	 2.1537868647e-01	-1.8996389305e+00
 1.9390839285e+00	 2.3224178420e-01	-1.3535524437e+00
 1.9369855135e+00	 2.4913815207e-01	-8.2963158088e-01
 1.9347329568e+00	 2.6606592231e-01	-3.3437008374e-01
 1.9323251722e+00	 2.8302319664e-01	 1.2528955305e-01
 1.9297611007e+00	 3.0000804662e-01	 5.4197756080e-01
 1.9270397115e+00	 3.1701851403e-01	 9.0792086228e-01
 1.9241600024e+00	 3.3405261133e-01	 1.2149697825e+00
 1.9547502734e+00	 1.6575269926e-01	-3.4730528015e+00
 1.9532503062e+00	 1.8258077411e-01	-2.8328815906e+00
 1.9516001200e+00	 1.9944771090e-01	-2.2298260801e+00
 1.9497985234e+00	 2.1635172730e-01	-1.6593605652e+00
 1.9478443490e+00	 2.3329100937e-01	-1.1178910869e+00
 1.9457364537e+00	 2.5026371189e-01	-6.0276256038e-01
 1.9434737203e+00	 2.6726795865e-01	-1.1226411313e-01
 1.9410550578e+00	 2.8430184279e-01	 3.5436769497e-01
 1.9384794024e+00	 3.0136342716e-01	 7.9694809636e-01
 1.9357457184e+00	 3.1845074470e-01	 1.2143461050e+00
 1.9328529993e+00	 3.3556179888e-01	 1.6044895797e+00
 1.9635417532e+00	 1.6649817121e-01	-3.3207532712e+00
 1.9620350399e+00	 1.8340193024e-01	-2.5822650022e+00
 1.9603774320e+00	 2.0034472601e-01	-1.9311349193e+00
 1.9585677328e+00	 2.1732476813e-01	-1.3498748681e+00
 1.9566047694e+00	 2.3434023454e-01	-8.2242234103e-01
 1.9544873939e+00	 2.5138927171e-01	-3.3417623465e-01
 1.9522144839e+00	 2.6846999499e-01	 1.2796925921e-01
 1.9497849434e+00	 2.8558048894e-01	 5.7559301585e-01
 1.9471977040e+00	 3.0271880770e-01	 1.0187179774e+00
 1.9444517253e+00	 3.1988297537e-01	 1.4657851688e+00
 1.9415459962e+00	 3.3707098643e-01	 1.9236311010e+00
 1.8546160272e+00	 3.2197911094e-01	-4.1475195742e+00
 1.8516873736e+00	 3.3841559011e-01	-3.8652980975e+00
 1.8486043281e+00	 3.5487092882e-01	-3.3909815512e+00
 1.8453660122e+00	 3.7134313460e-01	-2.7669686257e+00
 1.8419715781e+00	 3.8783018861e-01	-2.0549142072e+00
 1.8384202100e+00	 4.0433004622e-01	-1.3085855130e+00
 1.8347111246e+00	 4.2084063749e-01	-5.6464820392e-01
 1.8308435719e+00	 4.3735986779e-01	 1.3967113542e-01
 1.8268168362e+00	 4.5388561839e-01	 7.6656708426e-01
 1.8226302364e+00	 4.7041574706e-01	 1.2776448699e+00
 1.8182831273e+00	 4.8694808875e-01	 1.6339180586e+00
 1.8633090241e+00	 3.2348829849e-01	-3.2818266189e+00
 1.8603666432e+00	 3.4000181909e-01	-3.1955192281e+00
 1.8572691468e+00	 3.5653428762e-01	-3.0009010312e+00
 1.8540156522e+00	 3.7308370228e-01	-2.7158208630e+00
 1.8506053077e+00	 3.8964803478e-01	-2.3830623356e+00
 1.8470372935e+00	 4.0622523088e-01	-2.0303608603e+00
 1.8433108228e+00	 4.2281321096e-01	-1.6698621193e+00
 1.8394251420e+00	 4.3940987056e-01	-1.3142336397e+00
 1.8353795321e+00	 4.5601308101e-01	-9.7700191461e-01
 1.8311733088e+00	 4.7262069006e-01	-6.7260320506e-01
 1.8268058238e+00	 4.8923052251e-01	-4.1642625074e-01
 1.8720020210e+00	 3.2499748604e-01	-2.4669142702e+00
 1.8690459129e+00	 3.4158804806e-01	-2.5045853997e+00
 1.8659339656e+00	 3.5819764642e-01	-2.5082539372e+00
 1.8626652922e+00	 3.7482426996e-01	-2.4773792491e+00
 1.8592390372e+00	 3.9146588094e-01	-2.4402576849e+00
 1.8556543770e+00	 4.0812041554e-01	-2.4013363675e+00
 1.8519105210e+00	 4.2478578442e-01	-2.3524811205e+00
 1.8480067122e+00	 4.4145987332e-01	-2.2871640732e+00
 1.8439422280e+00	 4.5814054363e-01	-2.2001419150e+00
 1.8397163812e+00	 4.7482563307e-01	-2.0864563570e+00
 1.8353285204e+00	 4.9151295627e-01	-1.9423600802e+00
 1.8806950179e+00	 3.2650667358e-01	-1.7053439969e+00
 1.8777251825e+00	 3.4317427704e-01	-1.8044555442e+00
 1.8745987843e+00	 3.5986100522e-01	-1.9320555497e+00
 1.8713149323e+00	 3.7656483765e-01	-2.0748874049e+00
 1.8678727668e+00	 3.9328372711e-01	-2.2509190735e+00
 1.8642714605e+00	 4.1001560020e-01	-2.4471474949e+00
 1.8605102192e+00	 4.2675835788e-01	-2.6406410612e+00
 1.8565882823e+00	 4.4350987608e-01	-2.8091047192e+00
 1.8525049239e+00	 4.6026800626e-01	-2.9309669704e+00
 1.8482594536e+00	 4.7703057607e-01	-2.9865834769e+00
 1.8438512169e+00	 4.9379539003e-01	-2.9588904925e+00
 1.8893880148e+00	 3.2801586113e-01	-9.9964508320e-01
 1.8864044522e+00	 3.4476050601e-01	-1.1068846779e+00
 1.8832636031e+00	 3.6152436402e-01	-1.2916984130e+00
 1.8799645723e+00	 3.7830540533e-01	-1.5337957848e+00
 1.8765064963e+00	 3.9510157327e-01	-1.8445487224e+00
 1.8728885440e+00	 4.1191078486e-01	-2.1983174554e+00
 1.8691099174e+00	 4.2873093135e-01	-2.5620914384e+00
 1.8651698524e+00	 4.4555987884e-01	-2.9034777741e+00
 1.8610676199e+00	 4.6239546888e-01	-3.1908011032e+00
 1.8568025260e+00	 4.7923551908e-01	-3.3932059799e+00
 1.8523739134e+00	 4.9607782379e-01	-3.4807617705e+00
 1.8980810117e+00	 3.2952504868e-01	-3.5231478195e-01
 1.8950837218e+00	 3.4634673499e-01	-4.2342501282e-01
 1.8919284218e+00	 3.6318772282e-01	-6.0623023073e-01
 1.8886142123e+00	 3.8004597302e-01	-8.7907734342e-01
 1.8851402259e+00	 3.9691941944e-01	-1.2501918913e+00
 1.8815056276e+00	 4.1380596952e-01	-1.6861995523e+00
 1.8777096156e+00	 4.3070350481e-01	-2.1486612300e+00
 1.8737514226e+00	 4.4760988161e-01	-2.5996572428e+00
 1.8696303158e+00	 4.6452293151e-01	-3.0018925540e+00
 1.8653455984e+00	 4.8144046208e-01	-3.3188048100e+00
 1.8608966100e+00	 4.9836025755e-01	-3.5146752289e+00
 1.9067740086e+00	 3.3103423623e-01	 2.3418155435e-01
 1.9037629915e+00	 3.4793296396e-01	 2.3457014753e-01
 1.9005932405e+00	 3.6485108162e-01	 1.0563913982e-01
 1.8972638524e+00	 3.8178654070e-01	-1.3523807720e-01
 1.8937739555e+00	 3.9873726560e-01	-4.9635088231e-01
 1.8901227111e+00	 4.1570115418e-01	-9.4156037841e-01
 1.8863093138e+00	 4.3267607828e-01	-1.4315824482e+00
 1.8823329927e+00	 4.4965988437e-01	-1.9274753968e+00
 1.8781930117e+00	 4.6665039413e-01	-2.3907430317e+00
 1.8738886708e+00	 4.8364540509e-01	-2.7834408314e+00
 1.8694193065e+00	 5.0064269131e-01	-3.0682852635e+00
 1.9154670055e+00	 3.3254342378e-01	 7.5741036327e-01
 1.9124422611e+00	 3.4951919294e-01	 8.5594263813e-01
 1.9092580593e+00	 3.6651444042e-01	 8.2553090426e-01
 1.9059134924e+00	 3.8352710838e-01	 6.7367271382e-01
 1.9024076850e+00	 4.0055511177e-01	 3.8900295644e-01
 1.8987397946e+00	 4.1759633884e-01	 5.4071649746e-03
 1.8949090120e+00	 4.3464865175e-01	-4.4150341586e-01
 1.8909145628e+00	 4.5170988714e-01	-9.1620477212e-01
 1.8867557076e+00	 4.6877785675e-01	-1.3833536126e+00
 1.8824317432e+00	 4.8585034809e-01	-1.8078841929e+00
 1.8779420031e+00	 5.0292512507e-01	-2.1551085593e+00
 1.9241600024e+00	 3.3405261133e-01	 1.2149697825e+00
 1.9211215308e+00	 3.5110542191e-01	 1.4297257835e+00
 1.9179228780e+00	 3.6817779922e-01	 1.5353907531e+00
 1.9145631324e+00	 3.8526767607e-01	 1.5240524342e+00
 1.9110414146e+00	 4.0237295794e-01	 1.3784175431e+00
 1.9073568781e+00	 4.1949152350e-01	 1.1250711935e+00
 1.9035087102e+00	 4.3662122521e-01	 7.9149830612e-01
 1.8994961330e+00	 4.5375988990e-01	 4.0542941489e-01
 1.8953184036e+00	 4.7090531938e-01	-5.2358545938e-03
 1.8909748156e+00	 4.8805529110e-01	-4.1250884424e-01
 1.8864646996e+00	 5.0520755883e-01	-7.8839558393e-01
 1.9328529993e+00	 3.3556179888e-01	 1.6044895797e+00
 1.9298008004e+00	 3.5269165089e-01	 1.9451408662e+00
 1.9265876967e+00	 3.6984115802e-01	 2.2174824821e+00
 1.9232127724e+00	 3.8700824375e-01	 2.3927354632e+00
 1.9196751442e+00	 4.0419080410e-01	 2.4449486817e+00
 1.9159739616e+00	 4.2138670816e-01	 2.3883484976e+00
 1.9121084084e+00	 4.3859379868e-01	 2.2379033310e+00
 1.9080777031e+00	 4.5580989266e-01	 2.0092371753e+00
 1.9038810995e+00	 4.7303278200e-01	 1.7185773742e+00
 1.8995178880e+00	 4.9026023410e-01	 1.3826986944e+00
 1.8949873961e+00	 5.0748999259e-01	 1.0188635234e+00
 1.9415459962e+00	 3.3707098643e-01	 1.9236311010e+00
 1.9384800701e+00	 3.5427787987e-01	 2.3915937098e+00
 1.9352525155e+00	 3.7150451682e-01	 2.8542319306e+00
 1.9318624125e+00	 3.8874881144e-01	 3.2569836795e+00
 1.9283088737e+00	 4.0600865027e-01	 3.5621489793e+00
 1.9245910451e+00	 4.2328189282e-01	 3.7666925222e+00
 1.9207081067e+00	 4.4056637214e-01	 3.8687381856e+00
 1.9166592732e+00	 4.5785989543e-01	 3.8675519693e+00
 1.9124437954e+00	 4.7516024463e-01	 3.7635213472e+00
 1.9080609604e+00	 4.9246517711e-01	 3.5581307871e+00
 1.9035100927e+00	 5.0977242635e-01	 3.2539332066e+00
 1.8182831273e+00	 4.8694808875e-01	 1.6339180586e+00
 1.8137749003e+00	 5.0348045650e-01	 1.8685259694e+00
 1.8091049855e+00	 5.2001064282e-01	 2.0505190562e+00
 1.8042728512e+00	 5.3653641979e-01	 2.1936630152e+00
 1.7992780042e+00	 5.5305553956e-01	 2.3107977232e+00
 1.7941199904e+00	 5.6956573515e-01	 2.4138123254e+00
 1.7887983956e+00	 5.8606472121e-01	 2.5136319633e+00
 1.7833128461e+00	 6.0255019490e-01	 2.6202167689e+00
 1.7776630090e+00	 6.1901983667e-01	 2.7425736861e+00
 1.7718485933e+00	 6.3547131114e-01	 2.8887816115e+00
 1.7658693503e+00	 6.5190226803e-01	 3.0660302715e+00
 1.8268058238e+00	 4.8923052251e-01	-4.1642625074e-01
 1.8222764658e+00	 5.0584038114e-01	-1.6129060227e-01
 1.8175846620e+00	 5.2244804811e-01	 1.4689750416e-01
 1.8127298785e+00	 5.3905128506e-01	 5.0177235915e-01
 1.8077116195e+00	 5.5564783361e-01	 8.9614750568e-01
 1.8025294290e+00	 5.7223541615e-01	 1.3220185985e+00
 1.7971828907e+00	 5.8881173662e-01	 1.7705786295e+00
 1.7916716291e+00	 6.0537448139e-01	 2.2322461260e+00
 1.7859953100e+00	 6.2192132001e-01	 2.6967068607e+00
 1.7801536409e+00	 6.3844990620e-01	 3.1529695421e+00
 1.7741463719e+00	 6.5495787863e-01	 3.5894358721e+00
 1.8353285204e+00	 4.9151295627e-01	-1.9423600802e+00
 1.8307780312e+00	 5.0820030577e-01	-1.7039299388e+00
 1.8260643386e+00	 5.2488545340e-01	-1.3237682159e+00
 1.8211869057e+00	 5.4156615033e-01	-8.2443365049e-01
 1.8161452348e+00	 5.5824012766e-01	-2.2923165881e-01
 1.8109388675e+00	 5.7490509715e-01	 4.3781069878e-01
 1.8055673857e+00	 5.9155875203e-01	 1.1519828014e+00
 1.8000304122e+00	 6.0819876787e-01	 1.8879421978e+00
 1.7943276110e+00	 6.2482280336e-01	 2.6197805090e+00
 1.7884586885e+00	 6.4142850126e-01	 3.3211039561e+00
 1.7824233934e+00	 6.5801348923e-01	 3.9651288803e+00
 1.8438512169e+00	 4.9379539003e-01	-2.9588904925e+00
 1.8392795967e+00	 5.1056023041e-01	-2.7660462208e+00
 1.8345440151e+00	 5.2732285868e-01	-2.3606664705e+00
 1.8296439330e+00	 5.4408101560e-01	-1.7776191130e+00
 1.8245788501e+00	 5.6083242171e-01	-1.0524754602e+00
 1.8193483061e+00	 5.7757477815e-01	-2.2146861337e-01
 1.8139518808e+00	 5.9430576744e-01	 6.7856188260e-01
 1.8083891953e+00	 6.1102305435e-01	 1.6102396721e+00
 1.8026599120e+00	 6.2772428671e-01	 2.5357360328e+00
 1.7967637360e+00	 6.4440709632e-01	 3.4168695731e+00
 1.7907004149e+00	 6.6106909983e-01	 4.2152215410e+00
 1.8523739134e+00	 4.9607782379e-01	-3.4807617705e+00
 1.8477811622e+00	 5.1292015504e-01	-3.3542056904e+00
 1.8430236917e+00	 5.2976026397e-01	-2.9630327148e+00
 1.8381009602e+00	 5.4659588087e-01	-2.3506123836e+00
 1.8330124654e+00	 5.6342471576e-01	-1.5609821490e+00
 1.8277577446e+00	 5.8024445915e-01	-6.3881758303e-01
 1.8223363759e+00	 5.9705278285e-01	 3.7063467488e-01
 1.8167479783e+00	 6.1384734083e-01	 1.4216388690e+00
 1.8109922131e+00	 6.3062577006e-01	 2.4680675029e+00
 1.8050687836e+00	 6.4738569138e-01	 3.4635145833e+00
 1.7989774365e+00	 6.6412471043e-01	 4.3614250890e+00
 1.8608966100e+00	 4.9836025755e-01	-3.5146752289e+00
 1.8562827277e+00	 5.1528007968e-01	-3.4727736354e+00
 1.8515033682e+00	 5.3219766926e-01	-3.1301476192e+00
 1.8465579875e+00	 5.4911074614e-01	-2.5364013487e+00
 1.8414460807e+00	 5.6601700981e-01	-1.7424053812e+00
 1.8361671832e+00	 5.8291414015e-01	-7.9756632044e-01
 1.8307208709e+00	 5.9979979826e-01	 2.4813203745e-01
 1.8251067614e+00	 6.1667162732e-01	 1.3442174289e+00
 1.8193245141e+00	 6.3352725341e-01	 2.4398338635e+00
 1.8133738312e+00	 6.5036428644e-01	 3.4838628346e+00
 1.8072544580e+00	 6.6718032103e-01	 4.4250613624e+00
 1.8694193065e+00	 5.0064269131e-01	-3.0682852635e+00
 1.8647842931e+00	 5.1764000431e-01	-3.1160432553e+00
 1.8599830448e+00	 5.3463507454e-01	-2.8531977118e+00
 1.8550150148e+00	 5.5162561141e-01	-2.3267768157e+00
 1.8498796960e+00	 5.6860930386e-01	-1.5846472241e+00
 1.8445766217e+00	 5.8558382115e-01	-6.8136787224e-01
 1.8391053660e+00	 6.0254681367e-01	 3.3060729533e-01
 1.8334655445e+00	 6.1949591380e-01	 1.3996417244e+00
 1.8276568151e+00	 6.3642873675e-01	 2.4736708502e+00
 1.8216788787e+00	 6.5334288150e-01	 3.5003257367e+00
 1.8155314795e+00	 6.7023593163e-01	 4.4270741509e+00
 1.8779420031e+00	 5.0292512507e-01	-2.1551085593e+00
 1.8732858586e+00	 5.1999992895e-01	-2.2878289343e+00
 1.8684627213e+00	 5.3707247983e-01	-2.1213512001e+00
 1.8634720420e+00	 5.5414047668e-01	-1.7002775861e+00
 1.8583133113e+00	 5.7120159791e-01	-1.0694577487e+00
 1.8529860603e+00	 5.8825350215e-01	-2.7398394468e-01
 1.8474898610e+00	 6.0529382908e-01	 6.3724640561e-01
 1.8418243275e+00	 6.2232020028e-01	 1.6091780057e+00
 1.8359891162e+00	 6.3933022010e-01	 2.5918026297e+00
 1.8299839263e+00	 6.5632147656e-01	 3.5349138897e+00
 1.8238085011e+00	 6.7329154224e-01	 4.3880402876e+00
 1.8864646996e+00	 5.0520755883e-01	-7.8839558393e-01
 1.8817874241e+00	 5.2235985359e-01	-9.9363723221e-01
 1.8769423979e+00	 5.3950988512e-01	-9.3317231530e-01
 1.8719290693e+00	 5.5665534195e-01	-6.4557219478e-01
 1.8667469266e+00	 5.7379389196e-01	-1.6970455825e-01
 1.8613954988e+00	 5.9092318315e-01	 4.5526292533e-01
 1.8558743561e+00	 6.0804084449e-01	 1.1898566515e+00
 1.8501831106e+00	 6.2514448676e-01	 1.9937032872e+00
 1.8443214172e+00	 6.4223170345e-01	 2.8160531705e+00
 1.8382889739e+00	 6.5930007162e-01	 3.6092484467e+00
 1.8320855226e+00	 6.7634715284e-01	 4.3281804914e+00
 1.8949873961e+00	 5.0748999259e-01	 1.0188635234e+00
 1.8902889896e+00	 5.2471977822e-01	 7.6114723634e-01
 1.8854220744e+00	 5.4194729040e-01	 7.1275506463e-01
 1.8803860966e+00	 5.5917020722e-01	 8.4470226485e-01
 1.8751805420e+00	 5.7638618601e-01	 1.1276322094e+00
 1.8698049374e+00	 5.9359286415e-01	 1.5317990357e+00
 1.8642588511e+00	 6.1078785990e-01	 2.0270477321e+00
 1.8585418937e+00	 6.2796877325e-01	 2.5827915834e+00
 1.8526537182e+00	 6.4513318680e-01	 3.1679869282e+00
 1.8465940215e+00	 6.6227866668e-01	 3.7445722189e+00
 1.8403625441e+00	 6.7940276344e-01	 4.2673699694e+00
 1.9035100927e+00	 5.0977242635e-01	 3.2539332066e+00
 1.8987905551e+00	 5.2707970286e-01	 2.9712591064e+00
 1.8939017510e+00	 5.4438469569e-01	 2.8178452647e+00
 1.8888431238e+00	 5.6168507249e-01	 2.7778010219e+00
 1.8836141573e+00	 5.7897848006e-01	 2.8347618492e+00
 1.8782143759e+00	 5.9626254515e-01	 2.9718531285e+00
 1.8726433462e+00	 6.1353487531e-01	 3.1716510490e+00
 1.8669006767e+00	 6.3079305973e-01	 3.4161405626e+00
 1.8609860192e+00	 6.4803467015e-01	 3.6866703733e+00
 1.8548990690e+00	 6.6525726174e-01	 3.9639049642e+00
 1.8486395656e+00	 6.8245837404e-01	 4.2251487854e+00
 1.7658693503e+00	 6.5190226803e-01	 3.0660302715e+00
 1.7597240152e+00	 6.6831313035e-01	 3.1986022406e+00
 1.7534134267e+00	 6.8469872359e-01	 3.2134308610e+00
 1.7469374649e+00	 7.0105665617e-01	 3.1216614643e+00
 1.7402960542e+00	 7.1738452531e-01	 2.9352151799e+00
 1.7334891636e+00	 7.3367991799e-01	 2.6669084503e+00
 1.7265168079e+00	 7.4994041202e-01	 2.3313954625e+00
 1.7193790471e+00	 7.6616357699e-01	 1.9506017019e+00
 1.7120759877e+00	 7.8234697537e-01	 1.5486781274e+00
 1.7046077823e+00	 7.9848816357e-01	 1.1506600307e+00
 1.6969746305e+00	 8.1458469296e-01	 7.8267580330e-01
 1.7741463719e+00	 6.5495787863e-01	 3.5894358721e+00
 1.7679722322e+00	 6.7144566231e-01	 3.9218466688e+00
 1.7616320646e+00	 6.8790805846e-01	 4.0841038460e+00
 1.7551257485e+00	 7.0434266430e-01	 4.0920511896e+00
 1.7484532080e+00	 7.2074706578e-01	 3.9621359515e+00
 1.7416144121e+00	 7.3711883859e-01	 3.7115230137e+00
 1.7346093753e+00	 7.5345554916e-01	 3.3603892663e+00
 1.7274381583e+00	 7.6975475570e-01	 2.9366564914e+00
 1.7201008678e+00	 7.8601400927e-01	 2.4682869439e+00
 1.7125976573e+00	 8.0223085480e-01	 1.9840946677e+00
 1.7049287272e+00	 8.1840283220e-01	 1.5138293563e+00
 1.7824233934e+00	 6.5801348923e-01	 3.9651288803e+00
 1.7762204492e+00	 6.7457819426e-01	 4.4576063341e+00
 1.7698507024e+00	 6.9111739332e-01	 4.7355698471e+00
 1.7633140321e+00	 7.0762867243e-01	 4.8194960286e+00
 1.7566103618e+00	 7.2410960625e-01	 4.7302787880e+00
 1.7497396605e+00	 7.4055775918e-01	 4.4893380824e+00
 1.7427019428e+00	 7.5697068630e-01	 4.1232601523e+00
 1.7354972695e+00	 7.7334593442e-01	 3.6648533719e+00
 1.7281257479e+00	 7.8968104316e-01	 3.1457753299e+00
 1.7205875322e+00	 8.0597354602e-01	 2.5984817554e+00
 1.7128828239e+00	 8.2222097143e-01	 2.0561954952e+00
 1.7907004149e+00	 6.6106909983e-01	 4.2152215410e+00
 1.7844686661e+00	 6.7771072622e-01	 4.8256914263e+00
 1.7780693403e+00	 6.9432672819e-01	 5.1852289154e+00
 1.7715023157e+00	 7.1091468055e-01	 5.3188775413e+00
 1.7647675156e+00	 7.2747214673e-01	 5.2518981331e+00
 1.7578649089e+00	 7.4399667978e-01	 5.0100424267e+00
 1.7507945102e+00	 7.6048582344e-01	 4.6269285305e+00
 1.7435563806e+00	 7.7693711313e-01	 4.1391279665e+00
 1.7361506280e+00	 7.9334807706e-01	 3.5819753008e+00
 1.7285774072e+00	 8.0971623725e-01	 2.9914313619e+00
 1.7208369206e+00	 8.2603911066e-01	 2.4040445795e+00
 1.7989774365e+00	 6.6412471043e-01	 4.3614250890e+00
 1.7927168831e+00	 6.8084325817e-01	 5.0455605601e+00
 1.7862879781e+00	 6.9753606306e-01	 5.4501814212e+00
 1.7796905993e+00	 7.1420068868e-01	 5.6048319453e+00
 1.7729246694e+00	 7.3083468720e-01	 5.5390598530e+00
 1.7659901573e+00	 7.4743560037e-01	 5.2833868119e+00
 1.7588870776e+00	 7.6400096058e-01	 4.8782266075e+00
 1.7516154918e+00	 7.8052829185e-01	 4.3633838069e+00
 1.7441755081e+00	 7.9701511095e-01	 3.7777449467e+00
 1.7365672822e+00	 8.1345892847e-01	 3.1606398405e+00
 1.7287910173e+00	 8.2985724989e-01	 2.5517954996e+00
 1.8072544580e+00	 6.6718032103e-01	 4.4250613624e+00
 1.8009651001e+00	 6.8397579012e-01	 5.1363315049e+00
 1.7945066160e+00	 7.0074539792e-01	 5.5472378526e+00
 1.7878788828e+00	 7.1748669681e-01	 5.6917589362e+00
 1.7810818232e+00	 7.3419722767e-01	 5.6036490316e+00
 1.7741154057e+00	 7.5087452097e-01	 5.3188765825e+00
 1.7669796451e+00	 7.6751609772e-01	 4.8839006955e+00
 1.7596746030e+00	 7.8411947056e-01	 4.3414933129e+00
 1.7522003882e+00	 8.0068214485e-01	 3.7339680313e+00
 1.7445571572e+00	 8.1720161970e-01	 3.1038880004e+00
 1.7367451140e+00	 8.3367538912e-01	 2.4940123695e+00
 1.8155314795e+00	 6.7023593163e-01	 4.4270741509e+00
 1.8092133171e+00	 6.8710832208e-01	 5.1167916771e+00
 1.8027252539e+00	 7.0395473279e-01	 5.4929284058e+00
 1.7960671664e+00	 7.2077270493e-01	 5.5938303292e+00
 1.7892389771e+00	 7.3755976815e-01	 5.4573776174e+00
 1.7822406541e+00	 7.5431344156e-01	 5.1258816191e+00
 1.7750722125e+00	 7.7103123486e-01	 4.6506134394e+00
 1.7677337141e+00	 7.8771064928e-01	 4.0772987247e+00
 1.7602252683e+00	 8.0434917874e-01	 3.4515535831e+00
 1.7525470321e+00	 8.2094431093e-01	 2.8190393052e+00
 1.7446992107e+00	 8.3749352836e-01	 2.2254012857e+00
 1.8238085011e+00	 6.7329154224e-01	 4.3880402876e+00
 1.8174615341e+00	 6.9024085403e-01	 5.0054084018e+00
 1.8109438917e+00	 7.0716406766e-01	 5.3035123722e+00
 1.8042554500e+00	 7.2405871306e-01	 5.3249985271e+00
 1.7973961309e+00	 7.4092230862e-01	 5.1117930492e+00
 1.7903659025e+00	 7.5775236216e-01	 4.7136399704e+00
 1.7831647799e+00	 7.7454637200e-01	 4.1849459649e+00
 1.7757928253e+00	 7.9130182799e-01	 3.5746129916e+00
 1.7682501484e+00	 8.0801621264e-01	 2.9314354752e+00
 1.7605369071e+00	 8.2468700215e-01	 2.3040380997e+00
 1.7526533074e+00	 8.4131166759e-01	 1.7408071530e+00
 1.8320855226e+00	 6.7634715284e-01	 4.3281804914e+00
 1.8257097511e+00	 6.9337338599e-01	 4.8203389510e+00
 1.8191625296e+00	 7.1037340252e-01	 4.9949873284e+00
 1.8124437336e+00	 7.2734472119e-01	 4.8990048183e+00
 1.8055532847e+00	 7.4428484909e-01	 4.5786298918e+00
 1.7984911509e+00	 7.6119128276e-01	 4.0912611041e+00
 1.7912573474e+00	 7.7806150914e-01	 3.4933999493e+00
 1.7838519365e+00	 7.9489300671e-01	 2.8372206162e+00
 1.7762750285e+00	 8.1168324653e-01	 2.1745719974e+00
 1.7685267821e+00	 8.2842969338e-01	 1.5569078626e+00
 1.7606074041e+00	 8.4512980682e-01	 1.0352105727e+00
 1.8403625441e+00	 6.7940276344e-01	 4.2673699694e+00
 1.8339579680e+00	 6.9650591794e-01	 4.5794403662e+00
 1.8273811674e+00	 7.1358273739e-01	 4.5830981370e+00
 1.8206320172e+00	 7.3063072931e-01	 4.3293875140e+00
 1.8137104385e+00	 7.4764738957e-01	 3.8695335429e+00
 1.8066163993e+00	 7.6463020335e-01	 3.2677290541e+00
 1.7993499148e+00	 7.8157664628e-01	 2.5823996189e+00
 1.7919110476e+00	 7.9848418542e-01	 1.8688784563e+00
 1.7842999086e+00	 8.1535028043e-01	 1.1819454184e+00
 1.7765166570e+00	 8.3217238461e-01	 5.7574948417e-01
 1.7685615008e+00	 8.4894794605e-01	 1.0372479197e-01
 1.8486395656e+00	 6.8245837404e-01	 4.2251487854e+00
 1.8422061850e+00	 6.9963844990e-01	 4.3002790710e+00
 1.8355998053e+00	 7.1679207226e-01	 4.0833457622e+00
 1.8288203008e+00	 7.3391673744e-01	 3.6294899253e+00
 1.8218675923e+00	 7.5100993004e-01	 2.9957725683e+00
 1.8147416478e+00	 7.6806912395e-01	 2.2519054653e+00
 1.8074424822e+00	 7.8509178342e-01	 1.4582936739e+00
 1.7999701588e+00	 8.0207536413e-01	 6.7331648685e-01
 1.7923247887e+00	 8.1901731432e-01	-4.5438459923e-02
 1.7845065320e+00	 8.3591507583e-01	-6.4126042967e-01
 1.7765155975e+00	 8.5276608528e-01	-1.0584072863e+00
 1.6969746305e+00	 8.1458469296e-01	 7.8267580330e-01
 1.6891781183e+00	 8.3063138694e-01	 4.6656764767e-01
 1.6812172549e+00	 8.4662853067e-01	 2.1143585691e-01
 1.6730923806e+00	 8.6257366750e-01	 2.5029869951e-02
 1.6648038834e+00	 8.7846434017e-01	-8.5258892079e-02
 1.6563521993e+00	 8.9429809199e-01	-1.1243477742e-01
 1.6477378124e+00	 9.1007246793e-01	-4.9940151631e-02
 1.6389612550e+00	 9.2578501584e-01	 1.0829796184e-01
 1.6300231078e+00	 9.4143328755e-01	 3.6781699122e-01
 1.6209239997e+00	 9.5701484010e-01	 7.3356385721e-01
 1.6116646083e+00	 9.7252723688e-01	 1.2098361648e+00
 1.7049287272e+00	 8.1840283220e-01	 1.5138293563e+00
 1.6970956710e+00	 8.3452474059e-01	 1.0759223731e+00
 1.6890974932e+00	 8.5059686648e-01	 6.7790293065e-01
 1.6809345359e+00	 8.6661674170e-01	 3.3385493553e-01
 1.6726071886e+00	 8.8258189749e-01	 5.7523911865e-02
 1.6641158896e+00	 8.9848986561e-01	-1.3773034104e-01
 1.6554611252e+00	 9.1433817956e-01	-2.3898588360e-01
 1.6466434301e+00	 9.3012437566e-01	-2.3381544283e-01
 1.6376633878e+00	 9.4584599429e-01	-1.1034773108e-01
 1.6285216302e+00	 9.6150058104e-01	 1.4266692428e-01
 1.6192188380e+00	 9.7708568786e-01	 5.3578688055e-01
 1.7128828239e+00	 8.2222097143e-01	 2.0561954952e+00
 1.7050132237e+00	 8.3841809423e-01	 1.5347310890e+00
 1.6969777316e+00	 8.5456520229e-01	 1.0388543251e+00
 1.6887766911e+00	 8.7065981591e-01	 5.8586182397e-01
 1.6804104939e+00	 8.8669945480e-01	 1.9277724240e-01
 1.6718795800e+00	 9.0268163924e-01	-1.2370095883e-01
 1.6631844380e+00	 9.1860389118e-01	-3.4725685452e-01
 1.6543256052e+00	 9.3446373548e-01	-4.6201937349e-01
 1.6453036679e+00	 9.5025870104e-01	-4.5262942552e-01
 1.6361192607e+00	 9.6598632197e-01	-3.0431162445e-01
 1.6267730677e+00	 9.8164413885e-01	-2.9503537409e-03
 1.7208369206e+00	 8.2603911066e-01	 2.4040445795e+00
 1.7129307764e+00	 8.4231144788e-01	 1.8342400766e+00
 1.7048579700e+00	 8.5853353810e-01	 1.2832888616e+00
 1.6966188464e+00	 8.7470289011e-01	 7.6862204789e-01
 1.6882137992e+00	 8.9081701212e-01	 3.0750863031e-01
 1.6796432703e+00	 9.0687341286e-01	-8.2996973425e-02
 1.6709077508e+00	 9.2286960280e-01	-3.8611282236e-01
 1.6620077804e+00	 9.3880309530e-01	-5.8539266487e-01
 1.6529439479e+00	 9.5467140778e-01	-6.6479429126e-01
 1.6437168913e+00	 9.7047206291e-01	-6.0875281030e-01
 1.6343272974e+00	 9.8620258983e-01	-4.0225859067e-01
 1.7287910173e+00	 8.2985724989e-01	 2.5517954996e+00
 1.7208483291e+00	 8.4620480153e-01	 1.9659004550e+00
 1.7127382084e+00	 8.6250187391e-01	 1.4004520855e+00
 1.7044610017e+00	 8.7874596432e-01	 8.6998051200e-01
 1.6960171044e+00	 8.9493456943e-01	 3.8900965797e-01
 1.6874069607e+00	 9.1106518648e-01	-2.7990807204e-02
 1.6786310636e+00	 9.2713531443e-01	-3.6665932049e-01
 1.6696899555e+00	 9.4314245513e-01	-6.1280195121e-01
 1.6605842280e+00	 9.5908411453e-01	-7.5245743352e-01
 1.6513145218e+00	 9.7495780385e-01	-7.7196749316e-01
 1.6418815270e+00	 9.9076104082e-01	-6.5805221167e-01
 1.7367451140e+00	 8.3367538912e-01	 2.4940123695e+00
 1.7287658818e+00	 8.5009815518e-01	 1.9213635281e+00
 1.7206184467e+00	 8.6647020972e-01	 1.3798305959e+00
 1.7123031570e+00	 8.8278903852e-01	 8.7804917114e-01
 1.7038204097e+00	 8.9905212675e-01	 4.2484931024e-01
 1.6951706510e+00	 9.1525696011e-01	 2.9216463958e-02
 1.6863543764e+00	 9.3140102605e-01	-2.9975375571e-01
 1.6773721306e+00	 9.4748181495e-01	-5.5290687053e-01
 1.6682245080e+00	 9.6349682127e-01	-7.2108673866e-01
 1.6589121523e+00	 9.7944354479e-01	-7.9519846448e-01
 1.6494357567e+00	 9.9531949180e-01	-7.6627676840e-01
 1.7446992107e+00	 8.3749352836e-01	 2.2254012857e+00
 1.7366834345e+00	 8.5399150883e-01	 1.6924762345e+00
 1.7284986851e+00	 8.7043854553e-01	 1.2111465044e+00
 1.7201453123e+00	 8.8683211273e-01	 7.8120083526e-01
 1.7116237150e+00	 9.0316968406e-01	 4.0286747966e-01
 1.7029343414e+00	 9.1944873373e-01	 7.6788688009e-02
 1.6940776892e+00	 9.3566673768e-01	-1.9601136948e-01
 1.6850543058e+00	 9.5182117477e-01	-4.1416515774e-01
 1.6758647881e+00	 9.6790952801e-01	-5.7600667560e-01
 1.6665097828e+00	 9.8392928573e-01	-6.7962251672e-01
 1.6569899864e+00	 9.9987794279e-01	-7.2290886334e-01
 1.7526533074e+00	 8.4131166759e-01	 1.7408071530e+00
 1.7446009872e+00	 8.5788486247e-01	 1.2712766980e+00
 1.7363789235e+00	 8.7440688134e-01	 8.8435202070e-01
 1.7279874676e+00	 8.9087518693e-01	 5.6806311690e-01
 1.7194270202e+00	 9.0728724138e-01	 3.1116862101e-01
 1.7106980317e+00	 9.2364050735e-01	 1.0314836026e-01
 1.7018010020e+00	 9.3993244930e-01	-6.5811066572e-02
 1.6927364809e+00	 9.5616053459e-01	-2.0483763014e-01
 1.6835050681e+00	 9.7232223476e-01	-3.2240202606e-01
 1.6741074133e+00	 9.8841502667e-01	-4.2635249004e-01
 1.6645442161e+00	 1.0044363938e+00	-5.2395606838e-01
 1.7606074041e+00	 8.4512980682e-01	 1.0352105727e+00
 1.7525185399e+00	 8.6177821612e-01	 6.4998987401e-01
 1.7442591619e+00	 8.7837521715e-01	 3.8962415876e-01
 1.7358296229e+00	 8.9491826114e-01	 2.2751251649e-01
 1.7272303255e+00	 9.1140479869e-01	 1.3811555057e-01
 1.7184617220e+00	 9.2783228098e-01	 9.6970488537e-02
 1.7095243148e+00	 9.4419816092e-01	 8.0698884384e-02
 1.7004186560e+00	 9.6049989442e-01	 6.7006931253e-02
 1.6911453482e+00	 9.7673494150e-01	 3.4678454124e-02
 1.6817050438e+00	 9.9290076761e-01	-3.6439296814e-02
 1.6720984458e+00	 1.0089948448e+00	-1.6545688030e-01
 1.7685615008e+00	 8.4894794605e-01	 1.0372479197e-01
 1.7604360926e+00	 8.6567156977e-01	-1.7897670969e-01
 1.7521394003e+00	 8.8234355296e-01	-2.8264043787e-01
 1.7436717782e+00	 8.9896133535e-01	-2.5133135867e-01
 1.7350336307e+00	 9.1552235600e-01	-1.2767661454e-01
 1.7262254124e+00	 9.3202405460e-01	 4.7176595473e-02
 1.7172476276e+00	 9.4846387255e-01	 2.3359527472e-01
 1.7081008311e+00	 9.6483925424e-01	 3.9348700137e-01
 1.6987856282e+00	 9.8114764825e-01	 4.9031844053e-01
 1.6893026743e+00	 9.9738650855e-01	 4.8912607525e-01
 1.6796526755e+00	 1.0135532957e+00	 3.5651928821e-01
 1.7765155975e+00	 8.5276608528e-01	-1.0584072863e+00
 1.7683536454e+00	 8.6956492342e-01	-1.2230371217e+00
 1.7600196386e+00	 8.8631188877e-01	-1.1418305573e+00
 1.7515139334e+00	 9.0300440955e-01	-8.7911144616e-01
 1.7428369360e+00	 9.1963991332e-01	-4.9734638123e-01
 1.7339891027e+00	 9.3621582822e-01	-5.7071146326e-02
 1.7249709404e+00	 9.5272958417e-01	 3.8317449981e-01
 1.7157830063e+00	 9.6917861406e-01	 7.6690362841e-01
 1.7064259082e+00	 9.8556035499e-01	 1.0397305103e+00
 1.6969003048e+00	 1.0018722495e+00	 1.1494105807e+00
 1.6872069052e+00	 1.0181117467e+00	 1.0458720829e+00
 1.6116646083e+00	 9.7252723688e-01	 1.2098361648e+00
 1.6022456596e+00	 9.8796804913e-01	 1.8098007111e+00
 1.5926679297e+00	 1.0033348581e+00	 2.5069665353e+00
 1.5829322433e+00	 1.0186252552e+00	 3.2464937508e+00
 1.5730394731e+00	 1.0338368432e+00	 3.9747310345e+00
 1.5629905397e+00	 1.0489672371e+00	 4.6392424134e+00
 1.5527864116e+00	 1.0640140653e+00	 5.1888300261e+00
 1.5424281048e+00	 1.0789749711e+00	 5.5735531283e+00
 1.5319166823e+00	 1.0938476136e+00	 5.7447436436e+00
 1.5212532544e+00	 1.1086296691e+00	 5.6550185839e+00
 1.5104389779e+00	 1.1233188320e+00	 5.2600704208e+00
 1.6192188380e+00	 9.7708568786e-01	 5.3578688055e-01
 1.6097557406e+00	 9.9259887463e-01	 1.1008794509e+00
 1.6001331178e+00	 1.0080377112e+00	 1.8183633391e+00
 1.5903517980e+00	 1.0233997779e+00	 2.6221639297e+00
 1.5804126582e+00	 1.0386826659e+00	 3.4477138809e+00
 1.5703166233e+00	 1.0538839793e+00	 4.2319963934e+00
 1.5600646662e+00	 1.0690013353e+00	 4.9135840131e+00
 1.5496578076e+00	 1.0840323662e+00	 5.4326732190e+00
 1.5390971158e+00	 1.0989747202e+00	 5.7311150780e+00
 1.5283837060e+00	 1.1138260624e+00	 5.7525214433e+00
 1.5175187406e+00	 1.1285840766e+00	 5.4452994143e+00
 1.6267730677e+00	 9.8164413885e-01	-2.9503537409e-03
 1.6172658216e+00	 9.9722970013e-01	 5.0268882858e-01
 1.6075983058e+00	 1.0127405644e+00	 1.2054090560e+00
 1.5977713528e+00	 1.0281743005e+00	 2.0323953519e+00
 1.5877858433e+00	 1.0435284887e+00	 2.9125568294e+00
 1.5776427068e+00	 1.0588007215e+00	 3.7765795002e+00
 1.5673429207e+00	 1.0739886054e+00	 4.5569742711e+00
 1.5568875104e+00	 1.0890897614e+00	 5.1881203738e+00
 1.5462775492e+00	 1.1041018267e+00	 5.6063045019e+00
 1.5355141577e+00	 1.1190224557e+00	 5.7503785636e+00
 1.5245985033e+00	 1.1338493213e+00	 5.5640268326e+00
 1.6343272974e+00	 9.8620258983e-01	-4.0225859067e-01
 1.6247759026e+00	 1.0018605256e+00	 2.4692480871e-02
 1.6150634939e+00	 1.0174434175e+00	 6.8143006926e-01
 1.6051909075e+00	 1.0329488231e+00	 1.4928307897e+00
 1.5951590284e+00	 1.0483743114e+00	 2.3856112219e+00
 1.5849687903e+00	 1.0637174638e+00	 3.2883833698e+00
 1.5746211752e+00	 1.0789758754e+00	 4.1317050566e+00
 1.5641172133e+00	 1.0941471565e+00	 4.8481255052e+00
 1.5534579827e+00	 1.1092289332e+00	 5.3722263876e+00
 1.5426446093e+00	 1.1242188490e+00	 5.6422316653e+00
 1.5316782660e+00	 1.1391145659e+00	 5.5996333106e+00
 1.6418815270e+00	 9.9076104082e-01	-6.5805221167e-01
 1.6322859836e+00	 1.0064913511e+00	-3.2377605959e-01
 1.6225286819e+00	 1.0221462707e+00	 2.5955113428e-01
 1.6126104622e+00	 1.0377233457e+00	 1.0188682734e+00
 1.6025322135e+00	 1.0532201341e+00	 1.8829700964e+00
 1.5922948738e+00	 1.0686342060e+00	 2.7825584483e+00
 1.5818994297e+00	 1.0839631455e+00	 3.6502883297e+00
 1.5713469161e+00	 1.0992045516e+00	 4.4208089885e+00
 1.5606384162e+00	 1.1143560397e+00	 5.0308874726e+00
 1.5497750609e+00	 1.1294152423e+00	 5.4218010945e+00
 1.5387580287e+00	 1.1443798106e+00	 5.5358350894e+00
 1.6494357567e+00	 9.9531949180e-01	-7.6627676840e-01
 1.6397960645e+00	 1.0111221766e+00	-5.3351101687e-01
 1.6299938699e+00	 1.0268491238e+00	-4.7300710440e-02
 1.6200300169e+00	 1.0424978684e+00	 6.2566591600e-01
 1.6099053986e+00	 1.0580659568e+00	 1.4204732476e+00
 1.5996209574e+00	 1.0735509482e+00	 2.2740185861e+00
 1.5891776842e+00	 1.0889504155e+00	 3.1250471561e+00
 1.5785766189e+00	 1.1042619468e+00	 3.9141821180e+00
 1.5678188496e+00	 1.1194831462e+00	 4.5844737716e+00
 1.5569055125e+00	 1.1346116356e+00	 5.0829515547e+00
 1.5458377914e+00	 1.1496450553e+00	 5.3566753120e+00
 1.6569899864e+00	 9.9987794279e-01	-7.2290886334e-01
 1.6473061455e+00	 1.0157530021e+00	-5.9543212474e-01
 1.6374590580e+00	 1.0315519769e+00	-2.2639237606e-01
 1.6274495716e+00	 1.0472723910e+00	 3.2814656647e-01
 1.6172785837e+00	 1.0629117795e+00	 1.0137121096e+00
 1.6069470409e+00	 1.0784676904e+00	 1.7774454663e+00
 1.5964559387e+00	 1.0939376856e+00	 2.5681189730e+00
 1.5858063218e+00	 1.1093193419e+00	 3.3361484804e+00
 1.5749992831e+00	 1.1246102527e+00	 4.0348162999e+00
 1.5640359641e+00	 1.1398080289e+00	 4.6196878181e+00
 1.5529175541e+00	 1.1549102999e+00	 5.0465155213e+00
 1.6645442161e+00	 1.0044363938e+00	-5.2395606838e-01
 1.6548162265e+00	 1.0203838276e+00	-5.0058247692e-01
 1.6449242460e+00	 1.0362548301e+00	-2.6518109622e-01
 1.6348691263e+00	 1.0520469136e+00	 1.4100229913e-01
 1.6246517688e+00	 1.0677576022e+00	 6.7803446574e-01
 1.6142731244e+00	 1.0833844327e+00	 1.3072928714e+00
 1.6037341932e+00	 1.0989249556e+00	 1.9914587245e+00
 1.5930360246e+00	 1.1143767371e+00	 2.6945704481e+00
 1.5821797165e+00	 1.1297373592e+00	 3.3837095683e+00
 1.5711664157e+00	 1.1450044221e+00	 4.0261505190e+00
 1.5599973168e+00	 1.1601755446e+00	 4.5900273551e+00
 1.6720984458e+00	 1.0089948448e+00	-1.6545688030e-01
 1.6623263075e+00	 1.0250146531e+00	-2.4012647137e-01
 1.6523894341e+00	 1.0409576832e+00	-1.5131093526e-01
 1.6422886811e+00	 1.0568214363e+00	 7.8698742223e-02
 1.6320249539e+00	 1.0726034250e+00	 4.2854899135e-01
 1.6215992079e+00	 1.0883011749e+00	 8.7779079317e-01
 1.6110124477e+00	 1.1039122257e+00	 1.4068418692e+00
 1.6002657274e+00	 1.1194341322e+00	 1.9973120844e+00
 1.5893601500e+00	 1.1348644658e+00	 2.6329424009e+00
 1.5782968673e+00	 1.1502008154e+00	 3.2966120269e+00
 1.5670770795e+00	 1.1654407892e+00	 3.9721844308e+00
 1.6796526755e+00	 1.0135532957e+00	 3.5651928821e-01
 1.6698363885e+00	 1.0296454786e+00	 1.9465215422e-01
 1.6598546221e+00	 1.0456605364e+00	 1.2739057256e-01
 1.6497082358e+00	 1.0615959589e+00	 1.5547925178e-01
 1.6393981391e+00	 1.0774492477e+00	 2.8012963464e-01
 1.6289252915e+00	 1.0932179171e+00	 5.0294939199e-01
 1.6182907023e+00	 1.1088994957e+00	 8.2586726660e-01
 1.6074954302e+00	 1.1244915273e+00	 1.2518584635e+00
 1.5965405835e+00	 1.1399915723e+00	 1.7842970304e+00
 1.5854273189e+00	 1.1553972087e+00	 2.4254723969e+00
 1.5741568421e+00	 1.1707060339e+00	 3.1782544142e+00
 1.6872069052e+00	 1.0181117467e+00	 1.0458720829e+00
 1.6773464695e+00	 1.0342763041e+00	 8.1235219875e-01
 1.6673198101e+00	 1.0503633895e+00	 5.8291565672e-01
 1.6571277905e+00	 1.0663704815e+00	 3.8536893545e-01
 1.6467713242e+00	 1.0822950704e+00	 2.4741984071e-01
 1.6362513750e+00	 1.0981346594e+00	 1.9656280852e-01
 1.6255689568e+00	 1.1138867658e+00	 2.5999278229e-01
 1.6147251331e+00	 1.1295489225e+00	 4.6556451151e-01
 1.6037210169e+00	 1.1451186788e+00	 8.3954818449e-01
 1.5925577705e+00	 1.1605936020e+00	 1.4072553948e+00
 1.5812366048e+00	 1.1759712785e+00	 2.1937912663e+00
 1.5104389779e+00	 1.1233188320e+00	 5.2600704208e+00
 1.4994731802e+00	 1.1379152875e+00	 4.5953327697e+00
 1.4883589417e+00	 1.1524142568e+00	 3.7730901365e+00
 1.4770975637e+00	 1.1668134863e+00	 2.8682566675e+00
 1.4656903925e+00	 1.1811107454e+00	 1.9613030899e+00
 1.4541388188e+00	 1.1953038274e+00	 1.1146026777e+00
 1.4424442774e+00	 1.2093905506e+00	 3.8452089463e-01
 1.4306082465e+00	 1.2233687593e+00	-1.7480623367e-01
 1.4186322469e+00	 1.2372363253e+00	-5.1148896555e-01
 1.4065178420e+00	 1.2509911485e+00	-5.7589805643e-01
 1.3942666362e+00	 1.2646311581e+00	-3.2067666808e-01
 1.5175187406e+00	 1.1285840766e+00	 5.4452994143e+00
 1.5065015437e+00	 1.1432489490e+00	 4.8117268247e+00
 1.4953352104e+00	 1.1578158782e+00	 3.9464506889e+00
 1.4840210478e+00	 1.1722826001e+00	 2.9353822570e+00
 1.4725604086e+00	 1.1866468736e+00	 1.8654038484e+00
 1.4609546902e+00	 1.2009064817e+00	 8.1890955887e-01
 1.4492053338e+00	 1.2150592325e+00	-1.3745672026e-01
 1.4373138248e+00	 1.2291029602e+00	-9.4040836502e-01
 1.4252816911e+00	 1.2430355266e+00	-1.5296670574e+00
 1.4131105032e+00	 1.2568548217e+00	-1.8479901767e+00
 1.4008018734e+00	 1.2705587650e+00	-1.8411948676e+00
 1.5245985033e+00	 1.1338493213e+00	 5.5640268326e+00
 1.5135299073e+00	 1.1485826105e+00	 5.0129425677e+00
 1.5023114790e+00	 1.1632174995e+00	 4.1649846694e+00
 1.4909445319e+00	 1.1777517138e+00	 3.1140689963e+00
 1.4794304248e+00	 1.1921830018e+00	 1.9512256408e+00
 1.4677705615e+00	 1.2065091360e+00	 7.6797367807e-01
 1.4559663903e+00	 1.2207279144e+00	-3.5846143944e-01
 1.4440194031e+00	 1.2348371611e+00	-1.3591682197e+00
 1.4319311353e+00	 1.2488347278e+00	-2.1688087135e+00
 1.4197031645e+00	 1.2627184948e+00	-2.7256536595e+00
 1.4073371105e+00	 1.2764863719e+00	-2.9716135539e+00
 1.5316782660e+00	 1.1391145659e+00	 5.5996333106e+00
 1.5205582709e+00	 1.1539162720e+00	 5.1722715077e+00
 1.5092877477e+00	 1.1686191209e+00	 4.3941310387e+00
 1.4978680160e+00	 1.1832208276e+00	 3.3629462148e+00
 1.4863004409e+00	 1.1977191300e+00	 2.1730562552e+00
 1.4745864329e+00	 1.2121117903e+00	 9.1604210216e-01
 1.4627274467e+00	 1.2263965963e+00	-3.2258435334e-01
 1.4507249815e+00	 1.2405713619e+00	-1.4710105198e+00
 1.4385805794e+00	 1.2546339290e+00	-2.4621194786e+00
 1.4262958258e+00	 1.2685821679e+00	-3.2327756281e+00
 1.4138723476e+00	 1.2824139788e+00	-3.7238576378e+00
 1.5387580287e+00	 1.1443798106e+00	 5.5358350894e+00
 1.5275866344e+00	 1.1592499335e+00	 5.2635257851e+00
 1.5162640164e+00	 1.1740207423e+00	 4.5999932861e+00
 1.5047915001e+00	 1.1886899413e+00	 3.6426605051e+00
 1.4931704571e+00	 1.2032552581e+00	 2.4853767977e+00
 1.4814023042e+00	 1.2177144446e+00	 1.2182172305e+00
 1.4694885032e+00	 1.2320652782e+00	-7.3089866843e-02
 1.4574305598e+00	 1.2463055628e+00	-1.3151081358e+00
 1.4452300236e+00	 1.2604331303e+00	-2.4421749648e+00
 1.4328884870e+00	 1.2744458411e+00	-3.3927831425e+00
 1.4204075848e+00	 1.2883415856e+00	-4.1096106158e+00
 1.5458377914e+00	 1.1496450553e+00	 5.3566753120e+00
 1.5346149980e+00	 1.1645835949e+00	 5.2610251805e+00
 1.5232402850e+00	 1.1794223636e+00	 4.7493230955e+00
 1.5117149841e+00	 1.1941590551e+00	 3.9146060016e+00
 1.5000404732e+00	 1.2087913863e+00	 2.8463266578e+00
 1.4882181756e+00	 1.2233170989e+00	 1.6301562218e+00
 1.4762495596e+00	 1.2377339601e+00	 3.4756739394e-01
 1.4641361381e+00	 1.2520397637e+00	-9.2989722596e-01
 1.4518794678e+00	 1.2662323315e+00	-2.1409331494e+00
 1.4394811483e+00	 1.2803095142e+00	-3.2286515602e+00
 1.4269428219e+00	 1.2942691925e+00	-4.1403178800e+00
 1.5529175541e+00	 1.1549102999e+00	 5.0465155213e+00
 1.5416433616e+00	 1.1699172564e+00	 5.1395844434e+00
 1.5302165537e+00	 1.1848239850e+00	 4.8095044210e+00
 1.5186384682e+00	 1.1996281688e+00	 4.1409061444e+00
 1.5069104894e+00	 1.2143275145e+00	 3.2149917799e+00
 1.4950340469e+00	 1.2289197532e+00	 2.1093470208e+00
 1.4830106161e+00	 1.2434026420e+00	 8.9775798018e-01
 1.4708417165e+00	 1.2577739645e+00	-3.5309192295e-01
 1.4585289119e+00	 1.2720315327e+00	-1.5897462962e+00
 1.4460738096e+00	 1.2861731873e+00	-2.7629126271e+00
 1.4334780591e+00	 1.3001967994e+00	-3.8271898954e+00
 1.5599973168e+00	 1.1601755446e+00	 4.5900273551e+00
 1.5486717251e+00	 1.1752509179e+00	 4.8745009288e+00
 1.5371928223e+00	 1.1902256064e+00	 4.7485379599e+00
 1.5255619523e+00	 1.2050972826e+00	 4.2843959031e+00
 1.5137805055e+00	 1.2198636427e+00	 3.5512241247e+00
 1.5018499183e+00	 1.2345224075e+00	 2.6148914368e+00
 1.4897716725e+00	 1.2490713239e+00	 1.5378180912e+00
 1.4775472948e+00	 1.2635081654e+00	 3.7830142055e-01
 1.4651783561e+00	 1.2778307339e+00	-8.1937251065e-01
 1.4526664708e+00	 1.2920368605e+00	-2.0176623072e+00
 1.4400132962e+00	 1.3061244063e+00	-3.1812052490e+00
 1.5670770795e+00	 1.1654407892e+00	 3.9721844308e+00
 1.5557000887e+00	 1.1805845794e+00	 4.4415425346e+00
 1.5441690910e+00	 1.1956272277e+00	 4.5350260091e+00
 1.5324854364e+00	 1.2105663963e+00	 4.3086044442e+00
 1.5206505216e+00	 1.2253997709e+00	 3.8156230604e+00
 1.5086657896e+00	 1.2401250618e+00	 3.1066516964e+00
 1.4965327289e+00	 1.2547400058e+00	 2.2293376605e+00
 1.4842528732e+00	 1.2692423663e+00	 1.2282630782e+00
 1.4718278003e+00	 1.2836299352e+00	 1.4001305708e-01
 1.4592591321e+00	 1.2979005336e+00	-1.0145683586e+00
 1.4465485334e+00	 1.3120520132e+00	-2.2131135752e+00
 1.5741568421e+00	 1.1707060339e+00	 3.1782544142e+00
 1.5627284523e+00	 1.1859182409e+00	 3.8169359275e+00
 1.5511453597e+00	 1.2010288491e+00	 4.1381576943e+00
 1.5394089205e+00	 1.2160355101e+00	 4.1777382300e+00
 1.5275205378e+00	 1.2309358990e+00	 3.9695172183e+00
 1.5154816610e+00	 1.2457277162e+00	 3.5452318789e+00
 1.5032937854e+00	 1.2604086877e+00	 2.9343963867e+00
 1.4909584515e+00	 1.2749765672e+00	 2.1641849427e+00
 1.4784772445e+00	 1.2894291364e+00	 1.2588073526e+00
 1.4658517934e+00	 1.3037642067e+00	 2.2512233458e-01
 1.4530837705e+00	 1.3179796201e+00	-9.3343836137e-01
 1.5812366048e+00	 1.1759712785e+00	 2.1937912663e+00
 1.5697568158e+00	 1.1912519024e+00	 2.9773550504e+00
 1.5581216283e+00	 1.2064304705e+00	 3.5276945603e+00
 1.5463324046e+00	 1.2215046238e+00	 3.8566645340e+00
 1.5343905539e+00	 1.2364720272e+00	 3.9749467982e+00
 1.5222975323e+00	 1.2513303705e+00	 3.8919598949e+00
 1.5100548418e+00	 1.2660773696e+00	 3.6157707381e+00
 1.4976640298e+00	 1.2807107680e+00	 3.1530088521e+00
 1.4851266886e+00	 1.2952283376e+00	 2.5087837382e+00
 1.4724444546e+00	 1.3096278799e+00	 1.6805766685e+00
 1.4596190077e+00	 1.3239072270e+00	 6.4752036355e-01
 1.3942666362e+00	 1.2646311581e+00	-3.2067666808e-01
 1.3818823883e+00	 1.2781520287e+00	 1.4991819365e-01
 1.3693646936e+00	 1.2915540990e+00	 6.7030354498e-01
 1.3567152540e+00	 1.3048354155e+00	 1.1951099846e+00
 1.3439358099e+00	 1.3179940577e+00	 1.6806552041e+00
 1.3310281395e+00	 1.3310281395e+00	 2.0850612501e+00
 1.3179940577e+00	 1.3439358099e+00	 2.3683665796e+00
 1.3048354155e+00	 1.3567152540e+00	 2.4926324342e+00
 1.2915540990e+00	 1.3693646936e+00	 2.4220430861e+00
 1.2781520287e+00	 1.3818823883e+00	 2.1229995418e+00
 1.2646311581e+00	 1.3942666362e+00	 1.5642063201e+00
 1.4008018734e+00	 1.2705587650e+00	-1.8411948676e+00
 1.3883595777e+00	 1.2841430109e+00	-1.5820705266e+00
 1.3757832098e+00	 1.2976078997e+00	-1.2136685007e+00
 1.3630744795e+00	 1.3109514686e+00	-7.8794073768e-01
 1.3502351353e+00	 1.3241717883e+00	-3.5451862948e-01
 1.3372669638e+00	 1.3372669638e+00	 3.9414457829e-02
 1.3241717883e+00	 1.3502351353e+00	 3.4924441823e-01
 1.3109514686e+00	 1.3630744795e+00	 5.3304090584e-01
 1.2976078997e+00	 1.3757832098e+00	 5.5166463310e-01
 1.2841430109e+00	 1.3883595777e+00	 3.6886703264e-01
 1.2705587650e+00	 1.4008018734e+00	-4.8618116143e-02
 1.4073371105e+00	 1.2764863719e+00	-2.9716135539e+00
 1.3948367671e+00	 1.2901339931e+00	-2.9422233525e+00
 1.3822017260e+00	 1.3036617004e+00	-2.7489720122e+00
 1.3694337049e+00	 1.3170675218e+00	-2.4483859886e+00
 1.3565344607e+00	 1.3303495190e+00	-2.0941793740e+00
 1.3435057880e+00	 1.3435057880e+00	-1.7371186852e+00
 1.3303495190e+00	 1.3565344607e+00	-1.4248947121e+00
 1.3170675218e+00	 1.3694337049e+00	-1.2020019468e+00
 1.3036617004e+00	 1.3822017260e+00	-1.1096260800e+00
 1.2901339931e+00	 1.3948367671e+00	-1.1855400126e+00
 1.2764863719e+00	 1.4073371105e+00	-1.4640087986e+00
 1.4138723476e+00	 1.2824139788e+00	-3.7238576378e+00
 1.4013139566e+00	 1.2961249753e+00	-3.9300432493e+00
 1.3886202422e+00	 1.3097155011e+00	-3.9244533828e+00
 1.3757929304e+00	 1.3231835750e+00	-3.7662051781e+00
 1.3628337861e+00	 1.3365272496e+00	-3.5112518678e+00
 1.3497446123e+00	 1.3497446123e+00	-3.2122422672e+00
 1.3365272496e+00	 1.3628337861e+00	-2.9183879493e+00
 1.3231835750e+00	 1.3757929304e+00	-2.6753386423e+00
 1.3097155011e+00	 1.3886202422e+00	-2.5250663492e+00
 1.2961249753e+00	 1.4013139566e+00	-2.5057586536e+00
 1.2824139788e+00	 1.4138723476e+00	-2.6517216357e+00
 1.4204075848e+00	 1.2883415856e+00	-4.1096106158e+00
 1.4077911460e+00	 1.3021159575e+00	-4.5450190110e+00
 1.3950387584e+00	 1.3157693018e+00	-4.7291397288e+00
 1.3821521559e+00	 1.3292996281e+00	-4.7217205475e+00
 1.3691331115e+00	 1.3427049802e+00	-4.5791326896e+00
 1.3559834366e+00	 1.3559834366e+00	-4.3542274393e+00
 1.3427049802e+00	 1.3691331115e+00	-4.0962008696e+00
 1.3292996281e+00	 1.3821521559e+00	-3.8504672285e+00
 1.3157693018e+00	 1.3950387584e+00	-3.6585414979e+00
 1.3021159575e+00	 1.4077911460e+00	-3.5579315982e+00
 1.2883415856e+00	 1.4204075848e+00	-3.5820406721e+00
 1.4269428219e+00	 1.2942691925e+00	-4.1403178800e+00
 1.4142683354e+00	 1.3081069397e+00	-4.7866233251e+00
 1.4014572746e+00	 1.3218231025e+00	-5.1522324542e+00
 1.3885113814e+00	 1.3354156813e+00	-5.2955869876e+00
 1.3754324369e+00	 1.3488827109e+00	-5.2716769945e+00
 1.3622222609e+00	 1.3622222609e+00	-5.1318970430e+00
 1.3488827109e+00	 1.3754324369e+00	-4.9239106860e+00
 1.3354156813e+00	 1.3885113814e+00	-4.6915238422e+00
 1.3218231025e+00	 1.4014572746e+00	-4.4745675931e+00
 1.3081069397e+00	 1.4142683354e+00	-4.3087908795e+00
 1.2942691925e+00	 1.4269428219e+00	-4.2257635343e+00
 1.4334780591e+00	 1.3001967994e+00	-3.8271898954e+00
 1.4207455248e+00	 1.3140979220e+00	-4.6543108487e+00
 1.4078757908e+00	 1.3278769032e+00	-5.1831009483e+00
 1.3948706069e+00	 1.3415317345e+00	-5.4687820926e+00
 1.3817317623e+00	 1.3550604415e+00	-5.5631856670e+00
 1.3684610851e+00	 1.3684610851e+00	-5.5146106132e+00
 1.3550604415e+00	 1.3817317623e+00	-5.3676898628e+00
 1.3415317345e+00	 1.3948706069e+00	-5.1632657014e+00
 1.3278769032e+00	 1.4078757908e+00	-4.9382745907e+00
 1.3140979220e+00	 1.4207455248e+00	-4.7256419340e+00
 1.3001967994e+00	 1.4334780591e+00	-4.5541872293e+00
 1.4400132962e+00	 1.3061244063e+00	-3.1812052490e+00
 1.4272227143e+00	 1.3200889042e+00	-4.1475162940e+00
 1.4142943071e+00	 1.3339307039e+00	-4.8112764126e+00
 1.4012298324e+00	 1.3476477876e+00	-5.2225964414e+00
 1.3880310877e+00	 1.3612381722e+00	-5.4283927799e+00
 1.3746999094e+00	 1.3746999094e+00	-5.4722497465e+00
 1.3612381722e+00	 1.3880310877e+00	-5.3942901312e+00
 1.3476477876e+00	 1.4012298324e+00	-5.2310545169e+00
 1.3339307039e+00	 1.4142943071e+00	-5.0153898953e+00
 1.3200889042e+00	 1.4272227143e+00	-4.7763480695e+00
 1.3061244063e+00	 1.4400132962e+00	-4.5390942855e+00
 1.4465485334e+00	 1.3120520132e+00	-2.2131135752e+00
 1.4336999037e+00	 1.3260798864e+00	-3.2656525249e+00
 1.4207128233e+00	 1.3399845045e+00	-4.0264458134e+00
 1.4075890578e+00	 1.3537638408e+00	-4.5386241006e+00
 1.3943304130e+00	 1.3674159028e+00	-4.8424533508e+00
 1.3809387337e+00	 1.3809387337e+00	-4.9752038226e+00
 1.3674159028e+00	 1.3943304130e+00	-4.9710268965e+00
 1.3537638408e+00	 1.4075890578e+00	-4.8608403090e+00
 1.3399845045e+00	 1.4207128233e+00	-4.6722223211e+00
 1.3260798864e+00	 1.4336999037e+00	-4.4293153093e+00
 1.3120520132e+00	 1.4465485334e+00	-4.1527392247e+00
 1.4530837705e+00	 1.3179796201e+00	-9.3343836137e-01
 1.4401770931e+00	 1.3320708686e+00	-2.0081086628e+00
 1.4271313395e+00	 1.3460383052e+00	-2.8184459544e+00
 1.4139482833e+00	 1.3598798940e+00	-3.3987533407e+00
 1.4006297384e+00	 1.3735936335e+00	-3.7809313858e+00
 1.3871775580e+00	 1.3871775580e+00	-3.9943560681e+00
 1.3735936335e+00	 1.4006297384e+00	-4.0657640203e+00
 1.3598798940e+00	 1.4139482833e+00	-4.0191456177e+00
 1.3460383052e+00	 1.4271313395e+00	-3.8756464417e+00
 1.3320708686e+00	 1.4401770931e+00	-3.6534776012e+00
 1.3179796201e+00	 1.4530837705e+00	-3.3678353549e+00
 1.4596190077e+00	 1.3239072270e+00	 6.4752036355e-01
 1.4466542826e+00	 1.3380618508e+00	-3.7424820199e-01
 1.4335498557e+00	 1.3520921059e+00	-1.1772576680e+00
 1.4203075088e+00	 1.3659959471e+00	-1.7851575595e+00
 1.4069290638e+00	 1.3797713641e+00	-2.2197882018e+00
 1.3934163822e+00	 1.3934163822e+00	-2.5010699517e+00
 1.3797713641e+00	 1.4069290638e+00	-2.6468989703e+00
 1.3659959471e+00	 1.4203075088e+00	-2.6730500934e+00
 1.3520921059e+00	 1.4335498557e+00	-2.5930873173e+00
 1.3380618508e+00	 1.4466542826e+00	-2.4182823801e+00
 1.3239072270e+00	 1.4596190077e+00	-2.1575418733e+00
 1.2646311581e+00	 1.3942666362e+00	 1.5642063201e+00
 1.2509911485e+00	 1.4065178420e+00	 8.8570048395e-01
 1.2372363253e+00	 1.4186322469e+00	 2.5696372022e-01
 1.2233687593e+00	 1.4306082465e+00	-3.0764800612e-01
 1.2093905506e+00	 1.4424442774e+00	-7.9368559339e-01
 1.1953038274e+00	 1.4541388188e+00	-1.1866021625e+00
 1.1811107454e+00	 1.4656903925e+00	-1.4717532588e+00
 1.1668134863e+00	 1.4770975637e+00	-1.6344019546e+00
 1.1524142568e+00	 1.4883589417e+00	-1.6610744685e+00
 1.1379152875e+00	 1.4994731802e+00	-1.5423278655e+00
 1.1233188320e+00	 1.5104389779e+00	-1.2643221227e+00
 1.2705587650e+00	 1.4008018734e+00	-4.8618116143e-02
 1.2568548217e+00	 1.4131105032e+00	-5.7813412534e-01
 1.2430355266e+00	 1.4252816911e+00	-1.0664009752e+00
 1.2291029602e+00	 1.4373138248e+00	-1.4987681381e+00
 1.2150592325e+00	 1.4492053338e+00	-1.8606142496e+00
 1.2009064817e+00	 1.4609546902e+00	-2.1373412437e+00
 1.1866468736e+00	 1.4725604086e+00	-2.3143733156e+00
 1.1722826001e+00	 1.4840210478e+00	-2.3773366443e+00
 1.1578158782e+00	 1.4953352104e+00	-2.3165551534e+00
 1.1432489490e+00	 1.5065015437e+00	-2.1200435716e+00
 1.1285840766e+00	 1.5175187406e+00	-1.7741507837e+00
 1.2764863719e+00	 1.4073371105e+00	-1.4640087986e+00
 1.2627184948e+00	 1.4197031645e+00	-1.8434864522e+00
 1.2488347278e+00	 1.4319311353e+00	-2.1912905177e+00
 1.2348371611e+00	 1.4440194031e+00	-2.4925950682e+00
 1.2207279144e+00	 1.4559663903e+00	-2.7326959821e+00
 1.2065091360e+00	 1.4677705615e+00	-2.8970039011e+00
 1.1921830018e+00	 1.4794304248e+00	-2.9710420446e+00
 1.1777517138e+00	 1.4909445319e+00	-2.9428425359e+00
 1.1632174995e+00	 1.5023114790e+00	-2.8028684611e+00
 1.1485826105e+00	 1.5135299073e+00	-2.5376258398e+00
 1.1338493213e+00	 1.5245985033e+00	-2.1341117934e+00
 1.2824139788e+00	 1.4138723476e+00	-2.6517216357e+00
 1.2685821679e+00	 1.4262958258e+00	-2.8851192142e+00
 1.2546339290e+00	 1.4385805794e+00	-3.0971209102e+00
 1.2405713619e+00	 1.4507249815e+00	-3.2728448244e+00
 1.2263965963e+00	 1.4627274467e+00	-3.3975940924e+00
 1.2121117903e+00	 1.4745864329e+00	-3.4568487103e+00
 1.1977191300e+00	 1.4863004409e+00	-3.4368562403e+00
 1.1832208276e+00	 1.4978680160e+00	-3.3286594177e+00
 1.1686191209e+00	 1.5092877477e+00	-3.1197391938e+00
 1.1539162720e+00	 1.5205582709e+00	-2.7969740569e+00
 1.1391145659e+00	 1.5316782660e+00	-2.3479322594e+00
 1.2883415856e+00	 1.4204075848e+00	-3.5820406721e+00
 1.2744458411e+00	 1.4328884870e+00	-3.6782314392e+00
 1.2604331303e+00	 1.4452300236e+00	-3.7636593348e+00
 1.2463055628e+00	 1.4574305598e+00	-3.8235061735e+00
 1.2320652782e+00	 1.4694885032e+00	-3.8431728612e+00
 1.2177144446e+00	 1.4814023042e+00	-3.8082701324e+00
 1.2032552581e+00	 1.4931704571e+00	-3.7080071740e+00
 1.1886899413e+00	 1.5047915001e+00	-3.5319806619e+00
 1.1740207423e+00	 1.5162640164e+00	-3.2668380416e+00
 1.1592499335e+00	 1.5275866344e+00	-2.8998935861e+00
 1.1443798106e+00	 1.5387580287e+00	-2.4192116534e+00
 1.2942691925e+00	 1.4269428219e+00	-4.2257635343e+00
 1.2803095142e+00	 1.4394811483e+00	-4.1984460119e+00
 1.2662323315e+00	 1.4518794678e+00	-4.1710136512e+00
 1.2520397637e+00	 1.4641361381e+00	-4.1288319222e+00
 1.2377339601e+00	 1.4762495596e+00	-4.0574905035e+00
 1.2233170989e+00	 1.4882181756e+00	-3.9438689281e+00
 1.2087913863e+00	 1.5000404732e+00	-3.7790225630e+00
 1.1941590551e+00	 1.5117149841e+00	-3.5499928244e+00
 1.1794223636e+00	 1.5232402850e+00	-3.2437836783e+00
 1.1645835949e+00	 1.5346149980e+00	-2.8480987627e+00
 1.1496450553e+00	 1.5458377914e+00	-2.3514255585e+00
 1.3001967994e+00	 1.4334780591e+00	-4.5541872293e+00
 1.2861731873e+00	 1.4460738096e+00	-4.4217975154e+00
 1.2720315327e+00	 1.4585289119e+00	-4.2996221368e+00
 1.2577739645e+00	 1.4708417165e+00	-4.1733304111e+00
 1.2434026420e+00	 1.4830106161e+00	-4.0288450426e+00
 1.2289197532e+00	 1.4950340469e+00	-3.8562615425e+00
 1.2143275145e+00	 1.5069104894e+00	-3.6443631380e+00
 1.1996281688e+00	 1.5186384682e+00	-3.3798767279e+00
 1.1848239850e+00	 1.5302165537e+00	-3.0501448654e+00
 1.1699172564e+00	 1.5416433616e+00	-2.6432158733e+00
 1.1549102999e+00	 1.5529175541e+00	-2.1479293792e+00
 1.3061244063e+00	 1.4400132962e+00	-4.5390942855e+00
 1.2920368605e+00	 1.4526664708e+00	-4.3247203597e+00
 1.2778307339e+00	 1.4651783561e+00	-4.1302434615e+00
 1.2635081654e+00	 1.4775472948e+00	-3.9417571947e+00
 1.2490713239e+00	 1.4897716725e+00	-3.7469996435e+00
 1.2345224075e+00	 1.5018499183e+00	-3.5369547523e+00
 1.2198636427e+00	 1.5137805055e+00	-3.2985341336e+00
 1.2050972826e+00	 1.5255619523e+00	-3.0188085793e+00
 1.1902256064e+00	 1.5371928223e+00	-2.6854425624e+00
 1.1752509179e+00	 1.5486717251e+00	-2.2867861174e+00
 1.1601755446e+00	 1.5599973168e+00	-1.8119620129e+00
 1.3120520132e+00	 1.4465485334e+00	-4.1527392247e+00
 1.2979005336e+00	 1.4592591321e+00	-3.8840371871e+00
 1.2836299352e+00	 1.4718278003e+00	-3.6439468894e+00
 1.2692423663e+00	 1.4842528732e+00	-3.4192662344e+00
 1.2547400058e+00	 1.4965327289e+00	-3.2009400339e+00
 1.2401250618e+00	 1.5086657896e+00	-2.9775535459e+00
 1.2253997709e+00	 1.5206505216e+00	-2.7360853362e+00
 1.2105663963e+00	 1.5324854364e+00	-2.4639611225e+00
 1.1956272277e+00	 1.5441690910e+00	-2.1491520449e+00
 1.1805845794e+00	 1.5557000887e+00	-1.7802685527e+00
 1.1654407892e+00	 1.5670770795e+00	-1.3466494866e+00
 1.3179796201e+00	 1.4530837705e+00	-3.3678353549e+00
 1.3037642067e+00	 1.4658517934e+00	-3.0769475461e+00
 1.2894291364e+00	 1.4784772445e+00	-2.8221027006e+00
 1.2749765672e+00	 1.4909584515e+00	-2.5923854619e+00
 1.2604086877e+00	 1.5032937854e+00	-2.3791590359e+00
 1.2457277162e+00	 1.5154816610e+00	-2.1697602010e+00
 1.2309358990e+00	 1.5275205378e+00	-1.9516111951e+00
 1.2160355101e+00	 1.5394089205e+00	-1.7125048230e+00
 1.2010288491e+00	 1.5511453597e+00	-1.4407050284e+00
 1.1859182409e+00	 1.5627284523e+00	-1.1250430249e+00
 1.1707060339e+00	 1.5741568421e+00	-7.5500855779e-01
 1.3239072270e+00	 1.4596190077e+00	-2.1575418733e+00
 1.3096278799e+00	 1.4724444546e+00	-1.8810168254e+00
 1.2952283376e+00	 1.4851266886e+00	-1.6466237468e+00
 1.2807107680e+00	 1.4976640298e+00	-1.4466343425e+00
 1.2660773696e+00	 1.5100548418e+00	-1.2703027816e+00
 1.2513303705e+00	 1.5222975323e+00	-1.1053732801e+00
 1.2364720272e+00	 1.5343905539e+00	-9.3975099419e-01
 1.2215046238e+00	 1.5463324046e+00	-7.6160908542e-01
 1.2064304705e+00	 1.5581216283e+00	-5.5949179992e-01
 1.1912519024e+00	 1.5697568158e+00	-3.2241308188e-01
 1.1759712785e+00	 1.5812366048e+00	-3.9950282738e-02
 1.1233188320e+00	 1.5104389779e+00	-1.2643221227e+00
 1.1086296691e+00	 1.5212532544e+00	-9.2658416072e-01
 1.0938476136e+00	 1.5319166823e+00	-5.9466980086e-01
 1.0789749711e+00	 1.5424281048e+00	-2.5177191099e-01
 1.0640140653e+00	 1.5527864116e+00	 9.0622132175e-02
 1.0489672371e+00	 1.5629905397e+00	 4.2054158425e-01
 1.0338368432e+00	 1.5730394731e+00	 7.2562548558e-01
 1.0186252552e+00	 1.5829322433e+00	 9.9321230695e-01
 1.0033348581e+00	 1.5926679297e+00	 1.2104258437e+00
 9.8796804913e-01	 1.6022456596e+00	 1.3642571470e+00
 9.7252723688e-01	 1.6116646083e+00	 1.4416423134e+00
 1.1285840766e+00	 1.5175187406e+00	-1.7741507837e+00
 1.1138260624e+00	 1.5283837060e+00	-1.3748029917e+00
 1.0989747202e+00	 1.5390971158e+00	-1.0063827419e+00
 1.0840323662e+00	 1.5496578076e+00	-6.2749268015e-01
 1.0690013353e+00	 1.5600646662e+00	-2.4832805326e-01
 1.0538839793e+00	 1.5703166233e+00	 1.1896583592e-01
 1.0386826659e+00	 1.5804126582e+00	 4.6173912664e-01
 1.0233997779e+00	 1.5903517980e+00	 7.6692965297e-01
 1.0080377112e+00	 1.6001331178e+00	 1.0211514467e+00
 9.9259887463e-01	 1.6097557406e+00	 1.2107792740e+00
 9.7708568786e-01	 1.6192188380e+00	 1.3220290241e+00
 1.1338493213e+00	 1.5245985033e+00	-2.1341117934e+00
 1.1190224557e+00	 1.5355141577e+00	-1.6832854192e+00
 1.1041018267e+00	 1.5462775492e+00	-1.2815705739e+00
 1.0890897614e+00	 1.5568875104e+00	-8.7920100858e-01
 1.0739886054e+00	 1.5673429207e+00	-4.7640896879e-01
 1.0588007215e+00	 1.5776427068e+00	-8.5421145318e-02
 1.0435284887e+00	 1.5877858433e+00	 2.8094308992e-01
 1.0281743005e+00	 1.5977713528e+00	 6.0936620825e-01
 1.0127405644e+00	 1.6075983058e+00	 8.8612326266e-01
 9.9722970013e-01	 1.6172658216e+00	 1.0971686206e+00
 9.8164413885e-01	 1.6267730677e+00	 1.2282185057e+00
 1.1391145659e+00	 1.5316782660e+00	-2.3479322594e+00
 1.1242188490e+00	 1.5426446093e+00	-1.8583758458e+00
 1.1092289332e+00	 1.5534579827e+00	-1.4269149171e+00
 1.0941471565e+00	 1.5641172133e+00	-1.0143582961e+00
 1.0789758754e+00	 1.5746211752e+00	-6.0153348293e-01
 1.0637174638e+00	 1.5849687903e+00	-2.0065721424e-01
 1.0483743114e+00	 1.5951590284e+00	 1.7539896849e-01
 1.0329488231e+00	 1.6051909075e+00	 5.1320518235e-01
 1.0174434175e+00	 1.6150634939e+00	 7.9886580660e-01
 1.0018605256e+00	 1.6247759026e+00	 1.0181080047e+00
 9.8620258983e-01	 1.6343272974e+00	 1.1563659775e+00
 1.1443798106e+00	 1.5387580287e+00	-2.4192116534e+00
 1.1294152423e+00	 1.5497750609e+00	-1.9051343999e+00
 1.1143560397e+00	 1.5606384162e+00	-1.4508006796e+00
 1.0992045516e+00	 1.5713469161e+00	-1.0402898633e+00
 1.0839631455e+00	 1.5818994297e+00	-6.3146992274e-01
 1.0686342060e+00	 1.5922948738e+00	-2.3463337899e-01
 1.0532201341e+00	 1.6025322135e+00	 1.3741139063e-01
 1.0377233457e+00	 1.6126104622e+00	 4.7126293699e-01
 1.0221462707e+00	 1.6225286819e+00	 7.5302084065e-01
 1.0064913511e+00	 1.6322859836e+00	 9.6837561911e-01
 9.9076104082e-01	 1.6418815270e+00	 1.1026942523e+00
 1.1496450553e+00	 1.5458377914e+00	-2.3514255585e+00
 1.1346116356e+00	 1.5569055125e+00	-1.8284704831e+00
 1.1194831462e+00	 1.5678188496e+00	-1.3661192347e+00
 1.1042619468e+00	 1.5785766189e+00	-9.6418599069e-01
 1.0889504155e+00	 1.5891776842e+00	-5.7384332951e-01
 1.0735509482e+00	 1.5996209574e+00	-1.9509513598e-01
 1.0580659568e+00	 1.6099053986e+00	 1.5942674159e-01
 1.0424978684e+00	 1.6200300169e+00	 4.7648789958e-01
 1.0268491238e+00	 1.6299938699e+00	 7.4234661349e-01
 1.0111221766e+00	 1.6397960645e+00	 9.4284472939e-01
 9.9531949180e-01	 1.6494357567e+00	 1.0634940254e+00
 1.1549102999e+00	 1.5529175541e+00	-2.1479293792e+00
 1.1398080289e+00	 1.5640359641e+00	-1.6331470683e+00
 1.1246102527e+00	 1.5749992831e+00	-1.1793436931e+00
 1.1093193419e+00	 1.5858063218e+00	-7.9310288057e-01
 1.0939376856e+00	 1.5964559387e+00	-4.3613663106e-01
 1.0784676904e+00	 1.6069470409e+00	-8.9643719926e-02
 1.0629117795e+00	 1.6172785837e+00	 2.3403196825e-01
 1.0472723910e+00	 1.6274495716e+00	 5.2195955386e-01
 1.0315519769e+00	 1.6374590580e+00	 7.6071716736e-01
 1.0157530021e+00	 1.6473061455e+00	 9.3648342652e-01
 9.9987794279e-01	 1.6569899864e+00	 1.0351242004e+00
 1.1601755446e+00	 1.5599973168e+00	-1.8119620129e+00
 1.1450044221e+00	 1.5711664157e+00	-1.3237849447e+00
 1.1297373592e+00	 1.5821797165e+00	-8.9616747584e-01
 1.1143767371e+00	 1.5930360246e+00	-5.3567456640e-01
 1.0989249556e+00	 1.6037341932e+00	-2.2569173354e-01
 1.0833844327e+00	 1.6142731244e+00	 7.4262728440e-02
 1.0677576022e+00	 1.6246517688e+00	 3.5395346402e-01
 1.0520469136e+00	 1.6348691263e+00	 6.0088750522e-01
 1.0362548301e+00	 1.6449242460e+00	 8.0212171051e-01
 1.0203838276e+00	 1.6548162265e+00	 9.4435443233e-01
 1.0044363938e+00	 1.6645442161e+00	 1.0140122527e+00
 1.1654407892e+00	 1.5670770795e+00	-1.3466494866e+00
 1.1502008154e+00	 1.5782968673e+00	-9.0486691067e-01
 1.1348644658e+00	 1.5893601500e+00	-5.2212638537e-01
 1.1194341322e+00	 1.6002657274e+00	-2.0441492356e-01
 1.1039122257e+00	 1.6110124477e+00	 5.0289464956e-02
 1.0883011749e+00	 1.6215992079e+00	 2.8930807433e-01
 1.0726034250e+00	 1.6320249539e+00	 5.1205603152e-01
 1.0568214363e+00	 1.6422886811e+00	 7.0661061825e-01
 1.0409576832e+00	 1.6523894341e+00	 8.6066405308e-01
 1.0250146531e+00	 1.6623263075e+00	 9.6161495578e-01
 1.0089948448e+00	 1.6720984458e+00	 9.9665462676e-01
 1.1707060339e+00	 1.5741568421e+00	-7.5500855779e-01
 1.1553972087e+00	 1.5854273189e+00	-3.8074191602e-01
 1.1399915723e+00	 1.5965405835e+00	-6.2603161783e-02
 1.1244915273e+00	 1.6074954302e+00	 1.9403606399e-01
 1.1088994957e+00	 1.6182907023e+00	 3.8474413630e-01
 1.0932179171e+00	 1.6289252915e+00	 5.4831717801e-01
 1.0774492477e+00	 1.6393981391e+00	 7.0134192051e-01
 1.0615959589e+00	 1.6497082358e+00	 8.3259622446e-01
 1.0456605364e+00	 1.6598546221e+00	 9.3056210425e-01
 1.0296454786e+00	 1.6698363885e+00	 9.8351659875e-01
 1.0135532957e+00	 1.6796526755e+00	 9.7961716888e-01
 1.1759712785e+00	 1.5812366048e+00	-3.9950282738e-02
 1.1605936020e+00	 1.5925577705e+00	 2.4437084371e-01
 1.1451186788e+00	 1.6037210169e+00	 4.7716802158e-01
 1.1295489225e+00	 1.6147251331e+00	 6.5372117512e-01
 1.1138867658e+00	 1.6255689568e+00	 7.6962905885e-01
 1.0981346594e+00	 1.6362513750e+00	 8.4425495867e-01
 1.0822950704e+00	 1.6467713242e+00	 9.1494993880e-01
 1.0663704815e+00	 1.6571277905e+00	 9.7243939765e-01
 1.0503633895e+00	 1.6673198101e+00	 1.0061474290e+00
 1.0342763041e+00	 1.6773464695e+00	 1.0054053096e+00
 1.0181117467e+00	 1.6872069052e+00	 9.5953559203e-01
 9.7252723688e-01	 1.6116646083e+00	 1.4416423134e+00
 9.5701484010e-01	 1.6209239997e+00	 1.4590502663e+00
 9.4143328755e-01	 1.6300231078e+00	 1.4462351549e+00
 9.2578501584e-01	 1.6389612550e+00	 1.4098311176e+00
 9.1007246793e-01	 1.6477378124e+00	 1.3561929283e+00
 8.9429809199e-01	 1.6563521993e+00	 1.2914322412e+00
 8.7846434017e-01	 1.6648038834e+00	 1.2214501623e+00
 8.6257366750e-01	 1.6730923806e+00	 1.1519661979e+00
 8.4662853067e-01	 1.6812172549e+00	 1.0885436577e+00
 8.3063138694e-01	 1.6891781183e+00	 1.0366116088e+00
 8.1458469296e-01	 1.6969746305e+00	 1.0014834975e+00
 9.7708568786e-01	 1.6192188380e+00	 1.3220290241e+00
 9.6150058104e-01	 1.6285216302e+00	 1.3692323181e+00
 9.4584599429e-01	 1.6376633878e+00	 1.3806614442e+00
 9.3012437566e-01	 1.6466434301e+00	 1.3632139555e+00
 9.1433817956e-01	 1.6554611252e+00	 1.3236095787e+00
 8.9848986561e-01	 1.6641158896e+00	 1.2684250915e+00
 8.8258189749e-01	 1.6726071886e+00	 1.2041252851e+00
 8.6661674170e-01	 1.6809345359e+00	 1.1370900733e+00
 8.5059686648e-01	 1.6890974932e+00	 1.0736378342e+00
 8.3452474059e-01	 1.6970956710e+00	 1.0200450932e+00
 8.1840283220e-01	 1.7049287272e+00	 9.8256267740e-01
 9.8164413885e-01	 1.6267730677e+00	 1.2282185057e+00
 9.6598632197e-01	 1.6361192607e+00	 1.2928146912e+00
 9.5025870104e-01	 1.6453036679e+00	 1.3187831388e+00
 9.3446373548e-01	 1.6543256052e+00	 1.3130456687e+00
 9.1860389118e-01	 1.6631844380e+00	 1.2824348313e+00
 9.0268163924e-01	 1.6718795800e+00	 1.2337278991e+00
 8.8669945480e-01	 1.6804104939e+00	 1.1736767098e+00
 8.7065981591e-01	 1.6887766911e+00	 1.1090334330e+00
 8.5456520229e-01	 1.6969777316e+00	 1.0465723551e+00
 8.3841809423e-01	 1.7050132237e+00	 9.9310780379e-01
 8.2222097143e-01	 1.7128828239e+00	 9.5550835132e-01
 9.8620258983e-01	 1.6343272974e+00	 1.1563659775e+00
 9.7047206291e-01	 1.6437168913e+00	 1.2274824545e+00
 9.5467140778e-01	 1.6529439479e+00	 1.2596206953e+00
 9.3880309530e-01	 1.6620077804e+00	 1.2594917988e+00
 9.2286960280e-01	 1.6709077508e+00	 1.2337933083e+00
 9.0687341286e-01	 1.6796432703e+00	 1.1892427923e+00
 8.9081701212e-01	 1.6882137992e+00	 1.1326070535e+00
 8.7470289011e-01	 1.6966188464e+00	 1.0707270442e+00
 8.5853353810e-01	 1.7048579700e+00	 1.0105385953e+00
 8.4231144788e-01	 1.7129307764e+00	 9.5908908671e-01
 8.2603911066e-01	 1.7208369206e+00	 9.2355021172e-01
 9.9076104082e-01	 1.6418815270e+00	 1.1026942523e+00
 9.7495780385e-01	 1.6513145218e+00	 1.1709593108e+00
 9.5908411453e-01	 1.6605842280e+00	 1.2022077080e+00
 9.4314245513e-01	 1.6696899555e+00	 1.2027089251e+00
 9.2713531443e-01	 1.6786310636e+00	 1.1787818938e+00
 9.1106518648e-01	 1.6874069607e+00	 1.1368286374e+00
 8.9493456943e-01	 1.6960171044e+00	 1.0833633245e+00
 8.7874596432e-01	 1.7044610017e+00	 1.0250368207e+00
 8.6250187391e-01	 1.7127382084e+00	 9.6865685476e-01
 8.4620480153e-01	 1.7208483291e+00	 9.2120393600e-01
 8.2985724989e-01	 1.7287910173e+00	 8.8984318498e-01
 9.9531949180e-01	 1.6494357567e+00	 1.0634940254e+00
 9.7944354479e-01	 1.6589121523e+00	 1.1210084991e+00
 9.6349682127e-01	 1.6682245080e+00	 1.1455923436e+00
 9.4748181495e-01	 1.6773721306e+00	 1.1428465495e+00
 9.3140102605e-01	 1.6863543764e+00	 1.1184719902e+00
 9.1525696011e-01	 1.6951706510e+00	 1.0783035897e+00
 8.9905212675e-01	 1.7038204097e+00	 1.0283396933e+00
 8.8278903852e-01	 1.7123031570e+00	 9.7476673925e-01
 8.6647020972e-01	 1.7206184467e+00	 9.2397934949e-01
 8.5009815518e-01	 1.7287658818e+00	 8.8259598931e-01
 8.3367538912e-01	 1.7367451140e+00	 8.5747036480e-01
 9.9987794279e-01	 1.6569899864e+00	 1.0351242004e+00
 9.8392928573e-01	 1.6665097828e+00	 1.0754337178e+00
 9.6790952801e-01	 1.6758647881e+00	 1.0888387800e+00
 9.5182117477e-01	 1.6850543058e+00	 1.0800489729e+00
 9.3566673768e-01	 1.6940776892e+00	 1.0539117561e+00
 9.1944873373e-01	 1.7029343414e+00	 1.0154476163e+00
 9.0316968406e-01	 1.7116237150e+00	 9.6988022738e-01
 8.8683211273e-01	 1.7201453123e+00	 9.2266171528e-01
 8.7043854553e-01	 1.7284986851e+00	 8.7949315869e-01
 8.5399150883e-01	 1.7366834345e+00	 8.4634047954e-01
 8.3749352836e-01	 1.7446992107e+00	 8.2944590234e-01
 1.0044363938e+00	 1.6645442161e+00	 1.0140122527e+00
 9.8841502667e-01	 1.6741074133e+00	 1.0320800673e+00
 9.7232223476e-01	 1.6835050681e+00	 1.0310286506e+00
 9.5616053459e-01	 1.6927364809e+00	 1.0144571647e+00
 9.3993244930e-01	 1.7018010020e+00	 9.8612832417e-01
 9.2364050735e-01	 1.7106980317e+00	 9.5000499229e-01
 9.0728724138e-01	 1.7194270202e+00	 9.1028159267e-01
 8.9087518693e-01	 1.7279874676e+00	 8.7141044064e-01
 8.7440688134e-01	 1.7363789235e+00	 8.3812313102e-01
 8.5788486247e-01	 1.7446009872e+00	 8.1544714376e-01
 8.4131166759e-01	 1.7526533074e+00	 8.0871785452e-01
 1.0089948448e+00	 1.6720984458e+00	 9.9665462676e-01
 9.9290076761e-01	 1.6817050438e+00	 9.8883501105e-01
 9.7673494150e-01	 1.6911453482e+00	 9.7126249245e-01
 9.6049989442e-01	 1.7004186560e+00	 9.4621062323e-01
 9.4419816092e-01	 1.7095243148e+00	 9.1613000294e-01
 9.2783228098e-01	 1.7184617220e+00	 8.8368676964e-01
 9.1140479869e-01	 1.7272303255e+00	 8.5179572200e-01
 8.9491826114e-01	 1.7358296229e+00	 8.2364818358e-01
 8.7837521715e-01	 1.7442591619e+00	 8.0273475047e-01
 8.6177821612e-01	 1.7525185399e+00	 7.9286309106e-01
 8.4512980682e-01	 1.7606074041e+00	 7.9817099171e-01
 1.0135532957e+00	 1.6796526755e+00	 9.7961716888e-01
 9.9738650855e-01	 1.6893026743e+00	 9.4362935497e-01
 9.8114764825e-01	 1.6987856282e+00	 9.0866119910e-01
 9.6483925424e-01	 1.7081008311e+00	 8.7544922926e-01
 9.4846387255e-01	 1.7172476276e+00	 8.4490845928e-01
 9.3202405460e-01	 1.7262254124e+00	 8.1817322104e-01
 9.1552235600e-01	 1.7350336307e+00	 7.9663245180e-01
 8.9896133535e-01	 1.7436717782e+00	 7.8195955251e-01
 8.8234355296e-01	 1.7521394003e+00	 7.7613696321e-01
 8.6567156977e-01	 1.7604360926e+00	 7.8147563035e-01
 8.4894794605e-01	 1.7685615008e+00	 8.0062956621e-01
 1.0181117467e+00	 1.6872069052e+00	 9.5953559203e-01
 1.0018722495e+00	 1.6969003048e+00	 8.9443824485e-01
 9.8556035499e-01	 1.7064259082e+00	 8.4236747746e-01
 9.6917861406e-01	 1.7157830063e+00	 8.0231509233e-01
 9.5272958417e-01	 1.7249709404e+00	 7.7344088492e-01
 9.3621582822e-01	 1.7339891027e+00	 7.5511625884e-01
 9.1963991332e-01	 1.7428369360e+00	 7.4696212789e-01
 9.0300440955e-01	 1.7515139334e+00	 7.4888122474e-01
 8.8631188877e-01	 1.7600196386e+00	 7.6108496685e-01
 8.6956492342e-01	 1.7683536454e+00	 7.8411505956e-01
 8.5276608528e-01	 1.7765155975e+00	 8.1886004271e-01
 8.1458469296e-01	 1.6969746305e+00	 1.0014834975e+00
 7.9848816357e-01	 1.7046077823e+00	 9.9429658509e-01
 7.8234697537e-01	 1.7120759877e+00	 1.0188618434e+00
 7.6616357699e-01	 1.7193790471e+00	 1.0695893195e+00
 7.4994041202e-01	 1.7265168079e+00	 1.1411362330e+00
 7.3367991799e-01	 1.7334891636e+00	 1.2266368152e+00
 7.1738452531e-01	 1.7402960542e+00	 1.3080899284e+00
 7.0105665617e-01	 1.7469374649e+00	 1.3807590862e+00
 6.8469872359e-01	 1.7534134267e+00	 1.4433195592e+00
 6.6831313035e-01	 1.7597240152e+00	 1.4945923142e+00
 6.5190226803e-01	 1.7658693503e+00	 1.5335344409e+00
 8.1840283220e-01	 1.7049287272e+00	 9.8256267740e-01
 8.0223085480e-01	 1.7125976573e+00	 9.7429434302e-01
 7.8601400927e-01	 1.7201008678e+00	 9.9988117365e-01
 7.6975475570e-01	 1.7274381583e+00	 1.0530356183e+00
 7.5345554916e-01	 1.7346093753e+00	 1.1277242258e+00
 7.3711883859e-01	 1.7416144121e+00	 1.2177561146e+00
 7.2074706578e-01	 1.7484532080e+00	 1.3065702446e+00
 7.0434266430e-01	 1.7551257485e+00	 1.3863467194e+00
 6.8790805846e-01	 1.7616320646e+00	 1.4551200913e+00
 6.7144566231e-01	 1.7679722322e+00	 1.5110692596e+00
 6.5495787863e-01	 1.7741463719e+00	 1.5525091390e+00
 8.2222097143e-01	 1.7128828239e+00	 9.5550835132e-01
 8.0597354602e-01	 1.7205875322e+00	 9.4805004286e-01
 7.8968104316e-01	 1.7281257479e+00	 9.7578634659e-01
 7.7334593442e-01	 1.7354972695e+00	 1.0319671300e+00
 7.5697068630e-01	 1.7427019428e+00	 1.1100976021e+00
 7.4055775918e-01	 1.7497396605e+00	 1.2039513181e+00
 7.2410960625e-01	 1.7566103618e+00	 1.2998750240e+00
 7.0762867243e-01	 1.7633140321e+00	 1.3868420754e+00
 6.9111739332e-01	 1.7698507024e+00	 1.4624427521e+00
 6.7457819426e-01	 1.7762204492e+00	 1.5244032065e+00
 6.5801348923e-01	 1.7824233934e+00	 1.5705782228e+00
 8.2603911066e-01	 1.7208369206e+00	 9.2355021172e-01
 8.0971623725e-01	 1.7285774072e+00	 9.1863089567e-01
 7.9334807706e-01	 1.7361506280e+00	 9.4942876296e-01
 7.7693711313e-01	 1.7435563806e+00	 1.0089632347e+00
 7.6048582344e-01	 1.7507945102e+00	 1.0905046951e+00
 7.4399667978e-01	 1.7578649089e+00	 1.1875879844e+00
 7.2747214673e-01	 1.7647675156e+00	 1.2896337615e+00
 7.1091468055e-01	 1.7715023157e+00	 1.3833628196e+00
 6.9432672819e-01	 1.7780693403e+00	 1.4658221825e+00
 6.7771072622e-01	 1.7844686661e+00	 1.5344716577e+00
 6.6106909983e-01	 1.7907004149e+00	 1.5868850913e+00
 8.2985724989e-01	 1.7287910173e+00	 8.8984318498e-01
 8.1345892847e-01	 1.7365672822e+00	 8.8903079827e-01
 7.9701511095e-01	 1.7441755081e+00	 9.2358892825e-01
 7.8052829185e-01	 1.7516154918e+00	 9.8653586860e-01
 7.6400096058e-01	 1.7588870776e+00	 1.0711309412e+00
 7.4743560037e-01	 1.7659901573e+00	 1.1708875316e+00
 7.3083468720e-01	 1.7729246694e+00	 1.2774174431e+00
 7.1420068868e-01	 1.7796905993e+00	 1.3769790332e+00
 6.9753606306e-01	 1.7862879781e+00	 1.4657577003e+00
 6.8084325817e-01	 1.7927168831e+00	 1.5411304377e+00
 6.6412471043e-01	 1.7989774365e+00	 1.6005665417e+00
 8.3367538912e-01	 1.7367451140e+00	 8.5747036480e-01
 8.1720161970e-01	 1.7445571572e+00	 8.6217316027e-01
 8.0068214485e-01	 1.7522003882e+00	 9.0097914992e-01
 7.8411947056e-01	 1.7596746030e+00	 9.6713206670e-01
 7.6751609772e-01	 1.7669796451e+00	 1.0541012431e+00
 7.5087452097e-01	 1.7741154057e+00	 1.1555939154e+00
 7.3419722767e-01	 1.7810818232e+00	 1.2647389228e+00
 7.1748669681e-01	 1.7878788828e+00	 1.3687133777e+00
 7.0074539792e-01	 1.7945066160e+00	 1.4627132217e+00
 6.8397579012e-01	 1.8009651001e+00	 1.5442133420e+00
 6.6718032103e-01	 1.8072544580e+00	 1.6107521123e+00
 8.3749352836e-01	 1.7446992107e+00	 8.2944590234e-01
 8.2094431093e-01	 1.7525470321e+00	 8.4091368972e-01
 8.0434917874e-01	 1.7602252683e+00	 8.8424619588e-01
 7.8771064928e-01	 1.7677337141e+00	 9.5313647002e-01
 7.7103123486e-01	 1.7750722125e+00	 1.0414823006e+00
 7.5431344156e-01	 1.7822406541e+00	 1.1433975141e+00
 7.3755976815e-01	 1.7892389771e+00	 1.2530532775e+00
 7.2077270493e-01	 1.7960671664e+00	 1.3595412438e+00
 7.0395473279e-01	 1.8027252539e+00	 1.4571171763e+00
 6.8710832208e-01	 1.8092133171e+00	 1.5435317847e+00
 6.7023593163e-01	 1.8155314795e+00	 1.6165634333e+00
 8.4131166759e-01	 1.7526533074e+00	 8.0871785452e-01
 8.2468700215e-01	 1.7605369071e+00	 8.2804313883e-01
 8.0801621264e-01	 1.7682501484e+00	 8.7597391540e-01
 7.9130182799e-01	 1.7757928253e+00	 9.4687379845e-01
 7.7454637200e-01	 1.7831647799e+00	 1.0352849104e+00
 7.5775236216e-01	 1.7903659025e+00	 1.1359379019e+00
 7.4092230862e-01	 1.7973961309e+00	 1.2437588015e+00
 7.2405871306e-01	 1.8042554500e+00	 1.3503908857e+00
 7.0716406766e-01	 1.8109438917e+00	 1.4493624119e+00
 6.9024085403e-01	 1.8174615341e+00	 1.5388744468e+00
 6.7329154224e-01	 1.8238085011e+00	 1.6171135854e+00
 8.4512980682e-01	 1.7606074041e+00	 7.9817099171e-01
 8.2842969338e-01	 1.7685267821e+00	 8.2629001089e-01
 8.1168324653e-01	 1.7762750285e+00	 8.7868582367e-01
 7.9489300671e-01	 1.7838519365e+00	 9.5061129024e-01
 7.7806150914e-01	 1.7912573474e+00	 1.0374662372e+00
 7.6119128276e-01	 1.7984911509e+00	 1.1348059258e+00
 7.4428484909e-01	 1.8055532847e+00	 1.2383463487e+00
 7.2734472119e-01	 1.8124437336e+00	 1.3421435407e+00
 7.1037340252e-01	 1.8191625296e+00	 1.4398060928e+00
 6.9337338599e-01	 1.8257097511e+00	 1.5300069227e+00
 6.7634715284e-01	 1.8320855226e+00	 1.6115064663e+00
 8.4894794605e-01	 1.7685615008e+00	 8.0062956621e-01
 8.3217238461e-01	 1.7765166570e+00	 8.3832322965e-01
 8.1535028043e-01	 1.7842999086e+00	 8.9484765116e-01
 7.9848418542e-01	 1.7919110476e+00	 9.6656110913e-01
 7.8157664628e-01	 1.7993499148e+00	 1.0499320553e+00
 7.6463020335e-01	 1.8066163993e+00	 1.1415457573e+00
 7.4764738957e-01	 1.8137104385e+00	 1.2381077803e+00
 7.3063072931e-01	 1.8206320172e+00	 1.3356335345e+00
 7.1358273739e-01	 1.8273811674e+00	 1.4287695898e+00
 6.9650591794e-01	 1.8339579680e+00	 1.5166713670e+00
 6.7940276344e-01	 1.8403625441e+00	 1.5988361645e+00
 8.5276608528e-01	 1.7765155975e+00	 8.1886004271e-01
 8.3591507583e-01	 1.7845065320e+00	 8.6675477243e-01
 8.1901731432e-01	 1.7923247887e+00	 9.2686985882e-01
 8.0207536413e-01	 1.7999701588e+00	 9.9688272020e-01
 7.8509178342e-01	 1.8074424822e+00	 1.0745389622e+00
 7.6806912395e-01	 1.8147416478e+00	 1.1576569208e+00
 7.5100993004e-01	 1.8218675923e+00	 1.2441290667e+00
 7.3391673744e-01	 1.8288203008e+00	 1.3316483735e+00
 7.1679207226e-01	 1.8355998053e+00	 1.4165383625e+00
 6.9963844990e-01	 1.8422061850e+00	 1.4985861402e+00
 6.8245837404e-01	 1.8486395656e+00	 1.5781863402e+00
 6.5190226803e-01	 1.7658693503e+00	 1.5335344409e+00
 6.3547131114e-01	 1.7718485933e+00	 1.5581961616e+00
 6.1901983667e-01	 1.7776630090e+00	 1.5684509730e+00
 6.0255019490e-01	 1.7833128461e+00	 1.5660078324e+00
 5.8606472121e-01	 1.7887983956e+00	 1.5524866915e+00
 5.6956573515e-01	 1.7941199904e+00	 1.5294137791e+00
 5.5305553956e-01	 1.7992780042e+00	 1.4982178309e+00
 5.3653641979e-01	 1.8042728512e+00	 1.4602271750e+00
 5.2001064282e-01	 1.8091049855e+00	 1.4166675798e+00
 5.0348045650e-01	 1.8137749003e+00	 1.3686607769e+00
 4.8694808875e-01	 1.8182831273e+00	 1.3172235702e+00
 6.5495787863e-01	 1.7741463719e+00	 1.5525091390e+00
 6.3844990620e-01	 1.7801536409e+00	 1.5758034073e+00
 6.2192132001e-01	 1.7859953100e+00	 1.5804049715e+00
 6.0537448139e-01	 1.7916716291e+00	 1.5692324961e+00
 5.8881173662e-01	 1.7971828907e+00	 1.5450526329e+00
 5.7223541615e-01	 1.8025294290e+00	 1.5104751423e+00
 5.5564783361e-01	 1.8077116195e+00	 1.4679490598e+00
 5.3905128506e-01	 1.8127298785e+00	 1.4197598110e+00
 5.2244804811e-01	 1.8175846620e+00	 1.3680271784e+00
 5.0584038114e-01	 1.8222764658e+00	 1.3147040273e+00
 4.8923052251e-01	 1.8268058238e+00	 1.2615756967e+00
 6.5801348923e-01	 1.7824233934e+00	 1.5705782228e+00
 6.4142850126e-01	 1.7884586885e+00	 1.5954718181e+00
 6.2482280336e-01	 1.7943276110e+00	 1.5976370931e+00
 6.0819876787e-01	 1.8000304122e+00	 1.5809288687e+00
 5.9155875203e-01	 1.8055673857e+00	 1.5490010542e+00
 5.7490509715e-01	 1.8109388675e+00	 1.5053017294e+00
 5.5824012766e-01	 1.8161452348e+00	 1.4530693503e+00
 5.4156615033e-01	 1.8211869057e+00	 1.3953299747e+00
 5.2488545340e-01	 1.8260643386e+00	 1.3348954091e+00
 5.0820030577e-01	 1.8307780312e+00	 1.2743621769e+00
 4.9151295627e-01	 1.8353285204e+00	 1.2161112123e+00
 6.6106909983e-01	 1.7907004149e+00	 1.5868850913e+00
 6.4440709632e-01	 1.7967637360e+00	 1.6156507460e+00
 6.2772428671e-01	 1.8026599120e+00	 1.6180634153e+00
 6.1102305435e-01	 1.8083891953e+00	 1.5986435577e+00
 5.9430576744e-01	 1.8139518808e+00	 1.5616757920e+00
 5.7757477815e-01	 1.8193483061e+00	 1.5112040647e+00
 5.6083242171e-01	 1.8245788501e+00	 1.4510279954e+00
 5.4408101560e-01	 1.8296439330e+00	 1.3847002961e+00
 5.2732285868e-01	 1.8345440151e+00	 1.3155251579e+00
 5.1056023041e-01	 1.8392795967e+00	 1.2465575035e+00
 4.9379539003e-01	 1.8438512169e+00	 1.1806030045e+00
 6.6412471043e-01	 1.7989774365e+00	 1.6005665417e+00
 6.4738569138e-01	 1.8050687836e+00	 1.6347972889e+00
 6.3062577006e-01	 1.8109922131e+00	 1.6396191535e+00
 6.1384734083e-01	 1.8167479783e+00	 1.6199506821e+00
 5.9705278285e-01	 1.8223363759e+00	 1.5804534921e+00
 5.8024445915e-01	 1.8277577446e+00	 1.5255276456e+00
 5.6342471576e-01	 1.8330124654e+00	 1.4593082384e+00
 5.4659588087e-01	 1.8381009602e+00	 1.3856630935e+00
 5.2976026397e-01	 1.8430236917e+00	 1.3081914503e+00
 5.1292015504e-01	 1.8477811622e+00	 1.2302235415e+00
 4.9607782379e-01	 1.8523739134e+00	 1.1548209417e+00
 6.6718032103e-01	 1.8072544580e+00	 1.6107521123e+00
 6.5036428644e-01	 1.8133738312e+00	 1.6513753443e+00
 6.3352725341e-01	 1.8193245141e+00	 1.6602574925e+00
 6.1667162732e-01	 1.8251067614e+00	 1.6424505524e+00
 5.9979979826e-01	 1.8307208709e+00	 1.6027422065e+00
 5.8291414015e-01	 1.8361671832e+00	 1.5456515291e+00
 5.6601700981e-01	 1.8414460807e+00	 1.4754259204e+00
 5.4911074614e-01	 1.8465579875e+00	 1.3960391568e+00
 5.3219766926e-01	 1.8515033682e+00	 1.3111904436e+00
 5.1528007968e-01	 1.8562827277e+00	 1.2242882560e+00
 4.9836025755e-01	 1.8608966100e+00	 1.1384749660e+00
 6.7023593163e-01	 1.8155314795e+00	 1.6165634333e+00
 6.5334288150e-01	 1.8216788787e+00	 1.6638546788e+00
 6.3642873675e-01	 1.8276568151e+00	 1.6779484414e+00
 6.1949591380e-01	 1.8334655445e+00	 1.6637683763e+00
 6.0254681367e-01	 1.8391053660e+00	 1.6259800200e+00
 5.8558382115e-01	 1.8445766217e+00	 1.5689869481e+00
 5.6860930386e-01	 1.8498796960e+00	 1.4969281575e+00
 5.5162561141e-01	 1.8550150148e+00	 1.4136590916e+00
 5.3463507454e-01	 1.8599830448e+00	 1.3227344727e+00
 5.1764000431e-01	 1.8647842931e+00	 1.2275152421e+00
 5.0064269131e-01	 1.8694193065e+00	 1.1310899624e+00
 6.7329154224e-01	 1.8238085011e+00	 1.6171135854e+00
 6.5632147656e-01	 1.8299839263e+00	 1.6707100140e+00
 6.3933022010e-01	 1.8359891162e+00	 1.6906777100e+00
 6.2232020028e-01	 1.8418243275e+00	 1.6815529924e+00
 6.0529382908e-01	 1.8474898610e+00	 1.6476337064e+00
 5.8825350215e-01	 1.8529860603e+00	 1.5929726263e+00
 5.7120159791e-01	 1.8583133113e+00	 1.5212887390e+00
 5.5414047668e-01	 1.8634720420e+00	 1.4361407997e+00
 5.3707247983e-01	 1.8684627213e+00	 1.3408822616e+00
 5.1999992895e-01	 1.8732858586e+00	 1.2386073769e+00
 5.0292512507e-01	 1.8779420031e+00	 1.1321559824e+00
 6.7634715284e-01	 1.8320855226e+00	 1.6115064663e+00
 6.5930007162e-01	 1.8382889739e+00	 1.6704201275e+00
 6.4223170345e-01	 1.8443214172e+00	 1.6964456075e+00
 6.2514448676e-01	 1.8501831106e+00	 1.6934756290e+00
 6.0804084449e-01	 1.8558743561e+00	 1.6651434218e+00
 5.9092318315e-01	 1.8613954988e+00	 1.6148051979e+00
 5.7379389196e-01	 1.8667469266e+00	 1.5457708484e+00
 5.5665534195e-01	 1.8719290693e+00	 1.4611316877e+00
 5.3950988512e-01	 1.8769423979e+00	 1.3637549380e+00
 5.2235985359e-01	 1.8817874241e+00	 1.2562885932e+00
 5.0520755883e-01	 1.8864646996e+00	 1.1411660152e+00
 6.7940276344e-01	 1.8403625441e+00	 1.5988361645e+00
 6.6227866668e-01	 1.8465940215e+00	 1.6614669691e+00
 6.4513318680e-01	 1.8526537182e+00	 1.6932634649e+00
 6.2796877325e-01	 1.8585418937e+00	 1.6970539299e+00
 6.1078785990e-01	 1.8642588511e+00	 1.6756226683e+00
 5.9359286415e-01	 1.8698049374e+00	 1.6316949159e+00
 5.7638618601e-01	 1.8751805420e+00	 1.5678148665e+00
 5.5917020722e-01	 1.8803860966e+00	 1.4863511741e+00
 5.4194729040e-01	 1.8854220744e+00	 1.3895020453e+00
 5.2471977822e-01	 1.8902889896e+00	 1.2792999669e+00
 5.0748999259e-01	 1.8949873961e+00	 1.1576161076e+00
 6.8245837404e-01	 1.8486395656e+00	 1.5781863402e+00
 6.6525726174e-01	 1.8548990690e+00	 1.6422925557e+00
 6.4803467015e-01	 1.8609860192e+00	 1.6788018824e+00
 6.3079305973e-01	 1.8669006767e+00	 1.6895831951e+00
 6.1353487531e-01	 1.8726433462e+00	 1.6764310635e+00
 5.9626254515e-01	 1.8782143759e+00	 1.6410199890e+00
 5.7897848006e-01	 1.8836141573e+00	 1.5849104830e+00
 5.6168507249e-01	 1.8888431238e+00	 1.5095546049e+00
 5.4438469569e-01	 1.8939017510e+00	 1.4163010102e+00
 5.2707970286e-01	 1.8987905551e+00	 1.3063995533e+00
 5.0977242635e-01	 1.9035100927e+00	 1.1810054888e+00
 4.8694808875e-01	 1.8182831273e+00	 1.3172235702e+00
 4.7041574706e-01	 1.8226302364e+00	 1.2665363395e+00
 4.5388561839e-01	 1.8268168362e+00	 1.2214407687e+00
 4.3735986779e-01	 1.8308435719e+00	 1.1838041979e+00
 4.2084063749e-01	 1.8347111246e+00	 1.1554098810e+00
 4.0433004622e-01	 1.8384202100e+00	 1.1379561268e+00
 3.8783018861e-01	 1.8419715781e+00	 1.1330555883e+00
 3.7134313460e-01	 1.8453660122e+00	 1.1422346472e+00
 3.5487092882e-01	 1.8486043281e+00	 1.1644106029e+00
 3.3841559011e-01	 1.8516873736e+00	 1.1976867908e+00
 3.2197911094e-01	 1.8546160272e+00	 1.2431013400e+00
 4.8923052251e-01	 1.8268058238e+00	 1.2615756967e+00
 4.7262069006e-01	 1.8311733088e+00	 1.2138455012e+00
 4.5601308101e-01	 1.8353795321e+00	 1.1760407051e+00
 4.3940987056e-01	 1.8394251420e+00	 1.1487934343e+00
 4.2281321096e-01	 1.8433108228e+00	 1.1327176045e+00
 4.0622523088e-01	 1.8470372935e+00	 1.1284086043e+00
 3.8964803478e-01	 1.8506053077e+00	 1.1364430175e+00
 3.7308370228e-01	 1.8540156522e+00	 1.1573856076e+00
 3.5653428762e-01	 1.8572691468e+00	 1.1897332993e+00
 3.4000181909e-01	 1.8603666432e+00	 1.2301286299e+00
 3.2348829849e-01	 1.8633090241e+00	 1.2786840644e+00
 4.9151295627e-01	 1.8353285204e+00	 1.2161112123e+00
 4.7482563307e-01	 1.8397163812e+00	 1.1669503716e+00
 4.5814054363e-01	 1.8439422280e+00	 1.1319318654e+00
 4.4145987332e-01	 1.8480067122e+00	 1.1106691569e+00
 4.2478578442e-01	 1.8519105210e+00	 1.1028126018e+00
 4.0812041554e-01	 1.8556543770e+00	 1.1080686975e+00
 3.9146588094e-01	 1.8592390372e+00	 1.1261685192e+00
 3.7482426996e-01	 1.8626652922e+00	 1.1568501632e+00
 3.5819764642e-01	 1.8659339656e+00	 1.1982634883e+00
 3.4158804806e-01	 1.8690459129e+00	 1.2458921258e+00
 3.2499748604e-01	 1.8720020210e+00	 1.2990322983e+00
 4.9379539003e-01	 1.8438512169e+00	 1.1806030045e+00
 4.7703057607e-01	 1.8482594536e+00	 1.1265036922e+00
 4.6026800626e-01	 1.8525049239e+00	 1.0905213260e+00
 4.4350987608e-01	 1.8565882823e+00	 1.0714814095e+00
 4.2675835788e-01	 1.8605102192e+00	 1.0682782737e+00
 4.1001560020e-01	 1.8642714605e+00	 1.0798688023e+00
 3.9328372711e-01	 1.8678727668e+00	 1.1052840610e+00
 3.7656483765e-01	 1.8713149323e+00	 1.1436310809e+00
 3.5986100522e-01	 1.8745987843e+00	 1.1928734578e+00
 3.4317427704e-01	 1.8777251825e+00	 1.2476343259e+00
 3.2650667358e-01	 1.8806950179e+00	 1.3064668139e+00
 4.9607782379e-01	 1.8523739134e+00	 1.1548209417e+00
 4.7923551908e-01	 1.8568025260e+00	 1.0931415202e+00
 4.6239546888e-01	 1.8610676199e+00	 1.0531934444e+00
 4.4555987884e-01	 1.8651698524e+00	 1.0331888515e+00
 4.2873093135e-01	 1.8691099174e+00	 1.0314447533e+00
 4.1191078486e-01	 1.8728885440e+00	 1.0463858852e+00
 3.9510157327e-01	 1.8765064963e+00	 1.0765469970e+00
 3.7830540533e-01	 1.8799645723e+00	 1.1205746092e+00
 3.6152436402e-01	 1.8832636031e+00	 1.1763576375e+00
 3.4476050601e-01	 1.8864044522e+00	 1.2379589775e+00
 3.2801586113e-01	 1.8893880148e+00	 1.3032616514e+00
 4.9836025755e-01	 1.8608966100e+00	 1.1384749660e+00
 4.8144046208e-01	 1.8653455984e+00	 1.0673670943e+00
 4.6452293151e-01	 1.8696303158e+00	 1.0210902297e+00
 4.4760988161e-01	 1.8737514226e+00	 9.9746408822e-01
 4.3070350481e-01	 1.8777096156e+00	 9.9443841827e-01
 4.1380596952e-01	 1.8815056276e+00	 1.0100958449e+00
 3.9691941944e-01	 1.8851402259e+00	 1.0426541341e+00
 3.8004597302e-01	 1.8886142123e+00	 1.0904679015e+00
 3.6318772282e-01	 1.8919284218e+00	 1.1514545158e+00
 3.4634673499e-01	 1.8950837218e+00	 1.2194177294e+00
 3.2952504868e-01	 1.8980810117e+00	 1.2916451184e+00
 5.0064269131e-01	 1.8694193065e+00	 1.1310899624e+00
 4.8364540509e-01	 1.8738886708e+00	 1.0495040354e+00
 4.6665039413e-01	 1.8781930117e+00	 9.9523537124e-01
 4.4965988437e-01	 1.8823329927e+00	 9.6592030275e-01
 4.3267607828e-01	 1.8863093138e+00	 9.5933982668e-01
 4.1570115418e-01	 1.8901227111e+00	 9.7342239348e-01
 3.9873726560e-01	 1.8937739555e+00	 1.0062461105e+00
 3.8178654070e-01	 1.8972638524e+00	 1.0560403828e+00
 3.6485108162e-01	 1.9005932405e+00	 1.1208478314e+00
 3.4793296396e-01	 1.9037629915e+00	 1.1945112424e+00
 3.3103423623e-01	 1.9067740086e+00	 1.2738007618e+00
 5.0292512507e-01	 1.8779420031e+00	 1.1321559824e+00
 4.8585034809e-01	 1.8824317432e+00	 1.0398542593e+00
 4.6877785675e-01	 1.8867557076e+00	 9.7662719190e-01
 4.5170988714e-01	 1.8909145628e+00	 9.4013451766e-01
 4.3464865175e-01	 1.8949090120e+00	 9.2818483753e-01
 4.1759633884e-01	 1.8987397946e+00	 9.3873830063e-01
 4.0055511177e-01	 1.9024076850e+00	 9.6990871134e-01
 3.8352710838e-01	 1.9059134924e+00	 1.0199650830e+00
 3.6651444042e-01	 1.9092580593e+00	 1.0871677319e+00
 3.4951919294e-01	 1.9124422611e+00	 1.1656902696e+00
 3.3254342378e-01	 1.9154670055e+00	 1.2518683127e+00
 5.0520755883e-01	 1.8864646996e+00	 1.1411660152e+00
 4.8805529110e-01	 1.8909748156e+00	 1.0387077583e+00
 4.7090531938e-01	 1.8953184036e+00	 9.6623935190e-01
 4.5375988990e-01	 1.8994961330e+00	 9.2164851932e-01
 4.3662122521e-01	 1.9035087102e+00	 9.0296570594e-01
 4.1949152350e-01	 1.9073568781e+00	 9.0836660889e-01
 4.0237295794e-01	 1.9110414146e+00	 9.3617415309e-01
 3.8526767607e-01	 1.9145631324e+00	 9.8485993793e-01
 3.6817779922e-01	 1.9179228780e+00	 1.0529919012e+00
 3.5110542191e-01	 1.9211215308e+00	 1.1353567072e+00
 3.3405261133e-01	 1.9241600024e+00	 1.2279446063e+00
 5.0748999259e-01	 1.8949873961e+00	 1.1576161076e+00
 4.9026023410e-01	 1.8995178880e+00	 1.0463430293e+00
 4.7303278200e-01	 1.9038810995e+00	 9.6502153932e-01
 4.5580989266e-01	 1.9080777031e+00	 9.1196976261e-01
 4.3859379868e-01	 1.9121084084e+00	 8.8563215368e-01
 4.2138670816e-01	 1.9159739616e+00	 8.8458182103e-01
 4.0419080410e-01	 1.9196751442e+00	 9.0752233730e-01
 3.8700824375e-01	 1.9232127724e+00	 9.5328905896e-01
 3.6984115802e-01	 1.9265876967e+00	 1.0208466563e+00
 3.5269165089e-01	 1.9298008004e+00	 1.1058646174e+00
 3.3556179888e-01	 1.9328529993e+00	 1.2040844764e+00
 5.0977242635e-01	 1.9035100927e+00	 1.1810054888e+00
 4.9246517711e-01	 1.9080609604e+00	 1.0630274979e+00
 4.7516024463e-01	 1.9124437954e+00	 9.7390014790e-01
 4.5785989543e-01	 1.9166592732e+00	 9.1257225676e-01
 4.4056637214e-01	 1.9207081067e+00	 8.7809241596e-01
 4.2328189282e-01	 1.9245910451e+00	 8.6961105987e-01
 4.0600865027e-01	 1.9283088737e+00	 8.8638207507e-01
 3.8874881144e-01	 1.9318624125e+00	 9.2776397290e-01
 3.7150451682e-01	 1.9352525155e+00	 9.9322064541e-01
 3.5427787987e-01	 1.9384800701e+00	 1.0795212225e+00
 3.3707098643e-01	 1.9415459962e+00	 1.1823016259e+00
 3.2197911094e-01	 1.8546160272e+00	 1.2431013400e+00
 3.0556066871e-01	 1.8573916564e+00	 1.2937773810e+00
 2.8916500231e-01	 1.8600146878e+00	 1.3416121895e+00
 2.7279402747e-01	 1.8624860872e+00	 1.3857127949e+00
 2.5644963163e-01	 1.8648068484e+00	 1.4251918954e+00
 2.4013367353e-01	 1.8669779921e+00	 1.4591787238e+00
 2.2384798283e-01	 1.8690005651e+00	 1.4868290415e+00
 2.0759435981e-01	 1.8708756396e+00	 1.5073343101e+00
 1.9137457499e-01	 1.8726043121e+00	 1.5199300947e+00
 1.7519036889e-01	 1.8741877030e+00	 1.5239037510e+00
 1.5904345171e-01	 1.8756269553e+00	 1.5186014466e+00
 3.2348829849e-01	 1.8633090241e+00	 1.2786840644e+00
 3.0699289937e-01	 1.8660976633e+00	 1.3285133337e+00
 2.9052038284e-01	 1.8687329894e+00	 1.3726803413e+00
 2.7407267362e-01	 1.8712159728e+00	 1.4112320393e+00
 2.5765166797e-01	 1.8735476120e+00	 1.4441949263e+00
 2.4125923334e-01	 1.8757289323e+00	 1.4715853012e+00
 2.2489720800e-01	 1.8777609856e+00	 1.4934186755e+00
 2.0856740064e-01	 1.8796448489e+00	 1.5097183997e+00
 1.9227159009e-01	 1.8813816241e+00	 1.5205235564e+00
 1.7601152503e-01	 1.8829724367e+00	 1.5258961744e+00
 1.5978892366e-01	 1.8844184351e+00	 1.5259278173e+00
 3.2499748604e-01	 1.8720020210e+00	 1.2990322983e+00
 3.0842513004e-01	 1.8748036702e+00	 1.3503953469e+00
 2.9187576338e-01	 1.8774512910e+00	 1.3936008634e+00
 2.7535131976e-01	 1.8799458584e+00	 1.4294763825e+00
 2.5885370430e-01	 1.8822883755e+00	 1.4588055071e+00
 2.4238479316e-01	 1.8844798725e+00	 1.4823376702e+00
 2.2594643317e-01	 1.8865214060e+00	 1.5007970813e+00
 2.0954044147e-01	 1.8884140582e+00	 1.5148909152e+00
 1.9316860519e-01	 1.8901589361e+00	 1.5253167978e+00
 1.7683268116e-01	 1.8917571704e+00	 1.5327696432e+00
 1.6053439561e-01	 1.8932099149e+00	 1.5379478986e+00
 3.2650667358e-01	 1.8806950179e+00	 1.3064668139e+00
 3.0985736070e-01	 1.8835096771e+00	 1.3613408795e+00
 2.9323114392e-01	 1.8861695926e+00	 1.4058979079e+00
 2.7662996591e-01	 1.8886757441e+00	 1.4415887443e+00
 2.6005574064e-01	 1.8910291390e+00	 1.4697994412e+00
 2.4351035298e-01	 1.8932308127e+00	 1.4918606486e+00
 2.2699565834e-01	 1.8952818264e+00	 1.5090562083e+00
 2.1051348230e-01	 1.8971832676e+00	 1.5226310129e+00
 1.9406562030e-01	 1.8989362481e+00	 1.5337981843e+00
 1.7765383730e-01	 1.9005419041e+00	 1.5437456295e+00
 1.6127986756e-01	 1.9020013947e+00	 1.5536420303e+00
 3.2801586113e-01	 1.8893880148e+00	 1.3032616514e+00
 3.1128959137e-01	 1.8922156840e+00	 1.3632283806e+00
 2.9458652446e-01	 1.8948878943e+00	 1.4110641360e+00
 2.7790861205e-01	 1.8974056297e+00	 1.4486878325e+00
 2.6125777697e-01	 1.8997699026e+00	 1.4779353235e+00
 2.4463591280e-01	 1.9019817528e+00	 1.5005685387e+00
 2.2804488351e-01	 1.9040422468e+00	 1.5182838392e+00
 2.1148652314e-01	 1.9059524769e+00	 1.5327196520e+00
 1.9496263540e-01	 1.9077135601e+00	 1.5454634419e+00
 1.7847499343e-01	 1.9093266378e+00	 1.5580580796e+00
 1.6202533951e-01	 1.9107928745e+00	 1.5720076634e+00
 3.2952504868e-01	 1.8980810117e+00	 1.2916451184e+00
 3.1272182203e-01	 1.9009216909e+00	 1.3578981181e+00
 2.9594190500e-01	 1.9036061959e+00	 1.4105613796e+00
 2.7918725820e-01	 1.9061355153e+00	 1.4518686423e+00
 2.6245981331e-01	 1.9085106661e+00	 1.4839548838e+00
 2.4576147262e-01	 1.9107326930e+00	 1.5088653220e+00
 2.2909410868e-01	 1.9128026673e+00	 1.5285636424e+00
 2.1245956397e-01	 1.9147216862e+00	 1.5449395141e+00
 1.9585965050e-01	 1.9164908721e+00	 1.5598154529e+00
 1.7929614957e-01	 1.9181113715e+00	 1.5749530952e+00
 1.6277081146e-01	 1.9195843543e+00	 1.5920589379e+00
 3.3103423623e-01	 1.9067740086e+00	 1.2738007618e+00
 3.1415405270e-01	 1.9096276978e+00	 1.3471529838e+00
 2.9729728554e-01	 1.9123244975e+00	 1.4058212838e+00
 2.8046590435e-01	 1.9148654009e+00	 1.4522029421e+00
 2.6366184964e-01	 1.9172514297e+00	 1.4885833210e+00
 2.4688703243e-01	 1.9194836332e+00	 1.5171448476e+00
 2.3014333386e-01	 1.9215630877e+00	 1.5399752233e+00
 2.1343260480e-01	 1.9234908955e+00	 1.5590749245e+00
 1.9675666560e-01	 1.9252681841e+00	 1.5763640567e+00
 1.8011730570e-01	 1.9268961052e+00	 1.5936886235e+00
 1.6351628341e-01	 1.9283758340e+00	 1.6128262725e+00
 3.3254342378e-01	 1.9154670055e+00	 1.2518683127e+00
 3.1558628337e-01	 1.9183337047e+00	 1.3327592772e+00
 2.9865266608e-01	 1.9210427991e+00	 1.3982459327e+00
 2.8174455049e-01	 1.9235952865e+00	 1.4507397457e+00
 2.6486388598e-01	 1.9259921932e+00	 1.4925296281e+00
 2.4801259225e-01	 1.9282345734e+00	 1.5257910166e+00
 2.3119255903e-01	 1.9303235081e+00	 1.5525941738e+00
 2.1440564563e-01	 1.9322601048e+00	 1.5749117766e+00
 1.9765368070e-01	 1.9340454961e+00	 1.5946258564e+00
 1.8093846184e-01	 1.9356808389e+00	 1.6135341562e+00
 1.6426175536e-01	 1.9371673138e+00	 1.6333559656e+00
 3.3405261133e-01	 1.9241600024e+00	 1.2279446063e+00
 3.1701851403e-01	 1.9270397115e+00	 1.3164474670e+00
 3.0000804662e-01	 1.9297611007e+00	 1.3892084581e+00
 2.8302319664e-01	 1.9323251722e+00	 1.4485057721e+00
 2.6606592231e-01	 1.9347329568e+00	 1.4964869077e+00
 2.4913815207e-01	 1.9369855135e+00	 1.5351779603e+00
 2.3224178420e-01	 1.9390839285e+00	 1.5664921214e+00
 2.1537868647e-01	 1.9410293141e+00	 1.5922374571e+00
 1.9855069580e-01	 1.9428228080e+00	 1.6141240306e+00
 1.8175961797e-01	 1.9444655726e+00	 1.6337704361e+00
 1.6500722731e-01	 1.9459587936e+00	 1.6527098073e+00
 3.3556179888e-01	 1.9328529993e+00	 1.2040844764e+00
 3.1845074470e-01	 1.9357457184e+00	 1.2999129332e+00
 3.0136342716e-01	 1.9384794024e+00	 1.3800536313e+00
 2.8430184279e-01	 1.9410550578e+00	 1.4465058925e+00
 2.6726795865e-01	 1.9434737203e+00	 1.5011326805e+00
 2.5026371189e-01	 1.9457364537e+00	 1.5456702148e+00
 2.3329100937e-01	 1.9478443490e+00	 1.5817367761e+00
 2.1635172730e-01	 1.9497985234e+00	 1.6108407746e+00
 1.9944771090e-01	 1.9516001200e+00	 1.6343881504e+00
 1.8258077411e-01	 1.9532503062e+00	 1.6536891719e+00
 1.6575269926e-01	 1.9547502734e+00	 1.6699647014e+00
 3.3707098643e-01	 1.9415459962e+00	 1.1823016259e+00
 3.1988297537e-01	 1.9444517253e+00	 1.2848166882e+00
 3.0271880770e-01	 1.9471977040e+00	 1.3720984393e+00
 2.8558048894e-01	 1.9497849434e+00	 1.4457235656e+00
 2.6846999499e-01	 1.9522144839e+00	 1.5071291838e+00
 2.5138927171e-01	 1.9544873939e+00	 1.5576228899e+00
 2.3434023454e-01	 1.9566047694e+00	 1.5983919761e+00
 2.1732476813e-01	 1.9585677328e+00	 1.6305118892e+00
 2.0034472601e-01	 1.9603774320e+00	 1.6549540010e+00
 1.8340193024e-01	 1.9620350399e+00	 1.6725927607e+00
 1.6649817121e-01	 1.9635417532e+00	 1.6842122979e+00
 1.5904345171e-01	 1.8756269553e+00	 1.5186014466e+00
 1.4293823142e-01	 1.8769230258e+00	 1.4999604227e+00
 1.2687357695e-01	 1.8780773568e+00	 1.4649552214e+00
 1.1085106873e-01	 1.8790911537e+00	 1.4145167279e+00
 9.4872257094e-02	 1.8799656418e+00	 1.3495475075e+00
 7.8938662051e-02	 1.8807020647e+00	 1.2709268562e+00
 6.3051773189e-02	 1.8813016841e+00	 1.1795155897e+00
 4.7213049540e-02	 1.8817657788e+00	 1.0761606078e+00
 3.1423919486e-02	 1.8820956438e+00	 9.6169926538e-01
 1.5685780682e-02	 1.8822925895e+00	 8.3696358211e-01
 0.0000000000e+00	 1.8823579412e+00	 7.0278431777e-01
 1.5978892366e-01	 1.8844184351e+00	 1.5259278173e+00
 1.4360821463e-01	 1.8857205806e+00	 1.5161995189e+00
 1.2746826155e-01	 1.8868803221e+00	 1.4916695722e+00
 1.1137065229e-01	 1.8878988710e+00	 1.4515143292e+00
 9.5316944414e-02	 1.8887774579e+00	 1.3949045999e+00
 7.9308665075e-02	 1.8895173326e+00	 1.3210121565e+00
 6.3347310839e-02	 1.8901197626e+00	 1.2290159112e+00
 4.7434347578e-02	 1.8905860326e+00	 1.1181078039e+00
 3.1571210368e-02	 1.8909174437e+00	 9.8749843355e-01
 1.5759303416e-02	 1.8911153126e+00	 8.3642246589e-01
 0.0000000000e+00	 1.8911809706e+00	 6.6414384492e-01
 1.6053439561e-01	 1.8932099149e+00	 1.5379478986e+00
 1.4427819784e-01	 1.8945181354e+00	 1.5361722191e+00
 1.2806294616e-01	 1.8956832875e+00	 1.5207910125e+00
 1.1189023584e-01	 1.8967065882e+00	 1.4895556627e+00
 9.5761631733e-02	 1.8975892741e+00	 1.4402337157e+00
 7.9678668098e-02	 1.8983326006e+00	 1.3706164586e+00
 6.3642848489e-02	 1.8989378411e+00	 1.2785261183e+00
 4.7655645616e-02	 1.8994062864e+00	 1.1618227169e+00
 3.1718501251e-02	 1.8997392437e+00	 1.0184106196e+00
 1.5832826150e-02	 1.8999380357e+00	 8.4624480725e-01
 0.0000000000e+00	 1.9000040000e+00	 6.4333690489e-01
 1.6127986756e-01	 1.9020013947e+00	 1.5536420303e+00
 1.4494818105e-01	 1.9033156901e+00	 1.5586595788e+00
 1.2865763077e-01	 1.9044862529e+00	 1.5509548009e+00
 1.1240981940e-01	 1.9055143055e+00	 1.5271789756e+00
 9.6206319053e-02	 1.9064010903e+00	 1.4840201942e+00
 8.0048671122e-02	 1.9071478685e+00	 1.4182116390e+00
 6.3938386140e-02	 1.9077559196e+00	 1.3265394372e+00
 4.7876943654e-02	 1.9082265403e+00	 1.2058501307e+00
 3.1865792133e-02	 1.9085610437e+00	 1.0530577984e+00
 1.5906348884e-02	 1.9087607588e+00	 8.6515086448e-01
 0.0000000000e+00	 1.9088270294e+00	 6.3919862538e-01
 1.6202533951e-01	 1.9107928745e+00	 1.5720076634e+00
 1.4561816426e-01	 1.9121132449e+00	 1.5824636309e+00
 1.2925231538e-01	 1.9132892182e+00	 1.5808200576e+00
 1.1292940296e-01	 1.9143220227e+00	 1.5629483668e+00
 9.6651006372e-02	 1.9152129065e+00	 1.5247764120e+00
 8.0418674146e-02	 1.9159631365e+00	 1.4622970799e+00
 6.4233923790e-02	 1.9165739981e+00	 1.3715764381e+00
 4.8098241692e-02	 1.9170467941e+00	 1.2487614681e+00
 3.2013083015e-02	 1.9173828436e+00	 1.0900874223e+00
 1.5979871618e-02	 1.9175834819e+00	 8.9188484034e-01
 0.0000000000e+00	 1.9176500588e+00	 6.5058625937e-01
 1.6277081146e-01	 1.9195843543e+00	 1.5920589379e+00
 1.4628814746e-01	 1.9209107996e+00	 1.6064068782e+00
 1.2984699999e-01	 1.9220921836e+00	 1.6090691931e+00
 1.1344898651e-01	 1.9231297400e+00	 1.5954531736e+00
 9.7095693692e-02	 1.9240247226e+00	 1.5610411447e+00
 8.0788677170e-02	 1.9247784044e+00	 1.5013990226e+00
 6.4529461441e-02	 1.9253920766e+00	 1.4121843954e+00
 4.8319539731e-02	 1.9258670479e+00	 1.2891541707e+00
 3.2160373898e-02	 1.9262046436e+00	 1.1281718305e+00
 1.6053394352e-02	 1.9264062049e+00	 9.2521433017e-01
 0.0000000000e+00	 1.9264730883e+00	 6.7637867838e-01
 1.6351628341e-01	 1.9283758340e+00	 1.6128262725e+00
 1.4695813067e-01	 1.9297083544e+00	 1.6293317995e+00
 1.3044168459e-01	 1.9308951489e+00	 1.6344073535e+00
 1.1396857007e-01	 1.9319374572e+00	 1.6233073748e+00
 9.7540381012e-02	 1.9328365388e+00	 1.5913789469e+00
 8.1158680194e-02	 1.9335936724e+00	 1.5340699398e+00
 6.4824999092e-02	 1.9342101551e+00	 1.4469366658e+00
 4.8540837769e-02	 1.9346873017e+00	 1.3256510954e+00
 3.2307664781e-02	 1.9350264435e+00	 1.1660076748e+00
 1.6126917087e-02	 1.9352289280e+00	 9.6392978498e-01
 0.0000000000e+00	 1.9352961177e+00	 7.1547587975e-01
 1.6426175536e-01	 1.9371673138e+00	 1.6333559656e+00
 1.4762811388e-01	 1.9385059091e+00	 1.6501003694e+00
 1.3103636920e-01	 1.9396981143e+00	 1.6555618801e+00
 1.1448815362e-01	 1.9407451745e+00	 1.6451490096e+00
 9.7985068333e-02	 1.9416483550e+00	 1.6143795478e+00
 8.1528683219e-02	 1.9424089403e+00	 1.5588879239e+00
 6.5120536743e-02	 1.9430282336e+00	 1.4744320835e+00
 4.8762135809e-02	 1.9435075555e+00	 1.3568999276e+00
 3.2454955664e-02	 1.9438482435e+00	 1.2023153608e+00
 1.6200439821e-02	 1.9440516511e+00	 1.0068439892e+00
 0.0000000000e+00	 1.9441191471e+00	 7.6679850722e-01
 1.6500722731e-01	 1.9459587936e+00	 1.6527098073e+00
 1.4829809709e-01	 1.9473034639e+00	 1.6675935916e+00
 1.3163105381e-01	 1.9485010797e+00	 1.6712817840e+00
 1.1500773718e-01	 1.9495528917e+00	 1.6596396134e+00
 9.8429755654e-02	 1.9504601711e+00	 1.6286572642e+00
 8.1898686244e-02	 1.9512242083e+00	 1.5744560928e+00
 6.5416074395e-02	 1.9518463121e+00	 1.4932943715e+00
 4.8983433848e-02	 1.9523278093e+00	 1.3815726103e+00
 3.2602246547e-02	 1.9526700435e+00	 1.2358385047e+00
 1.6273962556e-02	 1.9528743742e+00	 1.0527915528e+00
 0.0000000000e+00	 1.9529421765e+00	 8.2928738454e-01
 1.6575269926e-01	 1.9547502734e+00	 1.6699647014e+00
 1.4896808030e-01	 1.9561010187e+00	 1.6807110440e+00
 1.3222573842e-01	 1.9573040450e+00	 1.6803372353e+00
 1.1552732074e-01	 1.9583606090e+00	 1.6654636680e+00
 9.8874442976e-02	 1.9592719873e+00	 1.6328504292e+00
 8.2268689270e-02	 1.9600394762e+00	 1.5794020107e+00
 6.5711612047e-02	 1.9606643906e+00	 1.5021715688e+00
 4.9204731888e-02	 1.9611480631e+00	 1.3983647888e+00
 3.2749537431e-02	 1.9614918434e+00	 1.2653434041e+00
 1.6347485291e-02	 1.9616970973e+00	 1.1006284165e+00
 0.0000000000e+00	 1.9617652059e+00	 9.0190306171e-01
 1.6649817121e-01	 1.9635417532e+00	 1.6842122979e+00
 1.4963806351e-01	 1.9648985734e+00	 1.6883704367e+00
 1.3282042303e-01	 1.9661070104e+00	 1.6815190652e+00
 1.1604690430e-01	 1.9671683262e+00	 1.6613280665e+00
 9.9319130298e-02	 1.9680838035e+00	 1.6256208360e+00
 8.2638692297e-02	 1.9688547442e+00	 1.5723771261e+00
 6.6007149700e-02	 1.9694824691e+00	 1.4997354736e+00
 4.9426029929e-02	 1.9699683169e+00	 1.4059952697e+00
 3.2896828315e-02	 1.9703136434e+00	 1.2896185237e+00
 1.6421008026e-02	 1.9705198204e+00	 1.1492313712e+00
 0.0000000000e+00	 1.9705882353e+00	 9.8362537334e-01
 1.9705882353e+00	 0.0000000000e+00	 1.2219423415e+01
 1.9705198204e+00	 1.6421008026e-02	 7.3681465235e+00
 1.9703136434e+00	 3.2896828315e-02	 3.4800092220e+00
 1.9699683169e+00	 4.9426029929e-02	 4.7039309535e-01
 1.9694824691e+00	 6.6007149700e-02	-1.7464905171e+00
 1.9688547442e+00	 8.2638692297e-02	-3.2574787581e+00
 1.9680838035e+00	 9.9319130298e-02	-4.1503327752e+00
 1.9671683262e+00	 1.1604690430e-01	-4.5136103864e+00
 1.9661070104e+00	 1.3282042303e-01	-4.4365357313e+00
 1.9648985734e+00	 1.4963806351e-01	-4.0088657438e+00
 1.9635417532e+00	 1.6649817121e-01	-3.3207532712e+00
 1.9794112647e+00	 0.0000000000e+00	 1.3234379055e+01
 1.9793425435e+00	 1.6494530761e-02	 7.7471234849e+00
 1.9791354434e+00	 3.3044119200e-02	 3.4083352132e+00
 1.9787885708e+00	 4.9647327970e-02	 1.0928765629e-01
 1.9783005476e+00	 6.6302687354e-02	-2.2597269714e+00
 1.9776700121e+00	 8.3008695325e-02	-3.8092419742e+00
 1.9768956197e+00	 9.9763817621e-02	-4.6504571746e+00
 1.9759760435e+00	 1.1656648786e-01	-4.8950764714e+00
 1.9749099758e+00	 1.3341510764e-01	-4.6551418272e+00
 1.9736961282e+00	 1.5030804672e-01	-4.0428635408e+00
 1.9723332330e+00	 1.6724364317e-01	-3.1704466627e+00
 1.9882342941e+00	 0.0000000000e+00	 1.2911998047e+01
 1.9881652666e+00	 1.6568053497e-02	 7.1637616947e+00
 1.9879572433e+00	 3.3191410085e-02	 2.6641965033e+00
 1.9876088246e+00	 4.9868626012e-02	-7.0805428173e-01
 1.9871186261e+00	 6.6598225009e-02	-3.0750425641e+00
 1.9864852801e+00	 8.3378698353e-02	-4.5593380653e+00
 1.9857074358e+00	 1.0020850495e-01	-5.2838474997e+00
 1.9847837608e+00	 1.1708607142e-01	-5.3716301523e+00
 1.9837129411e+00	 1.3400979225e-01	-4.9457097385e+00
 1.9824936829e+00	 1.5097802994e-01	-4.1288824249e+00
 1.9811247128e+00	 1.6798911512e-01	-3.0435208813e+00
 1.9970573235e+00	 0.0000000000e+00	 1.1278661159e+01
 1.9969879897e+00	 1.6641576232e-02	 5.6466991548e+00
 1.9967790433e+00	 3.3338700970e-02	 1.2775637539e+00
 1.9964290784e+00	 5.0089924054e-02	-1.9514151148e+00
 1.9959367046e+00	 6.6893762664e-02	-4.1632207043e+00
 1.9953005480e+00	 8.3748701382e-02	-5.4809626536e+00
 1.9945192520e+00	 1.0065319227e-01	-6.0276869486e+00
 1.9935914780e+00	 1.1760565498e-01	-5.9261825455e+00
 1.9925159065e+00	 1.3460447687e-01	-5.2987845474e+00
 1.9912912377e+00	 1.5164801315e-01	-4.2671738161e+00
 1.9899161926e+00	 1.6873458708e-01	-2.9521729002e+00
 2.0058803529e+00	 0.0000000000e+00	 8.3602983005e+00
 2.0058107128e+00	 1.6715098968e-02	 3.2240796491e+00
 2.0056008432e+00	 3.3485991856e-02	-7.2211353467e-01
 2.0052493322e+00	 5.0311222096e-02	-3.5911060656e+00
 2.0047547831e+00	 6.7189300319e-02	-5.4955591392e+00
 2.0041158160e+00	 8.4118704411e-02	-6.5477861635e+00
 2.0033310682e+00	 1.0109787960e-01	-6.8595660255e+00
 2.0023991953e+00	 1.1812523854e-01	-6.5419536970e+00
 2.0013188718e+00	 1.3519916148e-01	-5.7050880709e+00
 2.0000887924e+00	 1.5231799636e-01	-4.4579969115e+00
 1.9987076723e+00	 1.6948005903e-01	-2.9083987953e+00
 2.0147033823e+00	 0.0000000000e+00	 4.1823983987e+00
 2.0146334358e+00	 1.6788621704e-02	-7.6436478343e-02
 2.0144226432e+00	 3.3633282741e-02	-3.3058956912e+00
 2.0140695860e+00	 5.0532520139e-02	-5.5979557145e+00
 2.0135728616e+00	 6.7484837975e-02	-7.0438588250e+00
 2.0129310839e+00	 8.4488707440e-02	-7.7339435718e+00
 2.0121428843e+00	 1.0154256692e-01	-7.7574737776e+00
 2.0112069125e+00	 1.1864482210e-01	-7.2024659710e+00
 2.0101218372e+00	 1.3579384609e-01	-6.1555151344e+00
 2.0088863472e+00	 1.5298797958e-01	-4.7016186401e+00
 2.0074991521e+00	 1.7022553099e-01	-2.9239982409e+00
 2.0235264118e+00	 0.0000000000e+00	-1.2299809898e+00
 2.0234561589e+00	 1.6862144440e-02	-4.2276618266e+00
 2.0232444432e+00	 3.3780573627e-02	-6.4453418391e+00
 2.0228898398e+00	 5.0753818181e-02	-7.9432988293e+00
 2.0223909401e+00	 6.7780375630e-02	-8.7804130877e+00
 2.0217463519e+00	 8.4858710470e-02	-9.0140244263e+00
 2.0209547005e+00	 1.0198725425e-01	-8.6997892581e+00
 2.0200146298e+00	 1.1916440566e-01	-7.8915376102e+00
 2.0189248026e+00	 1.3638853071e-01	-6.6411299407e+00
 2.0176839020e+00	 1.5365796279e-01	-4.9983136153e+00
 2.0162906319e+00	 1.7097100294e-01	-3.0105788848e+00
 2.0323494412e+00	 0.0000000000e+00	-7.8522043149e+00
 2.0322788820e+00	 1.6935667176e-02	-9.2028717153e+00
 2.0320662431e+00	 3.3927864512e-02	-1.0112499148e+01
 2.0317100936e+00	 5.0975116224e-02	-1.0598965486e+01
 2.0312090186e+00	 6.8075913286e-02	-1.0677997066e+01
 2.0305616198e+00	 8.5228713499e-02	-1.0363063124e+01
 2.0297665167e+00	 1.0243194157e-01	-9.6652732121e+00
 2.0288223470e+00	 1.1968398923e-01	-8.5932764613e+00
 2.0277277679e+00	 1.3698321532e-01	-7.1531625310e+00
 2.0264814567e+00	 1.5432794601e-01	-5.3483640860e+00
 2.0250821117e+00	 1.7171647490e-01	-3.1795606047e+00
 2.0411724706e+00	 0.0000000000e+00	-1.5660048912e+01
 2.0411016051e+00	 1.7009189911e-02	-1.4975794226e+01
 2.0408880431e+00	 3.4075155398e-02	-1.4279892365e+01
 2.0405303474e+00	 5.1196414266e-02	-1.3537270473e+01
 2.0400270971e+00	 6.8371450941e-02	-1.2709857427e+01
 2.0393768878e+00	 8.5598716529e-02	-1.1756529437e+01
 2.0385783329e+00	 1.0287662890e-01	-1.0633059975e+01
 2.0376300643e+00	 1.2020357279e-01	-9.2920738625e+00
 2.0365307333e+00	 1.3757789993e-01	-7.6830053347e+00
 2.0352790115e+00	 1.5499792922e-01	-5.7520598854e+00
 2.0338735915e+00	 1.7246194685e-01	-3.4421796514e+00
 2.0499955000e+00	 0.0000000000e+00	-2.4629696119e+01
 2.0499243282e+00	 1.7082712647e-02	-2.1520600503e+01
 2.0497098431e+00	 3.4222446283e-02	-1.8920513614e+01
 2.0493506013e+00	 5.1417712308e-02	-1.6731002965e+01
 2.0488451756e+00	 6.8666988596e-02	-1.4849702347e+01
 2.0481921557e+00	 8.5968719558e-02	-1.3170319289e+01
 2.0473901490e+00	 1.0332131622e-01	-1.1582649581e+01
 2.0464377815e+00	 1.2072315635e-01	-9.9725986855e+00
 2.0453336986e+00	 1.3817258455e-01	-8.2222098071e+00
 2.0440765662e+00	 1.5566791243e-01	-6.2096983787e+00
 2.0426650713e+00	 1.7320741881e-01	-3.8094926799e+00
 2.0588185294e+00	 0.0000000000e+00	-3.4737722615e+01
 2.0587470513e+00	 1.7156235382e-02	-2.8811895299e+01
 2.0585316430e+00	 3.4369737168e-02	-2.4007812463e+01
 2.0581708551e+00	 5.1639010350e-02	-2.0153416465e+01
 2.0576632541e+00	 6.8962526251e-02	-1.7071691750e+01
 2.0570074237e+00	 8.6338722586e-02	-1.4580745760e+01
 2.0562019652e+00	 1.0376600355e-01	-1.2493900070e+01
 2.0552454988e+00	 1.2124273991e-01	-1.0619791531e+01
 2.0541366640e+00	 1.3876726916e-01	-8.7624831499e+00
 2.0528741210e+00	 1.5633789565e-01	-6.7215844082e+00
 2.0514565511e+00	 1.7395289077e-01	-4.2923806742e+00
 1.9635417532e+00	 1.6649817121e-01	-3.3207532712e+00
 1.9620350399e+00	 1.8340193024e-01	-2.5822650022e+00
 1.9603774320e+00	 2.0034472601e-01	-1.9311349193e+00
 1.9585677328e+00	 2.1732476813e-01	-1.3498748681e+00
 1.9566047694e+00	 2.3434023454e-01	-8.2242234103e-01
 1.9544873939e+00	 2.5138927171e-01	-3.3417623465e-01
 1.9522144839e+00	 2.6846999499e-01	 1.2796925921e-01
 1.9497849434e+00	 2.8558048894e-01	 5.7559301585e-01
 1.9471977040e+00	 3.0271880770e-01	 1.0187179774e+00
 1.9444517253e+00	 3.1988297537e-01	 1.4657851688e+00
 1.9415459962e+00	 3.3707098643e-01	 1.9236311010e+00
 1.9723332330e+00	 1.6724364317e-01	-3.1704466627e+00
 1.9708197736e+00	 1.8422308638e-01	-2.2899850397e+00
 1.9691547440e+00	 2.0124174111e-01	-1.5578558382e+00
 1.9673369421e+00	 2.1829780897e-01	-9.4345798162e-01
 1.9653651898e+00	 2.3538945972e-01	-4.1807084953e-01
 1.9632383341e+00	 2.5251483153e-01	 4.5081787430e-02
 1.9609552474e+00	 2.6967203132e-01	 4.7076974121e-01
 1.9585148290e+00	 2.8685913508e-01	 8.8169673173e-01
 1.9559160056e+00	 3.0407418824e-01	 1.2984435055e+00
 1.9531577322e+00	 3.2131520604e-01	 1.7394141849e+00
 1.9502389931e+00	 3.3858017398e-01	 2.2207862763e+00
 1.9811247128e+00	 1.6798911512e-01	-3.0435208813e+00
 1.9796045073e+00	 1.8504424252e-01	-1.9830892401e+00
 1.9779320560e+00	 2.0213875621e-01	-1.1319786954e+00
 1.9761061514e+00	 2.1927084980e-01	-4.4950820926e-01
 1.9741256102e+00	 2.3643868489e-01	 1.0280823839e-01
 1.9719892742e+00	 2.5364039135e-01	 5.6117622130e-01
 1.9696960109e+00	 2.7087406766e-01	 9.5943737041e-01
 1.9672447146e+00	 2.8813778123e-01	 1.3289882978e+00
 1.9646343072e+00	 3.0542956878e-01	 1.6987024294e+00
 1.9618637391e+00	 3.2274743671e-01	 2.0948552316e+00
 1.9589319900e+00	 3.4008936153e-01	 2.5410533078e+00
 1.9899161926e+00	 1.6873458708e-01	-2.9521729002e+00
 1.9883892410e+00	 1.8586539866e-01	-1.6856017042e+00
 1.9867093680e+00	 2.0303577132e-01	-6.8673149193e-01
 1.9848753607e+00	 2.2024389064e-01	 9.2211792961e-02
 1.9828860307e+00	 2.3748791006e-01	 6.9663167775e-01
 1.9807402144e+00	 2.5476595117e-01	 1.1694608694e+00
 1.9784367745e+00	 2.7207610400e-01	 1.5510628986e+00
 1.9759746003e+00	 2.8941642738e-01	 1.8791362235e+00
 1.9733526089e+00	 3.0678494932e-01	 2.1886213175e+00
 1.9705697460e+00	 3.2417966737e-01	 2.5116112645e+00
 1.9676249869e+00	 3.4159854908e-01	 2.8772663739e+00
 1.9987076723e+00	 1.6948005903e-01	-2.9083987953e+00
 1.9971739747e+00	 1.8668655480e-01	-1.4211387078e+00
 1.9954866800e+00	 2.0393278642e-01	-2.5477327680e-01
 1.9936445700e+00	 2.2121693148e-01	 6.4262285214e-01
 1.9916464511e+00	 2.3853713524e-01	 1.3205668674e+00
 1.9894911546e+00	 2.5589151099e-01	 1.8260592141e+00
 1.9871775380e+00	 2.7327814034e-01	 2.2034769364e+00
 1.9847044859e+00	 2.9069507353e-01	 2.4944694878e+00
 1.9820709105e+00	 3.0814032986e-01	 2.7378575641e+00
 1.9792757529e+00	 3.2561189804e-01	 2.9695355039e+00
 1.9763179838e+00	 3.4310773663e-01	 3.2223778006e+00
 2.0074991521e+00	 1.7022553099e-01	-2.9239982409e+00
 2.0059587084e+00	 1.8750771094e-01	-1.2129176917e+00
 2.0042639920e+00	 2.0482980153e-01	 1.3179338142e-01
 2.0024137793e+00	 2.2218997231e-01	 1.1633143557e+00
 2.0004068715e+00	 2.3958636041e-01	 1.9325155231e+00
 1.9982420948e+00	 2.5701707081e-01	 2.4878477508e+00
 1.9959183016e+00	 2.7448017667e-01	 2.8752340258e+00
 1.9934343715e+00	 2.9197371968e-01	 3.1379634484e+00
 1.9907892121e+00	 3.0949571040e-01	 3.3165882451e+00
 1.9879817598e+00	 3.2704412871e-01	 3.4488243624e+00
 1.9850109807e+00	 3.4461692418e-01	 3.5694562014e+00
 2.0162906319e+00	 1.7097100294e-01	-3.0105788848e+00
 2.0147434421e+00	 1.8832886708e-01	-1.0837660115e+00
 2.0130413039e+00	 2.0572681663e-01	 4.4141025508e-01
 2.0111829887e+00	 2.2316301315e-01	 1.6165297258e+00
 2.0091672920e+00	 2.4063558559e-01	 2.4910977860e+00
 2.0069930350e+00	 2.5814263063e-01	 3.1124397661e+00
 2.0046590651e+00	 2.7568221301e-01	 3.5255971408e+00
 2.0021642571e+00	 2.9325236582e-01	 3.7732261305e+00
 1.9995075137e+00	 3.1085109094e-01	 3.8954992782e+00
 1.9966877667e+00	 3.2847635937e-01	 3.9300105725e+00
 1.9937039777e+00	 3.4612611173e-01	 3.9116846812e+00
 2.0250821117e+00	 1.7171647490e-01	-3.1795606047e+00
 2.0235281758e+00	 1.8915002322e-01	-1.0561294553e+00
 2.0218186159e+00	 2.0662383174e-01	 6.4305163988e-01
 2.0199521980e+00	 2.2413605399e-01	 1.9651522786e+00
 2.0179277124e+00	 2.4168481076e-01	 2.9556367524e+00
 2.0157439751e+00	 2.5926819046e-01	 3.6581695474e+00
 2.0133998287e+00	 2.7688424935e-01	 4.1145226016e+00
 2.0108941428e+00	 2.9453101197e-01	 4.3644848855e+00
 2.0082258154e+00	 3.1220647148e-01	 4.4457748789e+00
 2.0053937736e+00	 3.2990859004e-01	 4.3939565084e+00
 2.0023969746e+00	 3.4763529928e-01	 4.2423591054e+00
 2.0338735915e+00	 1.7246194685e-01	-3.4421796514e+00
 2.0323129095e+00	 1.8997117936e-01	-1.1520805358e+00
 2.0305959279e+00	 2.0752084685e-01	 7.0621284935e-01
 2.0287214073e+00	 2.2510909482e-01	 2.1726914575e+00
 2.0266881328e+00	 2.4273403594e-01	 3.2861434126e+00
 2.0244949153e+00	 2.6039375028e-01	 4.0840770117e+00
 2.0221405922e+00	 2.7808628569e-01	 4.6026453902e+00
 2.0196240284e+00	 2.9580965812e-01	 4.8765734067e+00
 2.0169441170e+00	 3.1356185202e-01	 4.9390873036e+00
 2.0140997805e+00	 3.3134082071e-01	 4.8218476953e+00
 2.0110899715e+00	 3.4914448683e-01	 4.5548864287e+00
 2.0426650713e+00	 1.7320741881e-01	-3.8094926799e+00
 2.0410976432e+00	 1.9079233550e-01	-1.3933265630e+00
 2.0393732399e+00	 2.0841786195e-01	 6.0089901210e-01
 2.0374906166e+00	 2.2608213566e-01	 2.2032694277e+00
 2.0354485532e+00	 2.4378326111e-01	 3.4433019870e+00
 2.0332458555e+00	 2.6151931010e-01	 4.3498927392e+00
 2.0308813558e+00	 2.7928832202e-01	 4.9512648558e+00
 2.0283539140e+00	 2.9708830427e-01	 5.2749190924e+00
 2.0256624186e+00	 3.1491723256e-01	 5.3475868701e+00
 2.0228057874e+00	 3.3277305137e-01	 5.1951865019e+00
 2.0197829684e+00	 3.5065367438e-01	 4.8427830845e+00
 2.0514565511e+00	 1.7395289077e-01	-4.2923806742e+00
 2.0498823769e+00	 1.9161349164e-01	-1.8012175051e+00
 2.0481505519e+00	 2.0931487706e-01	 2.9761416266e-01
 2.0462598259e+00	 2.2705517649e-01	 2.0216080226e+00
 2.0442089737e+00	 2.4483248629e-01	 3.3884556461e+00
 2.0419967957e+00	 2.6264486992e-01	 4.4160234021e+00
 2.0396221193e+00	 2.8049035836e-01	 5.1223307980e+00
 2.0370837996e+00	 2.9836695041e-01	 5.5255307455e+00
 2.0343807202e+00	 3.1627261310e-01	 5.6438922485e+00
 2.0315117943e+00	 3.3420528204e-01	 5.4957860090e+00
 2.0284759653e+00	 3.5216286193e-01	 5.0996734322e+00
 1.9415459962e+00	 3.3707098643e-01	 1.9236311010e+00
 1.9384800701e+00	 3.5427787987e-01	 2.3915937098e+00
 1.9352525155e+00	 3.7150451682e-01	 2.8542319306e+00
 1.9318624125e+00	 3.8874881144e-01	 3.2569836795e+00
 1.9283088737e+00	 4.0600865027e-01	 3.5621489793e+00
 1.9245910451e+00	 4.2328189282e-01	 3.7666925222e+00
 1.9207081067e+00	 4.4056637214e-01	 3.8687381856e+00
 1.9166592732e+00	 4.5785989543e-01	 3.8675519693e+00
 1.9124437954e+00	 4.7516024463e-01	 3.7635213472e+00
 1.9080609604e+00	 4.9246517711e-01	 3.5581307871e+00
 1.9035100927e+00	 5.0977242635e-01	 3.2539332066e+00
 1.9502389931e+00	 3.3858017398e-01	 2.2207862763e+00
 1.9471593398e+00	 3.5586410884e-01	 2.7735705365e+00
 1.9439173342e+00	 3.7316787562e-01	 3.3944037947e+00
 1.9405120525e+00	 3.9048937912e-01	 4.0034493648e+00
 1.9369426033e+00	 4.0782649643e-01	 4.5504060909e+00
 1.9332081286e+00	 4.2517707748e-01	 5.0142113124e+00
 1.9293078049e+00	 4.4253894561e-01	 5.3753804625e+00
 1.9252408433e+00	 4.5990989819e-01	 5.6160221622e+00
 1.9210064914e+00	 4.7728770725e-01	 5.7198497127e+00
 1.9166040328e+00	 4.9467012011e-01	 5.6721886822e+00
 1.9120327892e+00	 5.1205486010e-01	 5.4599802955e+00
 1.9589319900e+00	 3.4008936153e-01	 2.5410533078e+00
 1.9558386094e+00	 3.5745033782e-01	 3.1069540623e+00
 1.9525821529e+00	 3.7483123442e-01	 3.8108408684e+00
 1.9491616925e+00	 3.9222994681e-01	 4.5521393202e+00
 1.9455763329e+00	 4.0964434260e-01	 5.2705713312e+00
 1.9418252122e+00	 4.2707226214e-01	 5.9299188447e+00
 1.9379075031e+00	 4.4451151907e-01	 6.4958205758e+00
 1.9338224135e+00	 4.6195990095e-01	 6.9358131236e+00
 1.9295691873e+00	 4.7941516987e-01	 7.2193685274e+00
 1.9251471052e+00	 4.9687506312e-01	 7.3179279153e+00
 1.9205554858e+00	 5.1433729386e-01	 7.2049309028e+00
 1.9676249869e+00	 3.4159854908e-01	 2.8772663739e+00
 1.9645178791e+00	 3.5903656679e-01	 3.3982889703e+00
 1.9612469717e+00	 3.7649459322e-01	 4.1215443205e+00
 1.9578113326e+00	 3.9397051449e-01	 4.9303063623e+00
 1.9542100624e+00	 4.1146218876e-01	 5.7568112972e+00
 1.9504422957e+00	 4.2896744680e-01	 6.5525154999e+00
 1.9465072013e+00	 4.4648409254e-01	 7.2708717604e+00
 1.9424039836e+00	 4.6400990371e-01	 7.8673903267e+00
 1.9381318832e+00	 4.8154263249e-01	 8.2996964972e+00
 1.9336901776e+00	 4.9908000612e-01	 8.5275843723e+00
 1.9290781823e+00	 5.1661972762e-01	 8.5130663875e+00
 1.9763179838e+00	 3.4310773663e-01	 3.2223778006e+00
 1.9731971487e+00	 3.6062279577e-01	 3.6539997365e+00
 1.9699117904e+00	 3.7815795202e-01	 4.3442105123e+00
 1.9664609726e+00	 3.9571108217e-01	 5.1647373357e+00
 1.9628437920e+00	 4.1328003493e-01	 6.0427064888e+00
 1.9590593792e+00	 4.3086263145e-01	 6.9200372076e+00
 1.9551068995e+00	 4.4845666600e-01	 7.7406469297e+00
 1.9509855537e+00	 4.6605990648e-01	 8.4505262284e+00
 1.9466945791e+00	 4.8367009512e-01	 8.9978104600e+00
 1.9422332501e+00	 5.0128494912e-01	 9.3328477102e+00
 1.9376008788e+00	 5.1890216138e-01	 9.4082626316e+00
 1.9850109807e+00	 3.4461692418e-01	 3.5694562014e+00
 1.9818764184e+00	 3.6220902474e-01	 3.8803941280e+00
 1.9785766092e+00	 3.7982131082e-01	 4.4962379533e+00
 1.9751106126e+00	 3.9745164986e-01	 5.2817635788e+00
 1.9714775216e+00	 4.1509788109e-01	 6.1612643816e+00
 1.9676764627e+00	 4.3275781611e-01	 7.0698702076e+00
 1.9637065977e+00	 4.5042923946e-01	 7.9445741914e+00
 1.9595671239e+00	 4.6810990924e-01	 8.7243155884e+00
 1.9552572751e+00	 4.8579755774e-01	 9.3500595455e+00
 1.9507763225e+00	 5.0348989212e-01	 9.7648733783e+00
 1.9461235754e+00	 5.2118459513e-01	 9.9139989302e+00
 1.9937039777e+00	 3.4612611173e-01	 3.9116846812e+00
 1.9905556880e+00	 3.6379525372e-01	 4.0836666280e+00
 1.9872414279e+00	 3.8148466962e-01	 4.5947340684e+00
 1.9837602527e+00	 3.9919221754e-01	 5.3072711083e+00
 1.9801112511e+00	 4.1691572725e-01	 6.1449321492e+00
 1.9762935462e+00	 4.3465300077e-01	 7.0387654158e+00
 1.9723062959e+00	 4.5240181292e-01	 7.9214119464e+00
 1.9681486940e+00	 4.7015991200e-01	 8.7271903777e+00
 1.9638199710e+00	 4.8792502036e-01	 9.3921789527e+00
 1.9593193949e+00	 5.0569483513e-01	 9.8542943114e+00
 1.9546462719e+00	 5.2346702889e-01	 1.0053366636e+01
 2.0023969746e+00	 3.4763529928e-01	 4.2423591054e+00
 1.9992349577e+00	 3.6538148269e-01	 4.2699017906e+00
 1.9959062466e+00	 3.8314802842e-01	 4.6565217819e+00
 1.9924098927e+00	 4.0093278522e-01	 5.2667105305e+00
 1.9887449807e+00	 4.1873357342e-01	 6.0256090463e+00
 1.9849106297e+00	 4.3654818543e-01	 6.8628524071e+00
 1.9809059941e+00	 4.5437438639e-01	 7.7092635855e+00
 1.9767302641e+00	 4.7220991476e-01	 8.4969342873e+00
 1.9723826669e+00	 4.9005248298e-01	 9.1593033562e+00
 1.9678624673e+00	 5.0789977813e-01	 9.6312323071e+00
 1.9631689684e+00	 5.2574946265e-01	 9.8490775618e+00
 2.0110899715e+00	 3.4914448683e-01	 4.5548864287e+00
 2.0079142273e+00	 3.6696771167e-01	 4.4450775261e+00
 2.0045710654e+00	 3.8481138722e-01	 4.6981459241e+00
 2.0010595327e+00	 4.0267335290e-01	 5.1851066888e+00
 1.9973787103e+00	 4.2055141958e-01	 5.8346584627e+00
 1.9935277133e+00	 4.3844337008e-01	 6.5776530268e+00
 1.9895056923e+00	 4.5634695985e-01	 7.3455917944e+00
 1.9853118343e+00	 4.7425991752e-01	 8.0706968499e+00
 1.9809453628e+00	 4.9217994560e-01	 8.6859799544e+00
 1.9764055397e+00	 5.1010472113e-01	 9.1253090938e+00
 1.9716916650e+00	 5.2803189640e-01	 9.3234721586e+00
 2.0197829684e+00	 3.5065367438e-01	 4.8427830845e+00
 2.0165934970e+00	 3.6855394064e-01	 4.6150683206e+00
 2.0132358841e+00	 3.8647474601e-01	 4.7358794660e+00
 2.0097091728e+00	 4.0441392058e-01	 5.0870680542e+00
 2.0060124398e+00	 4.2236926574e-01	 5.6029196572e+00
 2.0021447968e+00	 4.4033855474e-01	 6.2180946410e+00
 1.9981053905e+00	 4.5831953331e-01	 6.8672324800e+00
 1.9938934044e+00	 4.7630992028e-01	 7.4850071870e+00
 1.9895080588e+00	 4.9430740822e-01	 8.0061811678e+00
 1.9849486121e+00	 5.1230966413e-01	 8.3656571017e+00
 1.9802143615e+00	 5.3031433016e-01	 8.4985274595e+00
 2.0284759653e+00	 3.5216286193e-01	 5.0996734322e+00
 2.0252727667e+00	 3.7014016961e-01	 4.7856483901e+00
 2.0219007028e+00	 3.8813810481e-01	 4.7857295871e+00
 2.0183588128e+00	 4.0615448827e-01	 4.9967958676e+00
 2.0146461694e+00	 4.2418711190e-01	 5.3607191822e+00
 2.0107618803e+00	 4.4223373939e-01	 5.8185230381e+00
 2.0067050887e+00	 4.6029210677e-01	 6.3104083288e+00
 2.0024749745e+00	 4.7835992304e-01	 6.7757873908e+00
 1.9980707547e+00	 4.9643487084e-01	 7.1533169998e+00
 1.9934916845e+00	 5.1451460713e-01	 7.3809299433e+00
 1.9887370581e+00	 5.3259676391e-01	 7.3958648130e+00
 1.9035100927e+00	 5.0977242635e-01	 3.2539332066e+00
 1.8987905551e+00	 5.2707970286e-01	 2.9712591064e+00
 1.8939017510e+00	 5.4438469569e-01	 2.8178452647e+00
 1.8888431238e+00	 5.6168507249e-01	 2.7778010219e+00
 1.8836141573e+00	 5.7897848006e-01	 2.8347618492e+00
 1.8782143759e+00	 5.9626254515e-01	 2.9718531285e+00
 1.8726433462e+00	 6.1353487531e-01	 3.1716510490e+00
 1.8669006767e+00	 6.3079305973e-01	 3.4161405626e+00
 1.8609860192e+00	 6.4803467015e-01	 3.6866703733e+00
 1.8548990690e+00	 6.6525726174e-01	 3.9639049642e+00
 1.8486395656e+00	 6.8245837404e-01	 4.2251487854e+00
 1.9120327892e+00	 5.1205486010e-01	 5.4599802955e+00
 1.9072921205e+00	 5.2943962749e-01	 5.1824861569e+00
 1.9023814275e+00	 5.4682210098e-01	 4.9460677621e+00
 1.8973001511e+00	 5.6419993776e-01	 4.7491330501e+00
 1.8920477726e+00	 5.8157077411e-01	 4.5895204481e+00
 1.8866238145e+00	 5.9893222615e-01	 4.4644421215e+00
 1.8810278413e+00	 6.1628189072e-01	 4.3704239781e+00
 1.8752594598e+00	 6.3361734621e-01	 4.3032423916e+00
 1.8693183203e+00	 6.5093615350e-01	 4.2578576412e+00
 1.8632041166e+00	 6.6823585680e-01	 4.2283440985e+00
 1.8569165872e+00	 6.8551398464e-01	 4.2078172269e+00
 1.9205554858e+00	 5.1433729386e-01	 7.2049309028e+00
 1.9157936860e+00	 5.3179955213e-01	 6.9544277338e+00
 1.9108611041e+00	 5.4925950626e-01	 6.6652160243e+00
 1.9057571784e+00	 5.6671480303e-01	 6.3489443510e+00
 1.9004813879e+00	 5.8416306816e-01	 6.0166348696e+00
 1.8950332530e+00	 6.0160190715e-01	 5.6786078523e+00
 1.8894123363e+00	 6.1902890613e-01	 5.3444025889e+00
 1.8836182429e+00	 6.3644163270e-01	 5.0226946337e+00
 1.8776506213e+00	 6.5383763685e-01	 4.7212094183e+00
 1.8715091642e+00	 6.7121445186e-01	 4.4466322802e+00
 1.8651936087e+00	 6.8856959524e-01	 4.2045149987e+00
 1.9290781823e+00	 5.1661972762e-01	 8.5130663875e+00
 1.9242952515e+00	 5.3415947676e-01	 8.3024345940e+00
 1.9193407806e+00	 5.5169691155e-01	 7.9823615790e+00
 1.9142142056e+00	 5.6922966830e-01	 7.5766914975e+00
 1.9089150032e+00	 5.8675536221e-01	 7.1086235747e+00
 1.9034426916e+00	 6.0427158815e-01	 6.6006197357e+00
 1.8977968314e+00	 6.2177592154e-01	 6.0743081772e+00
 1.8919770259e+00	 6.3926591918e-01	 5.5503828825e+00
 1.8859829223e+00	 6.5673912020e-01	 5.0484991137e+00
 1.8798142117e+00	 6.7419304692e-01	 4.5871649517e+00
 1.8734706302e+00	 6.9162520584e-01	 4.1836289944e+00
 1.9376008788e+00	 5.1890216138e-01	 9.4082626316e+00
 1.9327968170e+00	 5.3651940139e-01	 9.2416098044e+00
 1.9278204572e+00	 5.5413431683e-01	 8.9044744494e+00
 1.9226712329e+00	 5.7174453357e-01	 8.4318639125e+00
 1.9173486185e+00	 5.8934765626e-01	 7.8581601771e+00
 1.9118521302e+00	 6.0694126915e-01	 7.2170123739e+00
 1.9061813264e+00	 6.2452293695e-01	 6.5412247868e+00
 1.9003358090e+00	 6.4209020566e-01	 5.8626403650e+00
 1.8943152234e+00	 6.5964060354e-01	 5.2120197885e+00
 1.8881192593e+00	 6.7717164198e-01	 4.6189161747e+00
 1.8817476518e+00	 6.9468081645e-01	 4.1115455537e+00
 1.9461235754e+00	 5.2118459513e-01	 9.9139989302e+00
 1.9412983825e+00	 5.3887932603e-01	 9.7868141236e+00
 1.9363001337e+00	 5.5657172212e-01	 9.4384252768e+00
 1.9311282602e+00	 5.7425939884e-01	 8.9139829887e+00
 1.9257822338e+00	 5.9193995031e-01	 8.2580698181e+00
 1.9202615687e+00	 6.0961095015e-01	 7.5145794522e+00
 1.9145658215e+00	 6.2726995236e-01	 6.7265908942e+00
 1.9086945921e+00	 6.4491449215e-01	 5.9362376888e+00
 1.9026475244e+00	 6.6254208689e-01	 5.1845722425e+00
 1.8964243069e+00	 6.8015023704e-01	 4.5114253396e+00
 1.8900246733e+00	 6.9773642705e-01	 3.9552609933e+00
 1.9546462719e+00	 5.2346702889e-01	 1.0053366636e+01
 1.9497999479e+00	 5.4123925066e-01	 9.9526712286e+00
 1.9447798103e+00	 5.5900912740e-01	 9.5909873737e+00
 1.9395852874e+00	 5.7677426411e-01	 9.0226012141e+00
 1.9342158491e+00	 5.9453224436e-01	 8.3013256191e+00
 1.9286710073e+00	 6.1228063115e-01	 7.4803677748e+00
 1.9229503165e+00	 6.3001696777e-01	 6.6121912893e+00
 1.9170533751e+00	 6.4773877863e-01	 5.7483728343e+00
 1.9109798254e+00	 6.6544357024e-01	 4.9394533898e+00
 1.9047293545e+00	 6.8312883210e-01	 4.2347841968e+00
 1.8983016948e+00	 7.0079203765e-01	 3.6823675737e+00
 1.9631689684e+00	 5.2574946265e-01	 9.8490775618e+00
 1.9583015134e+00	 5.4359917529e-01	 9.7535727899e+00
 1.9532594868e+00	 5.6144653269e-01	 9.3688387056e+00
 1.9480423147e+00	 5.7928912938e-01	 8.7573013032e+00
 1.9426494644e+00	 5.9712453841e-01	 7.9810452071e+00
 1.9370804458e+00	 6.1495031215e-01	 7.1016714361e+00
 1.9313348116e+00	 6.3276398318e-01	 6.1801491474e+00
 1.9254121582e+00	 6.5056306511e-01	 5.2766613870e+00
 1.9193121264e+00	 6.6834505359e-01	 4.4504449127e+00
 1.9130344020e+00	 6.8610742717e-01	 3.7596242016e+00
 1.9065787164e+00	 7.0384764826e-01	 3.2610398052e+00
 1.9716916650e+00	 5.2803189640e-01	 9.3234721586e+00
 1.9668030789e+00	 5.4595909993e-01	 9.2036834012e+00
 1.9617391634e+00	 5.6388393797e-01	 8.7785638067e+00
 1.9564993420e+00	 5.8180399465e-01	 8.1176953338e+00
 1.9510830797e+00	 5.9971683246e-01	 7.2904873131e+00
 1.9454898844e+00	 6.1761999316e-01	 6.3660261234e+00
 1.9397193067e+00	 6.3551099859e-01	 5.4129182857e+00
 1.9337709413e+00	 6.5338735160e-01	 4.4991269995e+00
 1.9276444275e+00	 6.7124653694e-01	 3.6918021873e+00
 1.9213394496e+00	 6.8908602223e-01	 3.0571041622e+00
 1.9148557379e+00	 7.0690325886e-01	 2.6600210829e+00
 1.9802143615e+00	 5.3031433016e-01	 8.4985274595e+00
 1.9753046444e+00	 5.4831902456e-01	 8.3169453659e+00
 1.9702188399e+00	 5.6632134326e-01	 7.8266556301e+00
 1.9649563692e+00	 5.8431885992e-01	 7.1034238892e+00
 1.9595166950e+00	 6.0230912651e-01	 6.2230484393e+00
 1.9538993229e+00	 6.2028967416e-01	 5.2612035484e+00
 1.9481038017e+00	 6.3825801400e-01	 4.2932755996e+00
 1.9421297244e+00	 6.5621163808e-01	 3.3941920788e+00
 1.9359767285e+00	 6.7414802029e-01	 2.6382434714e+00
 1.9296444972e+00	 6.9206461729e-01	 2.0988981818e+00
 1.9231327594e+00	 7.0995886946e-01	 1.8486106401e+00
 1.9887370581e+00	 5.3259676391e-01	 7.3958648130e+00
 1.9838062098e+00	 5.5067894919e-01	 7.1070833470e+00
 1.9786985165e+00	 5.6875874854e-01	 6.5195173342e+00
 1.9734133965e+00	 5.8683372519e-01	 5.7141552057e+00
 1.9679503103e+00	 6.0490142056e-01	 4.7722595944e+00
 1.9623087615e+00	 6.2295935516e-01	 3.7752060014e+00
 1.9564882968e+00	 6.4100502941e-01	 2.8043136723e+00
 1.9504885074e+00	 6.5903592457e-01	 1.9406686908e+00
 1.9443090295e+00	 6.7704950364e-01	 1.2649393466e+00
 1.9379495447e+00	 6.9504321235e-01	 8.5718388675e-01
 1.9314097810e+00	 7.1301448007e-01	 7.9665081205e-01
 1.8486395656e+00	 6.8245837404e-01	 4.2251487854e+00
 1.8422061850e+00	 6.9963844990e-01	 4.3002790710e+00
 1.8355998053e+00	 7.1679207226e-01	 4.0833457622e+00
 1.8288203008e+00	 7.3391673744e-01	 3.6294899253e+00
 1.8218675923e+00	 7.5100993004e-01	 2.9957725683e+00
 1.8147416478e+00	 7.6806912395e-01	 2.2519054653e+00
 1.8074424822e+00	 7.8509178342e-01	 1.4582936739e+00
 1.7999701588e+00	 8.0207536413e-01	 6.7331648685e-01
 1.7923247887e+00	 8.1901731432e-01	-4.5438459923e-02
 1.7845065320e+00	 8.3591507583e-01	-6.4126042967e-01
 1.7765155975e+00	 8.5276608528e-01	-1.0584072863e+00
 1.8569165872e+00	 6.8551398464e-01	 4.2078172269e+00
 1.8504544020e+00	 7.0277098185e-01	 4.0426618998e+00
 1.8438184431e+00	 7.2000140712e-01	 3.6112951728e+00
 1.8370085843e+00	 7.3720274557e-01	 2.9651513702e+00
 1.8300247461e+00	 7.5437247051e-01	 2.1668022023e+00
 1.8228668962e+00	 7.7150804454e-01	 1.2885490551e+00
 1.8155350497e+00	 7.8860692056e-01	 3.9179777493e-01
 1.8080292700e+00	 8.0566654285e-01	-4.6333638188e-01
 1.8003496688e+00	 8.2268434822e-01	-1.2177316390e+00
 1.7924964070e+00	 8.3965776706e-01	-1.8133504573e+00
 1.7844696941e+00	 8.5658422452e-01	-2.1933367747e+00
 1.8651936087e+00	 6.8856959524e-01	 4.2045149987e+00
 1.8587026190e+00	 7.0590351381e-01	 3.8421950748e+00
 1.8520370810e+00	 7.2321074199e-01	 3.2468677371e+00
 1.8451968679e+00	 7.4048875370e-01	 2.4682824110e+00
 1.8381819000e+00	 7.5773501099e-01	 1.5606649122e+00
 1.8309921446e+00	 7.7494696514e-01	 5.9439185095e-01
 1.8236276171e+00	 7.9212205770e-01	-3.7013996862e-01
 1.8160883811e+00	 8.0925772156e-01	-1.2735626654e+00
 1.8083745489e+00	 8.2635138211e-01	-2.0576209888e+00
 1.8004862819e+00	 8.4340045828e-01	-2.6652641116e+00
 1.7924237908e+00	 8.6040236375e-01	-3.0407439893e+00
 1.8734706302e+00	 6.9162520584e-01	 4.1836289944e+00
 1.8669508360e+00	 7.0903604576e-01	 3.6857464685e+00
 1.8602557188e+00	 7.2642007686e-01	 2.9719693742e+00
 1.8533851515e+00	 7.4377476183e-01	 2.1027167580e+00
 1.8463390538e+00	 7.6109755146e-01	 1.1418919391e+00
 1.8391173930e+00	 7.7838588573e-01	 1.3663536374e-01
 1.8317201845e+00	 7.9563719483e-01	-8.5645897760e-01
 1.8241474923e+00	 8.1284890028e-01	-1.7812182730e+00
 1.8163994290e+00	 8.3001841600e-01	-2.5826194371e+00
 1.8084761569e+00	 8.4714314951e-01	-3.2068774945e+00
 1.8003778875e+00	 8.6422050298e-01	-3.6015406714e+00
 1.8817476518e+00	 6.9468081645e-01	 4.1115455537e+00
 1.8751990530e+00	 7.1216857772e-01	 3.5385222469e+00
 1.8684743567e+00	 7.2962941173e-01	 2.7684262787e+00
 1.8615734351e+00	 7.4706076995e-01	 1.8577448625e+00
 1.8544962076e+00	 7.6446009194e-01	 8.7769385540e-01
 1.8472426414e+00	 7.8182480633e-01	-1.1690323528e-01
 1.8398127520e+00	 7.9915233197e-01	-1.0955500985e+00
 1.8322066034e+00	 8.1644007899e-01	-2.0096993254e+00
 1.8244243091e+00	 8.3368544990e-01	-2.8098912255e+00
 1.8164660319e+00	 8.5088584073e-01	-3.4478520434e+00
 1.8083319842e+00	 8.6803864221e-01	-3.8765814312e+00
 1.8900246733e+00	 6.9773642705e-01	 3.9552609933e+00
 1.8834472699e+00	 7.1530110968e-01	 3.3658279572e+00
 1.8766929945e+00	 7.3283874660e-01	 2.6008586359e+00
 1.8697617187e+00	 7.5034677808e-01	 1.7112283930e+00
 1.8626533614e+00	 7.6782263241e-01	 7.6234130848e-01
 1.8553678898e+00	 7.8526372693e-01	-1.9414012883e-01
 1.8479053194e+00	 8.0266746911e-01	-1.1152675179e+00
 1.8402657146e+00	 8.2003125771e-01	-1.9819521777e+00
 1.8324491893e+00	 8.3735248379e-01	-2.7562595545e+00
 1.8244559068e+00	 8.5462853196e-01	-3.3976393013e+00
 1.8162860809e+00	 8.7185678144e-01	-3.8666651290e+00
 1.8983016948e+00	 7.0079203765e-01	 3.6823675737e+00
 1.8916954869e+00	 7.1843364163e-01	 3.1335936815e+00
 1.8849116324e+00	 7.3604808146e-01	 2.4345221014e+00
 1.8779500023e+00	 7.5363278621e-01	 1.6288540419e+00
 1.8708105152e+00	 7.7118517289e-01	 7.7191468167e-01
 1.8634931382e+00	 7.8870264752e-01	-9.6210772301e-02
 1.8559978868e+00	 8.0618260625e-01	-9.3776462976e-01
 1.8483248258e+00	 8.2362243642e-01	-1.7204831986e+00
 1.8404740694e+00	 8.4101951769e-01	-2.4382140494e+00
 1.8324457818e+00	 8.5837122318e-01	-3.0654855819e+00
 1.8242401776e+00	 8.7567492067e-01	-3.5725362434e+00
 1.9065787164e+00	 7.0384764826e-01	 3.2610398052e+00
 1.8999437039e+00	 7.2156617359e-01	 2.8083596255e+00
 1.8931302703e+00	 7.3925741633e-01	 2.2352930532e+00
 1.8861382859e+00	 7.5691879434e-01	 1.5768969891e+00
 1.8789676691e+00	 7.7454771336e-01	 8.7400147423e-01
 1.8716183866e+00	 7.9214156812e-01	 1.5334777465e-01
 1.8640904543e+00	 8.0969774340e-01	-5.5970065699e-01
 1.8563839369e+00	 8.2721361514e-01	-1.2411406990e+00
 1.8484989495e+00	 8.4468655158e-01	-1.8719180512e+00
 1.8404356568e+00	 8.6211391441e-01	-2.4604365357e+00
 1.8321942743e+00	 8.7949305990e-01	-2.9948862250e+00
 1.9148557379e+00	 7.0690325886e-01	 2.6600210829e+00
 1.9081919209e+00	 7.2469870555e-01	 2.3572620541e+00
 1.9013489081e+00	 7.4246675120e-01	 1.9697786946e+00
 1.8943265694e+00	 7.6020480247e-01	 1.5222078488e+00
 1.8871248229e+00	 7.7791025384e-01	 1.0367409516e+00
 1.8797436350e+00	 7.9558048872e-01	 5.2502071147e-01
 1.8721830217e+00	 8.1321288054e-01	-2.3186325782e-03
 1.8644430481e+00	 8.3080479385e-01	-5.3569183804e-01
 1.8565238296e+00	 8.4835358548e-01	-1.0666032553e+00
 1.8484255317e+00	 8.6585660563e-01	-1.5913416167e+00
 1.8401483710e+00	 8.8331119913e-01	-2.1343548374e+00
 1.9231327594e+00	 7.0995886946e-01	 1.8486106401e+00
 1.9164401379e+00	 7.2783123751e-01	 1.7480195615e+00
 1.9095675460e+00	 7.4567608607e-01	 1.6057004540e+00
 1.9025148530e+00	 7.6349081060e-01	 1.4321999559e+00
 1.8952819767e+00	 7.8127279431e-01	 1.2288119340e+00
 1.8878688835e+00	 7.9901940931e-01	 9.8979141220e-01
 1.8802755891e+00	 8.1672801768e-01	 7.0874127125e-01
 1.8725021593e+00	 8.3439597257e-01	 3.7859989592e-01
 1.8645487097e+00	 8.5202061937e-01	-8.3713722109e-03
 1.8564154067e+00	 8.6959929686e-01	-4.6060093518e-01
 1.8481024677e+00	 8.8712933836e-01	-9.9153148422e-01
 1.9314097810e+00	 7.1301448007e-01	 7.9665081205e-01
 1.9246883549e+00	 7.3096376946e-01	 9.4891966790e-01
 1.9177861838e+00	 7.4888542094e-01	 1.1108495359e+00
 1.9107031366e+00	 7.6677681873e-01	 1.2748369825e+00
 1.9034391305e+00	 7.8463533479e-01	 1.4194209018e+00
 1.8959941319e+00	 8.0245832991e-01	 1.5191304103e+00
 1.8883681565e+00	 8.2024315482e-01	 1.5482671555e+00
 1.8805612704e+00	 8.3798715128e-01	 1.4809254140e+00
 1.8725735898e+00	 8.5568765327e-01	 1.2910118341e+00
 1.8644052817e+00	 8.7334198809e-01	 9.5226480934e-01
 1.8560565644e+00	 8.9094747759e-01	 4.3827347314e-01
 1.7765155975e+00	 8.5276608528e-01	-1.0584072863e+00
 1.7683536454e+00	 8.6956492342e-01	-1.2230371217e+00
 1.7600196386e+00	 8.8631188877e-01	-1.1418305573e+00
 1.7515139334e+00	 9.0300440955e-01	-8.7911144616e-01
 1.7428369360e+00	 9.1963991332e-01	-4.9734638123e-01
 1.7339891027e+00	 9.3621582822e-01	-5.7071146326e-02
 1.7249709404e+00	 9.5272958417e-01	 3.8317449981e-01
 1.7157830063e+00	 9.6917861406e-01	 7.6690362841e-01
 1.7064259082e+00	 9.8556035499e-01	 1.0397305103e+00
 1.6969003048e+00	 1.0018722495e+00	 1.1494105807e+00
 1.6872069052e+00	 1.0181117467e+00	 1.0458720829e+00
 1.7844696941e+00	 8.5658422452e-01	-2.1933367747e+00
 1.7762711981e+00	 8.7345827706e-01	-2.2612202915e+00
 1.7678998770e+00	 8.9028022458e-01	-2.0146484012e+00
 1.7593560887e+00	 9.0704748376e-01	-1.5371398747e+00
 1.7506402413e+00	 9.2375747063e-01	-9.0996483880e-01
 1.7417527931e+00	 9.4040760185e-01	-2.1204137969e-01
 1.7326942532e+00	 9.5699529580e-01	 4.8015906360e-01
 1.7234651814e+00	 9.7351797389e-01	 1.0926973911e+00
 1.7140661883e+00	 9.8997306174e-01	 1.5542435460e+00
 1.7044979353e+00	 1.0063579904e+00	 1.7961442167e+00
 1.6947611348e+00	 1.0226701977e+00	 1.7524815740e+00
 1.7924237908e+00	 8.6040236375e-01	-3.0407439893e+00
 1.7841887508e+00	 8.7735163071e-01	-3.0623360034e+00
 1.7757801154e+00	 8.9424856039e-01	-2.7113271574e+00
 1.7671982440e+00	 9.1109055796e-01	-2.0855769940e+00
 1.7584435465e+00	 9.2787502795e-01	-1.2804034547e+00
 1.7495164834e+00	 9.4459937547e-01	-3.8845716431e-01
 1.7404175660e+00	 9.6126100742e-01	 5.0039509516e-01
 1.7311473565e+00	 9.7785733371e-01	 1.2991775575e+00
 1.7217064683e+00	 9.9438576848e-01	 1.9239031864e+00
 1.7120955658e+00	 1.0108437314e+00	 2.2936618817e+00
 1.7023153645e+00	 1.0272286487e+00	 2.3306991853e+00
 1.8003778875e+00	 8.6422050298e-01	-3.6015406714e+00
 1.7921063035e+00	 8.8124498436e-01	-3.6184138153e+00
 1.7836603537e+00	 8.9821689620e-01	-3.2165681778e+00
 1.7750403993e+00	 9.1513363217e-01	-2.5034141859e+00
 1.7662468518e+00	 9.3199258526e-01	-1.5836252489e+00
 1.7572801737e+00	 9.4879114909e-01	-5.5899719310e-01
 1.7481408788e+00	 9.6552671904e-01	 4.7168276604e-01
 1.7388295316e+00	 9.8219669353e-01	 1.4127573282e+00
 1.7293467484e+00	 9.9879847523e-01	 2.1718105609e+00
 1.7196931963e+00	 1.0153294723e+00	 2.6597694315e+00
 1.7098695942e+00	 1.0317870997e+00	 2.7909954094e+00
 1.8083319842e+00	 8.6803864221e-01	-3.8765814312e+00
 1.8000238562e+00	 8.8513833800e-01	-3.9215823920e+00
 1.7915405921e+00	 9.0218523201e-01	-3.5153009648e+00
 1.7828825546e+00	 9.1917670637e-01	-2.7699716979e+00
 1.7740501570e+00	 9.3611014258e-01	-1.7949933718e+00
 1.7650438641e+00	 9.5298292272e-01	-6.9678099955e-01
 1.7558641916e+00	 9.6979243067e-01	 4.2137234043e-01
 1.7465117068e+00	 9.8653605336e-01	 1.4594236432e+00
 1.7369870284e+00	 1.0032111820e+00	 2.3206979506e+00
 1.7272908268e+00	 1.0198152133e+00	 2.9119960839e+00
 1.7174238239e+00	 1.0363455507e+00	 3.1436921189e+00
 1.8162860809e+00	 8.7185678144e-01	-3.8666651290e+00
 1.8079414089e+00	 8.8903169165e-01	-3.9640675300e+00
 1.7994208305e+00	 9.0615356782e-01	-3.5926784383e+00
 1.7907247099e+00	 9.2321978058e-01	-2.8648917740e+00
 1.7818534623e+00	 9.4022769989e-01	-1.8902627463e+00
 1.7728075544e+00	 9.5717469634e-01	-7.7535978170e-01
 1.7635875044e+00	 9.7405814229e-01	 3.7637347405e-01
 1.7541938819e+00	 9.9087541318e-01	 1.4647458855e+00
 1.7446273085e+00	 1.0076238887e+00	 2.3929361563e+00
 1.7348884573e+00	 1.0243009542e+00	 3.0675996864e+00
 1.7249780536e+00	 1.0409040017e+00	 3.3989649514e+00
 1.8242401776e+00	 8.7567492067e-01	-3.5725362434e+00
 1.8158589616e+00	 8.9292504530e-01	-3.7381902575e+00
 1.8073010689e+00	 9.1012190363e-01	-3.4340723499e+00
 1.7985668651e+00	 9.2726285478e-01	-2.7681319895e+00
 1.7896567675e+00	 9.4434525721e-01	-1.8455719541e+00
 1.7805712447e+00	 9.6136646996e-01	-7.6870749365e-01
 1.7713108171e+00	 9.7832385392e-01	 3.6316424123e-01
 1.7618760570e+00	 9.9521477300e-01	 1.4538843282e+00
 1.7522675885e+00	 1.0120365955e+00	 2.4105416425e+00
 1.7424860878e+00	 1.0287866951e+00	 3.1435718160e+00
 1.7325322833e+00	 1.0454624527e+00	 3.5668455979e+00
 1.8321942743e+00	 8.7949305990e-01	-2.9948862250e+00
 1.8237765143e+00	 8.9681839894e-01	-3.2363650070e+00
 1.8151813072e+00	 9.1409023944e-01	-3.0250688408e+00
 1.8064090204e+00	 9.3130592898e-01	-2.4599587859e+00
 1.7974600728e+00	 9.4846281452e-01	-1.6374353602e+00
 1.7883349351e+00	 9.6555824359e-01	-6.5121219660e-01
 1.7790341299e+00	 9.8258956554e-01	 4.0779989816e-01
 1.7695582321e+00	 9.9955413283e-01	 1.4515983301e+00
 1.7599078685e+00	 1.0164493022e+00	 2.3951834647e+00
 1.7500837184e+00	 1.0332724361e+00	 3.1566427121e+00
 1.7400865129e+00	 1.0500209036e+00	 3.6572239984e+00
 1.8401483710e+00	 8.8331119913e-01	-2.1343548374e+00
 1.8316940670e+00	 9.0071175259e-01	-2.4510978571e+00
 1.8230615456e+00	 9.1805857525e-01	-2.3514641391e+00
 1.8142511757e+00	 9.3534900319e-01	-1.9209411974e+00
 1.8052633781e+00	 9.5258037184e-01	-1.2427354678e+00
 1.7960986254e+00	 9.6975001721e-01	-3.9766766143e-01
 1.7867574427e+00	 9.8685527717e-01	 5.3592139046e-01
 1.7772404072e+00	 1.0038934927e+00	 1.4822542909e+00
 1.7675481486e+00	 1.0208620090e+00	 2.3681899860e+00
 1.7576813489e+00	 1.0377581770e+00	 3.1232860514e+00
 1.7476407426e+00	 1.0545793546e+00	 3.6798504484e+00
 1.8481024677e+00	 8.8712933836e-01	-9.9153148422e-01
 1.8396116197e+00	 9.0460510624e-01	-1.3749848439e+00
 1.8309417840e+00	 9.2202691106e-01	-1.3992603912e+00
 1.8220933310e+00	 9.3939207740e-01	-1.1319447649e+00
 1.8130666833e+00	 9.5669792915e-01	-6.3871549609e-01
 1.8038623158e+00	 9.7394179083e-01	 1.6734784600e-02
 1.7944807555e+00	 9.9112098879e-01	 7.7276361275e-01
 1.7849225824e+00	 1.0082328525e+00	 1.5698333702e+00
 1.7751884286e+00	 1.0252747157e+00	 2.3505553899e+00
 1.7652789794e+00	 1.0422439180e+00	 3.0597235656e+00
 1.7551949723e+00	 1.0591378056e+00	 3.6443376165e+00
 1.8560565644e+00	 8.9094747759e-01	 4.3827347314e-01
 1.8475291724e+00	 9.0849845989e-01	-7.1033702662e-04
 1.8388220224e+00	 9.2599524687e-01	-1.5466162511e-01
 1.8299354863e+00	 9.4343515160e-01	-7.4125630900e-02
 1.8208699886e+00	 9.6081548646e-01	 1.9702782447e-01
 1.8116260061e+00	 9.7813356446e-01	 6.1641417455e-01
 1.8022040683e+00	 9.9538670041e-01	 1.1431634276e+00
 1.7926047575e+00	 1.0125722123e+00	 1.7379389791e+00
 1.7828287087e+00	 1.0296874225e+00	 2.3629459945e+00
 1.7728766099e+00	 1.0467296589e+00	 2.9819295109e+00
 1.7627492020e+00	 1.0636962566e+00	 3.5601624785e+00
 1.6872069052e+00	 1.0181117467e+00	 1.0458720829e+00
 1.6773464695e+00	 1.0342763041e+00	 8.1235219875e-01
 1.6673198101e+00	 1.0503633895e+00	 5.8291565672e-01
 1.6571277905e+00	 1.0663704815e+00	 3.8536893545e-01
 1.6467713242e+00	 1.0822950704e+00	 2.4741984071e-01
 1.6362513750e+00	 1.0981346594e+00	 1.9656280852e-01
 1.6255689568e+00	 1.1138867658e+00	 2.5999278229e-01
 1.6147251331e+00	 1.1295489225e+00	 4.6556451151e-01
 1.6037210169e+00	 1.1451186788e+00	 8.3954818449e-01
 1.5925577705e+00	 1.1605936020e+00	 1.4072553948e+00
 1.5812366048e+00	 1.1759712785e+00	 2.1937912663e+00
 1.6947611348e+00	 1.0226701977e+00	 1.7524815740e+00
 1.6848565504e+00	 1.0389071296e+00	 1.4799592203e+00
 1.6747849982e+00	 1.0550662427e+00	 1.1143158791e+00
 1.6645473452e+00	 1.0711450041e+00	 7.0986813916e-01
 1.6541445093e+00	 1.0871408931e+00	 3.2027460270e-01
 1.6435774585e+00	 1.1030514016e+00	-1.6225330311e-03
 1.6328472113e+00	 1.1188740358e+00	-2.0375169701e-01
 1.6219548359e+00	 1.1346063176e+00	-2.3446067010e-01
 1.6109014504e+00	 1.1502457853e+00	-4.4744738067e-02
 1.5996882221e+00	 1.1657899953e+00	 4.1324584250e-01
 1.5883163675e+00	 1.1812365232e+00	 1.1863518916e+00
 1.7023153645e+00	 1.0272286487e+00	 2.3306991853e+00
 1.6923666314e+00	 1.0435379551e+00	 2.0606706075e+00
 1.6822501862e+00	 1.0597690958e+00	 1.6104600384e+00
 1.6719668999e+00	 1.0759195268e+00	 1.0558458474e+00
 1.6615176944e+00	 1.0919867158e+00	 4.7149483695e-01
 1.6509035420e+00	 1.1079681438e+00	-6.9232478640e-02
 1.6401254658e+00	 1.1238613059e+00	-4.9405150084e-01
 1.6291845387e+00	 1.1396637127e+00	-7.3249964067e-01
 1.6180818838e+00	 1.1553728918e+00	-7.1695996009e-01
 1.6068186737e+00	 1.1709863886e+00	-3.8134979786e-01
 1.5953961302e+00	 1.1865017678e+00	 3.3875069664e-01
 1.7098695942e+00	 1.0317870997e+00	 2.7909954094e+00
 1.6998767124e+00	 1.0481687806e+00	 2.5573049244e+00
 1.6897153742e+00	 1.0644719489e+00	 2.0680038847e+00
 1.6793864546e+00	 1.0806940494e+00	 1.4153507400e+00
 1.6688908795e+00	 1.0968325385e+00	 6.9014360087e-01
 1.6582296256e+00	 1.1128848861e+00	-1.8494870132e-02
 1.6474037203e+00	 1.1288485760e+00	-6.2281857343e-01
 1.6364142416e+00	 1.1447211079e+00	-1.0382189761e+00
 1.6252623173e+00	 1.1604999983e+00	-1.1826452524e+00
 1.6139491253e+00	 1.1761827819e+00	-9.7602692799e-01
 1.6024758929e+00	 1.1917670125e+00	-3.4046292888e-01
 1.7174238239e+00	 1.0363455507e+00	 3.1436921189e+00
 1.7073867934e+00	 1.0527996061e+00	 2.9726656296e+00
 1.6971805623e+00	 1.0691748021e+00	 2.4836953155e+00
 1.6868060093e+00	 1.0854685720e+00	 1.7806034742e+00
 1.6762640646e+00	 1.1016783613e+00	 9.6550719428e-01
 1.6655557091e+00	 1.1178016283e+00	 1.3865843791e-01
 1.6546819748e+00	 1.1338358460e+00	-6.0173334316e-01
 1.6436439444e+00	 1.1497785030e+00	-1.1610944690e+00
 1.6324427508e+00	 1.1656271049e+00	-1.4472312890e+00
 1.6210795769e+00	 1.1813791752e+00	-1.3702715411e+00
 1.6095556556e+00	 1.1970322572e+00	-8.4287290246e-01
 1.7249780536e+00	 1.0409040017e+00	 3.3989649514e+00
 1.7148968744e+00	 1.0574304316e+00	 3.3095404559e+00
 1.7046457503e+00	 1.0738776552e+00	 2.8543713233e+00
 1.6942255640e+00	 1.0902430947e+00	 2.1439918022e+00
 1.6836372497e+00	 1.1065241840e+00	 1.2870890714e+00
 1.6728817926e+00	 1.1227183705e+00	 3.9039097658e-01
 1.6619602293e+00	 1.1388231161e+00	-4.4225087389e-01
 1.6508736472e+00	 1.1548358982e+00	-1.1104164477e+00
 1.6396231842e+00	 1.1707542114e+00	-1.5160354114e+00
 1.6282100286e+00	 1.1865755685e+00	-1.5635616859e+00
 1.6166354183e+00	 1.2022975018e+00	-1.1601948439e+00
 1.7325322833e+00	 1.0454624527e+00	 3.5668455979e+00
 1.7224069553e+00	 1.0620612571e+00	 3.5707007704e+00
 1.7121109383e+00	 1.0785805084e+00	 3.1769549884e+00
 1.7016451188e+00	 1.0950176173e+00	 2.4980657793e+00
 1.6910104348e+00	 1.1113700067e+00	 1.6446039762e+00
 1.6802078761e+00	 1.1276351128e+00	 7.2505989943e-01
 1.6692384838e+00	 1.1438103861e+00	-1.5560688619e-01
 1.6581033501e+00	 1.1598932933e+00	-8.9529498786e-01
 1.6468036177e+00	 1.1758813179e+00	-1.3942653271e+00
 1.6353404802e+00	 1.1917719618e+00	-1.5553689255e+00
 1.6237151810e+00	 1.2075627465e+00	-1.2842745467e+00
 1.7400865129e+00	 1.0500209036e+00	 3.6572239984e+00
 1.7299170363e+00	 1.0666920826e+00	 3.7589009181e+00
 1.7195761264e+00	 1.0832833615e+00	 3.4484525137e+00
 1.7090646735e+00	 1.0997921399e+00	 2.8355330599e+00
 1.6983836199e+00	 1.1162158294e+00	 2.0279889321e+00
 1.6875339596e+00	 1.1325518550e+00	 1.1312442689e+00
 1.6765167384e+00	 1.1487976562e+00	 2.4717634782e-01
 1.6653330529e+00	 1.1649506885e+00	-5.2466501961e-01
 1.6539840511e+00	 1.1810084244e+00	-1.0870227434e+00
 1.6424709318e+00	 1.1969683551e+00	-1.3451597910e+00
 1.6307949437e+00	 1.2128279911e+00	-1.2070865223e+00
 1.7476407426e+00	 1.0545793546e+00	 3.6798504484e+00
 1.7374271173e+00	 1.0713229081e+00	 3.8768775468e+00
 1.7270413144e+00	 1.0879862147e+00	 3.6659503009e+00
 1.7164842282e+00	 1.1045666626e+00	 3.1492542794e+00
 1.7057568050e+00	 1.1210616521e+00	 2.4272978670e+00
 1.6948600432e+00	 1.1374685972e+00	 1.5977391628e+00
 1.6837949929e+00	 1.1537849262e+00	 7.5528423187e-01
 1.6725627557e+00	 1.1700080836e+00	-7.2913334866e-03
 1.6611644846e+00	 1.1861355309e+00	-5.9930693948e-01
 1.6496013834e+00	 1.2021647484e+00	-9.3239723052e-01
 1.6378747064e+00	 1.2180932358e+00	-9.2073261650e-01
 1.7551949723e+00	 1.0591378056e+00	 3.6443376165e+00
 1.7449371983e+00	 1.0759537336e+00	 3.9273489167e+00
 1.7345065024e+00	 1.0926890678e+00	 3.8266120672e+00
 1.7239037829e+00	 1.1093411852e+00	 3.4322385180e+00
 1.7131299901e+00	 1.1259074749e+00	 2.8327286017e+00
 1.7021861267e+00	 1.1423853395e+00	 2.1135499040e+00
 1.6910732474e+00	 1.1587721963e+00	 1.3581041918e+00
 1.6797924585e+00	 1.1750654787e+00	 6.4822651171e-01
 1.6683449181e+00	 1.1912626374e+00	 6.3981722381e-02
 1.6567318350e+00	 1.2073611416e+00	-3.1654205306e-01
 1.6449544691e+00	 1.2233584805e+00	-4.1744069420e-01
 1.7627492020e+00	 1.0636962566e+00	 3.5601624785e+00
 1.7524472793e+00	 1.0805845591e+00	 3.9130141930e+00
 1.7419716905e+00	 1.0973919210e+00	 3.9276760007e+00
 1.7313233376e+00	 1.1141157078e+00	 3.6776362840e+00
 1.7205031752e+00	 1.1307532976e+00	 3.2346646595e+00
 1.7095122102e+00	 1.1473020817e+00	 2.6678864083e+00
 1.6983515019e+00	 1.1637594664e+00	 2.0452201367e+00
 1.6870221614e+00	 1.1801228739e+00	 1.4334493763e+00
 1.6755253515e+00	 1.1963897440e+00	 8.9803834347e-01
 1.6638622866e+00	 1.2125575349e+00	 5.0294563193e-01
 1.6520342318e+00	 1.2286237251e+00	 3.1043660828e-01
 1.5812366048e+00	 1.1759712785e+00	 2.1937912663e+00
 1.5697568158e+00	 1.1912519024e+00	 2.9773550504e+00
 1.5581216283e+00	 1.2064304705e+00	 3.5276945603e+00
 1.5463324046e+00	 1.2215046238e+00	 3.8566645340e+00
 1.5343905539e+00	 1.2364720272e+00	 3.9749467982e+00
 1.5222975323e+00	 1.2513303705e+00	 3.8919598949e+00
 1.5100548418e+00	 1.2660773696e+00	 3.6157707381e+00
 1.4976640298e+00	 1.2807107680e+00	 3.1530088521e+00
 1.4851266886e+00	 1.2952283376e+00	 2.5087837382e+00
 1.4724444546e+00	 1.3096278799e+00	 1.6805766685e+00
 1.4596190077e+00	 1.3239072270e+00	 6.4752036355e-01
 1.5883163675e+00	 1.1812365232e+00	 1.1863518916e+00
 1.5767851794e+00	 1.1965855638e+00	 2.0670621187e+00
 1.5650978970e+00	 1.2118320918e+00	 2.8090525353e+00
 1.5532558887e+00	 1.2269737376e+00	 3.4003646511e+00
 1.5412605701e+00	 1.2420081554e+00	 3.8286902890e+00
 1.5291134037e+00	 1.2569330248e+00	 4.0813144452e+00
 1.5168158983e+00	 1.2717460515e+00	 4.1450591310e+00
 1.5043696082e+00	 1.2864449689e+00	 4.0062287016e+00
 1.4917761328e+00	 1.3010275389e+00	 3.6505571744e+00
 1.4790371159e+00	 1.3154915530e+00	 3.0626868655e+00
 1.4661542448e+00	 1.3298348339e+00	 2.2073486811e+00
 1.5953961302e+00	 1.1865017678e+00	 3.3875069664e-01
 1.5838135430e+00	 1.2019192253e+00	 1.2570217328e+00
 1.5720741657e+00	 1.2172337132e+00	 2.1234388965e+00
 1.5601793728e+00	 1.2324428513e+00	 2.9062760565e+00
 1.5481305862e+00	 1.2475442836e+00	 3.5741565551e+00
 1.5359292751e+00	 1.2625356791e+00	 4.0960234302e+00
 1.5235769547e+00	 1.2774147334e+00	 4.4411097262e+00
 1.5110751865e+00	 1.2921791698e+00	 4.5789093661e+00
 1.4984255770e+00	 1.3068267401e+00	 4.4791490521e+00
 1.4856297772e+00	 1.3213552262e+00	 4.1117616568e+00
 1.4726894820e+00	 1.3357624408e+00	 3.4395604436e+00
 1.6024758929e+00	 1.1917670125e+00	-3.4046292888e-01
 1.5908419065e+00	 1.2072528868e+00	 5.6407689604e-01
 1.5790504343e+00	 1.2226353346e+00	 1.4944187513e+00
 1.5671028568e+00	 1.2379119651e+00	 2.4030626689e+00
 1.5550006024e+00	 1.2530804118e+00	 3.2434343853e+00
 1.5427451464e+00	 1.2681383334e+00	 3.9698770921e+00
 1.5303380112e+00	 1.2830834153e+00	 4.5376425432e+00
 1.5177807649e+00	 1.2979133706e+00	 4.9028819629e+00
 1.5050750212e+00	 1.3126259413e+00	 5.0226371981e+00
 1.4922224384e+00	 1.3272188993e+00	 4.8548325552e+00
 1.4792247191e+00	 1.3416900476e+00	 4.3577626877e+00
 1.6095556556e+00	 1.1970322572e+00	-8.4287290246e-01
 1.5978702701e+00	 1.2125865483e+00	 4.7902497085e-03
 1.5860267030e+00	 1.2280369560e+00	 9.4515748698e-01
 1.5740263409e+00	 1.2433810789e+00	 1.9188979493e+00
 1.5618706185e+00	 1.2586165399e+00	 2.8680608919e+00
 1.5495610178e+00	 1.2737409877e+00	 3.7360831774e+00
 1.5370990676e+00	 1.2887520972e+00	 4.4677955448e+00
 1.5244863432e+00	 1.3036475715e+00	 5.0094280851e+00
 1.5117244653e+00	 1.3184251425e+00	 5.3086153541e+00
 1.4988150997e+00	 1.3330825724e+00	 5.3144015479e+00
 1.4857599563e+00	 1.3476176545e+00	 4.9772461616e+00
 1.6166354183e+00	 1.2022975018e+00	-1.1601948439e+00
 1.6048986337e+00	 1.2179202098e+00	-4.0455115758e-01
 1.5930029717e+00	 1.2334385773e+00	 4.9842810173e-01
 1.5809498250e+00	 1.2488501926e+00	 1.4814741661e+00
 1.5687406347e+00	 1.2641526681e+00	 2.4790320675e+00
 1.5563768891e+00	 1.2793436420e+00	 3.4272781223e+00
 1.5438601240e+00	 1.2944207791e+00	 4.2641357682e+00
 1.5311919215e+00	 1.3093817724e+00	 4.9292901789e+00
 1.5183739095e+00	 1.3242243438e+00	 5.3642020819e+00
 1.5054077610e+00	 1.3389462456e+00	 5.5121212031e+00
 1.4922951934e+00	 1.3535452614e+00	 5.3180997546e+00
 1.6237151810e+00	 1.2075627465e+00	-1.2842745467e+00
 1.6119269972e+00	 1.2232538713e+00	-6.4793125917e-01
 1.5999792403e+00	 1.2388401987e+00	 1.7661830734e-01
 1.5878733091e+00	 1.2543193064e+00	 1.1180113832e+00
 1.5756106508e+00	 1.2696887963e+00	 2.1068130295e+00
 1.5631927605e+00	 1.2849462963e+00	 3.0755379072e+00
 1.5506211805e+00	 1.3000894610e+00	 3.9586701264e+00
 1.5378974999e+00	 1.3151159732e+00	 4.6926816092e+00
 1.5250233537e+00	 1.3300235450e+00	 5.2160493947e+00
 1.5120004222e+00	 1.3448099187e+00	 5.4692723180e+00
 1.4988304306e+00	 1.3594728683e+00	 5.3948874848e+00
 1.6307949437e+00	 1.2128279911e+00	-1.2070865223e+00
 1.6189553608e+00	 1.2285875327e+00	-7.0960051440e-01
 1.6069555090e+00	 1.2442418201e+00	 1.7374124728e-03
 1.5947967932e+00	 1.2597884201e+00	 8.5526617709e-01
 1.5824806669e+00	 1.2752249245e+00	 1.7813479610e+00
 1.5700086318e+00	 1.2905489506e+00	 2.7123885921e+00
 1.5573822369e+00	 1.3057581429e+00	 3.5828558909e+00
 1.5446030782e+00	 1.3208501741e+00	 4.3292964261e+00
 1.5316727978e+00	 1.3358227462e+00	 4.8903511263e+00
 1.5185930835e+00	 1.3506735918e+00	 5.2067701932e+00
 1.5053656677e+00	 1.3654004752e+00	 5.2214277544e+00
 1.6378747064e+00	 1.2180932358e+00	-9.2073261650e-01
 1.6259837244e+00	 1.2339211942e+00	-5.7407160244e-01
 1.6139317777e+00	 1.2496434414e+00	-4.5770078779e-03
 1.6017202773e+00	 1.2652575339e+00	 7.1954009307e-01
 1.5893506831e+00	 1.2807610527e+00	 1.5320697576e+00
 1.5768245032e+00	 1.2961516049e+00	 2.3688165419e+00
 1.5641432934e+00	 1.3114268248e+00	 3.1676108648e+00
 1.5513086566e+00	 1.3265843750e+00	 3.8683188392e+00
 1.5383222420e+00	 1.3416219475e+00	 4.4128510434e+00
 1.5251857448e+00	 1.3565372650e+00	 4.7451707040e+00
 1.5119009048e+00	 1.3713280821e+00	 4.8113017518e+00
 1.6449544691e+00	 1.2233584805e+00	-4.1744069420e-01
 1.6330120879e+00	 1.2392548557e+00	-2.2611526149e-01
 1.6209080463e+00	 1.2550450628e+00	 1.7894735020e-01
 1.6086437614e+00	 1.2707266476e+00	 7.3668784691e-01
 1.5962206992e+00	 1.2862971808e+00	 1.3879093890e+00
 1.5836403745e+00	 1.3017542592e+00	 2.0752783503e+00
 1.5709043498e+00	 1.3170955067e+00	 2.7433232562e+00
 1.5580142349e+00	 1.3323185759e+00	 3.3384324095e+00
 1.5449716862e+00	 1.3474211487e+00	 3.8088507107e+00
 1.5317784060e+00	 1.3624009381e+00	 4.1046761778e+00
 1.5184361420e+00	 1.3772556890e+00	 4.1778566634e+00
 1.6520342318e+00	 1.2286237251e+00	 3.1043660828e-01
 1.6400404515e+00	 1.2445885172e+00	 3.4924373119e-01
 1.6278843150e+00	 1.2604466842e+00	 5.7322378118e-01
 1.6155672454e+00	 1.2761957614e+00	 9.3212528066e-01
 1.6030907154e+00	 1.2918333090e+00	 1.3773049841e+00
 1.5904562459e+00	 1.3073569135e+00	 1.8617104722e+00
 1.5776654063e+00	 1.3227641886e+00	 2.3398612594e+00
 1.5647198132e+00	 1.3380527767e+00	 2.7678289670e+00
 1.5516211303e+00	 1.3532203499e+00	 3.1032171145e+00
 1.5383710673e+00	 1.3682646113e+00	 3.3051410793e+00
 1.5249713791e+00	 1.3831832959e+00	 3.3342087626e+00
 1.4596190077e+00	 1.3239072270e+00	 6.4752036355e-01
 1.4466542826e+00	 1.3380618508e+00	-3.7424820199e-01
 1.4335498557e+00	 1.3520921059e+00	-1.1772576680e+00
 1.4203075088e+00	 1.3659959471e+00	-1.7851575595e+00
 1.4069290638e+00	 1.3797713641e+00	-2.2197882018e+00
 1.3934163822e+00	 1.3934163822e+00	-2.5010699517e+00
 1.3797713641e+00	 1.4069290638e+00	-2.6468989703e+00
 1.3659959471e+00	 1.4203075088e+00	-2.6730500934e+00
 1.3520921059e+00	 1.4335498557e+00	-2.5930873173e+00
 1.3380618508e+00	 1.4466542826e+00	-2.4182823801e+00
 1.3239072270e+00	 1.4596190077e+00	-2.1575418733e+00
 1.4661542448e+00	 1.3298348339e+00	 2.2073486811e+00
 1.4531314720e+00	 1.3440528330e+00	 1.2926245813e+00
 1.4399683719e+00	 1.3581459066e+00	 5.4290525801e-01
 1.4266667343e+00	 1.3721120003e+00	-5.4712873216e-02
 1.4132283892e+00	 1.3859490947e+00	-5.1194100480e-01
 1.3996552065e+00	 1.3996552065e+00	-8.3919855089e-01
 1.3859490947e+00	 1.4132283892e+00	-1.0455195265e+00
 1.3721120003e+00	 1.4266667343e+00	-1.1384652397e+00
 1.3581459066e+00	 1.4399683719e+00	-1.1240438083e+00
 1.3440528330e+00	 1.4531314720e+00	-1.0066369748e+00
 1.3298348339e+00	 1.4661542448e+00	-7.8893465107e-01
 1.4726894820e+00	 1.3357624408e+00	 3.4395604436e+00
 1.4596086614e+00	 1.3500438152e+00	 2.6524653131e+00
 1.4463868881e+00	 1.3641997073e+00	 1.9801084202e+00
 1.4330259598e+00	 1.3782280535e+00	 1.4187173747e+00
 1.4195277146e+00	 1.3921268254e+00	 9.6517830081e-01
 1.4058940308e+00	 1.4058940308e+00	 6.1712591863e-01
 1.3921268254e+00	 1.4195277146e+00	 3.7302851418e-01
 1.3782280535e+00	 1.4330259598e+00	 2.3226725300e-01
 1.3641997073e+00	 1.4463868881e+00	 1.9520932940e-01
 1.3500438152e+00	 1.4596086614e+00	 2.6327448096e-01
 1.3357624408e+00	 1.4726894820e+00	 4.3899443868e-01
 1.4792247191e+00	 1.3416900476e+00	 4.3577626877e+00
 1.4660858508e+00	 1.3560347974e+00	 3.7107801710e+00
 1.4528054044e+00	 1.3702535080e+00	 3.1327416901e+00
 1.4393851853e+00	 1.3843441066e+00	 2.6274098065e+00
 1.4258270400e+00	 1.3983045560e+00	 2.1987538893e+00
 1.4121328551e+00	 1.4121328551e+00	 1.8510329574e+00
 1.3983045560e+00	 1.4258270400e+00	 1.5888739406e+00
 1.3843441066e+00	 1.4393851853e+00	 1.4173448143e+00
 1.3702535080e+00	 1.4528054044e+00	 1.3420221007e+00
 1.3560347974e+00	 1.4660858508e+00	 1.3690522659e+00
 1.3416900476e+00	 1.4792247191e+00	 1.5052065820e+00
 1.4857599563e+00	 1.3476176545e+00	 4.9772461616e+00
 1.4725630403e+00	 1.3620257796e+00	 4.4730242803e+00
 1.4592239206e+00	 1.3763073087e+00	 3.9992706467e+00
 1.4457444107e+00	 1.3904601598e+00	 3.5638256855e+00
 1.4321263654e+00	 1.4044822867e+00	 3.1762453631e+00
 1.4183716794e+00	 1.4183716794e+00	 2.8459998286e+00
 1.4044822867e+00	 1.4321263654e+00	 2.5825468941e+00
 1.3904601598e+00	 1.4457444107e+00	 2.3954007950e+00
 1.3763073087e+00	 1.4592239206e+00	 2.2941957183e+00
 1.3620257796e+00	 1.4725630403e+00	 2.2887436236e+00
 1.3476176545e+00	 1.4857599563e+00	 2.3888044561e+00
 1.4922951934e+00	 1.3535452614e+00	 5.3180997546e+00
 1.4790402297e+00	 1.3680167618e+00	 4.9446053971e+00
 1.4656424368e+00	 1.3823611094e+00	 4.5782375247e+00
 1.4521036362e+00	 1.3965762130e+00	 4.2206095152e+00
 1.4384256908e+00	 1.4106600173e+00	 3.8853843967e+00
 1.4246105036e+00	 1.4246105036e+00	 3.5858466462e+00
 1.4106600173e+00	 1.4384256908e+00	 3.3349728079e+00
 1.3965762130e+00	 1.4521036362e+00	 3.1454976708e+00
 1.3823611094e+00	 1.4656424368e+00	 3.0299754871e+00
 1.3680167618e+00	 1.4790402297e+00	 3.0008357518e+00
 1.3535452614e+00	 1.4922951934e+00	 3.0687366246e+00
 1.4988304306e+00	 1.3594728683e+00	 5.3948874848e+00
 1.4855174191e+00	 1.3740077441e+00	 5.1328441456e+00
 1.4720609530e+00	 1.3884149101e+00	 4.8682621779e+00
 1.4584628617e+00	 1.4026922661e+00	 4.5905877166e+00
 1.4447250162e+00	 1.4168377480e+00	 4.3141715099e+00
 1.4308493279e+00	 1.4308493279e+00	 4.0547316346e+00
 1.4168377480e+00	 1.4447250162e+00	 3.8274665484e+00
 1.4026922661e+00	 1.4584628617e+00	 3.6471204652e+00
 1.3884149101e+00	 1.4720609530e+00	 3.5280439176e+00
 1.3740077441e+00	 1.4855174191e+00	 3.4840239961e+00
 1.3594728683e+00	 1.4988304306e+00	 3.5253495025e+00
 1.5053656677e+00	 1.3654004752e+00	 5.2214277544e+00
 1.4919946085e+00	 1.3799987263e+00	 5.0508892094e+00
 1.4784794692e+00	 1.3944687107e+00	 4.8680430592e+00
 1.4648220872e+00	 1.4088083193e+00	 4.6667673802e+00
 1.4510243416e+00	 1.4230154786e+00	 4.4508729659e+00
 1.4370881522e+00	 1.4370881522e+00	 4.2371465520e+00
 1.4230154786e+00	 1.4510243416e+00	 4.0417267492e+00
 1.4088083193e+00	 1.4648220872e+00	 3.8801703866e+00
 1.3944687107e+00	 1.4784794692e+00	 3.7675140615e+00
 1.3799987263e+00	 1.4919946085e+00	 3.7168882640e+00
 1.3654004752e+00	 1.5053656677e+00	 3.7394576001e+00
 1.5119009048e+00	 1.3713280821e+00	 4.8113017518e+00
 1.4984717980e+00	 1.3859897085e+00	 4.7055888851e+00
 1.4848979854e+00	 1.4005225114e+00	 4.5779342335e+00
 1.4711813127e+00	 1.4149243725e+00	 4.4423350916e+00
 1.4573236670e+00	 1.4291932092e+00	 4.2840177918e+00
 1.4433269765e+00	 1.4433269765e+00	 4.1179122749e+00
 1.4291932092e+00	 1.4573236670e+00	 3.9598303351e+00
 1.4149243725e+00	 1.4711813127e+00	 3.8249586724e+00
 1.4005225114e+00	 1.4848979854e+00	 3.7277781320e+00
 1.3859897085e+00	 1.4984717980e+00	 3.6792933489e+00
 1.3713280821e+00	 1.5119009048e+00	 3.6922500276e+00
 1.5184361420e+00	 1.3772556890e+00	 4.1778566634e+00
 1.5049489874e+00	 1.3919806907e+00	 4.1029861797e+00
 1.4913165016e+00	 1.4065763121e+00	 4.0054415369e+00
 1.4775405382e+00	 1.4210404256e+00	 3.9106558275e+00
 1.4636229924e+00	 1.4353709399e+00	 3.8023949163e+00
 1.4495658007e+00	 1.4495658007e+00	 3.6821745372e+00
 1.4353709399e+00	 1.4636229924e+00	 3.5642272287e+00
 1.4210404256e+00	 1.4775405382e+00	 3.4622006329e+00
 1.4065763121e+00	 1.4913165016e+00	 3.3880854973e+00
 1.3919806907e+00	 1.5049489874e+00	 3.3515793038e+00
 1.3772556890e+00	 1.5184361420e+00	 3.3652808162e+00
 1.5249713791e+00	 1.3831832959e+00	 3.3342087626e+00
 1.5114261768e+00	 1.3979716729e+00	 3.2490179762e+00
 1.4977350178e+00	 1.4126301128e+00	 3.1513963416e+00
 1.4838997636e+00	 1.4271564788e+00	 3.0661312666e+00
 1.4699223178e+00	 1.4415486705e+00	 2.9950504215e+00
 1.4558046250e+00	 1.4558046250e+00	 2.9153998206e+00
 1.4415486705e+00	 1.4699223178e+00	 2.8377352338e+00
 1.4271564788e+00	 1.4838997636e+00	 2.7729444378e+00
 1.4126301128e+00	 1.4977350178e+00	 2.7288292999e+00
 1.3979716729e+00	 1.5114261768e+00	 2.7144635696e+00
 1.3831832959e+00	 1.5249713791e+00	 2.7404594276e+00
 1.3239072270e+00	 1.4596190077e+00	-2.1575418733e+00
 1.3096278799e+00	 1.4724444546e+00	-1.8810168254e+00
 1.2952283376e+00	 1.4851266886e+00	-1.6466237468e+00
 1.2807107680e+00	 1.4976640298e+00	-1.4466343425e+00
 1.2660773696e+00	 1.5100548418e+00	-1.2703027816e+00
 1.2513303705e+00	 1.5222975323e+00	-1.1053732801e+00
 1.2364720272e+00	 1.5343905539e+00	-9.3975099419e-01
 1.2215046238e+00	 1.5463324046e+00	-7.6160908542e-01
 1.2064304705e+00	 1.5581216283e+00	-5.5949179992e-01
 1.1912519024e+00	 1.5697568158e+00	-3.2241308188e-01
 1.1759712785e+00	 1.5812366048e+00	-3.9950282738e-02
 1.3298348339e+00	 1.4661542448e+00	-7.8893465107e-01
 1.3154915530e+00	 1.4790371159e+00	-5.4820755144e-01
 1.3010275389e+00	 1.4917761328e+00	-3.5559621019e-01
 1.2864449689e+00	 1.5043696082e+00	-2.0371666813e-01
 1.2717460515e+00	 1.5168158983e+00	-8.1141928382e-02
 1.2569330248e+00	 1.5291134037e+00	 2.3734707829e-02
 1.2420081554e+00	 1.5412605701e+00	 1.2247792604e-01
 1.2269737376e+00	 1.5532558887e+00	 2.2650076461e-01
 1.2118320918e+00	 1.5650978970e+00	 3.4695896502e-01
 1.1965855638e+00	 1.5767851794e+00	 4.9464979845e-01
 1.1812365232e+00	 1.5883163675e+00	 6.7991581753e-01
 1.3357624408e+00	 1.4726894820e+00	 4.3899443868e-01
 1.3213552262e+00	 1.4856297772e+00	 6.4150605124e-01
 1.3068267401e+00	 1.4984255770e+00	 7.9040468055e-01
 1.2921791698e+00	 1.5110751865e+00	 8.9474812863e-01
 1.2774147334e+00	 1.5235769547e+00	 9.6524457283e-01
 1.2625356791e+00	 1.5359292751e+00	 1.0127963494e+00
 1.2475442836e+00	 1.5481305862e+00	 1.0483843894e+00
 1.2324428513e+00	 1.5601793728e+00	 1.0829560929e+00
 1.2172337132e+00	 1.5720741657e+00	 1.1273171882e+00
 1.2019192253e+00	 1.5838135430e+00	 1.1920280790e+00
 1.1865017678e+00	 1.5953961302e+00	 1.2873051393e+00
 1.3416900476e+00	 1.4792247191e+00	 1.5052065820e+00
 1.3272188993e+00	 1.4922224384e+00	 1.6680280589e+00
 1.3126259413e+00	 1.5050750212e+00	 1.7744530125e+00
 1.2979133706e+00	 1.5177807649e+00	 1.8337837245e+00
 1.2830834153e+00	 1.5303380112e+00	 1.8558457130e+00
 1.2681383334e+00	 1.5427451464e+00	 1.8507833108e+00
 1.2530804118e+00	 1.5550006024e+00	 1.8289416964e+00
 1.2379119651e+00	 1.5671028568e+00	 1.8007523521e+00
 1.2226353346e+00	 1.5790504343e+00	 1.7766225090e+00
 1.2072528868e+00	 1.5908419065e+00	 1.7668290941e+00
 1.1917670125e+00	 1.6024758929e+00	 1.7814176485e+00
 1.3476176545e+00	 1.4857599563e+00	 2.3888044561e+00
 1.3330825724e+00	 1.4988150997e+00	 2.5127689529e+00
 1.3184251425e+00	 1.5117244653e+00	 2.5799685722e+00
 1.3036475715e+00	 1.5244863432e+00	 2.5987244978e+00
 1.2887520972e+00	 1.5370990676e+00	 2.5779260263e+00
 1.2737409877e+00	 1.5495610178e+00	 2.5269074581e+00
 1.2586165399e+00	 1.5618706185e+00	 2.4553277942e+00
 1.2433810789e+00	 1.5740263409e+00	 2.3730538521e+00
 1.2280369560e+00	 1.5860267030e+00	 2.2900473728e+00
 1.2125865483e+00	 1.5978702701e+00	 2.2162566446e+00
 1.1970322572e+00	 1.6095556556e+00	 2.1615131253e+00
 1.3535452614e+00	 1.4922951934e+00	 3.0687366246e+00
 1.3389462456e+00	 1.5054077610e+00	 3.1576186545e+00
 1.3242243438e+00	 1.5183739095e+00	 3.1907078396e+00
 1.3093817724e+00	 1.5311919215e+00	 3.1752072757e+00
 1.2944207791e+00	 1.5438601240e+00	 3.1190180999e+00
 1.2793436420e+00	 1.5563768891e+00	 3.0306141378e+00
 1.2641526681e+00	 1.5687406347e+00	 2.9189193364e+00
 1.2488501926e+00	 1.5809498250e+00	 2.7931886096e+00
 1.2334385773e+00	 1.5930029717e+00	 2.6628926809e+00
 1.2179202098e+00	 1.6048986337e+00	 2.5376074605e+00
 1.2022975018e+00	 1.6166354183e+00	 2.4269084489e+00
 1.3594728683e+00	 1.4988304306e+00	 3.5253495025e+00
 1.3448099187e+00	 1.5120004222e+00	 3.5848283364e+00
 1.3300235450e+00	 1.5250233537e+00	 3.5907551553e+00
 1.3151159732e+00	 1.5378974999e+00	 3.5491632355e+00
 1.3000894610e+00	 1.5506211805e+00	 3.4669152165e+00
 1.2849462963e+00	 1.5631927605e+00	 3.3515755697e+00
 1.2696887963e+00	 1.5756106508e+00	 3.2112858361e+00
 1.2543193064e+00	 1.5878733091e+00	 3.0546432705e+00
 1.2388401987e+00	 1.5999792403e+00	 2.8905834928e+00
 1.2232538713e+00	 1.6119269972e+00	 2.7282676928e+00
 1.2075627465e+00	 1.6237151810e+00	 2.5769748921e+00
 1.3654004752e+00	 1.5053656677e+00	 3.7394576001e+00
 1.3506735918e+00	 1.5185930835e+00	 3.7770010503e+00
 1.3358227462e+00	 1.5316727978e+00	 3.7645140560e+00
 1.3208501741e+00	 1.5446030782e+00	 3.7068099546e+00
 1.3057581429e+00	 1.5573822369e+00	 3.6096641267e+00
 1.2905489506e+00	 1.5700086318e+00	 3.4796843506e+00
 1.2752249245e+00	 1.5824806669e+00	 3.3241839093e+00
 1.2597884201e+00	 1.5947967932e+00	 3.1510581031e+00
 1.2442418201e+00	 1.6069555090e+00	 2.9686647791e+00
 1.2285875327e+00	 1.6189553608e+00	 2.7857094375e+00
 1.2128279911e+00	 1.6307949437e+00	 2.6111354263e+00
 1.3713280821e+00	 1.5119009048e+00	 3.6922500276e+00
 1.3565372650e+00	 1.5251857448e+00	 3.7170825372e+00
 1.3416219475e+00	 1.5383222420e+00	 3.6966987730e+00
 1.3265843750e+00	 1.5513086566e+00	 3.6346436045e+00
 1.3114268248e+00	 1.5641432934e+00	 3.5355579471e+00
 1.2961516049e+00	 1.5768245032e+00	 3.4050470638e+00
 1.2807610527e+00	 1.5893506831e+00	 3.2495516056e+00
 1.2652575339e+00	 1.6017202773e+00	 3.0762220590e+00
 1.2496434414e+00	 1.6139317777e+00	 2.8927972225e+00
 1.2339211942e+00	 1.6259837244e+00	 2.7074872861e+00
 1.2180932358e+00	 1.6378747064e+00	 2.5288620338e+00
 1.3772556890e+00	 1.5184361420e+00	 3.3652808162e+00
 1.3624009381e+00	 1.5317784060e+00	 3.3883522121e+00
 1.3474211487e+00	 1.5449716862e+00	 3.3723258883e+00
 1.3323185759e+00	 1.5580142349e+00	 3.3194312854e+00
 1.3170955067e+00	 1.5709043498e+00	 3.2331291801e+00
 1.3017542592e+00	 1.5836403745e+00	 3.1179779928e+00
 1.2862971808e+00	 1.5962206992e+00	 2.9795028240e+00
 1.2707266476e+00	 1.6086437614e+00	 2.8240679002e+00
 1.2550450628e+00	 1.6209080463e+00	 2.6587530662e+00
 1.2392548557e+00	 1.6330120879e+00	 2.4912349067e+00
 1.2233584805e+00	 1.6449544691e+00	 2.3296730306e+00
 1.3831832959e+00	 1.5249713791e+00	 2.7404594276e+00
 1.3682646113e+00	 1.5383710673e+00	 2.7744143212e+00
 1.3532203499e+00	 1.5516211303e+00	 2.7767061444e+00
 1.3380527767e+00	 1.5647198132e+00	 2.7482034959e+00
 1.3227641886e+00	 1.5776654063e+00	 2.6911428515e+00
 1.3073569135e+00	 1.5904562459e+00	 2.6089929352e+00
 1.2918333090e+00	 1.6030907154e+00	 2.5063218112e+00
 1.2761957614e+00	 1.6155672454e+00	 2.3886673912e+00
 1.2604466842e+00	 1.6278843150e+00	 2.2624120085e+00
 1.2445885172e+00	 1.6400404515e+00	 2.1346616508e+00
 1.2286237251e+00	 1.6520342318e+00	 2.0131303967e+00
 1.1759712785e+00	 1.5812366048e+00	-3.9950282738e-02
 1.1605936020e+00	 1.5925577705e+00	 2.4437084371e-01
 1.1451186788e+00	 1.6037210169e+00	 4.7716802158e-01
 1.1295489225e+00	 1.6147251331e+00	 6.5372117512e-01
 1.1138867658e+00	 1.6255689568e+00	 7.6962905885e-01
 1.0981346594e+00	 1.6362513750e+00	 8.4425495867e-01
 1.0822950704e+00	 1.6467713242e+00	 9.1494993880e-01
 1.0663704815e+00	 1.6571277905e+00	 9.7243939765e-01
 1.0503633895e+00	 1.6673198101e+00	 1.0061474290e+00
 1.0342763041e+00	 1.6773464695e+00	 1.0054053096e+00
 1.0181117467e+00	 1.6872069052e+00	 9.5953559203e-01
 1.1812365232e+00	 1.5883163675e+00	 6.7991581753e-01
 1.1657899953e+00	 1.5996882221e+00	 8.6593440660e-01
 1.1502457853e+00	 1.6109014504e+00	 1.0063623641e+00
 1.1346063176e+00	 1.6219548359e+00	 1.0971112435e+00
 1.1188740358e+00	 1.6328472113e+00	 1.1345108171e+00
 1.1030514016e+00	 1.6435774585e+00	 1.1240520222e+00
 1.0871408931e+00	 1.6541445093e+00	 1.1112976383e+00
 1.0711450041e+00	 1.6645473452e+00	 1.0951511232e+00
 1.0550662427e+00	 1.6747849982e+00	 1.0659518011e+00
 1.0389071296e+00	 1.6848565504e+00	 1.0140584210e+00
 1.0226701977e+00	 1.6947611348e+00	 9.2993197792e-01
 1.1865017678e+00	 1.5953961302e+00	 1.2873051393e+00
 1.1709863886e+00	 1.6068186737e+00	 1.3829122994e+00
 1.1553728918e+00	 1.6180818838e+00	 1.4394251585e+00
 1.1396637127e+00	 1.6291845387e+00	 1.4533128583e+00
 1.1238613059e+00	 1.6401254658e+00	 1.4215355642e+00
 1.1079681438e+00	 1.6509035420e+00	 1.3427781566e+00
 1.0919867158e+00	 1.6615176944e+00	 1.2571090471e+00
 1.0759195268e+00	 1.6719668999e+00	 1.1778230574e+00
 1.0597690958e+00	 1.6822501862e+00	 1.0959722519e+00
 1.0435379551e+00	 1.6923666314e+00	 1.0027172747e+00
 1.0272286487e+00	 1.7023153645e+00	 8.8940938168e-01
 1.1917670125e+00	 1.6024758929e+00	 1.7814176485e+00
 1.1761827819e+00	 1.6139491253e+00	 1.7964514895e+00
 1.1604999983e+00	 1.6252623173e+00	 1.7791350518e+00
 1.1447211079e+00	 1.6364142416e+00	 1.7264228164e+00
 1.1288485760e+00	 1.6474037203e+00	 1.6358067156e+00
 1.1128848861e+00	 1.6582296256e+00	 1.5052519515e+00
 1.0968325385e+00	 1.6688908795e+00	 1.3580227804e+00
 1.0806940494e+00	 1.6793864546e+00	 1.2262029371e+00
 1.0644719489e+00	 1.6897153742e+00	 1.1017615259e+00
 1.0481687806e+00	 1.6998767124e+00	 9.7643882900e-01
 1.0317870997e+00	 1.7098695942e+00	 8.4223173921e-01
 1.1970322572e+00	 1.6095556556e+00	 2.1615131253e+00
 1.1813791752e+00	 1.6210795769e+00	 2.1077247908e+00
 1.1656271049e+00	 1.6324427508e+00	 2.0282682376e+00
 1.1497785030e+00	 1.6436439444e+00	 1.9205127934e+00
 1.1338358460e+00	 1.6546819748e+00	 1.7823854897e+00
 1.1178016283e+00	 1.6655557091e+00	 1.6123050378e+00
 1.1016783613e+00	 1.6762640646e+00	 1.4195983406e+00
 1.0854685720e+00	 1.6868060093e+00	 1.2459568404e+00
 1.0691748021e+00	 1.6971805623e+00	 1.0887933420e+00
 1.0527996061e+00	 1.7073867934e+00	 9.4020877769e-01
 1.0363455507e+00	 1.7174238239e+00	 7.9260455380e-01
 1.2022975018e+00	 1.6166354183e+00	 2.4269084489e+00
 1.1865755685e+00	 1.6282100286e+00	 2.3179289172e+00
 1.1707542114e+00	 1.6396231842e+00	 2.1895971591e+00
 1.1548358982e+00	 1.6508736472e+00	 2.0396285779e+00
 1.1388231161e+00	 1.6619602293e+00	 1.8662905552e+00
 1.1227183705e+00	 1.6728817926e+00	 1.6683349049e+00
 1.1065241840e+00	 1.6836372497e+00	 1.4473202200e+00
 1.0902430947e+00	 1.6942255640e+00	 1.2426733061e+00
 1.0738776552e+00	 1.7046457503e+00	 1.0624664135e+00
 1.0574304316e+00	 1.7148968744e+00	 8.9894535333e-01
 1.0409040017e+00	 1.7249780536e+00	 7.4467836879e-01
 1.2075627465e+00	 1.6237151810e+00	 2.5769748921e+00
 1.1917719618e+00	 1.6353404802e+00	 2.4282825275e+00
 1.1758813179e+00	 1.6468036177e+00	 2.2658891872e+00
 1.1598932933e+00	 1.6581033501e+00	 2.0877892662e+00
 1.1438103861e+00	 1.6692384838e+00	 1.8924976284e+00
 1.1276351128e+00	 1.6802078761e+00	 1.6789808548e+00
 1.1113700067e+00	 1.6910104348e+00	 1.4465942993e+00
 1.0950176173e+00	 1.7016451188e+00	 1.2218673918e+00
 1.0785805084e+00	 1.7121109383e+00	 1.0281084079e+00
 1.0620612571e+00	 1.7224069553e+00	 8.5750307597e-01
 1.0454624527e+00	 1.7325322833e+00	 7.0255219305e-01
 1.2128279911e+00	 1.6307949437e+00	 2.6111354263e+00
 1.1969683551e+00	 1.6424709318e+00	 2.4400242596e+00
 1.1810084244e+00	 1.6539840511e+00	 2.2599052710e+00
 1.1649506885e+00	 1.6653330529e+00	 2.0689864180e+00
 1.1487976562e+00	 1.6765167384e+00	 1.8659390213e+00
 1.1325518550e+00	 1.6875339596e+00	 1.6498281227e+00
 1.1162158294e+00	 1.6983836199e+00	 1.4200489459e+00
 1.0997921399e+00	 1.7090646735e+00	 1.1889846708e+00
 1.0832833615e+00	 1.7195761264e+00	 9.9097984784e-01
 1.0666920826e+00	 1.7299170363e+00	 8.2067644787e-01
 1.0500209036e+00	 1.7400865129e+00	 6.7027688047e-01
 1.2180932358e+00	 1.6378747064e+00	 2.5288620338e+00
 1.2021647484e+00	 1.6496013834e+00	 2.3544107550e+00
 1.1861355309e+00	 1.6611644846e+00	 2.1743985648e+00
 1.1700080836e+00	 1.6725627557e+00	 1.9871831746e+00
 1.1537849262e+00	 1.6837949929e+00	 1.7915031422e+00
 1.1374685972e+00	 1.6948600432e+00	 1.5864076527e+00
 1.1210616521e+00	 1.7057568050e+00	 1.3711927356e+00
 1.1045666626e+00	 1.7164842282e+00	 1.1494051706e+00
 1.0879862147e+00	 1.7270413144e+00	 9.5627795534e-01
 1.0713229081e+00	 1.7374271173e+00	 7.9320359634e-01
 1.0545793546e+00	 1.7476407426e+00	 6.5185846502e-01
 1.2233584805e+00	 1.6449544691e+00	 2.3296730306e+00
 1.2073611416e+00	 1.6567318350e+00	 2.1727146747e+00
 1.1912626374e+00	 1.6683449181e+00	 2.0121130293e+00
 1.1750654787e+00	 1.6797924585e+00	 1.8463133400e+00
 1.1587721963e+00	 1.6910732474e+00	 1.6740339513e+00
 1.1423853395e+00	 1.7021861267e+00	 1.4941958214e+00
 1.1259074749e+00	 1.7131299901e+00	 1.3058588455e+00
 1.1093411852e+00	 1.7239037829e+00	 1.1084472544e+00
 1.0926890678e+00	 1.7345065024e+00	 9.2914044132e-01
 1.0759537336e+00	 1.7449371983e+00	 7.7976986599e-01
 1.0591378056e+00	 1.7551949723e+00	 6.5126145264e-01
 1.2286237251e+00	 1.6520342318e+00	 2.0131303967e+00
 1.2125575349e+00	 1.6638622866e+00	 1.8962227064e+00
 1.1963897440e+00	 1.6755253515e+00	 1.7757820107e+00
 1.1801228739e+00	 1.6870221614e+00	 1.6502804273e+00
 1.1637594664e+00	 1.6983515019e+00	 1.5183303708e+00
 1.1473020817e+00	 1.7095122102e+00	 1.3786141100e+00
 1.1307532976e+00	 1.7205031752e+00	 1.2298205457e+00
 1.1141157078e+00	 1.7313233376e+00	 1.0705893154e+00
 1.0973919210e+00	 1.7419716905e+00	 9.1464924124e-01
 1.0805845591e+00	 1.7524472793e+00	 7.8501136214e-01
 1.0636962566e+00	 1.7627492020e+00	 6.7241207133e-01
 1.0181117467e+00	 1.6872069052e+00	 9.5953559203e-01
 1.0018722495e+00	 1.6969003048e+00	 8.9443824485e-01
 9.8556035499e-01	 1.7064259082e+00	 8.4236747746e-01
 9.6917861406e-01	 1.7157830063e+00	 8.0231509233e-01
 9.5272958417e-01	 1.7249709404e+00	 7.7344088492e-01
 9.3621582822e-01	 1.7339891027e+00	 7.5511625884e-01
 9.1963991332e-01	 1.7428369360e+00	 7.4696212789e-01
 9.0300440955e-01	 1.7515139334e+00	 7.4888122474e-01
 8.8631188877e-01	 1.7600196386e+00	 7.6108496685e-01
 8.6956492342e-01	 1.7683536454e+00	 7.8411505956e-01
 8.5276608528e-01	 1.7765155975e+00	 8.1886004271e-01
 1.0226701977e+00	 1.6947611348e+00	 9.2993197792e-01
 1.0063579904e+00	 1.7044979353e+00	 8.3971410420e-01
 9.8997306174e-01	 1.7140661883e+00	 7.7397794162e-01
 9.7351797389e-01	 1.7234651814e+00	 7.3003913796e-01
 9.5699529580e-01	 1.7326942532e+00	 7.0536656247e-01
 9.4040760185e-01	 1.7417527931e+00	 6.9762865565e-01
 9.2375747063e-01	 1.7506402413e+00	 7.0473390102e-01
 9.0704748376e-01	 1.7593560887e+00	 7.2486554216e-01
 8.9028022458e-01	 1.7678998770e+00	 7.5651070056e-01
 8.7345827706e-01	 1.7762711981e+00	 7.9848407970e-01
 8.5658422452e-01	 1.7844696941e+00	 8.4994646770e-01
 1.0272286487e+00	 1.7023153645e+00	 8.8940938168e-01
 1.0108437314e+00	 1.7120955658e+00	 7.8149422848e-01
 9.9438576848e-01	 1.7217064683e+00	 7.0732712113e-01
 9.7785733371e-01	 1.7311473565e+00	 6.6288681872e-01
 9.6126100742e-01	 1.7404175660e+00	 6.4429382477e-01
 9.4459937547e-01	 1.7495164834e+00	 6.4785893853e-01
 9.2787502795e-01	 1.7584435465e+00	 6.7012576159e-01
 9.1109055796e-01	 1.7671982440e+00	 7.0790728797e-01
 8.9424856039e-01	 1.7757801154e+00	 7.5831673933e-01
 8.7735163071e-01	 1.7841887508e+00	 8.1879283679e-01
 8.6040236375e-01	 1.7924237908e+00	 8.8711972948e-01
 1.0317870997e+00	 1.7098695942e+00	 8.4223173921e-01
 1.0153294723e+00	 1.7196931963e+00	 7.2313031592e-01
 9.9879847523e-01	 1.7293467484e+00	 6.4490770895e-01
 9.8219669353e-01	 1.7388295316e+00	 6.0254042769e-01
 9.6552671904e-01	 1.7481408788e+00	 5.9113854901e-01
 9.4879114909e-01	 1.7572801737e+00	 6.0599593951e-01
 9.3199258526e-01	 1.7662468518e+00	 6.4263426476e-01
 9.1513363217e-01	 1.7750403993e+00	 6.9684091979e-01
 8.9821689620e-01	 1.7836603537e+00	 7.6470104922e-01
 8.8124498436e-01	 1.7921063035e+00	 8.4262385628e-01
 8.6422050298e-01	 1.8003778875e+00	 9.2736342894e-01
 1.0363455507e+00	 1.7174238239e+00	 7.9260455380e-01
 1.0198152133e+00	 1.7272908268e+00	 6.6793041103e-01
 1.0032111820e+00	 1.7369870284e+00	 5.8918244419e-01
 9.8653605336e-01	 1.7465117068e+00	 5.5066501543e-01
 9.6979243067e-01	 1.7558641916e+00	 5.4681118356e-01
 9.5298292272e-01	 1.7650438641e+00	 5.7223406941e-01
 9.3611014258e-01	 1.7740501570e+00	 6.2177183803e-01
 9.1917670637e-01	 1.7828825546e+00	 6.9052643925e-01
 9.0218523201e-01	 1.7915405921e+00	 7.7389628276e-01
 8.8513833800e-01	 1.8000238562e+00	 8.6760305582e-01
 8.6803864221e-01	 1.8083319842e+00	 9.6771292109e-01
 1.0409040017e+00	 1.7249780536e+00	 7.4467836879e-01
 1.0243009542e+00	 1.7348884573e+00	 6.1916200006e-01
 1.0076238887e+00	 1.7446273085e+00	 5.4258685047e-01
 9.9087541318e-01	 1.7541938819e+00	 5.0891078946e-01
 9.7405814229e-01	 1.7635875044e+00	 5.1221882519e-01
 9.5717469634e-01	 1.7728075544e+00	 5.4677508759e-01
 9.4022769989e-01	 1.7818534623e+00	 6.0706825640e-01
 9.2321978058e-01	 1.7907247099e+00	 6.8785058374e-01
 9.0615356782e-01	 1.7994208305e+00	 7.8417069646e-01
 8.8903169165e-01	 1.8079414089e+00	 8.9140039620e-01
 8.7185678144e-01	 1.8162860809e+00	 1.0052557050e+00
 1.0454624527e+00	 1.7325322833e+00	 7.0255219305e-01
 1.0287866951e+00	 1.7424860878e+00	 5.8005506823e-01
 1.0120365955e+00	 1.7522675885e+00	 5.0753194459e-01
 9.9521477300e-01	 1.7618760570e+00	 4.7891549234e-01
 9.7832385392e-01	 1.7713108171e+00	 4.8826728257e-01
 9.6136646996e-01	 1.7805712447e+00	 5.2982986520e-01
 9.4434525721e-01	 1.7896567675e+00	 5.9807211792e-01
 9.2726285478e-01	 1.7985668651e+00	 6.8772802504e-01
 9.1012190363e-01	 1.8073010689e+00	 7.9382908162e-01
 8.9292504530e-01	 1.8158589616e+00	 9.1173055159e-01
 8.7567492067e-01	 1.8242401776e+00	 1.0371318391e+00
 1.0500209036e+00	 1.7400865129e+00	 6.7027688047e-01
 1.0332724361e+00	 1.7500837184e+00	 5.5380512010e-01
 1.0164493022e+00	 1.7599078685e+00	 4.8640691678e-01
 9.9955413283e-01	 1.7695582321e+00	 4.6230675905e-01
 9.8258956554e-01	 1.7790341299e+00	 4.7586312651e-01
 9.6555824359e-01	 1.7883349351e+00	 5.2162014214e-01
 9.4846281452e-01	 1.7974600728e+00	 5.9435231957e-01
 9.3130592898e-01	 1.8064090204e+00	 6.8910257469e-01
 9.1409023944e-01	 1.8151813072e+00	 8.0121370799e-01
 8.9681839894e-01	 1.8237765143e+00	 9.2635359844e-01
 8.7949305990e-01	 1.8321942743e+00	 1.0605343807e+00
 1.0545793546e+00	 1.7476407426e+00	 6.5185846502e-01
 1.0377581770e+00	 1.7576813489e+00	 5.4357616404e-01
 1.0208620090e+00	 1.7675481486e+00	 4.8158178312e-01
 1.0038934927e+00	 1.7772404072e+00	 4.6070445427e-01
 9.8685527717e-01	 1.7867574427e+00	 4.7591572723e-01
 9.6975001721e-01	 1.7960986254e+00	 5.2238027790e-01
 9.5258037184e-01	 1.8052633781e+00	 5.9549953363e-01
 9.3534900319e-01	 1.8142511757e+00	 6.9094839594e-01
 9.1805857525e-01	 1.8230615456e+00	 8.0470527976e-01
 9.0071175259e-01	 1.8316940670e+00	 9.3307572259e-01
 8.8331119913e-01	 1.8401483710e+00	 1.0727098492e+00
 1.0591378056e+00	 1.7551949723e+00	 6.5126145264e-01
 1.0422439180e+00	 1.7652789794e+00	 5.5250366194e-01
 1.0252747157e+00	 1.7751884286e+00	 4.9541001106e-01
 1.0082328525e+00	 1.7849225824e+00	 4.7572299013e-01
 9.9112098879e-01	 1.7944807555e+00	 4.8933927915e-01
 9.7394179083e-01	 1.8038623158e+00	 5.3235899657e-01
 9.5669792915e-01	 1.8130666833e+00	 6.0112768425e-01
 9.3939207740e-01	 1.8220933310e+00	 6.9227122196e-01
 9.2202691106e-01	 1.8309417840e+00	 8.0272390375e-01
 9.0460510624e-01	 1.8396116197e+00	 9.2974994390e-01
 8.8712933836e-01	 1.8481024677e+00	 1.0709587127e+00
 1.0636962566e+00	 1.7627492020e+00	 6.7241207133e-01
 1.0467296589e+00	 1.7728766099e+00	 5.8369744520e-01
 1.0296874225e+00	 1.7828287087e+00	 5.3023111894e-01
 1.0125722123e+00	 1.7926047575e+00	 5.0897362515e-01
 9.9538670041e-01	 1.8022040683e+00	 5.1705481359e-01
 9.7813356446e-01	 1.8116260061e+00	 5.5182112601e-01
 9.6081548646e-01	 1.8208699886e+00	 6.1087542450e-01
 9.4343515160e-01	 1.8299354863e+00	 6.9210958023e-01
 9.2599524687e-01	 1.8388220224e+00	 7.9373006920e-01
 9.0849845989e-01	 1.8475291724e+00	 9.1427685808e-01
 8.9094747759e-01	 1.8560565644e+00	 1.0526007093e+00
 8.5276608528e-01	 1.7765155975e+00	 8.1886004271e-01
 8.3591507583e-01	 1.7845065320e+00	 8.6675477243e-01
 8.1901731432e-01	 1.7923247887e+00	 9.2686985882e-01
 8.0207536413e-01	 1.7999701588e+00	 9.9688272020e-01
 7.8509178342e-01	 1.8074424822e+00	 1.0745389622e+00
 7.6806912395e-01	 1.8147416478e+00	 1.1576569208e+00
 7.5100993004e-01	 1.8218675923e+00	 1.2441290667e+00
 7.3391673744e-01	 1.8288203008e+00	 1.3316483735e+00
 7.1679207226e-01	 1.8355998053e+00	 1.4165383625e+00
 6.9963844990e-01	 1.8422061850e+00	 1.4985861402e+00
 6.8245837404e-01	 1.8486395656e+00	 1.5781863402e+00
 8.5658422452e-01	 1.7844696941e+00	 8.4994646770e-01
 8.3965776706e-01	 1.7924964070e+00	 9.0893661241e-01
 8.2268434822e-01	 1.8003496688e+00	 9.7315881787e-01
 8.0566654285e-01	 1.8080292700e+00	 1.0415886722e+00
 7.8860692056e-01	 1.8155350497e+00	 1.1132322122e+00
 7.7150804454e-01	 1.8228668962e+00	 1.1871282778e+00
 7.5437247051e-01	 1.8300247461e+00	 1.2623477425e+00
 7.3720274557e-01	 1.8370085843e+00	 1.3379412660e+00
 7.2000140712e-01	 1.8438184431e+00	 1.4120809816e+00
 7.0277098185e-01	 1.8504544020e+00	 1.4852808279e+00
 6.8551398464e-01	 1.8569165872e+00	 1.5587023329e+00
 8.6040236375e-01	 1.7924237908e+00	 8.8711972948e-01
 8.4340045828e-01	 1.8004862819e+00	 9.5811860594e-01
 8.2635138211e-01	 1.8083745489e+00	 1.0278973157e+00
 8.0925772156e-01	 1.8160883811e+00	 1.0964778330e+00
 7.9212205770e-01	 1.8236276171e+00	 1.1638884128e+00
 7.7494696514e-01	 1.8309921446e+00	 1.2301638495e+00
 7.5773501099e-01	 1.8381819000e+00	 1.2953426050e+00
 7.4048875370e-01	 1.8451968679e+00	 1.3594610256e+00
 7.2321074199e-01	 1.8520370810e+00	 1.4222854040e+00
 7.0590351381e-01	 1.8587026190e+00	 1.4848440893e+00
 6.8856959524e-01	 1.8651936087e+00	 1.5489937165e+00
 8.6422050298e-01	 1.8003778875e+00	 9.2736342894e-01
 8.4714314951e-01	 1.8084761569e+00	 1.0107623696e+00
 8.3001841600e-01	 1.8163994290e+00	 1.0871678695e+00
 8.1284890028e-01	 1.8241474923e+00	 1.1573998798e+00
 7.9563719483e-01	 1.8317201845e+00	 1.2222739196e+00
 7.7838588573e-01	 1.8391173930e+00	 1.2825993282e+00
 7.6109755146e-01	 1.8463390538e+00	 1.3391743597e+00
 7.4377476183e-01	 1.8533851515e+00	 1.3927664479e+00
 7.2642007686e-01	 1.8602557188e+00	 1.4439476429e+00
 7.0903604576e-01	 1.8669508360e+00	 1.4947744897e+00
 6.9162520584e-01	 1.8734706302e+00	 1.5478620535e+00
 8.6803864221e-01	 1.8083319842e+00	 9.6771292109e-01
 8.5088584073e-01	 1.8164660319e+00	 1.0633882420e+00
 8.3368544990e-01	 1.8244243091e+00	 1.1471161457e+00
 8.1644007899e-01	 1.8322066034e+00	 1.2202694811e+00
 7.9915233197e-01	 1.8398127520e+00	 1.2842192923e+00
 7.8182480633e-01	 1.8472426414e+00	 1.3403311530e+00
 7.6446009194e-01	 1.8544962076e+00	 1.3899232578e+00
 7.4706076995e-01	 1.8615734351e+00	 1.4339730988e+00
 7.2962941173e-01	 1.8684743567e+00	 1.4739997931e+00
 7.1216857772e-01	 1.8751990530e+00	 1.5130678327e+00
 6.9468081645e-01	 1.8817476518e+00	 1.5541817081e+00
 8.7185678144e-01	 1.8162860809e+00	 1.0052557050e+00
 8.5462853196e-01	 1.8244559068e+00	 1.1125754415e+00
 8.3735248379e-01	 1.8324491893e+00	 1.2039509408e+00
 8.2003125771e-01	 1.8402657146e+00	 1.2810661546e+00
 8.0266746911e-01	 1.8479053194e+00	 1.3456190871e+00
 7.8526372693e-01	 1.8553678898e+00	 1.3992579937e+00
 7.6782263241e-01	 1.8626533614e+00	 1.4433361464e+00
 7.5034677808e-01	 1.8697617187e+00	 1.4795520606e+00
 7.3283874660e-01	 1.8766929945e+00	 1.5097900192e+00
 7.1530110968e-01	 1.8834472699e+00	 1.5377669830e+00
 6.9773642705e-01	 1.8900246733e+00	 1.5668475171e+00
 8.7567492067e-01	 1.8242401776e+00	 1.0371318391e+00
 8.5837122318e-01	 1.8324457818e+00	 1.1549622549e+00
 8.4101951769e-01	 1.8404740694e+00	 1.2539441948e+00
 8.2362243642e-01	 1.8483248258e+00	 1.3358341614e+00
 8.0618260625e-01	 1.8559978868e+00	 1.4023578112e+00
 7.8870264752e-01	 1.8634931382e+00	 1.4550191101e+00
 7.7118517289e-01	 1.8708105152e+00	 1.4957080872e+00
 7.5363278621e-01	 1.8779500023e+00	 1.5263097357e+00
 7.3604808146e-01	 1.8849116324e+00	 1.5487153925e+00
 7.1843364163e-01	 1.8916954869e+00	 1.5669509224e+00
 7.0079203765e-01	 1.8983016948e+00	 1.5847749028e+00
 8.7949305990e-01	 1.8321942743e+00	 1.0605343807e+00
 8.6211391441e-01	 1.8404356568e+00	 1.1872462546e+00
 8.4468655158e-01	 1.8484989495e+00	 1.2934310391e+00
 8.2721361514e-01	 1.8563839369e+00	 1.3806045670e+00
 8.0969774340e-01	 1.8640904543e+00	 1.4501477470e+00
 7.9214156812e-01	 1.8716183866e+00	 1.5038641080e+00
 7.7454771336e-01	 1.8789676691e+00	 1.5435918595e+00
 7.5691879434e-01	 1.8861382859e+00	 1.5711292743e+00
 7.3925741633e-01	 1.8931302703e+00	 1.5882214718e+00
 7.2156617359e-01	 1.8999437039e+00	 1.5987345707e+00
 7.0384764826e-01	 1.9065787164e+00	 1.6068999943e+00
 8.8331119913e-01	 1.8401483710e+00	 1.0727098492e+00
 8.6585660563e-01	 1.8484255317e+00	 1.2061845453e+00
 8.4835358548e-01	 1.8565238296e+00	 1.3187395215e+00
 8.3080479385e-01	 1.8644430481e+00	 1.4113162768e+00
 8.1321288054e-01	 1.8721830217e+00	 1.4853180730e+00
 7.9558048872e-01	 1.8797436350e+00	 1.5422449079e+00
 7.7791025384e-01	 1.8871248229e+00	 1.5836211717e+00
 7.6020480247e-01	 1.8943265694e+00	 1.6109688675e+00
 7.4246675120e-01	 1.9013489081e+00	 1.6257830099e+00
 7.2469870555e-01	 1.9081919209e+00	 1.6312686235e+00
 7.0690325886e-01	 1.9148557379e+00	 1.6321797566e+00
 8.8712933836e-01	 1.8481024677e+00	 1.0709587127e+00
 8.6959929686e-01	 1.8564154067e+00	 1.2085395470e+00
 8.5202061937e-01	 1.8645487097e+00	 1.3261682809e+00
 8.3439597257e-01	 1.8725021593e+00	 1.4244986278e+00
 8.1672801768e-01	 1.8802755891e+00	 1.5043625386e+00
 7.9901940931e-01	 1.8878688835e+00	 1.5666957709e+00
 7.8127279431e-01	 1.8952819767e+00	 1.6125088212e+00
 7.6349081060e-01	 1.9025148530e+00	 1.6428600673e+00
 7.4567608607e-01	 1.9095675460e+00	 1.6588310527e+00
 7.2783123751e-01	 1.9164401379e+00	 1.6627394053e+00
 7.0995886946e-01	 1.9231327594e+00	 1.6595921270e+00
 8.9094747759e-01	 1.8560565644e+00	 1.0526007093e+00
 8.7334198809e-01	 1.8644052817e+00	 1.1910883196e+00
 8.5568765327e-01	 1.8725735898e+00	 1.3125625026e+00
 8.3798715128e-01	 1.8805612704e+00	 1.4168201986e+00
 8.2024315482e-01	 1.8883681565e+00	 1.5038560862e+00
 8.0245832991e-01	 1.8959941319e+00	 1.5738313851e+00
 7.8463533479e-01	 1.9034391305e+00	 1.6270448853e+00
 7.6677681873e-01	 1.9107031366e+00	 1.6639061337e+00
 7.4888542094e-01	 1.9177861838e+00	 1.6849107077e+00
 7.3096376946e-01	 1.9246883549e+00	 1.6913687374e+00
 7.1301448007e-01	 1.9314097810e+00	 1.6881361594e+00
 6.8245837404e-01	 1.8486395656e+00	 1.5781863402e+00
 6.6525726174e-01	 1.8548990690e+00	 1.6422925557e+00
 6.4803467015e-01	 1.8609860192e+00	 1.6788018824e+00
 6.3079305973e-01	 1.8669006767e+00	 1.6895831951e+00
 6.1353487531e-01	 1.8726433462e+00	 1.6764310635e+00
 5.9626254515e-01	 1.8782143759e+00	 1.6410199890e+00
 5.7897848006e-01	 1.8836141573e+00	 1.5849104830e+00
 5.6168507249e-01	 1.8888431238e+00	 1.5095546049e+00
 5.4438469569e-01	 1.8939017510e+00	 1.4163010102e+00
 5.2707970286e-01	 1.8987905551e+00	 1.3063995533e+00
 5.0977242635e-01	 1.9035100927e+00	 1.1810054888e+00
 6.8551398464e-01	 1.8569165872e+00	 1.5587023329e+00
 6.6823585680e-01	 1.8632041166e+00	 1.6205803650e+00
 6.5093615350e-01	 1.8693183203e+00	 1.6591871239e+00
 6.3361734621e-01	 1.8752594598e+00	 1.6752265270e+00
 6.1628189072e-01	 1.8810278413e+00	 1.6693429473e+00
 5.9893222615e-01	 1.8866238145e+00	 1.6421281259e+00
 5.8157077411e-01	 1.8920477726e+00	 1.5941274034e+00
 5.6419993776e-01	 1.8973001511e+00	 1.5258453241e+00
 5.4682210098e-01	 1.9023814275e+00	 1.4377506679e+00
 5.2943962749e-01	 1.9072921205e+00	 1.3302809564e+00
 5.1205486010e-01	 1.9120327892e+00	 1.2038464809e+00
 6.8856959524e-01	 1.8651936087e+00	 1.5489937165e+00
 6.7121445186e-01	 1.8715091642e+00	 1.6051961003e+00
 6.5383763685e-01	 1.8776506213e+00	 1.6424757076e+00
 6.3644163270e-01	 1.8836182429e+00	 1.6604970480e+00
 6.1902890613e-01	 1.8894123363e+00	 1.6589202173e+00
 6.0160190715e-01	 1.8950332530e+00	 1.6374080311e+00
 5.8416306816e-01	 1.9004813879e+00	 1.5956324026e+00
 5.6671480303e-01	 1.9057571784e+00	 1.5332800252e+00
 5.4925950626e-01	 1.9108611041e+00	 1.4500574148e+00
 5.3179955213e-01	 1.9157936860e+00	 1.3456953631e+00
 5.1433729386e-01	 1.9205554858e+00	 1.2199528524e+00
 6.9162520584e-01	 1.8734706302e+00	 1.5478620535e+00
 6.7419304692e-01	 1.8798142117e+00	 1.5958912716e+00
 6.5673912020e-01	 1.8859829223e+00	 1.6291785147e+00
 6.3926591918e-01	 1.8919770259e+00	 1.6465251646e+00
 6.2177592154e-01	 1.8977968314e+00	 1.6467713651e+00
 6.0427158815e-01	 1.9034426916e+00	 1.6288033515e+00
 5.8675536221e-01	 1.9089150032e+00	 1.5915599709e+00
 5.6922966830e-01	 1.9142142056e+00	 1.5340384520e+00
 5.5169691155e-01	 1.9193407806e+00	 1.4552994855e+00
 5.3415947676e-01	 1.9242952515e+00	 1.3544716676e+00
 5.1661972762e-01	 1.9290781823e+00	 1.2307553589e+00
 6.9468081645e-01	 1.8817476518e+00	 1.5541817081e+00
 6.7717164198e-01	 1.8881192593e+00	 1.5924213664e+00
 6.5964060354e-01	 1.8943152234e+00	 1.6197964525e+00
 6.4209020566e-01	 1.9003358090e+00	 1.6344198332e+00
 6.2452293695e-01	 1.9061813264e+00	 1.6344744607e+00
 6.0694126915e-01	 1.9118521302e+00	 1.6182208773e+00
 5.8934765626e-01	 1.9173486185e+00	 1.5840038696e+00
 5.7174453357e-01	 1.9226712329e+00	 1.5302583366e+00
 5.5413431683e-01	 1.9278204572e+00	 1.4555144341e+00
 5.3651940139e-01	 1.9327968170e+00	 1.3584020497e+00
 5.1890216138e-01	 1.9376008788e+00	 1.2376546638e+00
 6.9773642705e-01	 1.8900246733e+00	 1.5668475171e+00
 6.8015023704e-01	 1.8964243069e+00	 1.5945462770e+00
 6.6254208689e-01	 1.9026475244e+00	 1.6148211530e+00
 6.4491449215e-01	 1.9086945921e+00	 1.6252694732e+00
 6.2726995236e-01	 1.9145658215e+00	 1.6235782279e+00
 6.0961095015e-01	 1.9202615687e+00	 1.6075317237e+00
 5.9193995031e-01	 1.9257822338e+00	 1.5750183650e+00
 5.7425939884e-01	 1.9311282602e+00	 1.5240366304e+00
 5.5657172212e-01	 1.9363001337e+00	 1.4527003049e+00
 5.3887932603e-01	 1.9412983825e+00	 1.3592430290e+00
 5.2118459513e-01	 1.9461235754e+00	 1.2420222173e+00
 7.0079203765e-01	 1.8983016948e+00	 1.5847749028e+00
 6.8312883210e-01	 1.9047293545e+00	 1.6020307276e+00
 6.6544357024e-01	 1.9109798254e+00	 1.6147356606e+00
 6.4773877863e-01	 1.9170533751e+00	 1.6201428664e+00
 6.3001696777e-01	 1.9229503165e+00	 1.6156031009e+00
 6.1228063115e-01	 1.9286710073e+00	 1.5985724917e+00
 5.9453224436e-01	 1.9342158491e+00	 1.5666194394e+00
 5.7677426411e-01	 1.9395852874e+00	 1.5174307096e+00
 5.5900912740e-01	 1.9447798103e+00	 1.4488167789e+00
 5.4123925066e-01	 1.9497999479e+00	 1.3587164971e+00
 5.2346702889e-01	 1.9546462719e+00	 1.2452011199e+00
 7.0384764826e-01	 1.9065787164e+00	 1.6068999943e+00
 6.8610742717e-01	 1.9130344020e+00	 1.6146447002e+00
 6.6834505359e-01	 1.9193121264e+00	 1.6200151145e+00
 6.5056306511e-01	 1.9254121582e+00	 1.6200900423e+00
 6.3276398318e-01	 1.9313348116e+00	 1.6120422620e+00
 6.1495031215e-01	 1.9370804458e+00	 1.5931464069e+00
 5.9712453841e-01	 1.9426494644e+00	 1.5607859777e+00
 5.7928912938e-01	 1.9480423147e+00	 1.5124595581e+00
 5.6144653269e-01	 1.9532594868e+00	 1.4457862984e+00
 5.4359917529e-01	 1.9583015134e+00	 1.3585107304e+00
 5.2574946265e-01	 1.9631689684e+00	 1.2485069689e+00
 7.0690325886e-01	 1.9148557379e+00	 1.6321797566e+00
 6.8908602223e-01	 1.9213394496e+00	 1.6321638609e+00
 6.7124653694e-01	 1.9276444275e+00	 1.6311274216e+00
 6.5338735160e-01	 1.9337709413e+00	 1.6261431497e+00
 6.3551099859e-01	 1.9397193067e+00	 1.6143626619e+00
 6.1761999316e-01	 1.9454898844e+00	 1.5930244371e+00
 5.9971683246e-01	 1.9510830797e+00	 1.5594609319e+00
 5.8180399465e-01	 1.9564993420e+00	 1.5111049266e+00
 5.6388393797e-01	 1.9617391634e+00	 1.4454951697e+00
 5.4595909993e-01	 1.9668030789e+00	 1.3602813835e+00
 5.2803189640e-01	 1.9716916650e+00	 1.2532286895e+00
 7.0995886946e-01	 1.9231327594e+00	 1.6595921270e+00
 6.9206461729e-01	 1.9296444972e+00	 1.6543699846e+00
 6.7414802029e-01	 1.9359767285e+00	 1.6485339227e+00
 6.5621163808e-01	 1.9421297244e+00	 1.6393173158e+00
 6.3825801400e-01	 1.9481038017e+00	 1.6240060222e+00
 6.2028967416e-01	 1.9538993229e+00	 1.5999463896e+00
 6.0230912651e-01	 1.9595166950e+00	 1.5645524634e+00
 5.8431885992e-01	 1.9649563692e+00	 1.5153124698e+00
 5.6632134326e-01	 1.9702188399e+00	 1.4497946437e+00
 5.4831902456e-01	 1.9753046444e+00	 1.3656524634e+00
 5.3031433016e-01	 1.9802143615e+00	 1.2606293516e+00
 7.1301448007e-01	 1.9314097810e+00	 1.6881361594e+00
 6.9504321235e-01	 1.9379495447e+00	 1.6810513801e+00
 6.7704950364e-01	 1.9443090295e+00	 1.6726900515e+00
 6.5903592457e-01	 1.9504885074e+00	 1.6606114923e+00
 6.4100502941e-01	 1.9564882968e+00	 1.6423898221e+00
 6.2295935516e-01	 1.9623087615e+00	 1.6156219896e+00
 6.0490142056e-01	 1.9679503103e+00	 1.5779350641e+00
 5.8683372519e-01	 1.9734133965e+00	 1.5269928617e+00
 5.6875874854e-01	 1.9786985165e+00	 1.4605019772e+00
 5.5067894919e-01	 1.9838062098e+00	 1.3762172853e+00
 5.3259676391e-01	 1.9887370581e+00	 1.2719469705e+00
 5.0977242635e-01	 1.9035100927e+00	 1.1810054888e+00
 4.9246517711e-01	 1.9080609604e+00	 1.0630274979e+00
 4.7516024463e-01	 1.9124437954e+00	 9.7390014790e-01
 4.5785989543e-01	 1.9166592732e+00	 9.1257225676e-01
 4.4056637214e-01	 1.9207081067e+00	 8.7809241596e-01
 4.2328189282e-01	 1.9245910451e+00	 8.6961105987e-01
 4.0600865027e-01	 1.9283088737e+00	 8.8638207507e-01
 3.8874881144e-01	 1.9318624125e+00	 9.2776397290e-01
 3.7150451682e-01	 1.9352525155e+00	 9.9322064541e-01
 3.5427787987e-01	 1.9384800701e+00	 1.0795212225e+00
 3.3707098643e-01	 1.9415459962e+00	 1.1823016259e+00
 5.1205486010e-01	 1.9120327892e+00	 1.2038464809e+00
 4.9467012011e-01	 1.9166040328e+00	 1.0817911373e+00
 4.7728770725e-01	 1.9210064914e+00	 9.8692006605e-01
 4.5990989819e-01	 1.9252408433e+00	 9.1886846752e-01
 4.4253894561e-01	 1.9293078049e+00	 8.7734162030e-01
 4.2517707748e-01	 1.9332081286e+00	 8.6211668053e-01
 4.0782649643e-01	 1.9369426033e+00	 8.7304408060e-01
 3.9048937912e-01	 1.9405120525e+00	 9.1004855025e-01
 3.7316787562e-01	 1.9439173342e+00	 9.7312977901e-01
 3.5586410884e-01	 1.9471593398e+00	 1.0601369618e+00
 3.3858017398e-01	 1.9502389931e+00	 1.1667779053e+00
 5.1433729386e-01	 1.9205554858e+00	 1.2199528524e+00
 4.9687506312e-01	 1.9251471052e+00	 1.0961547836e+00
 4.7941516987e-01	 1.9295691873e+00	 9.9790635341e-01
 4.6195990095e-01	 1.9338224135e+00	 9.2544225299e-01
 4.4451151907e-01	 1.9379075031e+00	 8.7904135543e-01
 4.2707226214e-01	 1.9418252122e+00	 8.5902826491e-01
 4.0964434260e-01	 1.9455763329e+00	 8.6577452054e-01
 3.9222994681e-01	 1.9491616925e+00	 8.9969947710e-01
 3.7483123442e-01	 1.9525821529e+00	 9.6127088096e-01
 3.5745033782e-01	 1.9558386094e+00	 1.0492852212e+00
 3.4008936153e-01	 1.9589319900e+00	 1.1596124923e+00
 5.1661972762e-01	 1.9290781823e+00	 1.2307553589e+00
 4.9908000612e-01	 1.9336901776e+00	 1.1070968295e+00
 4.8154263249e-01	 1.9381318832e+00	 1.0074266191e+00
 4.6400990371e-01	 1.9424039836e+00	 9.3249294365e-01
 4.4648409254e-01	 1.9465072013e+00	 8.8306606208e-01
 4.2896744680e-01	 1.9504422957e+00	 8.5993959516e-01
 4.1146218876e-01	 1.9542100624e+00	 8.6393154976e-01
 3.9397051449e-01	 1.9578113326e+00	 8.9588507053e-01
 3.7649459322e-01	 1.9612469717e+00	 9.5666893625e-01
 3.5903656679e-01	 1.9645178791e+00	 1.0458938061e+00
 3.4159854908e-01	 1.9676249869e+00	 1.1596764900e+00
 5.1890216138e-01	 1.9376008788e+00	 1.2376546638e+00
 5.0128494912e-01	 1.9422332501e+00	 1.1155731907e+00
 4.8367009512e-01	 1.9466945791e+00	 1.0160329213e+00
 4.6605990648e-01	 1.9509855537e+00	 9.4021054152e-01
 4.4845666600e-01	 1.9551068995e+00	 8.8928635796e-01
 4.3086263145e-01	 1.9590593792e+00	 8.6444540546e-01
 4.1328003493e-01	 1.9628437920e+00	 8.6687830733e-01
 3.9571108217e-01	 1.9664609726e+00	 8.9778190896e-01
 3.7815795202e-01	 1.9699117904e+00	 9.5835970158e-01
 3.6062279577e-01	 1.9731971487e+00	 1.0489044894e+00
 3.4310773663e-01	 1.9763179838e+00	 1.1658563354e+00
 5.2118459513e-01	 1.9461235754e+00	 1.2420222173e+00
 5.0348989212e-01	 1.9507763225e+00	 1.1225179912e+00
 4.8579755774e-01	 1.9552572751e+00	 1.0242622740e+00
 4.6810990924e-01	 1.9595671239e+00	 9.4877606532e-01
 4.5042923946e-01	 1.9637065977e+00	 8.9756923818e-01
 4.3275781611e-01	 1.9676764627e+00	 8.7214145525e-01
 4.1509788109e-01	 1.9714775216e+00	 8.7398288013e-01
 3.9745164986e-01	 1.9751106126e+00	 9.0457470401e-01
 3.7982131082e-01	 1.9785766092e+00	 9.6538950384e-01
 3.6220902474e-01	 1.9818764184e+00	 1.0572726301e+00
 3.4461692418e-01	 1.9850109807e+00	 1.1770533939e+00
 5.2346702889e-01	 1.9546462719e+00	 1.2452011199e+00
 5.0569483513e-01	 1.9593193949e+00	 1.1288442355e+00
 4.8792502036e-01	 1.9638199710e+00	 1.0326371458e+00
 4.7015991200e-01	 1.9681486940e+00	 9.5836189167e-01
 4.5240181292e-01	 1.9723062959e+00	 9.0777827539e-01
 4.3465300077e-01	 1.9762935462e+00	 8.8262460500e-01
 4.1691572725e-01	 1.9801112511e+00	 8.8461827150e-01
 3.9919221754e-01	 1.9837602527e+00	 9.1545617959e-01
 3.8148466962e-01	 1.9872414279e+00	 9.7681504726e-01
 3.6379525372e-01	 1.9905556880e+00	 1.0699668033e+00
 3.4612611173e-01	 1.9937039777e+00	 1.1921835659e+00
 5.2574946265e-01	 1.9631689684e+00	 1.2485069689e+00
 5.0789977813e-01	 1.9678624673e+00	 1.1354444709e+00
 4.9005248298e-01	 1.9723826669e+00	 1.0416659520e+00
 4.7220991476e-01	 1.9767302641e+00	 9.6913209273e-01
 4.5437438639e-01	 1.9809059941e+00	 9.1977381941e-01
 4.3654818543e-01	 1.9849106297e+00	 8.9549289442e-01
 4.1873357342e-01	 1.9887449807e+00	 8.9816237478e-01
 4.0093278522e-01	 1.9924098927e+00	 9.2962695781e-01
 3.8314802842e-01	 1.9959062466e+00	 9.9170322909e-01
 3.6538148269e-01	 1.9992349577e+00	 1.0859684378e+00
 3.4763529928e-01	 2.0023969746e+00	 1.2101769030e+00
 5.2803189640e-01	 1.9716916650e+00	 1.2532286895e+00
 5.1010472113e-01	 1.9764055397e+00	 1.1431914376e+00
 4.9217994560e-01	 1.9809453628e+00	 1.0518435384e+00
 4.7425991752e-01	 1.9853118343e+00	 9.8124277017e-01
 4.5634695985e-01	 1.9895056923e+00	 9.3341319655e-01
 4.3844337008e-01	 1.9935277133e+00	 9.1034562315e-01
 4.2055141958e-01	 1.9973787103e+00	 9.1399795171e-01
 4.0267335290e-01	 2.0010595327e+00	 9.4629545162e-01
 3.8481138722e-01	 2.0045710654e+00	 1.0091309634e+00
 3.6696771167e-01	 2.0079142273e+00	 1.1042714646e+00
 3.4914448683e-01	 2.0110899715e+00	 1.2299772341e+00
 5.3031433016e-01	 1.9802143615e+00	 1.2606293516e+00
 5.1230966413e-01	 1.9849486121e+00	 1.1529387078e+00
 4.9430740822e-01	 1.9895080588e+00	 1.0636516594e+00
 4.7630992028e-01	 1.9938934044e+00	 9.9484238563e-01
 4.5831953331e-01	 1.9981053905e+00	 9.4855090848e-01
 4.4033855474e-01	 2.0021447968e+00	 9.2678343367e-01
 4.2236926574e-01	 2.0060124398e+00	 9.3151261529e-01
 4.0441392058e-01	 2.0097091728e+00	 9.6467776398e-01
 3.8647474601e-01	 2.0132358841e+00	 1.0281850128e+00
 3.6855394064e-01	 2.0165934970e+00	 1.1238819734e+00
 3.5065367438e-01	 2.0197829684e+00	 1.2505418008e+00
 5.3259676391e-01	 1.9887370581e+00	 1.2719469705e+00
 5.1451460713e-01	 1.9934916845e+00	 1.1655213150e+00
 4.9643487084e-01	 1.9980707547e+00	 1.0775594483e+00
 4.7835992304e-01	 2.0024749745e+00	 1.0100720879e+00
 4.6029210677e-01	 2.0067050887e+00	 9.6503883084e-01
 4.4223373939e-01	 2.0107618803e+00	 9.4440839658e-01
 4.2418711190e-01	 2.0146461694e+00	 9.5009881729e-01
 4.0615448827e-01	 2.0183588128e+00	 9.8399759324e-01
 3.8813810481e-01	 2.0219007028e+00	 1.0479618281e+00
 3.7014016961e-01	 2.0252727667e+00	 1.1438178784e+00
 3.5216286193e-01	 2.0284759653e+00	 1.2708409026e+00
 3.3707098643e-01	 1.9415459962e+00	 1.1823016259e+00
 3.1988297537e-01	 1.9444517253e+00	 1.2848166882e+00
 3.0271880770e-01	 1.9471977040e+00	 1.3720984393e+00
 2.8558048894e-01	 1.9497849434e+00	 1.4457235656e+00
 2.6846999499e-01	 1.9522144839e+00	 1.5071291838e+00
 2.5138927171e-01	 1.9544873939e+00	 1.5576228899e+00
 2.3434023454e-01	 1.9566047694e+00	 1.5983919761e+00
 2.1732476813e-01	 1.9585677328e+00	 1.6305118892e+00
 2.0034472601e-01	 1.9603774320e+00	 1.6549540010e+00
 1.8340193024e-01	 1.9620350399e+00	 1.6725927607e+00
 1.6649817121e-01	 1.9635417532e+00	 1.6842122979e+00
 3.3858017398e-01	 1.9502389931e+00	 1.1667779053e+00
 3.2131520604e-01	 1.9531577322e+00	 1.2752454090e+00
 3.0407418824e-01	 1.9559160056e+00	 1.3689888593e+00
 2.8685913508e-01	 1.9585148290e+00	 1.4491164768e+00
 2.6967203132e-01	 1.9609552474e+00	 1.5165960505e+00
 2.5251483153e-01	 1.9632383341e+00	 1.5722654159e+00
 2.3538945972e-01	 1.9653651898e+00	 1.6168420759e+00
 2.1829780897e-01	 1.9673369421e+00	 1.6509320378e+00
 2.0124174111e-01	 1.9691547440e+00	 1.6750379399e+00
 1.8422308638e-01	 1.9708197736e+00	 1.6895665409e+00
 1.6724364317e-01	 1.9723332330e+00	 1.6948356409e+00
 3.4008936153e-01	 1.9589319900e+00	 1.1596124923e+00
 3.2274743671e-01	 1.9618637391e+00	 1.2734257071e+00
 3.0542956878e-01	 1.9646343072e+00	 1.3727541684e+00
 2.8813778123e-01	 1.9672447146e+00	 1.4582880543e+00
 2.7087406766e-01	 1.9696960109e+00	 1.5305784992e+00
 2.5364039135e-01	 1.9719892742e+00	 1.5900483819e+00
 2.3643868489e-01	 1.9741256102e+00	 1.6370022280e+00
 2.1927084980e-01	 1.9761061514e+00	 1.6716353053e+00
 2.0213875621e-01	 1.9779320560e+00	 1.6940419864e+00
 1.8504424252e-01	 1.9796045073e+00	 1.7042234536e+00
 1.6798911512e-01	 1.9811247128e+00	 1.7020948199e+00
 3.4159854908e-01	 1.9676249869e+00	 1.1596764900e+00
 3.2417966737e-01	 1.9705697460e+00	 1.2782153299e+00
 3.0678494932e-01	 1.9733526089e+00	 1.3822778839e+00
 2.8941642738e-01	 1.9759746003e+00	 1.4721860096e+00
 2.7207610400e-01	 1.9784367745e+00	 1.5481261444e+00
 2.5476595117e-01	 1.9807402144e+00	 1.6101602835e+00
 2.3748791006e-01	 1.9828860307e+00	 1.6582360445e+00
 2.2024389064e-01	 1.9848753607e+00	 1.6921959002e+00
 2.0303577132e-01	 1.9867093680e+00	 1.7117856560e+00
 1.8586539866e-01	 1.9883892410e+00	 1.7166622526e+00
 1.6873458708e-01	 1.9899161926e+00	 1.7064009657e+00
 3.4310773663e-01	 1.9763179838e+00	 1.1658563354e+00
 3.2561189804e-01	 1.9792757529e+00	 1.2884879356e+00
 3.0814032986e-01	 1.9820709105e+00	 1.3964593006e+00
 2.9069507353e-01	 1.9847044859e+00	 1.4897730009e+00
 2.7327814034e-01	 1.9871775380e+00	 1.5683020335e+00
 2.5589151099e-01	 1.9894911546e+00	 1.6318008691e+00
 2.3853713524e-01	 1.9916464511e+00	 1.6799155587e+00
 2.2121693148e-01	 1.9936445700e+00	 1.7121929839e+00
 2.0393278642e-01	 1.9954866800e+00	 1.7280893303e+00
 1.8668655480e-01	 1.9971739747e+00	 1.7269778666e+00
 1.6948005903e-01	 1.9987076723e+00	 1.7081561064e+00
 3.4461692418e-01	 1.9850109807e+00	 1.1770533939e+00
 3.2704412871e-01	 1.9879817598e+00	 1.3031326828e+00
 3.0949571040e-01	 1.9907892121e+00	 1.4142130872e+00
 2.9197371968e-01	 1.9934343715e+00	 1.5100262522e+00
 2.7448017667e-01	 1.9959183016e+00	 1.5901823043e+00
 2.5701707081e-01	 1.9982420948e+00	 1.6541808487e+00
 2.3958636041e-01	 2.0004068715e+00	 1.7014209993e+00
 2.2218997231e-01	 2.0024137793e+00	 1.7312105256e+00
 2.0482980153e-01	 2.0042639920e+00	 1.7427742036e+00
 1.8750771094e-01	 2.0059587084e+00	 1.7352614524e+00
 1.7022553099e-01	 2.0074991521e+00	 1.7077533392e+00
 3.4612611173e-01	 1.9937039777e+00	 1.1921835659e+00
 3.2847635937e-01	 1.9966877667e+00	 1.3210538288e+00
 3.1085109094e-01	 1.9995075137e+00	 1.4344688941e+00
 2.9325236582e-01	 2.0021642571e+00	 1.5319371836e+00
 2.7568221301e-01	 2.0046590651e+00	 1.6128558512e+00
 2.5814263063e-01	 2.0069930350e+00	 1.6765216112e+00
 2.4063558559e-01	 2.0091672920e+00	 1.7221405715e+00
 2.2316301315e-01	 2.0111829887e+00	 1.7488371597e+00
 2.0572681663e-01	 2.0130413039e+00	 1.7556622312e+00
 1.8832886708e-01	 2.0147434421e+00	 1.7416004454e+00
 1.7097100294e-01	 2.0162906319e+00	 1.7055769957e+00
 3.4763529928e-01	 2.0023969746e+00	 1.2101769030e+00
 3.2990859004e-01	 2.0053937736e+00	 1.3411703402e+00
 3.1220647148e-01	 2.0082258154e+00	 1.4561709707e+00
 2.9453101197e-01	 2.0108941428e+00	 1.5545110507e+00
 2.7688424935e-01	 2.0133998287e+00	 1.6354240007e+00
 2.5926819046e-01	 2.0157439751e+00	 1.6980549480e+00
 2.4168481076e-01	 2.0179277124e+00	 1.7414702434e+00
 2.2413605399e-01	 2.0199521980e+00	 1.7646660480e+00
 2.0662383174e-01	 2.0218186159e+00	 1.7665760793e+00
 1.8915002322e-01	 2.0235281758e+00	 1.7460786101e+00
 1.7171647490e-01	 2.0250821117e+00	 1.7020028049e+00
 3.4914448683e-01	 2.0110899715e+00	 1.2299772341e+00
 3.3134082071e-01	 2.0140997805e+00	 1.3624155121e+00
 3.1356185202e-01	 2.0169441170e+00	 1.4782777929e+00
 2.9580965812e-01	 2.0196240284e+00	 1.5767665928e+00
 2.7808628569e-01	 2.0221405922e+00	 1.6570001944e+00
 2.6039375028e-01	 2.0244949153e+00	 1.7180227847e+00
 2.4273403594e-01	 2.0266881328e+00	 1.7588135383e+00
 2.2510909482e-01	 2.0287214073e+00	 1.7782947446e+00
 2.0752084685e-01	 2.0305959279e+00	 1.7753390758e+00
 1.8997117936e-01	 2.0323129095e+00	 1.7487760884e+00
 1.7246194685e-01	 2.0338735915e+00	 1.6973980509e+00
 3.5065367438e-01	 2.0197829684e+00	 1.2505418008e+00
 3.3277305137e-01	 2.0228057874e+00	 1.3837365979e+00
 3.1491723256e-01	 2.0256624186e+00	 1.4997617004e+00
 2.9708830427e-01	 2.0283539140e+00	 1.5977356913e+00
 2.7928832202e-01	 2.0308813558e+00	 1.6767096806e+00
 2.6151931010e-01	 2.0332458555e+00	 1.7356769194e+00
 2.4378326111e-01	 2.0354485532e+00	 1.7735813317e+00
 2.2608213566e-01	 2.0374906166e+00	 1.7893250654e+00
 2.0841786195e-01	 2.0393732399e+00	 1.7817751625e+00
 1.9079233550e-01	 2.0410976432e+00	 1.7497694470e+00
 1.7320741881e-01	 2.0426650713e+00	 1.6921217267e+00
 3.5216286193e-01	 2.0284759653e+00	 1.2708409026e+00
 3.3420528204e-01	 2.0315117943e+00	 1.4040944484e+00
 3.1627261310e-01	 2.0343807202e+00	 1.5196085423e+00
 2.9836695041e-01	 2.0370837996e+00	 1.6164630361e+00
 2.8049035836e-01	 2.0396221193e+00	 1.6936892142e+00
 2.6264486992e-01	 2.0419967957e+00	 1.7502787672e+00
 2.4483248629e-01	 2.0442089737e+00	 1.7851916543e+00
 2.2705517649e-01	 2.0462598259e+00	 1.7973629598e+00
 2.0931487706e-01	 2.0481505519e+00	 1.7857088486e+00
 1.9161349164e-01	 2.0498823769e+00	 1.7491317237e+00
 1.7395289077e-01	 2.0514565511e+00	 1.6865246845e+00
 1.6649817121e-01	 1.9635417532e+00	 1.6842122979e+00
 1.4963806351e-01	 1.9648985734e+00	 1.6883704367e+00
 1.3282042303e-01	 1.9661070104e+00	 1.6815190652e+00
 1.1604690430e-01	 1.9671683262e+00	 1.6613280665e+00
 9.9319130298e-02	 1.9680838035e+00	 1.6256208360e+00
 8.2638692297e-02	 1.9688547442e+00	 1.5723771261e+00
 6.6007149700e-02	 1.9694824691e+00	 1.4997354736e+00
 4.9426029929e-02	 1.9699683169e+00	 1.4059952697e+00
 3.2896828315e-02	 1.9703136434e+00	 1.2896185237e+00
 1.6421008026e-02	 1.9705198204e+00	 1.1492313712e+00
 0.0000000000e+00	 1.9705882353e+00	 9.8362537334e-01
 1.6724364317e-01	 1.9723332330e+00	 1.6948356409e+00
 1.5030804672e-01	 1.9736961282e+00	 1.6907218157e+00
 1.3341510764e-01	 1.9749099758e+00	 1.6760406296e+00
 1.1656648786e-01	 1.9759760435e+00	 1.6495779891e+00
 9.9763817621e-02	 1.9768956197e+00	 1.6102845898e+00
 8.3008695325e-02	 1.9776700121e+00	 1.5572768567e+00
 6.6302687354e-02	 1.9783005476e+00	 1.4898375059e+00
 4.9647327970e-02	 1.9787885708e+00	 1.4074157892e+00
 3.3044119200e-02	 1.9791354434e+00	 1.3096274778e+00
 1.6494530761e-02	 1.9793425435e+00	 1.1962546377e+00
 0.0000000000e+00	 1.9794112647e+00	 1.0672452447e+00
 1.6798911512e-01	 1.9811247128e+00	 1.7020948199e+00
 1.5097802994e-01	 1.9824936829e+00	 1.6890952926e+00
 1.3400979225e-01	 1.9837129411e+00	 1.6665021434e+00
 1.1708607142e-01	 1.9847837608e+00	 1.6340604360e+00
 1.0020850495e-01	 1.9857074358e+00	 1.5916871473e+00
 8.3378698353e-02	 1.9864852801e+00	 1.5394704824e+00
 6.6598225009e-02	 1.9871186261e+00	 1.4776688479e+00
 4.9868626012e-02	 1.9876088246e+00	 1.4067095468e+00
 3.3191410085e-02	 1.9879572433e+00	 1.3271872545e+00
 1.6568053497e-02	 1.9881652666e+00	 1.2398623303e+00
 0.0000000000e+00	 1.9882342941e+00	 1.1456590161e+00
 1.6873458708e-01	 1.9899161926e+00	 1.7064009657e+00
 1.5164801315e-01	 1.9912912377e+00	 1.6841814935e+00
 1.3460447687e-01	 1.9925159065e+00	 1.6537771176e+00
 1.1760565498e-01	 1.9935914780e+00	 1.6157376884e+00
 1.0065319227e-01	 1.9945192520e+00	 1.5707879712e+00
 8.3748701382e-02	 1.9953005480e+00	 1.5198256131e+00
 6.6893762664e-02	 1.9959367046e+00	 1.4639188027e+00
 5.0089924054e-02	 1.9964290784e+00	 1.4043036880e+00
 3.3338700970e-02	 1.9967790433e+00	 1.3423816142e+00
 1.6641576232e-02	 1.9969879897e+00	 1.2797162397e+00
 0.0000000000e+00	 1.9970573235e+00	 1.2180305811e+00
 1.6948005903e-01	 1.9987076723e+00	 1.7081561064e+00
 1.5231799636e-01	 2.0000887924e+00	 1.6766572415e+00
 1.3519916148e-01	 2.0013188718e+00	 1.6387222611e+00
 1.1812523854e-01	 2.0023991953e+00	 1.5955538857e+00
 1.0109787960e-01	 2.0033310682e+00	 1.5485286604e+00
 8.4118704411e-02	 2.0041158160e+00	 1.4991938486e+00
 6.7189300319e-02	 2.0047547831e+00	 1.4492640491e+00
 5.0311222096e-02	 2.0052493322e+00	 1.4006176084e+00
 3.3485991856e-02	 2.0056008432e+00	 1.3552928877e+00
 1.6715098968e-02	 2.0058107128e+00	 1.3154844474e+00
 0.0000000000e+00	 2.0058803529e+00	 1.2835392010e+00
 1.7022553099e-01	 2.0074991521e+00	 1.7077533392e+00
 1.5298797958e-01	 2.0088863472e+00	 1.6671858337e+00
 1.3579384609e-01	 2.0101218372e+00	 1.6221778254e+00
 1.1864482210e-01	 2.0112069125e+00	 1.5744354021e+00
 1.0154256692e-01	 2.0121428843e+00	 1.5258333237e+00
 8.4488707440e-02	 2.0129310839e+00	 1.4784111137e+00
 6.7484837975e-02	 2.0135728616e+00	 1.4343689054e+00
 5.0532520139e-02	 2.0140695860e+00	 1.3960631141e+00
 3.3633282741e-02	 2.0144226432e+00	 1.3660020003e+00
 1.6788621704e-02	 2.0146334358e+00	 1.3468411841e+00
 0.0000000000e+00	 2.0147033823e+00	 1.3413791681e+00
 1.7097100294e-01	 2.0162906319e+00	 1.7055769957e+00
 1.5365796279e-01	 2.0176839020e+00	 1.6564173101e+00
 1.3638853071e-01	 2.0189248026e+00	 1.6049679405e+00
 1.1916440566e-01	 2.0200146298e+00	 1.5532912137e+00
 1.0198725425e-01	 2.0209547005e+00	 1.5036089424e+00
 8.4858710470e-02	 2.0217463519e+00	 1.4582979847e+00
 6.7780375630e-02	 2.0223909401e+00	 1.4198855860e+00
 5.0753818181e-02	 2.0228898398e+00	 1.3910445772e+00
 3.3780573627e-02	 2.0232444432e+00	 1.3745884961e+00
 1.6862144440e-02	 2.0234561589e+00	 1.3734666929e+00
 0.0000000000e+00	 2.0235264118e+00	 1.3907594781e+00
 1.7171647490e-01	 2.0250821117e+00	 1.7020028049e+00
 1.5432794601e-01	 2.0264814567e+00	 1.6449887159e+00
 1.3698321532e-01	 2.0277277679e+00	 1.5879009420e+00
 1.1968398923e-01	 2.0288223470e+00	 1.5330132557e+00
 1.0243194157e-01	 2.0297665167e+00	 1.4827457252e+00
 8.5228713499e-02	 2.0305616198e+00	 1.4396600076e+00
 6.8075913286e-02	 2.0312090186e+00	 1.4064544521e+00
 5.0975116224e-02	 2.0317100936e+00	 1.3859590874e+00
 3.3927864512e-02	 2.0320662431e+00	 1.3811305611e+00
 1.6935667176e-02	 2.0322788820e+00	 1.3950470947e+00
 0.0000000000e+00	 2.0323494412e+00	 1.4309035113e+00
 1.7246194685e-01	 2.0338735915e+00	 1.6973980509e+00
 1.5499792922e-01	 2.0352790115e+00	 1.6335243573e+00
 1.3757789993e-01	 2.0365307333e+00	 1.5717696895e+00
 1.2020357279e-01	 2.0376300643e+00	 1.5144767706e+00
 1.0287662890e-01	 2.0385783329e+00	 1.4641174526e+00
 8.5598716529e-02	 2.0393768878e+00	 1.4232880076e+00
 6.8371450941e-02	 2.0400270971e+00	 1.3947042555e+00
 5.1196414266e-02	 2.0405303474e+00	 1.3811966002e+00
 3.4075155398e-02	 2.0408880431e+00	 1.3857050462e+00
 1.7009189911e-02	 2.0411016051e+00	 1.4112742581e+00
 0.0000000000e+00	 2.0411724706e+00	 1.4610487209e+00
 1.7320741881e-01	 2.0426650713e+00	 1.6921217267e+00
 1.5566791243e-01	 2.0440765662e+00	 1.6226360503e+00
 1.3817258455e-01	 2.0453336986e+00	 1.5573518771e+00
 1.2072315635e-01	 2.0464377815e+00	 1.4985406471e+00
 1.0332131622e-01	 2.0473901490e+00	 1.4485818126e+00
 8.5968719558e-02	 2.0481921557e+00	 1.4099583911e+00
 6.8666988596e-02	 2.0488451756e+00	 1.3852523756e+00
 5.1417712308e-02	 2.0493506013e+00	 1.3771400804e+00
 3.4222446283e-02	 2.0497098431e+00	 1.3883874890e+00
 1.7082712647e-02	 2.0499243282e+00	 1.4218456721e+00
 0.0000000000e+00	 2.0499955000e+00	 1.4804463311e+00
 1.7395289077e-01	 2.0514565511e+00	 1.6865246845e+00
 1.5633789565e-01	 2.0528741210e+00	 1.6129233634e+00
 1.3876726916e-01	 2.0541366640e+00	 1.5454103362e+00
 1.2124273991e-01	 2.0552454988e+00	 1.4860477508e+00
 1.0376600355e-01	 2.0562019652e+00	 1.4369807289e+00
 8.6338722586e-02	 2.0570074237e+00	 1.4004334394e+00
 6.8962526251e-02	 2.0576632541e+00	 1.3787050514e+00
 5.1639010350e-02	 2.0581708551e+00	 1.3741656428e+00
 3.4369737168e-02	 2.0585316430e+00	 1.3892521357e+00
 1.7156235382e-02	 2.0587470513e+00	 1.4264643224e+00
 0.0000000000e+00	 2.0588185294e+00	 1.4883610413e+00
 2.0588185294e+00	 0.0000000000e+00	-3.4737722615e+01
 2.0587470513e+00	 1.7156235382e-02	-2.8811895299e+01
 2.0585316430e+00	 3.4369737168e-02	-2.4007812463e+01
 2.0581708551e+00	 5.1639010350e-02	-2.0153416465e+01
 2.0576632541e+00	 6.8962526251e-02	-1.7071691750e+01
 2.0570074237e+00	 8.6338722586e-02	-1.4580745760e+01
 2.0562019652e+00	 1.0376600355e-01	-1.2493900070e+01
 2.0552454988e+00	 1.2124273991e-01	-1.0619791531e+01
 2.0541366640e+00	 1.3876726916e-01	-8.7624831499e+00
 2.0528741210e+00	 1.5633789565e-01	-6.7215844082e+00
 2.0514565511e+00	 1.7395289077e-01	-4.2923806742e+00
 2.0676430588e+00	 0.0000000000e+00	-4.4169513556e+01
 2.0675712743e+00	 1.7229770617e-02	-3.5562450178e+01
 2.0673549428e+00	 3.4517053093e-02	-2.8668037970e+01
 2.0669926084e+00	 5.1860346014e-02	-2.3243663950e+01
 2.0664828318e+00	 6.9258114149e-02	-1.9040819074e+01
 2.0658241903e+00	 8.6708788518e-02	-1.5805251311e+01
 2.0650152795e+00	 1.0421076647e-01	-1.3277131986e+01
 2.0640547134e+00	 1.2176241180e-01	-1.1191235095e+01
 2.0629411260e+00	 1.3936205487e-01	-9.2771293006e+00
 2.0616731714e+00	 1.5700799276e-01	-7.2593822394e+00
 2.0602495255e+00	 1.7469848946e-01	-4.8577767518e+00
 2.0764675882e+00	 0.0000000000e+00	-5.1155636847e+01
 2.0763954974e+00	 1.7303305852e-02	-4.0527704496e+01
 2.0761782425e+00	 3.4664369019e-02	-3.2067261601e+01
 2.0758143618e+00	 5.2081681678e-02	-2.5477331760e+01
 2.0753024094e+00	 6.9553702047e-02	-2.0454363196e+01
 2.0746409569e+00	 8.7078854450e-02	-1.6688439948e+01
 2.0738285937e+00	 1.0465552940e-01	-1.3863508657e+01
 2.0728639281e+00	 1.2228208370e-01	-1.1657620647e+01
 2.0717455879e+00	 1.3995684059e-01	-9.7431889440e+00
 2.0704722218e+00	 1.5767808988e-01	-7.7872598169e+00
 2.0690424999e+00	 1.7544408815e-01	-5.4517984023e+00
 2.0852921176e+00	 0.0000000000e+00	-5.5745531055e+01
 2.0852197204e+00	 1.7376841086e-02	-4.3749938814e+01
 2.0850015423e+00	 3.4811684943e-02	-3.4241244120e+01
 2.0846361151e+00	 5.2303017341e-02	-2.6884082389e+01
 2.0841219871e+00	 6.9849289945e-02	-2.1336090664e+01
 2.0834577236e+00	 8.7448920382e-02	-1.7248162952e+01
 2.0826419080e+00	 1.0510029232e-01	-1.4264722832e+01
 2.0816731427e+00	 1.2280175559e-01	-1.2024012990e+01
 2.0805500499e+00	 1.4055162630e-01	-1.0158401290e+01
 2.0792712723e+00	 1.5834818700e-01	-8.2947029190e+00
 2.0778354743e+00	 1.7618968684e-01	-6.0545181136e+00
 2.0941166470e+00	 0.0000000000e+00	-5.7987788676e+01
 2.0940439435e+00	 1.7450376320e-02	-4.5270712183e+01
 2.0938248420e+00	 3.4959000868e-02	-3.5225138378e+01
 2.0934578684e+00	 5.2524353004e-02	-2.7493076677e+01
 2.0929415647e+00	 7.0144877842e-02	-2.1709368950e+01
 2.0922744902e+00	 8.7818986313e-02	-1.7501975152e+01
 2.0914552223e+00	 1.0554505525e-01	-1.4492277219e+01
 2.0904823574e+00	 1.2332142749e-01	-1.2295400873e+01
 2.0893545118e+00	 1.4114641202e-01	-1.0520554884e+01
 2.0880703227e+00	 1.5901828411e-01	-8.7713873121e+00
 2.0866284488e+00	 1.7693528553e-01	-6.6463581672e+00
 2.1029411764e+00	 0.0000000000e+00	-5.7930173886e+01
 2.1028681665e+00	 1.7523911554e-02	-4.5130877327e+01
 2.1026481418e+00	 3.5106316793e-02	-3.5053502150e+01
 2.1022796218e+00	 5.2745688667e-02	-2.7332984439e+01
 2.1017611424e+00	 7.0440465740e-02	-2.1597174951e+01
 2.1010912568e+00	 8.8189052244e-02	-1.7467141276e+01
 2.1002685365e+00	 1.0598981817e-01	-1.4557488604e+01
 2.0992915720e+00	 1.2384109938e-01	-1.2476698712e+01
 2.0981589738e+00	 1.4174119773e-01	-1.0827486685e+01
 2.0968693731e+00	 1.5968838123e-01	-9.2071748549e+00
 2.0954214232e+00	 1.7768088423e-01	-7.2080833553e+00
 2.1117657059e+00	 0.0000000000e+00	-5.5619639842e+01
 2.1116923896e+00	 1.7597446789e-02	-4.3370595443e+01
 2.1114714416e+00	 3.5253632717e-02	-3.3760310637e+01
 2.1111013751e+00	 5.2967024330e-02	-2.6431994820e+01
 2.1105807201e+00	 7.0736053637e-02	-2.1022103263e+01
 2.1099080235e+00	 8.8559118175e-02	-1.7160642145e+01
 2.1090818508e+00	 1.0643458110e-01	-1.4471491872e+01
 2.1081007867e+00	 1.2436077128e-01	-1.2572748276e+01
 2.1069634357e+00	 1.4233598344e-01	-1.1077081169e+01
 2.1056684235e+00	 1.6035847835e-01	-9.5921096963e+00
 2.1042143976e+00	 1.7842648292e-01	-7.7207938763e+00
 2.1205902353e+00	 0.0000000000e+00	-5.1102345565e+01
 2.1205166126e+00	 1.7670982023e-02	-4.0029350628e+01
 2.1202947413e+00	 3.5400948642e-02	-3.1378968666e+01
 2.1199231285e+00	 5.3188359993e-02	-2.4817826402e+01
 2.1194002977e+00	 7.1031641534e-02	-2.0006374260e+01
 2.1187247901e+00	 8.8929184106e-02	-1.6599180707e+01
 2.1178951651e+00	 1.0687934402e-01	-1.4245243918e+01
 2.1169100013e+00	 1.2488044317e-01	-1.2588320318e+01
 2.1157678977e+00	 1.4293076916e-01	-1.1267269443e+01
 2.1144674740e+00	 1.6102857546e-01	-9.9164145660e+00
 2.1130073720e+00	 1.7917208161e-01	-8.1659184040e+00
 2.1294147647e+00	 0.0000000000e+00	-4.4423672388e+01
 2.1293408356e+00	 1.7744517257e-02	-3.5145963950e+01
 2.1291180411e+00	 3.5548264567e-02	-2.7942322583e+01
 2.1287448818e+00	 5.3409695656e-02	-2.2517737055e+01
 2.1282198754e+00	 7.1327229432e-02	-1.8571841964e+01
 2.1275415567e+00	 8.9299250037e-02	-1.5799187926e+01
 2.1267084793e+00	 1.0732410695e-01	-1.3889527473e+01
 2.1257192160e+00	 1.2540011506e-01	-1.2528116170e+01
 2.1245723596e+00	 1.4352555487e-01	-1.1396028391e+01
 2.1232665244e+00	 1.6169867258e-01	-1.0170487154e+01
 2.1218003465e+00	 1.7991768030e-01	-8.5252073254e+00
 2.1382392941e+00	 0.0000000000e+00	-3.5628240010e+01
 2.1381650587e+00	 1.7818052492e-02	-2.8758607171e+01
 2.1379413408e+00	 3.5695580492e-02	-2.3482671849e+01
 2.1375666352e+00	 5.3631031320e-02	-1.9558533539e+01
 2.1370394530e+00	 7.1622817330e-02	-1.6740001721e+01
 2.1363583234e+00	 8.9669315969e-02	-1.4776828520e+01
 2.1355217936e+00	 1.0776886987e-01	-1.3414954818e+01
 2.1345284306e+00	 1.2591978696e-01	-1.2396769298e+01
 2.1333768216e+00	 1.4412034059e-01	-1.1461379828e+01
 2.1320655748e+00	 1.6236876970e-01	-1.0344896575e+01
 2.1305933209e+00	 1.8066327899e-01	-8.7807261426e+00
 2.1470638235e+00	 0.0000000000e+00	-2.4759922140e+01
 2.1469892817e+00	 1.7891587727e-02	-2.0904816131e+01
 2.1467646406e+00	 3.5842896417e-02	-1.8031780351e+01
 2.1463883885e+00	 5.3852366984e-02	-1.5966580878e+01
 2.1458590307e+00	 7.1918405228e-02	-1.4531997694e+01
 2.1451750900e+00	 9.0039381901e-02	-1.3548006559e+01
 2.1443351079e+00	 1.0821363280e-01	-1.2831971419e+01
 2.1433376453e+00	 1.2643945885e-01	-1.2198846812e+01
 2.1421812835e+00	 1.4471512630e-01	-1.1461389679e+01
 2.1408646252e+00	 1.6303886681e-01	-1.0430379924e+01
 2.1393862953e+00	 1.8140887769e-01	-8.9148490332e+00
 2.0514565511e+00	 1.7395289077e-01	-4.2923806742e+00
 2.0498823769e+00	 1.9161349164e-01	-1.8012175051e+00
 2.0481505519e+00	 2.0931487706e-01	 2.9761416266e-01
 2.0462598259e+00	 2.2705517649e-01	 2.0216080226e+00
 2.0442089737e+00	 2.4483248629e-01	 3.3884556461e+00
 2.0419967957e+00	 2.6264486992e-01	 4.4160234021e+00
 2.0396221193e+00	 2.8049035836e-01	 5.1223307980e+00
 2.0370837996e+00	 2.9836695041e-01	 5.5255307455e+00
 2.0343807202e+00	 3.1627261310e-01	 5.6438922485e+00
 2.0315117943e+00	 3.3420528204e-01	 5.4957860090e+00
 2.0284759653e+00	 3.5216286193e-01	 5.0996734322e+00
 2.0602495255e+00	 1.7469848946e-01	-4.8577767518e+00
 2.0586686040e+00	 1.9243478738e-01	-2.3449046783e+00
 2.0569293561e+00	 2.1021204466e-01	-1.8085801489e-01
 2.0550305261e+00	 2.2802838276e-01	 1.6388688896e+00
 2.0529708834e+00	 2.4588188984e-01	 3.1197398686e+00
 2.0507492236e+00	 2.6377062109e-01	 4.2681843875e+00
 2.0483643689e+00	 2.8169259905e-01	 5.0916063066e+00
 2.0458151694e+00	 2.9964581394e-01	 5.5983944272e+00
 2.0431005041e+00	 3.1762822406e-01	 5.7979352883e+00
 2.0402192813e+00	 3.3563775620e-01	 5.7006286722e+00
 2.0371704401e+00	 3.5367230605e-01	 5.3179062673e+00
 2.0690424999e+00	 1.7544408815e-01	-5.4517984023e+00
 2.0674548312e+00	 1.9325608313e-01	-2.9598225441e+00
 2.0657081603e+00	 2.1110921227e-01	-7.6822154636e-01
 2.0638012263e+00	 2.2900158902e-01	 1.1163746765e+00
 2.0617327932e+00	 2.4693129339e-01	 2.6889133568e+00
 2.0595016515e+00	 2.6489637227e-01	 3.9459514976e+00
 2.0571066184e+00	 2.8289483975e-01	 4.8856897622e+00
 2.0545465392e+00	 3.0092467747e-01	 5.5080080774e+00
 2.0518202879e+00	 3.1898383503e-01	 5.8145033958e+00
 2.0489267683e+00	 3.3707023036e-01	 5.8085300497e+00
 2.0458649149e+00	 3.5518175017e-01	 5.4952431212e+00
 2.0778354743e+00	 1.7618968684e-01	-6.0545181136e+00
 2.0762410584e+00	 1.9407737887e-01	-3.6171186594e+00
 2.0744869645e+00	 2.1200637987e-01	-1.4290137015e+00
 2.0725719264e+00	 2.2997479528e-01	 4.9385592361e-01
 2.0704947030e+00	 2.4798069694e-01	 2.1376052614e+00
 2.0682540794e+00	 2.6602212344e-01	 3.4904577189e+00
 2.0658488680e+00	 2.8409708044e-01	 4.5427988232e+00
 2.0632779090e+00	 3.0220354100e-01	 5.2872316948e+00
 2.0605400717e+00	 3.2033944599e-01	 5.7186346676e+00
 2.0576342553e+00	 3.3850270451e-01	 5.8342214770e+00
 2.0545593897e+00	 3.5669119430e-01	 5.6336044224e+00
 2.0866284488e+00	 1.7693528553e-01	-6.6463581672e+00
 2.0850272856e+00	 1.9489867461e-01	-4.2884415323e+00
 2.0832657688e+00	 2.1290354748e-01	-2.1283844079e+00
 2.0813426266e+00	 2.3094800154e-01	-1.8964125770e-01
 2.0792566128e+00	 2.4903010049e-01	 1.5067289339e+00
 2.0770065074e+00	 2.6714787462e-01	 2.9421297145e+00
 2.0745911176e+00	 2.8529932113e-01	 4.1004955691e+00
 2.0720092788e+00	 3.0348240453e-01	 4.9683621121e+00
 2.0692598555e+00	 3.2169505696e-01	 5.5349384949e+00
 2.0663417423e+00	 3.3993517867e-01	 5.7921824459e+00
 2.0632538645e+00	 3.5820063842e-01	 5.7348783476e+00
 2.0954214232e+00	 1.7768088423e-01	-7.2080833553e+00
 2.0938135128e+00	 1.9571997035e-01	-4.9459301230e+00
 2.0920445730e+00	 2.1380071508e-01	-2.8320833545e+00
 2.0901133268e+00	 2.3192120780e-01	-8.9574071870e-01
 2.0880185226e+00	 2.5007950404e-01	 8.3649712592e-01
 2.0857589353e+00	 2.6827362580e-01	 2.3407029096e+00
 2.0833333671e+00	 2.8650156183e-01	 3.5957006171e+00
 2.0807406486e+00	 3.0476126806e-01	 4.5831452821e+00
 2.0779796393e+00	 3.2305066793e-01	 5.2876051460e+00
 2.0750492293e+00	 3.4136765283e-01	 5.6966466054e+00
 2.0719483393e+00	 3.5971008254e-01	 5.8009223566e+00
 2.1042143976e+00	 1.7842648292e-01	-7.7207938763e+00
 2.1025997400e+00	 1.9654126610e-01	-5.5622036039e+00
 2.1008233772e+00	 2.1469788269e-01	-3.5064474134e+00
 2.0988840269e+00	 2.3289441406e-01	-1.5867221630e+00
 2.0967804324e+00	 2.5112890760e-01	 1.6643681546e-01
 2.0945113632e+00	 2.6939937697e-01	 1.7252362086e+00
 2.0920756167e+00	 2.8770380252e-01	 3.0647068963e+00
 2.0894720184e+00	 3.0604013158e-01	 4.1627882661e+00
 2.0866994232e+00	 3.2440627889e-01	 5.0004151221e+00
 2.0837567163e+00	 3.4280012699e-01	 5.5616076268e+00
 2.0806428141e+00	 3.6121952667e-01	 5.8335647030e+00
 2.1130073720e+00	 1.7917208161e-01	-8.1659184040e+00
 2.1113859671e+00	 1.9736256184e-01	-6.1103513711e+00
 2.1096021814e+00	 2.1559505030e-01	-4.1183883698e+00
 2.1076547271e+00	 2.3386762033e-01	-2.2255073822e+00
 2.1055423421e+00	 2.5217831115e-01	-4.6459633033e-01
 2.1032637911e+00	 2.7052512815e-01	 1.1341263525e+00
 2.1008178662e+00	 2.8890604321e-01	 2.5431930870e+00
 2.0982033881e+00	 3.0731899511e-01	 3.7379709354e+00
 2.0954192070e+00	 3.2576188986e-01	 4.6967482909e+00
 2.0924642033e+00	 3.4423260114e-01	 5.4008249366e+00
 2.0893372889e+00	 3.6272897079e-01	 5.8346059249e+00
 2.1218003465e+00	 1.7991768030e-01	-8.5252073254e+00
 2.1201721943e+00	 1.9818385758e-01	-6.5639232988e+00
 2.1183809856e+00	 2.1649221790e-01	-4.6353809516e+00
 2.1164254273e+00	 2.3484082659e-01	-2.7756468274e+00
 2.1143042519e+00	 2.5322771470e-01	-1.0184038439e+00
 2.1120162190e+00	 2.7165087932e-01	 6.0512192811e-01
 2.1095601158e+00	 2.9010828391e-01	 2.0662367363e+00
 2.1069347579e+00	 3.0859785864e-01	 3.3388573924e+00
 2.1041389908e+00	 3.2711750082e-01	 4.3995928073e+00
 2.1011716903e+00	 3.4566507530e-01	 5.2278293208e+00
 2.0980317637e+00	 3.6423841491e-01	 5.8058203127e+00
 2.1305933209e+00	 1.8066327899e-01	-8.7807261426e+00
 2.1289584215e+00	 1.9900515333e-01	-6.8969202319e+00
 2.1271597898e+00	 2.1738938551e-01	-5.0254511507e+00
 2.1251961274e+00	 2.3581403285e-01	-3.2013065068e+00
 2.1230661617e+00	 2.5427711825e-01	-1.4574306881e+00
 2.1207686470e+00	 2.7277663050e-01	 1.7533703949e-01
 2.1183023654e+00	 2.9131052460e-01	 1.6683270584e+00
 2.1156661277e+00	 3.0987672217e-01	 2.9951071203e+00
 2.1128587746e+00	 3.2847311179e-01	 4.1315538247e+00
 2.1098791773e+00	 3.4709754946e-01	 5.0559284054e+00
 2.1067262385e+00	 3.6574785904e-01	 5.7489573582e+00
 2.1393862953e+00	 1.8140887769e-01	-8.9148490332e+00
 2.1377446487e+00	 1.9982644907e-01	-7.0837847073e+00
 2.1359385941e+00	 2.1828655311e-01	-5.2571648262e+00
 2.1339668276e+00	 2.3678723911e-01	-3.4672552003e+00
 2.1318280715e+00	 2.5532652180e-01	-1.7447518195e+00
 2.1295210749e+00	 2.7390238167e-01	-1.1873534968e-01
 2.1270446149e+00	 2.9251276530e-01	 1.3833774291e+00
 2.1243974975e+00	 3.1115558570e-01	 2.7358858691e+00
 2.1215785585e+00	 3.2982872276e-01	 3.9148620050e+00
 2.1185866643e+00	 3.4853002362e-01	 4.8982120149e+00
 2.1154207133e+00	 3.6725730316e-01	 5.6657431817e+00
 2.0284759653e+00	 3.5216286193e-01	 5.0996734322e+00
 2.0252727667e+00	 3.7014016961e-01	 4.7856483901e+00
 2.0219007028e+00	 3.8813810481e-01	 4.7857295871e+00
 2.0183588128e+00	 4.0615448827e-01	 4.9967958676e+00
 2.0146461694e+00	 4.2418711190e-01	 5.3607191822e+00
 2.0107618803e+00	 4.4223373939e-01	 5.8185230381e+00
 2.0067050887e+00	 4.6029210677e-01	 6.3104083288e+00
 2.0024749745e+00	 4.7835992304e-01	 6.7757873908e+00
 1.9980707547e+00	 4.9643487084e-01	 7.1533169998e+00
 1.9934916845e+00	 5.1451460713e-01	 7.3809299433e+00
 1.9887370581e+00	 5.3259676391e-01	 7.3958648130e+00
 2.0371704401e+00	 3.5367230605e-01	 5.3179062673e+00
 2.0339535119e+00	 3.7172666826e-01	 4.9717128922e+00
 2.0305669947e+00	 3.8980174639e-01	 4.8902653590e+00
 2.0270099233e+00	 4.0789535186e-01	 4.9872060220e+00
 2.0232813668e+00	 4.2600526711e-01	 5.2127052586e+00
 2.0193804288e+00	 4.4412924625e-01	 5.5153162958e+00
 2.0153062490e+00	 4.6226501559e-01	 5.8419869237e+00
 2.0110580036e+00	 4.8041027432e-01	 6.1380709492e+00
 2.0066349064e+00	 4.9856269515e-01	 6.3473390544e+00
 2.0020362093e+00	 5.1671992500e-01	 6.4119887288e+00
 1.9972612035e+00	 5.3487958570e-01	 6.2726529556e+00
 2.0458649149e+00	 3.5518175017e-01	 5.4952431212e+00
 2.0426342571e+00	 3.7331316691e-01	 5.1766836559e+00
 2.0392332865e+00	 3.9146538798e-01	 5.0668855365e+00
 2.0356610339e+00	 4.0963621545e-01	 5.0950360417e+00
 2.0319165642e+00	 4.2782342233e-01	 5.2192352979e+00
 2.0279989773e+00	 4.4602475310e-01	 5.3953707045e+00
 2.0239074092e+00	 4.6423792440e-01	 5.5771090372e+00
 2.0196410327e+00	 4.8246062560e-01	 5.7158885722e+00
 2.0151990580e+00	 5.0069051946e-01	 5.7609109169e+00
 2.0105807341e+00	 5.1892524286e-01	 5.6591322444e+00
 2.0057853490e+00	 5.3716240750e-01	 5.3552536362e+00
 2.0545593897e+00	 3.5669119430e-01	 5.6336044224e+00
 2.0513150023e+00	 3.7489966555e-01	 5.3895669946e+00
 2.0478995784e+00	 3.9312902956e-01	 5.2939657288e+00
 2.0443121444e+00	 4.1137707905e-01	 5.2902768876e+00
 2.0405517615e+00	 4.2964157754e-01	 5.3441776973e+00
 2.0366175258e+00	 4.4792025996e-01	 5.4186999117e+00
 2.0325085695e+00	 4.6621083322e-01	 5.4742057064e+00
 2.0282240618e+00	 4.8451097688e-01	 5.4683637195e+00
 2.0237632097e+00	 5.0281834376e-01	 5.3561249438e+00
 2.0191252589e+00	 5.2113056072e-01	 5.0896981822e+00
 2.0143094945e+00	 5.3944522929e-01	 4.6185247902e+00
 2.0632538645e+00	 3.5820063842e-01	 5.7348783476e+00
 2.0599957475e+00	 3.7648616420e-01	 5.5995756790e+00
 2.0565658702e+00	 3.9479267114e-01	 5.5502598769e+00
 2.0529632550e+00	 4.1311794264e-01	 5.5434405131e+00
 2.0491869589e+00	 4.3145973275e-01	 5.5520262457e+00
 2.0452360743e+00	 4.4981576681e-01	 5.5460089905e+00
 2.0411097297e+00	 4.6818374204e-01	 5.4924269798e+00
 2.0368070908e+00	 4.8656132815e-01	 5.3553279447e+00
 2.0323273614e+00	 5.0494616807e-01	 5.0957321329e+00
 2.0276697837e+00	 5.2333587859e-01	 4.6715948838e+00
 2.0228336400e+00	 5.4172805108e-01	 4.0377684921e+00
 2.0719483393e+00	 3.5971008254e-01	 5.8009223566e+00
 2.0686764927e+00	 3.7807266284e-01	 5.7961161036e+00
 2.0652321620e+00	 3.9645631273e-01	 5.8148925218e+00
 2.0616143656e+00	 4.1485880623e-01	 5.8255491125e+00
 2.0578221563e+00	 4.3327788796e-01	 5.8078871525e+00
 2.0538546228e+00	 4.5171127367e-01	 5.7386800484e+00
 2.0497108899e+00	 4.7015665086e-01	 5.5916269097e+00
 2.0453901199e+00	 4.8861167943e-01	 5.3373060734e+00
 2.0408915130e+00	 5.0707399238e-01	 4.9431282918e+00
 2.0362143085e+00	 5.2554119645e-01	 4.3732893025e+00
 2.0313577855e+00	 5.4401087287e-01	 3.5887215147e+00
 2.0806428141e+00	 3.6121952667e-01	 5.8335647030e+00
 2.0773572379e+00	 3.7965916149e-01	 5.9687844606e+00
 2.0738984539e+00	 3.9811995431e-01	 6.0673512589e+00
 2.0702654761e+00	 4.1659966983e-01	 6.1081246323e+00
 2.0664573537e+00	 4.3509604318e-01	 6.0774663940e+00
 2.0624731713e+00	 4.5360678052e-01	 5.9587581892e+00
 2.0583120502e+00	 4.7212955967e-01	 5.7323489103e+00
 2.0539731490e+00	 4.9066203071e-01	 5.3755017424e+00
 2.0494556647e+00	 5.0920181669e-01	 4.8623405413e+00
 2.0447588333e+00	 5.2774651431e-01	 4.1637952549e+00
 2.0398819309e+00	 5.4629369467e-01	 3.2475461125e+00
 2.0893372889e+00	 3.6272897079e-01	 5.8346059249e+00
 2.0860379832e+00	 3.8124566014e-01	 6.1073630042e+00
 2.0825647457e+00	 3.9978359589e-01	 6.2874793744e+00
 2.0789165867e+00	 4.1834053342e-01	 6.3631785372e+00
 2.0750925511e+00	 4.3691419839e-01	 6.3270573669e+00
 2.0710917198e+00	 4.5550228738e-01	 6.1689378156e+00
 2.0669132104e+00	 4.7410246849e-01	 5.8758114730e+00
 2.0625561781e+00	 4.9271238200e-01	 5.4317832897e+00
 2.0580198164e+00	 5.1132964100e-01	 4.8180141450e+00
 2.0533033581e+00	 5.2995183218e-01	 4.0126619540e+00
 2.0484060764e+00	 5.4857651646e-01	 2.9908210223e+00
 2.0980317637e+00	 3.6423841491e-01	 5.8058203127e+00
 2.0947187284e+00	 3.8283215878e-01	 6.2018164013e+00
 2.0912310376e+00	 4.0144723748e-01	 6.4554686594e+00
 2.0875676972e+00	 4.2008139701e-01	 6.5632018234e+00
 2.0837277484e+00	 4.3873235360e-01	 6.5235288422e+00
 2.0797102683e+00	 4.5739779424e-01	 6.3325492649e+00
 2.0755143707e+00	 4.7607537731e-01	 5.9838942271e+00
 2.0711392072e+00	 4.9476273328e-01	 5.4686699854e+00
 2.0665839680e+00	 5.1345746531e-01	 4.7753996547e+00
 2.0618478829e+00	 5.3215715004e-01	 3.8899628149e+00
 2.0569302219e+00	 5.5085933825e-01	 2.7955326733e+00
 2.1067262385e+00	 3.6574785904e-01	 5.7489573582e+00
 2.1033994736e+00	 3.8441865743e-01	 6.2422881675e+00
 2.0998973294e+00	 4.0311087906e-01	 6.5518523941e+00
 2.0962188078e+00	 4.2182226061e-01	 6.6811552719e+00
 2.0923629458e+00	 4.4055050882e-01	 6.6343132084e+00
 2.0883288168e+00	 4.5929330109e-01	 6.4135457663e+00
 2.0841155309e+00	 4.7804828613e-01	 6.0191243357e+00
 2.0797222362e+00	 4.9681308456e-01	 5.4493185929e+00
 2.0751481197e+00	 5.1558528963e-01	 4.7003403635e+00
 2.0703924078e+00	 5.3436246791e-01	 3.7662845260e+00
 2.0654543674e+00	 5.5314216005e-01	 2.6390666032e+00
 2.1154207133e+00	 3.6725730316e-01	 5.6657431817e+00
 2.1120802188e+00	 3.8600515608e-01	 6.2190971851e+00
 2.1085636212e+00	 4.0477452065e-01	 6.5574985002e+00
 2.1048699183e+00	 4.2356312421e-01	 6.6904599357e+00
 2.1009981432e+00	 4.4236866403e-01	 6.6273949976e+00
 2.0969473653e+00	 4.6118880795e-01	 6.3764907116e+00
 2.0927166911e+00	 4.8002119495e-01	 5.9446632190e+00
 2.0883052653e+00	 4.9886343584e-01	 5.3375102511e+00
 2.0837122714e+00	 5.1771311394e-01	 4.5592600570e+00
 2.0789369326e+00	 5.3656778577e-01	 3.6127163775e+00
 2.0739785129e+00	 5.5542498184e-01	 2.4991990719e+00
 1.9887370581e+00	 5.3259676391e-01	 7.3958648130e+00
 1.9838062098e+00	 5.5067894919e-01	 7.1070833470e+00
 1.9786985165e+00	 5.6875874854e-01	 6.5195173342e+00
 1.9734133965e+00	 5.8683372519e-01	 5.7141552057e+00
 1.9679503103e+00	 6.0490142056e-01	 4.7722595944e+00
 1.9623087615e+00	 6.2295935516e-01	 3.7752060014e+00
 1.9564882968e+00	 6.4100502941e-01	 2.8043136723e+00
 1.9504885074e+00	 6.5903592457e-01	 1.9406686908e+00
 1.9443090295e+00	 6.7704950364e-01	 1.2649393466e+00
 1.9379495447e+00	 6.9504321235e-01	 8.5718388675e-01
 1.9314097810e+00	 7.1301448007e-01	 7.9665081205e-01
 1.9972612035e+00	 5.3487958570e-01	 6.2726529556e+00
 1.9923092207e+00	 5.5303927503e-01	 5.8434512324e+00
 1.9871796347e+00	 5.7119656821e-01	 5.1350384597e+00
 1.9818718615e+00	 5.8934901801e-01	 4.2321512894e+00
 1.9763853595e+00	 6.0749415532e-01	 3.2200264942e+00
 1.9707196297e+00	 6.2562949003e-01	 2.1842367016e+00
 1.9648742173e+00	 6.4375251184e-01	 1.2105177625e+00
 1.9588487116e+00	 6.6186069121e-01	 3.8458775150e-01
 1.9526427471e+00	 6.7995148028e-01	-2.0804235454e-01
 1.9462560043e+00	 6.9802231381e-01	-4.8226621649e-01
 1.9396882097e+00	 7.1607061016e-01	-3.5358773480e-01
 2.0057853490e+00	 5.3716240750e-01	 5.3552536362e+00
 2.0008122315e+00	 5.5539960088e-01	 4.7754531569e+00
 1.9956607529e+00	 5.7363438788e-01	 3.9411839375e+00
 1.9903303266e+00	 5.9186431083e-01	 2.9389511919e+00
 1.9848204086e+00	 6.1008689009e-01	 1.8559192157e+00
 1.9791304980e+00	 6.2829962490e-01	 7.7974590566e-01
 1.9732601378e+00	 6.4649999427e-01	-2.0159154608e-01
 1.9672089157e+00	 6.6468545785e-01	-9.9997979822e-01
 1.9609764647e+00	 6.8285345691e-01	-1.5273613087e+00
 1.9545624638e+00	 7.0100141526e-01	-1.6959349922e+00
 1.9479666384e+00	 7.1912674025e-01	-1.4183654345e+00
 2.0143094945e+00	 5.3944522929e-01	 4.6185247902e+00
 2.0093152423e+00	 5.5775992672e-01	 3.8862635214e+00
 2.0041418710e+00	 5.7607220754e-01	 2.9287811040e+00
 1.9987887916e+00	 5.9437960365e-01	 1.8323978952e+00
 1.9932554577e+00	 6.1267962486e-01	 6.8418599865e-01
 1.9875413662e+00	 6.3096975978e-01	-4.2819572306e-01
 1.9816460583e+00	 6.4924747670e-01	-1.4166758074e+00
 1.9755691199e+00	 6.6751022449e-01	-2.1929535489e+00
 1.9693101823e+00	 6.8575543354e-01	-2.6686915273e+00
 1.9628689233e+00	 7.0398051672e-01	-2.7557172226e+00
 1.9562450671e+00	 7.2218287034e-01	-2.3662335729e+00
 2.0228336400e+00	 5.4172805108e-01	 4.0377684921e+00
 2.0178182531e+00	 5.6012025256e-01	 3.1593607565e+00
 2.0126229892e+00	 5.7851002721e-01	 2.0888322223e+00
 2.0072472567e+00	 5.9689489647e-01	 9.1039076583e-01
 2.0016905068e+00	 6.1527235962e-01	-2.9097696800e-01
 1.9959522344e+00	 6.3363989465e-01	-1.4296683642e+00
 1.9900319788e+00	 6.5199495913e-01	-2.4196370400e+00
 1.9839293240e+00	 6.7033499113e-01	-3.1745744901e+00
 1.9776438999e+00	 6.8865741017e-01	-3.6081011602e+00
 1.9711753828e+00	 7.0695961817e-01	-3.6339668741e+00
 1.9645234958e+00	 7.2523900043e-01	-3.1662604808e+00
 2.0313577855e+00	 5.4401087287e-01	 3.5887215147e+00
 2.0263212640e+00	 5.6248057841e-01	 2.5785207616e+00
 2.0211041074e+00	 5.8094784688e-01	 1.4125105631e+00
 2.0157057217e+00	 5.9941018929e-01	 1.7088405176e-01
 2.0101255559e+00	 6.1786509439e-01	-1.0654248492e+00
 2.0043631027e+00	 6.3631002952e-01	-2.2149003500e+00
 1.9984178993e+00	 6.5474244156e-01	-3.1956132407e+00
 1.9922895281e+00	 6.7315975777e-01	-3.9253989149e+00
 1.9859776175e+00	 6.9155938681e-01	-4.3220449665e+00
 1.9794818423e+00	 7.0993871962e-01	-4.3034882993e+00
 1.9728019245e+00	 7.2829513052e-01	-3.7880216225e+00
 2.0398819309e+00	 5.4629369467e-01	 3.2475461125e+00
 2.0348242748e+00	 5.6484090425e-01	 2.1278104924e+00
 2.0295852256e+00	 5.8338566655e-01	 8.9115656793e-01
 2.0241641867e+00	 6.0192548211e-01	-3.8811459897e-01
 2.0185606050e+00	 6.2045782915e-01	-1.6350635016e+00
 2.0127739709e+00	 6.3898016440e-01	-2.7742655610e+00
 2.0068038198e+00	 6.5748992399e-01	-3.7299740302e+00
 2.0006497323e+00	 6.7598452442e-01	-4.4262924968e+00
 1.9943113351e+00	 6.9446136344e-01	-4.7873569960e+00
 1.9877883018e+00	 7.1291782108e-01	-4.7375276842e+00
 1.9810803532e+00	 7.3135126060e-01	-4.2015899598e+00
 2.0484060764e+00	 5.4857651646e-01	 2.9908210223e+00
 2.0433272856e+00	 5.6720123010e-01	 1.7915816954e+00
 2.0380663437e+00	 5.8582348622e-01	 5.1627409398e-01
 2.0326226518e+00	 6.0444077494e-01	-7.6854559916e-01
 2.0269956541e+00	 6.2305056392e-01	-1.9958488454e+00
 2.0211848391e+00	 6.4165029927e-01	-3.0982809063e+00
 2.0151897403e+00	 6.6023740642e-01	-4.0083164282e+00
 2.0090099364e+00	 6.7880929106e-01	-4.6584245379e+00
 2.0026450527e+00	 6.9736334007e-01	-4.9812434763e+00
 1.9960947613e+00	 7.1589692253e-01	-4.9097647325e+00
 1.9893587819e+00	 7.3440739069e-01	-4.3775265796e+00
 2.0569302219e+00	 5.5085933825e-01	 2.7955326733e+00
 2.0518302965e+00	 5.6956155594e-01	 1.5544647837e+00
 2.0465474619e+00	 5.8826130589e-01	 2.7952673599e-01
 2.0410811168e+00	 6.0695606776e-01	-9.7229886332e-01
 2.0354307032e+00	 6.2564329869e-01	-2.1437862697e+00
 2.0295957074e+00	 6.4432043415e-01	-3.1776038842e+00
 2.0235756608e+00	 6.6298488885e-01	-4.0164607525e+00
 2.0173701406e+00	 6.8163405770e-01	-4.6032623794e+00
 2.0109787703e+00	 7.0026531671e-01	-4.8812758991e+00
 2.0044012208e+00	 7.1887602399e-01	-4.7943045806e+00
 1.9976372106e+00	 7.3746352078e-01	-4.2868715822e+00
 2.0654543674e+00	 5.5314216005e-01	 2.6390666032e+00
 2.0603333073e+00	 5.7192188179e-01	 1.4013628505e+00
 2.0550285801e+00	 5.9069912556e-01	 1.7273422469e-01
 2.0495395819e+00	 6.0947136058e-01	-1.0012152292e+00
 2.0438657523e+00	 6.2823603346e-01	-2.0749300694e+00
 2.0380065756e+00	 6.4699056902e-01	-3.0030302222e+00
 2.0319615813e+00	 6.6573237129e-01	-3.7404466405e+00
 2.0257303447e+00	 6.8445882434e-01	-4.2425659729e+00
 2.0193124879e+00	 7.0316729334e-01	-4.4653843005e+00
 2.0127076804e+00	 7.2185512544e-01	-4.3656699364e+00
 2.0059156394e+00	 7.4051965087e-01	-3.9011352181e+00
 2.0739785129e+00	 5.5542498184e-01	 2.4991990719e+00
 2.0688363181e+00	 5.7428220763e-01	 1.3174458159e+00
 2.0635096983e+00	 5.9313694523e-01	 1.8786889881e-01
 2.0579980469e+00	 6.1198665341e-01	-8.5708786023e-01
 2.0523008014e+00	 6.3082876822e-01	-1.7853829137e+00
 2.0464174439e+00	 6.4966070390e-01	-2.5654915943e+00
 2.0403475018e+00	 6.6847985372e-01	-3.1665291880e+00
 2.0340905489e+00	 6.8728359099e-01	-3.5583826058e+00
 2.0276462055e+00	 7.0606926997e-01	-3.7118507282e+00
 2.0210141399e+00	 7.2483422690e-01	-3.5987934357e+00
 2.0141940681e+00	 7.4357578096e-01	-3.1919593561e+00
 1.9314097810e+00	 7.1301448007e-01	 7.9665081205e-01
 1.9246883549e+00	 7.3096376946e-01	 9.4891966790e-01
 1.9177861838e+00	 7.4888542094e-01	 1.1108495359e+00
 1.9107031366e+00	 7.6677681873e-01	 1.2748369825e+00
 1.9034391305e+00	 7.8463533479e-01	 1.4194209018e+00
 1.8959941319e+00	 8.0245832991e-01	 1.5191304103e+00
 1.8883681565e+00	 8.2024315482e-01	 1.5482671555e+00
 1.8805612704e+00	 8.3798715128e-01	 1.4809254140e+00
 1.8725735898e+00	 8.5568765327e-01	 1.2910118341e+00
 1.8644052817e+00	 8.7334198809e-01	 9.5226480934e-01
 1.8560565644e+00	 8.9094747759e-01	 4.3827347314e-01
 1.9396882097e+00	 7.1607061016e-01	-3.5358773480e-01
 1.9329379741e+00	 7.3409683398e-01	 4.9359257599e-02
 1.9260062189e+00	 7.5209530143e-01	 5.1510057582e-01
 1.9188928123e+00	 7.7006338551e-01	 1.0169960924e+00
 1.9115976711e+00	 7.8799844693e-01	 1.5123225797e+00
 1.9041207617e+00	 8.0589783516e-01	 1.9567358508e+00
 1.8964620998e+00	 8.2375888957e-01	 2.3060917137e+00
 1.8886217517e+00	 8.4157894054e-01	 2.5164975471e+00
 1.8805998342e+00	 8.5935531060e-01	 2.5443633435e+00
 1.8723965150e+00	 8.7708531561e-01	 2.3464521513e+00
 1.8640120133e+00	 8.9476626595e-01	 1.8799298521e+00
 1.9479666384e+00	 7.1912674025e-01	-1.4183654345e+00
 1.9411875934e+00	 7.3722989850e-01	-8.1706435207e-01
 1.9342262540e+00	 7.5530518192e-01	-1.0604245538e-01
 1.9270824880e+00	 7.7334995230e-01	 6.7130111390e-01
 1.9197562117e+00	 7.9136155907e-01	 1.4557523036e+00
 1.9122473914e+00	 8.0933734041e-01	 2.1880869848e+00
 1.9045560431e+00	 8.2727462432e-01	 2.8096462207e+00
 1.8966822330e+00	 8.4517072979e-01	 3.2624131386e+00
 1.8886260786e+00	 8.6302296792e-01	 3.4890890901e+00
 1.8803877483e+00	 8.8082864313e-01	 3.4331689921e+00
 1.8719674623e+00	 8.9858505431e-01	 3.0390157407e+00
 1.9562450671e+00	 7.2218287034e-01	-2.3662335729e+00
 1.9494372126e+00	 7.4036296303e-01	-1.6162348555e+00
 1.9424462891e+00	 7.5851506241e-01	-7.1677452926e-01
 1.9352721636e+00	 7.7663651908e-01	 2.7416321666e-01
 1.9279147524e+00	 7.9472467122e-01	 1.2856480692e+00
 1.9203740212e+00	 8.1277684566e-01	 2.2475166014e+00
 1.9126499863e+00	 8.3079035907e-01	 3.0904739880e+00
 1.9047427143e+00	 8.4876251904e-01	 3.7461900329e+00
 1.8966523230e+00	 8.6669062525e-01	 4.1473943123e+00
 1.8883789816e+00	 8.8457197066e-01	 4.2279702889e+00
 1.8799229113e+00	 9.0240384266e-01	 3.9230482583e+00
 1.9645234958e+00	 7.2523900043e-01	-3.1662604808e+00
 1.9576868319e+00	 7.4349602755e-01	-2.3142726207e+00
 1.9506663242e+00	 7.6172494290e-01	-1.2819025442e+00
 1.9434618393e+00	 7.7992308587e-01	-1.3862955581e-01
 1.9360732930e+00	 7.9808778336e-01	 1.0373317262e+00
 1.9285006510e+00	 8.1621635091e-01	 2.1687673941e+00
 1.9207439296e+00	 8.3430609383e-01	 3.1795742319e+00
 1.9128031956e+00	 8.5235430830e-01	 3.9948688049e+00
 1.9046785674e+00	 8.7035828259e-01	 4.5410954923e+00
 1.8963702150e+00	 8.8831529818e-01	 4.7461332950e+00
 1.8878783602e+00	 9.0622263102e-01	 4.5394012568e+00
 1.9728019245e+00	 7.2829513052e-01	-3.7880216225e+00
 1.9659364512e+00	 7.4662909207e-01	-2.8776769080e+00
 1.9588863593e+00	 7.6493482339e-01	-1.7668327865e+00
 1.9516515150e+00	 7.8320965266e-01	-5.3189951894e-01
 1.9442318336e+00	 8.0145089550e-01	 7.4552159289e-01
 1.9366272808e+00	 8.1965585616e-01	 1.9850040218e+00
 1.9288378728e+00	 8.3782182858e-01	 3.1074131641e+00
 1.9208636769e+00	 8.5594609755e-01	 4.0350224414e+00
 1.9127048118e+00	 8.7402593992e-01	 4.6916281732e+00
 1.9043614483e+00	 8.9205862570e-01	 5.0026630425e+00
 1.8958338092e+00	 9.1004141937e-01	 4.8953079752e+00
 1.9810803532e+00	 7.3135126060e-01	-4.2015899598e+00
 1.9741860704e+00	 7.4976215659e-01	-3.2739848378e+00
 1.9671063944e+00	 7.6814470388e-01	-2.1375587031e+00
 1.9598411907e+00	 7.8649621944e-01	-8.7106689719e-01
 1.9523903742e+00	 8.0481400765e-01	 4.4434475694e-01
 1.9447539106e+00	 8.2309536141e-01	 1.7288248704e+00
 1.9369318161e+00	 8.4133756333e-01	 2.9039348060e+00
 1.9289241582e+00	 8.5953788681e-01	 3.8927657828e+00
 1.9207310563e+00	 8.7769359725e-01	 4.6200545849e+00
 1.9123526816e+00	 8.9580195323e-01	 5.0122976889e+00
 1.9037892582e+00	 9.1386020773e-01	 4.9978636313e+00
 1.9893587819e+00	 7.3440739069e-01	-4.3775265796e+00
 1.9824356897e+00	 7.5289522111e-01	-3.4712869600e+00
 1.9753264296e+00	 7.7135458437e-01	-2.3606489780e+00
 1.9680308663e+00	 7.8978278623e-01	-1.1221376824e+00
 1.9605489148e+00	 8.0817711979e-01	 1.6734907187e-01
 1.9528805404e+00	 8.2653486666e-01	 1.4322735246e+00
 1.9450257593e+00	 8.4485329808e-01	 2.5985715365e+00
 1.9369846395e+00	 8.6312967606e-01	 3.5937647325e+00
 1.9287573007e+00	 8.8136125458e-01	 4.3470710814e+00
 1.9203439150e+00	 8.9954528075e-01	 4.7895137349e+00
 1.9117447071e+00	 9.1767899609e-01	 4.8540279516e+00
 1.9976372106e+00	 7.3746352078e-01	-4.2868715822e+00
 1.9906853090e+00	 7.5602828563e-01	-3.4382112261e+00
 1.9835464647e+00	 7.7456446486e-01	-2.4032359011e+00
 1.9762205420e+00	 7.9306935301e-01	-1.2516917917e+00
 1.9687074554e+00	 8.1154023193e-01	-5.2485142109e-02
 1.9610071702e+00	 8.2997437191e-01	 1.1268499555e+00
 1.9531197026e+00	 8.4836903283e-01	 2.2202543803e+00
 1.9450451208e+00	 8.6672146532e-01	 3.1632452393e+00
 1.9367835451e+00	 8.8502891191e-01	 3.8930153969e+00
 1.9283351483e+00	 9.0328860828e-01	 4.3485311144e+00
 1.9197001561e+00	 9.2149778444e-01	 4.4706276421e+00
 2.0059156394e+00	 7.4051965087e-01	-3.9011352181e+00
 1.9989349282e+00	 7.5916135015e-01	-3.1439121792e+00
 1.9917664998e+00	 7.7777434535e-01	-2.2330040244e+00
 1.9844102177e+00	 7.9635591980e-01	-1.2268715157e+00
 1.9768659961e+00	 8.1490334408e-01	-1.8273368439e-01
 1.9691337999e+00	 8.3341387716e-01	 8.4352143564e-01
 1.9612136458e+00	 8.5188476759e-01	 1.7974230442e+00
 1.9531056021e+00	 8.7031325457e-01	 2.6260020616e+00
 1.9448097895e+00	 8.8869656924e-01	 3.2778737256e+00
 1.9363263816e+00	 9.0703193580e-01	 3.7033181631e+00
 1.9276556051e+00	 9.2531657280e-01	 3.8543588012e+00
 2.0141940681e+00	 7.4357578096e-01	-3.1919593561e+00
 2.0071845475e+00	 7.6229441467e-01	-2.5580604084e+00
 1.9999865349e+00	 7.8098422584e-01	-1.8181790944e+00
 1.9925998934e+00	 7.9964248658e-01	-1.0153702493e+00
 1.9850245367e+00	 8.1826645622e-01	-1.9151733907e-01
 1.9772604297e+00	 8.3685338241e-01	 6.1273318632e-01
 1.9693075891e+00	 8.5540050234e-01	 1.3580357091e+00
 1.9611660834e+00	 8.7390504382e-01	 2.0064073175e+00
 1.9528360339e+00	 8.9236422656e-01	 2.5212876297e+00
 1.9443176149e+00	 9.1077526332e-01	 2.8675964667e+00
 1.9356110540e+00	 9.2913536115e-01	 3.0117892758e+00
 1.8560565644e+00	 8.9094747759e-01	 4.3827347314e-01
 1.8475291724e+00	 9.0849845989e-01	-7.1033702662e-04
 1.8388220224e+00	 9.2599524687e-01	-1.5466162511e-01
 1.8299354863e+00	 9.4343515160e-01	-7.4125630900e-02
 1.8208699886e+00	 9.6081548646e-01	 1.9702782447e-01
 1.8116260061e+00	 9.7813356446e-01	 6.1641417455e-01
 1.8022040683e+00	 9.9538670041e-01	 1.1431634276e+00
 1.7926047575e+00	 1.0125722123e+00	 1.7379389791e+00
 1.7828287087e+00	 1.0296874225e+00	 2.3629459945e+00
 1.7728766099e+00	 1.0467296589e+00	 2.9819295109e+00
 1.7627492020e+00	 1.0636962566e+00	 3.5601624785e+00
 1.8640120133e+00	 8.9476626595e-01	 1.8799298521e+00
 1.8554480712e+00	 9.1239247544e-01	 1.3913569149e+00
 1.8467036004e+00	 9.2996425734e-01	 1.1323445715e+00
 1.8377789748e+00	 9.4747891317e-01	 1.0471086676e+00
 1.8286746205e+00	 9.6493374381e-01	 1.1099733239e+00
 1.8193910164e+00	 9.8232605072e-01	 1.2999805160e+00
 1.8099286942e+00	 9.9965313725e-01	 1.5971458352e+00
 1.8002882387e+00	 1.0169123099e+00	 1.9824409650e+00
 1.7904702876e+00	 1.0341008794e+00	 2.4377658720e+00
 1.7804755321e+00	 1.0512161625e+00	 2.9459109293e+00
 1.7703047160e+00	 1.0682554826e+00	 3.4905092644e+00
 1.8719674623e+00	 8.9858505431e-01	 3.0390157407e+00
 1.8633669700e+00	 9.1628649100e-01	 2.5390712722e+00
 1.8545851785e+00	 9.3393326781e-01	 2.1995311559e+00
 1.8456224633e+00	 9.5152267474e-01	 2.0050019615e+00
 1.8364792524e+00	 9.6905200115e-01	 1.9191176567e+00
 1.8271560266e+00	 9.8651853699e-01	 1.9363770865e+00
 1.8176533200e+00	 1.0039195741e+00	 2.0538945562e+00
 1.8079717198e+00	 1.0212524074e+00	 2.2692634314e+00
 1.7981118666e+00	 1.0385143364e+00	 2.5804980665e+00
 1.7880744542e+00	 1.0557026660e+00	 2.9859657913e+00
 1.7778602299e+00	 1.0728147085e+00	 3.4843093083e+00
 1.8799229113e+00	 9.0240384266e-01	 3.9230482583e+00
 1.8712858687e+00	 9.2018050656e-01	 3.4474060607e+00
 1.8624667566e+00	 9.3790227828e-01	 3.0655241648e+00
 1.8534659519e+00	 9.5556643631e-01	 2.7876527886e+00
 1.8442838843e+00	 9.7317025849e-01	 2.6076117498e+00
 1.8349210368e+00	 9.9071102326e-01	 2.5058713265e+00
 1.8253779458e+00	 1.0081860109e+00	 2.4922145365e+00
 1.8156552010e+00	 1.0255925050e+00	 2.5772179795e+00
 1.8057534456e+00	 1.0429277933e+00	 2.7714773094e+00
 1.7956733764e+00	 1.0601891696e+00	 3.0855148805e+00
 1.7854157439e+00	 1.0773739345e+00	 3.5296778928e+00
 1.8878783602e+00	 9.0622263102e-01	 4.5394012568e+00
 1.8792047675e+00	 9.2407452212e-01	 4.1157201991e+00
 1.8703483347e+00	 9.4187128875e-01	 3.7306035091e+00
 1.8613094404e+00	 9.5961019788e-01	 3.4050714041e+00
 1.8520885162e+00	 9.7728851583e-01	 3.1589352020e+00
 1.8426860471e+00	 9.9490350953e-01	 2.9890957026e+00
 1.8331025717e+00	 1.0124524478e+00	 2.8912990058e+00
 1.8233386822e+00	 1.0299326025e+00	 2.8855028620e+00
 1.8133950246e+00	 1.0473412503e+00	 2.9913976746e+00
 1.8032722986e+00	 1.0646756731e+00	 3.2282845658e+00
 1.7929712579e+00	 1.0819331605e+00	 3.6149549243e+00
 1.8958338092e+00	 9.1004141937e-01	 4.8953079752e+00
 1.8871236663e+00	 9.2796853768e-01	 4.5433654697e+00
 1.8782299128e+00	 9.4584029922e-01	 4.1874236031e+00
 1.8691529289e+00	 9.6365395945e-01	 3.8553822072e+00
 1.8598931481e+00	 9.8140677317e-01	 3.5737452601e+00
 1.8504510573e+00	 9.9909599579e-01	 3.3670393257e+00
 1.8408271975e+00	 1.0167188846e+00	 3.2307205253e+00
 1.8310221634e+00	 1.0342727001e+00	 3.1736939799e+00
 1.8210366035e+00	 1.0517547072e+00	 3.2213040609e+00
 1.8108712208e+00	 1.0691621767e+00	 3.3982993228e+00
 1.8005267719e+00	 1.0864923864e+00	 3.7286990645e+00
 1.9037892582e+00	 9.1386020773e-01	 4.9978636313e+00
 1.8950425651e+00	 9.3186255324e-01	 4.7296863149e+00
 1.8861114909e+00	 9.4980930969e-01	 4.4287424078e+00
 1.8769964175e+00	 9.6769772102e-01	 4.1259694841e+00
 1.8676977800e+00	 9.8552503052e-01	 3.8508003859e+00
 1.8582160676e+00	 1.0032884821e+00	 3.6310970644e+00
 1.8485518234e+00	 1.0209853214e+00	 3.4904222309e+00
 1.8387056445e+00	 1.0386127976e+00	 3.4217360749e+00
 1.8286781825e+00	 1.0561681642e+00	 3.4425838577e+00
 1.8184701430e+00	 1.0736486803e+00	 3.5798744123e+00
 1.8080822859e+00	 1.0910516124e+00	 3.8596819768e+00
 1.9117447071e+00	 9.1767899609e-01	 4.8540279516e+00
 1.9029614638e+00	 9.3575656880e-01	 4.6740196426e+00
 1.8939930690e+00	 9.5377832015e-01	 4.4474189220e+00
 1.8848399060e+00	 9.7174148259e-01	 4.2044069420e+00
 1.8755024119e+00	 9.8964328786e-01	 3.9736286811e+00
 1.8659810778e+00	 1.0074809683e+00	 3.7821268920e+00
 1.8562764492e+00	 1.0252517583e+00	 3.6552767324e+00
 1.8463891257e+00	 1.0429528952e+00	 3.6099341141e+00
 1.8363197615e+00	 1.0605816211e+00	 3.6369587891e+00
 1.8260690651e+00	 1.0781351838e+00	 3.7576087107e+00
 1.8156377998e+00	 1.0956108384e+00	 3.9968826844e+00
 1.9197001561e+00	 9.2149778444e-01	 4.4706276421e+00
 1.9108803626e+00	 9.3965058435e-01	 4.3756946392e+00
 1.9018746471e+00	 9.5774733062e-01	 4.2364107409e+00
 1.8926833945e+00	 9.7578524416e-01	 4.0784534300e+00
 1.8833070438e+00	 9.9376154520e-01	 3.9260093846e+00
 1.8737460881e+00	 1.0116734546e+00	 3.8017144253e+00
 1.8640010751e+00	 1.0295181951e+00	 3.7265941358e+00
 1.8540726069e+00	 1.0472929928e+00	 3.7200053049e+00
 1.8439613405e+00	 1.0649950781e+00	 3.7864769316e+00
 1.8336679873e+00	 1.0826216874e+00	 3.9163776881e+00
 1.8231933138e+00	 1.1001700644e+00	 4.1294820366e+00
 1.9276556051e+00	 9.2531657280e-01	 3.8543588012e+00
 1.9187992614e+00	 9.4354459991e-01	 3.8340325916e+00
 1.9097562252e+00	 9.6171634109e-01	 3.7887716776e+00
 1.9005268831e+00	 9.7982900573e-01	 3.7360487698e+00
 1.8911116757e+00	 9.9787980254e-01	 3.6919673353e+00
 1.8815110983e+00	 1.0158659409e+00	 3.6712133991e+00
 1.8717257009e+00	 1.0337846320e+00	 3.6870079597e+00
 1.8617560881e+00	 1.0516330903e+00	 3.7510601475e+00
 1.8516029194e+00	 1.0694085350e+00	 3.8735048999e+00
 1.8412669095e+00	 1.0871081909e+00	 4.0413265295e+00
 1.8307488278e+00	 1.1047292903e+00	 4.2468572813e+00
 1.9356110540e+00	 9.2913536115e-01	 3.0117892758e+00
 1.9267181602e+00	 9.4743861547e-01	 3.0483467160e+00
 1.9176378033e+00	 9.6568535156e-01	 3.0976494476e+00
 1.9083703716e+00	 9.8387276730e-01	 3.1653096922e+00
 1.8989163076e+00	 1.0019980599e+00	 3.2557675756e+00
 1.8892761086e+00	 1.0200584271e+00	 3.3722605961e+00
 1.8794503267e+00	 1.0380510688e+00	 3.5167936019e+00
 1.8694395692e+00	 1.0559731879e+00	 3.6901093761e+00
 1.8592444984e+00	 1.0738219920e+00	 3.8916599339e+00
 1.8488658317e+00	 1.0915946945e+00	 4.1178633952e+00
 1.8383043418e+00	 1.1092885163e+00	 4.3385767387e+00
 1.7627492020e+00	 1.0636962566e+00	 3.5601624785e+00
 1.7524472793e+00	 1.0805845591e+00	 3.9130141930e+00
 1.7419716905e+00	 1.0973919210e+00	 3.9276760007e+00
 1.7313233376e+00	 1.1141157078e+00	 3.6776362840e+00
 1.7205031752e+00	 1.1307532976e+00	 3.2346646595e+00
 1.7095122102e+00	 1.1473020817e+00	 2.6678864083e+00
 1.6983515019e+00	 1.1637594664e+00	 2.0452201367e+00
 1.6870221614e+00	 1.1801228739e+00	 1.4334493763e+00
 1.6755253515e+00	 1.1963897440e+00	 8.9803834347e-01
 1.6638622866e+00	 1.2125575349e+00	 5.0294563193e-01
 1.6520342318e+00	 1.2286237251e+00	 3.1043660828e-01
 1.7703047160e+00	 1.0682554826e+00	 3.4905092644e+00
 1.7599586370e+00	 1.0852161719e+00	 3.8867281697e+00
 1.7494381477e+00	 1.1020955736e+00	 3.9979745475e+00
 1.7387441537e+00	 1.1188910422e+00	 3.8803993764e+00
 1.7278776138e+00	 1.1355999441e+00	 3.5881871203e+00
 1.7168395392e+00	 1.1522196598e+00	 3.1737591086e+00
 1.7056309938e+00	 1.1687475843e+00	 2.6889690894e+00
 1.6942530933e+00	 1.1851811288e+00	 2.1849919651e+00
 1.6827070057e+00	 1.2015177221e+00	 1.7121613899e+00
 1.6709939504e+00	 1.2177548117e+00	 1.3198047155e+00
 1.6591151981e+00	 1.2338898649e+00	 1.0560760281e+00
 1.7778602299e+00	 1.0728147085e+00	 3.4843093083e+00
 1.7674699948e+00	 1.0898477847e+00	 3.8950128163e+00
 1.7569046049e+00	 1.1067992263e+00	 4.0665339012e+00
 1.7461649698e+00	 1.1236663765e+00	 4.0406965210e+00
 1.7352520524e+00	 1.1404465907e+00	 3.8572064710e+00
 1.7241668683e+00	 1.1571372379e+00	 3.5550041275e+00
 1.7129104857e+00	 1.1737357022e+00	 3.1728855482e+00
 1.7014840253e+00	 1.1902393838e+00	 2.7493579404e+00
 1.6898886599e+00	 1.2066457003e+00	 2.3224945576e+00
 1.6781256143e+00	 1.2229520884e+00	 1.9297864221e+00
 1.6661961644e+00	 1.2391560047e+00	 1.6079916017e+00
 1.7854157439e+00	 1.0773739345e+00	 3.5296778928e+00
 1.7749813526e+00	 1.0944793975e+00	 3.9311343381e+00
 1.7643710621e+00	 1.1115028790e+00	 4.1310191684e+00
 1.7535857859e+00	 1.1284417108e+00	 4.1596885296e+00
 1.7426264911e+00	 1.1452932372e+00	 4.0456490991e+00
 1.7314941973e+00	 1.1620548161e+00	 3.8174450864e+00
 1.7201899775e+00	 1.1787238202e+00	 3.5037841768e+00
 1.7087149572e+00	 1.1952976387e+00	 3.1334095328e+00
 1.6970703141e+00	 1.2117736785e+00	 2.7349674784e+00
 1.6852572781e+00	 1.2281493651e+00	 2.3368715548e+00
 1.6732771307e+00	 1.2444221445e+00	 1.9671636635e+00
 1.7929712579e+00	 1.0819331605e+00	 3.6149549243e+00
 1.7824927103e+00	 1.0991110103e+00	 3.9884948316e+00
 1.7718375193e+00	 1.1162065317e+00	 4.1891106751e+00
 1.7610066021e+00	 1.1332170452e+00	 4.2385312584e+00
 1.7500009297e+00	 1.1501398838e+00	 4.1573880538e+00
 1.7388215263e+00	 1.1669723942e+00	 3.9668185039e+00
 1.7274694694e+00	 1.1837119381e+00	 3.6883740412e+00
 1.7159458892e+00	 1.2003558937e+00	 3.3439007881e+00
 1.7042519683e+00	 1.2169016567e+00	 2.9554155511e+00
 1.6923889420e+00	 1.2333466419e+00	 2.5449777934e+00
 1.6803580971e+00	 1.2496882843e+00	 2.1345583013e+00
 1.8005267719e+00	 1.0864923864e+00	 3.7286990645e+00
 1.7900040681e+00	 1.1037426231e+00	 4.0606281870e+00
 1.7793039765e+00	 1.1209101843e+00	 4.2384829050e+00
 1.7684274182e+00	 1.1379923795e+00	 4.2783745773e+00
 1.7573753683e+00	 1.1549865304e+00	 4.1962429626e+00
 1.7461488554e+00	 1.1718899723e+00	 4.0087743554e+00
 1.7347489613e+00	 1.1887000561e+00	 3.7332594909e+00
 1.7231768211e+00	 1.2054141486e+00	 3.3874784387e+00
 1.7114336225e+00	 1.2220296348e+00	 2.9895804566e+00
 1.6995206058e+00	 1.2385439186e+00	 2.5579594943e+00
 1.6874390634e+00	 1.2549544241e+00	 2.1111260692e+00
 1.8080822859e+00	 1.0910516124e+00	 3.8596819768e+00
 1.7975154259e+00	 1.1083742359e+00	 4.1411960612e+00
 1.7867704336e+00	 1.1256138370e+00	 4.2768665150e+00
 1.7758482343e+00	 1.1427677139e+00	 4.2803613376e+00
 1.7647498069e+00	 1.1598331769e+00	 4.1659799236e+00
 1.7534761844e+00	 1.1768075504e+00	 3.9488765904e+00
 1.7420284532e+00	 1.1936881740e+00	 3.6449409903e+00
 1.7304077531e+00	 1.2104724036e+00	 3.2706827230e+00
 1.7186152767e+00	 1.2271576130e+00	 2.8431106283e+00
 1.7066522697e+00	 1.2437411953e+00	 2.3796074632e+00
 1.6945200297e+00	 1.2602205639e+00	 1.8978007002e+00
 1.8156377998e+00	 1.0956108384e+00	 3.9968826844e+00
 1.8050267837e+00	 1.1130058486e+00	 4.2239762129e+00
 1.7942368908e+00	 1.1303174897e+00	 4.3020428263e+00
 1.7832690504e+00	 1.1475430482e+00	 4.2456263387e+00
 1.7721242455e+00	 1.1646798235e+00	 4.0703113720e+00
 1.7608035134e+00	 1.1817251286e+00	 3.7926036073e+00
 1.7493079451e+00	 1.1986762919e+00	 3.4298158980e+00
 1.7376386850e+00	 1.2155306585e+00	 2.9999481540e+00
 1.7257969309e+00	 1.2322855912e+00	 2.5215616810e+00
 1.7137839336e+00	 1.2489384720e+00	 2.0136487017e+00
 1.7016009960e+00	 1.2654867037e+00	 1.4954978189e+00
 1.8231933138e+00	 1.1001700644e+00	 4.1294820366e+00
 1.8125381414e+00	 1.1176374614e+00	 4.3027730832e+00
 1.8017033480e+00	 1.1350211424e+00	 4.3118416415e+00
 1.7906898665e+00	 1.1523183826e+00	 4.1752952933e+00
 1.7794986842e+00	 1.1695264700e+00	 3.9128959221e+00
 1.7681308425e+00	 1.1866427067e+00	 3.5453486891e+00
 1.7565874370e+00	 1.2036644099e+00	 3.0941791995e+00
 1.7448696170e+00	 1.2205889135e+00	 2.5816042392e+00
 1.7329785851e+00	 1.2374135694e+00	 2.0303967975e+00
 1.7209155974e+00	 1.2541357488e+00	 1.4637461297e+00
 1.7086819623e+00	 1.2707528435e+00	 9.0511365350e-01
 1.8307488278e+00	 1.1047292903e+00	 4.2468572813e+00
 1.8200494992e+00	 1.1222690742e+00	 4.3714978016e+00
 1.8091698052e+00	 1.1397247950e+00	 4.3041390897e+00
 1.7981106826e+00	 1.1570937169e+00	 4.0704837920e+00
 1.7868731228e+00	 1.1743731166e+00	 3.6973381858e+00
 1.7754581715e+00	 1.1915602848e+00	 3.2124203988e+00
 1.7638669289e+00	 1.2086525278e+00	 2.6442241906e+00
 1.7521005489e+00	 1.2256471684e+00	 2.0218761525e+00
 1.7401602394e+00	 1.2425415475e+00	 1.3749870756e+00
 1.7280472613e+00	 1.2593330255e+00	 7.3349828197e-01
 1.7157629287e+00	 1.2760189833e+00	 1.2752374820e-01
 1.8383043418e+00	 1.1092885163e+00	 4.3385767387e+00
 1.8275608570e+00	 1.1269006870e+00	 4.4241829624e+00
 1.8166362624e+00	 1.1444284477e+00	 4.2768554991e+00
 1.8055314987e+00	 1.1618690513e+00	 3.9322962655e+00
 1.7942475614e+00	 1.1792197631e+00	 3.4271885682e+00
 1.7827855005e+00	 1.1964778629e+00	 2.7990429378e+00
 1.7711464208e+00	 1.2136406457e+00	 2.0860431169e+00
 1.7593314809e+00	 1.2307054234e+00	 1.3268853594e+00
 1.7473418936e+00	 1.2476695257e+00	 5.6061183552e-01
 1.7351789251e+00	 1.2645303022e+00	-1.7356101798e-01
 1.7228438950e+00	 1.2812851231e+00	-8.3641832493e-01
 1.6520342318e+00	 1.2286237251e+00	 3.1043660828e-01
 1.6400404515e+00	 1.2445885172e+00	 3.4924373119e-01
 1.6278843150e+00	 1.2604466842e+00	 5.7322378118e-01
 1.6155672454e+00	 1.2761957614e+00	 9.3212528066e-01
 1.6030907154e+00	 1.2918333090e+00	 1.3773049841e+00
 1.5904562459e+00	 1.3073569135e+00	 1.8617104722e+00
 1.5776654063e+00	 1.3227641886e+00	 2.3398612594e+00
 1.5647198132e+00	 1.3380527767e+00	 2.7678289670e+00
 1.5516211303e+00	 1.3532203499e+00	 3.1032171145e+00
 1.5383710673e+00	 1.3682646113e+00	 3.3051410793e+00
 1.5249713791e+00	 1.3831832959e+00	 3.3342087626e+00
 1.6591151981e+00	 1.2338898649e+00	 1.0560760281e+00
 1.6470700099e+00	 1.2499230855e+00	 9.6057445448e-01
 1.6348617697e+00	 1.2658492239e+00	 1.0150395651e+00
 1.6224919066e+00	 1.2816658049e+00	 1.1807680331e+00
 1.6099618995e+00	 1.2973703784e+00	 1.4203699206e+00
 1.5972732760e+00	 1.3129605203e+00	 1.6977318011e+00
 1.5844276121e+00	 1.3284338343e+00	 1.9779787853e+00
 1.5714265316e+00	 1.3437879525e+00	 2.2274360479e+00
 1.5582717050e+00	 1.3590205371e+00	 2.4135904592e+00
 1.5449648494e+00	 1.3741292813e+00	 2.5050529137e+00
 1.5315077273e+00	 1.3891119105e+00	 2.4715219434e+00
 1.6661961644e+00	 1.2391560047e+00	 1.6079916017e+00
 1.6540995684e+00	 1.2552576537e+00	 1.4047643243e+00
 1.6418392244e+00	 1.2712517636e+00	 1.3237025926e+00
 1.6294165677e+00	 1.2871358485e+00	 1.3355196617e+00
 1.6168330836e+00	 1.3029074478e+00	 1.4119808727e+00
 1.6040903061e+00	 1.3185641271e+00	 1.5258502139e+00
 1.5911898180e+00	 1.3341034799e+00	 1.6508361356e+00
 1.5781332499e+00	 1.3495231282e+00	 1.7615372604e+00
 1.5649222796e+00	 1.3648207242e+00	 1.8333886359e+00
 1.5515586315e+00	 1.3799939513e+00	 1.8426091633e+00
 1.5380440755e+00	 1.3950405252e+00	 1.7661508321e+00
 1.6732771307e+00	 1.2444221445e+00	 1.9671636635e+00
 1.6611291269e+00	 1.2605922220e+00	 1.6794635268e+00
 1.6488166791e+00	 1.2766543033e+00	 1.4939675717e+00
 1.6363412289e+00	 1.2926058921e+00	 1.3887007254e+00
 1.6237042677e+00	 1.3084445172e+00	 1.3425119267e+00
 1.6109073362e+00	 1.3241677340e+00	 1.3350070126e+00
 1.5979520239e+00	 1.3397731255e+00	 1.3464811694e+00
 1.5848399683e+00	 1.3552583039e+00	 1.3578516340e+00
 1.5715728543e+00	 1.3706209114e+00	 1.3505913260e+00
 1.5581524135e+00	 1.3858586213e+00	 1.3066640859e+00
 1.5445804237e+00	 1.4009691398e+00	 1.2084621829e+00
 1.6803580971e+00	 1.2496882843e+00	 2.1345583013e+00
 1.6681586853e+00	 1.2659267902e+00	 1.7823624866e+00
 1.6557941338e+00	 1.2820568430e+00	 1.5206766707e+00
 1.6432658900e+00	 1.2980759356e+00	 1.3327587641e+00
 1.6305754518e+00	 1.3139815865e+00	 1.2024955365e+00
 1.6177243663e+00	 1.3297713408e+00	 1.1143246907e+00
 1.6047142298e+00	 1.3454427712e+00	 1.0531567775e+00
 1.5915466866e+00	 1.3609934797e+00	 1.0042976703e+00
 1.5782234289e+00	 1.3764210985e+00	 9.5337231445e-01
 1.5647461956e+00	 1.3917232913e+00	 8.8625046155e-01
 1.5511167719e+00	 1.4068977544e+00	 7.8897508236e-01
 1.6874390634e+00	 1.2549544241e+00	 2.1111260692e+00
 1.6751882438e+00	 1.2712613585e+00	 1.7111893772e+00
 1.6627715885e+00	 1.2874593827e+00	 1.3987559801e+00
 1.6501905512e+00	 1.3035459792e+00	 1.1602638756e+00
 1.6374466359e+00	 1.3195186559e+00	 9.8261738743e-01
 1.6245413965e+00	 1.3353749476e+00	 8.5310126759e-01
 1.6114764357e+00	 1.3511124168e+00	 7.5929487784e-01
 1.5982534050e+00	 1.3667286554e+00	 6.8898719906e-01
 1.5848740035e+00	 1.3822212857e+00	 6.3009341455e-01
 1.5713399777e+00	 1.3975879614e+00	 5.7057380443e-01
 1.5576531201e+00	 1.4128263691e+00	 4.9835567522e-01
 1.6945200297e+00	 1.2602205639e+00	 1.8978007002e+00
 1.6822178022e+00	 1.2765959267e+00	 1.4637076603e+00
 1.6697490431e+00	 1.2928619224e+00	 1.1232120290e+00
 1.6571152123e+00	 1.3090160227e+00	 8.6390436818e-01
 1.6443178200e+00	 1.3250557253e+00	 6.7371135463e-01
 1.6313584266e+00	 1.3409785544e+00	 5.4080472888e-01
 1.6182386416e+00	 1.3567820624e+00	 4.5351052426e-01
 1.6049601233e+00	 1.3724638312e+00	 4.0021935138e-01
 1.5915245782e+00	 1.3880214728e+00	 3.6929850888e-01
 1.5779337598e+00	 1.4034526314e+00	 3.4900668280e-01
 1.5641894683e+00	 1.4187549837e+00	 3.2741198263e-01
 1.7016009960e+00	 1.2654867037e+00	 1.4954978189e+00
 1.6892473607e+00	 1.2819304950e+00	 1.0377136533e+00
 1.6767264978e+00	 1.2982644621e+00	 6.8912835447e-01
 1.6640398735e+00	 1.3144860663e+00	 4.3648248778e-01
 1.6511890041e+00	 1.3305927947e+00	 2.6675455188e-01
 1.6381754567e+00	 1.3465821612e+00	 1.6706757023e-01
 1.6250008475e+00	 1.3624517081e+00	 1.2459612734e-01
 1.6116668417e+00	 1.3781990069e+00	 1.2647464647e-01
 1.5981751528e+00	 1.3938216600e+00	 1.5970770103e-01
 1.5845275419e+00	 1.4093173014e+00	 2.1108314244e-01
 1.5707258165e+00	 1.4246835984e+00	 2.6708881232e-01
 1.7086819623e+00	 1.2707528435e+00	 9.0511365350e-01
 1.6962769191e+00	 1.2872650633e+00	 4.3103412478e-01
 1.6837039525e+00	 1.3036670018e+00	 9.1662123249e-02
 1.6709645346e+00	 1.3199561098e+00	-1.2908978275e-01
 1.6580601882e+00	 1.3361298640e+00	-2.4713753129e-01
 1.6449924868e+00	 1.3521857680e+00	-2.7831855864e-01
 1.6317630533e+00	 1.3681213537e+00	-2.3848421794e-01
 1.6183735600e+00	 1.3839341827e+00	-1.4359081103e-01
 1.6048257275e+00	 1.3996218471e+00	-9.7884241837e-03
 1.5911213239e+00	 1.4151819714e+00	 1.4649323122e-01
 1.5772621647e+00	 1.4306122130e+00	 3.0846275692e-01
 1.7157629287e+00	 1.2760189833e+00	 1.2752374820e-01
 1.7033064776e+00	 1.2925996315e+00	-3.5847608304e-01
 1.6906814072e+00	 1.3090695415e+00	-6.7395919677e-01
 1.6778891957e+00	 1.3254261534e+00	-8.3979485471e-01
 1.6649313724e+00	 1.3416669334e+00	-8.7671580672e-01
 1.6518095169e+00	 1.3577893748e+00	-8.0540811273e-01
 1.6385252592e+00	 1.3737909994e+00	-6.4660029968e-01
 1.6250802784e+00	 1.3896693584e+00	-4.2115102651e-01
 1.6114763021e+00	 1.4054220343e+00	-1.5013443542e-01
 1.5977151060e+00	 1.4210466414e+00	 1.4507762186e-01
 1.5837985129e+00	 1.4365408276e+00	 4.4273727816e-01
 1.7228438950e+00	 1.2812851231e+00	-8.3641832493e-01
 1.7103360360e+00	 1.2979341998e+00	-1.3329364065e+00
 1.6976588619e+00	 1.3144720812e+00	-1.6124411160e+00
 1.6848138569e+00	 1.3308961970e+00	-1.7025135964e+00
 1.6718025565e+00	 1.3472040028e+00	-1.6306022814e+00
 1.6586265470e+00	 1.3633929816e+00	-1.4241068159e+00
 1.6452874651e+00	 1.3794606450e+00	-1.1104612550e+00
 1.6317869967e+00	 1.3954045341e+00	-7.1721570672e-01
 1.6181268767e+00	 1.4112222214e+00	-2.7211558731e-01
 1.6043088881e+00	 1.4269113115e+00	 1.9682232979e-01
 1.5903348611e+00	 1.4424694423e+00	 6.6123787454e-01
 1.5249713791e+00	 1.3831832959e+00	 3.3342087626e+00
 1.5114261768e+00	 1.3979716729e+00	 3.2490179762e+00
 1.4977350178e+00	 1.4126301128e+00	 3.1513963416e+00
 1.4838997636e+00	 1.4271564788e+00	 3.0661312666e+00
 1.4699223178e+00	 1.4415486705e+00	 2.9950504215e+00
 1.4558046250e+00	 1.4558046250e+00	 2.9153998206e+00
 1.4415486705e+00	 1.4699223178e+00	 2.8377352338e+00
 1.4271564788e+00	 1.4838997636e+00	 2.7729444378e+00
 1.4126301128e+00	 1.4977350178e+00	 2.7288292999e+00
 1.3979716729e+00	 1.5114261768e+00	 2.7144635696e+00
 1.3831832959e+00	 1.5249713791e+00	 2.7404594276e+00
 1.5315077273e+00	 1.3891119105e+00	 2.4715219434e+00
 1.5179044674e+00	 1.4039636736e+00	 2.3586869393e+00
 1.5041546253e+00	 1.4186849427e+00	 2.2472962125e+00
 1.4902600703e+00	 1.4332735718e+00	 2.1587348454e+00
 1.4762227141e+00	 1.4477274514e+00	 2.1076820883e+00
 1.4620445099e+00	 1.4620445099e+00	 2.0634057682e+00
 1.4477274514e+00	 1.4762227141e+00	 2.0225761862e+00
 1.4332735718e+00	 1.4902600703e+00	 1.9922742614e+00
 1.4186849427e+00	 1.5041546253e+00	 1.9771834492e+00
 1.4039636736e+00	 1.5179044674e+00	 1.9850174702e+00
 1.3891119105e+00	 1.5315077273e+00	 2.0240031015e+00
 1.5380440755e+00	 1.3950405252e+00	 1.7661508321e+00
 1.5243827581e+00	 1.4099556744e+00	 1.6381601753e+00
 1.5105742327e+00	 1.4247397726e+00	 1.5211827237e+00
 1.4966203769e+00	 1.4393906647e+00	 1.4336611966e+00
 1.4825231104e+00	 1.4539062324e+00	 1.3917038468e+00
 1.4682843949e+00	 1.4682843949e+00	 1.3810696317e+00
 1.4539062324e+00	 1.4825231104e+00	 1.3728874273e+00
 1.4393906647e+00	 1.4966203769e+00	 1.3699600488e+00
 1.4247397726e+00	 1.5105742327e+00	 1.3759661661e+00
 1.4099556744e+00	 1.5243827581e+00	 1.3968222578e+00
 1.3950405252e+00	 1.5380440755e+00	 1.4388173164e+00
 1.5445804237e+00	 1.4009691398e+00	 1.2084621829e+00
 1.5308610487e+00	 1.4159476751e+00	 1.0796366614e+00
 1.5169938401e+00	 1.4307946025e+00	 9.6707010617e-01
 1.5029806835e+00	 1.4455077577e+00	 8.8671779236e-01
 1.4888235068e+00	 1.4600850133e+00	 8.5227659351e-01
 1.4745242798e+00	 1.4745242798e+00	 8.6727852845e-01
 1.4600850133e+00	 1.4888235068e+00	 8.8873963162e-01
 1.4455077577e+00	 1.5029806835e+00	 9.0826893810e-01
 1.4307946025e+00	 1.5169938401e+00	 9.2899395637e-01
 1.4159476751e+00	 1.5308610487e+00	 9.5518812672e-01
 1.4009691398e+00	 1.5445804237e+00	 9.9164560833e-01
 1.5511167719e+00	 1.4068977544e+00	 7.8897508236e-01
 1.5373393393e+00	 1.4219396759e+00	 6.7543628167e-01
 1.5234134475e+00	 1.4368494324e+00	 5.7906251850e-01
 1.5093409901e+00	 1.4516248506e+00	 5.1377159035e-01
 1.4951239031e+00	 1.4662637942e+00	 4.9129698288e-01
 1.4807641648e+00	 1.4807641648e+00	 5.2101500462e-01
 1.4662637942e+00	 1.4951239031e+00	 5.7053207055e-01
 1.4516248506e+00	 1.5093409901e+00	 6.0946537887e-01
 1.4368494324e+00	 1.5234134475e+00	 6.4005302471e-01
 1.4219396759e+00	 1.5373393393e+00	 6.6536842103e-01
 1.4068977544e+00	 1.5511167719e+00	 6.8914926405e-01
 1.5576531201e+00	 1.4128263691e+00	 4.9835567522e-01
 1.5438176299e+00	 1.4279316766e+00	 4.1799517788e-01
 1.5298330550e+00	 1.4429042623e+00	 3.5135001708e-01
 1.5157012967e+00	 1.4577419436e+00	 3.1074561641e-01
 1.5014242995e+00	 1.4724425751e+00	 3.0639520434e-01
 1.4870040497e+00	 1.4870040497e+00	 3.4602726849e-01
 1.4724425751e+00	 1.5014242995e+00	 4.1898099021e-01
 1.4577419436e+00	 1.5157012967e+00	 4.7580935106e-01
 1.4429042623e+00	 1.5298330550e+00	 5.1289803552e-01
 1.4279316766e+00	 1.5438176299e+00	 5.3255891920e-01
 1.4128263691e+00	 1.5576531201e+00	 5.3790711091e-01
 1.5641894683e+00	 1.4187549837e+00	 3.2741198263e-01
 1.5502959205e+00	 1.4339236773e+00	 2.9986117834e-01
 1.5362526624e+00	 1.4489590922e+00	 2.7820458891e-01
 1.5220616033e+00	 1.4638590365e+00	 2.7361559368e-01
 1.5077246958e+00	 1.4786213560e+00	 2.9522552133e-01
 1.4932439346e+00	 1.4932439346e+00	 3.4873741518e-01
 1.4786213560e+00	 1.5077246958e+00	 4.3482385642e-01
 1.4638590365e+00	 1.5220616033e+00	 5.0955456899e-01
 1.4489590922e+00	 1.5362526624e+00	 5.5125084516e-01
 1.4339236773e+00	 1.5502959205e+00	 5.6189707749e-01
 1.4187549837e+00	 1.5641894683e+00	 5.4441525226e-01
 1.5707258165e+00	 1.4246835984e+00	 2.6708881232e-01
 1.5567742111e+00	 1.4399156781e+00	 3.1368930159e-01
 1.5426722698e+00	 1.4550139221e+00	 3.5397624388e-01
 1.5284219099e+00	 1.4699761295e+00	 3.9840661617e-01
 1.5140250921e+00	 1.4848001369e+00	 4.5536607615e-01
 1.4994838196e+00	 1.4994838196e+00	 5.2847980905e-01
 1.4848001369e+00	 1.5140250921e+00	 6.2061334850e-01
 1.4699761295e+00	 1.5284219099e+00	 7.1294667234e-01
 1.4550139221e+00	 1.5426722698e+00	 7.5879920748e-01
 1.4399156781e+00	 1.5567742111e+00	 7.5846123333e-01
 1.4246835984e+00	 1.5707258165e+00	 7.1508675043e-01
 1.5772621647e+00	 1.4306122130e+00	 3.0846275692e-01
 1.5632525017e+00	 1.4459076788e+00	 4.5223733357e-01
 1.5490918772e+00	 1.4610687520e+00	 5.7308916534e-01
 1.5347822165e+00	 1.4760932225e+00	 6.8118986570e-01
 1.5203254885e+00	 1.4909789179e+00	 7.8398066265e-01
 1.5057237045e+00	 1.5057237045e+00	 8.8445965237e-01
 1.4909789179e+00	 1.5203254885e+00	 9.8643954021e-01
 1.4760932225e+00	 1.5347822165e+00	 1.0882214039e+00
 1.4610687520e+00	 1.5490918772e+00	 1.1391954531e+00
 1.4459076788e+00	 1.5632525017e+00	 1.1272697699e+00
 1.4306122130e+00	 1.5772621647e+00	 1.0562512586e+00
 1.5837985129e+00	 1.4365408276e+00	 4.4273727816e-01
 1.5697307923e+00	 1.4518996795e+00	 7.0836147592e-01
 1.5555114847e+00	 1.4671235819e+00	 9.3003791714e-01
 1.5411425232e+00	 1.4822103154e+00	 1.1180749115e+00
 1.5266258848e+00	 1.4971576988e+00	 1.2786306377e+00
 1.5119635895e+00	 1.5119635895e+00	 1.4158344435e+00
 1.4971576988e+00	 1.5266258848e+00	 1.5342945441e+00
 1.4822103154e+00	 1.5411425232e+00	 1.6376870964e+00
 1.4671235819e+00	 1.5555114847e+00	 1.6960551433e+00
 1.4518996795e+00	 1.5697307923e+00	 1.6732802427e+00
 1.4365408276e+00	 1.5837985129e+00	 1.5741546033e+00
 1.5903348611e+00	 1.4424694423e+00	 6.6123787454e-01
 1.5762090829e+00	 1.4578916803e+00	 1.0750120632e+00
 1.5619310921e+00	 1.4731784118e+00	 1.4193837055e+00
 1.5475028298e+00	 1.4883274084e+00	 1.7048101747e+00
 1.5329262812e+00	 1.5033364797e+00	 1.9369277640e+00
 1.5182034744e+00	 1.5182034744e+00	 2.1217156411e+00
 1.5033364797e+00	 1.5329262812e+00	 2.2647542027e+00
 1.4883274084e+00	 1.5475028298e+00	 2.3707882494e+00
 1.4731784118e+00	 1.5619310921e+00	 2.4329556990e+00
 1.4578916803e+00	 1.5762090829e+00	 2.4013884700e+00
 1.4424694423e+00	 1.5903348611e+00	 2.2749583184e+00
 1.3831832959e+00	 1.5249713791e+00	 2.7404594276e+00
 1.3682646113e+00	 1.5383710673e+00	 2.7744143212e+00
 1.3532203499e+00	 1.5516211303e+00	 2.7767061444e+00
 1.3380527767e+00	 1.5647198132e+00	 2.7482034959e+00
 1.3227641886e+00	 1.5776654063e+00	 2.6911428515e+00
 1.3073569135e+00	 1.5904562459e+00	 2.6089929352e+00
 1.2918333090e+00	 1.6030907154e+00	 2.5063218112e+00
 1.2761957614e+00	 1.6155672454e+00	 2.3886673912e+00
 1.2604466842e+00	 1.6278843150e+00	 2.2624120085e+00
 1.2445885172e+00	 1.6400404515e+00	 2.1346616508e+00
 1.2286237251e+00	 1.6520342318e+00	 2.0131303967e+00
 1.3891119105e+00	 1.5315077273e+00	 2.0240031015e+00
 1.3741292813e+00	 1.5449648494e+00	 2.0700202599e+00
 1.3590205371e+00	 1.5582717050e+00	 2.0923852368e+00
 1.3437879525e+00	 1.5714265316e+00	 2.0907793181e+00
 1.3284338343e+00	 1.5844276121e+00	 2.0663735953e+00
 1.3129605203e+00	 1.5972732760e+00	 2.0216911943e+00
 1.2973703784e+00	 1.6099618995e+00	 1.9604722446e+00
 1.2816658049e+00	 1.6224919066e+00	 1.8875422974e+00
 1.2658492239e+00	 1.6348617697e+00	 1.8086848555e+00
 1.2499230855e+00	 1.6470700099e+00	 1.7305186223e+00
 1.2338898649e+00	 1.6591151981e+00	 1.6603800211e+00
 1.3950405252e+00	 1.5380440755e+00	 1.4388173164e+00
 1.3799939513e+00	 1.5515586315e+00	 1.4863264428e+00
 1.3648207242e+00	 1.5649222796e+00	 1.5177991050e+00
 1.3495231282e+00	 1.5781332499e+00	 1.5321184044e+00
 1.3341034799e+00	 1.5911898180e+00	 1.5297488338e+00
 1.3185641271e+00	 1.6040903061e+00	 1.5125959002e+00
 1.3029074478e+00	 1.6168330836e+00	 1.4838685562e+00
 1.2871358485e+00	 1.6294165677e+00	 1.4479451657e+00
 1.2712517636e+00	 1.6418392244e+00	 1.4102436790e+00
 1.2552576537e+00	 1.6540995684e+00	 1.3770966362e+00
 1.2391560047e+00	 1.6661961644e+00	 1.3556315634e+00
 1.4009691398e+00	 1.5445804237e+00	 9.9164560833e-01
 1.3858586213e+00	 1.5581524135e+00	 1.0313160866e+00
 1.3706209114e+00	 1.5715728543e+00	 1.0618434235e+00
 1.3552583039e+00	 1.5848399683e+00	 1.0816975339e+00
 1.3397731255e+00	 1.5979520239e+00	 1.0909911984e+00
 1.3241677340e+00	 1.6109073362e+00	 1.0913366170e+00
 1.3084445172e+00	 1.6237042677e+00	 1.0857048909e+00
 1.2926058921e+00	 1.6363412289e+00	 1.0782891730e+00
 1.2766543033e+00	 1.6488166791e+00	 1.0743721773e+00
 1.2605922220e+00	 1.6611291269e+00	 1.0801986798e+00
 1.2444221445e+00	 1.6732771307e+00	 1.1028535825e+00
 1.4068977544e+00	 1.5511167719e+00	 6.8914926405e-01
 1.3917232913e+00	 1.5647461956e+00	 7.1286816559e-01
 1.3764210985e+00	 1.5782234289e+00	 7.3329329546e-01
 1.3609934797e+00	 1.5915466866e+00	 7.4886232514e-01
 1.3454427712e+00	 1.6047142298e+00	 7.5968738094e-01
 1.3297713408e+00	 1.6177243663e+00	 7.6740806750e-01
 1.3139815865e+00	 1.6305754518e+00	 7.7504758775e-01
 1.2980759356e+00	 1.6432658900e+00	 7.8687271829e-01
 1.2820568430e+00	 1.6557941338e+00	 8.0825834398e-01
 1.2659267902e+00	 1.6681586853e+00	 8.4555719707e-01
 1.2496882843e+00	 1.6803580971e+00	 9.0597538556e-01
 1.4128263691e+00	 1.5576531201e+00	 5.3790711091e-01
 1.3975879614e+00	 1.5713399777e+00	 5.3875763960e-01
 1.3822212857e+00	 1.5848740035e+00	 5.4080380485e-01
 1.3667286554e+00	 1.5982534050e+00	 5.4282799735e-01
 1.3511124168e+00	 1.6114764357e+00	 5.4528898802e-01
 1.3353749476e+00	 1.6245413965e+00	 5.5017096098e-01
 1.3195186559e+00	 1.6374466359e+00	 5.6083586221e-01
 1.3035459792e+00	 1.6501905512e+00	 5.8187984000e-01
 1.2874593827e+00	 1.6627715885e+00	 6.1899449634e-01
 1.2712613585e+00	 1.6751882438e+00	 6.7883360812e-01
 1.2549544241e+00	 1.6874390634e+00	 7.6888591421e-01
 1.4187549837e+00	 1.5641894683e+00	 5.4441525226e-01
 1.4034526314e+00	 1.5779337598e+00	 5.1665561693e-01
 1.3880214728e+00	 1.5915245782e+00	 4.9291049577e-01
 1.3724638312e+00	 1.6049601233e+00	 4.7268005357e-01
 1.3567820624e+00	 1.6182386416e+00	 4.5711331345e-01
 1.3409785544e+00	 1.6313584266e+00	 4.4885274091e-01
 1.3250557253e+00	 1.6443178200e+00	 4.5188241237e-01
 1.3090160227e+00	 1.6571152123e+00	 4.7138056245e-01
 1.2928619224e+00	 1.6697490431e+00	 5.1357724498e-01
 1.2765959267e+00	 1.6822178022e+00	 5.8561778053e-01
 1.2602205639e+00	 1.6945200297e+00	 6.9543259826e-01
 1.4246835984e+00	 1.5707258165e+00	 7.1508675043e-01
 1.4093173014e+00	 1.5845275419e+00	 6.5412945351e-01
 1.3938216600e+00	 1.5981751528e+00	 5.9802977980e-01
 1.3781990069e+00	 1.6116668417e+00	 5.4737488649e-01
 1.3624517081e+00	 1.6250008475e+00	 5.0434403204e-01
 1.3465821612e+00	 1.6381754567e+00	 4.7254825398e-01
 1.3305927947e+00	 1.6511890041e+00	 4.5687394993e-01
 1.3144860663e+00	 1.6640398735e+00	 4.6333117459e-01
 1.2982644621e+00	 1.6767264978e+00	 4.9890740425e-01
 1.2819304950e+00	 1.6892473607e+00	 5.7142745580e-01
 1.2654867037e+00	 1.7016009960e+00	 6.8942018028e-01
 1.4306122130e+00	 1.5772621647e+00	 1.0562512586e+00
 1.4151819714e+00	 1.5911213239e+00	 9.5864279069e-01
 1.3996218471e+00	 1.6048257275e+00	 8.6445927409e-01
 1.3839341827e+00	 1.6183735600e+00	 7.7574031023e-01
 1.3681213537e+00	 1.6317630533e+00	 6.9603181673e-01
 1.3521857680e+00	 1.6449924868e+00	 6.3022034332e-01
 1.3361298640e+00	 1.6580601882e+00	 5.8437165898e-01
 1.3199561098e+00	 1.6709645346e+00	 5.6557444270e-01
 1.3036670018e+00	 1.6837039525e+00	 5.8178984627e-01
 1.2872650633e+00	 1.6962769191e+00	 6.4170763105e-01
 1.2707528435e+00	 1.7086819623e+00	 7.5460951082e-01
 1.4365408276e+00	 1.5837985129e+00	 1.5741546033e+00
 1.4210466414e+00	 1.5977151060e+00	 1.4375555331e+00
 1.4054220343e+00	 1.6114763021e+00	 1.3003780722e+00
 1.3896693584e+00	 1.6250802784e+00	 1.1664760198e+00
 1.3737909994e+00	 1.6385252592e+00	 1.0410948814e+00
 1.3577893748e+00	 1.6518095169e+00	 9.3070036795e-01
 1.3416669334e+00	 1.6649313724e+00	 8.4281158440e-01
 1.3254261534e+00	 1.6778891957e+00	 7.8583975889e-01
 1.3090695415e+00	 1.6906814072e+00	 7.6893329990e-01
 1.2925996315e+00	 1.7033064776e+00	 8.0182989774e-01
 1.2760189833e+00	 1.7157629287e+00	 8.9471631534e-01
 1.4424694423e+00	 1.5903348611e+00	 2.2749583184e+00
 1.4269113115e+00	 1.6043088881e+00	 2.0981237686e+00
 1.4112222214e+00	 1.6181268767e+00	 1.9138469494e+00
 1.3954045341e+00	 1.6317869967e+00	 1.7281539804e+00
 1.3794606450e+00	 1.6452874651e+00	 1.5483194512e+00
 1.3633929816e+00	 1.6586265470e+00	 1.3826886507e+00
 1.3472040028e+00	 1.6718025565e+00	 1.2405049520e+00
 1.3308961970e+00	 1.6848138569e+00	 1.1317432274e+00
 1.3144720812e+00	 1.6976588619e+00	 1.0669500961e+00
 1.2979341998e+00	 1.7103360360e+00	 1.0570917384e+00
 1.2812851231e+00	 1.7228438950e+00	 1.1134099337e+00
 1.2286237251e+00	 1.6520342318e+00	 2.0131303967e+00
 1.2125575349e+00	 1.6638622866e+00	 1.8962227064e+00
 1.1963897440e+00	 1.6755253515e+00	 1.7757820107e+00
 1.1801228739e+00	 1.6870221614e+00	 1.6502804273e+00
 1.1637594664e+00	 1.6983515019e+00	 1.5183303708e+00
 1.1473020817e+00	 1.7095122102e+00	 1.3786141100e+00
 1.1307532976e+00	 1.7205031752e+00	 1.2298205457e+00
 1.1141157078e+00	 1.7313233376e+00	 1.0705893154e+00
 1.0973919210e+00	 1.7419716905e+00	 9.1464924124e-01
 1.0805845591e+00	 1.7524472793e+00	 7.8501136214e-01
 1.0636962566e+00	 1.7627492020e+00	 6.7241207133e-01
 1.2338898649e+00	 1.6591151981e+00	 1.6603800211e+00
 1.2177548117e+00	 1.6709939504e+00	 1.5950320754e+00
 1.2015177221e+00	 1.6827070057e+00	 1.5249478025e+00
 1.1851811288e+00	 1.6942530933e+00	 1.4485824480e+00
 1.1687475843e+00	 1.7056309938e+00	 1.3643977044e+00
 1.1522196598e+00	 1.7168395392e+00	 1.2707913772e+00
 1.1355999441e+00	 1.7278776138e+00	 1.1660346919e+00
 1.1188910422e+00	 1.7387441537e+00	 1.0482173402e+00
 1.1020955736e+00	 1.7494381477e+00	 9.2140960290e-01
 1.0852161719e+00	 1.7599586370e+00	 8.1222943982e-01
 1.0682554826e+00	 1.7703047160e+00	 7.1458973353e-01
 1.2391560047e+00	 1.6661961644e+00	 1.3556315634e+00
 1.2229520884e+00	 1.6781256143e+00	 1.3398849204e+00
 1.2066457003e+00	 1.6898886599e+00	 1.3177470760e+00
 1.1902393838e+00	 1.7014840253e+00	 1.2876281643e+00
 1.1737357022e+00	 1.7129104857e+00	 1.2478336495e+00
 1.1571372379e+00	 1.7241668683e+00	 1.1964939298e+00
 1.1404465907e+00	 1.7352520524e+00	 1.1315019745e+00
 1.1236663765e+00	 1.7461649698e+00	 1.0504590920e+00
 1.1067992263e+00	 1.7569046049e+00	 9.5196918910e-01
 1.0898477847e+00	 1.7674699948e+00	 8.5914561398e-01
 1.0728147085e+00	 1.7778602299e+00	 7.7232258539e-01
 1.2444221445e+00	 1.6732771307e+00	 1.1028535825e+00
 1.2281493651e+00	 1.6852572781e+00	 1.1328753538e+00
 1.2117736785e+00	 1.6970703141e+00	 1.1546737609e+00
 1.1952976387e+00	 1.7087149572e+00	 1.1665850017e+00
 1.1787238202e+00	 1.7201899775e+00	 1.1667519872e+00
 1.1620548161e+00	 1.7314941973e+00	 1.1530537114e+00
 1.1452932372e+00	 1.7426264911e+00	 1.1230430244e+00
 1.1284417108e+00	 1.7535857859e+00	 1.0738929031e+00
 1.1115028790e+00	 1.7643710621e+00	 1.0023512432e+00
 1.0944793975e+00	 1.7749813526e+00	 9.2207632086e-01
 1.0773739345e+00	 1.7854157439e+00	 8.4246873248e-01
 1.2496882843e+00	 1.6803580971e+00	 9.0597538556e-01
 1.2333466419e+00	 1.6923889420e+00	 9.7609036842e-01
 1.2169016567e+00	 1.7042519683e+00	 1.0362423376e+00
 1.2003558937e+00	 1.7159458892e+00	 1.0846641510e+00
 1.1837119381e+00	 1.7274694694e+00	 1.1193290301e+00
 1.1669723942e+00	 1.7388215263e+00	 1.1378795264e+00
 1.1501398838e+00	 1.7500009297e+00	 1.1375652393e+00
 1.1332170452e+00	 1.7610066021e+00	 1.1151893727e+00
 1.1162065317e+00	 1.7718375193e+00	 1.0670641507e+00
 1.0991110103e+00	 1.7824927103e+00	 9.9744058137e-01
 1.0819331605e+00	 1.7929712579e+00	 9.2197815055e-01
 1.2549544241e+00	 1.6874390634e+00	 7.6888591421e-01
 1.2385439186e+00	 1.6995206058e+00	 8.7160807665e-01
 1.2220296348e+00	 1.7114336225e+00	 9.6298552880e-01
 1.2054141486e+00	 1.7231768211e+00	 1.0411178102e+00
 1.1887000561e+00	 1.7347489613e+00	 1.1038005129e+00
 1.1718899723e+00	 1.7461488554e+00	 1.1484536775e+00
 1.1549865304e+00	 1.7573753683e+00	 1.1720592649e+00
 1.1379923795e+00	 1.7684274182e+00	 1.1711077873e+00
 1.1209101843e+00	 1.7793039765e+00	 1.1415541115e+00
 1.1037426231e+00	 1.7900040681e+00	 1.0817604253e+00
 1.0864923864e+00	 1.8005267719e+00	 1.0078932803e+00
 1.2602205639e+00	 1.6945200297e+00	 6.9543259826e-01
 1.2437411953e+00	 1.7066522697e+00	 8.2149593477e-01
 1.2271576130e+00	 1.7186152767e+00	 9.3545199015e-01
 1.2104724036e+00	 1.7304077531e+00	 1.0352364377e+00
 1.1936881740e+00	 1.7420284532e+00	 1.1184585038e+00
 1.1768075504e+00	 1.7534761844e+00	 1.1823286293e+00
 1.1598331769e+00	 1.7647498069e+00	 1.2235955072e+00
 1.1427677139e+00	 1.7758482343e+00	 1.2384925767e+00
 1.1256138370e+00	 1.7867704336e+00	 1.2226939834e+00
 1.1083742359e+00	 1.7975154259e+00	 1.1716613474e+00
 1.0910516124e+00	 1.8080822859e+00	 1.0973496493e+00
 1.2654867037e+00	 1.7016009960e+00	 6.8942018028e-01
 1.2489384720e+00	 1.7137839336e+00	 8.2780895381e-01
 1.2322855912e+00	 1.7257969309e+00	 9.5420400122e-01
 1.2155306585e+00	 1.7376386850e+00	 1.0663460166e+00
 1.1986762919e+00	 1.7493079451e+00	 1.1616483360e+00
 1.1817251286e+00	 1.7608035134e+00	 1.2371237011e+00
 1.1646798235e+00	 1.7721242455e+00	 1.2893206770e+00
 1.1475430482e+00	 1.7832690504e+00	 1.3142698029e+00
 1.1303174897e+00	 1.7942368908e+00	 1.3074394780e+00
 1.1130058486e+00	 1.8050267837e+00	 1.2637015186e+00
 1.0956108384e+00	 1.8156377998e+00	 1.1875765194e+00
 1.2707528435e+00	 1.7086819623e+00	 7.5460951082e-01
 1.2541357488e+00	 1.7209155974e+00	 8.9258789660e-01
 1.2374135694e+00	 1.7329785851e+00	 1.0198151560e+00
 1.2205889135e+00	 1.7448696170e+00	 1.1338053303e+00
 1.2036644099e+00	 1.7565874370e+00	 1.2317655589e+00
 1.1866427067e+00	 1.7681308425e+00	 1.3105217837e+00
 1.1695264700e+00	 1.7794986842e+00	 1.3664543646e+00
 1.1523183826e+00	 1.7906898665e+00	 1.3954436812e+00
 1.1350211424e+00	 1.8017033480e+00	 1.3928257187e+00
 1.1176374614e+00	 1.8125381414e+00	 1.3533575675e+00
 1.1001700644e+00	 1.8231933138e+00	 1.2758975602e+00
 1.2760189833e+00	 1.7157629287e+00	 8.9471631534e-01
 1.2593330255e+00	 1.7280472613e+00	 1.0178574619e+00
 1.2425415475e+00	 1.7401602394e+00	 1.1328680536e+00
 1.2256471684e+00	 1.7521005489e+00	 1.2370032487e+00
 1.2086525278e+00	 1.7638669289e+00	 1.3272529085e+00
 1.1915602848e+00	 1.7754581715e+00	 1.4002660832e+00
 1.1743731166e+00	 1.7868731228e+00	 1.4522856440e+00
 1.1570937169e+00	 1.7981106826e+00	 1.4790931336e+00
 1.1397247950e+00	 1.8091698052e+00	 1.4759638288e+00
 1.1222690742e+00	 1.8200494992e+00	 1.4376319388e+00
 1.1047292903e+00	 1.8307488278e+00	 1.3597315469e+00
 1.2812851231e+00	 1.7228438950e+00	 1.1134099337e+00
 1.2645303022e+00	 1.7351789251e+00	 1.2056244556e+00
 1.2476695257e+00	 1.7473418936e+00	 1.2939519880e+00
 1.2307054234e+00	 1.7593314809e+00	 1.3753560238e+00
 1.2136406457e+00	 1.7711464208e+00	 1.4465972962e+00
 1.1964778629e+00	 1.7827855005e+00	 1.5041568888e+00
 1.1792197631e+00	 1.7942475614e+00	 1.5441697060e+00
 1.1618690513e+00	 1.8055314987e+00	 1.5623683725e+00
 1.1444284477e+00	 1.8166362624e+00	 1.5540375517e+00
 1.1269006870e+00	 1.8275608570e+00	 1.5139786026e+00
 1.1092885163e+00	 1.8383043418e+00	 1.4365930814e+00
 1.0636962566e+00	 1.7627492020e+00	 6.7241207133e-01
 1.0467296589e+00	 1.7728766099e+00	 5.8369744520e-01
 1.0296874225e+00	 1.7828287087e+00	 5.3023111894e-01
 1.0125722123e+00	 1.7926047575e+00	 5.0897362515e-01
 9.9538670041e-01	 1.8022040683e+00	 5.1705481359e-01
 9.7813356446e-01	 1.8116260061e+00	 5.5182112601e-01
 9.6081548646e-01	 1.8208699886e+00	 6.1087542450e-01
 9.4343515160e-01	 1.8299354863e+00	 6.9210958023e-01
 9.2599524687e-01	 1.8388220224e+00	 7.9373006920e-01
 9.0849845989e-01	 1.8475291724e+00	 9.1427685808e-01
 8.9094747759e-01	 1.8560565644e+00	 1.0526007093e+00
 1.0682554826e+00	 1.7703047160e+00	 7.1458973353e-01
 1.0512161625e+00	 1.7804755321e+00	 6.3392033761e-01
 1.0341008794e+00	 1.7904702876e+00	 5.8171228922e-01
 1.0169123099e+00	 1.8002882387e+00	 5.5618121562e-01
 9.9965313725e-01	 1.8099286942e+00	 5.5572884770e-01
 9.8232605072e-01	 1.8193910164e+00	 5.7898821292e-01
 9.6493374381e-01	 1.8286746205e+00	 6.2486119348e-01
 9.4747891317e-01	 1.8377789748e+00	 6.9254867114e-01
 9.2996425734e-01	 1.8467036004e+00	 7.8157352003e-01
 9.1239247544e-01	 1.8554480712e+00	 8.9177914657e-01
 8.9476626595e-01	 1.8640120133e+00	 1.0232758036e+00
 1.0728147085e+00	 1.7778602299e+00	 7.7232258539e-01
 1.0557026660e+00	 1.7880744542e+00	 6.9616130148e-01
 1.0385143364e+00	 1.7981118666e+00	 6.4267610865e-01
 1.0212524074e+00	 1.8079717198e+00	 6.1111164659e-01
 1.0039195741e+00	 1.8176533200e+00	 6.0091541395e-01
 9.8651853699e-01	 1.8271560266e+00	 6.1178117315e-01
 9.6905200115e-01	 1.8364792524e+00	 6.4368452488e-01
 9.5152267474e-01	 1.8456224633e+00	 6.9691088706e-01
 9.3393326781e-01	 1.8545851785e+00	 7.7207060664e-01
 9.1628649100e-01	 1.8633669700e+00	 8.7008838652e-01
 8.9858505431e-01	 1.8719674623e+00	 9.9240123115e-01
 1.0773739345e+00	 1.7854157439e+00	 8.4246873248e-01
 1.0601891696e+00	 1.7956733764e+00	 7.6793283370e-01
 1.0429277933e+00	 1.8057534456e+00	 7.1125916542e-01
 1.0255925050e+00	 1.8156552010e+00	 6.7249873546e-01
 1.0081860109e+00	 1.8253779458e+00	 6.5192216128e-01
 9.9071102326e-01	 1.8349210368e+00	 6.5006157717e-01
 9.7317025849e-01	 1.8442838843e+00	 6.6774450722e-01
 9.5556643631e-01	 1.8534659519e+00	 7.0611956271e-01
 9.3790227828e-01	 1.8624667566e+00	 7.6670055217e-01
 9.2018050656e-01	 1.8712858687e+00	 8.5147960133e-01
 9.0240384266e-01	 1.8799229113e+00	 9.6281113054e-01
 1.0819331605e+00	 1.7929712579e+00	 9.2197815055e-01
 1.0646756731e+00	 1.8032722986e+00	 8.4682650583e-01
 1.0473412503e+00	 1.8133950246e+00	 7.8566466635e-01
 1.0299326025e+00	 1.8233386822e+00	 7.3913075390e-01
 1.0124524478e+00	 1.8331025717e+00	 7.0809927320e-01
 9.9490350953e-01	 1.8426860471e+00	 6.9372180790e-01
 9.7728851583e-01	 1.8520885162e+00	 6.9745948791e-01
 9.5961019788e-01	 1.8613094404e+00	 7.2117622973e-01
 9.4187128875e-01	 1.8703483347e+00	 7.6721047155e-01
 9.2407452212e-01	 1.8792047675e+00	 8.3825335551e-01
 9.0622263102e-01	 1.8878783602e+00	 9.3731139674e-01
 1.0864923864e+00	 1.8005267719e+00	 1.0078932803e+00
 1.0691621767e+00	 1.8108712208e+00	 9.3051376941e-01
 1.0517547072e+00	 1.8210366035e+00	 8.6416344177e-01
 1.0342727001e+00	 1.8310221634e+00	 8.0985162288e-01
 1.0167188846e+00	 1.8408271975e+00	 7.6884084444e-01
 9.9909599579e-01	 1.8504510573e+00	 7.4268661183e-01
 9.8140677317e-01	 1.8598931481e+00	 7.3335165949e-01
 9.6365395945e-01	 1.8691529289e+00	 7.4331770939e-01
 9.4584029922e-01	 1.8782299128e+00	 7.7538300032e-01
 9.2796853768e-01	 1.8871236663e+00	 8.3269053531e-01
 9.1004141937e-01	 1.8958338092e+00	 9.1867986096e-01
 1.0910516124e+00	 1.8080822859e+00	 1.0973496493e+00
 1.0736486803e+00	 1.8184701430e+00	 1.0167467821e+00
 1.0561681642e+00	 1.8286781825e+00	 9.4509496570e-01
 1.0386127976e+00	 1.8387056445e+00	 8.8356211743e-01
 1.0209853214e+00	 1.8485518234e+00	 8.3358626207e-01
 1.0032884821e+00	 1.8582160676e+00	 7.9698526007e-01
 9.8552503052e-01	 1.8676977800e+00	 7.7616924604e-01
 9.6769772102e-01	 1.8769964175e+00	 7.7382092098e-01
 9.4980930969e-01	 1.8861114909e+00	 7.9298925669e-01
 9.3186255324e-01	 1.8950425651e+00	 8.3705229366e-01
 9.1386020773e-01	 1.9037892582e+00	 9.0966644564e-01
 1.0956108384e+00	 1.8156377998e+00	 1.1875765194e+00
 1.0781351838e+00	 1.8260690651e+00	 1.1033592545e+00
 1.0605816211e+00	 1.8363197615e+00	 1.0268683909e+00
 1.0429528952e+00	 1.8463891257e+00	 9.5922108089e-01
 1.0252517583e+00	 1.8562764492e+00	 9.0186362164e-01
 1.0074809683e+00	 1.8659810778e+00	 8.5690121636e-01
 9.8964328786e-01	 1.8755024119e+00	 8.2669244752e-01
 9.7174148259e-01	 1.8848399060e+00	 8.1395909109e-01
 9.5377832015e-01	 1.8939930690e+00	 8.2178856150e-01
 9.3575656880e-01	 1.9029614638e+00	 8.5357997545e-01
 9.1767899609e-01	 1.9117447071e+00	 9.1299329488e-01
 1.1001700644e+00	 1.8231933138e+00	 1.2758975602e+00
 1.0826216874e+00	 1.8336679873e+00	 1.1882673158e+00
 1.0649950781e+00	 1.8439613405e+00	 1.1079635980e+00
 1.0472929928e+00	 1.8540726069e+00	 1.0358588528e+00
 1.0295181951e+00	 1.8640010751e+00	 9.7349722253e-01
 1.0116734546e+00	 1.8737460881e+00	 9.2272594098e-01
 9.9376154520e-01	 1.8833070438e+00	 8.8570532319e-01
 9.7578524416e-01	 1.8926833945e+00	 8.6500125708e-01
 9.5774733062e-01	 1.9018746471e+00	 8.6352814351e-01
 9.3965058435e-01	 1.9108803626e+00	 8.8449502360e-01
 9.2149778444e-01	 1.9197001561e+00	 9.3135488133e-01
 1.1047292903e+00	 1.8307488278e+00	 1.3597315469e+00
 1.0871081909e+00	 1.8412669095e+00	 1.2694704001e+00
 1.0694085350e+00	 1.8516029194e+00	 1.1869322594e+00
 1.0516330903e+00	 1.8617560881e+00	 1.1128179332e+00
 1.0337846320e+00	 1.8717257009e+00	 1.0483054585e+00
 1.0158659409e+00	 1.8815110983e+00	 9.9476010190e-01
 9.9787980254e-01	 1.8911116757e+00	 9.5399508594e-01
 9.7982900573e-01	 1.9005268831e+00	 9.2821176074e-01
 9.6171634109e-01	 1.9097562252e+00	 9.1994283045e-01
 9.4354459991e-01	 1.9187992614e+00	 9.3199886653e-01
 9.2531657280e-01	 1.9276556051e+00	 9.6741808989e-01
 1.1092885163e+00	 1.8383043418e+00	 1.4365930814e+00
 1.0915946945e+00	 1.8488658317e+00	 1.3450521499e+00
 1.0738219920e+00	 1.8592444984e+00	 1.2625762151e+00
 1.0559731879e+00	 1.8694395692e+00	 1.1894727237e+00
 1.0380510688e+00	 1.8794503267e+00	 1.1261086299e+00
 1.0200584271e+00	 1.8892761086e+00	 1.0733146568e+00
 1.0019980599e+00	 1.8989163076e+00	 1.0323513915e+00
 9.8387276730e-01	 1.9083703716e+00	 1.0048497325e+00
 9.6568535156e-01	 1.9176378033e+00	 9.9275472635e-01
 9.4743861547e-01	 1.9267181602e+00	 9.9827278754e-01
 9.2913536115e-01	 1.9356110540e+00	 1.0238222792e+00
 8.9094747759e-01	 1.8560565644e+00	 1.0526007093e+00
 8.7334198809e-01	 1.8644052817e+00	 1.1910883196e+00
 8.5568765327e-01	 1.8725735898e+00	 1.3125625026e+00
 8.3798715128e-01	 1.8805612704e+00	 1.4168201986e+00
 8.2024315482e-01	 1.8883681565e+00	 1.5038560862e+00
 8.0245832991e-01	 1.8959941319e+00	 1.5738313851e+00
 7.8463533479e-01	 1.9034391305e+00	 1.6270448853e+00
 7.6677681873e-01	 1.9107031366e+00	 1.6639061337e+00
 7.4888542094e-01	 1.9177861838e+00	 1.6849107077e+00
 7.3096376946e-01	 1.9246883549e+00	 1.6913687374e+00
 7.1301448007e-01	 1.9314097810e+00	 1.6881361594e+00
 8.9476626595e-01	 1.8640120133e+00	 1.0232758036e+00
 8.7708531561e-01	 1.8723965150e+00	 1.1594979462e+00
 8.5935531060e-01	 1.8805998342e+00	 1.2825605438e+00
 8.4157894054e-01	 1.8886217517e+00	 1.3913388598e+00
 8.2375888957e-01	 1.8964620998e+00	 1.4849681237e+00
 8.0589783516e-01	 1.9041207617e+00	 1.5628125348e+00
 7.8799844693e-01	 1.9115976711e+00	 1.6244364416e+00
 7.7006338551e-01	 1.9188928123e+00	 1.6695776285e+00
 7.5209530143e-01	 1.9260062189e+00	 1.6981226335e+00
 7.3409683398e-01	 1.9329379741e+00	 1.7104446522e+00
 7.1607061016e-01	 1.9396882097e+00	 1.7108973118e+00
 8.9858505431e-01	 1.8719674623e+00	 9.9240123115e-01
 8.8082864313e-01	 1.8803877483e+00	 1.1234954387e+00
 8.6302296792e-01	 1.8886260786e+00	 1.2452584105e+00
 8.4517072979e-01	 1.8966822330e+00	 1.3558321483e+00
 8.2727462432e-01	 1.9045560431e+00	 1.4536680642e+00
 8.0933734041e-01	 1.9122473914e+00	 1.5374961351e+00
 7.9136155907e-01	 1.9197562117e+00	 1.6062962031e+00
 7.7334995230e-01	 1.9270824880e+00	 1.6592713494e+00
 7.5530518192e-01	 1.9342262540e+00	 1.6958232618e+00
 7.3722989850e-01	 1.9411875934e+00	 1.7156320199e+00
 7.1912674025e-01	 1.9479666384e+00	 1.7222781942e+00
 9.0240384266e-01	 1.8799229113e+00	 9.6281113054e-01
 8.8457197066e-01	 1.8883789816e+00	 1.0863618355e+00
 8.6669062525e-01	 1.8966523230e+00	 1.2042476977e+00
 8.4876251904e-01	 1.9047427143e+00	 1.3140637653e+00
 8.3079035907e-01	 1.9126499863e+00	 1.4137512659e+00
 8.1277684566e-01	 1.9203740212e+00	 1.5015668631e+00
 7.9472467122e-01	 1.9279147524e+00	 1.5760540488e+00
 7.7663651908e-01	 1.9352721636e+00	 1.6360165927e+00
 7.5851506241e-01	 1.9424462891e+00	 1.6804939667e+00
 7.4036296303e-01	 1.9494372126e+00	 1.7087396720e+00
 7.2218287034e-01	 1.9562450671e+00	 1.7232755570e+00
 9.0622263102e-01	 1.8878783602e+00	 9.3731139674e-01
 8.8831529818e-01	 1.8963702150e+00	 1.0513424730e+00
 8.7035828259e-01	 1.9046785674e+00	 1.1630791451e+00
 8.5235430830e-01	 1.9128031956e+00	 1.2697537387e+00
 8.3430609383e-01	 1.9207439296e+00	 1.3689689587e+00
 8.1621635091e-01	 1.9285006510e+00	 1.4586672019e+00
 7.9808778336e-01	 1.9360732930e+00	 1.5371020116e+00
 7.7992308587e-01	 1.9434618393e+00	 1.6028115937e+00
 7.6172494290e-01	 1.9506663242e+00	 1.6545943034e+00
 7.4349602755e-01	 1.9576868319e+00	 1.6914860113e+00
 7.2523900043e-01	 1.9645234958e+00	 1.7148753306e+00
 9.1004141937e-01	 1.8958338092e+00	 9.1867986096e-01
 8.9205862570e-01	 1.9043614483e+00	 1.0216473571e+00
 8.7402593992e-01	 1.9127048118e+00	 1.1252631524e+00
 8.5594609755e-01	 1.9208636769e+00	 1.2265790327e+00
 8.3782182858e-01	 1.9288378728e+00	 1.3230288995e+00
 8.1965585616e-01	 1.9366272808e+00	 1.4123980914e+00
 8.0145089550e-01	 1.9442318336e+00	 1.4927948752e+00
 7.8320965266e-01	 1.9516515150e+00	 1.5626240166e+00
 7.6493482339e-01	 1.9588863593e+00	 1.6205623397e+00
 7.4662909207e-01	 1.9659364512e+00	 1.6655361746e+00
 7.2829513052e-01	 1.9728019245e+00	 1.6980534871e+00
 9.1386020773e-01	 1.9037892582e+00	 9.0966644564e-01
 8.9580195323e-01	 1.9123526816e+00	 1.0004515054e+00
 8.7769359725e-01	 1.9207310563e+00	 1.0942702615e+00
 8.5953788681e-01	 1.9289241582e+00	 1.1881741240e+00
 8.4133756333e-01	 1.9369318161e+00	 1.2795959931e+00
 8.2309536141e-01	 1.9447539106e+00	 1.3663195464e+00
 8.0481400765e-01	 1.9523903742e+00	 1.4464507376e+00
 7.8649621944e-01	 1.9598411907e+00	 1.5183914156e+00
 7.6814470388e-01	 1.9671063944e+00	 1.5808149636e+00
 7.4976215659e-01	 1.9741860704e+00	 1.6326438547e+00
 7.3135126060e-01	 1.9810803532e+00	 1.6737768915e+00
 9.1767899609e-01	 1.9117447071e+00	 9.1299329488e-01
 8.9954528075e-01	 1.9203439150e+00	 9.9089526069e-01
 8.8136125458e-01	 1.9287573007e+00	 1.0735316083e+00
 8.6312967606e-01	 1.9369846395e+00	 1.1581315442e+00
 8.4485329808e-01	 1.9450257593e+00	 1.2422928797e+00
 8.2653486666e-01	 1.9528805404e+00	 1.3239512397e+00
 8.0817711979e-01	 1.9605489148e+00	 1.4013515446e+00
 7.8978278623e-01	 1.9680308663e+00	 1.4730216684e+00
 7.7135458437e-01	 1.9753264296e+00	 1.5377481677e+00
 7.5289522111e-01	 1.9824356897e+00	 1.5945539718e+00
 7.3440739069e-01	 1.9893587819e+00	 1.6430041419e+00
 9.2149778444e-01	 1.9197001561e+00	 9.3135488133e-01
 9.0328860828e-01	 1.9283351483e+00	 9.9608457675e-01
 8.8502891191e-01	 1.9367835451e+00	 1.0664393428e+00
 8.6672146532e-01	 1.9450451208e+00	 1.1400023902e+00
 8.4836903283e-01	 1.9531197026e+00	 1.2147004890e+00
 8.2997437191e-01	 1.9610071702e+00	 1.2887730553e+00
 8.1154023193e-01	 1.9687074554e+00	 1.3607435926e+00
 7.9306935301e-01	 1.9762205420e+00	 1.4293933818e+00
 7.7456446486e-01	 1.9835464647e+00	 1.4937373104e+00
 7.5602828563e-01	 1.9906853090e+00	 1.5530017230e+00
 7.3746352078e-01	 1.9976372106e+00	 1.6066863997e+00
 9.2531657280e-01	 1.9276556051e+00	 9.6741808989e-01
 9.0703193580e-01	 1.9363263816e+00	 1.0190912777e+00
 8.8869656924e-01	 1.9448097895e+00	 1.0763470206e+00
 8.7031325457e-01	 1.9531056021e+00	 1.1372968038e+00
 8.5188476759e-01	 1.9612136458e+00	 1.2003585629e+00
 8.3341387716e-01	 1.9691337999e+00	 1.2642256086e+00
 8.1490334408e-01	 1.9768659961e+00	 1.3278380023e+00
 7.9635591980e-01	 1.9844102177e+00	 1.3903562727e+00
 7.7777434535e-01	 1.9917664998e+00	 1.4511373556e+00
 7.5916135015e-01	 1.9989349282e+00	 1.5097126336e+00
 7.4051965087e-01	 2.0059156394e+00	 1.5657682091e+00
 9.2913536115e-01	 1.9356110540e+00	 1.0238222792e+00
 9.1077526332e-01	 1.9443176149e+00	 1.0629532909e+00
 8.9236422656e-01	 1.9528360339e+00	 1.1065699653e+00
 8.7390504382e-01	 1.9611660834e+00	 1.1534844201e+00
 8.5540050234e-01	 1.9693075891e+00	 1.2027661482e+00
 8.3685338241e-01	 1.9772604297e+00	 1.2537107384e+00
 8.1826645622e-01	 1.9850245367e+00	 1.3058111643e+00
 7.9964248658e-01	 1.9925998934e+00	 1.3587315216e+00
 7.8098422584e-01	 1.9999865349e+00	 1.4122830905e+00
 7.6229441467e-01	 2.0071845475e+00	 1.4664025929e+00
 7.4357578096e-01	 2.0141940681e+00	 1.5211325109e+00
 7.1301448007e-01	 1.9314097810e+00	 1.6881361594e+00
 6.9504321235e-01	 1.9379495447e+00	 1.6810513801e+00
 6.7704950364e-01	 1.9443090295e+00	 1.6726900515e+00
 6.5903592457e-01	 1.9504885074e+00	 1.6606114923e+00
 6.4100502941e-01	 1.9564882968e+00	 1.6423898221e+00
 6.2295935516e-01	 1.9623087615e+00	 1.6156219896e+00
 6.0490142056e-01	 1.9679503103e+00	 1.5779350641e+00
 5.8683372519e-01	 1.9734133965e+00	 1.5269928617e+00
 5.6875874854e-01	 1.9786985165e+00	 1.4605019772e+00
 5.5067894919e-01	 1.9838062098e+00	 1.3762172853e+00
 5.3259676391e-01	 1.9887370581e+00	 1.2719469705e+00
 7.1607061016e-01	 1.9396882097e+00	 1.7108973118e+00
 6.9802231381e-01	 1.9462560043e+00	 1.7057009152e+00
 6.7995148028e-01	 1.9526427471e+00	 1.6979202779e+00
 6.6186069121e-01	 1.9588487116e+00	 1.6854753396e+00
 6.4375251184e-01	 1.9648742173e+00	 1.6662624009e+00
 6.2562949003e-01	 1.9707196297e+00	 1.6381621255e+00
 6.0749415532e-01	 1.9763853595e+00	 1.5990468675e+00
 5.8934901801e-01	 1.9818718615e+00	 1.5467873965e+00
 5.7119656821e-01	 1.9871796347e+00	 1.4792590941e+00
 5.5303927503e-01	 1.9923092207e+00	 1.3943476828e+00
 5.3487958570e-01	 1.9972612035e+00	 1.2899545493e+00
 7.1912674025e-01	 1.9479666384e+00	 1.7222781942e+00
 7.0100141526e-01	 1.9545624638e+00	 1.7220481553e+00
 6.8285345691e-01	 1.9609764647e+00	 1.7178605538e+00
 6.6468545785e-01	 1.9672089157e+00	 1.7079014032e+00
 6.4649999427e-01	 1.9732601378e+00	 1.6903042796e+00
 6.2829962490e-01	 1.9791304980e+00	 1.6631582262e+00
 6.1008689009e-01	 1.9848204086e+00	 1.6245150333e+00
 5.9186431083e-01	 1.9903303266e+00	 1.5723959708e+00
 5.7363438788e-01	 1.9956607529e+00	 1.5047980447e+00
 5.5539960088e-01	 2.0008122315e+00	 1.4196998437e+00
 5.3716240750e-01	 2.0057853490e+00	 1.3150670332e+00
 7.2218287034e-01	 1.9562450671e+00	 1.7232755570e+00
 7.0398051672e-01	 1.9628689233e+00	 1.7302576902e+00
 6.8575543354e-01	 1.9693101823e+00	 1.7319535778e+00
 6.6751022449e-01	 1.9755691199e+00	 1.7267215755e+00
 6.4924747670e-01	 1.9816460583e+00	 1.7128483586e+00
 6.3096975978e-01	 1.9875413662e+00	 1.6885566565e+00
 6.1267962486e-01	 1.9932554577e+00	 1.6520124042e+00
 5.9437960365e-01	 1.9987887916e+00	 1.6013313884e+00
 5.7607220754e-01	 2.0041418710e+00	 1.5345854635e+00
 5.5775992672e-01	 2.0093152423e+00	 1.4498084018e+00
 5.3944522929e-01	 2.0143094945e+00	 1.3450014404e+00
 7.2523900043e-01	 1.9645234958e+00	 1.7148753306e+00
 7.0695961817e-01	 1.9711753828e+00	 1.7304963723e+00
 6.8865741017e-01	 1.9776438999e+00	 1.7396555488e+00
 6.7033499113e-01	 1.9839293240e+00	 1.7407906326e+00
 6.5199495913e-01	 1.9900319788e+00	 1.7322579432e+00
 6.3363989465e-01	 1.9959522344e+00	 1.7123398399e+00
 6.1527235962e-01	 2.0016905068e+00	 1.6792516617e+00
 5.9689489647e-01	 2.0072472567e+00	 1.6311481960e+00
 5.7851002721e-01	 2.0126229892e+00	 1.5661297510e+00
 5.6012025256e-01	 2.0178182531e+00	 1.4822478999e+00
 5.4172805108e-01	 2.0228336400e+00	 1.3775109588e+00
 7.2829513052e-01	 1.9728019245e+00	 1.6980534871e+00
 7.0993871962e-01	 1.9794818423e+00	 1.7229338643e+00
 6.9155938681e-01	 1.9859776175e+00	 1.7404364382e+00
 6.7315975777e-01	 1.9922895281e+00	 1.7489862713e+00
 6.5474244156e-01	 1.9984178993e+00	 1.7469265864e+00
 6.3631002952e-01	 2.0043631027e+00	 1.7325259457e+00
 6.1786509439e-01	 2.0101255559e+00	 1.7039848986e+00
 5.9941018929e-01	 2.0157057217e+00	 1.6594421795e+00
 5.8094784688e-01	 2.0211041074e+00	 1.5969805363e+00
 5.6248057841e-01	 2.0263212640e+00	 1.5146322571e+00
 5.4401087287e-01	 2.0313577855e+00	 1.4103844606e+00
 7.3135126060e-01	 1.9810803532e+00	 1.6737768915e+00
 7.1291782108e-01	 1.9877883018e+00	 1.7077431837e+00
 6.9446136344e-01	 1.9943113351e+00	 1.7337802671e+00
 6.7598452442e-01	 2.0006497323e+00	 1.7502091565e+00
 6.5748992399e-01	 2.0068038198e+00	 1.7552779436e+00
 6.3898016440e-01	 2.0127739709e+00	 1.7471685919e+00
 6.2045782915e-01	 2.0185606050e+00	 1.7240032082e+00
 6.0192548211e-01	 2.0241641867e+00	 1.6838498804e+00
 5.8338566655e-01	 2.0295852256e+00	 1.6247281590e+00
 5.6484090425e-01	 2.0348242748e+00	 1.5446142575e+00
 5.4629369467e-01	 2.0398819309e+00	 1.4414460351e+00
 7.3440739069e-01	 1.9893587819e+00	 1.6430041419e+00
 7.1589692253e-01	 1.9960947613e+00	 1.6851012438e+00
 6.9736334007e-01	 2.0026450527e+00	 1.7191853841e+00
 6.7880929106e-01	 2.0090099364e+00	 1.7433829742e+00
 6.6023740642e-01	 2.0151897403e+00	 1.7557656408e+00
 6.4165029927e-01	 2.0211848391e+00	 1.7543565639e+00
 6.2305056392e-01	 2.0269956541e+00	 1.7371362934e+00
 6.0444077494e-01	 2.0326226518e+00	 1.7020481321e+00
 5.8582348622e-01	 2.0380663437e+00	 1.6470031720e+00
 5.6720123010e-01	 2.0433272856e+00	 1.5698850566e+00
 5.4857651646e-01	 2.0484060764e+00	 1.4685545395e+00
 7.3746352078e-01	 1.9976372106e+00	 1.6066863997e+00
 7.1887602399e-01	 2.0044012208e+00	 1.6551893908e+00
 7.0026531671e-01	 2.0109787703e+00	 1.6961647474e+00
 6.8163405770e-01	 2.0173701406e+00	 1.7274544947e+00
 6.6298488885e-01	 2.0235756608e+00	 1.7468731532e+00
 6.4432043415e-01	 2.0295957074e+00	 1.7522135490e+00
 6.2564329869e-01	 2.0354307032e+00	 1.7412520920e+00
 6.0695606776e-01	 2.0410811168e+00	 1.7117536150e+00
 5.8826130589e-01	 2.0465474619e+00	 1.6614758626e+00
 5.6956155594e-01	 2.0518302965e+00	 1.5881737077e+00
 5.5085933825e-01	 2.0569302219e+00	 1.4896031664e+00
 7.4051965087e-01	 2.0059156394e+00	 1.5657682091e+00
 7.2185512544e-01	 2.0127076804e+00	 1.6181939387e+00
 7.0316729334e-01	 2.0193124879e+00	 1.6642462087e+00
 6.8445882434e-01	 2.0257303447e+00	 1.7013936416e+00
 6.6573237129e-01	 2.0319615813e+00	 1.7271136973e+00
 6.4699056902e-01	 2.0380065756e+00	 1.7388978847e+00
 6.2823603346e-01	 2.0438657523e+00	 1.7342564197e+00
 6.0947136058e-01	 2.0495395819e+00	 1.7107224293e+00
 5.9069912556e-01	 2.0550285801e+00	 1.6658557936e+00
 5.7192188179e-01	 2.0603333073e+00	 1.5972467060e+00
 5.5314216005e-01	 2.0654543674e+00	 1.5025190290e+00
 7.4357578096e-01	 2.0141940681e+00	 1.5211325109e+00
 7.2483422690e-01	 2.0210141399e+00	 1.5743067000e+00
 7.0606926997e-01	 2.0276462055e+00	 1.6229727998e+00
 6.8728359099e-01	 2.0340905489e+00	 1.6641935687e+00
 6.6847985372e-01	 2.0403475018e+00	 1.6950301326e+00
 6.4966070390e-01	 2.0464174439e+00	 1.7126023221e+00
 6.3082876822e-01	 2.0523008014e+00	 1.7140926293e+00
 6.1198665341e-01	 2.0579980469e+00	 1.6967496868e+00
 5.9313694523e-01	 2.0635096983e+00	 1.6578913610e+00
 5.7428220763e-01	 2.0688363181e+00	 1.5949075502e+00
 5.5542498184e-01	 2.0739785129e+00	 1.5052627617e+00
 5.3259676391e-01	 1.9887370581e+00	 1.2719469705e+00
 5.1451460713e-01	 1.9934916845e+00	 1.1655213150e+00
 4.9643487084e-01	 1.9980707547e+00	 1.0775594483e+00
 4.7835992304e-01	 2.0024749745e+00	 1.0100720879e+00
 4.6029210677e-01	 2.0067050887e+00	 9.6503883084e-01
 4.4223373939e-01	 2.0107618803e+00	 9.4440839658e-01
 4.2418711190e-01	 2.0146461694e+00	 9.5009881729e-01
 4.0615448827e-01	 2.0183588128e+00	 9.8399759324e-01
 3.8813810481e-01	 2.0219007028e+00	 1.0479618281e+00
 3.7014016961e-01	 2.0252727667e+00	 1.1438178784e+00
 3.5216286193e-01	 2.0284759653e+00	 1.2708409026e+00
 5.3487958570e-01	 1.9972612035e+00	 1.2899545493e+00
 5.1671992500e-01	 2.0020362093e+00	 1.1838107112e+00
 4.9856269515e-01	 2.0066349064e+00	 1.0963254827e+00
 4.8041027432e-01	 2.0110580036e+00	 1.0294123735e+00
 4.6226501559e-01	 2.0153062490e+00	 9.8495827347e-01
 4.4412924625e-01	 2.0193804288e+00	 9.6482360529e-01
 4.2600526711e-01	 2.0232813668e+00	 9.7084244404e-01
 4.0789535186e-01	 2.0270099233e+00	 1.0048226245e+00
 3.8980174639e-01	 2.0305669947e+00	 1.0685458487e+00
 3.7172666826e-01	 2.0339535119e+00	 1.1637678032e+00
 3.5367230605e-01	 2.0371704401e+00	 1.2902335608e+00
 5.3716240750e-01	 2.0057853490e+00	 1.3150670332e+00
 5.1892524286e-01	 2.0105807341e+00	 1.2087466819e+00
 5.0069051946e-01	 2.0151990580e+00	 1.1211765715e+00
 4.8246062560e-01	 2.0196410327e+00	 1.0541848565e+00
 4.6423792440e-01	 2.0239074092e+00	 1.0095770443e+00
 4.4602475310e-01	 2.0279989773e+00	 9.8913605083e-01
 4.2782342233e-01	 2.0319165642e+00	 9.9462224541e-01
 4.0963621545e-01	 2.0356610339e+00	 1.0277735072e+00
 3.9146538798e-01	 2.0392332865e+00	 1.0903053045e+00
 3.7331316691e-01	 2.0426342571e+00	 1.1839108056e+00
 3.5518175017e-01	 2.0458649149e+00	 1.3087356789e+00
 5.3944522929e-01	 2.0143094945e+00	 1.3450014404e+00
 5.2113056072e-01	 2.0191252589e+00	 1.2382844238e+00
 5.0281834376e-01	 2.0237632097e+00	 1.1503031930e+00
 4.8451097688e-01	 2.0282240618e+00	 1.0828123986e+00
 4.6621083322e-01	 2.0325085695e+00	 1.0375474854e+00
 4.4792025996e-01	 2.0366175258e+00	 1.0162246435e+00
 4.2964157754e-01	 2.0405517615e+00	 1.0205407750e+00
 4.1137707905e-01	 2.0443121444e+00	 1.0521734961e+00
 3.9312902956e-01	 2.0478995784e+00	 1.1127811875e+00
 3.7489966555e-01	 2.0513150023e+00	 1.2040030996e+00
 3.5669119430e-01	 2.0545593897e+00	 1.3263191593e+00
 5.4172805108e-01	 2.0228336400e+00	 1.3775109588e+00
 5.2333587859e-01	 2.0276697837e+00	 1.2704106738e+00
 5.0494616807e-01	 2.0323273614e+00	 1.1819228369e+00
 4.8656132815e-01	 2.0368070908e+00	 1.1137404484e+00
 4.6818374204e-01	 2.0411097297e+00	 1.0675402072e+00
 4.4981576681e-01	 2.0452360743e+00	 1.0449823523e+00
 4.3145973275e-01	 2.0491869589e+00	 1.0477105457e+00
 4.1311794264e-01	 2.0529632550e+00	 1.0773518179e+00
 3.9479267114e-01	 2.0565658702e+00	 1.1355165884e+00
 3.7648616420e-01	 2.0599957475e+00	 1.2237987661e+00
 3.5820063842e-01	 2.0632538645e+00	 1.3429513719e+00
 5.4401087287e-01	 2.0313577855e+00	 1.4103844606e+00
 5.2554119645e-01	 2.0362143085e+00	 1.3031432893e+00
 5.0707399238e-01	 2.0408915130e+00	 1.2142796509e+00
 4.8861167943e-01	 2.0453901199e+00	 1.1454367524e+00
 4.7015665086e-01	 2.0497108899e+00	 1.0982438640e+00
 4.5171127367e-01	 2.0538546228e+00	 1.0743160433e+00
 4.3327788796e-01	 2.0578221563e+00	 1.0752539304e+00
 4.1485880623e-01	 2.0616143656e+00	 1.1026436338e+00
 3.9645631273e-01	 2.0652321620e+00	 1.1580567196e+00
 3.7807266284e-01	 2.0686764927e+00	 1.2430503085e+00
 3.5971008254e-01	 2.0719483393e+00	 1.3585951826e+00
 5.4629369467e-01	 2.0398819309e+00	 1.4414460351e+00
 5.2774651431e-01	 2.0447588333e+00	 1.3345308463e+00
 5.0920181669e-01	 2.0494556647e+00	 1.2456441016e+00
 4.9066203071e-01	 2.0539731490e+00	 1.1763910791e+00
 4.7212955967e-01	 2.0583120502e+00	 1.1283649393e+00
 4.5360678052e-01	 2.0624731713e+00	 1.1031463261e+00
 4.3509604318e-01	 2.0664573537e+00	 1.1023030686e+00
 4.1659966983e-01	 2.0702654761e+00	 1.1273900050e+00
 3.9811995431e-01	 2.0738984539e+00	 1.1799489392e+00
 3.7965916149e-01	 2.0773572379e+00	 1.2615087357e+00
 3.6121952667e-01	 2.0806428141e+00	 1.3732089806e+00
 5.4857651646e-01	 2.0484060764e+00	 1.4685545395e+00
 5.2995183218e-01	 2.0533033581e+00	 1.3626522516e+00
 5.1132964100e-01	 2.0580198164e+00	 1.2743126490e+00
 4.9271238200e-01	 2.0625561781e+00	 1.2051149540e+00
 4.7410246849e-01	 2.0669132104e+00	 1.1566275414e+00
 4.5550228738e-01	 2.0710917198e+00	 1.1304074086e+00
 4.3691419839e-01	 2.0750925511e+00	 1.1279997796e+00
 4.1834053342e-01	 2.0789165867e+00	 1.1509378638e+00
 3.9978359589e-01	 2.0825647457e+00	 1.2007427790e+00
 3.8124566014e-01	 2.0860379832e+00	 1.2789236451e+00
 3.6272897079e-01	 2.0893372889e+00	 1.3867467053e+00
 5.5085933825e-01	 2.0569302219e+00	 1.4896031664e+00
 5.3215715004e-01	 2.0618478829e+00	 1.3856163719e+00
 5.1345746531e-01	 2.0665839680e+00	 1.2986074348e+00
 4.9476273328e-01	 2.0711392072e+00	 1.2301414069e+00
 4.7607537731e-01	 2.0755143707e+00	 1.1817732084e+00
 4.5739779424e-01	 2.0797102683e+00	 1.1550469593e+00
 4.3873235360e-01	 2.0837277484e+00	 1.1514954814e+00
 4.2008139701e-01	 2.0875676972e+00	 1.1726399883e+00
 4.0144723748e-01	 2.0912310376e+00	 1.2199899745e+00
 3.8283215878e-01	 2.0947187284e+00	 1.2950433074e+00
 3.6423841491e-01	 2.0980317637e+00	 1.3991578724e+00
 5.5314216005e-01	 2.0654543674e+00	 1.5025190290e+00
 5.3436246791e-01	 2.0703924078e+00	 1.4015616766e+00
 5.1558528963e-01	 2.0751481197e+00	 1.3168759830e+00
 4.9681308456e-01	 2.0797222362e+00	 1.2500247299e+00
 4.7804828613e-01	 2.0841155309e+00	 1.2025607227e+00
 4.5929330109e-01	 2.0883288168e+00	 1.1760259777e+00
 4.4055050882e-01	 2.0923629458e+00	 1.1719511160e+00
 4.2182226061e-01	 2.0962188078e+00	 1.1918549819e+00
 4.0311087906e-01	 2.0998973294e+00	 1.2372444970e+00
 3.8441865743e-01	 2.1033994736e+00	 1.3096147518e+00
 3.6574785904e-01	 2.1067262385e+00	 1.4103875993e+00
 5.5542498184e-01	 2.0739785129e+00	 1.5052627617e+00
 5.3656778577e-01	 2.0789369326e+00	 1.4086558956e+00
 5.1771311394e-01	 2.0837122714e+00	 1.3274909145e+00
 4.9886343584e-01	 2.0883052653e+00	 1.2633402466e+00
 4.8002119495e-01	 2.0927166911e+00	 1.2177659349e+00
 4.6118880795e-01	 2.0969473653e+00	 1.1923186719e+00
 4.4236866403e-01	 2.1009981432e+00	 1.1885370801e+00
 4.2356312421e-01	 2.1048699183e+00	 1.2079472565e+00
 4.0477452065e-01	 2.1085636212e+00	 1.2520625895e+00
 3.8600515608e-01	 2.1120802188e+00	 1.3223838516e+00
 3.6725730316e-01	 2.1154207133e+00	 1.4203766295e+00
 3.5216286193e-01	 2.0284759653e+00	 1.2708409026e+00
 3.3420528204e-01	 2.0315117943e+00	 1.4040944484e+00
 3.1627261310e-01	 2.0343807202e+00	 1.5196085423e+00
 2.9836695041e-01	 2.0370837996e+00	 1.6164630361e+00
 2.8049035836e-01	 2.0396221193e+00	 1.6936892142e+00
 2.6264486992e-01	 2.0419967957e+00	 1.7502787672e+00
 2.4483248629e-01	 2.0442089737e+00	 1.7851916543e+00
 2.2705517649e-01	 2.0462598259e+00	 1.7973629598e+00
 2.0931487706e-01	 2.0481505519e+00	 1.7857088486e+00
 1.9161349164e-01	 2.0498823769e+00	 1.7491317237e+00
 1.7395289077e-01	 2.0514565511e+00	 1.6865246845e+00
 3.5367230605e-01	 2.0371704401e+00	 1.2902335608e+00
 3.3563775620e-01	 2.0402192813e+00	 1.4226463331e+00
 3.1762822406e-01	 2.0431005041e+00	 1.5368774597e+00
 2.9964581394e-01	 2.0458151694e+00	 1.6319964179e+00
 2.8169259905e-01	 2.0483643689e+00	 1.7070427904e+00
 2.6377062109e-01	 2.0507492236e+00	 1.7610345573e+00
 2.4588188984e-01	 2.0529708834e+00	 1.7929752468e+00
 2.2802838276e-01	 2.0550305261e+00	 1.8018600573e+00
 2.1021204466e-01	 2.0569293561e+00	 1.7866810587e+00
 1.9243478738e-01	 2.0586686040e+00	 1.7464315808e+00
 1.7469848946e-01	 2.0602495255e+00	 1.6801098924e+00
 3.5518175017e-01	 2.0458649149e+00	 1.3087356789e+00
 3.3707023036e-01	 2.0489267683e+00	 1.4393387879e+00
 3.1898383503e-01	 2.0518202879e+00	 1.5515017775e+00
 3.0092467747e-01	 2.0545465392e+00	 1.6442957134e+00
 2.8289483975e-01	 2.0571066184e+00	 1.7167778490e+00
 2.6489637227e-01	 2.0595016515e+00	 1.7679992670e+00
 2.4693129339e-01	 2.0617327932e+00	 1.7970113536e+00
 2.2900158902e-01	 2.0638012263e+00	 1.8028712218e+00
 2.1110921227e-01	 2.0657081603e+00	 1.7846461972e+00
 1.9325608313e-01	 2.0674548312e+00	 1.7414174781e+00
 1.7544408815e-01	 2.0690424999e+00	 1.6722830761e+00
 3.5669119430e-01	 2.0545593897e+00	 1.3263191593e+00
 3.3850270451e-01	 2.0576342553e+00	 1.4543309771e+00
 3.2033944599e-01	 2.0605400717e+00	 1.5637908827e+00
 3.0220354100e-01	 2.0632779090e+00	 1.6537835690e+00
 2.8409708044e-01	 2.0658488680e+00	 1.7233934338e+00
 2.6602212344e-01	 2.0682540794e+00	 1.7717116021e+00
 2.4798069694e-01	 2.0704947030e+00	 1.7978417577e+00
 2.2997479528e-01	 2.0725719264e+00	 1.8009049033e+00
 2.1200637987e-01	 2.0744869645e+00	 1.7800431679e+00
 1.9407737887e-01	 2.0762410584e+00	 1.7344227776e+00
 1.7618968684e-01	 2.0778354743e+00	 1.6632363008e+00
 3.5820063842e-01	 2.0632538645e+00	 1.3429513719e+00
 3.3993517867e-01	 2.0663417423e+00	 1.4677747613e+00
 3.2169505696e-01	 2.0692598555e+00	 1.5740446847e+00
 3.0348240453e-01	 2.0720092788e+00	 1.6608715775e+00
 2.8529932113e-01	 2.0745911176e+00	 1.7273765579e+00
 2.6714787462e-01	 2.0770065074e+00	 1.7726978606e+00
 2.4903010049e-01	 2.0792566128e+00	 1.7959960575e+00
 2.3094800154e-01	 2.0813426266e+00	 1.7964581900e+00
 2.1290354748e-01	 2.0832657688e+00	 1.7733009345e+00
 1.9489867461e-01	 2.0850272856e+00	 1.7257729226e+00
 1.7693528553e-01	 2.0866284488e+00	 1.6531563304e+00
 3.5971008254e-01	 2.0719483393e+00	 1.3585951826e+00
 3.4136765283e-01	 2.0750492293e+00	 1.4798147896e+00
 3.2305066793e-01	 2.0779796393e+00	 1.5825537575e+00
 3.0476126806e-01	 2.0807406486e+00	 1.6659604584e+00
 2.8650156183e-01	 2.0833333671e+00	 1.7292024098e+00
 2.6827362580e-01	 2.0857589353e+00	 1.7714721508e+00
 2.5007950404e-01	 2.0880185226e+00	 1.7919918836e+00
 2.3192120780e-01	 2.0901133268e+00	 1.7900170111e+00
 2.1380071508e-01	 2.0920445730e+00	 1.7648386972e+00
 1.9571997035e-01	 2.0938135128e+00	 1.7157855734e+00
 1.7768088423e-01	 2.0954214232e+00	 1.6422247125e+00
 3.6121952667e-01	 2.0806428141e+00	 1.3732089806e+00
 3.4280012699e-01	 2.0837567163e+00	 1.4905885893e+00
 3.2440627889e-01	 2.0866994232e+00	 1.5895994803e+00
 3.0604013158e-01	 2.0894720184e+00	 1.6694402348e+00
 2.8770380252e-01	 2.0920756167e+00	 1.7293345537e+00
 2.6939937697e-01	 2.0945113632e+00	 1.7685366033e+00
 2.5112890760e-01	 2.0967804324e+00	 1.7863351095e+00
 2.3289441406e-01	 2.0988840269e+00	 1.7820563342e+00
 2.1469788269e-01	 2.1008233772e+00	 1.7550660640e+00
 1.9654126610e-01	 2.1025997400e+00	 1.7047707412e+00
 1.7842648292e-01	 2.1042143976e+00	 1.6306178598e+00
 3.6272897079e-01	 2.0893372889e+00	 1.3867467053e+00
 3.4423260114e-01	 2.0924642033e+00	 1.5002266539e+00
 3.2576188986e-01	 2.0954192070e+00	 1.5954541727e+00
 3.0731899511e-01	 2.0982033881e+00	 1.6716904056e+00
 2.8890604321e-01	 2.1008178662e+00	 1.7282251255e+00
 2.7052512815e-01	 2.1032637911e+00	 1.7643815781e+00
 2.5217831115e-01	 2.1055423421e+00	 1.7795200586e+00
 2.3386762033e-01	 2.1076547271e+00	 1.7730403586e+00
 2.1559505030e-01	 2.1096021814e+00	 1.7443832183e+00
 1.9736256184e-01	 2.1113859671e+00	 1.6930309171e+00
 1.7917208161e-01	 2.1130073720e+00	 1.6185071306e+00
 3.6423841491e-01	 2.0980317637e+00	 1.3991578724e+00
 3.4566507530e-01	 2.1011716903e+00	 1.5088525283e+00
 3.2711750082e-01	 2.1041389908e+00	 1.6003812276e+00
 3.0859785864e-01	 2.1069347579e+00	 1.6730801129e+00
 2.9010828391e-01	 2.1095601158e+00	 1.7263150236e+00
 2.7165087932e-01	 2.1120162190e+00	 1.7594858666e+00
 2.5322771470e-01	 2.1143042519e+00	 1.7720297042e+00
 2.3484082659e-01	 2.1164254273e+00	 1.7634227028e+00
 2.1649221790e-01	 2.1183809856e+00	 1.7331810819e+00
 1.9818385758e-01	 2.1201721943e+00	 1.6808611995e+00
 1.7991768030e-01	 2.1218003465e+00	 1.6060589070e+00
 3.6574785904e-01	 2.1067262385e+00	 1.4103875993e+00
 3.4709754946e-01	 2.1098791773e+00	 1.5165828919e+00
 3.2847311179e-01	 2.1128587746e+00	 1.6046352407e+00
 3.0987672217e-01	 2.1156661277e+00	 1.6739683055e+00
 2.9131052460e-01	 2.1183023654e+00	 1.7240340948e+00
 2.7277663050e-01	 2.1207686470e+00	 1.7543168885e+00
 2.5427711825e-01	 2.1230661617e+00	 1.7643358661e+00
 2.3581403285e-01	 2.1251961274e+00	 1.7536465884e+00
 2.1738938551e-01	 2.1271597898e+00	 1.7218414744e+00
 1.9900515333e-01	 2.1289584215e+00	 1.6685494170e+00
 1.8066327899e-01	 2.1305933209e+00	 1.5934346709e+00
 3.6725730316e-01	 2.1154207133e+00	 1.4203766295e+00
 3.4853002362e-01	 2.1185866643e+00	 1.5235276399e+00
 3.2982872276e-01	 2.1215785585e+00	 1.6084621362e+00
 3.1115558570e-01	 2.1243974975e+00	 1.6747038990e+00
 2.9251276530e-01	 2.1270446149e+00	 1.7218013161e+00
 2.7390238167e-01	 2.1295210749e+00	 1.7493308834e+00
 2.5532652180e-01	 2.1318280715e+00	 1.7568994016e+00
 2.3678723911e-01	 2.1339668276e+00	 1.7441450187e+00
 2.1828655311e-01	 2.1359385941e+00	 1.7107372687e+00
 1.9982644907e-01	 2.1377446487e+00	 1.6563762491e+00
 1.8140887769e-01	 2.1393862953e+00	 1.5807910788e+00
 1.7395289077e-01	 2.0514565511e+00	 1.6865246845e+00
 1.5633789565e-01	 2.0528741210e+00	 1.6129233634e+00
 1.3876726916e-01	 2.0541366640e+00	 1.5454103362e+00
 1.2124273991e-01	 2.0552454988e+00	 1.4860477508e+00
 1.0376600355e-01	 2.0562019652e+00	 1.4369807289e+00
 8.6338722586e-02	 2.0570074237e+00	 1.4004334394e+00
 6.8962526251e-02	 2.0576632541e+00	 1.3787050514e+00
 5.1639010350e-02	 2.0581708551e+00	 1.3741656428e+00
 3.4369737168e-02	 2.0585316430e+00	 1.3892521357e+00
 1.7156235382e-02	 2.0587470513e+00	 1.4264643224e+00
 0.0000000000e+00	 2.0588185294e+00	 1.4883610413e+00
 1.7469848946e-01	 2.0602495255e+00	 1.6801098924e+00
 1.5700799276e-01	 2.0616731714e+00	 1.6036745216e+00
 1.3936205487e-01	 2.0629411260e+00	 1.5348828896e+00
 1.2176241180e-01	 2.0640547134e+00	 1.4755233123e+00
 1.0421076647e-01	 2.0650152795e+00	 1.4274421755e+00
 8.6708788518e-02	 2.0658241903e+00	 1.3925405958e+00
 6.9258114149e-02	 2.0664828318e+00	 1.3727709820e+00
 5.1860346014e-02	 2.0669926084e+00	 1.3701335712e+00
 3.4517053093e-02	 2.0673549428e+00	 1.3866730130e+00
 1.7229770617e-02	 2.0675712743e+00	 1.4244750649e+00
 0.0000000000e+00	 2.0676430588e+00	 1.4856634594e+00
 1.7544408815e-01	 2.0690424999e+00	 1.6722830761e+00
 1.5767808988e-01	 2.0704722218e+00	 1.5938318620e+00
 1.3995684059e-01	 2.0717455879e+00	 1.5242114949e+00
 1.2228208370e-01	 2.0728639281e+00	 1.4649438816e+00
 1.0465552940e-01	 2.0738285937e+00	 1.4175882516e+00
 8.7078854450e-02	 2.0746409569e+00	 1.3837382839e+00
 6.9553702047e-02	 2.0753024094e+00	 1.3650191503e+00
 5.2081681678e-02	 2.0758143618e+00	 1.3630845543e+00
 3.4664369019e-02	 2.0761782425e+00	 1.3796138361e+00
 1.7303305852e-02	 2.0763954974e+00	 1.4163092095e+00
 0.0000000000e+00	 2.0764675882e+00	 1.4748931898e+00
 1.7618968684e-01	 2.0778354743e+00	 1.6632363008e+00
 1.5834818700e-01	 2.0792712723e+00	 1.5834603077e+00
 1.4055162630e-01	 2.0805500499e+00	 1.5133976615e+00
 1.2280175559e-01	 2.0816731427e+00	 1.4543110827e+00
 1.0510029232e-01	 2.0826419080e+00	 1.4074839892e+00
 8.7448920382e-02	 2.0834577236e+00	 1.3742179648e+00
 6.9849289945e-02	 2.0841219871e+00	 1.3558301618e+00
 5.2303017341e-02	 2.0846361151e+00	 1.3536507160e+00
 3.4811684943e-02	 2.0850015423e+00	 1.3690202457e+00
 1.7376841086e-02	 2.0852197204e+00	 1.4032875028e+00
 0.0000000000e+00	 2.0852921176e+00	 1.4578072336e+00
 1.7693528553e-01	 2.0866284488e+00	 1.6531563304e+00
 1.5901828411e-01	 2.0880703227e+00	 1.5726218583e+00
 1.4114641202e-01	 2.0893545118e+00	 1.5024412780e+00
 1.2332142749e-01	 2.0904823574e+00	 1.4436251547e+00
 1.0554505525e-01	 2.0914552223e+00	 1.3971922100e+00
 8.7818986313e-02	 2.0922744902e+00	 1.3641670114e+00
 7.0144877842e-02	 2.0929415647e+00	 1.3455776102e+00
 5.2524353004e-02	 2.0934578684e+00	 1.3424532071e+00
 3.4959000868e-02	 2.0938248420e+00	 1.3558219201e+00
 1.7450376320e-02	 2.0940439435e+00	 1.3867087219e+00
 0.0000000000e+00	 2.0941166470e+00	 1.4361336056e+00
 1.7768088423e-01	 2.0954214232e+00	 1.6422247125e+00
 1.5968838123e-01	 2.0968693731e+00	 1.5613756259e+00
 1.4174119773e-01	 2.0981589738e+00	 1.4913406245e+00
 1.2384109938e-01	 2.0992915720e+00	 1.4328849613e+00
 1.0598981817e-01	 2.1002685365e+00	 1.3867735552e+00
 8.8189052244e-02	 2.1010912568e+00	 1.3537687796e+00
 7.0440465740e-02	 2.1017611424e+00	 1.3346282119e+00
 5.2745688667e-02	 2.1022796218e+00	 1.3301024264e+00
 3.5106316793e-02	 2.1026481418e+00	 1.3409329044e+00
 1.7523911554e-02	 2.1028681665e+00	 1.3678501315e+00
 0.0000000000e+00	 2.1029411764e+00	 1.4115719425e+00
 1.7842648292e-01	 2.1042143976e+00	 1.6306178598e+00
 1.6035847835e-01	 2.1056684235e+00	 1.5497778718e+00
 1.4233598344e-01	 2.1069634357e+00	 1.4800923839e+00
 1.2436077128e-01	 2.1081007867e+00	 1.4220879998e+00
 1.0643458110e-01	 2.1090818508e+00	 1.3762865138e+00
 8.8559118175e-02	 2.1099080235e+00	 1.3432026772e+00
 7.0736053637e-02	 2.1105807201e+00	 1.3233419381e+00
 5.2967024330e-02	 2.1111013751e+00	 1.3171982360e+00
 3.5253632717e-02	 2.1114714416e+00	 1.3252519302e+00
 1.7597446789e-02	 2.1116923896e+00	 1.3479679310e+00
 0.0000000000e+00	 2.1117657059e+00	 1.3857940962e+00
 1.7917208161e-01	 2.1130073720e+00	 1.6185071306e+00
 1.6102857546e-01	 2.1144674740e+00	 1.5378820415e+00
 1.4293076916e-01	 2.1157678977e+00	 1.4686916542e+00
 1.2488044317e-01	 2.1169100013e+00	 1.4112304111e+00
 1.0687934402e-01	 2.1178951651e+00	 1.3657874507e+00
 8.8929184106e-02	 2.1187247901e+00	 1.3326442325e+00
 7.1031641534e-02	 2.1194002977e+00	 1.3120721433e+00
 5.3188359993e-02	 2.1199231285e+00	 1.3043301714e+00
 3.5400948642e-02	 2.1202947413e+00	 1.3096627283e+00
 1.7670982023e-02	 2.1205166126e+00	 1.3282976884e+00
 0.0000000000e+00	 2.1205902353e+00	 1.3604447117e+00
 1.7991768030e-01	 2.1218003465e+00	 1.6060589070e+00
 1.6169867258e-01	 2.1232665244e+00	 1.5257387986e+00
 1.4352555487e-01	 2.1245723596e+00	 1.4571319589e+00
 1.2540011506e-01	 2.1257192160e+00	 1.4003069874e+00
 1.0732410695e-01	 2.1267084793e+00	 1.3553306338e+00
 8.9299250037e-02	 2.1275415567e+00	 1.3222651595e+00
 7.1327229432e-02	 2.1282198754e+00	 1.3011656902e+00
 5.3409695656e-02	 2.1287448818e+00	 1.2920776461e+00
 3.5548264567e-02	 2.1291180411e+00	 1.2950343330e+00
 1.7744517257e-02	 2.1293408356e+00	 1.3100547654e+00
 0.0000000000e+00	 2.1294147647e+00	 1.3371417907e+00
 1.8066327899e-01	 2.1305933209e+00	 1.5934346709e+00
 1.6236876970e-01	 2.1320655748e+00	 1.5133960590e+00
 1.4412034059e-01	 2.1333768216e+00	 1.4454052585e+00
 1.2591978696e-01	 2.1345284306e+00	 1.3893111821e+00
 1.0776886987e-01	 2.1355217936e+00	 1.3449682606e+00
 8.9669315969e-02	 2.1363583234e+00	 1.3122334229e+00
 7.1622817330e-02	 2.1370394530e+00	 1.2909630725e+00
 5.3631031320e-02	 2.1375666352e+00	 1.2810101519e+00
 3.5695580492e-02	 2.1379413408e+00	 1.2822213790e+00
 1.7818052492e-02	 2.1381650587e+00	 1.2944347306e+00
 0.0000000000e+00	 2.1382392941e+00	 1.3174772418e+00
 1.8140887769e-01	 2.1393862953e+00	 1.5807910788e+00
 1.6303886681e-01	 2.1408646252e+00	 1.5008990231e+00
 1.4471512630e-01	 2.1421812835e+00	 1.4335019614e+00
 1.2643945885e-01	 2.1433376453e+00	 1.3782351177e+00
 1.0821363280e-01	 2.1443351079e+00	 1.3347504844e+00
 9.0039381901e-02	 2.1451750900e+00	 1.3027133008e+00
 7.1918405228e-02	 2.1458590307e+00	 1.2817985337e+00
 5.3852366984e-02	 2.1463883885e+00	 1.2716874531e+00
 3.5842896417e-02	 2.1467646406e+00	 1.2720643914e+00
 1.7891587727e-02	 2.1469892817e+00	 1.2826137631e+00
 0.0000000000e+00	 2.1470638235e+00	 1.3030174162e+00
 2.1470638235e+00	 0.0000000000e+00	-2.4759922140e+01
 2.1469892817e+00	 1.7891587727e-02	-2.0904816131e+01
 2.1467646406e+00	 3.5842896417e-02	-1.8031780351e+01
 2.1463883885e+00	 5.3852366984e-02	-1.5966580878e+01
 2.1458590307e+00	 7.1918405228e-02	-1.4531997694e+01
 2.1451750900e+00	 9.0039381901e-02	-1.3548006559e+01
 2.1443351079e+00	 1.0821363280e-01	-1.2831971419e+01
 2.1433376453e+00	 1.2643945885e-01	-1.2198846812e+01
 2.1421812835e+00	 1.4471512630e-01	-1.1461389679e+01
 2.1408646252e+00	 1.6303886681e-01	-1.0430379924e+01
 2.1393862953e+00	 1.8140887769e-01	-8.9148490332e+00
 2.1558868529e+00	 0.0000000000e+00	-1.3672864751e+01
 2.1558120048e+00	 1.7965110462e-02	-1.2905989087e+01
 2.1555864406e+00	 3.5990187302e-02	-1.2488372492e+01
 2.1552086423e+00	 5.4073665026e-02	-1.2315885077e+01
 2.1546771092e+00	 7.2213942883e-02	-1.2282745224e+01
 2.1539903579e+00	 9.0409384930e-02	-1.2281647902e+01
 2.1531469241e+00	 1.0865832012e-01	-1.2203900502e+01
 2.1521453625e+00	 1.2695904241e-01	-1.1939565628e+01
 2.1509842489e+00	 1.4530981091e-01	-1.1377610223e+01
 2.1496621800e+00	 1.6370885003e-01	-1.0406060376e+01
 2.1481777751e+00	 1.8215434964e-01	-8.9121610947e+00
 2.1647098823e+00	 0.0000000000e+00	-4.1745262130e+00
 2.1646347279e+00	 1.8038633198e-02	-6.0455790027e+00
 2.1644082405e+00	 3.6137478187e-02	-7.7208598925e+00
 2.1640288961e+00	 5.4294963068e-02	-9.1568946561e+00
 2.1634951877e+00	 7.2509480538e-02	-1.0309715872e+01
 2.1628056259e+00	 9.0779387959e-02	-1.1134945335e+01
 2.1619587402e+00	 1.0910300745e-01	-1.1587881371e+01
 2.1609530798e+00	 1.2747862598e-01	-1.1623590463e+01
 2.1597872142e+00	 1.4590449553e-01	-1.1197002572e+01
 2.1584597348e+00	 1.6437883324e-01	-1.0263009440e+01
 2.1569692549e+00	 1.8289982160e-01	-8.7765652009e+00
 2.1735329117e+00	 0.0000000000e+00	 3.7554958543e+00
 2.1734574510e+00	 1.8112155933e-02	-3.0828967846e-01
 2.1732300405e+00	 3.6284769073e-02	-3.7183009364e+00
 2.1728491500e+00	 5.4516261110e-02	-6.4823896792e+00
 2.1723132662e+00	 7.2805018193e-02	-8.6088988243e+00
 2.1716208938e+00	 9.1149390988e-02	-1.0106706547e+01
 2.1707705564e+00	 1.0954769477e-01	-1.0985273077e+01
 2.1697607970e+00	 1.2799820954e-01	-1.1254689573e+01
 2.1685901796e+00	 1.4649918014e-01	-1.0925728429e+01
 2.1672572895e+00	 1.6504881646e-01	-1.0009894305e+01
 2.1657607347e+00	 1.8364529355e-01	-8.5194751542e+00
 2.1823559412e+00	 0.0000000000e+00	 1.0137286113e+01
 2.1822801741e+00	 1.8185678669e-02	 4.3209357941e+00
 2.1820518404e+00	 3.6432059958e-02	-4.6992675037e-01
 2.1816694038e+00	 5.4737559153e-02	-4.2852663410e+00
 2.1811313447e+00	 7.3100555849e-02	-7.1763507436e+00
 2.1804361618e+00	 9.1519394018e-02	-9.1957640092e+00
 2.1795823726e+00	 1.0999238210e-01	-1.0397420702e+01
 2.1785685143e+00	 1.2851779310e-01	-1.0836580375e+01
 2.1773931450e+00	 1.4709386476e-01	-1.0569861620e+01
 2.1760548443e+00	 1.6571879967e-01	-9.6552549668e+00
 2.1745522145e+00	 1.8439076551e-01	-8.1521338814e+00
 2.1911789706e+00	 0.0000000000e+00	 1.4990617903e+01
 2.1911028972e+00	 1.8259201405e-02	 7.8569198118e+00
 2.1908736404e+00	 3.6579350844e-02	 2.0348622018e+00
 2.1904896576e+00	 5.4958857195e-02	-2.5585347237e+00
 2.1899494232e+00	 7.3396093504e-02	-6.0081945219e+00
 2.1892514297e+00	 9.1889397047e-02	-8.4009745946e+00
 2.1883941887e+00	 1.1043706942e-01	-9.8256557493e+00
 2.1873762315e+00	 1.2903737666e-01	-1.0372930578e+01
 2.1861961103e+00	 1.4768854937e-01	-1.0135389946e+01
 2.1848523990e+00	 1.6638878288e-01	-9.2075068537e+00
 2.1833436942e+00	 1.8513623746e-01	-7.6856168917e+00
 2.2000020000e+00	 0.0000000000e+00	 1.8334959487e+01
 2.1999256203e+00	 1.8332724141e-02	 1.0314254924e+01
 2.1996954404e+00	 3.6726641730e-02	 3.8064994446e+00
 2.1993099114e+00	 5.5180155238e-02	-1.2953166071e+00
 2.1987675017e+00	 7.3691631160e-02	-5.1006180623e+00
 2.1980666977e+00	 9.2259400077e-02	-7.7212192084e+00
 2.1972060049e+00	 1.1088175675e-01	-9.2712965400e+00
 2.1961839488e+00	 1.2955696022e-01	-9.8673592880e+00
 2.1949990757e+00	 1.4828323398e-01	-9.6282169953e+00
 2.1936499538e+00	 1.6705876610e-01	-8.6749433742e+00
 2.1921351740e+00	 1.8588170942e-01	-7.1308356481e+00
 2.2088250294e+00	 0.0000000000e+00	 2.0189480143e+01
 2.2087483434e+00	 1.8406246877e-02	 1.1707308381e+01
 2.2085172403e+00	 3.6873932615e-02	 4.8552557363e+00
 2.2081301652e+00	 5.5401453280e-02	-4.8884333242e-01
 2.2075855802e+00	 7.3987168815e-02	-4.4498730899e+00
 2.2068819656e+00	 9.2629403106e-02	-7.1554024226e+00
 2.2060178211e+00	 1.1132644407e-01	-8.7356485849e+00
 2.2049916661e+00	 1.3007654378e-01	-9.3234380782e+00
 2.2038020411e+00	 1.4887791859e-01	-9.0541639053e+00
 2.2024475085e+00	 1.6772874931e-01	-8.0657384067e+00
 2.2009266538e+00	 1.8662718137e-01	-6.4985408540e+00
 2.2176480588e+00	 0.0000000000e+00	 2.0573056107e+01
 2.2175710665e+00	 1.8479769612e-02	 1.2050226584e+01
 2.2173390403e+00	 3.7021223500e-02	 5.1912422367e+00
 2.2169504190e+00	 5.5622751322e-02	-1.3245371546e-01
 2.2164036587e+00	 7.4282706470e-02	-4.0522739903e+00
 2.2156972336e+00	 9.2999406135e-02	-6.7024521202e+00
 2.2148296373e+00	 1.1177113140e-01	-8.2200049538e+00
 2.2137993833e+00	 1.3059612734e-01	-8.7446920364e+00
 2.2126050064e+00	 1.4947260321e-01	-8.4189710840e+00
 2.2112450633e+00	 1.6839873252e-01	-7.3879487251e+00
 2.2097181336e+00	 1.8737265333e-01	-5.7993256583e+00
 2.2264710882e+00	 0.0000000000e+00	 1.9500332573e+01
 2.2263937896e+00	 1.8553292348e-02	 1.1353198487e+01
 2.2261608403e+00	 3.7168514385e-02	 4.8211552474e+00
 2.2257706728e+00	 5.5844049364e-02	-2.2215901688e-01
 2.2252217372e+00	 7.4578244125e-02	-3.9059664235e+00
 2.2245125015e+00	 9.3369409163e-02	-6.3623105388e+00
 2.2236414534e+00	 1.1221581872e-01	-7.7260135446e+00
 2.2226071006e+00	 1.3111571090e-01	-8.1346293619e+00
 2.2214079718e+00	 1.5006728782e-01	-7.7282998853e+00
 2.2200426181e+00	 1.6906871573e-01	-6.6495163647e+00
 2.2185096134e+00	 1.8811812528e-01	-5.0436287802e+00
 2.2352941176e+00	 0.0000000000e+00	 1.6964246945e+01
 2.2352165126e+00	 1.8626815083e-02	 9.6050426997e+00
 2.2349826402e+00	 3.7315805270e-02	 3.7306048046e+00
 2.2345909267e+00	 5.6065347405e-02	-7.7469211121e-01
 2.2340398157e+00	 7.4873781778e-02	-4.0291635233e+00
 2.2333277695e+00	 9.3739412190e-02	-6.1537855135e+00
 2.2324532696e+00	 1.1266050604e-01	-7.2721616494e+00
 2.2314148178e+00	 1.3163529446e-01	-7.5104862353e+00
 2.2302109371e+00	 1.5066197243e-01	-6.9975039391e+00
 2.2288401728e+00	 1.6973869895e-01	-5.8644658096e+00
 2.2273010932e+00	 1.8886359723e-01	-4.2450817125e+00
 2.1393862953e+00	 1.8140887769e-01	-8.9148490332e+00
 2.1377446487e+00	 1.9982644907e-01	-7.0837847073e+00
 2.1359385941e+00	 2.1828655311e-01	-5.2571648262e+00
 2.1339668276e+00	 2.3678723911e-01	-3.4672552003e+00
 2.1318280715e+00	 2.5532652180e-01	-1.7447518195e+00
 2.1295210749e+00	 2.7390238167e-01	-1.1873534968e-01
 2.1270446149e+00	 2.9251276530e-01	 1.3833774291e+00
 2.1243974975e+00	 3.1115558570e-01	 2.7358858691e+00
 2.1215785585e+00	 3.2982872276e-01	 3.9148620050e+00
 2.1185866643e+00	 3.4853002362e-01	 4.8982120149e+00
 2.1154207133e+00	 3.6725730316e-01	 5.6657431817e+00
 2.1481777751e+00	 1.8215434964e-01	-8.9121610947e+00
 2.1465293824e+00	 2.0064760521e-01	-7.1126484206e+00
 2.1447159060e+00	 2.1918356822e-01	-5.3200699235e+00
 2.1427360369e+00	 2.3776027995e-01	-3.5632042688e+00
 2.1405884919e+00	 2.5637574698e-01	-1.8697683030e+00
 2.1382720151e+00	 2.7502794149e-01	-2.6638979444e-01
 2.1357853785e+00	 2.9371480163e-01	 1.2214233273e+00
 2.1331273831e+00	 3.1243423184e-01	 2.5693179183e+00
 2.1302968601e+00	 3.3118410329e-01	 3.7541354335e+00
 2.1272926712e+00	 3.4996225428e-01	 4.7539572737e+00
 2.1241137102e+00	 3.6876649071e-01	 5.5481563142e+00
 2.1569692549e+00	 1.8289982160e-01	-8.7765652009e+00
 2.1553141161e+00	 2.0146876135e-01	-6.9978532072e+00
 2.1534932180e+00	 2.2008058332e-01	-5.2348473482e+00
 2.1515052462e+00	 2.3873332078e-01	-3.5129311579e+00
 2.1493489123e+00	 2.5742497215e-01	-1.8568717723e+00
 2.1470229552e+00	 2.7615350131e-01	-2.9080956395e-01
 2.1445261420e+00	 2.9491683797e-01	 1.1617561248e+00
 2.1418572687e+00	 3.1371287799e-01	 2.4779858942e+00
 2.1390151617e+00	 3.3253948383e-01	 3.6357245823e+00
 2.1359986781e+00	 3.5139448495e-01	 4.6135316659e+00
 2.1328067071e+00	 3.7027567826e-01	 5.3907184766e+00
 2.1657607347e+00	 1.8364529355e-01	-8.5194751542e+00
 2.1640988498e+00	 2.0228991749e-01	-6.7532685441e+00
 2.1622705300e+00	 2.2097759843e-01	-5.0169085580e+00
 2.1602744555e+00	 2.3970636162e-01	-3.3324715405e+00
 2.1581093328e+00	 2.5847419733e-01	-1.7218008450e+00
 2.1557738954e+00	 2.7727906114e-01	-2.0651202901e-01
 2.1532669055e+00	 2.9611887431e-01	 1.1920062143e+00
 2.1505871544e+00	 3.1499152414e-01	 2.4525961844e+00
 2.1477334633e+00	 3.3389486437e-01	 3.5543411546e+00
 2.1447046850e+00	 3.5282671562e-01	 4.4765819857e+00
 2.1414997040e+00	 3.7178486581e-01	 5.1987534514e+00
 2.1745522145e+00	 1.8439076551e-01	-8.1521338814e+00
 2.1728835834e+00	 2.0311107363e-01	-6.3925535525e+00
 2.1710478420e+00	 2.2187461353e-01	-4.6814294332e+00
 2.1690436649e+00	 2.4067940246e-01	-3.0376145955e+00
 2.1668697532e+00	 2.5952342250e-01	-1.4800510752e+00
 2.1645248356e+00	 2.7840462096e-01	-2.7789305793e-02
 2.1620076691e+00	 2.9732091064e-01	 1.2999970304e+00
 2.1593170400e+00	 3.1627017029e-01	 2.4840015843e+00
 2.1564517649e+00	 3.3525024491e-01	 3.5047821993e+00
 2.1534106919e+00	 3.5425894628e-01	 4.3427648798e+00
 2.1501927009e+00	 3.7329405336e-01	 4.9774699892e+00
 2.1833436942e+00	 1.8513623746e-01	-7.6856168917e+00
 2.1816683171e+00	 2.0393222977e-01	-5.9291612014e+00
 2.1798251540e+00	 2.2277162864e-01	-4.2433549263e+00
 2.1778128742e+00	 2.4165244329e-01	-2.6439078066e+00
 2.1756301736e+00	 2.6057264767e-01	-1.1468796004e+00
 2.1732757758e+00	 2.7953018078e-01	 2.3128754849e-01
 2.1707484326e+00	 2.9852294698e-01	 1.4737416066e+00
 2.1680469256e+00	 3.1754881644e-01	 2.5631989099e+00
 2.1651700666e+00	 3.3660562545e-01	 3.4819290791e+00
 2.1621166988e+00	 3.5569117695e-01	 4.2117474755e+00
 2.1588856978e+00	 3.7480324091e-01	 4.7322778444e+00
 2.1921351740e+00	 1.8588170942e-01	-7.1308356481e+00
 2.1904530508e+00	 2.0475338591e-01	-5.3763424039e+00
 2.1886024660e+00	 2.2366864375e-01	-3.7174035957e+00
 2.1865820835e+00	 2.4262548413e-01	-2.1666616395e+00
 2.1843905940e+00	 2.6162187285e-01	-7.3730967051e-01
 2.1820267160e+00	 2.8065574060e-01	 5.5686444923e-01
 2.1794891962e+00	 2.9972498332e-01	 1.7014392255e+00
 2.1767768112e+00	 3.1882746258e-01	 2.6813266778e+00
 2.1738883682e+00	 3.3796100599e-01	 3.4807464770e+00
 2.1708227057e+00	 3.5712340762e-01	 4.0832080062e+00
 2.1675786947e+00	 3.7631242846e-01	 4.4685143245e+00
 2.2009266538e+00	 1.8662718137e-01	-6.4985408540e+00
 2.1992377845e+00	 2.0557454205e-01	-4.7471500132e+00
 2.1973797780e+00	 2.2456565885e-01	-3.1180720242e+00
 2.1953512928e+00	 2.4359852496e-01	-1.6209541008e+00
 2.1931510145e+00	 2.6267109802e-01	-2.6613506039e-01
 2.1907776561e+00	 2.8178130042e-01	 9.3530030439e-01
 2.1882299597e+00	 3.0092701966e-01	 1.9714721583e+00
 2.1855066969e+00	 3.2010610873e-01	 2.8296628527e+00
 2.1826066698e+00	 3.3931638653e-01	 3.4962814383e+00
 2.1795287126e+00	 3.5855563829e-01	 3.9568364375e+00
 2.1762716916e+00	 3.7782161601e-01	 4.1914443403e+00
 2.2097181336e+00	 1.8737265333e-01	-5.7993256583e+00
 2.2080225182e+00	 2.0639569819e-01	-4.0544427168e+00
 2.2061570900e+00	 2.2546267395e-01	-2.4596391283e+00
 2.2041205021e+00	 2.4457156580e-01	-1.0216351815e+00
 2.2019114349e+00	 2.6372032320e-01	 2.5207563022e-01
 2.1995285963e+00	 2.8290686024e-01	 1.3531631377e+00
 2.1969707233e+00	 3.0212905599e-01	 2.2724024916e+00
 2.1942365825e+00	 3.2138475488e-01	 2.9996226583e+00
 2.1913249715e+00	 3.4067176707e-01	 3.5236624476e+00
 2.1882347194e+00	 3.5998786895e-01	 3.8323350903e+00
 2.1849646885e+00	 3.7933080355e-01	 3.9062620133e+00
 2.2185096134e+00	 1.8811812528e-01	-5.0436287802e+00
 2.2168072519e+00	 2.0721685432e-01	-3.3108888353e+00
 2.2149344020e+00	 2.2635968906e-01	-1.7561703582e+00
 2.2128897114e+00	 2.4554460663e-01	-3.8333118907e-01
 2.2106718553e+00	 2.6476954837e-01	 8.0297478568e-01
 2.2082795365e+00	 2.8403242006e-01	 1.7972263124e+00
 2.2057114868e+00	 3.0333109233e-01	 2.5929690397e+00
 2.2029664681e+00	 3.2266340102e-01	 3.1827564522e+00
 2.2000432731e+00	 3.4202714761e-01	 3.5580985401e+00
 2.1969407263e+00	 3.6142009962e-01	 3.7094192635e+00
 2.1936576854e+00	 3.8083999110e-01	 3.6180922393e+00
 2.2273010932e+00	 1.8886359723e-01	-4.2450817125e+00
 2.2255919856e+00	 2.0803801046e-01	-2.5303106300e+00
 2.2237117139e+00	 2.2725670416e-01	-1.0217620259e+00
 2.2216589208e+00	 2.4651764747e-01	 2.7955102869e-01
 2.2194322757e+00	 2.6581877354e-01	 1.3724316901e+00
 2.2170304767e+00	 2.8515797987e-01	 2.2544648524e+00
 2.2144522504e+00	 3.0453312866e-01	 2.9220843388e+00
 2.2116963537e+00	 3.2394204717e-01	 3.3707476612e+00
 2.2087615747e+00	 3.4338252815e-01	 3.5948784459e+00
 2.2056467332e+00	 3.6285233028e-01	 3.5878178558e+00
 2.2023506823e+00	 3.8234917865e-01	 3.3319922107e+00
 2.1154207133e+00	 3.6725730316e-01	 5.6657431817e+00
 2.1120802188e+00	 3.8600515608e-01	 6.2190971851e+00
 2.1085636212e+00	 4.0477452065e-01	 6.5574985002e+00
 2.1048699183e+00	 4.2356312421e-01	 6.6904599357e+00
 2.1009981432e+00	 4.4236866403e-01	 6.6273949976e+00
 2.0969473653e+00	 4.6118880795e-01	 6.3764907116e+00
 2.0927166911e+00	 4.8002119495e-01	 5.9446632190e+00
 2.0883052653e+00	 4.9886343584e-01	 5.3375102511e+00
 2.0837122714e+00	 5.1771311394e-01	 4.5592600570e+00
 2.0789369326e+00	 5.3656778577e-01	 3.6127163775e+00
 2.0739785129e+00	 5.5542498184e-01	 2.4991990719e+00
 2.1241137102e+00	 3.6876649071e-01	 5.5481563142e+00
 2.1207594885e+00	 3.8759138505e-01	 6.1165940026e+00
 2.1172284400e+00	 4.0643787945e-01	 6.4502306143e+00
 2.1135195584e+00	 4.2530369189e-01	 6.5634434450e+00
 2.1096318728e+00	 4.4418651020e-01	 6.4703981119e+00
 2.1055644488e+00	 4.6308399261e-01	 6.1847327561e+00
 2.1013163893e+00	 4.8199376841e-01	 5.7195218311e+00
 2.0968868355e+00	 5.0091343860e-01	 5.0872358441e+00
 2.0922749673e+00	 5.1984057656e-01	 4.2996965784e+00
 2.0874800050e+00	 5.3877272878e-01	 3.3680273421e+00
 2.0825012094e+00	 5.5770741560e-01	 2.3025978074e+00
 2.1328067071e+00	 3.7027567826e-01	 5.3907184766e+00
 2.1294387581e+00	 3.8917761403e-01	 5.9331218896e+00
 2.1258932587e+00	 4.0810123824e-01	 6.2312095439e+00
 2.1221691984e+00	 4.2704425957e-01	 6.3030155553e+00
 2.1182656023e+00	 4.4600435636e-01	 6.1666766064e+00
 2.1141815323e+00	 4.6497917727e-01	 5.8404059944e+00
 2.1099160876e+00	 4.8396634188e-01	 5.3424649388e+00
 2.1054684056e+00	 5.0296344137e-01	 4.6911290207e+00
 2.1008376632e+00	 5.2196803918e-01	 3.9046492412e+00
 2.0960230774e+00	 5.4097767178e-01	 3.0012071974e+00
 2.0910239059e+00	 5.5998984936e-01	 1.9988639026e+00
 2.1414997040e+00	 3.7178486581e-01	 5.1987534514e+00
 2.1381180278e+00	 3.9076384300e-01	 5.6800186174e+00
 2.1345580774e+00	 4.0976459704e-01	 5.9163939678e+00
 2.1308188384e+00	 4.2878482725e-01	 5.9286100566e+00
 2.1268993319e+00	 4.4782220253e-01	 5.7380008857e+00
 2.1227986158e+00	 4.6687436193e-01	 5.3664870799e+00
 2.1185157858e+00	 4.8593891534e-01	 4.8365540471e+00
 2.1140499757e+00	 5.0501344413e-01	 4.1712245571e+00
 2.1094003591e+00	 5.2409550181e-01	 3.3940251813e+00
 2.1045661498e+00	 5.4318261479e-01	 2.5289460569e+00
 2.0995466025e+00	 5.6227228312e-01	 1.6003934588e+00
 2.1501927009e+00	 3.7329405336e-01	 4.9774699892e+00
 2.1467972974e+00	 3.9235007198e-01	 5.3684524114e+00
 2.1432228962e+00	 4.1142795584e-01	 5.5214994501e+00
 2.1394684784e+00	 4.3052539494e-01	 5.4593624269e+00
 2.1355330615e+00	 4.4964004869e-01	 5.2058060877e+00
 2.1314156994e+00	 4.6876954659e-01	 4.7855985451e+00
 2.1271154840e+00	 4.8791148881e-01	 4.2244956346e+00
 2.1226315458e+00	 5.0706344689e-01	 3.5492190779e+00
 2.1179630551e+00	 5.2622296443e-01	 2.7874278601e+00
 2.1131092222e+00	 5.4538755780e-01	 1.9676822452e+00
 2.1080692990e+00	 5.6455471688e-01	 1.1193998793e+00
 2.1588856978e+00	 3.7480324091e-01	 4.7322778444e+00
 2.1554765671e+00	 3.9393630095e-01	 5.0094255267e+00
 2.1518877149e+00	 4.1309131464e-01	 5.0620034701e+00
 2.1481181185e+00	 4.3226596262e-01	 4.9141159416e+00
 2.1441667910e+00	 4.5145789486e-01	 4.5911989010e+00
 2.1400327829e+00	 4.7066473125e-01	 4.1200159599e+00
 2.1357151822e+00	 4.8988406227e-01	 3.5286482846e+00
 2.1312131160e+00	 5.0911344966e-01	 2.8464777984e+00
 2.1265257510e+00	 5.2835042706e-01	 2.1041630573e+00
 2.1216522946e+00	 5.4759250080e-01	 1.3336071876e+00
 2.1165919955e+00	 5.6683715064e-01	 5.6791730237e-01
 2.1675786947e+00	 3.7631242846e-01	 4.4685143245e+00
 2.1641558367e+00	 3.9552252993e-01	 4.6137777312e+00
 2.1605525337e+00	 4.1475467344e-01	 4.5531503241e+00
 2.1567677585e+00	 4.3400653031e-01	 4.3114276297e+00
 2.1528005206e+00	 4.5327574102e-01	 3.9149642120e+00
 2.1486498664e+00	 4.7255991591e-01	 3.3916749082e+00
 2.1443148804e+00	 4.9185663574e-01	 2.7710296351e+00
 2.1397946861e+00	 5.1116345242e-01	 2.0840410936e+00
 2.1350884469e+00	 5.3047788968e-01	 1.3632447094e+00
 2.1301953670e+00	 5.4979744381e-01	 6.4267017001e-01
 2.1251146921e+00	 5.6911958440e-01	-4.2196058591e-02
 2.1762716916e+00	 3.7782161601e-01	 4.1914443403e+00
 2.1728351064e+00	 3.9710875890e-01	 4.1921896998e+00
 2.1692173524e+00	 4.1641803224e-01	 4.0099559040e+00
 2.1654173985e+00	 4.3574709799e-01	 3.6695740792e+00
 2.1614342502e+00	 4.5509358719e-01	 3.1975715844e+00
 2.1572669499e+00	 4.7445510057e-01	 2.6221777895e+00
 2.1529145786e+00	 4.9382920920e-01	 1.9733231538e+00
 2.1483762562e+00	 5.1321345518e-01	 1.2826309004e+00
 2.1436511428e+00	 5.3260535231e-01	 5.8340059705e-01
 2.1387384394e+00	 5.5200238681e-01	-8.9417026950e-02
 2.1336373886e+00	 5.7140201817e-01	-6.9925466935e-01
 2.1849646885e+00	 3.7933080355e-01	 3.9062620133e+00
 2.1815143761e+00	 3.9869498788e-01	 3.7551863223e+00
 2.1778821711e+00	 4.1808139104e-01	 3.4472123559e+00
 2.1740670386e+00	 4.3748766567e-01	 3.0065570990e+00
 2.1700679797e+00	 4.5691143335e-01	 2.4591815763e+00
 2.1658840334e+00	 4.7635028523e-01	 1.8328004495e+00
 2.1615142768e+00	 4.9580178267e-01	 1.1568847415e+00
 2.1569578264e+00	 5.1526345795e-01	 4.6265695743e-01
 2.1522138388e+00	 5.3473281493e-01	-2.1692211417e-01
 2.1472815118e+00	 5.5420732982e-01	-8.4717561572e-01
 2.1421600852e+00	 5.7368445192e-01	-1.3917425183e+00
 2.1936576854e+00	 3.8083999110e-01	 3.6180922393e+00
 2.1901936457e+00	 4.0028121685e-01	 3.3131399273e+00
 2.1865469899e+00	 4.1974474984e-01	 2.8794926214e+00
 2.1827166786e+00	 4.3922823336e-01	 2.3401092375e+00
 2.1787017093e+00	 4.5872927951e-01	 1.7196519007e+00
 2.1745011169e+00	 4.7824546988e-01	 1.0444986457e+00
 2.1701139750e+00	 4.9777435613e-01	 3.4274917037e-01
 2.1655393965e+00	 5.1731346071e-01	-3.5577711416e-01
 2.1607765347e+00	 5.3686027755e-01	-1.0195514749e+00
 2.1558245842e+00	 5.5641227282e-01	-1.6153554089e+00
 2.1506827817e+00	 5.7596688568e-01	-2.1083100478e+00
 2.2023506823e+00	 3.8234917865e-01	 3.3319922107e+00
 2.1988729154e+00	 4.0186744582e-01	 2.8762734236e+00
 2.1952118086e+00	 4.2140810864e-01	 2.3211548655e+00
 2.1913663186e+00	 4.4096880104e-01	 1.6876991651e+00
 2.1873354389e+00	 4.6054712568e-01	 9.9854343121e-01
 2.1831182005e+00	 4.8014065454e-01	 2.7791435074e-01
 2.1787136732e+00	 4.9974692960e-01	-4.4836363965e-01
 2.1741209666e+00	 5.1936346347e-01	-1.1528678829e+00
 2.1693392306e+00	 5.3898774018e-01	-1.8065854920e+00
 2.1643676566e+00	 5.5861721583e-01	-2.3789305415e+00
 2.1592054782e+00	 5.7824931944e-01	-2.8377711706e+00
 2.0739785129e+00	 5.5542498184e-01	 2.4991990719e+00
 2.0688363181e+00	 5.7428220763e-01	 1.3174458159e+00
 2.0635096983e+00	 5.9313694523e-01	 1.8786889881e-01
 2.0579980469e+00	 6.1198665341e-01	-8.5708786023e-01
 2.0523008014e+00	 6.3082876822e-01	-1.7853829137e+00
 2.0464174439e+00	 6.4966070390e-01	-2.5654915943e+00
 2.0403475018e+00	 6.6847985372e-01	-3.1665291880e+00
 2.0340905489e+00	 6.8728359099e-01	-3.5583826058e+00
 2.0276462055e+00	 7.0606926997e-01	-3.7118507282e+00
 2.0210141399e+00	 7.2483422690e-01	-3.5987934357e+00
 2.0141940681e+00	 7.4357578096e-01	-3.1919593561e+00
 2.0825012094e+00	 5.5770741560e-01	 2.3025978074e+00
 2.0773378836e+00	 5.7664213227e-01	 1.2123698819e+00
 2.0719893748e+00	 5.9557435052e-01	 2.1310656895e-01
 2.0664550742e+00	 6.1450151868e-01	-6.7573273696e-01
 2.0607344167e+00	 6.3342106228e-01	-1.4354464262e+00
 2.0548268824e+00	 6.5233038490e-01	-2.0481932689e+00
 2.0487319969e+00	 6.7122686913e-01	-2.4971030499e+00
 2.0424493319e+00	 6.9010787747e-01	-2.7663953953e+00
 2.0359785066e+00	 7.0897075332e-01	-2.8415068824e+00
 2.0293191874e+00	 7.2781282196e-01	-2.7092264627e+00
 2.0224710896e+00	 7.4663139157e-01	-2.3564483080e+00
 2.0910239059e+00	 5.5998984936e-01	 1.9988639026e+00
 2.0858394491e+00	 5.7900205690e-01	 1.0107939388e+00
 2.0804690514e+00	 5.9801175580e-01	 1.4442128755e-01
 2.0749121014e+00	 6.1701638395e-01	-5.9168367108e-01
 2.0691680320e+00	 6.3601335633e-01	-1.1900064602e+00
 2.0632363210e+00	 6.5500006590e-01	-1.6441809891e+00
 2.0571164919e+00	 6.7397388454e-01	-1.9490897692e+00
 2.0508081150e+00	 6.9293216396e-01	-2.1009720299e+00
 2.0443108076e+00	 7.1187223668e-01	-2.0975398439e+00
 2.0376242350e+00	 7.3079141703e-01	-1.9381023072e+00
 2.0307481111e+00	 7.4968700217e-01	-1.6205485863e+00
 2.0995466025e+00	 5.6227228312e-01	 1.6003934588e+00
 2.0943410145e+00	 5.8136198154e-01	 7.2053320213e-01
 2.0889487279e+00	 6.0044916109e-01	-1.4475344383e-02
 2.0833691287e+00	 6.1953124922e-01	-6.0488167318e-01
 2.0776016473e+00	 6.3860565038e-01	-1.0522323739e+00
 2.0716457595e+00	 6.5766974691e-01	-1.3594553922e+00
 2.0655009870e+00	 6.7672089996e-01	-1.5309518303e+00
 2.0591668981e+00	 6.9575645045e-01	-1.5726954732e+00
 2.0526431086e+00	 7.1477372003e-01	-1.4923401641e+00
 2.0459292826e+00	 7.3377001209e-01	-1.2993350899e+00
 2.0390251327e+00	 7.5274261278e-01	-9.9948979003e-01
 2.1080692990e+00	 5.6455471688e-01	 1.1193998793e+00
 2.1028425800e+00	 5.8372190618e-01	 3.4929370172e-01
 2.0974284045e+00	 6.0288656638e-01	-2.5991533472e-01
 2.0918261560e+00	 6.2204611450e-01	-7.1525329931e-01
 2.0860352626e+00	 6.4119794444e-01	-1.0252280883e+00
 2.0800551981e+00	 6.6033942791e-01	-1.1999073346e+00
 2.0738854820e+00	 6.7946791537e-01	-1.2510037835e+00
 2.0675256811e+00	 6.9858073693e-01	-1.1919683345e+00
 2.0609754097e+00	 7.1767520338e-01	-1.0380908868e+00
 2.0542343302e+00	 7.3674860715e-01	-8.0660906410e-01
 2.0473021542e+00	 7.5579822338e-01	-5.0826411095e-01
 2.1165919955e+00	 5.6683715064e-01	 5.6791730237e-01
 2.1113441455e+00	 5.8608183082e-01	-9.5325832494e-02
 2.1059080810e+00	 6.0532397167e-01	-5.8827380883e-01
 2.1002831832e+00	 6.2456097977e-01	-9.2271140701e-01
 2.0944688779e+00	 6.4379023849e-01	-1.1120339528e+00
 2.0884646366e+00	 6.6300910891e-01	-1.1713207389e+00
 2.0822699771e+00	 6.8221493078e-01	-1.1174159531e+00
 2.0758844642e+00	 7.0140502342e-01	-9.6901732617e-01
 2.0693077107e+00	 7.2057668673e-01	-7.4677265377e-01
 2.0625393777e+00	 7.3972720222e-01	-4.7338427710e-01
 2.0555791757e+00	 7.5885383399e-01	-1.6163136706e-01
 2.1251146921e+00	 5.6911958440e-01	-4.2196058591e-02
 2.1198457110e+00	 5.8844175545e-01	-6.0583214430e-01
 2.1143877576e+00	 6.0776137696e-01	-9.9596854466e-01
 2.1087402105e+00	 6.2707584504e-01	-1.2271559091e+00
 2.1029024933e+00	 6.4638253254e-01	-1.3156285830e+00
 2.0968740752e+00	 6.6567878992e-01	-1.2793753899e+00
 2.0906544721e+00	 6.8496194619e-01	-1.1382180744e+00
 2.0842432473e+00	 7.0422930990e-01	-9.1389763429e-01
 2.0776400117e+00	 7.2347817008e-01	-6.3016870887e-01
 2.0708444253e+00	 7.4270579728e-01	-3.1276043547e-01
 2.0638561973e+00	 7.6190944459e-01	 2.5876087558e-02
 2.1336373886e+00	 5.7140201817e-01	-6.9925466935e-01
 2.1283472765e+00	 5.9080168009e-01	-1.1748356822e+00
 2.1228674341e+00	 6.1019878225e-01	-1.4794595336e+00
 2.1171972378e+00	 6.2959071031e-01	-1.6284745248e+00
 2.1113361086e+00	 6.4897482659e-01	-1.6389306714e+00
 2.1052835137e+00	 6.6834847092e-01	-1.5296496815e+00
 2.0990389672e+00	 6.8770896161e-01	-1.3213028631e+00
 2.0926020303e+00	 7.0705359639e-01	-1.0364972044e+00
 2.0859723127e+00	 7.2637965343e-01	-6.9986980415e-01
 2.0791494729e+00	 7.4568439234e-01	-3.3733546367e-01
 2.0721332188e+00	 7.6496505519e-01	 3.9948572592e-02
 2.1421600852e+00	 5.7368445192e-01	-1.3917425183e+00
 2.1368488419e+00	 5.9316160473e-01	-1.7950488862e+00
 2.1313471107e+00	 6.1263618754e-01	-2.0352485666e+00
 2.1256542650e+00	 6.3210557559e-01	-2.1265435292e+00
 2.1197697239e+00	 6.5156712065e-01	-2.0848007717e+00
 2.1136929523e+00	 6.7101815192e-01	-1.9276233164e+00
 2.1074234623e+00	 6.9045597702e-01	-1.6744295188e+00
 2.1009608134e+00	 7.0987788287e-01	-1.3465409459e+00
 2.0943046138e+00	 7.2928113678e-01	-9.6727901034e-01
 2.0874545204e+00	 7.4866298740e-01	-5.5995005031e-01
 2.0804102403e+00	 7.6802066580e-01	-1.3350559217e-01
 2.1506827817e+00	 5.7596688568e-01	-2.1083100478e+00
 2.1453504074e+00	 5.9552152936e-01	-2.4592845289e+00
 2.1398267872e+00	 6.1507359282e-01	-2.6598788443e+00
 2.1341112923e+00	 6.3462044086e-01	-2.7212284997e+00
 2.1282033392e+00	 6.5415941470e-01	-2.6560430571e+00
 2.1221023909e+00	 6.7368783293e-01	-2.4786799592e+00
 2.1158079573e+00	 6.9320299243e-01	-2.2052271639e+00
 2.1093195965e+00	 7.1270216936e-01	-1.8535948560e+00
 2.1026369148e+00	 7.3218262013e-01	-1.4436164344e+00
 2.0957595680e+00	 7.5164158246e-01	-9.9328467473e-01
 2.0886872619e+00	 7.7107627640e-01	-5.0836464724e-01
 2.1592054782e+00	 5.7824931944e-01	-2.8377711706e+00
 2.1538519729e+00	 5.9788145400e-01	-3.1604541095e+00
 2.1483064638e+00	 6.1751099811e-01	-3.3499346113e+00
 2.1425683196e+00	 6.3713530613e-01	-3.4123850610e+00
 2.1366369545e+00	 6.5675170875e-01	-3.3554070535e+00
 2.1305118294e+00	 6.7635751393e-01	-3.1881098442e+00
 2.1241924524e+00	 6.9595000784e-01	-2.9211982198e+00
 2.1176783796e+00	 7.1552645584e-01	-2.5670700668e+00
 2.1109692158e+00	 7.3508410348e-01	-2.1399238469e+00
 2.1040646156e+00	 7.5462017753e-01	-1.6498287722e+00
 2.0969642834e+00	 7.7413188700e-01	-1.0982978437e+00
 2.0141940681e+00	 7.4357578096e-01	-3.1919593561e+00
 2.0071845475e+00	 7.6229441467e-01	-2.5580604084e+00
 1.9999865349e+00	 7.8098422584e-01	-1.8181790944e+00
 1.9925998934e+00	 7.9964248658e-01	-1.0153702493e+00
 1.9850245367e+00	 8.1826645622e-01	-1.9151733907e-01
 1.9772604297e+00	 8.3685338241e-01	 6.1273318632e-01
 1.9693075891e+00	 8.5540050234e-01	 1.3580357091e+00
 1.9611660834e+00	 8.7390504382e-01	 2.0064073175e+00
 1.9528360339e+00	 8.9236422656e-01	 2.5212876297e+00
 1.9443176149e+00	 9.1077526332e-01	 2.8675964667e+00
 1.9356110540e+00	 9.2913536115e-01	 3.0117892758e+00
 2.0224710896e+00	 7.4663139157e-01	-2.3564483080e+00
 2.0154327645e+00	 7.6542694663e-01	-1.8462097854e+00
 2.0082051727e+00	 7.8419356071e-01	-1.2811234476e+00
 2.0007881769e+00	 8.0292849471e-01	-6.8869492671e-01
 1.9931816905e+00	 8.2162899669e-01	-9.5348329238e-02
 1.9853856781e+00	 8.4029230301e-01	 4.7361665980e-01
 1.9774001565e+00	 8.5891563948e-01	 9.9406563239e-01
 1.9692251945e+00	 8.7749622254e-01	 1.4430681954e+00
 1.9608609140e+00	 8.9603126046e-01	 1.7989345188e+00
 1.9523074899e+00	 9.1451795455e-01	 2.0412496266e+00
 1.9435651507e+00	 9.3295350038e-01	 2.1509053722e+00
 2.0307481111e+00	 7.4968700217e-01	-1.6205485863e+00
 2.0236809814e+00	 7.6855947859e-01	-1.2045825559e+00
 2.0164238106e+00	 7.8740289558e-01	-7.7629682551e-01
 2.0089764605e+00	 8.0621450284e-01	-3.5099413077e-01
 2.0013388443e+00	 8.2499153717e-01	 5.7025079317e-02
 1.9935109265e+00	 8.4373122361e-01	 4.3448743462e-01
 1.9854927239e+00	 8.6243077662e-01	 7.6916923690e-01
 1.9772843057e+00	 8.8108740126e-01	 1.0499168031e+00
 1.9688857941e+00	 8.9969829436e-01	 1.2666645143e+00
 1.9602973649e+00	 9.1826064577e-01	 1.4104505331e+00
 1.9515192474e+00	 9.3677163962e-01	 1.4734301566e+00
 2.0390251327e+00	 7.5274261278e-01	-9.9948979003e-01
 2.0319291984e+00	 7.7169201055e-01	-6.4941803795e-01
 2.0246424484e+00	 7.9061223045e-01	-3.2055007122e-01
 2.0171647441e+00	 8.0950051097e-01	-1.9290315199e-02
 2.0094959981e+00	 8.2835407765e-01	 2.4889040744e-01
 2.0016361750e+00	 8.4717014421e-01	 4.7946618151e-01
 1.9935852914e+00	 8.6594591376e-01	 6.6886499509e-01
 1.9853434169e+00	 8.8467857997e-01	 8.1447539630e-01
 1.9769106742e+00	 9.0336532825e-01	 9.1465078774e-01
 1.9682872398e+00	 9.2200333700e-01	 9.6871134204e-01
 1.9594733441e+00	 9.4058977885e-01	 9.7694352909e-01
 2.0473021542e+00	 7.5579822338e-01	-5.0826411095e-01
 2.0401774154e+00	 7.7482454250e-01	-1.9670278725e-01
 2.0328610863e+00	 7.9382156532e-01	 6.9527636899e-02
 2.0253530277e+00	 8.1278651910e-01	 2.8965750601e-01
 2.0176531519e+00	 8.3171661812e-01	 4.6379259088e-01
 2.0097614234e+00	 8.5060906480e-01	 5.9291648991e-01
 2.0016778588e+00	 8.6946105090e-01	 6.7889066085e-01
 1.9934025280e+00	 8.8826975869e-01	 7.2445206688e-01
 1.9849355543e+00	 9.0703236214e-01	 7.3320842787e-01
 1.9762771148e+00	 9.2574602823e-01	 7.0963107471e-01
 1.9674274408e+00	 9.4440791808e-01	 6.5904541199e-01
 2.0555791757e+00	 7.5885383399e-01	-1.6163136706e-01
 2.0484256324e+00	 7.7795707446e-01	 1.3782405543e-01
 2.0410797241e+00	 7.9703090019e-01	 3.7760325291e-01
 2.0335413113e+00	 8.1607252723e-01	 5.5934818545e-01
 2.0258103058e+00	 8.3507915860e-01	 6.8552852341e-01
 2.0178866718e+00	 8.5404798540e-01	 7.5943969791e-01
 2.0097704262e+00	 8.7297618804e-01	 7.8519857027e-01
 2.0014616392e+00	 8.9186093740e-01	 7.6773671138e-01
 1.9929604344e+00	 9.1069939604e-01	 7.1279128906e-01
 1.9842669898e+00	 9.2948871945e-01	 6.2689356905e-01
 1.9753815375e+00	 9.4822605731e-01	 5.1735504233e-01
 2.0638561973e+00	 7.6190944459e-01	 2.5876087558e-02
 2.0566738494e+00	 7.8108960642e-01	 3.3866554738e-01
 2.0492983620e+00	 8.0024023506e-01	 5.8759446662e-01
 2.0417295949e+00	 8.1935853536e-01	 7.7353300587e-01
 2.0339674596e+00	 8.3844169907e-01	 8.9814173380e-01
 2.0260119202e+00	 8.5748690600e-01	 9.6386984914e-01
 2.0178629937e+00	 8.7649132518e-01	 9.7395105826e-01
 2.0095207504e+00	 8.9545211611e-01	 9.3239710032e-01
 2.0009853145e+00	 9.1436642993e-01	 8.4398891861e-01
 1.9922568647e+00	 9.3323141068e-01	 7.1426548416e-01
 1.9833356342e+00	 9.5204419654e-01	 5.4951028495e-01
 2.0721332188e+00	 7.6496505519e-01	 3.9948572592e-02
 2.0649220664e+00	 7.8422213838e-01	 3.9056185447e-01
 2.0575169999e+00	 8.0344956993e-01	 6.8366443867e-01
 2.0499178784e+00	 8.2264454349e-01	 9.1621037634e-01
 2.0421246134e+00	 8.4180423954e-01	 1.0859171930e+00
 2.0341371686e+00	 8.6092582659e-01	 1.1912687734e+00
 2.0259555611e+00	 8.8000646232e-01	 1.2315159878e+00
 2.0175798615e+00	 8.9904329483e-01	 1.2066750443e+00
 2.0090101946e+00	 9.1803346383e-01	 1.1175235607e+00
 2.0002467397e+00	 9.3697410190e-01	 9.6559435555e-01
 1.9912897309e+00	 9.5586233577e-01	 7.5316696517e-01
 2.0804102403e+00	 7.6802066580e-01	-1.3350559217e-01
 2.0731702834e+00	 7.8735467033e-01	 2.7848528544e-01
 2.0657356377e+00	 8.0665890480e-01	 6.5021666352e-01
 2.0581061620e+00	 8.2593055162e-01	 9.7162065767e-01
 2.0502817672e+00	 8.4516678002e-01	 1.2333762476e+00
 2.0422624170e+00	 8.6436474719e-01	 1.4269212872e+00
 2.0340481285e+00	 8.8352159946e-01	 1.5444623889e+00
 2.0256389727e+00	 9.0263447354e-01	 1.5789826546e+00
 2.0170350748e+00	 9.2170049772e-01	 1.5242472347e+00
 2.0082366147e+00	 9.4071679313e-01	 1.3748066999e+00
 1.9992438276e+00	 9.5968047500e-01	 1.1259982207e+00
 2.0886872619e+00	 7.7107627640e-01	-5.0836464724e-01
 2.0814185003e+00	 7.9048720229e-01	-1.2364553520e-02
 2.0739542756e+00	 8.0986823966e-01	 4.7188995698e-01
 2.0662944456e+00	 8.2921655974e-01	 9.2424111312e-01
 2.0584389210e+00	 8.4852932049e-01	 1.3252716769e+00
 2.0503876654e+00	 8.6780366778e-01	 1.6563305113e+00
 2.0421406960e+00	 8.8703673660e-01	 1.8995562035e+00
 2.0336980839e+00	 9.0622565226e-01	 2.0378986955e+00
 2.0250599549e+00	 9.2536753162e-01	 2.0551388862e+00
 2.0162264897e+00	 9.4445948435e-01	 1.9359061679e+00
 2.0071979243e+00	 9.6349861423e-01	 1.6656938719e+00
 2.0969642834e+00	 7.7413188700e-01	-1.0982978437e+00
 2.0896667173e+00	 7.9361973424e-01	-4.9656548731e-01
 2.0821729134e+00	 8.1307757453e-01	 1.3355356483e-01
 2.0744827292e+00	 8.3250256787e-01	 7.5878098129e-01
 2.0665960749e+00	 8.5189186097e-01	 1.3465828687e+00
 2.0585129138e+00	 8.7124258838e-01	 1.8652133015e+00
 2.0502332634e+00	 8.9055187374e-01	 2.2837561344e+00
 2.0417571950e+00	 9.0981683097e-01	 2.5721650260e+00
 2.0330848350e+00	 9.2903456551e-01	 2.7013016086e+00
 2.0242163646e+00	 9.4820217558e-01	 2.6429717443e+00
 2.0151520210e+00	 9.6731675346e-01	 2.3699598107e+00
 1.9356110540e+00	 9.2913536115e-01	 3.0117892758e+00
 1.9267181602e+00	 9.4743861547e-01	 3.0483467160e+00
 1.9176378033e+00	 9.6568535156e-01	 3.0976494476e+00
 1.9083703716e+00	 9.8387276730e-01	 3.1653096922e+00
 1.8989163076e+00	 1.0019980599e+00	 3.2557675756e+00
 1.8892761086e+00	 1.0200584271e+00	 3.3722605961e+00
 1.8794503267e+00	 1.0380510688e+00	 3.5167936019e+00
 1.8694395692e+00	 1.0559731879e+00	 3.6901093761e+00
 1.8592444984e+00	 1.0738219920e+00	 3.8916599339e+00
 1.8488658317e+00	 1.0915946945e+00	 4.1178633952e+00
 1.8383043418e+00	 1.1092885163e+00	 4.3385767387e+00
 1.9435651507e+00	 9.3295350038e-01	 2.1509053722e+00
 1.9346357129e+00	 9.5133196912e-01	 2.2174510714e+00
 1.9255180417e+00	 9.6965368737e-01	 2.3389191041e+00
 1.9162125269e+00	 9.8791584150e-01	 2.5091949328e+00
 1.9067196129e+00	 1.0061156172e+00	 2.7212067652e+00
 1.8970397989e+00	 1.0242502008e+00	 2.9669127411e+00
 1.8871736395e+00	 1.0423167804e+00	 3.2372884973e+00
 1.8771217444e+00	 1.0603125477e+00	 3.5223151790e+00
 1.8668847785e+00	 1.0782346987e+00	 3.8109679716e+00
 1.8564634622e+00	 1.0960804354e+00	 4.0912052293e+00
 1.8458585715e+00	 1.1138469673e+00	 4.3437552628e+00
 1.9515192474e+00	 9.3677163962e-01	 1.4734301566e+00
 1.9425532656e+00	 9.5522532277e-01	 1.5414692323e+00
 1.9333982801e+00	 9.7362202318e-01	 1.6961749082e+00
 1.9240546822e+00	 9.9195891571e-01	 1.9235628838e+00
 1.9145229181e+00	 1.0102331745e+00	 2.2088669334e+00
 1.9048034893e+00	 1.0284419744e+00	 2.5365381589e+00
 1.8948969523e+00	 1.0465824920e+00	 2.8902444850e+00
 1.8848039195e+00	 1.0646519075e+00	 3.2528704468e+00
 1.8745250585e+00	 1.0826474054e+00	 3.6065173210e+00
 1.8640610927e+00	 1.1005661764e+00	 3.9325036576e+00
 1.8534128012e+00	 1.1184054183e+00	 4.2111628734e+00
 1.9594733441e+00	 9.4058977885e-01	 9.7694352909e-01
 1.9504708183e+00	 9.5911867641e-01	 1.0220994022e+00
 1.9412785184e+00	 9.7759035899e-01	 1.1745488506e+00
 1.9318968375e+00	 9.9600198991e-01	 1.4162479187e+00
 1.9223262234e+00	 1.0143507318e+00	 1.7285068494e+00
 1.9125671796e+00	 1.0326337480e+00	 2.0919957884e+00
 1.9026202651e+00	 1.0508482037e+00	 2.4867505932e+00
 1.8924860946e+00	 1.0689912674e+00	 2.8921787836e+00
 1.8821653385e+00	 1.0870601122e+00	 3.2870656764e+00
 1.8716587232e+00	 1.1050519173e+00	 3.6495807463e+00
 1.8609670309e+00	 1.1229638693e+00	 3.9566403688e+00
 1.9674274408e+00	 9.4440791808e-01	 6.5904541199e-01
 1.9583883710e+00	 9.6301203006e-01	 6.6099214193e-01
 1.9491587568e+00	 9.8155869480e-01	 7.7906868100e-01
 1.9397389928e+00	 1.0000450641e+00	 9.9493539749e-01
 1.9301295287e+00	 1.0184682891e+00	 1.2897040764e+00
 1.9203308700e+00	 1.0368255216e+00	 1.6439445000e+00
 1.9103435779e+00	 1.0551139153e+00	 2.0376909906e+00
 1.9001682698e+00	 1.0733306272e+00	 2.4504489510e+00
 1.8898056186e+00	 1.0914728189e+00	 2.8612014428e+00
 1.8792563537e+00	 1.1095376583e+00	 3.2484158423e+00
 1.8685212605e+00	 1.1275223202e+00	 3.5886112253e+00
 1.9753815375e+00	 9.4822605731e-01	 5.1735504233e-01
 1.9663059237e+00	 9.6690538371e-01	 4.5975101967e-01
 1.9570389952e+00	 9.8552703061e-01	 5.1465969303e-01
 1.9475811480e+00	 1.0040881383e+00	 6.6716434815e-01
 1.9379328339e+00	 1.0225858465e+00	 9.0185829685e-01
 1.9280945603e+00	 1.0410172952e+00	 1.2028467950e+00
 1.9180668907e+00	 1.0593796269e+00	 1.5537487773e+00
 1.9078504449e+00	 1.0776699870e+00	 1.9376984521e+00
 1.8974458986e+00	 1.0958855257e+00	 2.3373468003e+00
 1.8868539842e+00	 1.1140233992e+00	 2.7348312010e+00
 1.8760754902e+00	 1.1320807712e+00	 3.1092521319e+00
 1.9833356342e+00	 9.5204419654e-01	 5.4951028495e-01
 1.9742234764e+00	 9.7079873735e-01	 4.1993324908e-01
 1.9649192336e+00	 9.8949536642e-01	 3.8614646934e-01
 1.9554233033e+00	 1.0081312125e+00	 4.4033008685e-01
 1.9457361392e+00	 1.0267034038e+00	 5.7419456029e-01
 1.9358582506e+00	 1.0452090689e+00	 7.7897241969e-01
 1.9257902035e+00	 1.0636453385e+00	 1.0454096887e+00
 1.9155326200e+00	 1.0820093468e+00	 1.3637570336e+00
 1.9050861787e+00	 1.1002982324e+00	 1.7237606999e+00
 1.8944516148e+00	 1.1185091402e+00	 2.1144082032e+00
 1.8836297199e+00	 1.1366392222e+00	 2.5206748695e+00
 1.9912897309e+00	 9.5586233577e-01	 7.5316696517e-01
 1.9821410291e+00	 9.7469209100e-01	 5.4305031504e-01
 1.9727994719e+00	 9.9346370223e-01	 3.9825458863e-01
 1.9632654586e+00	 1.0121742867e+00	 3.2168677917e-01
 1.9535394444e+00	 1.0308209611e+00	 3.1576645757e-01
 1.9436219410e+00	 1.0494008425e+00	 3.8240189692e-01
 1.9335135163e+00	 1.0679110502e+00	 5.2296571373e-01
 1.9232147951e+00	 1.0863487066e+00	 7.3827010820e-01
 1.9127264587e+00	 1.1047109392e+00	 1.0285417903e+00
 1.9020492453e+00	 1.1229948811e+00	 1.3926617949e+00
 1.8911839496e+00	 1.1411976732e+00	 1.8249281278e+00
 1.9992438276e+00	 9.5968047500e-01	 1.1259982207e+00
 1.9900585818e+00	 9.7858544465e-01	 8.3056858800e-01
 1.9806797103e+00	 9.9743203804e-01	 5.5561229524e-01
 1.9711076139e+00	 1.0162173609e+00	 3.1834994359e-01
 1.9613427497e+00	 1.0349385184e+00	 1.3545922274e-01
 1.9513856313e+00	 1.0535926161e+00	 2.3029976705e-02
 1.9412368291e+00	 1.0721767618e+00	-3.4813686754e-03
 1.9308969703e+00	 1.0906880665e+00	 7.0702098829e-02
 1.9203667388e+00	 1.1091236459e+00	 2.5963128032e-01
 1.9096468758e+00	 1.1274806220e+00	 5.7499731330e-01
 1.8987381793e+00	 1.1457561242e+00	 1.0239993026e+00
 2.0071979243e+00	 9.6349861423e-01	 1.6656938719e+00
 1.9979761345e+00	 9.8247879829e-01	 1.2839099270e+00
 1.9885599487e+00	 1.0014003738e+00	 8.6275213251e-01
 1.9789497692e+00	 1.0202604351e+00	 4.3729889907e-01
 1.9691460550e+00	 1.0390560757e+00	 4.1992764943e-02
 1.9591493217e+00	 1.0577843897e+00	-2.8943099107e-01
 1.9489601419e+00	 1.0764424734e+00	-5.2401653333e-01
 1.9385791454e+00	 1.0950274263e+00	-6.2966029239e-01
 1.9280070188e+00	 1.1135363527e+00	-5.7520889683e-01
 1.9172445063e+00	 1.1319663630e+00	-3.3329406484e-01
 1.9062924090e+00	 1.1503145752e+00	 1.1981627484e-01
 2.0151520210e+00	 9.6731675346e-01	 2.3699598107e+00
 2.0058936872e+00	 9.8637215194e-01	 1.9044522719e+00
 1.9964401871e+00	 1.0053687097e+00	 1.3241125409e+00
 1.9867919245e+00	 1.0243035093e+00	 6.8537915823e-01
 1.9769493602e+00	 1.0431736330e+00	 4.3924632138e-02
 1.9669130120e+00	 1.0619761634e+00	-5.4544776026e-01
 1.9566834547e+00	 1.0807081850e+00	-1.0289081309e+00
 1.9462613205e+00	 1.0993667861e+00	-1.3537048887e+00
 1.9356472989e+00	 1.1179490594e+00	-1.4684974740e+00
 1.9248421368e+00	 1.1364521039e+00	-1.3270325390e+00
 1.9138466387e+00	 1.1548730262e+00	-8.8575082900e-01
 1.8383043418e+00	 1.1092885163e+00	 4.3385767387e+00
 1.8275608570e+00	 1.1269006870e+00	 4.4241829624e+00
 1.8166362624e+00	 1.1444284477e+00	 4.2768554991e+00
 1.8055314987e+00	 1.1618690513e+00	 3.9322962655e+00
 1.7942475614e+00	 1.1792197631e+00	 3.4271885682e+00
 1.7827855005e+00	 1.1964778629e+00	 2.7990429378e+00
 1.7711464208e+00	 1.2136406457e+00	 2.0860431169e+00
 1.7593314809e+00	 1.2307054234e+00	 1.3268853594e+00
 1.7473418936e+00	 1.2476695257e+00	 5.6061183552e-01
 1.7351789251e+00	 1.2645303022e+00	-1.7356101798e-01
 1.7228438950e+00	 1.2812851231e+00	-8.3641832493e-01
 1.8458585715e+00	 1.1138469673e+00	 4.3437552628e+00
 1.8350709380e+00	 1.1315315125e+00	 4.4136058357e+00
 1.8241014505e+00	 1.1491313009e+00	 4.2093747633e+00
 1.8129510535e+00	 1.1666435739e+00	 3.7761803883e+00
 1.8016207465e+00	 1.1840655858e+00	 3.1600431330e+00
 1.7901115841e+00	 1.2013946052e+00	 2.4077218563e+00
 1.7784246753e+00	 1.2186279158e+00	 1.5665426312e+00
 1.7665611837e+00	 1.2357628185e+00	 6.8422073366e-01
 1.7545223270e+00	 1.2527966322e+00	-1.9132331840e-01
 1.7423093767e+00	 1.2697266955e+00	-1.0121527916e+00
 1.7299236577e+00	 1.2865503678e+00	-1.7305079049e+00
 1.8534128012e+00	 1.1184054183e+00	 4.2111628734e+00
 1.8425810190e+00	 1.1361623380e+00	 4.2962455410e+00
 1.8315666385e+00	 1.1538341540e+00	 4.0799144437e+00
 1.8203706082e+00	 1.1714180965e+00	 3.6124155560e+00
 1.8089939316e+00	 1.1889114086e+00	 2.9452522257e+00
 1.7974376676e+00	 1.2063113474e+00	 2.1306217708e+00
 1.7857029298e+00	 1.2236151859e+00	 1.2212325673e+00
 1.7737908865e+00	 1.2408202136e+00	 2.7011421930e-01
 1.7617027605e+00	 1.2579237387e+00	-6.6957831584e-01
 1.7494398283e+00	 1.2749230888e+00	-1.5447657251e+00
 1.7370034204e+00	 1.2918156124e+00	-2.3026494998e+00
 1.8609670309e+00	 1.1229638693e+00	 3.9566403688e+00
 1.8500910999e+00	 1.1407931635e+00	 4.0717570613e+00
 1.8390318265e+00	 1.1585370072e+00	 3.8847464792e+00
 1.8277901629e+00	 1.1761926191e+00	 3.4345059245e+00
 1.8163671167e+00	 1.1937572313e+00	 2.7742145052e+00
 1.8047637511e+00	 1.2112280896e+00	 1.9577448196e+00
 1.7929811843e+00	 1.2286024559e+00	 1.0394738372e+00
 1.7810205893e+00	 1.2458776088e+00	 7.4086699660e-02
 1.7688831939e+00	 1.2630508453e+00	-8.8362565367e-01
 1.7565702799e+00	 1.2801194821e+00	-1.7789740901e+00
 1.7440831831e+00	 1.2970808571e+00	-2.5575831273e+00
 1.8685212605e+00	 1.1275223202e+00	 3.5886112253e+00
 1.8576011809e+00	 1.1454239890e+00	 3.7444981496e+00
 1.8464970146e+00	 1.1632398603e+00	 3.6202073455e+00
 1.8352097176e+00	 1.1809671418e+00	 3.2360625997e+00
 1.8237403018e+00	 1.1986030540e+00	 2.6384672578e+00
 1.8120898346e+00	 1.2161448319e+00	 1.8792519690e+00
 1.8002594388e+00	 1.2335897260e+00	 1.0107941670e+00
 1.7882502922e+00	 1.2509350039e+00	 8.5820916114e-02
 1.7760636274e+00	 1.2681779518e+00	-8.4279459189e-01
 1.7637007315e+00	 1.2853158754e+00	-1.7222419217e+00
 1.7511629458e+00	 1.3023461018e+00	-2.4999866517e+00
 1.8760754902e+00	 1.1320807712e+00	 3.1092521319e+00
 1.8651112619e+00	 1.1500548145e+00	 3.3244883399e+00
 1.8539622026e+00	 1.1679427135e+00	 3.2832311232e+00
 1.8426292723e+00	 1.1857416644e+00	 3.0108001341e+00
 1.8311134869e+00	 1.2034488767e+00	 2.5296821850e+00
 1.8194159182e+00	 1.2210615741e+00	 1.8854583224e+00
 1.8075376933e+00	 1.2385769960e+00	 1.1248831761e+00
 1.7954799950e+00	 1.2559923991e+00	 2.9515657705e-01
 1.7832440609e+00	 1.2733050583e+00	-5.5627573815e-01
 1.7708311831e+00	 1.2905122687e+00	-1.3819270048e+00
 1.7582427084e+00	 1.3076113464e+00	-2.1344788691e+00
 1.8836297199e+00	 1.1366392222e+00	 2.5206748695e+00
 1.8726213429e+00	 1.1546856400e+00	 2.8105281628e+00
 1.8614273907e+00	 1.1726455666e+00	 2.8795988371e+00
 1.8500488270e+00	 1.1905161870e+00	 2.7525330821e+00
 1.8384866720e+00	 1.2082946994e+00	 2.4396612654e+00
 1.8267420017e+00	 1.2259783163e+00	 1.9668285162e+00
 1.8148159478e+00	 1.2435642661e+00	 1.3715875454e+00
 1.8027096978e+00	 1.2610497942e+00	 6.9208555551e-01
 1.7904244943e+00	 1.2784321648e+00	-3.3125551666e-02
 1.7779616348e+00	 1.2957086620e+00	-7.6528479658e-01
 1.7653224711e+00	 1.3128765911e+00	-1.4656225490e+00
 1.8911839496e+00	 1.1411976732e+00	 1.8249281278e+00
 1.8801314239e+00	 1.1593164655e+00	 2.2009410329e+00
 1.8688925787e+00	 1.1773484197e+00	 2.4081682645e+00
 1.8574683818e+00	 1.1952907097e+00	 2.4582997540e+00
 1.8458598571e+00	 1.2131405222e+00	 2.3603326899e+00
 1.8340680852e+00	 1.2308950586e+00	 2.1139721976e+00
 1.8220942023e+00	 1.2485515361e+00	 1.7409062743e+00
 1.8099394007e+00	 1.2661071893e+00	 1.2667471731e+00
 1.7976049278e+00	 1.2835592713e+00	 7.1772923115e-01
 1.7850920864e+00	 1.3009050553e+00	 1.2052771586e-01
 1.7724022338e+00	 1.3181418357e+00	-4.9792743406e-01
 1.8987381793e+00	 1.1457561242e+00	 1.0239993026e+00
 1.8876415049e+00	 1.1639472910e+00	 1.4940488073e+00
 1.8763577667e+00	 1.1820512729e+00	 1.8641226609e+00
 1.8648879365e+00	 1.2000652323e+00	 2.1289727573e+00
 1.8532330423e+00	 1.2179863449e+00	 2.2838932580e+00
 1.8413941687e+00	 1.2358118008e+00	 2.3176395837e+00
 1.8293724569e+00	 1.2535388062e+00	 2.2229860221e+00
 1.8171691035e+00	 1.2711645845e+00	 2.0094235676e+00
 1.8047853612e+00	 1.2886863779e+00	 1.6874872472e+00
 1.7922225380e+00	 1.3061014486e+00	 1.2684482192e+00
 1.7794819965e+00	 1.3234070804e+00	 7.6414680110e-01
 1.9062924090e+00	 1.1503145752e+00	 1.1981627484e-01
 1.8951515858e+00	 1.1685781165e+00	 6.8817243504e-01
 1.8838229548e+00	 1.1867541260e+00	 1.2426946563e+00
 1.8723074912e+00	 1.2048397549e+00	 1.7576099595e+00
 1.8606062274e+00	 1.2228321676e+00	 2.2078784952e+00
 1.8487202523e+00	 1.2407285430e+00	 2.5687170981e+00
 1.8366507114e+00	 1.2585260763e+00	 2.8081165326e+00
 1.8243988063e+00	 1.2762219796e+00	 2.9105351420e+00
 1.8119657947e+00	 1.2938134844e+00	 2.8674682315e+00
 1.7993529896e+00	 1.3112978419e+00	 2.6715053382e+00
 1.7865617592e+00	 1.3286723250e+00	 2.3161876303e+00
 1.9138466387e+00	 1.1548730262e+00	-8.8575082900e-01
 1.9026616668e+00	 1.1732089420e+00	-2.1836738356e-01
 1.8912881428e+00	 1.1914569792e+00	 5.3916597771e-01
 1.8797270459e+00	 1.2096142776e+00	 1.3370063448e+00
 1.8679794125e+00	 1.2276779903e+00	 2.1262701446e+00
 1.8560463358e+00	 1.2456452853e+00	 2.8592061502e+00
 1.8439289659e+00	 1.2635133463e+00	 3.4867261388e+00
 1.8316285092e+00	 1.2812793748e+00	 3.9606360930e+00
 1.8191462282e+00	 1.2989405909e+00	 4.2491088134e+00
 1.8064834412e+00	 1.3164942352e+00	 4.3228149577e+00
 1.7936415219e+00	 1.3339375697e+00	 4.1538267949e+00
 1.7228438950e+00	 1.2812851231e+00	-8.3641832493e-01
 1.7103360360e+00	 1.2979341998e+00	-1.3329364065e+00
 1.6976588619e+00	 1.3144720812e+00	-1.6124411160e+00
 1.6848138569e+00	 1.3308961970e+00	-1.7025135964e+00
 1.6718025565e+00	 1.3472040028e+00	-1.6306022814e+00
 1.6586265470e+00	 1.3633929816e+00	-1.4241068159e+00
 1.6452874651e+00	 1.3794606450e+00	-1.1104612550e+00
 1.6317869967e+00	 1.3954045341e+00	-7.1721570672e-01
 1.6181268767e+00	 1.4112222214e+00	-2.7211558731e-01
 1.6043088881e+00	 1.4269113115e+00	 1.9682232979e-01
 1.5903348611e+00	 1.4424694423e+00	 6.6123787454e-01
 1.7299236577e+00	 1.2865503678e+00	-1.7305079049e+00
 1.7173643996e+00	 1.3032678613e+00	-2.2397819218e+00
 1.7046351306e+00	 1.3198737025e+00	-2.4875182928e+00
 1.6917373410e+00	 1.3363653107e+00	-2.5076172503e+00
 1.6786725726e+00	 1.3527401310e+00	-2.3338449749e+00
 1.6654424184e+00	 1.3689956359e+00	-1.9999121871e+00
 1.6520485216e+00	 1.3851293269e+00	-1.5395519693e+00
 1.6384925751e+00	 1.4011387350e+00	-9.8659597222e-01
 1.6247763209e+00	 1.4170214227e+00	-3.7504816599e-01
 1.6109015494e+00	 1.4327749846e+00	 2.6084469244e-01
 1.5968700983e+00	 1.4483970492e+00	 8.8652668850e-01
 1.7370034204e+00	 1.2918156124e+00	-2.3026494998e+00
 1.7243927632e+00	 1.3086015228e+00	-2.8264460832e+00
 1.7116113993e+00	 1.3252753239e+00	-3.0592325210e+00
 1.6986608251e+00	 1.3418344245e+00	-3.0385518526e+00
 1.6855425888e+00	 1.3582762592e+00	-2.8018323072e+00
 1.6722582897e+00	 1.3745982903e+00	-2.3864644111e+00
 1.6588095780e+00	 1.3907980088e+00	-1.8298772567e+00
 1.6451981534e+00	 1.4068729359e+00	-1.1696130707e+00
 1.6314257651e+00	 1.4228206239e+00	-4.4339922447e-01
 1.6174942106e+00	 1.4386386577e+00	 3.1078315793e-01
 1.6034053354e+00	 1.4543246561e+00	 1.0546348212e+00
 1.7440831831e+00	 1.2970808571e+00	-2.5575831273e+00
 1.7314211267e+00	 1.3139351842e+00	-3.0944760672e+00
 1.7185876679e+00	 1.3306769453e+00	-3.3262083495e+00
 1.7055843091e+00	 1.3473035382e+00	-3.2913207648e+00
 1.6924126049e+00	 1.3638123873e+00	-3.0282789441e+00
 1.6790741611e+00	 1.3802009446e+00	-2.5755528034e+00
 1.6655706344e+00	 1.3964666907e+00	-1.9716950613e+00
 1.6519037317e+00	 1.4126071367e+00	-1.2554179428e+00
 1.6380752093e+00	 1.4286198251e+00	-4.6566718934e-01
 1.6240868719e+00	 1.4445023309e+00	 3.5830749117e-01
 1.6099405725e+00	 1.4602522630e+00	 1.1768863860e+00
 1.7511629458e+00	 1.3023461018e+00	-2.4999866517e+00
 1.7384494903e+00	 1.3192688457e+00	-3.0454107145e+00
 1.7255639366e+00	 1.3360785667e+00	-3.2871113600e+00
 1.7125077932e+00	 1.3527726520e+00	-3.2620127828e+00
 1.6992826210e+00	 1.3693485155e+00	-3.0070239062e+00
 1.6858900324e+00	 1.3858035989e+00	-2.5591239629e+00
 1.6723316909e+00	 1.4021353726e+00	-1.9554470394e+00
 1.6586093101e+00	 1.4183413376e+00	-1.2333646673e+00
 1.6447246534e+00	 1.4344190263e+00	-4.3056555172e-01
 1.6306795332e+00	 1.4503660040e+00	 4.1486845965e-01
 1.6164758097e+00	 1.4661798698e+00	 1.2643910466e+00
 1.7582427084e+00	 1.3076113464e+00	-2.1344788691e+00
 1.7454778539e+00	 1.3246025072e+00	-2.6807825949e+00
 1.7325402052e+00	 1.3414801880e+00	-2.9406492994e+00
 1.7194312773e+00	 1.3582417657e+00	-2.9468024356e+00
 1.7061526372e+00	 1.3748846437e+00	-2.7320301420e+00
 1.6927059038e+00	 1.3914062532e+00	-2.3292807368e+00
 1.6790927473e+00	 1.4078040545e+00	-1.7717570446e+00
 1.6653148884e+00	 1.4240755385e+00	-1.0930086055e+00
 1.6513740976e+00	 1.4402182276e+00	-3.2702081757e-01
 1.6372721944e+00	 1.4562296772e+00	 4.9169991889e-01
 1.6230110468e+00	 1.4721074767e+00	 1.3280459702e+00
 1.7653224711e+00	 1.3128765911e+00	-1.4656225490e+00
 1.7525062174e+00	 1.3299361687e+00	-2.0021200547e+00
 1.7395164739e+00	 1.3468818094e+00	-2.2855732191e+00
 1.7263547614e+00	 1.3637108795e+00	-2.3419503108e+00
 1.7130226533e+00	 1.3804207719e+00	-2.1973841453e+00
 1.6995217752e+00	 1.3970089075e+00	-1.8782812450e+00
 1.6858538038e+00	 1.4134727364e+00	-1.4114296848e+00
 1.6720204668e+00	 1.4298097394e+00	-8.2410462497e-01
 1.6580235418e+00	 1.4460174288e+00	-1.4417054327e-01
 1.6438648557e+00	 1.4620933503e+00	 5.9982081140e-01
 1.6295462840e+00	 1.4780350836e+00	 1.3785376982e+00
 1.7724022338e+00	 1.3181418357e+00	-4.9792743406e-01
 1.7595345810e+00	 1.3352698302e+00	-1.0109492467e+00
 1.7464927426e+00	 1.3522834308e+00	-1.3206786173e+00
 1.7332782455e+00	 1.3691799933e+00	-1.4438034042e+00
 1.7198926695e+00	 1.3859569001e+00	-1.3972956141e+00
 1.7063376465e+00	 1.4026115618e+00	-1.1985379622e+00
 1.6926148602e+00	 1.4191414183e+00	-8.6544894829e-01
 1.6787260451e+00	 1.4355439402e+00	-4.1660540150e-01
 1.6646729859e+00	 1.4518166300e+00	 1.2863854598e-01
 1.6504575170e+00	 1.4679570234e+00	 7.5003708144e-01
 1.6360815211e+00	 1.4839626905e+00	 1.4262870875e+00
 1.7794819965e+00	 1.3234070804e+00	 7.6414680110e-01
 1.7665629446e+00	 1.3406034917e+00	 2.9120385735e-01
 1.7534690112e+00	 1.3576850521e+00	-4.4806588253e-02
 1.7402017296e+00	 1.3746491070e+00	-2.4879549488e-01
 1.7267626856e+00	 1.3914930283e+00	-3.2609715283e-01
 1.7131535179e+00	 1.4082142161e+00	-2.8261685527e-01
 1.6993759167e+00	 1.4248101002e+00	-1.2497689703e-01
 1.6854316234e+00	 1.4412781411e+00	 1.3934020375e-01
 1.6713224301e+00	 1.4576158313e+00	 5.0185235723e-01
 1.6570501782e+00	 1.4738206966e+00	 9.5294350798e-01
 1.6426167583e+00	 1.4898902974e+00	 1.4810260691e+00
 1.7865617592e+00	 1.3286723250e+00	 2.3161876303e+00
 1.7735913081e+00	 1.3459371531e+00	 1.9028114699e+00
 1.7604452799e+00	 1.3630866735e+00	 1.5431550254e+00
 1.7471252137e+00	 1.3801182208e+00	 1.2465524570e+00
 1.7336327017e+00	 1.3970291564e+00	 1.0217559866e+00
 1.7199693892e+00	 1.4138168704e+00	 8.7676342417e-01
 1.7061369731e+00	 1.4304787821e+00	 8.1864757433e-01
 1.6921372018e+00	 1.4470123420e+00	 8.5338869306e-01
 1.6779718743e+00	 1.4634150325e+00	 9.8571115253e-01
 1.6636428395e+00	 1.4796843697e+00	 1.2189254581e+00
 1.6491519954e+00	 1.4958179043e+00	 1.5525538587e+00
 1.7936415219e+00	 1.3339375697e+00	 4.1538267949e+00
 1.7806196717e+00	 1.3512708146e+00	 3.8223420072e+00
 1.7674215486e+00	 1.3684882949e+00	 3.4442704747e+00
 1.7540486977e+00	 1.3855873345e+00	 3.0456318882e+00
 1.7405027179e+00	 1.4025652846e+00	 2.6516861236e+00
 1.7267852606e+00	 1.4194195247e+00	 2.2867322949e+00
 1.7128980295e+00	 1.4361474640e+00	 1.9739099159e+00
 1.6988427801e+00	 1.4527465428e+00	 1.7350034098e+00
 1.6846213184e+00	 1.4692142337e+00	 1.5902511956e+00
 1.6702355008e+00	 1.4855480428e+00	 1.5579964873e+00
 1.6556872326e+00	 1.5017455112e+00	 1.6505639672e+00
 1.5903348611e+00	 1.4424694423e+00	 6.6123787454e-01
 1.5762090829e+00	 1.4578916803e+00	 1.0750120632e+00
 1.5619310921e+00	 1.4731784118e+00	 1.4193837055e+00
 1.5475028298e+00	 1.4883274084e+00	 1.7048101747e+00
 1.5329262812e+00	 1.5033364797e+00	 1.9369277640e+00
 1.5182034744e+00	 1.5182034744e+00	 2.1217156411e+00
 1.5033364797e+00	 1.5329262812e+00	 2.2647542027e+00
 1.4883274084e+00	 1.5475028298e+00	 2.3707882494e+00
 1.4731784118e+00	 1.5619310921e+00	 2.4329556990e+00
 1.4578916803e+00	 1.5762090829e+00	 2.4013884700e+00
 1.4424694423e+00	 1.5903348611e+00	 2.2749583184e+00
 1.5968700983e+00	 1.4483970492e+00	 8.8652668850e-01
 1.5826862724e+00	 1.4638826625e+00	 1.4446174476e+00
 1.5683496083e+00	 1.4792322124e+00	 1.9095666074e+00
 1.5538620553e+00	 1.4944434615e+00	 2.2911719754e+00
 1.5392256065e+00	 1.5095142103e+00	 2.5957071711e+00
 1.5244422987e+00	 1.5244422987e+00	 2.8304484169e+00
 1.5095142103e+00	 1.5392256065e+00	 3.0018700014e+00
 1.4944434615e+00	 1.5538620553e+00	 3.1157019372e+00
 1.4792322124e+00	 1.5683496083e+00	 3.1762365152e+00
 1.4638826625e+00	 1.5826862724e+00	 3.1432284085e+00
 1.4483970492e+00	 1.5968700983e+00	 2.9977950462e+00
 1.6034053354e+00	 1.4543246561e+00	 1.0546348212e+00
 1.5891634618e+00	 1.4698736447e+00	 1.7216095911e+00
 1.5747681245e+00	 1.4852860131e+00	 2.2793642353e+00
 1.5602212807e+00	 1.5005595147e+00	 2.7360054211e+00
 1.5455249319e+00	 1.5156919410e+00	 3.0989712941e+00
 1.5306811229e+00	 1.5306811229e+00	 3.3758300855e+00
 1.5156919410e+00	 1.5455249319e+00	 3.5733866718e+00
 1.5005595147e+00	 1.5602212807e+00	 3.6977849753e+00
 1.4852860131e+00	 1.5747681245e+00	 3.7546089522e+00
 1.4698736447e+00	 1.5891634618e+00	 3.7287500770e+00
 1.4543246561e+00	 1.6034053354e+00	 3.5782664637e+00
 1.6099405725e+00	 1.4602522630e+00	 1.1768863860e+00
 1.5956406512e+00	 1.4758646269e+00	 1.9166438972e+00
 1.5811866407e+00	 1.4913398138e+00	 2.5381224902e+00
 1.5665805062e+00	 1.5066755679e+00	 3.0481529951e+00
 1.5518242573e+00	 1.5218696716e+00	 3.4545510161e+00
 1.5369199472e+00	 1.5369199472e+00	 3.7645866031e+00
 1.5218696716e+00	 1.5518242573e+00	 3.9848381659e+00
 1.5066755679e+00	 1.5665805062e+00	 4.1212985621e+00
 1.4913398138e+00	 1.5811866407e+00	 4.1794795456e+00
 1.4758646269e+00	 1.5956406512e+00	 4.1598440085e+00
 1.4602522630e+00	 1.6099405725e+00	 4.0167724061e+00
 1.6164758097e+00	 1.4661798698e+00	 1.2643910466e+00
 1.6021178406e+00	 1.4818556091e+00	 2.0401700944e+00
 1.5876051569e+00	 1.4973936145e+00	 2.6953397251e+00
 1.5729397317e+00	 1.5127916210e+00	 3.2362579708e+00
 1.5581235827e+00	 1.5280474023e+00	 3.6700946828e+00
 1.5431587715e+00	 1.5431587715e+00	 4.0032794956e+00
 1.5280474023e+00	 1.5581235827e+00	 4.2416134381e+00
 1.5127916210e+00	 1.5729397317e+00	 4.3903795477e+00
 1.4973936145e+00	 1.5876051569e+00	 4.4544516216e+00
 1.4818556091e+00	 1.6021178406e+00	 4.4384002715e+00
 1.4661798698e+00	 1.6164758097e+00	 4.3137151434e+00
 1.6230110468e+00	 1.4721074767e+00	 1.3280459702e+00
 1.6085950301e+00	 1.4878465913e+00	 2.1020615285e+00
 1.5940236731e+00	 1.5034474152e+00	 2.7603470009e+00
 1.5792989572e+00	 1.5189076742e+00	 3.3087692957e+00
 1.5644229081e+00	 1.5342251329e+00	 3.7530726836e+00
 1.5493975958e+00	 1.5493975958e+00	 4.0983101035e+00
 1.5342251329e+00	 1.5644229081e+00	 4.3489603240e+00
 1.5189076742e+00	 1.5792989572e+00	 4.5090439179e+00
 1.5034474152e+00	 1.5940236731e+00	 4.5822371575e+00
 1.4878465913e+00	 1.6085950301e+00	 4.5719829713e+00
 1.4721074767e+00	 1.6230110468e+00	 4.4694969023e+00
 1.6295462840e+00	 1.4780350836e+00	 1.3785376982e+00
 1.6150722195e+00	 1.4938375735e+00	 2.1119589517e+00
 1.6004421894e+00	 1.5095012159e+00	 2.7422712699e+00
 1.5856581827e+00	 1.5250237274e+00	 3.2739464096e+00
 1.5707222335e+00	 1.5404028635e+00	 3.7107819744e+00
 1.5556364200e+00	 1.5556364200e+00	 4.0559237780e+00
 1.5404028635e+00	 1.5707222335e+00	 4.3119893792e+00
 1.5250237274e+00	 1.5856581827e+00	 4.4811902488e+00
 1.5095012159e+00	 1.6004421894e+00	 4.5654516461e+00
 1.4938375735e+00	 1.6150722195e+00	 4.5665293180e+00
 1.4780350836e+00	 1.6295462840e+00	 4.4845173917e+00
 1.6360815211e+00	 1.4839626905e+00	 1.4262870875e+00
 1.6215494089e+00	 1.4998285557e+00	 2.0795441870e+00
 1.6068607056e+00	 1.5155550166e+00	 2.6500403850e+00
 1.5920174081e+00	 1.5311397805e+00	 3.1398639985e+00
 1.5770215589e+00	 1.5465805942e+00	 3.5503505439e+00
 1.5618752443e+00	 1.5618752443e+00	 3.8822140281e+00
 1.5465805942e+00	 1.5770215589e+00	 4.1356776789e+00
 1.5311397805e+00	 1.5920174081e+00	 4.3106031315e+00
 1.5155550166e+00	 1.6068607056e+00	 4.4066171204e+00
 1.4998285557e+00	 1.6215494089e+00	 4.4232347596e+00
 1.4839626905e+00	 1.6360815211e+00	 4.3599785355e+00
 1.6426167583e+00	 1.4898902974e+00	 1.4810260691e+00
 1.6280265984e+00	 1.5058195380e+00	 2.0142923090e+00
 1.6132792218e+00	 1.5216088173e+00	 2.4923880410e+00
 1.5983766336e+00	 1.5372558337e+00	 2.9144166880e+00
 1.5833208843e+00	 1.5527583248e+00	 3.2787418260e+00
 1.5681140686e+00	 1.5681140686e+00	 3.5831266226e+00
 1.5527583248e+00	 1.5833208843e+00	 3.8248725802e+00
 1.5372558337e+00	 1.5983766336e+00	 4.0009565679e+00
 1.5216088173e+00	 1.6132792218e+00	 4.1081651595e+00
 1.5058195380e+00	 1.6280265984e+00	 4.1432253290e+00
 1.4898902974e+00	 1.6426167583e+00	 4.1029305988e+00
 1.6491519954e+00	 1.4958179043e+00	 1.5525538587e+00
 1.6345037878e+00	 1.5118105202e+00	 1.9254767262e+00
 1.6196977380e+00	 1.5276626180e+00	 2.2778586477e+00
 1.6047358591e+00	 1.5433718869e+00	 2.6053236742e+00
 1.5896202097e+00	 1.5589360555e+00	 2.9027590580e+00
 1.5743528929e+00	 1.5743528929e+00	 3.1644636451e+00
 1.5589360555e+00	 1.5896202097e+00	 3.3842954465e+00
 1.5433718869e+00	 1.6047358591e+00	 3.5558173389e+00
 1.5276626180e+00	 1.6196977380e+00	 3.6724398758e+00
 1.5118105202e+00	 1.6345037878e+00	 3.7275602289e+00
 1.4958179043e+00	 1.6491519954e+00	 3.7146963258e+00
 1.6556872326e+00	 1.5017455112e+00	 1.6505639672e+00
 1.6409809772e+00	 1.5178015024e+00	 1.8221741934e+00
 1.6261162542e+00	 1.5337164186e+00	 2.0148121395e+00
 1.6110950846e+00	 1.5494879400e+00	 2.2201332981e+00
 1.5959195351e+00	 1.5651137861e+00	 2.4290495882e+00
 1.5805917172e+00	 1.5805917172e+00	 2.6318875059e+00
 1.5651137861e+00	 1.5959195351e+00	 2.8185453371e+00
 1.5494879400e+00	 1.6110950846e+00	 2.9786483461e+00
 1.5337164186e+00	 1.6261162542e+00	 3.1017008846e+00
 1.5178015024e+00	 1.6409809772e+00	 3.1772344080e+00
 1.5017455112e+00	 1.6556872326e+00	 3.1949504306e+00
 1.4424694423e+00	 1.5903348611e+00	 2.2749583184e+00
 1.4269113115e+00	 1.6043088881e+00	 2.0981237686e+00
 1.4112222214e+00	 1.6181268767e+00	 1.9138469494e+00
 1.3954045341e+00	 1.6317869967e+00	 1.7281539804e+00
 1.3794606450e+00	 1.6452874651e+00	 1.5483194512e+00
 1.3633929816e+00	 1.6586265470e+00	 1.3826886507e+00
 1.3472040028e+00	 1.6718025565e+00	 1.2405049520e+00
 1.3308961970e+00	 1.6848138569e+00	 1.1317432274e+00
 1.3144720812e+00	 1.6976588619e+00	 1.0669500961e+00
 1.2979341998e+00	 1.7103360360e+00	 1.0570917384e+00
 1.2812851231e+00	 1.7228438950e+00	 1.1134099337e+00
 1.4483970492e+00	 1.5968700983e+00	 2.9977950462e+00
 1.4327749846e+00	 1.6109015494e+00	 2.7886316837e+00
 1.4170214227e+00	 1.6247763209e+00	 2.5634718254e+00
 1.4011387350e+00	 1.6384925751e+00	 2.3304982930e+00
 1.3851293269e+00	 1.6520485216e+00	 2.0989967174e+00
 1.3689956359e+00	 1.6654424184e+00	 1.8791714418e+00
 1.3527401310e+00	 1.6786725726e+00	 1.6819670583e+00
 1.3363653107e+00	 1.6917373410e+00	 1.5188964731e+00
 1.3198737025e+00	 1.7046351306e+00	 1.4018763212e+00
 1.3032678613e+00	 1.7173643996e+00	 1.3430704816e+00
 1.2865503678e+00	 1.7299236577e+00	 1.3547423616e+00
 1.4543246561e+00	 1.6034053354e+00	 3.5782664637e+00
 1.4386386577e+00	 1.6174942106e+00	 3.3521608881e+00
 1.4228206239e+00	 1.6314257651e+00	 3.1013471768e+00
 1.4068729359e+00	 1.6451981534e+00	 2.8357816869e+00
 1.3907980088e+00	 1.6588095780e+00	 2.5664013594e+00
 1.3745982903e+00	 1.6722582897e+00	 2.3049336317e+00
 1.3582762592e+00	 1.6855425888e+00	 2.0637124331e+00
 1.3418344245e+00	 1.6986608251e+00	 1.8555011796e+00
 1.3252753239e+00	 1.7116113993e+00	 1.6933236092e+00
 1.3086015228e+00	 1.7243927632e+00	 1.5903032206e+00
 1.2918156124e+00	 1.7370034204e+00	 1.5595120000e+00
 1.4602522630e+00	 1.6099405725e+00	 4.0167724061e+00
 1.4445023309e+00	 1.6240868719e+00	 3.7877207673e+00
 1.4286198251e+00	 1.6380752093e+00	 3.5253511248e+00
 1.4126071367e+00	 1.6519037317e+00	 3.2410146643e+00
 1.3964666907e+00	 1.6655706344e+00	 2.9469441299e+00
 1.3802009446e+00	 1.6790741611e+00	 2.6560580769e+00
 1.3638123873e+00	 1.6924126049e+00	 2.3817716303e+00
 1.3473035382e+00	 1.7055843091e+00	 2.1378146871e+00
 1.3306769453e+00	 1.7185876679e+00	 1.9380584197e+00
 1.3139351842e+00	 1.7314211267e+00	 1.7963508610e+00
 1.2970808571e+00	 1.7440831831e+00	 1.7263622675e+00
 1.4661798698e+00	 1.6164758097e+00	 4.3137151434e+00
 1.4503660040e+00	 1.6306795332e+00	 4.0943443445e+00
 1.4344190263e+00	 1.6447246534e+00	 3.8334026325e+00
 1.4183413376e+00	 1.6586093101e+00	 3.5432617089e+00
 1.4021353726e+00	 1.6723316909e+00	 3.2370987751e+00
 1.3858035989e+00	 1.6858900324e+00	 2.9286954519e+00
 1.3693485155e+00	 1.6992826210e+00	 2.6322436023e+00
 1.3527726520e+00	 1.7125077932e+00	 2.3621590145e+00
 1.3360785667e+00	 1.7255639366e+00	 2.1329038201e+00
 1.3192688457e+00	 1.7384494903e+00	 1.9588184454e+00
 1.3023461018e+00	 1.7511629458e+00	 1.8539638023e+00
 1.4721074767e+00	 1.6230110468e+00	 4.4694969023e+00
 1.4562296772e+00	 1.6372721944e+00	 4.2710853520e+00
 1.4402182276e+00	 1.6513740976e+00	 4.0234582112e+00
 1.4240755385e+00	 1.6653148884e+00	 3.7396377147e+00
 1.4078040545e+00	 1.6790927473e+00	 3.4333982745e+00
 1.3914062532e+00	 1.6927059038e+00	 3.1190603897e+00
 1.3748846437e+00	 1.7061526372e+00	 2.8112918309e+00
 1.3582417657e+00	 1.7194312773e+00	 2.5249170735e+00
 1.3414801880e+00	 1.7325402052e+00	 2.2747358763e+00
 1.3246025072e+00	 1.7454778539e+00	 2.0753518145e+00
 1.3076113464e+00	 1.7582427084e+00	 1.9410114893e+00
 1.4780350836e+00	 1.6295462840e+00	 4.4845173917e+00
 1.4620933503e+00	 1.6438648557e+00	 4.3170153167e+00
 1.4460174288e+00	 1.6580235418e+00	 4.0935086494e+00
 1.4298097394e+00	 1.6720204668e+00	 3.8273044431e+00
 1.4134727364e+00	 1.6858538038e+00	 3.5324311128e+00
 1.3970089075e+00	 1.6995217752e+00	 3.2234276565e+00
 1.3804207719e+00	 1.7130226533e+00	 2.9151404938e+00
 1.3637108795e+00	 1.7263547614e+00	 2.6225289176e+00
 1.3468818094e+00	 1.7395164739e+00	 2.3604800740e+00
 1.3299361687e+00	 1.7525062174e+00	 2.1436342922e+00
 1.3128765911e+00	 1.7653224711e+00	 1.9862215017e+00
 1.4839626905e+00	 1.6360815211e+00	 4.3599785355e+00
 1.4679570234e+00	 1.6504575170e+00	 4.2312206576e+00
 1.4518166300e+00	 1.6646729859e+00	 4.0415757626e+00
 1.4355439402e+00	 1.6787260451e+00	 3.8034670080e+00
 1.4191414183e+00	 1.6926148602e+00	 3.5308375851e+00
 1.4026115618e+00	 1.7063376465e+00	 3.2381283621e+00
 1.3859569001e+00	 1.7198926695e+00	 2.9400706669e+00
 1.3691799933e+00	 1.7332782455e+00	 2.6514880231e+00
 1.3522834308e+00	 1.7464927426e+00	 2.3871077680e+00
 1.3352698302e+00	 1.7595345810e+00	 2.1613833937e+00
 1.3181418357e+00	 1.7724022338e+00	 1.9883283572e+00
 1.4898902974e+00	 1.6426167583e+00	 4.1029305988e+00
 1.4738206966e+00	 1.6570501782e+00	 4.0127997965e+00
 1.4576158313e+00	 1.6713224301e+00	 3.8657091640e+00
 1.4412781411e+00	 1.6854316234e+00	 3.6653703882e+00
 1.4248101002e+00	 1.6993759167e+00	 3.4253061327e+00
 1.4082142161e+00	 1.7131535179e+00	 3.1595462025e+00
 1.3914930283e+00	 1.7267626856e+00	 2.8824165595e+00
 1.3746491070e+00	 1.7402017296e+00	 2.6083376024e+00
 1.3576850521e+00	 1.7534690112e+00	 2.3516326604e+00
 1.3406034917e+00	 1.7665629446e+00	 2.1263475552e+00
 1.3234070804e+00	 1.7794819965e+00	 1.9460819897e+00
 1.4958179043e+00	 1.6491519954e+00	 3.7146963258e+00
 1.4796843697e+00	 1.6636428395e+00	 3.6608602811e+00
 1.4634150325e+00	 1.6779718743e+00	 3.5639830556e+00
 1.4470123420e+00	 1.6921372018e+00	 3.4102959659e+00
 1.4304787821e+00	 1.7061369731e+00	 3.2125697095e+00
 1.4138168704e+00	 1.7199693892e+00	 2.9841137372e+00
 1.3970291564e+00	 1.7336327017e+00	 2.7385617832e+00
 1.3801182208e+00	 1.7471252137e+00	 2.4896669491e+00
 1.3630866735e+00	 1.7604452799e+00	 2.2511073062e+00
 1.3459371531e+00	 1.7735913081e+00	 2.0363028865e+00
 1.3286723250e+00	 1.7865617592e+00	 1.8582448330e+00
 1.5017455112e+00	 1.6556872326e+00	 3.1949504306e+00
 1.4855480428e+00	 1.6702355008e+00	 3.1764242636e+00
 1.4692142337e+00	 1.6846213184e+00	 3.1344930387e+00
 1.4527465428e+00	 1.6988427801e+00	 3.0355580902e+00
 1.4361474640e+00	 1.7128980295e+00	 2.8894021781e+00
 1.4194195247e+00	 1.7267852606e+00	 2.7083086958e+00
 1.4025652846e+00	 1.7405027179e+00	 2.5049356519e+00
 1.3855873345e+00	 1.7540486977e+00	 2.2921078130e+00
 1.3684882949e+00	 1.7674215486e+00	 2.0826196458e+00
 1.3512708146e+00	 1.7806196717e+00	 1.8890499436e+00
 1.3339375697e+00	 1.7936415219e+00	 1.7235889198e+00
 1.2812851231e+00	 1.7228438950e+00	 1.1134099337e+00
 1.2645303022e+00	 1.7351789251e+00	 1.2056244556e+00
 1.2476695257e+00	 1.7473418936e+00	 1.2939519880e+00
 1.2307054234e+00	 1.7593314809e+00	 1.3753560238e+00
 1.2136406457e+00	 1.7711464208e+00	 1.4465972962e+00
 1.1964778629e+00	 1.7827855005e+00	 1.5041568888e+00
 1.1792197631e+00	 1.7942475614e+00	 1.5441697060e+00
 1.1618690513e+00	 1.8055314987e+00	 1.5623683725e+00
 1.1444284477e+00	 1.8166362624e+00	 1.5540375517e+00
 1.1269006870e+00	 1.8275608570e+00	 1.5139786026e+00
 1.1092885163e+00	 1.8383043418e+00	 1.4365930814e+00
 1.2865503678e+00	 1.7299236577e+00	 1.3547423616e+00
 1.2697266955e+00	 1.7423093767e+00	 1.4074231536e+00
 1.2527966322e+00	 1.7545223270e+00	 1.4613414729e+00
 1.2357628185e+00	 1.7665611837e+00	 1.5132194701e+00
 1.2186279158e+00	 1.7784246753e+00	 1.5596402405e+00
 1.2013946052e+00	 1.7901115841e+00	 1.5969694642e+00
 1.1840655858e+00	 1.8016207465e+00	 1.6212876269e+00
 1.1666435739e+00	 1.8129510535e+00	 1.6283328865e+00
 1.1491313009e+00	 1.8241014505e+00	 1.6134545718e+00
 1.1315315125e+00	 1.8350709380e+00	 1.5715772266e+00
 1.1138469673e+00	 1.8458585715e+00	 1.4971750338e+00
 1.2918156124e+00	 1.7370034204e+00	 1.5595120000e+00
 1.2749230888e+00	 1.7494398283e+00	 1.5733822835e+00
 1.2579237387e+00	 1.7617027605e+00	 1.5934717951e+00
 1.2408202136e+00	 1.7737908865e+00	 1.6163941868e+00
 1.2236151859e+00	 1.7857029298e+00	 1.6386694008e+00
 1.2063113474e+00	 1.7974376676e+00	 1.6566438088e+00
 1.1889114086e+00	 1.8089939316e+00	 1.6664211843e+00
 1.1714180965e+00	 1.8203706082e+00	 1.6638045699e+00
 1.1538341540e+00	 1.8315666385e+00	 1.6442490237e+00
 1.1361623380e+00	 1.8425810190e+00	 1.6028251490e+00
 1.1184054183e+00	 1.8534128012e+00	 1.5342014696e+00
 1.2970808571e+00	 1.7440831831e+00	 1.7263622675e+00
 1.2801194821e+00	 1.7565702799e+00	 1.7032825571e+00
 1.2630508453e+00	 1.7688831939e+00	 1.6910802792e+00
 1.2458776088e+00	 1.7810205893e+00	 1.6863921711e+00
 1.2286024559e+00	 1.7929811843e+00	 1.6857883551e+00
 1.2112280896e+00	 1.8047637511e+00	 1.6856909452e+00
 1.1937572313e+00	 1.8163671167e+00	 1.6823037727e+00
 1.1761926191e+00	 1.8277901629e+00	 1.6715532900e+00
 1.1585370072e+00	 1.8390318265e+00	 1.6490406313e+00
 1.1407931635e+00	 1.8500910999e+00	 1.6100047271e+00
 1.1229638693e+00	 1.8609670309e+00	 1.5495864005e+00
 1.3023461018e+00	 1.7511629458e+00	 1.8539638023e+00
 1.2853158754e+00	 1.7637007315e+00	 1.7969143122e+00
 1.2681779518e+00	 1.7760636274e+00	 1.7548994085e+00
 1.2509350039e+00	 1.7882502922e+00	 1.7247092542e+00
 1.2335897260e+00	 1.8002594388e+00	 1.7030763444e+00
 1.2161448319e+00	 1.8120898346e+00	 1.6865925509e+00
 1.1986030540e+00	 1.8237403018e+00	 1.6716376033e+00
 1.1809671418e+00	 1.8352097176e+00	 1.6543190649e+00
 1.1632398603e+00	 1.8464970146e+00	 1.6304237763e+00
 1.1454239890e+00	 1.8576011809e+00	 1.5954938378e+00
 1.1275223202e+00	 1.8685212605e+00	 1.5451862329e+00
 1.3076113464e+00	 1.7582427084e+00	 1.9410114893e+00
 1.2905122687e+00	 1.7708311831e+00	 1.8540749236e+00
 1.2733050583e+00	 1.7832440609e+00	 1.7856545633e+00
 1.2559923991e+00	 1.7954799950e+00	 1.7328231076e+00
 1.2385769960e+00	 1.8075376933e+00	 1.6925864894e+00
 1.2210615741e+00	 1.8194159182e+00	 1.6617993266e+00
 1.2034488767e+00	 1.8311134869e+00	 1.6370921640e+00
 1.1857416644e+00	 1.8426292723e+00	 1.6148105569e+00
 1.1679427135e+00	 1.8539622026e+00	 1.5909807920e+00
 1.1500548145e+00	 1.8651112619e+00	 1.5617642962e+00
 1.1320807712e+00	 1.8760754902e+00	 1.5226778438e+00
 1.3128765911e+00	 1.7653224711e+00	 1.9862215017e+00
 1.2957086620e+00	 1.7779616348e+00	 1.8745662203e+00
 1.2784321648e+00	 1.7904244943e+00	 1.7840617569e+00
 1.2610497942e+00	 1.8027096978e+00	 1.7121912423e+00
 1.2435642661e+00	 1.8148159478e+00	 1.6563439944e+00
 1.2259783163e+00	 1.8267420017e+00	 1.6137293487e+00
 1.2082946994e+00	 1.8384866720e+00	 1.5813026631e+00
 1.1905161870e+00	 1.8500488270e+00	 1.5557035487e+00
 1.1726455666e+00	 1.8614273907e+00	 1.5334867436e+00
 1.1546856400e+00	 1.8726213429e+00	 1.5109504756e+00
 1.1366392222e+00	 1.8836297199e+00	 1.4836858317e+00
 1.3181418357e+00	 1.7724022338e+00	 1.9883283572e+00
 1.3009050553e+00	 1.7850920864e+00	 1.8581919087e+00
 1.2835592713e+00	 1.7976049278e+00	 1.7508253711e+00
 1.2661071893e+00	 1.8099394007e+00	 1.6642490002e+00
 1.2485515361e+00	 1.8220942023e+00	 1.5963443411e+00
 1.2308950586e+00	 1.8340680852e+00	 1.5447664075e+00
 1.2131405222e+00	 1.8458598571e+00	 1.5068684568e+00
 1.1952907097e+00	 1.8574683818e+00	 1.4797321565e+00
 1.1773484197e+00	 1.8688925787e+00	 1.4604274637e+00
 1.1593164655e+00	 1.8801314239e+00	 1.4451159703e+00
 1.1411976732e+00	 1.8911839496e+00	 1.4297837447e+00
 1.3234070804e+00	 1.7794819965e+00	 1.9460819897e+00
 1.3061014486e+00	 1.7922225380e+00	 1.8047550023e+00
 1.2886863779e+00	 1.8047853612e+00	 1.6866358902e+00
 1.2711645845e+00	 1.8171691035e+00	 1.5904075401e+00
 1.2535388062e+00	 1.8293724569e+00	 1.5145514701e+00
 1.2358118008e+00	 1.8413941687e+00	 1.4572583320e+00
 1.2179863449e+00	 1.8532330423e+00	 1.4163567651e+00
 1.2000652323e+00	 1.8648879365e+00	 1.3896414795e+00
 1.1820512729e+00	 1.8763577667e+00	 1.3741174045e+00
 1.1639472910e+00	 1.8876415049e+00	 1.3662666885e+00
 1.1457561242e+00	 1.8987381793e+00	 1.3624952997e+00
 1.3286723250e+00	 1.7865617592e+00	 1.8582448330e+00
 1.3112978419e+00	 1.7993529896e+00	 1.7140552559e+00
 1.2938134844e+00	 1.8119657947e+00	 1.5921676338e+00
 1.2762219796e+00	 1.8243988063e+00	 1.4920518151e+00
 1.2585260763e+00	 1.8366507114e+00	 1.4128959521e+00
 1.2407285430e+00	 1.8487202523e+00	 1.3535152997e+00
 1.2228321676e+00	 1.8606062274e+00	 1.3124524989e+00
 1.2048397549e+00	 1.8723074912e+00	 1.2878290482e+00
 1.1867541260e+00	 1.8838229548e+00	 1.2768097664e+00
 1.1685781165e+00	 1.8951515858e+00	 1.2763522402e+00
 1.1503145752e+00	 1.9062924090e+00	 1.2832955947e+00
 1.3339375697e+00	 1.7936415219e+00	 1.7235889198e+00
 1.3164942352e+00	 1.8064834412e+00	 1.5858866067e+00
 1.2989405909e+00	 1.8191462282e+00	 1.4680764891e+00
 1.2812793748e+00	 1.8316285092e+00	 1.3705385452e+00
 1.2635133463e+00	 1.8439289659e+00	 1.2932731481e+00
 1.2456452853e+00	 1.8560463358e+00	 1.2358474527e+00
 1.2276779903e+00	 1.8679794125e+00	 1.1975681346e+00
 1.2096142776e+00	 1.8797270459e+00	 1.1766188694e+00
 1.1914569792e+00	 1.8912881428e+00	 1.1706979908e+00
 1.1732089420e+00	 1.9026616668e+00	 1.1772673132e+00
 1.1548730262e+00	 1.9138466387e+00	 1.1936123134e+00
 1.1092885163e+00	 1.8383043418e+00	 1.4365930814e+00
 1.0915946945e+00	 1.8488658317e+00	 1.3450521499e+00
 1.0738219920e+00	 1.8592444984e+00	 1.2625762151e+00
 1.0559731879e+00	 1.8694395692e+00	 1.1894727237e+00
 1.0380510688e+00	 1.8794503267e+00	 1.1261086299e+00
 1.0200584271e+00	 1.8892761086e+00	 1.0733146568e+00
 1.0019980599e+00	 1.8989163076e+00	 1.0323513915e+00
 9.8387276730e-01	 1.9083703716e+00	 1.0048497325e+00
 9.6568535156e-01	 1.9176378033e+00	 9.9275472635e-01
 9.4743861547e-01	 1.9267181602e+00	 9.9827278754e-01
 9.2913536115e-01	 1.9356110540e+00	 1.0238222792e+00
 1.1138469673e+00	 1.8458585715e+00	 1.4971750338e+00
 1.0960804354e+00	 1.8564634622e+00	 1.4073629681e+00
 1.0782346987e+00	 1.8668847785e+00	 1.3280972872e+00
 1.0603125477e+00	 1.8771217444e+00	 1.2589660710e+00
 1.0423167804e+00	 1.8871736395e+00	 1.1997471971e+00
 1.0242502008e+00	 1.8970397989e+00	 1.1506934279e+00
 1.0061156172e+00	 1.9067196129e+00	 1.1124699512e+00
 9.8791584150e-01	 1.9162125269e+00	 1.0860954041e+00
 9.6965368737e-01	 1.9255180417e+00	 1.0728863886e+00
 9.5133196912e-01	 1.9346357129e+00	 1.0744054687e+00
 9.3295350038e-01	 1.9435651507e+00	 1.0924126173e+00
 1.1184054183e+00	 1.8534128012e+00	 1.5342014696e+00
 1.1005661764e+00	 1.8640610927e+00	 1.4507565689e+00
 1.0826474054e+00	 1.8745250585e+00	 1.3774966823e+00
 1.0646519075e+00	 1.8848039195e+00	 1.3146715897e+00
 1.0465824920e+00	 1.8948969523e+00	 1.2616108775e+00
 1.0284419744e+00	 1.9048034893e+00	 1.2181037373e+00
 1.0102331745e+00	 1.9145229181e+00	 1.1843367910e+00
 9.9195891571e-01	 1.9240546822e+00	 1.1608355079e+00
 9.7362202318e-01	 1.9333982801e+00	 1.1484092201e+00
 9.5522532277e-01	 1.9425532656e+00	 1.1480997152e+00
 9.3677163962e-01	 1.9515192474e+00	 1.1611333716e+00
 1.1229638693e+00	 1.8609670309e+00	 1.5495864005e+00
 1.1050519173e+00	 1.8716587232e+00	 1.4760764824e+00
 1.0870601122e+00	 1.8821653385e+00	 1.4109881257e+00
 1.0689912674e+00	 1.8924860946e+00	 1.3562444011e+00
 1.0508482037e+00	 1.9026202651e+00	 1.3108367194e+00
 1.0326337480e+00	 1.9125671796e+00	 1.2742034097e+00
 1.0143507318e+00	 1.9223262234e+00	 1.2461676483e+00
 9.9600198991e-01	 1.9318968375e+00	 1.2268790903e+00
 9.7759035899e-01	 1.9412785184e+00	 1.2167592050e+00
 9.5911867641e-01	 1.9504708183e+00	 1.2164502878e+00
 9.4058977885e-01	 1.9594733441e+00	 1.2267681061e+00
 1.1275223202e+00	 1.8685212605e+00	 1.5451862329e+00
 1.1095376583e+00	 1.8792563537e+00	 1.4841355197e+00
 1.0914728189e+00	 1.8898056186e+00	 1.4287934236e+00
 1.0733306272e+00	 1.9001682698e+00	 1.3833568669e+00
 1.0551139153e+00	 1.9103435779e+00	 1.3465875727e+00
 1.0368255216e+00	 1.9203308700e+00	 1.3176840564e+00
 1.0184682891e+00	 1.9301295287e+00	 1.2962194792e+00
 1.0000450641e+00	 1.9397389928e+00	 1.2820833174e+00
 9.8155869480e-01	 1.9491587568e+00	 1.2754268413e+00
 9.6301203006e-01	 1.9583883710e+00	 1.2766123702e+00
 9.4440791808e-01	 1.9674274408e+00	 1.2861662553e+00
 1.1320807712e+00	 1.8760754902e+00	 1.5226778438e+00
 1.1140233992e+00	 1.8868539842e+00	 1.4756004948e+00
 1.0958855257e+00	 1.8974458986e+00	 1.4311414285e+00
 1.0776699870e+00	 1.9078504449e+00	 1.3956973998e+00
 1.0593796269e+00	 1.9180668907e+00	 1.3680507590e+00
 1.0410172952e+00	 1.9280945603e+00	 1.3472696180e+00
 1.0225858465e+00	 1.9379328339e+00	 1.3327888858e+00
 1.0040881383e+00	 1.9475811480e+00	 1.3243517996e+00
 9.8552703061e-01	 1.9570389952e+00	 1.3219553726e+00
 9.6690538371e-01	 1.9663059237e+00	 1.3257997196e+00
 9.4822605731e-01	 1.9753815375e+00	 1.3362412041e+00
 1.1366392222e+00	 1.8836297199e+00	 1.4836858317e+00
 1.1185091402e+00	 1.8944516148e+00	 1.4508917178e+00
 1.1002982324e+00	 1.9050861787e+00	 1.4182670047e+00
 1.0820093468e+00	 1.9155326200e+00	 1.3929692800e+00
 1.0636453385e+00	 1.9257902035e+00	 1.3744367507e+00
 1.0452090689e+00	 1.9358582506e+00	 1.3617149196e+00
 1.0267034038e+00	 1.9457361392e+00	 1.3542105597e+00
 1.0081312125e+00	 1.9554233033e+00	 1.3516329344e+00
 9.8949536642e-01	 1.9649192336e+00	 1.3539390424e+00
 9.7079873735e-01	 1.9742234764e+00	 1.3612828422e+00
 9.5204419654e-01	 1.9833356342e+00	 1.3739683940e+00
 1.1411976732e+00	 1.8911839496e+00	 1.4297837447e+00
 1.1229948811e+00	 1.9020492453e+00	 1.4109787188e+00
 1.1047109392e+00	 1.9127264587e+00	 1.3904099964e+00
 1.0863487066e+00	 1.9232147951e+00	 1.3748894760e+00
 1.0679110502e+00	 1.9335135163e+00	 1.3649778596e+00
 1.0494008425e+00	 1.9436219410e+00	 1.3598042386e+00
 1.0308209611e+00	 1.9535394444e+00	 1.3588557408e+00
 1.0121742867e+00	 1.9632654586e+00	 1.3619182681e+00
 9.9346370223e-01	 1.9727994719e+00	 1.3690213686e+00
 9.7469209100e-01	 1.9821410291e+00	 1.3803871913e+00
 9.5586233577e-01	 1.9912897309e+00	 1.3963834544e+00
 1.1457561242e+00	 1.8987381793e+00	 1.3624952997e+00
 1.1274806220e+00	 1.9096468758e+00	 1.3568366879e+00
 1.1091236459e+00	 1.9203667388e+00	 1.3478141949e+00
 1.0906880665e+00	 1.9308969703e+00	 1.3411874712e+00
 1.0721767618e+00	 1.9412368291e+00	 1.3389269334e+00
 1.0535926161e+00	 1.9513856313e+00	 1.3403498841e+00
 1.0349385184e+00	 1.9613427497e+00	 1.3451306912e+00
 1.0162173609e+00	 1.9711076139e+00	 1.3532408752e+00
 9.9743203804e-01	 1.9806797103e+00	 1.3648934394e+00
 9.7858544465e-01	 1.9900585818e+00	 1.3804913888e+00
 9.5968047500e-01	 1.9992438276e+00	 1.4005803599e+00
 1.1503145752e+00	 1.9062924090e+00	 1.2832955947e+00
 1.1319663630e+00	 1.9172445063e+00	 1.2894009039e+00
 1.1135363527e+00	 1.9280070188e+00	 1.2906787139e+00
 1.0950274263e+00	 1.9385791454e+00	 1.2916040942e+00
 1.0764424734e+00	 1.9489601419e+00	 1.2955560606e+00
 1.0577843897e+00	 1.9591493217e+00	 1.3021907879e+00
 1.0390560757e+00	 1.9691460550e+00	 1.3114751841e+00
 1.0202604351e+00	 1.9789497692e+00	 1.3236737550e+00
 1.0014003738e+00	 1.9885599487e+00	 1.3392922278e+00
 9.8247879829e-01	 1.9979761345e+00	 1.3590254688e+00
 9.6349861423e-01	 2.0071979243e+00	 1.3837096109e+00
 1.1548730262e+00	 1.9138466387e+00	 1.1936123134e+00
 1.1364521039e+00	 1.9248421368e+00	 1.2095677456e+00
 1.1179490594e+00	 1.9356472989e+00	 1.2190738578e+00
 1.0993667861e+00	 1.9462613205e+00	 1.2258903541e+00
 1.0807081850e+00	 1.9566834547e+00	 1.2341552839e+00
 1.0619761634e+00	 1.9669130120e+00	 1.2441911069e+00
 1.0431736330e+00	 1.9769493602e+00	 1.2563610056e+00
 1.0243035093e+00	 1.9867919245e+00	 1.2713282452e+00
 1.0053687097e+00	 1.9964401871e+00	 1.2899989271e+00
 9.8637215194e-01	 2.0058936872e+00	 1.3134691426e+00
 9.6731675346e-01	 2.0151520210e+00	 1.3429764386e+00
 9.2913536115e-01	 1.9356110540e+00	 1.0238222792e+00
 9.1077526332e-01	 1.9443176149e+00	 1.0629532909e+00
 8.9236422656e-01	 1.9528360339e+00	 1.1065699653e+00
 8.7390504382e-01	 1.9611660834e+00	 1.1534844201e+00
 8.5540050234e-01	 1.9693075891e+00	 1.2027661482e+00
 8.3685338241e-01	 1.9772604297e+00	 1.2537107384e+00
 8.1826645622e-01	 1.9850245367e+00	 1.3058111643e+00
 7.9964248658e-01	 1.9925998934e+00	 1.3587315216e+00
 7.8098422584e-01	 1.9999865349e+00	 1.4122830905e+00
 7.6229441467e-01	 2.0071845475e+00	 1.4664025929e+00
 7.4357578096e-01	 2.0141940681e+00	 1.5211325109e+00
 9.3295350038e-01	 1.9435651507e+00	 1.0924126173e+00
 9.1451795455e-01	 1.9523074899e+00	 1.1209262310e+00
 8.9603126046e-01	 1.9608609140e+00	 1.1522578979e+00
 8.7749622254e-01	 1.9692251945e+00	 1.1859172212e+00
 8.5891563948e-01	 1.9774001565e+00	 1.2216208057e+00
 8.4029230301e-01	 1.9853856781e+00	 1.2592608199e+00
 8.2162899669e-01	 1.9931816905e+00	 1.2988762428e+00
 8.0292849471e-01	 2.0007881769e+00	 1.3406266712e+00
 7.8419356071e-01	 2.0082051727e+00	 1.3847685530e+00
 7.6542694663e-01	 2.0154327645e+00	 1.4316337128e+00
 7.4663139157e-01	 2.0224710896e+00	 1.4816100259e+00
 9.3677163962e-01	 1.9515192474e+00	 1.1611333716e+00
 9.1826064577e-01	 1.9602973649e+00	 1.1819288101e+00
 8.9969829436e-01	 1.9688857941e+00	 1.2039302046e+00
 8.8108740126e-01	 1.9772843057e+00	 1.2271687345e+00
 8.6243077662e-01	 1.9854927239e+00	 1.2518414392e+00
 8.4373122361e-01	 1.9935109265e+00	 1.2782797506e+00
 8.2499153717e-01	 2.0013388443e+00	 1.3069208130e+00
 8.0621450284e-01	 2.0089764605e+00	 1.3382814595e+00
 7.8740289558e-01	 2.0164238106e+00	 1.3729347051e+00
 7.6855947859e-01	 2.0236809814e+00	 1.4114886108e+00
 7.4968700217e-01	 2.0307481111e+00	 1.4545673733e+00
 9.4058977885e-01	 1.9594733441e+00	 1.2267681061e+00
 9.2200333700e-01	 1.9682872398e+00	 1.2424940727e+00
 9.0336532825e-01	 1.9769106742e+00	 1.2579632955e+00
 8.8467857997e-01	 1.9853434169e+00	 1.2735544122e+00
 8.6594591376e-01	 1.9935852914e+00	 1.2897799291e+00
 8.4717014421e-01	 2.0016361750e+00	 1.3072548516e+00
 8.2835407765e-01	 2.0094959981e+00	 1.3266681927e+00
 8.0950051097e-01	 2.0171647441e+00	 1.3487572202e+00
 7.9061223045e-01	 2.0246424484e+00	 1.3742842949e+00
 7.7169201055e-01	 2.0319291984e+00	 1.4040161488e+00
 7.5274261278e-01	 2.0390251327e+00	 1.4387054473e+00
 9.4440791808e-01	 1.9674274408e+00	 1.2861662553e+00
 9.2574602823e-01	 1.9762771148e+00	 1.2992254192e+00
 9.0703236214e-01	 1.9849355543e+00	 1.3108069145e+00
 8.8826975869e-01	 1.9934025280e+00	 1.3214644764e+00
 8.6946105090e-01	 2.0016778588e+00	 1.3318627854e+00
 8.5060906480e-01	 2.0097614234e+00	 1.3427463241e+00
 8.3171661812e-01	 2.0176531519e+00	 1.3549111904e+00
 8.1278651910e-01	 2.0253530277e+00	 1.3691797163e+00
 7.9382156532e-01	 2.0328610863e+00	 1.3863777397e+00
 7.7482454250e-01	 2.0401774154e+00	 1.4073143694e+00
 7.5579822338e-01	 2.0473021542e+00	 1.4327640809e+00
 9.4822605731e-01	 1.9753815375e+00	 1.3362412041e+00
 9.2948871945e-01	 1.9842669898e+00	 1.3487946337e+00
 9.1069939604e-01	 1.9929604344e+00	 1.3589821470e+00
 8.9186093740e-01	 2.0014616392e+00	 1.3673619385e+00
 8.7297618804e-01	 2.0097704262e+00	 1.3745892106e+00
 8.5404798540e-01	 2.0178866718e+00	 1.3813853887e+00
 8.3507915860e-01	 2.0258103058e+00	 1.3885103526e+00
 8.1607252723e-01	 2.0335413113e+00	 1.3967375304e+00
 7.9703090019e-01	 2.0410797241e+00	 1.4068316916e+00
 7.7795707446e-01	 2.0484256324e+00	 1.4195292734e+00
 7.5885383399e-01	 2.0555791757e+00	 1.4355210695e+00
 9.5204419654e-01	 1.9833356342e+00	 1.3739683940e+00
 9.3323141068e-01	 1.9922568647e+00	 1.3879399411e+00
 9.1436642993e-01	 2.0009853145e+00	 1.3990794583e+00
 8.9545211611e-01	 2.0095207504e+00	 1.4077806478e+00
 8.7649132518e-01	 2.0178629937e+00	 1.4145291913e+00
 8.5748690600e-01	 2.0260119202e+00	 1.4198724509e+00
 8.3844169907e-01	 2.0339674596e+00	 1.4243922368e+00
 8.1935853536e-01	 2.0417295949e+00	 1.4286804775e+00
 8.0024023506e-01	 2.0492983620e+00	 1.4333176239e+00
 7.8108960642e-01	 2.0566738494e+00	 1.4388536111e+00
 7.6190944459e-01	 2.0638561973e+00	 1.4457912025e+00
 9.5586233577e-01	 1.9912897309e+00	 1.3963834544e+00
 9.3697410190e-01	 2.0002467397e+00	 1.4134640909e+00
 9.1803346383e-01	 2.0090101946e+00	 1.4277567586e+00
 8.9904329483e-01	 2.0175798615e+00	 1.4393233701e+00
 8.8000646232e-01	 2.0259555611e+00	 1.4483216186e+00
 8.6092582659e-01	 2.0341371686e+00	 1.4549752955e+00
 8.4180423954e-01	 2.0421246134e+00	 1.4595477101e+00
 8.2264454349e-01	 2.0499178784e+00	 1.4623180401e+00
 8.0344956993e-01	 2.0575169999e+00	 1.4635604348e+00
 7.8422213838e-01	 2.0649220664e+00	 1.4635256895e+00
 7.6496505519e-01	 2.0721332188e+00	 1.4624253056e+00
 9.5968047500e-01	 1.9992438276e+00	 1.4005803599e+00
 9.4071679313e-01	 2.0082366147e+00	 1.4222324687e+00
 9.2170049772e-01	 2.0170350748e+00	 1.4417374976e+00
 9.0263447354e-01	 2.0256389727e+00	 1.4586598930e+00
 8.8352159946e-01	 2.0340481285e+00	 1.4726724358e+00
 8.6436474719e-01	 2.0422624170e+00	 1.4835273062e+00
 8.4516678002e-01	 2.0502817672e+00	 1.4910302726e+00
 8.2593055162e-01	 2.0581061620e+00	 1.4950178255e+00
 8.0665890480e-01	 2.0657356377e+00	 1.4953370710e+00
 7.8735467033e-01	 2.0731702834e+00	 1.4918281927e+00
 7.6802066580e-01	 2.0804102403e+00	 1.4843092908e+00
 9.6349861423e-01	 2.0071979243e+00	 1.3837096109e+00
 9.4445948435e-01	 2.0162264897e+00	 1.4111712322e+00
 9.2536753162e-01	 2.0250599549e+00	 1.4378087844e+00
 9.0622565226e-01	 2.0336980839e+00	 1.4625251588e+00
 8.8703673660e-01	 2.0421406960e+00	 1.4843528126e+00
 8.6780366778e-01	 2.0503876654e+00	 1.5024257109e+00
 8.4852932049e-01	 2.0584389210e+00	 1.5159544031e+00
 8.2921655974e-01	 2.0662944456e+00	 1.5242040439e+00
 8.0986823966e-01	 2.0739542756e+00	 1.5264751677e+00
 7.9048720229e-01	 2.0814185003e+00	 1.5220870157e+00
 7.7107627640e-01	 2.0886872619e+00	 1.5103632167e+00
 9.6731675346e-01	 2.0151520210e+00	 1.3429764386e+00
 9.4820217558e-01	 2.0242163646e+00	 1.3772654738e+00
 9.2903456551e-01	 2.0330848350e+00	 1.4128195346e+00
 9.0981683097e-01	 2.0417571950e+00	 1.4477174245e+00
 8.9055187374e-01	 2.0502332634e+00	 1.4801973462e+00
 8.7124258838e-01	 2.0585129138e+00	 1.5086298529e+00
 8.5189186097e-01	 2.0665960749e+00	 1.5314939297e+00
 8.3250256787e-01	 2.0744827292e+00	 1.5473560071e+00
 8.1307757453e-01	 2.0821729134e+00	 1.5548517070e+00
 7.9361973424e-01	 2.0896667173e+00	 1.5526701126e+00
 7.7413188700e-01	 2.0969642834e+00	 1.5395403559e+00
 7.4357578096e-01	 2.0141940681e+00	 1.5211325109e+00
 7.2483422690e-01	 2.0210141399e+00	 1.5743067000e+00
 7.0606926997e-01	 2.0276462055e+00	 1.6229727998e+00
 6.8728359099e-01	 2.0340905489e+00	 1.6641935687e+00
 6.6847985372e-01	 2.0403475018e+00	 1.6950301326e+00
 6.4966070390e-01	 2.0464174439e+00	 1.7126023221e+00
 6.3082876822e-01	 2.0523008014e+00	 1.7140926293e+00
 6.1198665341e-01	 2.0579980469e+00	 1.6967496868e+00
 5.9313694523e-01	 2.0635096983e+00	 1.6578913610e+00
 5.7428220763e-01	 2.0688363181e+00	 1.5949075502e+00
 5.5542498184e-01	 2.0739785129e+00	 1.5052627617e+00
 7.4663139157e-01	 2.0224710896e+00	 1.4816100259e+00
 7.2781282196e-01	 2.0293191874e+00	 1.5321876088e+00
 7.0897075332e-01	 2.0359785066e+00	 1.5803588154e+00
 6.9010787747e-01	 2.0424493319e+00	 1.6229103021e+00
 6.7122686913e-01	 2.0487319969e+00	 1.6565127857e+00
 6.5233038490e-01	 2.0548268824e+00	 1.6779412183e+00
 6.3342106228e-01	 2.0607344167e+00	 1.6840779752e+00
 6.1450151868e-01	 2.0664550742e+00	 1.6719155398e+00
 5.9557435052e-01	 2.0719893748e+00	 1.6385587845e+00
 5.7664213227e-01	 2.0773378836e+00	 1.5812269393e+00
 5.5770741560e-01	 2.0825012094e+00	 1.4972553287e+00
 7.4968700217e-01	 2.0307481111e+00	 1.4545673733e+00
 7.3079141703e-01	 2.0376242350e+00	 1.4999024851e+00
 7.1187223668e-01	 2.0443108076e+00	 1.5446718276e+00
 6.9293216396e-01	 2.0508081150e+00	 1.5855884789e+00
 6.7397388454e-01	 2.0571164919e+00	 1.6190625496e+00
 6.5500006590e-01	 2.0632363210e+00	 1.6416468572e+00
 6.3601335633e-01	 2.0691680320e+00	 1.6500392896e+00
 6.1701638395e-01	 2.0749121014e+00	 1.6410846517e+00
 5.9801175580e-01	 2.0804690514e+00	 1.6117761006e+00
 5.7900205690e-01	 2.0858394491e+00	 1.5592562623e+00
 5.5998984936e-01	 2.0910239059e+00	 1.4808181177e+00
 7.5274261278e-01	 2.0390251327e+00	 1.4387054473e+00
 7.3377001209e-01	 2.0459292826e+00	 1.4767965727e+00
 7.1477372003e-01	 2.0526431086e+00	 1.5158773049e+00
 6.9575645045e-01	 2.0591668981e+00	 1.5527433584e+00
 6.7672089996e-01	 2.0655009870e+00	 1.5836729841e+00
 6.5766974691e-01	 2.0716457595e+00	 1.6051186059e+00
 6.3860565038e-01	 2.0776016473e+00	 1.6137083035e+00
 6.1953124922e-01	 2.0833691287e+00	 1.6062467761e+00
 6.0044916109e-01	 2.0889487279e+00	 1.5797158979e+00
 5.8136198154e-01	 2.0943410145e+00	 1.5312749613e+00
 5.6227228312e-01	 2.0995466025e+00	 1.4582606997e+00
 7.5579822338e-01	 2.0473021542e+00	 1.4327640809e+00
 7.3674860715e-01	 2.0542343302e+00	 1.4622367091e+00
 7.1767520338e-01	 2.0609754097e+00	 1.4939509911e+00
 6.9858073693e-01	 2.0675256811e+00	 1.5248903197e+00
 6.7946791537e-01	 2.0738854820e+00	 1.5513287986e+00
 6.6033942791e-01	 2.0800551981e+00	 1.5697392174e+00
 6.4119794444e-01	 2.0860352626e+00	 1.5767935964e+00
 6.2204611450e-01	 2.0918261560e+00	 1.5693632237e+00
 6.0288656638e-01	 2.0974284045e+00	 1.5445182952e+00
 5.8372190618e-01	 2.1028425800e+00	 1.4995272627e+00
 5.6455471688e-01	 2.1080692990e+00	 1.4318559801e+00
 7.5885383399e-01	 2.0555791757e+00	 1.4355210695e+00
 7.3972720222e-01	 2.0625393777e+00	 1.4556115602e+00
 7.2057668673e-01	 2.0693077107e+00	 1.4788793261e+00
 7.0140502342e-01	 2.0758844642e+00	 1.5025454455e+00
 6.8221493078e-01	 2.0822699771e+00	 1.5230065756e+00
 6.6300910891e-01	 2.0884646366e+00	 1.5368756699e+00
 6.4379023849e-01	 2.0944688779e+00	 1.5409815291e+00
 6.2456097977e-01	 2.1002831832e+00	 1.5323678639e+00
 6.0532397167e-01	 2.1059080810e+00	 1.5082919871e+00
 5.8608183082e-01	 2.1113441455e+00	 1.4662232415e+00
 5.6683715064e-01	 2.1165919955e+00	 1.4038412584e+00
 7.6190944459e-01	 2.0638561973e+00	 1.4457912025e+00
 7.4270579728e-01	 2.0708444253e+00	 1.4563233175e+00
 7.2347817008e-01	 2.0776400117e+00	 1.4706598646e+00
 7.0422930990e-01	 2.0842432473e+00	 1.4862260996e+00
 6.8496194619e-01	 2.0906544721e+00	 1.4996754846e+00
 6.6567878992e-01	 2.0968740752e+00	 1.5078799953e+00
 6.4638253254e-01	 2.1029024933e+00	 1.5079371612e+00
 6.2707584504e-01	 2.1087402105e+00	 1.4971681088e+00
 6.0776137696e-01	 2.1143877576e+00	 1.4731152705e+00
 5.8844175545e-01	 2.1198457110e+00	 1.4335398676e+00
 5.6911958440e-01	 2.1251146921e+00	 1.3764192687e+00
 7.6496505519e-01	 2.0721332188e+00	 1.4624253056e+00
 7.4568439234e-01	 2.0791494729e+00	 1.4638003094e+00
 7.2637965343e-01	 2.0859723127e+00	 1.4693016945e+00
 7.0705359639e-01	 2.0926020303e+00	 1.4764515003e+00
 6.8770896161e-01	 2.0990389672e+00	 1.4822979877e+00
 6.6834847092e-01	 2.1052835137e+00	 1.4840900937e+00
 6.4897482659e-01	 2.1113361086e+00	 1.4793051540e+00
 6.2959071031e-01	 2.1171972378e+00	 1.4656458813e+00
 6.1019878225e-01	 2.1228674341e+00	 1.4410370539e+00
 5.9080168009e-01	 2.1283472765e+00	 1.4036220319e+00
 5.7140201817e-01	 2.1336373886e+00	 1.3517592000e+00
 7.6802066580e-01	 2.0804102403e+00	 1.4843092908e+00
 7.4866298740e-01	 2.0874545204e+00	 1.4775453987e+00
 7.2928113678e-01	 2.0943046138e+00	 1.4748258549e+00
 7.0987788287e-01	 2.1009608134e+00	 1.4737432878e+00
 6.9045597702e-01	 2.1074234623e+00	 1.4718305368e+00
 6.7101815192e-01	 2.1136929523e+00	 1.4668305383e+00
 6.5156712065e-01	 2.1197697239e+00	 1.4567106601e+00
 6.3210557559e-01	 2.1256542650e+00	 1.4396585659e+00
 6.1263618754e-01	 2.1313471107e+00	 1.4140778491e+00
 5.9316160473e-01	 2.1368488419e+00	 1.3785835557e+00
 5.7368445192e-01	 2.1421600852e+00	 1.3319976992e+00
 7.7107627640e-01	 2.0886872619e+00	 1.5103632167e+00
 7.5164158246e-01	 2.0957595680e+00	 1.4970891208e+00
 7.3218262013e-01	 2.1026369148e+00	 1.4872657525e+00
 7.1270216936e-01	 2.1093195965e+00	 1.4786260883e+00
 6.9320299243e-01	 2.1158079573e+00	 1.4692242616e+00
 6.7368783293e-01	 2.1221023909e+00	 1.4574133677e+00
 6.5415941470e-01	 2.1282033392e+00	 1.4417601983e+00
 6.3462044086e-01	 2.1341112923e+00	 1.4210399456e+00
 6.1507359282e-01	 2.1398267872e+00	 1.3942307456e+00
 5.9552152936e-01	 2.1453504074e+00	 1.3605081814e+00
 5.7596688568e-01	 2.1506827817e+00	 1.3192398557e+00
 7.7413188700e-01	 2.0969642834e+00	 1.5395403559e+00
 7.5462017753e-01	 2.1040646156e+00	 1.5219860738e+00
 7.3508410348e-01	 2.1109692158e+00	 1.5066675782e+00
 7.1552645584e-01	 2.1176783796e+00	 1.4916280718e+00
 6.9595000784e-01	 2.1241924524e+00	 1.4754256512e+00
 6.7635751393e-01	 2.1305118294e+00	 1.4571388682e+00
 6.5675170875e-01	 2.1366369545e+00	 1.4360425156e+00
 6.3713530613e-01	 2.1425683196e+00	 1.4116011224e+00
 6.1751099811e-01	 2.1483064638e+00	 1.3834623689e+00
 5.9788145400e-01	 2.1538519729e+00	 1.3514505459e+00
 5.7824931944e-01	 2.1592054782e+00	 1.3155601684e+00
 5.5542498184e-01	 2.0739785129e+00	 1.5052627617e+00
 5.3656778577e-01	 2.0789369326e+00	 1.4086558956e+00
 5.1771311394e-01	 2.0837122714e+00	 1.3274909145e+00
 4.9886343584e-01	 2.0883052653e+00	 1.2633402466e+00
 4.8002119495e-01	 2.0927166911e+00	 1.2177659349e+00
 4.6118880795e-01	 2.0969473653e+00	 1.1923186719e+00
 4.4236866403e-01	 2.1009981432e+00	 1.1885370801e+00
 4.2356312421e-01	 2.1048699183e+00	 1.2079472565e+00
 4.0477452065e-01	 2.1085636212e+00	 1.2520625895e+00
 3.8600515608e-01	 2.1120802188e+00	 1.3223838516e+00
 3.6725730316e-01	 2.1154207133e+00	 1.4203766295e+00
 5.5770741560e-01	 2.0825012094e+00	 1.4972553287e+00
 5.3877272878e-01	 2.0874800050e+00	 1.4059249431e+00
 5.1984057656e-01	 2.0922749673e+00	 1.3292866079e+00
 5.0091343860e-01	 2.0968868355e+00	 1.2689097655e+00
 4.8199376841e-01	 2.1013163893e+00	 1.2263512706e+00
 4.6308399261e-01	 2.1055644488e+00	 1.2031543172e+00
 4.4418651020e-01	 2.1096318728e+00	 1.2008476536e+00
 4.2530369189e-01	 2.1135195584e+00	 1.2209451023e+00
 4.0643787945e-01	 2.1172284400e+00	 1.2649453928e+00
 3.8759138505e-01	 2.1207594885e+00	 1.3343323095e+00
 3.6876649071e-01	 2.1241137102e+00	 1.4305703438e+00
 5.5998984936e-01	 2.0910239059e+00	 1.4808181177e+00
 5.4097767178e-01	 2.0960230774e+00	 1.3951425430e+00
 5.2196803918e-01	 2.1008376632e+00	 1.3236677564e+00
 5.0296344137e-01	 2.1054684056e+00	 1.2679234223e+00
 4.8396634188e-01	 2.1099160876e+00	 1.2294214043e+00
 4.6497917727e-01	 2.1141815323e+00	 1.2096546820e+00
 4.4600435636e-01	 2.1182656023e+00	 1.2100965994e+00
 4.2704425957e-01	 2.1221691984e+00	 1.2322004630e+00
 4.0810123824e-01	 2.1258932587e+00	 1.2773994961e+00
 3.8917761403e-01	 2.1294387581e+00	 1.3471071493e+00
 3.7027567826e-01	 2.1328067071e+00	 1.4427177385e+00
 5.6227228312e-01	 2.0995466025e+00	 1.4582606997e+00
 5.4318261479e-01	 2.1045661498e+00	 1.3785903646e+00
 5.2409550181e-01	 2.1094003591e+00	 1.3128496495e+00
 5.0501344413e-01	 2.1140499757e+00	 1.2624922382e+00
 4.8593891534e-01	 2.1185157858e+00	 1.2289458036e+00
 4.6687436193e-01	 2.1227986158e+00	 1.2136110089e+00
 4.4782220253e-01	 2.1268993319e+00	 1.2178608890e+00
 4.2878482725e-01	 2.1308188384e+00	 1.2430406285e+00
 4.0976459704e-01	 2.1345580774e+00	 1.2904677414e+00
 3.9076384300e-01	 2.1381180278e+00	 1.3614326521e+00
 3.7178486581e-01	 2.1414997040e+00	 1.4571996662e+00
 5.6455471688e-01	 2.1080692990e+00	 1.4318559801e+00
 5.4538755780e-01	 2.1131092222e+00	 1.3585129606e+00
 5.2622296443e-01	 2.1179630551e+00	 1.2990106937e+00
 5.0706344689e-01	 2.1226315458e+00	 1.2546912642e+00
 4.8791148881e-01	 2.1271154840e+00	 1.2268595500e+00
 4.6876954659e-01	 2.1314156994e+00	 1.2167824029e+00
 4.4964004869e-01	 2.1355330615e+00	 1.2256882609e+00
 4.3052539494e-01	 2.1394684784e+00	 1.2547672074e+00
 4.1142795584e-01	 2.1432228962e+00	 1.3051714801e+00
 3.9235007198e-01	 2.1467972974e+00	 1.3780164286e+00
 3.7329405336e-01	 2.1501927009e+00	 1.4743819069e+00
 5.6683715064e-01	 2.1165919955e+00	 1.4038412584e+00
 5.4759250080e-01	 2.1216522946e+00	 1.3371188023e+00
 5.2835042706e-01	 2.1265257510e+00	 1.2842934116e+00
 5.0911344966e-01	 2.1312131160e+00	 1.2465605312e+00
 4.8988406227e-01	 2.1357151822e+00	 1.2250642282e+00
 4.7066473125e-01	 2.1400327829e+00	 1.2208966474e+00
 4.5145789486e-01	 2.1441667910e+00	 1.2350979519e+00
 4.3226596262e-01	 2.1481181185e+00	 1.2686567628e+00
 4.1309131464e-01	 2.1518877149e+00	 1.3225111014e+00
 3.9393630095e-01	 2.1554765671e+00	 1.3975498288e+00
 3.7480324091e-01	 2.1588856978e+00	 1.4946145678e+00
 5.6911958440e-01	 2.1251146921e+00	 1.3764192687e+00
 5.4979744381e-01	 2.1301953670e+00	 1.3165812956e+00
 5.3047788968e-01	 2.1350884469e+00	 1.2708054218e+00
 5.1116345242e-01	 2.1397946861e+00	 1.2401059813e+00
 4.9185663574e-01	 2.1443148804e+00	 1.2254287974e+00
 4.7255991591e-01	 2.1486498664e+00	 1.2276510048e+00
 4.5327574102e-01	 2.1528005206e+00	 1.2475814147e+00
 4.3400653031e-01	 2.1567677585e+00	 1.2859614355e+00
 4.1475467344e-01	 2.1605525337e+00	 1.3434665505e+00
 3.9552252993e-01	 2.1641558367e+00	 1.4207083441e+00
 3.7631242846e-01	 2.1675786947e+00	 1.5182370610e+00
 5.7140201817e-01	 2.1336373886e+00	 1.3517592000e+00
 5.5200238681e-01	 2.1387384394e+00	 1.2990397788e+00
 5.3260535231e-01	 2.1436511428e+00	 1.2606204004e+00
 5.1321345518e-01	 2.1483762562e+00	 1.2373003829e+00
 4.9382920920e-01	 2.1529145786e+00	 1.2297904477e+00
 4.7445510057e-01	 2.1572669499e+00	 1.2387130016e+00
 4.5509358719e-01	 2.1614342502e+00	 1.2646030217e+00
 4.3574709799e-01	 2.1654173985e+00	 1.3079095559e+00
 4.1641803224e-01	 2.1692173524e+00	 1.3689978375e+00
 3.9710875890e-01	 2.1728351064e+00	 1.4481520033e+00
 3.7782161601e-01	 2.1762716916e+00	 1.5455783962e+00
 5.7368445192e-01	 2.1421600852e+00	 1.3319976992e+00
 5.5420732982e-01	 2.1472815118e+00	 1.2866005012e+00
 5.3473281493e-01	 2.1522138388e+00	 1.2557790252e+00
 5.1526345795e-01	 2.1569578264e+00	 1.2400842273e+00
 4.9580178267e-01	 2.1615142768e+00	 1.2399554390e+00
 4.7635028523e-01	 2.1658840334e+00	 1.2557211995e+00
 4.5691143335e-01	 2.1700679797e+00	 1.2876007566e+00
 4.3748766567e-01	 2.1740670386e+00	 1.3357062448e+00
 4.1808139104e-01	 2.1778821711e+00	 1.4000455377e+00
 3.9869498788e-01	 2.1815143761e+00	 1.4805257616e+00
 3.7933080355e-01	 2.1849646885e+00	 1.5769574481e+00
 5.7596688568e-01	 2.1506827817e+00	 1.3192398557e+00
 5.5641227282e-01	 2.1558245842e+00	 1.2813375842e+00
 5.3686027755e-01	 2.1607765347e+00	 1.2582899015e+00
 5.1731346071e-01	 2.1655393965e+00	 1.2503666098e+00
 4.9777435613e-01	 2.1701139750e+00	 1.2576999250e+00
 4.7824546988e-01	 2.1745011169e+00	 1.2802859515e+00
 4.5872927951e-01	 2.1787017093e+00	 1.3179868926e+00
 4.3922823336e-01	 2.1827166786e+00	 1.3705340036e+00
 4.1974474984e-01	 2.1865469899e+00	 1.4375312828e+00
 4.0028121685e-01	 2.1901936457e+00	 1.5184598832e+00
 3.8083999110e-01	 2.1936576854e+00	 1.6126832211e+00
 5.7824931944e-01	 2.1592054782e+00	 1.3155601684e+00
 5.5861721583e-01	 2.1643676566e+00	 1.2852939653e+00
 5.3898774018e-01	 2.1693392306e+00	 1.2701304726e+00
 5.1936346347e-01	 2.1741209666e+00	 1.2700260940e+00
 4.9974692960e-01	 2.1787136732e+00	 1.2847707620e+00
 4.8014065454e-01	 2.1831182005e+00	 1.3139901446e+00
 4.6054712568e-01	 2.1873354389e+00	 1.3571486582e+00
 4.4096880104e-01	 2.1913663186e+00	 1.4135532935e+00
 4.2140810864e-01	 2.1952118086e+00	 1.4823582437e+00
 4.0186744582e-01	 2.1988729154e+00	 1.5625703179e+00
 3.8234917865e-01	 2.2023506823e+00	 1.6530551098e+00
 3.6725730316e-01	 2.1154207133e+00	 1.4203766295e+00
 3.4853002362e-01	 2.1185866643e+00	 1.5235276399e+00
 3.2982872276e-01	 2.1215785585e+00	 1.6084621362e+00
 3.1115558570e-01	 2.1243974975e+00	 1.6747038990e+00
 2.9251276530e-01	 2.1270446149e+00	 1.7218013161e+00
 2.7390238167e-01	 2.1295210749e+00	 1.7493308834e+00
 2.5532652180e-01	 2.1318280715e+00	 1.7568994016e+00
 2.3678723911e-01	 2.1339668276e+00	 1.7441450187e+00
 2.1828655311e-01	 2.1359385941e+00	 1.7107372687e+00
 1.9982644907e-01	 2.1377446487e+00	 1.6563762491e+00
 1.8140887769e-01	 2.1393862953e+00	 1.5807910788e+00
 3.6876649071e-01	 2.1241137102e+00	 1.4305703438e+00
 3.4996225428e-01	 2.1272926712e+00	 1.5315297791e+00
 3.3118410329e-01	 2.1302968601e+00	 1.6140251860e+00
 3.1243423184e-01	 2.1331273831e+00	 1.6776865233e+00
 2.9371480163e-01	 2.1357853785e+00	 1.7221657114e+00
 2.7502794149e-01	 2.1382720151e+00	 1.7471396632e+00
 2.5637574698e-01	 2.1405884919e+00	 1.7523119982e+00
 2.3776027995e-01	 2.1427360369e+00	 1.7374135986e+00
 2.1918356822e-01	 2.1447159060e+00	 1.7022021574e+00
 2.0064760521e-01	 2.1465293824e+00	 1.6464608689e+00
 1.8215434964e-01	 2.1481777751e+00	 1.5699964057e+00
 3.7027567826e-01	 2.1328067071e+00	 1.4427177385e+00
 3.5139448495e-01	 2.1359986781e+00	 1.5423942915e+00
 3.3253948383e-01	 2.1390151617e+00	 1.6231677403e+00
 3.1371287799e-01	 2.1418572687e+00	 1.6847736138e+00
 2.9491683797e-01	 2.1445261420e+00	 1.7269713045e+00
 2.7615350131e-01	 2.1470229552e+00	 1.7495465058e+00
 2.5742497215e-01	 2.1493489123e+00	 1.7523123190e+00
 2.3873332078e-01	 2.1515052462e+00	 1.7351091930e+00
 2.2008058332e-01	 2.1534932180e+00	 1.6978038516e+00
 2.0146876135e-01	 2.1553141161e+00	 1.6402873640e+00
 1.8289982160e-01	 2.1569692549e+00	 1.5624725057e+00
 3.7178486581e-01	 2.1414997040e+00	 1.4571996662e+00
 3.5282671562e-01	 2.1447046850e+00	 1.5561613496e+00
 3.3389486437e-01	 2.1477334633e+00	 1.6356470276e+00
 3.1499152414e-01	 2.1505871544e+00	 1.6954955409e+00
 2.9611887431e-01	 2.1532669055e+00	 1.7355775193e+00
 2.7727906114e-01	 2.1557738954e+00	 1.7557955964e+00
 2.5847419733e-01	 2.1581093328e+00	 1.7560847846e+00
 2.3970636162e-01	 2.1602744555e+00	 1.7364116694e+00
 2.2097759843e-01	 2.1622705300e+00	 1.6967725858e+00
 2.0228991749e-01	 2.1640988498e+00	 1.6371909355e+00
 1.8364529355e-01	 2.1657607347e+00	 1.5577137971e+00
 3.7329405336e-01	 2.1501927009e+00	 1.4743819069e+00
 3.5425894628e-01	 2.1534106919e+00	 1.5728654555e+00
 3.3525024491e-01	 2.1564517649e+00	 1.6512195769e+00
 3.1627017029e-01	 2.1593170400e+00	 1.7093860106e+00
 2.9732091064e-01	 2.1620076691e+00	 1.7473502205e+00
 2.7840462096e-01	 2.1645248356e+00	 1.7651397429e+00
 2.5952342250e-01	 2.1668697532e+00	 1.7628237037e+00
 2.4067940246e-01	 2.1690436649e+00	 1.7405111395e+00
 2.2187461353e-01	 2.1710478420e+00	 1.6983482933e+00
 2.0311107363e-01	 2.1728835834e+00	 1.6365150449e+00
 1.8439076551e-01	 2.1745522145e+00	 1.5552206373e+00
 3.7480324091e-01	 2.1588856978e+00	 1.4946145678e+00
 3.5569117695e-01	 2.1621166988e+00	 1.5925354963e+00
 3.3660562545e-01	 2.1651700666e+00	 1.6696411775e+00
 3.1754881644e-01	 2.1680469256e+00	 1.7259819477e+00
 2.9852294698e-01	 2.1707484326e+00	 1.7616615389e+00
 2.7953018078e-01	 2.1732757758e+00	 1.7768401613e+00
 2.6057264767e-01	 2.1756301736e+00	 1.7717330364e+00
 2.4165244329e-01	 2.1778128742e+00	 1.7466077190e+00
 2.2277162864e-01	 2.1798251540e+00	 1.7017803803e+00
 2.0393222977e-01	 2.1816683171e+00	 1.6376112205e+00
 1.8513623746e-01	 2.1833436942e+00	 1.5544991770e+00
 3.7631242846e-01	 2.1675786947e+00	 1.5182370610e+00
 3.5712340762e-01	 2.1708227057e+00	 1.6151947979e+00
 3.3796100599e-01	 2.1738883682e+00	 1.6906668407e+00
 3.1882746258e-01	 2.1767768112e+00	 1.7448233829e+00
 2.9972498332e-01	 2.1794891962e+00	 1.7778897018e+00
 2.8065574060e-01	 2.1820267160e+00	 1.7901662666e+00
 2.6162187285e-01	 2.1843905940e+00	 1.7820261642e+00
 2.4262548413e-01	 2.1865820835e+00	 1.7539112932e+00
 2.2366864375e-01	 2.1886024660e+00	 1.7063275049e+00
 2.0475338591e-01	 2.1904530508e+00	 1.6398388670e+00
 1.8588170942e-01	 2.1921351740e+00	 1.5550612186e+00
 3.7782161601e-01	 2.1762716916e+00	 1.5455783962e+00
 3.5855563829e-01	 2.1795287126e+00	 1.6408611772e+00
 3.3931638653e-01	 2.1826066698e+00	 1.7140507617e+00
 3.2010610873e-01	 2.1855066969e+00	 1.7654533420e+00
 3.0092701966e-01	 2.1882299597e+00	 1.7954188661e+00
 2.8178130042e-01	 2.1907776561e+00	 1.8043954687e+00
 2.6267109802e-01	 2.1931510145e+00	 1.7929256647e+00
 2.4359852496e-01	 2.1953512928e+00	 1.7616412882e+00
 2.2456565885e-01	 2.1973797780e+00	 1.7112573620e+00
 2.0557454205e-01	 2.1992377845e+00	 1.6425650805e+00
 1.8662718137e-01	 2.2009266538e+00	 1.5564240783e+00
 3.7933080355e-01	 2.1849646885e+00	 1.5769574481e+00
 3.5998786895e-01	 2.1882347194e+00	 1.6695469937e+00
 3.4067176707e-01	 2.1913249715e+00	 1.7395462828e+00
 3.2138475488e-01	 2.1942365825e+00	 1.7874177379e+00
 3.0212905599e-01	 2.1969707233e+00	 1.8136389570e+00
 2.8290686024e-01	 2.1995285963e+00	 1.8188129732e+00
 2.6372032320e-01	 2.2019114349e+00	 1.8036630919e+00
 2.4457156580e-01	 2.2041205021e+00	 1.7690264476e+00
 2.2546267395e-01	 2.2061570900e+00	 1.7158464727e+00
 2.0639569819e-01	 2.2080225182e+00	 1.6451644676e+00
 1.8737265333e-01	 2.2097181336e+00	 1.5581104510e+00
 3.8083999110e-01	 2.1936576854e+00	 1.6126832211e+00
 3.6142009962e-01	 2.1969407263e+00	 1.7012591985e+00
 3.4202714761e-01	 2.2000432731e+00	 1.7669058570e+00
 3.2266340102e-01	 2.2029664681e+00	 1.8102652651e+00
 3.0333109233e-01	 2.2057114868e+00	 1.8319455092e+00
 2.8403242006e-01	 2.2082795365e+00	 1.8327115866e+00
 2.6476954837e-01	 2.2106718553e+00	 1.8134787619e+00
 2.4554460663e-01	 2.2128897114e+00	 1.7753046147e+00
 2.2635968906e-01	 2.2149344020e+00	 1.7193799792e+00
 2.0721685432e-01	 2.2168072519e+00	 1.6470189692e+00
 1.8811812528e-01	 2.2185096134e+00	 1.5596482785e+00
 3.8234917865e-01	 2.2023506823e+00	 1.6530551098e+00
 3.6285233028e-01	 2.2056467332e+00	 1.7359993840e+00
 3.4338252815e-01	 2.2087615747e+00	 1.7958810129e+00
 3.2394204717e-01	 2.2116963537e+00	 1.8335472967e+00
 3.0453312866e-01	 2.2144522504e+00	 1.8497395127e+00
 2.8515797987e-01	 2.2170304767e+00	 1.8453915267e+00
 2.6581877354e-01	 2.2194322757e+00	 1.8216215437e+00
 2.4651764747e-01	 2.2216589208e+00	 1.7797225199e+00
 2.2725670416e-01	 2.2237117139e+00	 1.7211433815e+00
 2.0803801046e-01	 2.2255919856e+00	 1.6474853394e+00
 1.8886359723e-01	 2.2273010932e+00	 1.5605143370e+00
 1.8140887769e-01	 2.1393862953e+00	 1.5807910788e+00
 1.6303886681e-01	 2.1408646252e+00	 1.5008990231e+00
 1.4471512630e-01	 2.1421812835e+00	 1.4335019614e+00
 1.2643945885e-01	 2.1433376453e+00	 1.3782351177e+00
 1.0821363280e-01	 2.1443351079e+00	 1.3347504844e+00
 9.0039381901e-02	 2.1451750900e+00	 1.3027133008e+00
 7.1918405228e-02	 2.1458590307e+00	 1.2817985337e+00
 5.3852366984e-02	 2.1463883885e+00	 1.2716874531e+00
 3.5842896417e-02	 2.1467646406e+00	 1.2720643914e+00
 1.7891587727e-02	 2.1469892817e+00	 1.2826137631e+00
 0.0000000000e+00	 2.1470638235e+00	 1.3030174162e+00
 1.8215434964e-01	 2.1481777751e+00	 1.5699964057e+00
 1.6370885003e-01	 2.1496621800e+00	 1.4898723134e+00
 1.4530981091e-01	 2.1509842489e+00	 1.4228450636e+00
 1.2695904241e-01	 2.1521453625e+00	 1.3683443630e+00
 1.0865832012e-01	 2.1531469241e+00	 1.3258277252e+00
 9.0409384930e-02	 2.1539903579e+00	 1.2947764286e+00
 7.2213942883e-02	 2.1546771092e+00	 1.2746914818e+00
 5.4073665026e-02	 2.1552086423e+00	 1.2650896945e+00
 3.5990187302e-02	 2.1555864406e+00	 1.2654999422e+00
 1.7965110462e-02	 2.1558120048e+00	 1.2754597071e+00
 0.0000000000e+00	 2.1558868529e+00	 1.2945119670e+00
 1.8289982160e-01	 2.1569692549e+00	 1.5624725057e+00
 1.6437883324e-01	 2.1584597348e+00	 1.4816733183e+00
 1.4590449553e-01	 2.1597872142e+00	 1.4146932193e+00
 1.2747862598e-01	 2.1609530798e+00	 1.3607669138e+00
 1.0910300745e-01	 2.1619587402e+00	 1.3191636958e+00
 9.0779387959e-02	 2.1628056259e+00	 1.2891829633e+00
 7.2509480538e-02	 2.1634951877e+00	 1.2701497523e+00
 5.4294963068e-02	 2.1640288961e+00	 1.2614103876e+00
 3.6137478187e-02	 2.1644082405e+00	 1.2623283432e+00
 1.8038633198e-02	 2.1646347279e+00	 1.2722803956e+00
 0.0000000000e+00	 2.1647098823e+00	 1.2906531454e+00
 1.8364529355e-01	 2.1657607347e+00	 1.5577137971e+00
 1.6504881646e-01	 2.1672572895e+00	 1.4759535687e+00
 1.4649918014e-01	 2.1685901796e+00	 1.4087970430e+00
 1.2799820954e-01	 2.1697607970e+00	 1.3552946521e+00
 1.0954769477e-01	 2.1707705564e+00	 1.3145339732e+00
 9.1149390988e-02	 2.1716208938e+00	 1.2856348814e+00
 7.2805018193e-02	 2.1723132662e+00	 1.2677447324e+00
 5.4516261110e-02	 2.1728491500e+00	 1.2600336787e+00
 3.6284769073e-02	 2.1732300405e+00	 1.2616902132e+00
 1.8112155933e-02	 2.1734574510e+00	 1.2719170260e+00
 0.0000000000e+00	 2.1735329117e+00	 1.2899272521e+00
 1.8439076551e-01	 2.1745522145e+00	 1.5552206373e+00
 1.6571879967e-01	 2.1760548443e+00	 1.4723682421e+00
 1.4709386476e-01	 2.1773931450e+00	 1.4049094426e+00
 1.2851779310e-01	 2.1785685143e+00	 1.3517213365e+00
 1.0999238210e-01	 2.1795823726e+00	 1.3117165321e+00
 9.1519394018e-02	 2.1804361618e+00	 1.2838380134e+00
 7.3100555849e-02	 2.1811313447e+00	 1.2670540535e+00
 5.4737559153e-02	 2.1816694038e+00	 1.2603532793e+00
 3.6432059958e-02	 2.1820518404e+00	 1.2627399853e+00
 1.8185678669e-02	 2.1822801741e+00	 1.2732297836e+00
 0.0000000000e+00	 2.1823559412e+00	 1.2908456703e+00
 1.8513623746e-01	 2.1833436942e+00	 1.5544991770e+00
 1.6638878288e-01	 2.1848523990e+00	 1.4705760665e+00
 1.4768854937e-01	 2.1861961103e+00	 1.4027855516e+00
 1.2903737666e-01	 2.1873762315e+00	 1.3498425466e+00
 1.1043706942e-01	 2.1883941887e+00	 1.3104916805e+00
 9.1889397047e-02	 2.1892514297e+00	 1.2835019524e+00
 7.3396093504e-02	 2.1899494232e+00	 1.2676614539e+00
 5.4958857195e-02	 2.1904896576e+00	 1.2617722647e+00
 3.6579350844e-02	 2.1908736404e+00	 1.2646456229e+00
 1.8259201405e-02	 2.1911028972e+00	 1.2750974569e+00
 0.0000000000e+00	 2.1911789706e+00	 1.2919443610e+00
 1.8588170942e-01	 2.1921351740e+00	 1.5550612186e+00
 1.6705876610e-01	 2.1936499538e+00	 1.4702392257e+00
 1.4828323398e-01	 2.1949990757e+00	 1.4021826647e+00
 1.2955696022e-01	 2.1961839488e+00	 1.3494556276e+00
 1.1088175675e-01	 2.1972060049e+00	 1.3106419968e+00
 9.2259400077e-02	 2.1980666977e+00	 1.2843399652e+00
 7.3691631160e-02	 2.1987675017e+00	 1.2691566450e+00
 5.5180155238e-02	 2.1993099114e+00	 1.2637028774e+00
 3.6726641730e-02	 2.1996954404e+00	 1.2665883424e+00
 1.8332724141e-02	 2.1999256203e+00	 1.2764170607e+00
 0.0000000000e+00	 2.2000020000e+00	 1.2917833701e+00
 1.8662718137e-01	 2.2009266538e+00	 1.5564240783e+00
 1.6772874931e-01	 2.2024475085e+00	 1.4710232677e+00
 1.4887791859e-01	 2.2038020411e+00	 1.4028601731e+00
 1.3007654378e-01	 2.2049916661e+00	 1.3503596366e+00
 1.1132644407e-01	 2.2060178211e+00	 1.3119522686e+00
 9.2629403106e-02	 2.2068819656e+00	 1.2860689048e+00
 7.3987168815e-02	 2.2075855802e+00	 1.2711351811e+00
 5.5401453280e-02	 2.2081301652e+00	 1.2655663354e+00
 3.6873932615e-02	 2.2085172403e+00	 1.2677623420e+00
 1.8406246877e-02	 2.2087483434e+00	 1.2761034696e+00
 0.0000000000e+00	 2.2088250294e+00	 1.2889463471e+00
 1.8737265333e-01	 2.2097181336e+00	 1.5581104510e+00
 1.6839873252e-01	 2.2112450633e+00	 1.4725970147e+00
 1.4947260321e-01	 2.2126050064e+00	 1.4045795029e+00
 1.3059612734e-01	 2.2137993833e+00	 1.3523552910e+00
 1.1177113140e-01	 2.2148296373e+00	 1.3142094322e+00
 9.2999406135e-02	 2.2156972336e+00	 1.2884091258e+00
 7.4282706470e-02	 2.2164036587e+00	 1.2731983314e+00
 5.5622751322e-02	 2.2169504190e+00	 1.2667926448e+00
 3.7021223500e-02	 2.2173390403e+00	 1.2673745379e+00
 1.8479769612e-02	 2.2175710665e+00	 1.2730890590e+00
 0.0000000000e+00	 2.2176480588e+00	 1.2820400761e+00
 1.8811812528e-01	 2.2185096134e+00	 1.5596482785e+00
 1.6906871573e-01	 2.2200426181e+00	 1.4746324758e+00
 1.5006728782e-01	 2.2214079718e+00	 1.4071040543e+00
 1.3111571090e-01	 2.2226071006e+00	 1.3552447752e+00
 1.1221581872e-01	 2.2236414534e+00	 1.3172013017e+00
 9.3369409163e-02	 2.2245125015e+00	 1.2910816552e+00
 7.4578244125e-02	 2.2252217372e+00	 1.2749471324e+00
 5.5844049364e-02	 2.2257706728e+00	 1.2668079551e+00
 3.7168514385e-02	 2.2261608403e+00	 1.2646199242e+00
 1.8553292348e-02	 2.2263937896e+00	 1.2662813273e+00
 0.0000000000e+00	 2.2264710882e+00	 1.2696300747e+00
 1.8886359723e-01	 2.2273010932e+00	 1.5605143370e+00
 1.6973869895e-01	 2.2288401728e+00	 1.4767346878e+00
 1.5066197243e-01	 2.2302109371e+00	 1.4101277393e+00
 1.3163529446e-01	 2.2314148178e+00	 1.3587681034e+00
 1.1266050604e-01	 2.2324532696e+00	 1.3206650599e+00
 9.3739412190e-02	 2.2333277695e+00	 1.2937591536e+00
 7.4873781778e-02	 2.2340398157e+00	 1.2759191413e+00
 5.6065347405e-02	 2.2345909267e+00	 1.2649392586e+00
 3.7315805270e-02	 2.2349826402e+00	 1.2585367728e+00
 1.8626815083e-02	 2.2352165126e+00	 1.2543497950e+00
 0.0000000000e+00	 2.2352941176e+00	 1.2499353203e+00
 2.2352941176e+00	 0.0000000000e+00	 1.6964246945e+01
 2.2352165126e+00	 1.8626815083e-02	 9.6050426997e+00
 2.2349826402e+00	 3.7315805270e-02	 3.7306048046e+00
 2.2345909267e+00	 5.6065347405e-02	-7.7469211121e-01
 2.2340398157e+00	 7.4873781778e-02	-4.0291635233e+00
 2.2333277695e+00	 9.3739412190e-02	-6.1537855135e+00
 2.2324532696e+00	 1.1266050604e-01	-7.2721616494e+00
 2.2314148178e+00	 1.3163529446e-01	-7.5104862353e+00
 2.2302109371e+00	 1.5066197243e-01	-6.9975039391e+00
 2.2288401728e+00	 1.6973869895e-01	-5.8644658096e+00
 2.2273010932e+00	 1.8886359723e-01	-4.2450817125e+00
 2.2441171470e+00	 0.0000000000e+00	 1.4070628603e+01
 2.2440392357e+00	 1.8700337818e-02	 7.6462629326e+00
 2.2438044402e+00	 3.7463096154e-02	 2.5405621071e+00
 2.2434111805e+00	 5.6286645446e-02	-1.3471267630e+00
 2.2428578942e+00	 7.5169319431e-02	-4.1199235842e+00
 2.2421430375e+00	 9.4109415217e-02	-5.8833993004e+00
 2.2412650858e+00	 1.1310519337e-01	-6.7455568797e+00
 2.2402225351e+00	 1.3215487802e-01	-6.8168092568e+00
 2.2390139025e+00	 1.5125665704e-01	-6.2099542346e+00
 2.2376377276e+00	 1.7040868216e-01	-5.0401463532e+00
 2.2360925730e+00	 1.8960906919e-01	-3.4248657521e+00
 2.2529401764e+00	 0.0000000000e+00	 1.1917997606e+01
 2.2528619588e+00	 1.8773860553e-02	 6.3156795278e+00
 2.2526262402e+00	 3.7610387038e-02	 1.8752479723e+00
 2.2522314343e+00	 5.6507943486e-02	-1.4889587227e+00
 2.2516759727e+00	 7.5464857084e-02	-3.8649021915e+00
 2.2509583054e+00	 9.4479418243e-02	-5.3428429397e+00
 2.2500769020e+00	 1.1354988069e-01	-6.0153367621e+00
 2.2490302523e+00	 1.3267446158e-01	-5.9772286628e+00
 2.2478168679e+00	 1.5185134165e-01	-5.3256442740e+00
 2.2464352823e+00	 1.7107866537e-01	-4.1599787768e+00
 2.2448840528e+00	 1.9035454114e-01	-2.5818833397e+00
 2.2617632059e+00	 0.0000000000e+00	 1.0506170917e+01
 2.2616846819e+00	 1.8847383288e-02	 5.6169713533e+00
 2.2614480401e+00	 3.7757677922e-02	 1.7414344696e+00
 2.2610516881e+00	 5.6729241526e-02	-1.1910925273e+00
 2.2604940512e+00	 7.5760394736e-02	-3.2534509778e+00
 2.2597735734e+00	 9.4849421268e-02	-4.5206858987e+00
 2.2588887181e+00	 1.1399456801e-01	-5.0700591471e+00
 2.2578379696e+00	 1.3319404514e-01	-4.9810605950e+00
 2.2566198332e+00	 1.5244602626e-01	-4.3354173007e+00
 2.2552328371e+00	 1.7174864857e-01	-3.2171006713e+00
 2.2536755325e+00	 1.9110001309e-01	-1.7123316204e+00
 2.2705862353e+00	 0.0000000000e+00	 9.8349689489e+00
 2.2705074050e+00	 1.8920906022e-02	 5.5537603173e+00
 2.2702698401e+00	 3.7904968805e-02	 2.1457883206e+00
 2.2698719419e+00	 5.6950539565e-02	-4.4457441397e-01
 2.2693121297e+00	 7.6055932387e-02	-2.2750875850e+00
 2.2685888413e+00	 9.5219424293e-02	-3.4056759184e+00
 2.2677005343e+00	 1.1443925533e-01	-3.8984603843e+00
 2.2666456868e+00	 1.3371362869e-01	-3.8177878938e+00
 2.2654227986e+00	 1.5304071086e-01	-3.2302594497e+00
 2.2640303919e+00	 1.7241863178e-01	-2.2047567332e+00
 2.2624670123e+00	 1.9184548504e-01	-8.1246711535e-01
 2.2794092647e+00	 0.0000000000e+00	 9.9042154927e+00
 2.2793301281e+00	 1.8994428757e-02	 6.1296124685e+00
 2.2790916401e+00	 3.8052259688e-02	 3.0948729351e+00
 2.2786921957e+00	 5.7171837604e-02	 7.5941041829e-01
 2.2781302082e+00	 7.6351470039e-02	-9.1949245559e-01
 2.2774041093e+00	 9.5589427318e-02	-1.9867355669e+00
 2.2765123505e+00	 1.1488394265e-01	-2.4894518698e+00
 2.2754534041e+00	 1.3423321225e-01	-2.4770568712e+00
 2.2742257640e+00	 1.5363539547e-01	-2.0012969788e+00
 2.2728279466e+00	 1.7308861499e-01	-1.1162966854e+00
 2.2712584921e+00	 1.9259095699e-01	 1.2139543743e-01
 2.2882322941e+00	 0.0000000000e+00	 1.0713737658e+01
 2.2881528512e+00	 1.9067951492e-02	 7.3480390708e+00
 2.2879134400e+00	 3.8199550571e-02	 4.5951503989e+00
 2.2875124496e+00	 5.7393135643e-02	 2.4295404837e+00
 2.2869482867e+00	 7.6647007690e-02	 8.2349430242e-01
 2.2862193772e+00	 9.5959430343e-02	-2.5295887110e-01
 2.2853241667e+00	 1.1532862997e-01	-8.3211667255e-01
 2.2842611214e+00	 1.3475279581e-01	-9.4867415865e-01
 2.2830287293e+00	 1.5423008008e-01	-6.3979356328e-01
 2.2816255014e+00	 1.7375859820e-01	 5.4826754380e-02
 2.2800499719e+00	 1.9333642894e-01	 1.0928842159e+00
 2.2970553235e+00	 0.0000000000e+00	 1.2263365805e+01
 2.2969755743e+00	 1.9141474226e-02	 9.2124976535e+00
 2.2967352400e+00	 3.8346841455e-02	 6.6529834161e+00
 2.2963327034e+00	 5.7614433683e-02	 4.5743606232e+00
 2.2957663652e+00	 7.6942545342e-02	 2.9638759781e+00
 2.2950346452e+00	 9.6329433368e-02	 1.8063919728e+00
 2.2941359828e+00	 1.1577331729e-01	 1.0842937614e+00
 2.2930688386e+00	 1.3527237936e-01	 7.7739637310e-01
 2.2918316947e+00	 1.5482476469e-01	 8.6285234633e-01
 2.2904230561e+00	 1.7442858141e-01	 1.3150598587e+00
 2.2888414517e+00	 1.9408190089e-01	 2.1055714206e+00
 2.3058783529e+00	 0.0000000000e+00	 1.4552933487e+01
 2.3057982974e+00	 1.9214996961e-02	 1.1726393037e+01
 2.3055570400e+00	 3.8494132338e-02	 9.2746372076e+00
 2.3051529572e+00	 5.7835731722e-02	 7.2022845576e+00
 2.3045844437e+00	 7.7238082994e-02	 5.5115022498e+00
 2.3038499131e+00	 9.6699436393e-02	 4.2018898143e+00
 2.3029477990e+00	 1.1621800461e-01	 3.2703628291e+00
 2.3018765559e+00	 1.3579196292e-01	 2.7110366231e+00
 2.3006346601e+00	 1.5541944930e-01	 2.5151101068e+00
 2.2992206109e+00	 1.7509856462e-01	 2.6707498292e+00
 2.2976329315e+00	 1.9482737284e-01	 3.1629743559e+00
 2.3147013824e+00	 0.0000000000e+00	 1.7582277384e+01
 2.3146210205e+00	 1.9288519696e-02	 1.4893078335e+01
 2.3143788399e+00	 3.8641423222e-02	 1.2466281365e+01
 2.3139732110e+00	 5.8057029762e-02	 1.0321597383e+01
 2.3134025222e+00	 7.7533620647e-02	 8.4760721093e+00
 2.3126651811e+00	 9.7069439419e-02	 6.9439456894e+00
 2.3117596152e+00	 1.1666269193e-01	 5.7365119170e+00
 2.3106842731e+00	 1.3631154648e-01	 4.8619772007e+00
 2.3094376254e+00	 1.5601413391e-01	 4.3253194050e+00
 2.3080181656e+00	 1.7576854783e-01	 4.1281466920e+00
 2.3064244113e+00	 1.9557284479e-01	 4.2685564867e+00
 2.3235244118e+00	 0.0000000000e+00	 2.1351237247e+01
 2.3234437436e+00	 1.9362042431e-02	 1.8715855934e+01
 2.3232006399e+00	 3.8788714106e-02	 1.6233991663e+01
 2.3227934648e+00	 5.8278327803e-02	 1.3940458009e+01
 2.3222206007e+00	 7.7829158300e-02	 1.1867136719e+01
 2.3214804490e+00	 9.7439442445e-02	 1.0042811890e+01
 2.3205714314e+00	 1.1710737926e-01	 8.4930034761e+00
 2.3194919904e+00	 1.3683113004e-01	 7.2398002990e+00
 2.3182405908e+00	 1.5660881852e-01	 6.3016927242e+00
 2.3168157204e+00	 1.7643853104e-01	 5.6934051500e+00
 2.3152158911e+00	 1.9631831674e-01	 5.4257284717e+00
 2.2273010932e+00	 1.8886359723e-01	-4.2450817125e+00
 2.2255919856e+00	 2.0803801046e-01	-2.5303106300e+00
 2.2237117139e+00	 2.2725670416e-01	-1.0217620259e+00
 2.2216589208e+00	 2.4651764747e-01	 2.7955102869e-01
 2.2194322757e+00	 2.6581877354e-01	 1.3724316901e+00
 2.2170304767e+00	 2.8515797987e-01	 2.2544648524e+00
 2.2144522504e+00	 3.0453312866e-01	 2.9220843388e+00
 2.2116963537e+00	 3.2394204717e-01	 3.3707476612e+00
 2.2087615747e+00	 3.4338252815e-01	 3.5948784459e+00
 2.2056467332e+00	 3.6285233028e-01	 3.5878178558e+00
 2.2023506823e+00	 3.8234917865e-01	 3.3319922107e+00
 2.2360925730e+00	 1.8960906919e-01	-3.4248657521e+00
 2.2343767193e+00	 2.0885916660e-01	-1.7412118852e+00
 2.2324890259e+00	 2.2815371926e-01	-2.8645695247e-01
 2.2304281301e+00	 2.4749068830e-01	 9.4046059167e-01
 2.2281926962e+00	 2.6686799871e-01	 1.9400115128e+00
 2.2257814168e+00	 2.8628353969e-01	 2.7119891954e+00
 2.2231930139e+00	 3.0573516500e-01	 3.2554205741e+00
 2.2204262394e+00	 3.2522069331e-01	 3.5686230361e+00
 2.2174798763e+00	 3.4473790869e-01	 3.6492395430e+00
 2.2143527401e+00	 3.6428456095e-01	 3.4932352116e+00
 2.2110436792e+00	 3.8385836620e-01	 3.0837622502e+00
 2.2448840528e+00	 1.9035454114e-01	-2.5818833397e+00
 2.2431614530e+00	 2.0968032273e-01	-9.5369275788e-01
 2.2412663379e+00	 2.2905073436e-01	 4.3210488368e-01
 2.2391973394e+00	 2.4846372913e-01	 1.5775316541e+00
 2.2369531166e+00	 2.6791722388e-01	 2.4841339250e+00
 2.2345323570e+00	 2.8740909951e-01	 3.1528967565e+00
 2.2319337775e+00	 3.0693720133e-01	 3.5841556847e+00
 2.2291561250e+00	 3.2649933946e-01	 3.7775058786e+00
 2.2261981779e+00	 3.4609328922e-01	 3.7317086378e+00
 2.2230587470e+00	 3.6571679161e-01	 3.4445952011e+00
 2.2197366761e+00	 3.8536755374e-01	 2.8995847523e+00
 2.2536755325e+00	 1.9110001309e-01	-1.7123316204e+00
 2.2519461867e+00	 2.1050147887e-01	-1.6719680885e-01
 2.2500436499e+00	 2.2994774946e-01	 1.1316339911e+00
 2.2479665487e+00	 2.4943676996e-01	 2.1860176123e+00
 2.2457135370e+00	 2.6896644905e-01	 2.9974671648e+00
 2.2432832972e+00	 2.8853465932e-01	 3.5670692249e+00
 2.2406745410e+00	 3.0813923766e-01	 3.8953983162e+00
 2.2378860106e+00	 3.2777798560e-01	 3.9824286362e+00
 2.2349164796e+00	 3.4744866976e-01	 3.8274429910e+00
 2.2317647539e+00	 3.6714902227e-01	 3.4289388962e+00
 2.2284296730e+00	 3.8687674129e-01	 2.7692053237e+00
 2.2624670123e+00	 1.9184548504e-01	-8.1246711535e-01
 2.2607309204e+00	 2.1132263500e-01	 6.1882370571e-01
 2.2588209619e+00	 2.3084476456e-01	 1.8098766824e+00
 2.2567357580e+00	 2.5040981079e-01	 2.7612714963e+00
 2.2544739575e+00	 2.7001567422e-01	 3.4733928582e+00
 2.2520342374e+00	 2.8966021914e-01	 3.9463523077e+00
 2.2494153045e+00	 3.0934127399e-01	 4.1799072104e+00
 2.2466158962e+00	 3.2905663174e-01	 4.1733768975e+00
 2.2436347812e+00	 3.4880405029e-01	 3.9255558939e+00
 2.2404707608e+00	 3.6858125293e-01	 3.4346241805e+00
 2.2371226699e+00	 3.8838592883e-01	 2.6810465179e+00
 2.2712584921e+00	 1.9259095699e-01	 1.2139543743e-01
 2.2695156541e+00	 2.1214379113e-01	 1.4049080168e+00
 2.2675982739e+00	 2.3174177966e-01	 2.4646143999e+00
 2.2655049673e+00	 2.5138285162e-01	 3.2987188279e+00
 2.2632343779e+00	 2.7106489939e-01	 3.9053959904e+00
 2.2607851776e+00	 2.9078577895e-01	 4.2827192274e+00
 2.2581560681e+00	 3.1054331033e-01	 4.4285858581e+00
 2.2553457818e+00	 3.3033527789e-01	 4.3406395638e+00
 2.2523530828e+00	 3.5015943083e-01	 4.0161897549e+00
 2.2491767677e+00	 3.7001348360e-01	 3.4521278518e+00
 2.2458156668e+00	 3.8989511638e-01	 2.6263005525e+00
 2.2800499719e+00	 1.9333642894e-01	 1.0928842159e+00
 2.2783003878e+00	 2.1296494727e-01	 2.1915870210e+00
 2.2763755859e+00	 2.3263879476e-01	 3.0936630562e+00
 2.2742741767e+00	 2.5235589245e-01	 3.7938562467e+00
 2.2719947983e+00	 2.7211412455e-01	 4.2870629400e+00
 2.2695361177e+00	 2.9191133877e-01	 4.5682682952e+00
 2.2668968316e+00	 3.1174534666e-01	 4.6324797451e+00
 2.2640756675e+00	 3.3161392403e-01	 4.4746574424e+00
 2.2610713844e+00	 3.5151481136e-01	 4.0896416003e+00
 2.2578827746e+00	 3.7144571426e-01	 3.4720213687e+00
 2.2545086637e+00	 3.9140430392e-01	 2.5964469460e+00
 2.2888414517e+00	 1.9408190089e-01	 2.1055714206e+00
 2.2870851215e+00	 2.1378610340e-01	 2.9793834546e+00
 2.2851528979e+00	 2.3353580986e-01	 3.6948723910e+00
 2.2830433860e+00	 2.5332893328e-01	 4.2422501663e+00
 2.2807552187e+00	 2.7316334972e-01	 4.6120795595e+00
 2.2782870579e+00	 2.9303689858e-01	 4.7952205414e+00
 2.2756375952e+00	 3.1294738299e-01	 4.7827736624e+00
 2.2728055531e+00	 3.3289257017e-01	 4.5660203712e+00
 2.2697896861e+00	 3.5287019190e-01	 4.1363601514e+00
 2.2665887815e+00	 3.7287794492e-01	 3.4849568782e+00
 2.2632016606e+00	 3.9291349147e-01	 2.5830977892e+00
 2.2976329315e+00	 1.9482737284e-01	 3.1629743559e+00
 2.2958698551e+00	 2.1460725954e-01	 3.7688120641e+00
 2.2939302098e+00	 2.3443282496e-01	 4.2661253427e+00
 2.2918125953e+00	 2.5430197411e-01	 4.6395354633e+00
 2.2895156391e+00	 2.7421257489e-01	 4.8742292998e+00
 2.2870379981e+00	 2.9416245840e-01	 4.9559173994e+00
 2.2843783587e+00	 3.1414941932e-01	 4.8707890781e+00
 2.2815354387e+00	 3.3417121631e-01	 4.6054644088e+00
 2.2785079877e+00	 3.5422557243e-01	 4.1469429682e+00
 2.2752947884e+00	 3.7431017558e-01	 3.4818895290e+00
 2.2718946575e+00	 3.9442267901e-01	 2.5779951874e+00
 2.3064244113e+00	 1.9557284479e-01	 4.2685564867e+00
 2.3046545888e+00	 2.1542841567e-01	 4.5603797733e+00
 2.3027075218e+00	 2.3532984006e-01	 4.8053374338e+00
 2.3005818046e+00	 2.5527501495e-01	 4.9814141949e+00
 2.2982760596e+00	 2.7526180006e-01	 5.0673913778e+00
 2.2957889383e+00	 2.9528801822e-01	 5.0428184439e+00
 2.2931191223e+00	 3.1535145565e-01	 4.8879815691e+00
 2.2902653243e+00	 3.3544986246e-01	 4.5838690894e+00
 2.2872262893e+00	 3.5558095297e-01	 4.1121336595e+00
 2.2840007953e+00	 3.7574240624e-01	 3.4539221281e+00
 2.2805876544e+00	 3.9593186656e-01	 2.5730087607e+00
 2.3152158911e+00	 1.9631831674e-01	 5.4257284717e+00
 2.3134393225e+00	 2.1624957181e-01	 5.3545858459e+00
 2.3114848338e+00	 2.3622685516e-01	 5.3104561717e+00
 2.3093510139e+00	 2.5624805578e-01	 5.2636543470e+00
 2.3070364800e+00	 2.7631102523e-01	 5.1855389858e+00
 2.3045398784e+00	 2.9641357803e-01	 5.0484991799e+00
 2.3018598858e+00	 3.1655349199e-01	 4.8259383130e+00
 2.2989952099e+00	 3.3672850860e-01	 4.4922547413e+00
 2.2959445909e+00	 3.5693633350e-01	 4.0228191558e+00
 2.2927068022e+00	 3.7717463691e-01	 3.3922942956e+00
 2.2892806513e+00	 3.9744105410e-01	 2.5601332011e+00
 2.2023506823e+00	 3.8234917865e-01	 3.3319922107e+00
 2.1988729154e+00	 4.0186744582e-01	 2.8762734236e+00
 2.1952118086e+00	 4.2140810864e-01	 2.3211548655e+00
 2.1913663186e+00	 4.4096880104e-01	 1.6876991651e+00
 2.1873354389e+00	 4.6054712568e-01	 9.9854343121e-01
 2.1831182005e+00	 4.8014065454e-01	 2.7791435074e-01
 2.1787136732e+00	 4.9974692960e-01	-4.4836363965e-01
 2.1741209666e+00	 5.1936346347e-01	-1.1528678829e+00
 2.1693392306e+00	 5.3898774018e-01	-1.8065854920e+00
 2.1643676566e+00	 5.5861721583e-01	-2.3789305415e+00
 2.1592054782e+00	 5.7824931944e-01	-2.8377711706e+00
 2.2110436792e+00	 3.8385836620e-01	 3.0837622502e+00
 2.2075521850e+00	 4.0345367480e-01	 2.4886727805e+00
 2.2038766273e+00	 4.2307146744e-01	 1.8222746289e+00
 2.2000159587e+00	 4.4270936872e-01	 1.1035963901e+00
 2.1959691684e+00	 4.6236497184e-01	 3.5306761086e-01
 2.1917352840e+00	 4.8203583920e-01	-4.0746427918e-01
 2.1873133714e+00	 5.0171950306e-01	-1.1547238966e+00
 2.1827025368e+00	 5.2141346623e-01	-1.8640054884e+00
 2.1779019266e+00	 5.4111520280e-01	-2.5091789511e+00
 2.1729107290e+00	 5.6082215883e-01	-3.0627050418e+00
 2.1677281748e+00	 5.8053175320e-01	-3.4956605137e+00
 2.2197366761e+00	 3.8536755374e-01	 2.8995847523e+00
 2.2162314547e+00	 4.0503990377e-01	 2.1821653648e+00
 2.2125414461e+00	 4.2473482623e-01	 1.4186546007e+00
 2.2086655987e+00	 4.4444993640e-01	 6.2640276597e-01
 2.2046028980e+00	 4.6418281800e-01	-1.7601457309e-01
 2.2003523675e+00	 4.8393102385e-01	-9.6877824714e-01
 2.1959130696e+00	 5.0369207652e-01	-1.7308139456e+00
 2.1912841069e+00	 5.2346346899e-01	-2.4397882976e+00
 2.1864646225e+00	 5.4324266542e-01	-3.0721133705e+00
 2.1814538014e+00	 5.6302710183e-01	-3.6029603641e+00
 2.1762508713e+00	 5.8281418696e-01	-4.0062832494e+00
 2.2284296730e+00	 3.8687674129e-01	 2.7692053237e+00
 2.2249107243e+00	 4.0662613274e-01	 1.9484334745e+00
 2.2212062648e+00	 4.2639818503e-01	 1.1031811193e+00
 2.2173152387e+00	 4.4619050408e-01	 2.4997567112e-01
 2.2132366276e+00	 4.6600066416e-01	-5.9396220676e-01
 2.2089694510e+00	 4.8582620851e-01	-1.4104953153e+00
 2.2045127678e+00	 5.0566464998e-01	-2.1804070931e+00
 2.1998656770e+00	 5.2551347175e-01	-2.8833966299e+00
 2.1950273184e+00	 5.4537012804e-01	-3.4980820924e+00
 2.1899968738e+00	 5.6523204483e-01	-4.0020133569e+00
 2.1847735679e+00	 5.8509662071e-01	-4.3716946192e+00
 2.2371226699e+00	 3.8838592883e-01	 2.6810465179e+00
 2.2335899940e+00	 4.0821236171e-01	 1.7773428950e+00
 2.2298710835e+00	 4.2806154382e-01	 8.6786994652e-01
 2.2259648788e+00	 4.4793107176e-01	-3.1933908376e-02
 2.2218703571e+00	 4.6781851032e-01	-9.0593616332e-01
 2.2175865345e+00	 4.8772139316e-01	-1.7369971248e+00
 2.2131124661e+00	 5.0763722344e-01	-2.5072013371e+00
 2.2084472472e+00	 5.2756347451e-01	-3.1979449675e+00
 2.2035900143e+00	 5.4749759066e-01	-3.7897206867e+00
 2.1985399462e+00	 5.6743698783e-01	-4.2621296925e+00
 2.1932962644e+00	 5.8737905447e-01	-4.5939037513e+00
 2.2458156668e+00	 3.8989511638e-01	 2.6263005525e+00
 2.2422692636e+00	 4.0979859068e-01	 1.6605263495e+00
 2.2385359023e+00	 4.2972490262e-01	 7.0444612109e-01
 2.2346145188e+00	 4.4967163944e-01	-2.2691263517e-01
 2.2305040867e+00	 4.6963635648e-01	-1.1180156284e+00
 2.2262036180e+00	 4.8961657782e-01	-1.9528282918e+00
 2.2217121643e+00	 5.0960979690e-01	-2.7148209289e+00
 2.2170288173e+00	 5.2961347727e-01	-3.3864833889e+00
 2.2121527103e+00	 5.4962505327e-01	-3.9496082896e+00
 2.2070830186e+00	 5.6964193084e-01	-4.3855251432e+00
 2.2018189609e+00	 5.8966148822e-01	-4.6748749102e+00
 2.2545086637e+00	 3.9140430392e-01	 2.5964469460e+00
 2.2509485333e+00	 4.1138481965e-01	 1.5904772830e+00
 2.2472007210e+00	 4.3138826141e-01	 6.0632694189e-01
 2.2432641588e+00	 4.5141220712e-01	-3.4103321498e-01
 2.2391378163e+00	 4.7145420264e-01	-1.2363139386e+00
 2.2348207015e+00	 4.9151176247e-01	-2.0639172038e+00
 2.2303118625e+00	 5.1158237036e-01	-2.8079481599e+00
 2.2256103874e+00	 5.3166348003e-01	-3.4522295683e+00
 2.2207154062e+00	 5.5175251589e-01	-3.9802689214e+00
 2.2156260910e+00	 5.7184687384e-01	-4.3743668401e+00
 2.2103416575e+00	 5.9194392198e-01	-4.6165287288e+00
 2.2632016606e+00	 3.9291349147e-01	 2.5830977892e+00
 2.2596278029e+00	 4.1297104862e-01	 1.5598060159e+00
 2.2558655397e+00	 4.3305162021e-01	 5.6704869785e-01
 2.2519137988e+00	 4.5315277479e-01	-3.7990978100e-01
 2.2477715458e+00	 4.7327204880e-01	-1.2656776546e+00
 2.2434377850e+00	 4.9340694713e-01	-2.0747489699e+00
 2.2389115607e+00	 5.1355494382e-01	-2.7915189896e+00
 2.2341919575e+00	 5.3371348279e-01	-3.4003019424e+00
 2.2292781021e+00	 5.5387997851e-01	-3.8853512572e+00
 2.2241691634e+00	 5.7405181684e-01	-4.2308824090e+00
 2.2188643540e+00	 5.9422635573e-01	-4.4207434251e+00
 2.2718946575e+00	 3.9442267901e-01	 2.5779951874e+00
 2.2683070726e+00	 4.1455727759e-01	 1.5612374802e+00
 2.2645303585e+00	 4.3471497900e-01	 5.8024795108e-01
 2.2605634389e+00	 4.5489334247e-01	-3.4906940611e-01
 2.2564052754e+00	 4.7508989496e-01	-1.2108768013e+00
 2.2520548686e+00	 4.9530213178e-01	-1.9894199166e+00
 2.2475112589e+00	 5.1552751728e-01	-2.6690472563e+00
 2.2427735277e+00	 5.3576348554e-01	-3.2342317118e+00
 2.2378407980e+00	 5.5600744113e-01	-3.6695944731e+00
 2.2327122358e+00	 5.7625675983e-01	-3.9599314066e+00
 2.2273870506e+00	 5.9650878948e-01	-4.0902420147e+00
 2.2805876544e+00	 3.9593186656e-01	 2.5730087607e+00
 2.2769863422e+00	 4.1614350656e-01	 1.5876090077e+00
 2.2731951772e+00	 4.3637833780e-01	 6.3965959188e-01
 2.2692130789e+00	 4.5663391015e-01	-2.5395380300e-01
 2.2650390049e+00	 4.7690774112e-01	-1.0766078475e+00
 2.2606719521e+00	 4.9719731644e-01	-1.8119633938e+00
 2.2561109571e+00	 5.1750009074e-01	-2.4439892648e+00
 2.2513550978e+00	 5.3781348830e-01	-2.9569881330e+00
 2.2464034940e+00	 5.5813490375e-01	-3.3356246121e+00
 2.2412553082e+00	 5.7846170283e-01	-3.5649556768e+00
 2.2359097471e+00	 5.9879122324e-01	-3.6304635174e+00
 2.2892806513e+00	 3.9744105410e-01	 2.5601332011e+00
 2.2856656119e+00	 4.1772973553e-01	 1.6318681685e+00
 2.2818599959e+00	 4.3804169659e-01	 7.3911493765e-01
 2.2778627189e+00	 4.5837447783e-01	-9.9920986158e-02
 2.2736727345e+00	 4.7872558728e-01	-8.6749515124e-01
 2.2692890356e+00	 4.9909250109e-01	-1.5463510277e+00
 2.2647106553e+00	 5.1947266420e-01	-2.1197487245e+00
 2.2599366679e+00	 5.3986349106e-01	-2.5714956766e+00
 2.2549661899e+00	 5.6026236637e-01	-2.8859794188e+00
 2.2497983806e+00	 5.8066664583e-01	-3.0482025518e+00
 2.2444324436e+00	 6.0107365699e-01	-3.0438200038e+00
 2.1592054782e+00	 5.7824931944e-01	-2.8377711706e+00
 2.1538519729e+00	 5.9788145400e-01	-3.1604541095e+00
 2.1483064638e+00	 6.1751099811e-01	-3.3499346113e+00
 2.1425683196e+00	 6.3713530613e-01	-3.4123850610e+00
 2.1366369545e+00	 6.5675170875e-01	-3.3554070535e+00
 2.1305118294e+00	 6.7635751393e-01	-3.1881098442e+00
 2.1241924524e+00	 6.9595000784e-01	-2.9211982198e+00
 2.1176783796e+00	 7.1552645584e-01	-2.5670700668e+00
 2.1109692158e+00	 7.3508410348e-01	-2.1399238469e+00
 2.1040646156e+00	 7.5462017753e-01	-1.6498287722e+00
 2.0969642834e+00	 7.7413188700e-01	-1.0982978437e+00
 2.1677281748e+00	 5.8053175320e-01	-3.4956605137e+00
 2.1623535384e+00	 6.0024137863e-01	-3.8008796386e+00
 2.1567861403e+00	 6.1994840339e-01	-3.9912001500e+00
 2.1510253468e+00	 6.3965017140e-01	-4.0675843329e+00
 2.1450705698e+00	 6.5934400280e-01	-4.0322517265e+00
 2.1389212680e+00	 6.7902719493e-01	-3.8887621719e+00
 2.1325769474e+00	 6.9869702325e-01	-3.6421089318e+00
 2.1260371626e+00	 7.1835074232e-01	-3.2988221772e+00
 2.1193015169e+00	 7.3798558683e-01	-2.8670830573e+00
 2.1123696632e+00	 7.5759877259e-01	-2.3482835270e+00
 2.1052413049e+00	 7.7718749760e-01	-1.7402907157e+00
 2.1762508713e+00	 5.8281418696e-01	-4.0062832494e+00
 2.1708551038e+00	 6.0260130326e-01	-4.2887821509e+00
 2.1652658169e+00	 6.2238580868e-01	-4.4726909927e+00
 2.1594823741e+00	 6.4216503667e-01	-4.5551381739e+00
 2.1535041851e+00	 6.6193629684e-01	-4.5343367243e+00
 2.1473307065e+00	 6.8169687593e-01	-4.4096701043e+00
 2.1409614425e+00	 7.0144403866e-01	-4.1817887086e+00
 2.1343959457e+00	 7.2117502881e-01	-3.8527173841e+00
 2.1276338179e+00	 7.4088707018e-01	-3.4259732479e+00
 2.1206747107e+00	 7.6057736764e-01	-2.8953526550e+00
 2.1135183265e+00	 7.8024310820e-01	-2.2573121003e+00
 2.1847735679e+00	 5.8509662071e-01	-4.3716946192e+00
 2.1793566693e+00	 6.0496122789e-01	-4.6259633559e+00
 2.1737454935e+00	 6.2482321396e-01	-4.7958428375e+00
 2.1679394014e+00	 6.4467990193e-01	-4.8759874589e+00
 2.1619378004e+00	 6.6452859089e-01	-4.8619628703e+00
 2.1557401451e+00	 6.8436655692e-01	-4.7503326974e+00
 2.1493459376e+00	 7.0419105406e-01	-4.5387565749e+00
 2.1427547288e+00	 7.2399931529e-01	-4.2260998200e+00
 2.1359661189e+00	 7.4378855353e-01	-3.8122893587e+00
 2.1289797583e+00	 7.6355596270e-01	-3.2854619351e+00
 2.1217953480e+00	 7.8329871880e-01	-2.6419480258e+00
 2.1932962644e+00	 5.8737905447e-01	-4.5939037513e+00
 2.1878582348e+00	 6.0732115253e-01	-4.8141840430e+00
 2.1822251700e+00	 6.2726061925e-01	-4.9620576635e+00
 2.1763964286e+00	 6.4719476720e-01	-5.0310488056e+00
 2.1703714157e+00	 6.6712088494e-01	-5.0154187085e+00
 2.1641495836e+00	 6.8703623792e-01	-4.9102514763e+00
 2.1577304326e+00	 7.0693806947e-01	-4.7115517970e+00
 2.1511135119e+00	 7.2682360177e-01	-4.4163549098e+00
 2.1442984200e+00	 7.4669003687e-01	-4.0218936882e+00
 2.1372848059e+00	 7.6653455776e-01	-3.5131337055e+00
 2.1300723696e+00	 7.8635432940e-01	-2.8869106442e+00
 2.2018189609e+00	 5.8966148822e-01	-4.6748749102e+00
 2.1963598003e+00	 6.0968107716e-01	-4.8551653071e+00
 2.1907048466e+00	 6.2969802453e-01	-4.9727048966e+00
 2.1848534559e+00	 6.4970963247e-01	-5.0212156429e+00
 2.1788050310e+00	 6.6971317899e-01	-4.9949814311e+00
 2.1725590222e+00	 6.8970591892e-01	-4.8889311727e+00
 2.1661149277e+00	 7.0968508488e-01	-4.6987343776e+00
 2.1594722949e+00	 7.2964788825e-01	-4.4209095631e+00
 2.1526307210e+00	 7.4959152022e-01	-4.0509436062e+00
 2.1455898535e+00	 7.6951315282e-01	-3.5729852140e+00
 2.1383493911e+00	 7.8940994000e-01	-2.9850360130e+00
 2.2103416575e+00	 5.9194392198e-01	-4.6165287288e+00
 2.2048613658e+00	 6.1204100179e-01	-4.7505897573e+00
 2.1991845231e+00	 6.3213542981e-01	-4.8291225630e+00
 2.1933104832e+00	 6.5222449773e-01	-4.8473592706e+00
 2.1872386464e+00	 6.7230547303e-01	-4.8009178014e+00
 2.1809684607e+00	 6.9237559992e-01	-4.6858804642e+00
 2.1744994227e+00	 7.1243210028e-01	-4.4988855578e+00
 2.1678310780e+00	 7.3247217473e-01	-4.2372323826e+00
 2.1609630220e+00	 7.5249300356e-01	-3.8956650696e+00
 2.1538949010e+00	 7.7249174788e-01	-3.4597270040e+00
 2.1466264126e+00	 7.9246555060e-01	-2.9292819262e+00
 2.2188643540e+00	 5.9422635573e-01	-4.4207434251e+00
 2.2133629312e+00	 6.1440092642e-01	-4.5021027122e+00
 2.2076641997e+00	 6.3457283509e-01	-4.5326184300e+00
 2.2017675104e+00	 6.5473936300e-01	-4.5103299095e+00
 2.1956722617e+00	 6.7489776708e-01	-4.4334850715e+00
 2.1893778993e+00	 6.9504528091e-01	-4.3006127123e+00
 2.1828839178e+00	 7.1517911569e-01	-4.1106083256e+00
 2.1761898611e+00	 7.3529646121e-01	-3.8628338861e+00
 2.1692953231e+00	 7.5539448691e-01	-3.5523515139e+00
 2.1621999486e+00	 7.7547034294e-01	-3.1681613359e+00
 2.1549034342e+00	 7.9552116120e-01	-2.7127257938e+00
 2.2273870506e+00	 5.9650878948e-01	-4.0902420147e+00
 2.2218644967e+00	 6.1676085105e-01	-4.1113133797e+00
 2.2161438762e+00	 6.3701024038e-01	-4.0844711346e+00
 2.2102245377e+00	 6.5725422827e-01	-4.0109577423e+00
 2.2041058770e+00	 6.7749006113e-01	-3.8929318949e+00
 2.1977873378e+00	 6.9771496191e-01	-3.7326467021e+00
 2.1912684129e+00	 7.1792613110e-01	-3.5325279311e+00
 2.1845486441e+00	 7.3812074769e-01	-3.2952667439e+00
 2.1776276241e+00	 7.5829597026e-01	-3.0173627689e+00
 2.1705049962e+00	 7.7844893799e-01	-2.6931806430e+00
 2.1631804557e+00	 7.9857677180e-01	-2.3285625669e+00
 2.2359097471e+00	 5.9879122324e-01	-3.6304635174e+00
 2.2303660622e+00	 6.1912077568e-01	-3.5823837584e+00
 2.2246235528e+00	 6.3944764566e-01	-3.4861937389e+00
 2.2186815650e+00	 6.5976909353e-01	-3.3500539459e+00
 2.2125394923e+00	 6.8008235517e-01	-3.1794992343e+00
 2.2061967764e+00	 7.0038464291e-01	-2.9815073811e+00
 2.1996529079e+00	 7.2067314650e-01	-2.7632924089e+00
 2.1929074272e+00	 7.4094503417e-01	-2.5321248469e+00
 2.1859599251e+00	 7.6119745360e-01	-2.2871239975e+00
 2.1788100438e+00	 7.8142753305e-01	-2.0297660202e+00
 2.1714574772e+00	 8.0163238240e-01	-1.7701027099e+00
 2.2444324436e+00	 6.0107365699e-01	-3.0438200038e+00
 2.2388676277e+00	 6.2148070031e-01	-2.9200698623e+00
 2.2331032293e+00	 6.4188505094e-01	-2.7435960359e+00
 2.2271385922e+00	 6.6228395880e-01	-2.5296607204e+00
 2.2209731076e+00	 6.8267464922e-01	-2.2934212650e+00
 2.2146062150e+00	 7.0305432391e-01	-2.0467265991e+00
 2.2080374030e+00	 7.2342016191e-01	-1.8015731055e+00
 2.2012662103e+00	 7.4376932065e-01	-1.5708659419e+00
 2.1942922261e+00	 7.6409893695e-01	-1.3581246557e+00
 2.1871150913e+00	 7.8440612811e-01	-1.1729857461e+00
 2.1797344988e+00	 8.0468799300e-01	-1.0307702148e+00
 2.0969642834e+00	 7.7413188700e-01	-1.0982978437e+00
 2.0896667173e+00	 7.9361973424e-01	-4.9656548731e-01
 2.0821729134e+00	 8.1307757453e-01	 1.3355356483e-01
 2.0744827292e+00	 8.3250256787e-01	 7.5878098129e-01
 2.0665960749e+00	 8.5189186097e-01	 1.3465828687e+00
 2.0585129138e+00	 8.7124258838e-01	 1.8652133015e+00
 2.0502332634e+00	 8.9055187374e-01	 2.2837561344e+00
 2.0417571950e+00	 9.0981683097e-01	 2.5721650260e+00
 2.0330848350e+00	 9.2903456551e-01	 2.7013016086e+00
 2.0242163646e+00	 9.4820217558e-01	 2.6429717443e+00
 2.0151520210e+00	 9.6731675346e-01	 2.3699598107e+00
 2.1052413049e+00	 7.7718749760e-01	-1.7402907157e+00
 2.0979149343e+00	 7.9675226620e-01	-1.0408854991e+00
 2.0903915513e+00	 8.1628690940e-01	-2.7046968384e-01
 2.0826710128e+00	 8.3578857600e-01	 5.2473804274e-01
 2.0747532287e+00	 8.5525440144e-01	 1.2992630738e+00
 2.0666381623e+00	 8.7468150897e-01	 2.0084361843e+00
 2.0583258308e+00	 8.9406701088e-01	 2.6084533456e+00
 2.0498163062e+00	 9.1340800969e-01	 3.0564339583e+00
 2.0411097151e+00	 9.3270159940e-01	 3.3104774114e+00
 2.0322062396e+00	 9.5194486680e-01	 3.3297178810e+00
 2.0231061177e+00	 9.7113489269e-01	 3.0743772867e+00
 2.1135183265e+00	 7.8024310820e-01	-2.2573121003e+00
 2.1061631513e+00	 7.9988479815e-01	-1.4962971359e+00
 2.0986101891e+00	 8.1949624426e-01	-6.2883418426e-01
 2.0908592964e+00	 8.3907458413e-01	 2.8925753242e-01
 2.0829103825e+00	 8.5861694191e-01	 1.2028838541e+00
 2.0747634107e+00	 8.7812042957e-01	 2.0577500115e+00
 2.0664183983e+00	 8.9758214802e-01	 2.8004336585e+00
 2.0578754174e+00	 9.1699918840e-01	 3.3784564955e+00
 2.0491345952e+00	 9.3636863330e-01	 3.7403543738e+00
 2.0401961146e+00	 9.5568755803e-01	 3.8357457746e+00
 2.0310602143e+00	 9.7495303193e-01	 3.6153985606e+00
 2.1217953480e+00	 7.8329871880e-01	-2.6419480258e+00
 2.1144113683e+00	 8.0301733011e-01	-1.8536383164e+00
 2.1068288270e+00	 8.2270557913e-01	-9.3109986358e-01
 2.0990475800e+00	 8.4236059225e-01	 6.3547810117e-02
 2.0910675363e+00	 8.6197948239e-01	 1.0688726726e+00
 2.0828886591e+00	 8.8155935017e-01	 2.0242128242e+00
 2.0745109657e+00	 9.0109728516e-01	 2.8697579951e+00
 2.0659345285e+00	 9.2059036712e-01	 3.5466297725e+00
 2.0571594753e+00	 9.4003566719e-01	 3.9969604383e+00
 2.0481859895e+00	 9.5943024926e-01	 4.1639702969e+00
 2.0390143110e+00	 9.7877117116e-01	 3.9920433807e+00
 2.1300723696e+00	 7.8635432940e-01	-2.8869106442e+00
 2.1226595853e+00	 8.0614986206e-01	-2.1039012358e+00
 2.1150474649e+00	 8.2591491400e-01	-1.1670017846e+00
 2.1072358636e+00	 8.4564660038e-01	-1.4137084821e-01
 2.0992246901e+00	 8.6534202286e-01	 9.0846448552e-01
 2.0910139075e+00	 8.8499827076e-01	 1.9186948717e+00
 2.0826035331e+00	 9.0461242230e-01	 2.8263139479e+00
 2.0739936397e+00	 9.2418154583e-01	 3.5692024114e+00
 2.0651843554e+00	 9.4370270109e-01	 4.0862108079e+00
 2.0561758645e+00	 9.6317294048e-01	 4.3172409100e+00
 2.0469684077e+00	 9.8258931039e-01	 4.2033255658e+00
 2.1383493911e+00	 7.8940994000e-01	-2.9850360130e+00
 2.1309078023e+00	 8.0928239402e-01	-2.2382296075e+00
 2.1232661027e+00	 8.2912424886e-01	-1.3264469874e+00
 2.1154241471e+00	 8.4893260851e-01	-3.1466284525e-01
 2.1073818440e+00	 8.6870456333e-01	 7.3270522940e-01
 2.0991391559e+00	 8.8843719136e-01	 1.7518820030e+00
 2.0906961006e+00	 9.0812755944e-01	 2.6798188880e+00
 2.0820527509e+00	 9.2777272455e-01	 3.4542771451e+00
 2.0732092355e+00	 9.4736973498e-01	 4.0139098743e+00
 2.0641657395e+00	 9.6691563171e-01	 4.2983426750e+00
 2.0549225044e+00	 9.8640744962e-01	 4.2482528593e+00
 2.1466264126e+00	 7.9246555060e-01	-2.9292819262e+00
 2.1391560192e+00	 8.1241492597e-01	-2.2479159658e+00
 2.1314847406e+00	 8.3233358373e-01	-1.3995114013e+00
 2.1236124307e+00	 8.5221861663e-01	-4.4567393353e-01
 2.1155389978e+00	 8.7206710381e-01	 5.5245522967e-01
 2.1072644043e+00	 8.9187611195e-01	 1.5342789832e+00
 2.0987886680e+00	 9.1164269658e-01	 2.4398230038e+00
 2.0901118620e+00	 9.3136390326e-01	 3.2098133838e+00
 2.0812341156e+00	 9.5103676888e-01	 3.7857531042e+00
 2.0721556144e+00	 9.7065832294e-01	 4.1099972401e+00
 2.0628766011e+00	 9.9022558885e-01	 4.1258267894e+00
 2.1549034342e+00	 7.9552116120e-01	-2.7127257938e+00
 2.1474042362e+00	 8.1554745792e-01	-2.1243990283e+00
 2.1397033784e+00	 8.3554291859e-01	-1.3764368263e+00
 2.1318007143e+00	 8.5550462476e-01	-5.2392796103e-01
 2.1236961516e+00	 8.7542964428e-01	 3.7839253331e-01
 2.1153896527e+00	 8.9531503255e-01	 1.2762127354e+00
 2.1068812354e+00	 9.1515783372e-01	 2.1157122733e+00
 2.0981709732e+00	 9.3495508198e-01	 2.8436297251e+00
 2.0892589957e+00	 9.5470380277e-01	 3.4073288856e+00
 2.0801454894e+00	 9.7440101416e-01	 3.7548638089e+00
 2.0708306978e+00	 9.9404372809e-01	 3.8350425354e+00
 2.1631804557e+00	 7.9857677180e-01	-2.3285625669e+00
 2.1556524532e+00	 8.1867998988e-01	-1.8592611179e+00
 2.1479220163e+00	 8.3875225346e-01	-1.2476279813e+00
 2.1399889979e+00	 8.5879063289e-01	-5.3912368904e-01
 2.1318533054e+00	 8.7879218475e-01	 2.2101616749e-01
 2.1235149012e+00	 8.9875395314e-01	 9.8783551100e-01
 2.1149738029e+00	 9.1867297086e-01	 1.7167113695e+00
 2.1062300844e+00	 9.3854626069e-01	 2.3634064089e+00
 2.0972838758e+00	 9.5837083667e-01	 2.8841203338e+00
 2.0881353644e+00	 9.7814370539e-01	 3.2355400899e+00
 2.0787847945e+00	 9.9786186732e-01	 3.3748888008e+00
 2.1714574772e+00	 8.0163238240e-01	-1.7701027099e+00
 2.1639006702e+00	 8.2181252183e-01	-1.4442256399e+00
 2.1561406541e+00	 8.4196158833e-01	-1.0036496174e+00
 2.1481772815e+00	 8.6207664101e-01	-4.8113168059e-01
 2.1400104593e+00	 8.8215472523e-01	 9.0649326065e-02
 2.1316401496e+00	 9.0219287374e-01	 6.7912799017e-01
 2.1230663703e+00	 9.2218810800e-01	 1.2518865031e+00
 2.1142891955e+00	 9.4213743941e-01	 1.7766877191e+00
 2.1053087559e+00	 9.6203787056e-01	 2.2215070597e+00
 2.0961252394e+00	 9.8188639661e-01	 2.5545632269e+00
 2.0867388912e+00	 1.0016800066e+00	 2.7443476922e+00
 2.1797344988e+00	 8.0468799300e-01	-1.0307702148e+00
 2.1721488872e+00	 8.2494505378e-01	-8.7115461643e-01
 2.1643592920e+00	 8.4517092319e-01	-6.3522369516e-01
 2.1563655651e+00	 8.6536264914e-01	-3.3999125729e-01
 2.1481676131e+00	 8.8551726570e-01	-2.5575140348e-03
 2.1397653980e+00	 9.0563179433e-01	 3.5990231386e-01
 2.1311589378e+00	 9.2570324514e-01	 7.3014820261e-01
 2.1223483067e+00	 9.4572861812e-01	 1.0908843337e+00
 2.1133336360e+00	 9.6570490446e-01	 1.4247669002e+00
 2.1041151143e+00	 9.8562908784e-01	 1.7144107113e+00
 2.0946929879e+00	 1.0054981458e+00	 1.9423946033e+00
 2.0151520210e+00	 9.6731675346e-01	 2.3699598107e+00
 2.0058936872e+00	 9.8637215194e-01	 1.9044522719e+00
 1.9964401871e+00	 1.0053687097e+00	 1.3241125409e+00
 1.9867919245e+00	 1.0243035093e+00	 6.8537915823e-01
 1.9769493602e+00	 1.0431736330e+00	 4.3924632138e-02
 1.9669130120e+00	 1.0619761634e+00	-5.4544776026e-01
 1.9566834547e+00	 1.0807081850e+00	-1.0289081309e+00
 1.9462613205e+00	 1.0993667861e+00	-1.3537048887e+00
 1.9356472989e+00	 1.1179490594e+00	-1.4684974740e+00
 1.9248421368e+00	 1.1364521039e+00	-1.3270325390e+00
 1.9138466387e+00	 1.1548730262e+00	-8.8575082900e-01
 2.0231061177e+00	 9.7113489269e-01	 3.0743772867e+00
 2.0138112399e+00	 9.9026550559e-01	 2.5469105559e+00
 2.0043204254e+00	 1.0093370455e+00	 1.8273684328e+00
 1.9946340798e+00	 1.0283465836e+00	 9.9283001018e-01
 1.9847526655e+00	 1.0472911903e+00	 1.1948126852e-01
 1.9746767024e+00	 1.0661679370e+00	-7.1751906480e-01
 1.9644067675e+00	 1.0849738967e+00	-1.4441747708e+00
 1.9539434956e+00	 1.1037061459e+00	-1.9877882520e+00
 1.9432875789e+00	 1.1223617662e+00	-2.2777972029e+00
 1.9324397673e+00	 1.1409378449e+00	-2.2495413503e+00
 1.9214008684e+00	 1.1594314772e+00	-1.8402704356e+00
 2.0310602143e+00	 9.7495303193e-01	 3.6153985606e+00
 2.0217287927e+00	 9.9415885924e-01	 3.0617920806e+00
 2.0122006638e+00	 1.0133053813e+00	 2.2518144934e+00
 2.0024762350e+00	 1.0323896578e+00	 1.2783102935e+00
 1.9925559707e+00	 1.0514087477e+00	 2.3314675285e-01
 1.9824403927e+00	 1.0703597106e+00	-7.9294411235e-01
 1.9721300803e+00	 1.0892396083e+00	-1.7105248345e+00
 1.9616256708e+00	 1.1080455058e+00	-2.4316127504e+00
 1.9509278590e+00	 1.1267744729e+00	-2.8713584084e+00
 1.9400373978e+00	 1.1454235858e+00	-2.9508419731e+00
 1.9289550980e+00	 1.1639899281e+00	-2.5925834069e+00
 2.0390143110e+00	 9.7877117116e-01	 3.9920433807e+00
 2.0296463454e+00	 9.9805221288e-01	 3.4441722884e+00
 2.0200809022e+00	 1.0172737171e+00	 2.5893277890e+00
 2.0103183903e+00	 1.0364327320e+00	 1.5313020476e+00
 2.0003592760e+00	 1.0555263050e+00	 3.7286856390e-01
 1.9902040830e+00	 1.0745514842e+00	-7.8439275425e-01
 1.9798533931e+00	 1.0935053199e+00	-1.8402719064e+00
 1.9693078459e+00	 1.1123848656e+00	-2.6961132872e+00
 1.9585681390e+00	 1.1311871796e+00	-3.2577087195e+00
 1.9476350283e+00	 1.1499093267e+00	-3.4358451759e+00
 1.9365093277e+00	 1.1685483791e+00	-3.1427883322e+00
 2.0469684077e+00	 9.8258931039e-01	 4.2033255658e+00
 2.0375638981e+00	 1.0019455665e+00	 3.6891809333e+00
 2.0279611406e+00	 1.0212420529e+00	 2.8318883407e+00
 2.0181605456e+00	 1.0404758062e+00	 1.7414264225e+00
 2.0081625813e+00	 1.0596438623e+00	 5.2675607047e-01
 1.9979677734e+00	 1.0787432579e+00	-7.0436442883e-01
 1.9875767059e+00	 1.0977710315e+00	-1.8455657668e+00
 1.9769900210e+00	 1.1167242254e+00	-2.7922116422e+00
 1.9662084191e+00	 1.1355998864e+00	-3.4452689928e+00
 1.9552326588e+00	 1.1543950677e+00	-3.7094104834e+00
 1.9440635574e+00	 1.1731068301e+00	-3.4910066166e+00
 2.0549225044e+00	 9.8640744962e-01	 4.2482528593e+00
 2.0454814508e+00	 1.0058389202e+00	 3.7920007652e+00
 2.0358413790e+00	 1.0252103887e+00	 2.9715768647e+00
 2.0260027009e+00	 1.0445188804e+00	 1.8984407141e+00
 2.0159658865e+00	 1.0637614196e+00	 6.8307712277e-01
 2.0057314637e+00	 1.0829350315e+00	-5.6519173872e-01
 1.9953000187e+00	 1.1020367432e+00	-1.7383958447e+00
 1.9846721962e+00	 1.1210635852e+00	-2.7306587733e+00
 1.9738486991e+00	 1.1400125931e+00	-3.4423548024e+00
 1.9628302893e+00	 1.1588808086e+00	-3.7763465339e+00
 1.9516177871e+00	 1.1776652811e+00	-3.6373813487e+00
 2.0628766011e+00	 9.9022558885e-01	 4.1258267894e+00
 2.0533990035e+00	 1.0097322738e+00	 3.7478662480e+00
 2.0437216173e+00	 1.0291787245e+00	 3.0005725663e+00
 2.0338448562e+00	 1.0485619546e+00	 1.9922354730e+00
 2.0237691918e+00	 1.0678789769e+00	 8.3025472624e-01
 2.0134951541e+00	 1.0871268051e+00	-3.7904394155e-01
 2.0030233315e+00	 1.1063024548e+00	-1.5305945874e+00
 1.9923543713e+00	 1.1254029451e+00	-2.5220308020e+00
 1.9814889792e+00	 1.1444252999e+00	-3.2571778737e+00
 1.9704279198e+00	 1.1633665496e+00	-3.6414114066e+00
 1.9591720168e+00	 1.1822237321e+00	-3.5820761693e+00
 2.0708306978e+00	 9.9404372809e-01	 3.8350425354e+00
 2.0613165562e+00	 1.0136256275e+00	 3.5520623100e+00
 2.0516018557e+00	 1.0331470603e+00	 2.9111509894e+00
 2.0416870115e+00	 1.0526050288e+00	 2.0128316816e+00
 2.0315724971e+00	 1.0719965342e+00	 9.5686379554e-01
 2.0212588444e+00	 1.0913185787e+00	-1.5793035668e-01
 2.0107466443e+00	 1.1105681664e+00	-1.2338407484e+00
 2.0000365464e+00	 1.1297423049e+00	-2.1767658503e+00
 1.9891292592e+00	 1.1488380066e+00	-2.8978474614e+00
 1.9780255504e+00	 1.1678522905e+00	-3.3093129177e+00
 1.9667262465e+00	 1.1867821831e+00	-3.3252741442e+00
 2.0787847945e+00	 9.9786186732e-01	 3.3748888008e+00
 2.0692341089e+00	 1.0175189811e+00	 3.1999231267e+00
 2.0594820941e+00	 1.0371153961e+00	 2.6956819182e+00
 2.0495291668e+00	 1.0566481030e+00	 1.9503780008e+00
 2.0393758023e+00	 1.0761140915e+00	 1.0516279867e+00
 2.0290225348e+00	 1.0955103524e+00	 8.6296309987e-02
 2.0184699571e+00	 1.1148338780e+00	-8.5972924403e-01
 2.0077187215e+00	 1.1340816647e+00	-1.7051661041e+00
 1.9967695393e+00	 1.1532507134e+00	-2.3723716754e+00
 1.9856231809e+00	 1.1723380314e+00	-2.7847088888e+00
 1.9742804762e+00	 1.1913406340e+00	-2.8671766389e+00
 2.0867388912e+00	 1.0016800066e+00	 2.7443476922e+00
 2.0771516616e+00	 1.0214123348e+00	 2.6868309343e+00
 2.0673623325e+00	 1.0410837320e+00	 2.3466273299e+00
 2.0573713221e+00	 1.0606911772e+00	 1.7951480828e+00
 2.0471791076e+00	 1.0802316489e+00	 1.1034166049e+00
 2.0367862251e+00	 1.0997021260e+00	 3.4193672083e-01
 2.0261932699e+00	 1.1190995897e+00	-4.1977971147e-01
 2.0154008967e+00	 1.1384210245e+00	-1.1173998085e+00
 2.0044098193e+00	 1.1576634201e+00	-1.6886587545e+00
 1.9932208114e+00	 1.1768237724e+00	-2.0722073860e+00
 1.9818347058e+00	 1.1958990850e+00	-2.2080021964e+00
 2.0946929879e+00	 1.0054981458e+00	 1.9423946033e+00
 2.0850692143e+00	 1.0253056884e+00	 2.0082148739e+00
 2.0752425708e+00	 1.0450520678e+00	 1.8565393981e+00
 2.0652134774e+00	 1.0647342514e+00	 1.5375379476e+00
 2.0549824128e+00	 1.0843492062e+00	 1.1012415869e+00
 2.0445499154e+00	 1.1038938996e+00	 5.9744173891e-01
 2.0339165827e+00	 1.1233653013e+00	 7.4719193476e-02
 2.0230830718e+00	 1.1427603843e+00	-4.2350319756e-01
 2.0120500994e+00	 1.1620761269e+00	-8.5451828896e-01
 2.0008184419e+00	 1.1813095133e+00	-1.1763669310e+00
 1.9893889355e+00	 1.2004575360e+00	-1.3479854178e+00
 1.9138466387e+00	 1.1548730262e+00	-8.8575082900e-01
 1.9026616668e+00	 1.1732089420e+00	-2.1836738356e-01
 1.8912881428e+00	 1.1914569792e+00	 5.3916597771e-01
 1.8797270459e+00	 1.2096142776e+00	 1.3370063448e+00
 1.8679794125e+00	 1.2276779903e+00	 2.1262701446e+00
 1.8560463358e+00	 1.2456452853e+00	 2.8592061502e+00
 1.8439289659e+00	 1.2635133463e+00	 3.4867261388e+00
 1.8316285092e+00	 1.2812793748e+00	 3.9606360930e+00
 1.8191462282e+00	 1.2989405909e+00	 4.2491088134e+00
 1.8064834412e+00	 1.3164942352e+00	 4.3228149577e+00
 1.7936415219e+00	 1.3339375697e+00	 4.1538267949e+00
 1.9214008684e+00	 1.1594314772e+00	-1.8402704356e+00
 1.9101717478e+00	 1.1778397675e+00	-1.0978125782e+00
 1.8987533309e+00	 1.1961598323e+00	-1.6034898149e-01
 1.8871466006e+00	 1.2143888002e+00	 8.9900750360e-01
 1.8753525976e+00	 1.2325238130e+00	 2.0083191793e+00
 1.8633724193e+00	 1.2505620275e+00	 3.0970339313e+00
 1.8512072204e+00	 1.2685006164e+00	 4.0961813915e+00
 1.8388582120e+00	 1.2863367699e+00	 4.9347532183e+00
 1.8263266616e+00	 1.3040676974e+00	 5.5533841239e+00
 1.8136138928e+00	 1.3216906284e+00	 5.9015654602e+00
 1.8007212846e+00	 1.3392028144e+00	 5.9306244630e+00
 1.9289550980e+00	 1.1639899281e+00	-2.5925834069e+00
 1.9176818288e+00	 1.1824705930e+00	-1.8179274548e+00
 1.9062185189e+00	 1.2008626855e+00	-7.6036883691e-01
 1.8945661553e+00	 1.2191633228e+00	 4.8878731623e-01
 1.8827257827e+00	 1.2373696358e+00	 1.8395711876e+00
 1.8706985028e+00	 1.2554787697e+00	 3.2035889183e+00
 1.8584854749e+00	 1.2734878864e+00	 4.4942663513e+00
 1.8460879148e+00	 1.2913941650e+00	 5.6264553592e+00
 1.8335070951e+00	 1.3091948039e+00	 6.5181367804e+00
 1.8207443444e+00	 1.3268870217e+00	 7.1008177357e+00
 1.8078010473e+00	 1.3444680590e+00	 7.3096350022e+00
 1.9365093277e+00	 1.1685483791e+00	-3.1427883322e+00
 1.9251919098e+00	 1.1871014185e+00	-2.3737518063e+00
 1.9136837069e+00	 1.2055655386e+00	-1.2516519679e+00
 1.9019857101e+00	 1.2239378454e+00	 1.1903233900e-01
 1.8900989678e+00	 1.2422154585e+00	 1.6352625097e+00
 1.8780245864e+00	 1.2603955120e+00	 3.1957038816e+00
 1.8657637294e+00	 1.2784751565e+00	 4.7009926505e+00
 1.8533176176e+00	 1.2964515602e+00	 6.0540049289e+00
 1.8406875285e+00	 1.3143219104e+00	 7.1599735623e+00
 1.8278747960e+00	 1.3320834150e+00	 7.9343744797e+00
 1.8148808100e+00	 1.3497333037e+00	 8.3006234287e+00
 1.9440635574e+00	 1.1731068301e+00	-3.4910066166e+00
 1.9327019908e+00	 1.1917322440e+00	-2.7604260982e+00
 1.9211488950e+00	 1.2102683917e+00	-1.6251231707e+00
 1.9094052648e+00	 1.2287123681e+00	-1.9779001370e-01
 1.8974721529e+00	 1.2470612812e+00	 1.4103715404e+00
 1.8853506699e+00	 1.2653122542e+00	 3.0899296592e+00
 1.8730419839e+00	 1.2834624265e+00	 4.7335055261e+00
 1.8605473205e+00	 1.3015089553e+00	 6.2360586016e+00
 1.8478679620e+00	 1.3194490169e+00	 7.4952158565e+00
 1.8350052476e+00	 1.3372798083e+00	 8.4157936882e+00
 1.8219605727e+00	 1.3549985483e+00	 8.9131699924e+00
 1.9516177871e+00	 1.1776652811e+00	-3.6373813487e+00
 1.9402120717e+00	 1.1963630695e+00	-2.9731887699e+00
 1.9286140830e+00	 1.2149712449e+00	-1.8718696301e+00
 1.9168248195e+00	 1.2334868907e+00	-4.4942636229e-01
 1.9048453380e+00	 1.2519071039e+00	 1.1796246449e+00
 1.8926767534e+00	 1.2702289964e+00	 2.9025415932e+00
 1.8803202384e+00	 1.2884496966e+00	 4.6086493643e+00
 1.8677770233e+00	 1.3065663505e+00	 6.1896340044e+00
 1.8550483954e+00	 1.3245761235e+00	 7.5398384123e+00
 1.8421356992e+00	 1.3424762016e+00	 8.5583914006e+00
 1.8290403354e+00	 1.3602637930e+00	 9.1566716896e+00
 1.9591720168e+00	 1.1822237321e+00	-3.5820761693e+00
 1.9477221527e+00	 1.2009938950e+00	-3.0073735752e+00
 1.9360792710e+00	 1.2196740980e+00	-1.9831369585e+00
 1.9242443742e+00	 1.2382614133e+00	-6.2383234734e-01
 1.9122185231e+00	 1.2567529266e+00	 9.5750196454e-01
 1.9000028369e+00	 1.2751457386e+00	 2.6495458460e+00
 1.8875984929e+00	 1.2934369666e+00	 4.3429915153e+00
 1.8750067261e+00	 1.3116237456e+00	 5.9308403154e+00
 1.8622288289e+00	 1.3297032300e+00	 7.3087008664e+00
 1.8492661508e+00	 1.3476725949e+00	 8.3752443488e+00
 1.8361200981e+00	 1.3655290376e+00	 9.0403437117e+00
 1.9667262465e+00	 1.1867821831e+00	-3.3252741442e+00
 1.9552322337e+00	 1.2056247205e+00	-2.8584069591e+00
 1.9435444591e+00	 1.2243769512e+00	-1.9503253024e+00
 1.9316639289e+00	 1.2430359359e+00	-7.0916770486e-01
 1.9195917082e+00	 1.2615987493e+00	 7.5824311466e-01
 1.9073289205e+00	 1.2800624809e+00	 2.3466855975e+00
 1.8948767475e+00	 1.2984242367e+00	 3.9528286989e+00
 1.8822364290e+00	 1.3166811407e+00	 5.4755240709e+00
 1.8694092624e+00	 1.3348303365e+00	 6.8160998471e+00
 1.8563966024e+00	 1.3528689882e+00	 7.8786547661e+00
 1.8431998607e+00	 1.3707942823e+00	 8.5732208301e+00
 1.9742804762e+00	 1.1913406340e+00	-2.8671766389e+00
 1.9627423147e+00	 1.2102555460e+00	-2.5218054719e+00
 1.9510096471e+00	 1.2290798043e+00	-1.7649855129e+00
 1.9390834836e+00	 1.2478104586e+00	-6.9379142931e-01
 1.9269648933e+00	 1.2664445720e+00	 5.9585277786e-01
 1.9146550040e+00	 1.2849792231e+00	 2.0094471264e+00
 1.9021550020e+00	 1.3034115067e+00	 3.4541932913e+00
 1.8894661318e+00	 1.3217385359e+00	 4.8392753552e+00
 1.8765896958e+00	 1.3399574430e+00	 6.0761424452e+00
 1.8635270540e+00	 1.3580653815e+00	 7.0787919903e+00
 1.8502796234e+00	 1.3760595269e+00	 7.7641587191e+00
 1.9818347058e+00	 1.1958990850e+00	-2.2080021964e+00
 1.9702523957e+00	 1.2148863715e+00	-1.9931732183e+00
 1.9584748352e+00	 1.2337826575e+00	-1.4188153796e+00
 1.9465030383e+00	 1.2525849812e+00	-5.6625702177e-01
 1.9343380784e+00	 1.2712903948e+00	 4.8410619569e-01
 1.9219810875e+00	 1.2898959653e+00	 1.6530657805e+00
 1.9094332565e+00	 1.3083987768e+00	 2.8628594946e+00
 1.8966958346e+00	 1.3267959310e+00	 4.0374338790e+00
 1.8837701293e+00	 1.3450845495e+00	 5.1027090059e+00
 1.8706575056e+00	 1.3632617747e+00	 5.9868441995e+00
 1.8573593861e+00	 1.3813247716e+00	 6.6205034345e+00
 1.9893889355e+00	 1.2004575360e+00	-1.3479854178e+00
 1.9777624767e+00	 1.2195171970e+00	-1.2681993403e+00
 1.9659400232e+00	 1.2384855106e+00	-9.0365592585e-01
 1.9539225930e+00	 1.2573595038e+00	-3.1530782116e-01
 1.9417112635e+00	 1.2761362175e+00	 4.3655456103e-01
 1.9293071710e+00	 1.2948127076e+00	 1.2925318369e+00
 1.9167115110e+00	 1.3133860468e+00	 2.1943493943e+00
 1.9039255374e+00	 1.3318533261e+00	 3.0850949464e+00
 1.8909505627e+00	 1.3502116560e+00	 3.9094587050e+00
 1.8777879572e+00	 1.3684581680e+00	 4.6139749401e+00
 1.8644391488e+00	 1.3865900162e+00	 5.1472636532e+00
 1.7936415219e+00	 1.3339375697e+00	 4.1538267949e+00
 1.7806196717e+00	 1.3512708146e+00	 3.8223420072e+00
 1.7674215486e+00	 1.3684882949e+00	 3.4442704747e+00
 1.7540486977e+00	 1.3855873345e+00	 3.0456318882e+00
 1.7405027179e+00	 1.4025652846e+00	 2.6516861236e+00
 1.7267852606e+00	 1.4194195247e+00	 2.2867322949e+00
 1.7128980295e+00	 1.4361474640e+00	 1.9739099159e+00
 1.6988427801e+00	 1.4527465428e+00	 1.7350034098e+00
 1.6846213184e+00	 1.4692142337e+00	 1.5902511956e+00
 1.6702355008e+00	 1.4855480428e+00	 1.5579964873e+00
 1.6556872326e+00	 1.5017455112e+00	 1.6505639672e+00
 1.8007212846e+00	 1.3392028144e+00	 5.9306244630e+00
 1.7876480353e+00	 1.3566044761e+00	 5.6962872158e+00
 1.7743978172e+00	 1.3738899163e+00	 5.3144757452e+00
 1.7609721818e+00	 1.3910564483e+00	 4.8275006455e+00
 1.7473727340e+00	 1.4081014128e+00	 4.2767431487e+00
 1.7336011319e+00	 1.4250221790e+00	 3.7024260482e+00
 1.7196590860e+00	 1.4418161459e+00	 3.1433869515e+00
 1.7055483585e+00	 1.4584807437e+00	 2.6368551699e+00
 1.6912707626e+00	 1.4750134349e+00	 2.2182335431e+00
 1.6768281620e+00	 1.4914117160e+00	 1.9198298708e+00
 1.6622224697e+00	 1.5076731181e+00	 1.7674308874e+00
 1.8078010473e+00	 1.3444680590e+00	 7.3096350022e+00
 1.7946763988e+00	 1.3619381376e+00	 7.1757548475e+00
 1.7813740859e+00	 1.3792915376e+00	 6.8099003112e+00
 1.7678956659e+00	 1.3965255620e+00	 6.2674863229e+00
 1.7542427502e+00	 1.4136375410e+00	 5.6028645165e+00
 1.7404170033e+00	 1.4306248333e+00	 4.8690703512e+00
 1.7264201424e+00	 1.4474848278e+00	 4.1175727429e+00
 1.7122539368e+00	 1.4642149446e+00	 3.3980275776e+00
 1.6979202068e+00	 1.4808126362e+00	 2.7580364670e+00
 1.6834208233e+00	 1.4972753891e+00	 2.2400458060e+00
 1.6687577069e+00	 1.5136007250e+00	 1.8818480033e+00
 1.8148808100e+00	 1.3497333037e+00	 8.3006234287e+00
 1.8017047624e+00	 1.3672717991e+00	 8.2660446092e+00
 1.7883503545e+00	 1.3846931590e+00	 7.9318190220e+00
 1.7748191500e+00	 1.4019946758e+00	 7.3633161156e+00
 1.7611127663e+00	 1.4191736692e+00	 6.6247434101e+00
 1.7472328746e+00	 1.4362274876e+00	 5.7788741098e+00
 1.7331811989e+00	 1.4531535097e+00	 4.8867773703e+00
 1.7189595151e+00	 1.4699491454e+00	 4.0075526478e+00
 1.7045696510e+00	 1.4866118374e+00	 3.1977921911e+00
 1.6900134846e+00	 1.5031390623e+00	 2.5069677275e+00
 1.6752929440e+00	 1.5195283319e+00	 1.9829280679e+00
 1.8219605727e+00	 1.3549985483e+00	 8.9131699924e+00
 1.8087331259e+00	 1.3726054606e+00	 8.9723381015e+00
 1.7953266232e+00	 1.3900947804e+00	 8.6814485302e+00
 1.7817426341e+00	 1.4074637895e+00	 8.1127116240e+00
 1.7679827825e+00	 1.4247097973e+00	 7.3371121591e+00
 1.7540487460e+00	 1.4418301419e+00	 6.4241217100e+00
 1.7399422553e+00	 1.4588221916e+00	 5.4414137780e+00
 1.7256650935e+00	 1.4756833463e+00	 4.4545831577e+00
 1.7112190951e+00	 1.4924110386e+00	 3.5255239740e+00
 1.6966061458e+00	 1.5090027354e+00	 2.7090537785e+00
 1.6818281812e+00	 1.5254559387e+00	 2.0599072485e+00
 1.8290403354e+00	 1.3602637930e+00	 9.1566716896e+00
 1.8157614895e+00	 1.3779391220e+00	 9.2996989740e+00
 1.8023028919e+00	 1.3954964017e+00	 9.0599462217e+00
 1.7886661182e+00	 1.4129329033e+00	 8.5133867015e+00
 1.7748527986e+00	 1.4302459255e+00	 7.7347391603e+00
 1.7608646173e+00	 1.4474327962e+00	 6.7971691771e+00
 1.7467033117e+00	 1.4644908735e+00	 5.7719933476e+00
 1.7323706718e+00	 1.4814175472e+00	 4.7283878206e+00
 1.7178685393e+00	 1.4982102399e+00	 3.7297496725e+00
 1.7031988071e+00	 1.5148664085e+00	 2.8348953633e+00
 1.6883634183e+00	 1.5313835456e+00	 2.1021439481e+00
 1.8361200981e+00	 1.3655290376e+00	 9.0403437117e+00
 1.8227898531e+00	 1.3832727835e+00	 9.2530730466e+00
 1.8092791605e+00	 1.4008980231e+00	 9.0684091389e+00
 1.7955896022e+00	 1.4184020170e+00	 8.5630453208e+00
 1.7817228147e+00	 1.4357820537e+00	 7.8124258378e+00
 1.7676804887e+00	 1.4530354505e+00	 6.8904403904e+00
 1.7534643682e+00	 1.4701595554e+00	 5.8691215402e+00
 1.7390762501e+00	 1.4871517480e+00	 4.8179932847e+00
 1.7245179835e+00	 1.5040094411e+00	 3.7991234383e+00
 1.7097914684e+00	 1.5207300817e+00	 2.8732157829e+00
 1.6948986554e+00	 1.5373111525e+00	 2.0991177040e+00
 1.8431998607e+00	 1.3707942823e+00	 8.5732208301e+00
 1.8298182166e+00	 1.3886064450e+00	 8.8372883963e+00
 1.8162554292e+00	 1.4062996445e+00	 8.7078728976e+00
 1.8025130863e+00	 1.4238711308e+00	 8.2593794574e+00
 1.7885928309e+00	 1.4413181819e+00	 7.5650036402e+00
 1.7744963600e+00	 1.4586381048e+00	 6.6964233527e+00
 1.7602254246e+00	 1.4758282373e+00	 5.7234936056e+00
 1.7457818285e+00	 1.4928859489e+00	 4.7124350376e+00
 1.7311674276e+00	 1.5098086423e+00	 3.7224299166e+00
 1.7163841296e+00	 1.5265937548e+00	 2.8128689486e+00
 1.7014338926e+00	 1.5432387594e+00	 2.0404281582e+00
 1.8502796234e+00	 1.3760595269e+00	 7.7641587191e+00
 1.8368465802e+00	 1.3939401065e+00	 8.0570554136e+00
 1.8232316979e+00	 1.4117012658e+00	 7.9793105980e+00
 1.8094365704e+00	 1.4293402445e+00	 7.6000669898e+00
 1.7954628470e+00	 1.4468543100e+00	 6.9873310752e+00
 1.7813122314e+00	 1.4642407591e+00	 6.2076665127e+00
 1.7669864811e+00	 1.4814969192e+00	 5.3258903558e+00
 1.7524874068e+00	 1.4986201498e+00	 4.4011927932e+00
 1.7378168718e+00	 1.5156078435e+00	 3.4885829848e+00
 1.7229767909e+00	 1.5324574279e+00	 2.6428381720e+00
 1.7079691297e+00	 1.5491663663e+00	 1.9157941005e+00
 1.8573593861e+00	 1.3813247716e+00	 6.6205034345e+00
 1.8438749438e+00	 1.3992737680e+00	 6.9169668253e+00
 1.8302079665e+00	 1.4171028872e+00	 6.8836317301e+00
 1.8163600545e+00	 1.4348093583e+00	 6.5827696169e+00
 1.8023328632e+00	 1.4523904382e+00	 6.0742907794e+00
 1.7881281027e+00	 1.4698434134e+00	 5.4167751390e+00
 1.7737475375e+00	 1.4871656011e+00	 4.6668124783e+00
 1.7591929851e+00	 1.5043543506e+00	 3.8738643955e+00
 1.7444663160e+00	 1.5214070448e+00	 3.0866245655e+00
 1.7295694522e+00	 1.5383211011e+00	 2.3522350310e+00
 1.7145043669e+00	 1.5550939732e+00	 1.7150525806e+00
 1.8644391488e+00	 1.3865900162e+00	 5.1472636532e+00
 1.8509033073e+00	 1.4046074294e+00	 5.4214976883e+00
 1.8371842352e+00	 1.4225045086e+00	 5.4216810721e+00
 1.8232835386e+00	 1.4402784720e+00	 5.2051307915e+00
 1.8092028793e+00	 1.4579265664e+00	 4.8207866235e+00
 1.7949439741e+00	 1.4754460677e+00	 4.3164077435e+00
 1.7805085939e+00	 1.4928342830e+00	 3.7367822918e+00
 1.7658985635e+00	 1.5100885515e+00	 3.1201647875e+00
 1.7511157601e+00	 1.5272062460e+00	 2.5057235148e+00
 1.7361621134e+00	 1.5441847742e+00	 1.9302983076e+00
 1.7210396040e+00	 1.5610215801e+00	 1.4281580883e+00
 1.6556872326e+00	 1.5017455112e+00	 1.6505639672e+00
 1.6409809772e+00	 1.5178015024e+00	 1.8221741934e+00
 1.6261162542e+00	 1.5337164186e+00	 2.0148121395e+00
 1.6110950846e+00	 1.5494879400e+00	 2.2201332981e+00
 1.5959195351e+00	 1.5651137861e+00	 2.4290495882e+00
 1.5805917172e+00	 1.5805917172e+00	 2.6318875059e+00
 1.5651137861e+00	 1.5959195351e+00	 2.8185453371e+00
 1.5494879400e+00	 1.6110950846e+00	 2.9786483461e+00
 1.5337164186e+00	 1.6261162542e+00	 3.1017008846e+00
 1.5178015024e+00	 1.6409809772e+00	 3.1772344080e+00
 1.5017455112e+00	 1.6556872326e+00	 3.1949504306e+00
 1.6622224697e+00	 1.5076731181e+00	 1.7674308874e+00
 1.6474581666e+00	 1.5237924846e+00	 1.7319718328e+00
 1.6325347704e+00	 1.5397702193e+00	 1.7591411251e+00
 1.6174543101e+00	 1.5556039932e+00	 1.8367313738e+00
 1.6022188605e+00	 1.5712915168e+00	 1.9517794327e+00
 1.5868305414e+00	 1.5868305414e+00	 2.0907342941e+00
 1.5712915168e+00	 1.6022188605e+00	 2.2396239332e+00
 1.5556039932e+00	 1.6174543101e+00	 2.3842199769e+00
 1.5397702193e+00	 1.6325347704e+00	 2.5101991084e+00
 1.5237924846e+00	 1.6474581666e+00	 2.6033001567e+00
 1.5076731181e+00	 1.6622224697e+00	 2.6494758713e+00
 1.6687577069e+00	 1.5136007250e+00	 1.8818480033e+00
 1.6539353561e+00	 1.5297834668e+00	 1.6699607278e+00
 1.6389532867e+00	 1.5458240200e+00	 1.5554835695e+00
 1.6238135356e+00	 1.5617200464e+00	 1.5230379029e+00
 1.6085181859e+00	 1.5774692474e+00	 1.5564761428e+00
 1.5930693657e+00	 1.5930693657e+00	 1.6390585579e+00
 1.5774692474e+00	 1.6085181859e+00	 1.7536289203e+00
 1.5617200464e+00	 1.6238135356e+00	 1.8827878300e+00
 1.5458240200e+00	 1.6389532867e+00	 2.0090625885e+00
 1.5297834668e+00	 1.6539353561e+00	 2.1150725403e+00
 1.5136007250e+00	 1.6687577069e+00	 2.1836888467e+00
 1.6752929440e+00	 1.5195283319e+00	 1.9829280679e+00
 1.6604125455e+00	 1.5357744490e+00	 1.6264093391e+00
 1.6453718029e+00	 1.5518778207e+00	 1.3952493098e+00
 1.6301727611e+00	 1.5678360995e+00	 1.2715817385e+00
 1.6148175113e+00	 1.5836469781e+00	 1.2367572396e+00
 1.5993081900e+00	 1.5993081900e+00	 1.2715281983e+00
 1.5836469781e+00	 1.6148175113e+00	 1.3562324078e+00
 1.5678360995e+00	 1.6301727611e+00	 1.4709742313e+00
 1.5518778207e+00	 1.6453718029e+00	 1.5958021288e+00
 1.5357744490e+00	 1.6604125455e+00	 1.7108814340e+00
 1.5195283319e+00	 1.6752929440e+00	 1.7966613165e+00
 1.6818281812e+00	 1.5254559387e+00	 2.0599072485e+00
 1.6668897349e+00	 1.5417654312e+00	 1.5916924840e+00
 1.6517903191e+00	 1.5579316214e+00	 1.2699376247e+00
 1.6365319865e+00	 1.5739521527e+00	 1.0749645188e+00
 1.6211168367e+00	 1.5898247087e+00	 9.8629674428e-01
 1.6055470143e+00	 1.6055470143e+00	 9.8285181726e-01
 1.5898247087e+00	 1.6211168367e+00	 1.0431320067e+00
 1.5739521527e+00	 1.6365319865e+00	 1.1454125238e+00
 1.5579316214e+00	 1.6517903191e+00	 1.2679258928e+00
 1.5417654312e+00	 1.6668897349e+00	 1.3890413566e+00
 1.5254559387e+00	 1.6818281812e+00	 1.4874382218e+00
 1.6883634183e+00	 1.5313835456e+00	 2.1021439481e+00
 1.6733669244e+00	 1.5477564134e+00	 1.5562905353e+00
 1.6582088353e+00	 1.5639854221e+00	 1.1711368049e+00
 1.6428912120e+00	 1.5800682059e+00	 9.2586059873e-01
 1.6274161620e+00	 1.5960024393e+00	 7.9882546060e-01
 1.6117858385e+00	 1.6117858385e+00	 7.6777933797e-01
 1.5960024393e+00	 1.6274161620e+00	 8.1005177222e-01
 1.5800682059e+00	 1.6428912120e+00	 9.0274831342e-01
 1.5639854221e+00	 1.6582088353e+00	 1.0229409339e+00
 1.5477564134e+00	 1.6733669244e+00	 1.1478532621e+00
 1.5313835456e+00	 1.6883634183e+00	 1.2550395136e+00
 1.6948986554e+00	 1.5373111525e+00	 2.0991177040e+00
 1.6798441138e+00	 1.5537473956e+00	 1.5107886875e+00
 1.6646273515e+00	 1.5700392228e+00	 1.0905237816e+00
 1.6492504375e+00	 1.5861842590e+00	 8.1701703289e-01
 1.6337154874e+00	 1.6021801700e+00	 6.6813130128e-01
 1.6180246628e+00	 1.6180246628e+00	 6.2110266145e-01
 1.6021801700e+00	 1.6337154874e+00	 6.5274317551e-01
 1.5861842590e+00	 1.6492504375e+00	 7.3964073881e-01
 1.5700392228e+00	 1.6646273515e+00	 8.5835474205e-01
 1.5537473956e+00	 1.6798441138e+00	 9.8560634153e-01
 1.5373111525e+00	 1.6948986554e+00	 1.0984621850e+00
 1.7014338926e+00	 1.5432387594e+00	 2.0404281582e+00
 1.6863213032e+00	 1.5597383779e+00	 1.4458762887e+00
 1.6710458677e+00	 1.5760930235e+00	 1.0198638129e+00
 1.6556096630e+00	 1.5923003122e+00	 7.4125360886e-01
 1.6400148128e+00	 1.6083579006e+00	 5.8805965719e-01
 1.6242634871e+00	 1.6242634871e+00	 5.3765635894e-01
 1.6083579006e+00	 1.6400148128e+00	 5.6698610414e-01
 1.5923003122e+00	 1.6556096630e+00	 6.5276376225e-01
 1.5760930235e+00	 1.6710458677e+00	 7.7167680655e-01
 1.5597383779e+00	 1.6863213032e+00	 9.0057983534e-01
 1.5432387594e+00	 1.7014338926e+00	 1.0166823102e+00
 1.7079691297e+00	 1.5491663663e+00	 1.9157941005e+00
 1.6927984926e+00	 1.5657293601e+00	 1.3523462362e+00
 1.6774643839e+00	 1.5821468241e+00	 9.5101022725e-01
 1.6619688885e+00	 1.5984163654e+00	 6.9146292895e-01
 1.6463141382e+00	 1.6145356313e+00	 5.5251380790e-01
 1.6305023114e+00	 1.6305023114e+00	 5.1231839857e-01
 1.6145356313e+00	 1.6463141382e+00	 5.4858989014e-01
 1.5984163654e+00	 1.6619688885e+00	 6.3880748243e-01
 1.5821468241e+00	 1.6774643839e+00	 7.6042019391e-01
 1.5657293601e+00	 1.6927984926e+00	 8.9104485585e-01
 1.5491663663e+00	 1.7079691297e+00	 1.0086570870e+00
 1.7145043669e+00	 1.5550939732e+00	 1.7150525806e+00
 1.6992756821e+00	 1.5717203423e+00	 1.2210944348e+00
 1.6838829001e+00	 1.5882006248e+00	 8.7590422048e-01
 1.6683281139e+00	 1.6045324185e+00	 6.6061053959e-01
 1.6526134636e+00	 1.6207133619e+00	 5.5545537262e-01
 1.6367411356e+00	 1.6367411356e+00	 5.4001090574e-01
 1.6207133619e+00	 1.6526134636e+00	 5.9339436526e-01
 1.6045324185e+00	 1.6683281139e+00	 6.9447946799e-01
 1.5882006248e+00	 1.6838829001e+00	 8.2210314118e-01
 1.5717203423e+00	 1.6992756821e+00	 9.5526621923e-01
 1.5550939732e+00	 1.7145043669e+00	 1.0733268855e+00
 1.7210396040e+00	 1.5610215801e+00	 1.4281580883e+00
 1.7057528715e+00	 1.5777113245e+00	 1.0431193146e+00
 1.6903014164e+00	 1.5942544255e+00	 7.8657470696e-01
 1.6746873394e+00	 1.6106484717e+00	 6.4173510687e-01
 1.6589127890e+00	 1.6268910925e+00	 5.9090480057e-01
 1.6429799599e+00	 1.6429799599e+00	 6.1570095605e-01
 1.6268910925e+00	 1.6589127890e+00	 6.9727094253e-01
 1.6106484717e+00	 1.6746873394e+00	 8.1650611135e-01
 1.5942544255e+00	 1.6903014164e+00	 9.5425066386e-01
 1.5777113245e+00	 1.7057528715e+00	 1.0915042871e+00
 1.5610215801e+00	 1.7210396040e+00	 1.2096173009e+00
 1.5017455112e+00	 1.6556872326e+00	 3.1949504306e+00
 1.4855480428e+00	 1.6702355008e+00	 3.1764242636e+00
 1.4692142337e+00	 1.6846213184e+00	 3.1344930387e+00
 1.4527465428e+00	 1.6988427801e+00	 3.0355580902e+00
 1.4361474640e+00	 1.7128980295e+00	 2.8894021781e+00
 1.4194195247e+00	 1.7267852606e+00	 2.7083086958e+00
 1.4025652846e+00	 1.7405027179e+00	 2.5049356519e+00
 1.3855873345e+00	 1.7540486977e+00	 2.2921078130e+00
 1.3684882949e+00	 1.7674215486e+00	 2.0826196458e+00
 1.3512708146e+00	 1.7806196717e+00	 1.8890499436e+00
 1.3339375697e+00	 1.7936415219e+00	 1.7235889198e+00
 1.5076731181e+00	 1.6622224697e+00	 2.6494758713e+00
 1.4914117160e+00	 1.6768281620e+00	 2.6646376062e+00
 1.4750134349e+00	 1.6912707626e+00	 2.6694437273e+00
 1.4584807437e+00	 1.7055483585e+00	 2.6251438376e+00
 1.4418161459e+00	 1.7196590860e+00	 2.5312502435e+00
 1.4250221790e+00	 1.7336011319e+00	 2.3989859087e+00
 1.4081014128e+00	 1.7473727340e+00	 2.2400032722e+00
 1.3910564483e+00	 1.7609721818e+00	 2.0661734150e+00
 1.3738899163e+00	 1.7743978172e+00	 1.8893863094e+00
 1.3566044761e+00	 1.7876480353e+00	 1.7213630504e+00
 1.3392028144e+00	 1.8007212846e+00	 1.5734808633e+00
 1.5136007250e+00	 1.6687577069e+00	 2.1836888467e+00
 1.4972753891e+00	 1.6834208233e+00	 2.2258820257e+00
 1.4808126362e+00	 1.6979202068e+00	 2.2629642650e+00
 1.4642149446e+00	 1.7122539368e+00	 2.2657567873e+00
 1.4474848278e+00	 1.7264201424e+00	 2.2168350154e+00
 1.4306248333e+00	 1.7404170033e+00	 2.1265945490e+00
 1.4136375410e+00	 1.7542427502e+00	 2.0059023609e+00
 1.3965255620e+00	 1.7678956659e+00	 1.8658826645e+00
 1.3792915376e+00	 1.7813740859e+00	 1.7177141755e+00
 1.3619381376e+00	 1.7946763988e+00	 1.5724396817e+00
 1.3444680590e+00	 1.8078010473e+00	 1.4407887279e+00
 1.5195283319e+00	 1.6752929440e+00	 1.7966613165e+00
 1.5031390623e+00	 1.6900134846e+00	 1.8598756234e+00
 1.4866118374e+00	 1.7045696510e+00	 1.9186049133e+00
 1.4699491454e+00	 1.7189595151e+00	 1.9587780943e+00
 1.4531535097e+00	 1.7331811989e+00	 1.9478357838e+00
 1.4362274876e+00	 1.7472328746e+00	 1.8929982761e+00
 1.4191736692e+00	 1.7611127663e+00	 1.8045649755e+00
 1.4019946758e+00	 1.7748191500e+00	 1.6931178928e+00
 1.3846931590e+00	 1.7883503545e+00	 1.5693156253e+00
 1.3672717991e+00	 1.8017047624e+00	 1.4436999993e+00
 1.3497333037e+00	 1.8148808100e+00	 1.3265161978e+00
 1.5254559387e+00	 1.6818281812e+00	 1.4874382218e+00
 1.5090027354e+00	 1.6966061458e+00	 1.5662991652e+00
 1.4924110386e+00	 1.7112190951e+00	 1.6408494385e+00
 1.4756833463e+00	 1.7256650935e+00	 1.7055463880e+00
 1.4588221916e+00	 1.7399422553e+00	 1.7258839419e+00
 1.4418301419e+00	 1.7540487460e+00	 1.7000095048e+00
 1.4247097973e+00	 1.7679827825e+00	 1.6378706423e+00
 1.4074637895e+00	 1.7817426341e+00	 1.5497097102e+00
 1.3900947804e+00	 1.7953266232e+00	 1.4458542589e+00
 1.3726054606e+00	 1.8087331259e+00	 1.3365204856e+00
 1.3549985483e+00	 1.8219605727e+00	 1.2316305686e+00
 1.5313835456e+00	 1.6883634183e+00	 1.2550395136e+00
 1.5148664085e+00	 1.7031988071e+00	 1.3447983149e+00
 1.4982102399e+00	 1.7178685393e+00	 1.4299067126e+00
 1.4814175472e+00	 1.7323706718e+00	 1.5073556543e+00
 1.4644908735e+00	 1.7467033117e+00	 1.5525609634e+00
 1.4474327962e+00	 1.7608646173e+00	 1.5493874451e+00
 1.4302459255e+00	 1.7748527986e+00	 1.5076444249e+00
 1.4129329033e+00	 1.7886661182e+00	 1.4374350681e+00
 1.3954964017e+00	 1.8023028919e+00	 1.3489429165e+00
 1.3779391220e+00	 1.8157614895e+00	 1.2522318865e+00
 1.3602637930e+00	 1.8290403354e+00	 1.1570605759e+00
 1.5373111525e+00	 1.6948986554e+00	 1.0984621850e+00
 1.5207300817e+00	 1.7097914684e+00	 1.1949858686e+00
 1.5040094411e+00	 1.7245179835e+00	 1.2858980499e+00
 1.4871517480e+00	 1.7390762501e+00	 1.3680198803e+00
 1.4701595554e+00	 1.7534643682e+00	 1.4293963719e+00
 1.4530354505e+00	 1.7676804887e+00	 1.4428361329e+00
 1.4357820537e+00	 1.7817228147e+00	 1.4156549827e+00
 1.4184020170e+00	 1.7955896022e+00	 1.3580153118e+00
 1.4008980231e+00	 1.8092791605e+00	 1.2801416901e+00
 1.3832727835e+00	 1.8227898531e+00	 1.1921171472e+00
 1.3655290376e+00	 1.8361200981e+00	 1.1036942198e+00
 1.5432387594e+00	 1.7014338926e+00	 1.0166823102e+00
 1.5265937548e+00	 1.7163841296e+00	 1.1164439892e+00
 1.5098086423e+00	 1.7311674276e+00	 1.2089059050e+00
 1.4928859489e+00	 1.7457818285e+00	 1.2909546253e+00
 1.4758282373e+00	 1.7602254246e+00	 1.3578657020e+00
 1.4586381048e+00	 1.7744963600e+00	 1.3820024510e+00
 1.4413181819e+00	 1.7885928309e+00	 1.3636126193e+00
 1.4238711308e+00	 1.8025130863e+00	 1.3131142231e+00
 1.4062996445e+00	 1.8162554292e+00	 1.2409559261e+00
 1.3886064450e+00	 1.8298182166e+00	 1.1574093414e+00
 1.3707942823e+00	 1.8431998607e+00	 1.0723765854e+00
 1.5491663663e+00	 1.7079691297e+00	 1.0086570870e+00
 1.5324574279e+00	 1.7229767909e+00	 1.1087264426e+00
 1.5156078435e+00	 1.7378168718e+00	 1.1989762670e+00
 1.4986201498e+00	 1.7524874068e+00	 1.2765917078e+00
 1.4814969192e+00	 1.7669864811e+00	 1.3393884587e+00
 1.4642407591e+00	 1.7813122314e+00	 1.3684741406e+00
 1.4468543100e+00	 1.7954628470e+00	 1.3531673206e+00
 1.4293402445e+00	 1.8094365704e+00	 1.3043360526e+00
 1.4117012658e+00	 1.8232316979e+00	 1.2328342206e+00
 1.3939401065e+00	 1.8368465802e+00	 1.1492895940e+00
 1.3760595269e+00	 1.8502796234e+00	 1.0639076591e+00
 1.5550939732e+00	 1.7145043669e+00	 1.0733268855e+00
 1.5383211011e+00	 1.7295694522e+00	 1.1713608327e+00
 1.5214070448e+00	 1.7444663160e+00	 1.2561210517e+00
 1.5043543506e+00	 1.7591929851e+00	 1.3253220130e+00
 1.4871656011e+00	 1.7737475375e+00	 1.3773256648e+00
 1.4698434134e+00	 1.7881281027e+00	 1.4037778039e+00
 1.4523904382e+00	 1.8023328632e+00	 1.3859067842e+00
 1.4348093583e+00	 1.8163600545e+00	 1.3332235443e+00
 1.4171028872e+00	 1.8302079665e+00	 1.2571664049e+00
 1.3992737680e+00	 1.8438749438e+00	 1.1688849977e+00
 1.3813247716e+00	 1.8573593861e+00	 1.0790415388e+00
 1.5610215801e+00	 1.7210396040e+00	 1.2096173009e+00
 1.5441847742e+00	 1.7361621134e+00	 1.3038508394e+00
 1.5272062460e+00	 1.7511157601e+00	 1.3803204900e+00
 1.5100885515e+00	 1.7658985635e+00	 1.4374984056e+00
 1.4928342830e+00	 1.7805085939e+00	 1.4745120733e+00
 1.4754460677e+00	 1.7949439741e+00	 1.4893768984e+00
 1.4579265664e+00	 1.8092028793e+00	 1.4633544390e+00
 1.4402784720e+00	 1.8232835386e+00	 1.4012559497e+00
 1.4225045086e+00	 1.8371842352e+00	 1.3152815248e+00
 1.4046074294e+00	 1.8509033073e+00	 1.2172665229e+00
 1.3865900162e+00	 1.8644391488e+00	 1.1184087547e+00
 1.3339375697e+00	 1.7936415219e+00	 1.7235889198e+00
 1.3164942352e+00	 1.8064834412e+00	 1.5858866067e+00
 1.2989405909e+00	 1.8191462282e+00	 1.4680764891e+00
 1.2812793748e+00	 1.8316285092e+00	 1.3705385452e+00
 1.2635133463e+00	 1.8439289659e+00	 1.2932731481e+00
 1.2456452853e+00	 1.8560463358e+00	 1.2358474527e+00
 1.2276779903e+00	 1.8679794125e+00	 1.1975681346e+00
 1.2096142776e+00	 1.8797270459e+00	 1.1766188694e+00
 1.1914569792e+00	 1.8912881428e+00	 1.1706979908e+00
 1.1732089420e+00	 1.9026616668e+00	 1.1772673132e+00
 1.1548730262e+00	 1.9138466387e+00	 1.1936123134e+00
 1.3392028144e+00	 1.8007212846e+00	 1.5734808633e+00
 1.3216906284e+00	 1.8136138928e+00	 1.4472043970e+00
 1.3040676974e+00	 1.8263266616e+00	 1.3376771586e+00
 1.2863367699e+00	 1.8388582120e+00	 1.2462079305e+00
 1.2685006164e+00	 1.8512072204e+00	 1.1736215536e+00
 1.2505620275e+00	 1.8633724193e+00	 1.1203772420e+00
 1.2325238130e+00	 1.8753525976e+00	 1.0860266005e+00
 1.2143888002e+00	 1.8871466006e+00	 1.0691915202e+00
 1.1961598323e+00	 1.8987533309e+00	 1.0681293943e+00
 1.1778397675e+00	 1.9101717478e+00	 1.0807982885e+00
 1.1594314772e+00	 1.9214008684e+00	 1.1049176935e+00
 1.3444680590e+00	 1.8078010473e+00	 1.4407887279e+00
 1.3268870217e+00	 1.8207443444e+00	 1.3254912549e+00
 1.3091948039e+00	 1.8335070951e+00	 1.2239894772e+00
 1.2913941650e+00	 1.8460879148e+00	 1.1384363245e+00
 1.2734878864e+00	 1.8584854749e+00	 1.0704694221e+00
 1.2554787697e+00	 1.8706985028e+00	 1.0211054510e+00
 1.2373696358e+00	 1.8827257827e+00	 9.9009449614e-01
 1.2191633228e+00	 1.8945661553e+00	 9.7662209452e-01
 1.2008626855e+00	 1.9062185189e+00	 9.7945365669e-01
 1.1824705930e+00	 1.9176818288e+00	 9.9699920778e-01
 1.1639899281e+00	 1.9289550980e+00	 1.0273747137e+00
 1.3497333037e+00	 1.8148808100e+00	 1.3265161978e+00
 1.3320834150e+00	 1.8278747960e+00	 1.2213062218e+00
 1.3143219104e+00	 1.8406875285e+00	 1.1271973427e+00
 1.2964515602e+00	 1.8533176176e+00	 1.0471058029e+00
 1.2784751565e+00	 1.8657637294e+00	 9.8342473115e-01
 1.2603955120e+00	 1.8780245864e+00	 9.3728601222e-01
 1.2422154585e+00	 1.8900989678e+00	 9.0892143013e-01
 1.2239378454e+00	 1.9019857101e+00	 8.9802399106e-01
 1.2055655386e+00	 1.9136837069e+00	 9.0381660134e-01
 1.1871014185e+00	 1.9251919098e+00	 9.2511743034e-01
 1.1685483791e+00	 1.9365093277e+00	 9.6040181517e-01
 1.3549985483e+00	 1.8219605727e+00	 1.2316305686e+00
 1.3372798083e+00	 1.8350052476e+00	 1.1351799345e+00
 1.3194490169e+00	 1.8478679620e+00	 1.0474634022e+00
 1.3015089553e+00	 1.8605473205e+00	 9.7213710495e-01
 1.2834624265e+00	 1.8730419839e+00	 9.1190052213e-01
 1.2653122542e+00	 1.8853506699e+00	 8.6816185312e-01
 1.2470612812e+00	 1.8974721529e+00	 8.4164771068e-01
 1.2287123681e+00	 1.9094052648e+00	 8.3250191271e-01
 1.2102683917e+00	 1.9211488950e+00	 8.4035485380e-01
 1.1917322440e+00	 1.9327019908e+00	 8.6438950551e-01
 1.1731068301e+00	 1.9440635574e+00	 9.0340390305e-01
 1.3602637930e+00	 1.8290403354e+00	 1.1570605759e+00
 1.3424762016e+00	 1.8421356992e+00	 1.0676123315e+00
 1.3245761235e+00	 1.8550483954e+00	 9.8493616977e-01
 1.3065663505e+00	 1.8677770233e+00	 9.1323670058e-01
 1.2884496966e+00	 1.8803202384e+00	 8.5529571378e-01
 1.2702289964e+00	 1.8926767534e+00	 8.1296554583e-01
 1.2519071039e+00	 1.9048453380e+00	 7.8740494724e-01
 1.2334868907e+00	 1.9168248195e+00	 7.7915243921e-01
 1.2149712449e+00	 1.9286140830e+00	 7.8819640605e-01
 1.1963630695e+00	 1.9402120717e+00	 8.1404174805e-01
 1.1776652811e+00	 1.9516177871e+00	 8.5577295323e-01
 1.3655290376e+00	 1.8361200981e+00	 1.1036942198e+00
 1.3476725949e+00	 1.8492661508e+00	 1.0190703576e+00
 1.3297032300e+00	 1.8622288289e+00	 9.3973101872e-01
 1.3116237456e+00	 1.8750067261e+00	 8.7001857443e-01
 1.2934369666e+00	 1.8875984929e+00	 8.1299686168e-01
 1.2751457386e+00	 1.9000028369e+00	 7.7091996394e-01
 1.2567529266e+00	 1.9122185231e+00	 7.4531665989e-01
 1.2382614133e+00	 1.9242443742e+00	 7.3706460841e-01
 1.2196740980e+00	 1.9360792710e+00	 7.4646118882e-01
 1.2009938950e+00	 1.9477221527e+00	 7.7329082117e-01
 1.1822237321e+00	 1.9591720168e+00	 8.1688862561e-01
 1.3707942823e+00	 1.8431998607e+00	 1.0723765854e+00
 1.3528689882e+00	 1.8563966024e+00	 9.8999427874e-01
 1.3348303365e+00	 1.8694092624e+00	 9.1175879922e-01
 1.3166811407e+00	 1.8822364290e+00	 8.4208144746e-01
 1.2984242367e+00	 1.8948767475e+00	 7.8437888730e-01
 1.2800624809e+00	 1.9073289205e+00	 7.4123894652e-01
 1.2615987493e+00	 1.9195917082e+00	 7.1449889672e-01
 1.2430359359e+00	 1.9316639289e+00	 7.0532050574e-01
 1.2243769512e+00	 1.9435444591e+00	 7.1426165214e-01
 1.2056247205e+00	 1.9552322337e+00	 7.4134432718e-01
 1.1867821831e+00	 1.9667262465e+00	 7.8611888413e-01
 1.3760595269e+00	 1.8502796234e+00	 1.0639076591e+00
 1.3580653815e+00	 1.8635270540e+00	 9.8072960680e-01
 1.3399574430e+00	 1.8765896958e+00	 9.0088513802e-01
 1.3217385359e+00	 1.8894661318e+00	 8.2900959349e-01
 1.3034115067e+00	 1.9021550020e+00	 7.6880581273e-01
 1.2849792231e+00	 1.9146550040e+00	 7.2312796884e-01
 1.2664445720e+00	 1.9269648933e+00	 6.9406085884e-01
 1.2478104586e+00	 1.9390834836e+00	 6.8299586181e-01
 1.2290798043e+00	 1.9510096471e+00	 6.9070335386e-01
 1.2102555460e+00	 1.9627423147e+00	 7.1740140558e-01
 1.1913406340e+00	 1.9742804762e+00	 7.6282062306e-01
 1.3813247716e+00	 1.8573593861e+00	 1.0790415388e+00
 1.3632617747e+00	 1.8706575056e+00	 9.9146739675e-01
 1.3450845495e+00	 1.8837701293e+00	 9.0695758040e-01
 1.3267959310e+00	 1.8966958346e+00	 8.3037365951e-01
 1.3083987768e+00	 1.9094332565e+00	 7.6563150080e-01
 1.2898959653e+00	 1.9219810875e+00	 7.1578481993e-01
 1.2712903948e+00	 1.9343380784e+00	 6.8310553286e-01
 1.2525849812e+00	 1.9465030383e+00	 6.6916065769e-01
 1.2337826575e+00	 1.9584748352e+00	 6.7488555583e-01
 1.2148863715e+00	 1.9702523957e+00	 7.0065333825e-01
 1.1958990850e+00	 1.9818347058e+00	 7.4634029957e-01
 1.3865900162e+00	 1.8644391488e+00	 1.1184087547e+00
 1.3684581680e+00	 1.8777879572e+00	 1.0223690924e+00
 1.3502116560e+00	 1.8909505627e+00	 9.2980650973e-01
 1.3318533261e+00	 1.9039255374e+00	 8.4573148972e-01
 1.3133860468e+00	 1.9167115110e+00	 7.7420040051e-01
 1.2948127076e+00	 1.9293071710e+00	 7.1840028646e-01
 1.2761362175e+00	 1.9417112635e+00	 6.8073033061e-01
 1.2573595038e+00	 1.9539225930e+00	 6.6287973791e-01
 1.2384855106e+00	 1.9659400232e+00	 6.6590182768e-01
 1.2195171970e+00	 1.9777624767e+00	 6.9028416176e-01
 1.2004575360e+00	 1.9893889355e+00	 7.3601457237e-01
 1.1548730262e+00	 1.9138466387e+00	 1.1936123134e+00
 1.1364521039e+00	 1.9248421368e+00	 1.2095677456e+00
 1.1179490594e+00	 1.9356472989e+00	 1.2190738578e+00
 1.0993667861e+00	 1.9462613205e+00	 1.2258903541e+00
 1.0807081850e+00	 1.9566834547e+00	 1.2341552839e+00
 1.0619761634e+00	 1.9669130120e+00	 1.2441911069e+00
 1.0431736330e+00	 1.9769493602e+00	 1.2563610056e+00
 1.0243035093e+00	 1.9867919245e+00	 1.2713282452e+00
 1.0053687097e+00	 1.9964401871e+00	 1.2899989271e+00
 9.8637215194e-01	 2.0058936872e+00	 1.3134691426e+00
 9.6731675346e-01	 2.0151520210e+00	 1.3429764386e+00
 1.1594314772e+00	 1.9214008684e+00	 1.1049176935e+00
 1.1409378449e+00	 1.9324397673e+00	 1.1287917445e+00
 1.1223617662e+00	 1.9432875789e+00	 1.1446879794e+00
 1.1037061459e+00	 1.9539434956e+00	 1.1560606663e+00
 1.0849738967e+00	 1.9644067675e+00	 1.1672318953e+00
 1.0661679370e+00	 1.9746767024e+00	 1.1793245636e+00
 1.0472911903e+00	 1.9847526655e+00	 1.1930954231e+00
 1.0283465836e+00	 1.9946340798e+00	 1.2096055154e+00
 1.0093370455e+00	 2.0043204254e+00	 1.2301620525e+00
 9.9026550559e-01	 2.0138112399e+00	 1.2562648054e+00
 9.7113489269e-01	 2.0231061177e+00	 1.2895569024e+00
 1.1639899281e+00	 1.9289550980e+00	 1.0273747137e+00
 1.1454235858e+00	 1.9400373978e+00	 1.0577094113e+00
 1.1267744729e+00	 1.9509278590e+00	 1.0788991275e+00
 1.1080455058e+00	 1.9616256708e+00	 1.0942648544e+00
 1.0892396083e+00	 1.9721300803e+00	 1.1078653654e+00
 1.0703597106e+00	 1.9824403927e+00	 1.1215590530e+00
 1.0514087477e+00	 1.9925559707e+00	 1.1363889473e+00
 1.0323896578e+00	 2.0024762350e+00	 1.1537079806e+00
 1.0133053813e+00	 2.0122006638e+00	 1.1751201533e+00
 9.9415885924e-01	 2.0217287927e+00	 1.2024263124e+00
 9.7495303193e-01	 2.0310602143e+00	 1.2375744368e+00
 1.1685483791e+00	 1.9365093277e+00	 9.6040181517e-01
 1.1499093267e+00	 1.9476350283e+00	 9.9594847379e-01
 1.1311871796e+00	 1.9585681390e+00	 1.0215518884e+00
 1.1123848656e+00	 1.9693078459e+00	 1.0404618096e+00
 1.0935053199e+00	 1.9798533931e+00	 1.0562173436e+00
 1.0745514842e+00	 1.9902040830e+00	 1.0712666368e+00
 1.0555263050e+00	 2.0003592760e+00	 1.0868377094e+00
 1.0364327320e+00	 2.0103183903e+00	 1.1044706827e+00
 1.0172737171e+00	 2.0200809022e+00	 1.1259631825e+00
 9.9805221288e-01	 2.0296463454e+00	 1.1533156622e+00
 9.7877117116e-01	 2.0390143110e+00	 1.1886813296e+00
 1.1731068301e+00	 1.9440635574e+00	 9.0340390305e-01
 1.1543950677e+00	 1.9552326588e+00	 9.4311977453e-01
 1.1355998864e+00	 1.9662084191e+00	 9.7247047108e-01
 1.1167242254e+00	 1.9769900210e+00	 9.9455786070e-01
 1.0977710315e+00	 1.9875767059e+00	 1.0124495327e+00
 1.0787432579e+00	 1.9979677734e+00	 1.0288167278e+00
 1.0596438623e+00	 2.0081625813e+00	 1.0450323354e+00
 1.0404758062e+00	 2.0181605456e+00	 1.0627201240e+00
 1.0212420529e+00	 2.0279611406e+00	 1.0837693155e+00
 1.0019455665e+00	 2.0375638981e+00	 1.1102796102e+00
 9.8258931039e-01	 2.0469684077e+00	 1.1445109076e+00
 1.1776652811e+00	 1.9516177871e+00	 8.5577295323e-01
 1.1588808086e+00	 1.9628302893e+00	 8.9881791982e-01
 1.1400125931e+00	 1.9738486991e+00	 9.3145939978e-01
 1.1210635852e+00	 1.9846721962e+00	 9.5654233061e-01
 1.1020367432e+00	 1.9953000187e+00	 9.7672268755e-01
 1.0829350315e+00	 2.0057314637e+00	 9.9457517705e-01
 1.0637614196e+00	 2.0159658865e+00	 1.0115571270e+00
 1.0445188804e+00	 2.0260027009e+00	 1.0292735456e+00
 1.0252103887e+00	 2.0358413790e+00	 1.0496043320e+00
 1.0058389202e+00	 2.0454814508e+00	 1.0746491591e+00
 9.8640744962e-01	 2.0549225044e+00	 1.1066771423e+00
 1.1822237321e+00	 1.9591720168e+00	 8.1688862561e-01
 1.1633665496e+00	 1.9704279198e+00	 8.6262193366e-01
 1.1444252999e+00	 1.9814889792e+00	 8.9830421012e-01
 1.1254029451e+00	 1.9923543713e+00	 9.2641582284e-01
 1.1063024548e+00	 2.0030233315e+00	 9.4919561459e-01
 1.0871268051e+00	 2.0134951541e+00	 9.6890336133e-01
 1.0678789769e+00	 2.0237691918e+00	 9.8698924022e-01
 1.0485619546e+00	 2.0338448562e+00	 1.0049382025e+00
 1.0291787245e+00	 2.0437216173e+00	 1.0245209921e+00
 1.0097322738e+00	 2.0533990035e+00	 1.0477390418e+00
 9.9022558885e-01	 2.0628766011e+00	 1.0767742441e+00
 1.1867821831e+00	 1.9667262465e+00	 7.8611888413e-01
 1.1678522905e+00	 1.9780255504e+00	 8.3409591727e-01
 1.1488380066e+00	 1.9891292592e+00	 8.7277214948e-01
 1.1297423049e+00	 2.0000365464e+00	 9.0415713152e-01
 1.1105681664e+00	 2.0107466443e+00	 9.3002417266e-01
 1.0913185787e+00	 2.0212588444e+00	 9.5215726938e-01
 1.0719965342e+00	 2.0315724971e+00	 9.7189786185e-01
 1.0526050288e+00	 2.0416870115e+00	 9.9051063503e-01
 1.0331470603e+00	 2.0516018557e+00	 1.0095584075e+00
 1.0136256275e+00	 2.0613165562e+00	 1.0308471970e+00
 9.9404372809e-01	 2.0708306978e+00	 1.0563762485e+00
 1.1913406340e+00	 1.9742804762e+00	 7.6282062306e-01
 1.1723380314e+00	 1.9856231809e+00	 8.1278971360e-01
 1.1532507134e+00	 1.9967695393e+00	 8.5461288121e-01
 1.1340816647e+00	 2.0077187215e+00	 8.8972398695e-01
 1.1148338780e+00	 2.0184699571e+00	 9.1934978857e-01
 1.0955103524e+00	 2.0290225348e+00	 9.4468658812e-01
 1.0761140915e+00	 2.0393758023e+00	 9.6684338434e-01
 1.0566481030e+00	 2.0495291668e+00	 9.8677593625e-01
 1.0371153961e+00	 2.0594820941e+00	 1.0057414058e+00
 1.0175189811e+00	 2.0692341089e+00	 1.0252542364e+00
 9.9786186732e-01	 2.0787847945e+00	 1.0470365914e+00
 1.1958990850e+00	 1.9818347058e+00	 7.4634029957e-01
 1.1768237724e+00	 1.9932208114e+00	 7.9823957694e-01
 1.1576634201e+00	 2.0044098193e+00	 8.4355919248e-01
 1.1384210245e+00	 2.0154008967e+00	 8.8305380350e-01
 1.1190995897e+00	 2.0261932699e+00	 9.1730199911e-01
 1.0997021260e+00	 2.0367862251e+00	 9.4683378825e-01
 1.0802316489e+00	 2.0471791076e+00	 9.7237657820e-01
 1.0606911772e+00	 2.0573713221e+00	 9.9450701569e-01
 1.0410837320e+00	 2.0673623325e+00	 1.0140798913e+00
 1.0214123348e+00	 2.0771516616e+00	 1.0322229062e+00
 1.0016800066e+00	 2.0867388912e+00	 1.0502876766e+00
 1.2004575360e+00	 1.9893889355e+00	 7.3601457237e-01
 1.1813095133e+00	 2.0008184419e+00	 7.8996884738e-01
 1.1620761269e+00	 2.0120500994e+00	 8.3932770589e-01
 1.1427603843e+00	 2.0230830718e+00	 8.8406443003e-01
 1.1233653013e+00	 2.0339165827e+00	 9.2400892587e-01
 1.1038938996e+00	 2.0445499154e+00	 9.5893320950e-01
 1.0843492062e+00	 2.0549824128e+00	 9.8903776272e-01
 1.0647342514e+00	 2.0652134774e+00	 1.0144638599e+00
 1.0450520678e+00	 2.0752425708e+00	 1.0355681988e+00
 1.0253056884e+00	 2.0850692143e+00	 1.0529975402e+00
 1.0054981458e+00	 2.0946929879e+00	 1.0676404336e+00
 9.6731675346e-01	 2.0151520210e+00	 1.3429764386e+00
 9.4820217558e-01	 2.0242163646e+00	 1.3772654738e+00
 9.2903456551e-01	 2.0330848350e+00	 1.4128195346e+00
 9.0981683097e-01	 2.0417571950e+00	 1.4477174245e+00
 8.9055187374e-01	 2.0502332634e+00	 1.4801973462e+00
 8.7124258838e-01	 2.0585129138e+00	 1.5086298529e+00
 8.5189186097e-01	 2.0665960749e+00	 1.5314939297e+00
 8.3250256787e-01	 2.0744827292e+00	 1.5473560071e+00
 8.1307757453e-01	 2.0821729134e+00	 1.5548517070e+00
 7.9361973424e-01	 2.0896667173e+00	 1.5526701126e+00
 7.7413188700e-01	 2.0969642834e+00	 1.5395403559e+00
 9.7113489269e-01	 2.0231061177e+00	 1.2895569024e+00
 9.5194486680e-01	 2.0322062396e+00	 1.3298223423e+00
 9.3270159940e-01	 2.0411097151e+00	 1.3737509877e+00
 9.1340800969e-01	 2.0498163062e+00	 1.4186038880e+00
 8.9406701088e-01	 2.0583258308e+00	 1.4618322320e+00
 8.7468150897e-01	 2.0666381623e+00	 1.5010513223e+00
 8.5525440144e-01	 2.0747532287e+00	 1.5340176760e+00
 8.3578857600e-01	 2.0826710128e+00	 1.5586090434e+00
 8.1628690940e-01	 2.0903915513e+00	 1.5728071370e+00
 7.9675226620e-01	 2.0979149343e+00	 1.5746828548e+00
 7.7718749760e-01	 2.1052413049e+00	 1.5623837821e+00
 9.7495303193e-01	 2.0310602143e+00	 1.2375744368e+00
 9.5568755803e-01	 2.0401961146e+00	 1.2814238421e+00
 9.3636863330e-01	 2.0491345952e+00	 1.3310923768e+00
 9.1699918840e-01	 2.0578754174e+00	 1.3831961583e+00
 8.9758214802e-01	 2.0664183983e+00	 1.4345654770e+00
 8.7812042957e-01	 2.0747634107e+00	 1.4822196938e+00
 8.5861694191e-01	 2.0829103825e+00	 1.5233452695e+00
 8.3907458413e-01	 2.0908592964e+00	 1.5552767109e+00
 8.1949624426e-01	 2.0986101891e+00	 1.5754802151e+00
 7.9988479815e-01	 2.1061631513e+00	 1.5815397885e+00
 7.8024310820e-01	 2.1135183265e+00	 1.5711456175e+00
 9.7877117116e-01	 2.0390143110e+00	 1.1886813296e+00
 9.5943024926e-01	 2.0481859895e+00	 1.2339938528e+00
 9.4003566719e-01	 2.0571594753e+00	 1.2869813367e+00
 9.2059036712e-01	 2.0659345285e+00	 1.3437857706e+00
 9.0109728516e-01	 2.0745109657e+00	 1.4007806947e+00
 8.8155935017e-01	 2.0828886591e+00	 1.4545469218e+00
 8.6197948239e-01	 2.0910675363e+00	 1.5018514079e+00
 8.4236059225e-01	 2.0990475800e+00	 1.5396290479e+00
 8.2270557913e-01	 2.1068288270e+00	 1.5649671697e+00
 8.0301733011e-01	 2.1144113683e+00	 1.5750924941e+00
 7.8329871880e-01	 2.1217953480e+00	 1.5673603280e+00
 9.8258931039e-01	 2.0469684077e+00	 1.1445109076e+00
 9.6317294048e-01	 2.0561758645e+00	 1.1894338912e+00
 9.4370270109e-01	 2.0651843554e+00	 1.2435306530e+00
 9.2418154583e-01	 2.0739936397e+00	 1.3026378641e+00
 9.0461242230e-01	 2.0826035331e+00	 1.3628345185e+00
 8.8499827076e-01	 2.0910139075e+00	 1.4204183819e+00
 8.6534202286e-01	 2.0992246901e+00	 1.4718856167e+00
 8.4564660038e-01	 2.1072358636e+00	 1.5139133534e+00
 8.2591491400e-01	 2.1150474649e+00	 1.5433449694e+00
 8.0614986206e-01	 2.1226595853e+00	 1.5571778359e+00
 7.8635432940e-01	 2.1300723696e+00	 1.5525532905e+00
 9.8640744962e-01	 2.0549225044e+00	 1.1066771423e+00
 9.6691563171e-01	 2.0641657395e+00	 1.1496228247e+00
 9.4736973498e-01	 2.0732092355e+00	 1.2028280674e+00
 9.2777272455e-01	 2.0820527509e+00	 1.2619910617e+00
 9.0812755944e-01	 2.0906961006e+00	 1.3230565376e+00
 8.8843719136e-01	 2.0991391559e+00	 1.3821928427e+00
 8.6870456333e-01	 2.1073818440e+00	 1.4357722389e+00
 8.4893260851e-01	 2.1154241471e+00	 1.4803541751e+00
 8.2912424886e-01	 2.1232661027e+00	 1.5126712880e+00
 8.0928239402e-01	 2.1309078023e+00	 1.5296178839e+00
 7.8940994000e-01	 2.1383493911e+00	 1.5282406482e+00
 9.9022558885e-01	 2.0628766011e+00	 1.0767742441e+00
 9.7065832294e-01	 2.0721556144e+00	 1.1164165740e+00
 9.5103676888e-01	 2.0812341156e+00	 1.1669360703e+00
 9.3136390326e-01	 2.0901118620e+00	 1.2240573354e+00
 9.1164269658e-01	 2.0987886680e+00	 1.2837492167e+00
 8.9187611195e-01	 2.1072644043e+00	 1.3422024230e+00
 8.7206710381e-01	 2.1155389978e+00	 1.3958104101e+00
 8.5221861663e-01	 2.1236124307e+00	 1.4411532822e+00
 8.3233358373e-01	 2.1314847406e+00	 1.4749844553e+00
 8.1241492597e-01	 2.1391560192e+00	 1.4942198218e+00
 7.9246555060e-01	 2.1466264126e+00	 1.4959291569e+00
 9.9404372809e-01	 2.0708306978e+00	 1.0563762485e+00
 9.7440101416e-01	 2.0801454894e+00	 1.0916478028e+00
 9.5470380277e-01	 2.0892589957e+00	 1.1378916797e+00
 9.3495508198e-01	 2.0981709732e+00	 1.1910218568e+00
 9.1515783372e-01	 2.1068812354e+00	 1.2471878016e+00
 8.9531503255e-01	 2.1153896527e+00	 1.3027525338e+00
 8.7542964428e-01	 2.1236961516e+00	 1.3542740175e+00
 8.5550462476e-01	 2.1318007143e+00	 1.3984896238e+00
 8.3554291859e-01	 2.1397033784e+00	 1.4323033951e+00
 8.1554745792e-01	 2.1474042362e+00	 1.4527758447e+00
 7.9552116120e-01	 2.1549034342e+00	 1.4571160200e+00
 9.9786186732e-01	 2.0787847945e+00	 1.0470365914e+00
 9.7814370539e-01	 2.0881353644e+00	 1.0771255974e+00
 9.5837083667e-01	 2.0972838758e+00	 1.1177062076e+00
 9.3854626069e-01	 2.1062300844e+00	 1.1650428346e+00
 9.1867297086e-01	 2.1149738029e+00	 1.2156202105e+00
 8.9875395314e-01	 2.1235149012e+00	 1.2661218046e+00
 8.7879218475e-01	 2.1318533054e+00	 1.3134116453e+00
 8.5879063289e-01	 2.1399889979e+00	 1.3545192729e+00
 8.3875225346e-01	 2.1479220163e+00	 1.3866275495e+00
 8.1867998988e-01	 2.1556524532e+00	 1.4070630439e+00
 7.9857677180e-01	 2.1631804557e+00	 1.4132887155e+00
 1.0016800066e+00	 2.0867388912e+00	 1.0502876766e+00
 9.8188639661e-01	 2.0961252394e+00	 1.0746351351e+00
 9.6203787056e-01	 2.1053087559e+00	 1.1083650145e+00
 9.4213743941e-01	 2.1142891955e+00	 1.1482513384e+00
 9.2218810800e-01	 2.1230663703e+00	 1.1912669097e+00
 9.0219287374e-01	 2.1316401496e+00	 1.2345619966e+00
 8.8215472523e-01	 2.1400104593e+00	 1.2754465051e+00
 8.6207664101e-01	 2.1481772815e+00	 1.3113753579e+00
 8.4196158833e-01	 2.1561406541e+00	 1.3399367914e+00
 8.2181252183e-01	 2.1639006702e+00	 1.3588432821e+00
 8.0163238240e-01	 2.1714574772e+00	 1.3659248129e+00
 1.0054981458e+00	 2.0946929879e+00	 1.0676404336e+00
 9.8562908784e-01	 2.1041151143e+00	 1.0859373416e+00
 9.6570490446e-01	 2.1133336360e+00	 1.1118272509e+00
 9.4572861812e-01	 2.1223483067e+00	 1.1427511090e+00
 9.2570324514e-01	 2.1311589378e+00	 1.1763207777e+00
 9.0563179433e-01	 2.1397653980e+00	 1.2102979008e+00
 8.8551726570e-01	 2.1481676131e+00	 1.2425763530e+00
 8.6536264914e-01	 2.1563655651e+00	 1.2711679790e+00
 8.4517092319e-01	 2.1643592920e+00	 1.2941913240e+00
 8.2494505378e-01	 2.1721488872e+00	 1.3098630559e+00
 8.0468799300e-01	 2.1797344988e+00	 1.3164917811e+00
 7.7413188700e-01	 2.0969642834e+00	 1.5395403559e+00
 7.5462017753e-01	 2.1040646156e+00	 1.5219860738e+00
 7.3508410348e-01	 2.1109692158e+00	 1.5066675782e+00
 7.1552645584e-01	 2.1176783796e+00	 1.4916280718e+00
 6.9595000784e-01	 2.1241924524e+00	 1.4754256512e+00
 6.7635751393e-01	 2.1305118294e+00	 1.4571388682e+00
 6.5675170875e-01	 2.1366369545e+00	 1.4360425156e+00
 6.3713530613e-01	 2.1425683196e+00	 1.4116011224e+00
 6.1751099811e-01	 2.1483064638e+00	 1.3834623689e+00
 5.9788145400e-01	 2.1538519729e+00	 1.3514505459e+00
 5.7824931944e-01	 2.1592054782e+00	 1.3155601684e+00
 7.7718749760e-01	 2.1052413049e+00	 1.5623837821e+00
 7.5759877259e-01	 2.1123696632e+00	 1.5428976872e+00
 7.3798558683e-01	 2.1193015169e+00	 1.5242954629e+00
 7.1835074232e-01	 2.1260371626e+00	 1.5050798280e+00
 6.9869702325e-01	 2.1325769474e+00	 1.4841221315e+00
 6.7902719493e-01	 2.1389212680e+00	 1.4612253098e+00
 6.5934400280e-01	 2.1450705698e+00	 1.4363682683e+00
 6.3965017140e-01	 2.1510253468e+00	 1.4096981948e+00
 6.1994840339e-01	 2.1567861403e+00	 1.3815228772e+00
 6.0024137863e-01	 2.1623535384e+00	 1.3523031551e+00
 5.8053175320e-01	 2.1677281748e+00	 1.3226456150e+00
 7.8024310820e-01	 2.1135183265e+00	 1.5711456175e+00
 7.6057736764e-01	 2.1206747107e+00	 1.5515577881e+00
 7.4088707018e-01	 2.1276338179e+00	 1.5318880950e+00
 7.2117502881e-01	 2.1343959457e+00	 1.5112291014e+00
 7.0144403866e-01	 2.1409614425e+00	 1.4884041670e+00
 6.8169687593e-01	 2.1473307065e+00	 1.4638245672e+00
 6.6193629684e-01	 2.1535041851e+00	 1.4380584438e+00
 6.4216503667e-01	 2.1594823741e+00	 1.4118219137e+00
 6.2238580868e-01	 2.1652658169e+00	 1.3859703895e+00
 6.0260130326e-01	 2.1708551038e+00	 1.3614901182e+00
 5.8281418696e-01	 2.1762508713e+00	 1.3394900551e+00
 7.8329871880e-01	 2.1217953480e+00	 1.5673603280e+00
 7.6355596270e-01	 2.1289797583e+00	 1.5491451389e+00
 7.4378855353e-01	 2.1359661189e+00	 1.5302610311e+00
 7.2399931529e-01	 2.1427547288e+00	 1.5104882991e+00
 7.0419105406e-01	 2.1493459376e+00	 1.4883282642e+00
 6.8436655692e-01	 2.1557401451e+00	 1.4646405332e+00
 6.6452859089e-01	 2.1619378004e+00	 1.4404690118e+00
 6.4467990193e-01	 2.1679394014e+00	 1.4169863999e+00
 6.2482321396e-01	 2.1737454935e+00	 1.3954846121e+00
 6.0496122789e-01	 2.1793566693e+00	 1.3773655017e+00
 5.8509662071e-01	 2.1847735679e+00	 1.3641320044e+00
 7.8635432940e-01	 2.1300723696e+00	 1.5525532905e+00
 7.6653455776e-01	 2.1372848059e+00	 1.5368355883e+00
 7.4669003687e-01	 2.1442984200e+00	 1.5202586547e+00
 7.2682360177e-01	 2.1511135119e+00	 1.5032775791e+00
 7.0693806947e-01	 2.1577304326e+00	 1.4839626135e+00
 6.8703623792e-01	 2.1641495836e+00	 1.4633927085e+00
 6.6712088494e-01	 2.1703714157e+00	 1.4429754472e+00
 6.4719476720e-01	 2.1763964286e+00	 1.4242291330e+00
 6.2726061925e-01	 2.1822251700e+00	 1.4087724064e+00
 6.0732115253e-01	 2.1878582348e+00	 1.3983142473e+00
 5.8737905447e-01	 2.1932962644e+00	 1.3946444839e+00
 7.8940994000e-01	 2.1383493911e+00	 1.5282406482e+00
 7.6951315282e-01	 2.1455898535e+00	 1.5158018501e+00
 7.4959152022e-01	 2.1526307210e+00	 1.5027071937e+00
 7.2964788825e-01	 2.1594722949e+00	 1.4900253483e+00
 7.0968508488e-01	 2.1661149277e+00	 1.4753874690e+00
 6.8970591892e-01	 2.1725590222e+00	 1.4598164618e+00
 6.6971317899e-01	 2.1788050310e+00	 1.4449728729e+00
 6.4970963247e-01	 2.1848534559e+00	 1.4326109805e+00
 6.2969802453e-01	 2.1907048466e+00	 1.4245677038e+00
 6.0968107716e-01	 2.1963598003e+00	 1.4227519778e+00
 5.8966148822e-01	 2.2018189609e+00	 1.4291347182e+00
 7.9246555060e-01	 2.1466264126e+00	 1.4959291569e+00
 7.7249174788e-01	 2.1538949010e+00	 1.4872132746e+00
 7.5249300356e-01	 2.1609630220e+00	 1.4784355252e+00
 7.3247217473e-01	 2.1678310780e+00	 1.4711687584e+00
 7.1243210028e-01	 2.1744994227e+00	 1.4626955258e+00
 6.9237559992e-01	 2.1809684607e+00	 1.4536632924e+00
 6.7230547303e-01	 2.1872386464e+00	 1.4458762079e+00
 6.5222449773e-01	 2.1933104832e+00	 1.4412162323e+00
 6.3213542981e-01	 2.1991845231e+00	 1.4416314305e+00
 6.1204100179e-01	 2.2048613658e+00	 1.4491248129e+00
 5.9194392198e-01	 2.2103416575e+00	 1.4657438460e+00
 7.9552116120e-01	 2.1549034342e+00	 1.4571160200e+00
 7.7547034294e-01	 2.1621999486e+00	 1.4522356130e+00
 7.5539448691e-01	 2.1692953231e+00	 1.4482748667e+00
 7.3529646121e-01	 2.1761898611e+00	 1.4471541975e+00
 7.1517911569e-01	 2.1828839178e+00	 1.4459922982e+00
 6.9504528091e-01	 2.1893778993e+00	 1.4447010936e+00
 6.7489776708e-01	 2.1956722617e+00	 1.4451203182e+00
 6.5473936300e-01	 2.2017675104e+00	 1.4491526411e+00
 6.3457283509e-01	 2.2076641997e+00	 1.4587514395e+00
 6.1440092642e-01	 2.2133629312e+00	 1.4759091957e+00
 5.9422635573e-01	 2.2188643540e+00	 1.5026466438e+00
 7.9857677180e-01	 2.1631804557e+00	 1.4132887155e+00
 7.7844893799e-01	 2.1705049962e+00	 1.4120307737e+00
 7.5829597026e-01	 2.1776276241e+00	 1.4130584630e+00
 7.3812074769e-01	 2.1845486441e+00	 1.4184377802e+00
 7.1792613110e-01	 2.1912684129e+00	 1.4253964964e+00
 6.9771496191e-01	 2.1977873378e+00	 1.4327144184e+00
 6.7749006113e-01	 2.2041058770e+00	 1.4421601724e+00
 6.5725422827e-01	 2.2102245377e+00	 1.4555514695e+00
 6.3701024038e-01	 2.2161438762e+00	 1.4747424506e+00
 6.1676085105e-01	 2.2218644967e+00	 1.5016117286e+00
 5.9650878948e-01	 2.2273870506e+00	 1.5381686244e+00
 8.0163238240e-01	 2.1714574772e+00	 1.3659248129e+00
 7.8142753305e-01	 2.1788100438e+00	 1.3677565720e+00
 7.6119745360e-01	 2.1859599251e+00	 1.3736212674e+00
 7.4094503417e-01	 2.1929074272e+00	 1.3854864249e+00
 7.2067314650e-01	 2.1996529079e+00	 1.4010404024e+00
 7.0038464291e-01	 2.2061967764e+00	 1.4175047457e+00
 6.8008235517e-01	 2.2125394923e+00	 1.4364709996e+00
 6.5976909353e-01	 2.2186815650e+00	 1.4595675423e+00
 6.3944764566e-01	 2.2246235528e+00	 1.4884866920e+00
 6.1912077568e-01	 2.2303660622e+00	 1.5251603491e+00
 5.9879122324e-01	 2.2359097471e+00	 1.5711090881e+00
 8.0468799300e-01	 2.1797344988e+00	 1.3164917811e+00
 7.8440612811e-01	 2.1871150913e+00	 1.3205664725e+00
 7.6409893695e-01	 2.1942922261e+00	 1.3307996189e+00
 7.4376932065e-01	 2.2012662103e+00	 1.3488807816e+00
 7.2342016191e-01	 2.2080374030e+00	 1.3730702460e+00
 7.0305432391e-01	 2.2146062150e+00	 1.3988907490e+00
 6.8267464922e-01	 2.2209731076e+00	 1.4275484526e+00
 6.6228395880e-01	 2.2271385922e+00	 1.4605804479e+00
 6.4188505094e-01	 2.2331032293e+00	 1.4995957265e+00
 6.2148070031e-01	 2.2388676277e+00	 1.5456992054e+00
 6.0107365699e-01	 2.2444324436e+00	 1.5999944899e+00
 5.7824931944e-01	 2.1592054782e+00	 1.3155601684e+00
 5.5861721583e-01	 2.1643676566e+00	 1.2852939653e+00
 5.3898774018e-01	 2.1693392306e+00	 1.2701304726e+00
 5.1936346347e-01	 2.1741209666e+00	 1.2700260940e+00
 4.9974692960e-01	 2.1787136732e+00	 1.2847707620e+00
 4.8014065454e-01	 2.1831182005e+00	 1.3139901446e+00
 4.6054712568e-01	 2.1873354389e+00	 1.3571486582e+00
 4.4096880104e-01	 2.1913663186e+00	 1.4135532935e+00
 4.2140810864e-01	 2.1952118086e+00	 1.4823582437e+00
 4.0186744582e-01	 2.1988729154e+00	 1.5625703179e+00
 3.8234917865e-01	 2.2023506823e+00	 1.6530551098e+00
 5.8053175320e-01	 2.1677281748e+00	 1.3226456150e+00
 5.6082215883e-01	 2.1729107290e+00	 1.3005535894e+00
 5.4111520280e-01	 2.1779019266e+00	 1.2934244408e+00
 5.2141346623e-01	 2.1827025368e+00	 1.3009144586e+00
 5.0171950306e-01	 2.1873133714e+00	 1.3224864044e+00
 4.8203583920e-01	 2.1917352840e+00	 1.3574123857e+00
 4.6236497184e-01	 2.1959691684e+00	 1.4047776097e+00
 4.4270936872e-01	 2.2000159587e+00	 1.4634850184e+00
 4.2307146744e-01	 2.2038766273e+00	 1.5322607932e+00
 4.0345367480e-01	 2.2075521850e+00	 1.6096607084e+00
 3.8385836620e-01	 2.2110436792e+00	 1.6940773008e+00
 5.8281418696e-01	 2.1762508713e+00	 1.3394900551e+00
 5.6302710183e-01	 2.1814538014e+00	 1.3263510997e+00
 5.4324266542e-01	 2.1864646225e+00	 1.3273740262e+00
 5.2346346899e-01	 2.1912841069e+00	 1.3419729019e+00
 5.0369207652e-01	 2.1959130696e+00	 1.3693477410e+00
 4.8393102385e-01	 2.2003523675e+00	 1.4084878312e+00
 4.6418281800e-01	 2.2046028980e+00	 1.4581760093e+00
 4.4444993640e-01	 2.2086655987e+00	 1.5169938853e+00
 4.2473482623e-01	 2.2125414461e+00	 1.5833280028e+00
 4.0503990377e-01	 2.2162314547e+00	 1.6553769093e+00
 3.8536755374e-01	 2.2197366761e+00	 1.7311591037e+00
 5.8509662071e-01	 2.1847735679e+00	 1.3641320044e+00
 5.6523204483e-01	 2.1899968738e+00	 1.3604609472e+00
 5.4537012804e-01	 2.1950273184e+00	 1.3695811138e+00
 5.2551347175e-01	 2.1998656770e+00	 1.3907214150e+00
 5.0566464998e-01	 2.2045127678e+00	 1.4228826550e+00
 4.8582620851e-01	 2.2089694510e+00	 1.4648410954e+00
 4.6600066416e-01	 2.2132366276e+00	 1.5151530359e+00
 4.4619050408e-01	 2.2173152387e+00	 1.5721604098e+00
 4.2639818503e-01	 2.2212062648e+00	 1.6339973786e+00
 4.0662613274e-01	 2.2249107243e+00	 1.6985554077e+00
 3.8687674129e-01	 2.2284296730e+00	 1.7634717688e+00
 5.8737905447e-01	 2.1932962644e+00	 1.3946444839e+00
 5.6743698783e-01	 2.1985399462e+00	 1.4006949878e+00
 5.4749759066e-01	 2.2035900143e+00	 1.4176865442e+00
 5.2756347451e-01	 2.2084472472e+00	 1.4447191637e+00
 5.0763722344e-01	 2.2131124661e+00	 1.4806571076e+00
 4.8772139316e-01	 2.2175865345e+00	 1.5241324759e+00
 4.6781851032e-01	 2.2218703571e+00	 1.5735498780e+00
 4.4793107176e-01	 2.2259648788e+00	 1.6270312321e+00
 4.2806154382e-01	 2.2298710835e+00	 1.6824422970e+00
 4.0821236171e-01	 2.2335899940e+00	 1.7375339806e+00
 3.8838592883e-01	 2.2371226699e+00	 1.7898912844e+00
 5.8966148822e-01	 2.2018189609e+00	 1.4291347182e+00
 5.6964193084e-01	 2.2070830186e+00	 1.4449020884e+00
 5.4962505327e-01	 2.2121527103e+00	 1.4693696556e+00
 5.2961347727e-01	 2.2170288173e+00	 1.5015639930e+00
 5.0960979690e-01	 2.2217121643e+00	 1.5402746327e+00
 4.8961657782e-01	 2.2262036180e+00	 1.5840212866e+00
 4.6963635648e-01	 2.2305040867e+00	 1.6310290866e+00
 4.4967163944e-01	 2.2346145188e+00	 1.6793470716e+00
 4.2972490262e-01	 2.2385359023e+00	 1.7268450065e+00
 4.0979859068e-01	 2.2422692636e+00	 1.7712194475e+00
 3.8989511638e-01	 2.2458156668e+00	 1.8100005391e+00
 5.9194392198e-01	 2.2103416575e+00	 1.4657438460e+00
 5.7184687384e-01	 2.2156260910e+00	 1.4909677481e+00
 5.5175251589e-01	 2.2207154062e+00	 1.5223478419e+00
 5.3166348003e-01	 2.2256103874e+00	 1.5588938993e+00
 5.1158237036e-01	 2.2303118625e+00	 1.5993237106e+00
 4.9151176247e-01	 2.2348207015e+00	 1.6420786571e+00
 4.7145420264e-01	 2.2391378163e+00	 1.6854122440e+00
 4.5141220712e-01	 2.2432641588e+00	 1.7273980092e+00
 4.3138826141e-01	 2.2472007210e+00	 1.7659353558e+00
 4.1138481965e-01	 2.2509485333e+00	 1.7987558289e+00
 3.9140430392e-01	 2.2545086637e+00	 1.8234298020e+00
 5.9422635573e-01	 2.2188643540e+00	 1.5026466438e+00
 5.7405181684e-01	 2.2241691634e+00	 1.5368246112e+00
 5.5387997851e-01	 2.2292781021e+00	 1.5744631862e+00
 5.3371348279e-01	 2.2341919575e+00	 1.6144819609e+00
 5.1355494382e-01	 2.2389115607e+00	 1.6555759517e+00
 4.9340694713e-01	 2.2434377850e+00	 1.6962620921e+00
 4.7327204880e-01	 2.2477715458e+00	 1.7348837938e+00
 4.5315277479e-01	 2.2519137988e+00	 1.7696160181e+00
 4.3305162021e-01	 2.2558655397e+00	 1.7984708154e+00
 4.1297104862e-01	 2.2596278029e+00	 1.8193032913e+00
 3.9291349147e-01	 2.2632016606e+00	 1.8298179636e+00
 5.9650878948e-01	 2.2273870506e+00	 1.5381686244e+00
 5.7625675983e-01	 2.2327122358e+00	 1.5807632203e+00
 5.5600744113e-01	 2.2378407980e+00	 1.6238050377e+00
 5.3576348554e-01	 2.2427735277e+00	 1.6662761604e+00
 5.1552751728e-01	 2.2475112589e+00	 1.7069954139e+00
 4.9530213178e-01	 2.2520548686e+00	 1.7446219393e+00
 4.7508989496e-01	 2.2564052754e+00	 1.7776592983e+00
 4.5489334247e-01	 2.2605634389e+00	 1.8044600667e+00
 4.3471497900e-01	 2.2645303585e+00	 1.8232308709e+00
 4.1455727759e-01	 2.2683070726e+00	 1.8320378305e+00
 3.9442267901e-01	 2.2718946575e+00	 1.8288123696e+00
 5.9879122324e-01	 2.2359097471e+00	 1.5711090881e+00
 5.7846170283e-01	 2.2412553082e+00	 1.6211017627e+00
 5.5813490375e-01	 2.2464034940e+00	 1.6684425821e+00
 5.3781348830e-01	 2.2513550978e+00	 1.7122689366e+00
 5.1750009074e-01	 2.2561109571e+00	 1.7515802928e+00
 4.9719731644e-01	 2.2606719521e+00	 1.7852411426e+00
 4.7690774112e-01	 2.2650390049e+00	 1.8119844536e+00
 4.5663391015e-01	 2.2692130789e+00	 1.8304155795e+00
 4.3637833780e-01	 2.2731951772e+00	 1.8390165866e+00
 4.1614350656e-01	 2.2769863422e+00	 1.8361509605e+00
 3.9593186656e-01	 2.2805876544e+00	 1.8200686579e+00
 6.0107365699e-01	 2.2444324436e+00	 1.5999944899e+00
 5.8066664583e-01	 2.2497983806e+00	 1.6560912332e+00
 5.6026236637e-01	 2.2549661899e+00	 1.7064742916e+00
 5.3986349106e-01	 2.2599366679e+00	 1.7504858368e+00
 5.1947266420e-01	 2.2647106553e+00	 1.7873619154e+00
 4.9909250109e-01	 2.2692890356e+00	 1.8162345791e+00
 4.7872558728e-01	 2.2736727345e+00	 1.8361344827e+00
 4.5837447783e-01	 2.2778627189e+00	 1.8459939087e+00
 4.3804169659e-01	 2.2818599959e+00	 1.8446501775e+00
 4.1772973553e-01	 2.2856656119e+00	 1.8308494083e+00
 3.9744105410e-01	 2.2892806513e+00	 1.8032505970e+00
 3.8234917865e-01	 2.2023506823e+00	 1.6530551098e+00
 3.6285233028e-01	 2.2056467332e+00	 1.7359993840e+00
 3.4338252815e-01	 2.2087615747e+00	 1.7958810129e+00
 3.2394204717e-01	 2.2116963537e+00	 1.8335472967e+00
 3.0453312866e-01	 2.2144522504e+00	 1.8497395127e+00
 2.8515797987e-01	 2.2170304767e+00	 1.8453915267e+00
 2.6581877354e-01	 2.2194322757e+00	 1.8216215437e+00
 2.4651764747e-01	 2.2216589208e+00	 1.7797225199e+00
 2.2725670416e-01	 2.2237117139e+00	 1.7211433815e+00
 2.0803801046e-01	 2.2255919856e+00	 1.6474853394e+00
 1.8886359723e-01	 2.2273010932e+00	 1.5605143370e+00
 3.8385836620e-01	 2.2110436792e+00	 1.6940773008e+00
 3.6428456095e-01	 2.2143527401e+00	 1.7691930818e+00
 3.4473790869e-01	 2.2174798763e+00	 1.8215539208e+00
 3.2522069331e-01	 2.2204262394e+00	 1.8522253600e+00
 3.0573516500e-01	 2.2231930139e+00	 1.8620594643e+00
 2.8628353969e-01	 2.2257814168e+00	 1.8520909366e+00
 2.6686799871e-01	 2.2281926962e+00	 1.8236411580e+00
 2.4749068830e-01	 2.2304281301e+00	 1.7782523689e+00
 2.2815371926e-01	 2.2324890259e+00	 1.7176523716e+00
 2.0885916660e-01	 2.2343767193e+00	 1.6437393489e+00
 1.8960906919e-01	 2.2360925730e+00	 1.5585672054e+00
 3.8536755374e-01	 2.2197366761e+00	 1.7311591037e+00
 3.6571679161e-01	 2.2230587470e+00	 1.7962177381e+00
 3.4609328922e-01	 2.2261981779e+00	 1.8393196462e+00
 3.2649933946e-01	 2.2291561250e+00	 1.8617469226e+00
 3.0693720133e-01	 2.2319337775e+00	 1.8644848804e+00
 2.8740909951e-01	 2.2345323570e+00	 1.8487741544e+00
 2.6791722388e-01	 2.2369531166e+00	 1.8160931664e+00
 2.4846372913e-01	 2.2391973394e+00	 1.7681411868e+00
 2.2905073436e-01	 2.2412663379e+00	 1.7068219694e+00
 2.0968032273e-01	 2.2431614530e+00	 1.6342279349e+00
 1.9035454114e-01	 2.2448840528e+00	 1.5526248810e+00
 3.8687674129e-01	 2.2284296730e+00	 1.7634717688e+00
 3.6714902227e-01	 2.2317647539e+00	 1.8164646261e+00
 3.4744866976e-01	 2.2349164796e+00	 1.8488870324e+00
 3.2777798560e-01	 2.2378860106e+00	 1.8622974709e+00
 3.0813923766e-01	 2.2406745410e+00	 1.8577407407e+00
 2.8853465932e-01	 2.2432832972e+00	 1.8365311163e+00
 2.6896644905e-01	 2.2457135370e+00	 1.8002343833e+00
 2.4943676996e-01	 2.2479665487e+00	 1.7506504741e+00
 2.2994774946e-01	 2.2500436499e+00	 1.6897966812e+00
 2.1050147887e-01	 2.2519461867e+00	 1.6198914236e+00
 1.9110001309e-01	 2.2536755325e+00	 1.5433385409e+00
 3.8838592883e-01	 2.2371226699e+00	 1.7898912844e+00
 3.6858125293e-01	 2.2404707608e+00	 1.8296260972e+00
 3.4880405029e-01	 2.2436347812e+00	 1.8506319934e+00
 3.2905663174e-01	 2.2466158962e+00	 1.8547015340e+00
 3.0934127399e-01	 2.2494153045e+00	 1.8429027991e+00
 2.8966021914e-01	 2.2520342374e+00	 1.8165808716e+00
 2.7001567422e-01	 2.2544739575e+00	 1.7773396481e+00
 2.5040981079e-01	 2.2567357580e+00	 1.7270242576e+00
 2.3084476456e-01	 2.2588209619e+00	 1.6677040656e+00
 2.1132263500e-01	 2.2607309204e+00	 1.6016562358e+00
 1.9184548504e-01	 2.2624670123e+00	 1.5313498268e+00
 3.8989511638e-01	 2.2458156668e+00	 1.8100005391e+00
 3.7001348360e-01	 2.2491767677e+00	 1.8358149174e+00
 3.5015943083e-01	 2.2523530828e+00	 1.8450715181e+00
 3.3033527789e-01	 2.2553457818e+00	 1.8397917831e+00
 3.1054331033e-01	 2.2581560681e+00	 1.8210316226e+00
 2.9078577895e-01	 2.2607851776e+00	 1.7901248971e+00
 2.7106489939e-01	 2.2632343779e+00	 1.7486652067e+00
 2.5138285162e-01	 2.2655049673e+00	 1.6984883005e+00
 2.3174177966e-01	 2.2675982739e+00	 1.6416550805e+00
 2.1214379113e-01	 2.2695156541e+00	 1.5804351740e+00
 1.9259095699e-01	 2.2712584921e+00	 1.5172910453e+00
 3.9140430392e-01	 2.2545086637e+00	 1.8234298020e+00
 3.7144571426e-01	 2.2578827746e+00	 1.8351408756e+00
 3.5151481136e-01	 2.2610713844e+00	 1.8327164857e+00
 3.3161392403e-01	 2.2640756675e+00	 1.8183897197e+00
 3.1174534666e-01	 2.2668968316e+00	 1.7931729140e+00
 2.9191133877e-01	 2.2695361177e+00	 1.7583474635e+00
 2.7211412455e-01	 2.2719947983e+00	 1.7154490954e+00
 2.5235589245e-01	 2.2742741767e+00	 1.6662504758e+00
 2.3263879476e-01	 2.2763755859e+00	 1.6127444232e+00
 2.1296494727e-01	 2.2783003878e+00	 1.5571277013e+00
 1.9333642894e-01	 2.2800499719e+00	 1.5017853622e+00
 3.9291349147e-01	 2.2632016606e+00	 1.8298179636e+00
 3.7287794492e-01	 2.2665887815e+00	 1.8277079978e+00
 3.5287019190e-01	 2.2697896861e+00	 1.8140718204e+00
 3.3289257017e-01	 2.2728055531e+00	 1.7913059242e+00
 3.1294738299e-01	 2.2756375952e+00	 1.7603578283e+00
 2.9303689858e-01	 2.2782870579e+00	 1.7224159930e+00
 2.7316334972e-01	 2.2807552187e+00	 1.6789115144e+00
 2.5332893328e-01	 2.2830433860e+00	 1.6315011324e+00
 2.3353580986e-01	 2.2851528979e+00	 1.5820508614e+00
 2.1378610340e-01	 2.2870851215e+00	 1.5326202154e+00
 1.9408190089e-01	 2.2888414517e+00	 1.4854469934e+00
 3.9442267901e-01	 2.2718946575e+00	 1.8288123696e+00
 3.7431017558e-01	 2.2752947884e+00	 1.8136286123e+00
 3.5422557243e-01	 2.2785079877e+00	 1.7896366424e+00
 3.3417121631e-01	 2.2815354387e+00	 1.7593402988e+00
 3.1414941932e-01	 2.2843783587e+00	 1.7236032814e+00
 2.9416245840e-01	 2.2870379981e+00	 1.6834814094e+00
 2.7421257489e-01	 2.2895156391e+00	 1.6402551943e+00
 2.5430197411e-01	 2.2918125953e+00	 1.5954134517e+00
 2.3443282496e-01	 2.2939302098e+00	 1.5506375581e+00
 2.1460725954e-01	 2.2958698551e+00	 1.5077863151e+00
 1.9482737284e-01	 2.2976329315e+00	 1.4688813910e+00
 3.9593186656e-01	 2.2805876544e+00	 1.8200686579e+00
 3.7574240624e-01	 2.2840007953e+00	 1.7930166094e+00
 3.5558095297e-01	 2.2872262893e+00	 1.7599044168e+00
 3.3544986246e-01	 2.2902653243e+00	 1.7232823050e+00
 3.1535145565e-01	 2.2931191223e+00	 1.6839122521e+00
 2.9528801822e-01	 2.2957889383e+00	 1.6426784800e+00
 2.7526180006e-01	 2.2982760596e+00	 1.6006657528e+00
 2.5527501495e-01	 2.3005818046e+00	 1.5591437970e+00
 2.3532984006e-01	 2.3027075218e+00	 1.5195523875e+00
 2.1542841567e-01	 2.3046545888e+00	 1.4834870617e+00
 1.9557284479e-01	 2.3064244113e+00	 1.4526854254e+00
 3.9744105410e-01	 2.2892806513e+00	 1.8032505970e+00
 3.7717463691e-01	 2.2927068022e+00	 1.7659869913e+00
 3.5693633350e-01	 2.2959445909e+00	 1.7253630980e+00
 3.3672850860e-01	 2.2989952099e+00	 1.6839111955e+00
 3.1655349199e-01	 2.3018598858e+00	 1.6422740774e+00
 2.9641357803e-01	 2.3045398784e+00	 1.6011261496e+00
 2.7631102523e-01	 2.3070364800e+00	 1.5613120451e+00
 2.5624805578e-01	 2.3093510139e+00	 1.5238320544e+00
 2.3622685516e-01	 2.3114848338e+00	 1.4898282455e+00
 2.1624957181e-01	 2.3134393225e+00	 1.4605712339e+00
 1.9631831674e-01	 2.3152158911e+00	 1.4374475630e+00
 1.8886359723e-01	 2.2273010932e+00	 1.5605143370e+00
 1.6973869895e-01	 2.2288401728e+00	 1.4767346878e+00
 1.5066197243e-01	 2.2302109371e+00	 1.4101277393e+00
 1.3163529446e-01	 2.2314148178e+00	 1.3587681034e+00
 1.1266050604e-01	 2.2324532696e+00	 1.3206650599e+00
 9.3739412190e-02	 2.2333277695e+00	 1.2937591536e+00
 7.4873781778e-02	 2.2340398157e+00	 1.2759191413e+00
 5.6065347405e-02	 2.2345909267e+00	 1.2649392586e+00
 3.7315805270e-02	 2.2349826402e+00	 1.2585367728e+00
 1.8626815083e-02	 2.2352165126e+00	 1.2543497950e+00
 0.0000000000e+00	 2.2352941176e+00	 1.2499353203e+00
 1.8960906919e-01	 2.2360925730e+00	 1.5585672054e+00
 1.7040868216e-01	 2.2376377276e+00	 1.4773635406e+00
 1.5125665704e-01	 2.2390139025e+00	 1.4125823525e+00
 1.3215487802e-01	 2.2402225351e+00	 1.3622051173e+00
 1.1310519337e-01	 2.2412650858e+00	 1.3241227055e+00
 9.4109415217e-02	 2.2421430375e+00	 1.2961328080e+00
 7.5169319431e-02	 2.2428578942e+00	 1.2759377255e+00
 5.6286645446e-02	 2.2434111805e+00	 1.2611424843e+00
 3.7463096154e-02	 2.2438044402e+00	 1.2492532470e+00
 1.8700337818e-02	 2.2440392357e+00	 1.2376759850e+00
 0.0000000000e+00	 2.2441171470e+00	 1.2237153830e+00
 1.9035454114e-01	 2.2448840528e+00	 1.5526248810e+00
 1.7107866537e-01	 2.2464352823e+00	 1.4755892089e+00
 1.5185134165e-01	 2.2478168679e+00	 1.4137489962e+00
 1.3267446158e-01	 2.2490302523e+00	 1.3650308027e+00
 1.1354988069e-01	 2.2500769020e+00	 1.3272508863e+00
 9.4479418243e-02	 2.2509583054e+00	 1.2981132774e+00
 7.5464857084e-02	 2.2516759727e+00	 1.2752082256e+00
 5.6507943486e-02	 2.2522314343e+00	 1.2560109801e+00
 3.7610387038e-02	 2.2526262402e+00	 1.2378808709e+00
 1.8773860553e-02	 2.2528619588e+00	 1.2180606537e+00
 0.0000000000e+00	 2.2529401764e+00	 1.1936760890e+00
 1.9110001309e-01	 2.2536755325e+00	 1.5433385409e+00
 1.7174864857e-01	 2.2552328371e+00	 1.4717734816e+00
 1.5244602626e-01	 2.2566198332e+00	 1.4137832343e+00
 1.3319404514e-01	 2.2578379696e+00	 1.3672768817e+00
 1.1399456801e-01	 2.2588887181e+00	 1.3300390440e+00
 9.4849421268e-02	 2.2597735734e+00	 1.2997284209e+00
 7.5760394736e-02	 2.2604940512e+00	 1.2738767140e+00
 5.6729241526e-02	 2.2610516881e+00	 1.2498878880e+00
 3.7757677922e-02	 2.2614480401e+00	 1.2250377355e+00
 1.8847383288e-02	 2.2616846819e+00	 1.1964737091e+00
 0.0000000000e+00	 2.2617632059e+00	 1.1612149873e+00
 1.9184548504e-01	 2.2624670123e+00	 1.5313498268e+00
 1.7241863178e-01	 2.2640303919e+00	 1.4662729916e+00
 1.5304071086e-01	 2.2654227986e+00	 1.4128385658e+00
 1.3371362869e-01	 2.2666456868e+00	 1.3689748259e+00
 1.1443925533e-01	 2.2677005343e+00	 1.3324769187e+00
 9.5219424293e-02	 2.2685888413e+00	 1.3010056931e+00
 7.6055932387e-02	 2.2693121297e+00	 1.2720869166e+00
 5.6950539565e-02	 2.2698719419e+00	 1.2431108349e+00
 3.7904968805e-02	 2.2702698401e+00	 1.2113320374e+00
 1.8920906022e-02	 2.2705074050e+00	 1.1738695897e+00
 0.0000000000e+00	 2.2705862353e+00	 1.1277074003e+00
 1.9259095699e-01	 2.2712584921e+00	 1.5172910453e+00
 1.7308861499e-01	 2.2728279466e+00	 1.4594393286e+00
 1.5363539547e-01	 2.2742257640e+00	 1.4110664759e+00
 1.3423321225e-01	 2.2754534041e+00	 1.3701558703e+00
 1.1488394265e-01	 2.2765123505e+00	 1.3345545513e+00
 9.5589427318e-02	 2.2774041093e+00	 1.3019721583e+00
 7.6351470039e-02	 2.2781302082e+00	 1.2699802624e+00
 5.7171837604e-02	 2.2786921957e+00	 1.2360120436e+00
 3.8052259688e-02	 2.2790916401e+00	 1.1973622733e+00
 1.8994428757e-02	 2.2793301281e+00	 1.1511875645e+00
 0.0000000000e+00	 2.2794092647e+00	 1.0945068543e+00
 1.9333642894e-01	 2.2800499719e+00	 1.5017853622e+00
 1.7375859820e-01	 2.2816255014e+00	 1.4516191493e+00
 1.5423008008e-01	 2.2830287293e+00	 1.4086164859e+00
 1.3475279581e-01	 2.2842611214e+00	 1.3708510279e+00
 1.1532862997e-01	 2.2853241667e+00	 1.3362622857e+00
 9.5959430343e-02	 2.2862193772e+00	 1.3026545047e+00
 7.6647007690e-02	 2.2869482867e+00	 1.2676959339e+00
 5.7393135643e-02	 2.2875124496e+00	 1.2289184405e+00
 3.8199550571e-02	 2.2879134400e+00	 1.1837174292e+00
 1.9067951492e-02	 2.2881528512e+00	 1.1293520274e+00
 0.0000000000e+00	 2.2882322941e+00	 1.0629454994e+00
 1.9408190089e-01	 2.2888414517e+00	 1.4854469934e+00
 1.7442858141e-01	 2.2904230561e+00	 1.4431542856e+00
 1.5482476469e-01	 2.2918316947e+00	 1.4056362026e+00
 1.3527237936e-01	 2.2930688386e+00	 1.3710911029e+00
 1.1577331729e-01	 2.2941359828e+00	 1.3375907707e+00
 9.6329433368e-02	 2.2950346452e+00	 1.3030790579e+00
 7.6942545342e-02	 2.2957663652e+00	 1.2653709143e+00
 5.7614433683e-02	 2.2963327034e+00	 1.2221517608e+00
 3.8346841455e-02	 2.2967352400e+00	 1.1709771657e+00
 1.9141474226e-02	 2.2969755743e+00	 1.1092727837e+00
 0.0000000000e+00	 2.2970553235e+00	 1.0343345201e+00
 1.9482737284e-01	 2.2976329315e+00	 1.4688813910e+00
 1.7509856462e-01	 2.2992206109e+00	 1.4343818494e+00
 1.5541944930e-01	 2.3006346601e+00	 1.4022713658e+00
 1.3579196292e-01	 2.3018765559e+00	 1.3709067050e+00
 1.1621800461e-01	 2.3029477990e+00	 1.3385309623e+00
 9.6699436393e-02	 2.3038499131e+00	 1.3032717945e+00
 7.7238082994e-02	 2.3045844437e+00	 1.2631400354e+00
 5.7835731722e-02	 2.3051529572e+00	 1.2160286520e+00
 3.8494132338e-02	 2.3055570400e+00	 1.1597119986e+00
 1.9214996961e-02	 2.3057982974e+00	 1.0918453302e+00
 0.0000000000e+00	 2.3058783529e+00	 1.0099645365e+00
 1.9557284479e-01	 2.3064244113e+00	 1.4526854254e+00
 1.7576854783e-01	 2.3080181656e+00	 1.4256343357e+00
 1.5601413391e-01	 2.3094376254e+00	 1.3986658949e+00
 1.3631154648e-01	 2.3106842731e+00	 1.3703282619e+00
 1.1666269193e-01	 2.3117596152e+00	 1.3390741258e+00
 9.7069439419e-02	 2.3126651811e+00	 1.3032583548e+00
 7.7533620647e-02	 2.3134025222e+00	 1.2611360232e+00
 5.8057029762e-02	 2.3139732110e+00	 1.2108607743e+00
 3.8641423222e-02	 2.3143788399e+00	 1.1504834760e+00
 1.9288519696e-02	 2.3146210205e+00	 1.0779511299e+00
 0.0000000000e+00	 2.3147013824e+00	 9.9110599632e-01
 1.9631831674e-01	 2.3152158911e+00	 1.4374475630e+00
 1.7643853104e-01	 2.3168157204e+00	 1.4172397237e+00
 1.5660881852e-01	 2.3182405908e+00	 1.3949619352e+00
 1.3683113004e-01	 2.3194919904e+00	 1.3693860324e+00
 1.1710737926e-01	 2.3205714314e+00	 1.3392118377e+00
 9.7439442445e-02	 2.3214804490e+00	 1.3030640563e+00
 7.7829158300e-02	 2.3222206007e+00	 1.2594895433e+00
 5.8278327803e-02	 2.3227934648e+00	 1.2069548991e+00
 3.8788714106e-02	 2.3232006399e+00	 1.1438443504e+00
 1.9362042431e-02	 2.3234437436e+00	 1.0684578786e+00
 0.0000000000e+00	 2.3235244118e+00	 9.7900955746e-01
 2.3235244118e+00	 0.0000000000e+00	 2.1351237247e+01
 2.3234437436e+00	 1.9362042431e-02	 1.8715855934e+01
 2.3232006399e+00	 3.8788714106e-02	 1.6233991663e+01
 2.3227934648e+00	 5.8278327803e-02	 1.3940458009e+01
 2.3222206007e+00	 7.7829158300e-02	 1.1867136719e+01
 2.3214804490e+00	 9.7439442445e-02	 1.0042811890e+01
 2.3205714314e+00	 1.1710737926e-01	 8.4930034761e+00
 2.3194919904e+00	 1.3683113004e-01	 7.2398002990e+00
 2.3182405908e+00	 1.5660881852e-01	 6.3016927242e+00
 2.3168157204e+00	 1.7643853104e-01	 5.6934051500e+00
 2.3152158911e+00	 1.9631831674e-01	 5.4257284717e+00
 2.3323489408e+00	 0.0000000000e+00	 2.4936507756e+01
 2.3322679662e+00	 1.9435577662e-02	 2.2358965104e+01
 2.3320239393e+00	 3.8936030025e-02	 1.9832608016e+01
 2.3316152178e+00	 5.8499663457e-02	 1.7405314463e+01
 2.3310401780e+00	 7.8124746184e-02	 1.5121803748e+01
 2.3302972153e+00	 9.7809508360e-02	 1.3023448619e+01
 2.3293847452e+00	 1.1755214216e-01	 1.1148086488e+01
 2.3283012046e+00	 1.3735080190e-01	 9.5298299366e+00
 2.3270450523e+00	 1.5720360420e-01	 8.1988767005e+00
 2.3256147704e+00	 1.7710862812e-01	 7.1813193103e+00
 2.3240088651e+00	 1.9706391539e-01	 6.4989545698e+00
 2.3411734673e+00	 0.0000000000e+00	 2.7436279446e+01
 2.3410921864e+00	 1.9509112873e-02	 2.4994609899e+01
 2.3408472361e+00	 3.9083345902e-02	 2.2513574227e+01
 2.3404369682e+00	 5.8720999048e-02	 2.0050057606e+01
 2.3398597527e+00	 7.8420333985e-02	 1.7657691353e+01
 2.3391139790e+00	 9.8179574170e-02	 1.5386651006e+01
 2.3381980566e+00	 1.1799690494e-01	 1.3283453314e+01
 2.3371104164e+00	 1.3787047363e-01	 1.1390752326e+01
 2.3358495114e+00	 1.5779838972e-01	 9.7471347884e+00
 2.3344138179e+00	 1.7777872501e-01	 8.3869150373e+00
 2.3328018366e+00	 1.9780951384e-01	 7.3399295896e+00
 2.3499979888e+00	 0.0000000000e+00	 2.8884362838e+01
 2.3499164015e+00	 1.9582648042e-02	 2.6639923655e+01
 2.3496705279e+00	 3.9230661696e-02	 2.4279837311e+01
 2.3492587136e+00	 5.8942334515e-02	 2.1865989613e+01
 2.3486793225e+00	 7.8715921619e-02	 1.9457048031e+01
 2.3479307377e+00	 9.8549639771e-02	 1.7108253725e+01
 2.3470113629e+00	 1.1844166747e-01	 1.4871212313e+01
 2.3459196231e+00	 1.3839014506e-01	 1.2793683584e+01
 2.3446539654e+00	 1.5839317490e-01	 1.0919370354e+01
 2.3432128605e+00	 1.7844882153e-01	 9.2877066600e+00
 2.3415948031e+00	 1.9855511186e-01	 7.9336455052e+00
 2.3588225028e+00	 0.0000000000e+00	 2.9314061250e+01
 2.3587406091e+00	 1.9656183149e-02	 2.7311781775e+01
 2.3584938123e+00	 3.9377977365e-02	 2.5134298455e+01
 2.3580804516e+00	 5.9163669793e-02	 2.2844540996e+01
 2.3574988847e+00	 7.9011509003e-02	 2.0502386090e+01
 2.3567474889e+00	 9.8919705058e-02	 1.8164451306e+01
 2.3558246618e+00	 1.1888642962e-01	 1.5883887600e+01
 2.3547288224e+00	 1.3890981604e-01	 1.3710170630e+01
 2.3534584120e+00	 1.5898795958e-01	 1.1688891068e+01
 2.3520118955e+00	 1.7911891748e-01	 9.8615441025e+00
 2.3503877622e+00	 1.9930070925e-01	 8.2653183100e+00
 2.3676470068e+00	 0.0000000000e+00	 2.8758180223e+01
 2.3675648068e+00	 1.9729718173e-02	 2.7026806505e+01
 2.3673170866e+00	 3.9525292868e-02	 2.5079813835e+01
 2.3669021795e+00	 5.9385004822e-02	 2.2977268179e+01
 2.3663184370e+00	 7.9307096051e-02	 2.0776476705e+01
 2.3655642302e+00	 9.9289769926e-02	 1.8531791410e+01
 2.3646379507e+00	 1.1933119126e-01	 1.6294411283e+01
 2.3635380116e+00	 1.3942948644e-01	 1.4112183144e+01
 2.3622628486e+00	 1.5958274358e-01	 1.2029401368e+01
 2.3608109206e+00	 1.7978901266e-01	 1.0086606628e+01
 2.3591807113e+00	 2.0004630580e-01	 8.3203838452e+00
 2.3764714982e+00	 0.0000000000e+00	 2.7249036724e+01
 2.3763889919e+00	 1.9803253093e-02	 2.5801371605e+01
 2.3761403485e+00	 3.9672608162e-02	 2.4119195423e+01
 2.3757238949e+00	 5.9606339536e-02	 2.2255851127e+01
 2.3751379767e+00	 7.9602682682e-02	 2.0262345078e+01
 2.3743809589e+00	 9.9659834270e-02	 1.8187168245e+01
 2.3734512271e+00	 1.1977595228e-01	 1.6076115865e+01
 2.3723471884e+00	 1.3994915611e-01	 1.3972105706e+01
 2.3710672727e+00	 1.6017752674e-01	 1.1914995076e+01
 2.3696099332e+00	 1.8045910690e-01	 9.9413967188e+00
 2.3679736479e+00	 2.0079190129e-01	 8.0844937209e+00
 2.3852959747e+00	 0.0000000000e+00	 2.4818468155e+01
 2.3852131620e+00	 1.9876787888e-02	 2.3651606903e+01
 2.3849635953e+00	 3.9819923205e-02	 2.2255211770e+01
 2.3845455954e+00	 5.9827673875e-02	 2.0672091034e+01
 2.3839575015e+00	 7.9898268809e-02	 1.8943265719e+01
 2.3831976727e+00	 1.0002989798e-01	 1.7107816131e+01
 2.3822644885e+00	 1.2022071254e-01	 1.5202726821e+01
 2.3811563502e+00	 1.4046882489e-01	 1.3262730102e+01
 2.3798716818e+00	 1.6077230889e-01	 1.1320148191e+01
 2.3784089309e+00	 1.8112920000e-01	 9.4047340980e+00
 2.3767665696e+00	 2.0153749551e-01	 7.5435113279e+00
 2.3941204337e+00	 0.0000000000e+00	 2.1497841159e+01
 2.3940373146e+00	 1.9950322536e-02	 2.0593402767e+01
 2.3937868247e+00	 3.9967237957e-02	 1.9490588775e+01
 2.3933672783e+00	 6.0049007775e-02	 1.8217908052e+01
 2.3927770088e+00	 8.0193854351e-02	 1.6802757815e+01
 2.3920143689e+00	 1.0039996097e-01	 1.5271303205e+01
 2.3910777324e+00	 1.2066547192e-01	 1.3648355330e+01
 2.3899654946e+00	 1.4098849264e-01	 1.1957247805e+01
 2.3886760735e+00	 1.6136708986e-01	 1.0219711832e+01
 2.3872079111e+00	 1.8179929177e-01	 8.4557498751e+00
 2.3855594738e+00	 2.0228308825e-01	 6.6835079367e+00
 2.4029448727e+00	 0.0000000000e+00	 1.7318060235e+01
 2.4028614472e+00	 2.0023857018e-02	 1.6642414466e+01
 2.4026100340e+00	 4.0114552374e-02	 1.5828010431e+01
 2.4021889412e+00	 6.0270341172e-02	 1.4885339083e+01
 2.4015964960e+00	 8.0489439222e-02	 1.3824580713e+01
 2.4008310452e+00	 1.0077002311e-01	 1.2655525270e+01
 2.3998909564e+00	 1.2111023029e-01	 1.1387491174e+01
 2.3987746190e+00	 1.4150815921e-01	 1.0029242621e+01
 2.3974804453e+00	 1.6196186948e-01	 8.5889053453e+00
 2.3960068713e+00	 1.8246938203e-01	 7.0738808260e+00
 2.3943523582e+00	 2.0302867931e-01	 5.4907588831e+00
 2.4117692892e+00	 0.0000000000e+00	 1.2309576165e+01
 2.4116855573e+00	 2.0097391313e-02	 1.1814066439e+01
 2.4114332208e+00	 4.0261866415e-02	 1.1270119567e+01
 2.4110105817e+00	 6.0491674005e-02	 1.0666535603e+01
 2.4104159608e+00	 8.0785023340e-02	 9.9927294961e+00
 2.4096476990e+00	 1.0114008431e-01	 9.2386997724e+00
 2.4087041578e+00	 1.2155498752e-01	 8.3949957908e+00
 2.4075837209e+00	 1.4202782445e-01	 7.4526834932e+00
 2.4062847945e+00	 1.6255664758e-01	 6.4033095504e+00
 2.4048058091e+00	 1.8313947057e-01	 5.2388637966e+00
 2.4031452201e+00	 2.0377426846e-01	 3.9517398375e+00
 2.3152158911e+00	 1.9631831674e-01	 5.4257284717e+00
 2.3134393225e+00	 2.1624957181e-01	 5.3545858459e+00
 2.3114848338e+00	 2.3622685516e-01	 5.3104561717e+00
 2.3093510139e+00	 2.5624805578e-01	 5.2636543470e+00
 2.3070364800e+00	 2.7631102523e-01	 5.1855389858e+00
 2.3045398784e+00	 2.9641357803e-01	 5.0484991799e+00
 2.3018598858e+00	 3.1655349199e-01	 4.8259383130e+00
 2.2989952099e+00	 3.3672850860e-01	 4.4922547413e+00
 2.2959445909e+00	 3.5693633350e-01	 4.0228191558e+00
 2.2927068022e+00	 3.7717463691e-01	 3.3922942956e+00
 2.2892806513e+00	 3.9744105410e-01	 2.5601332011e+00
 2.3240088651e+00	 1.9706391539e-01	 6.4989545698e+00
 2.3222255493e+00	 2.1707086751e-01	 6.0544326587e+00
 2.3202636376e+00	 2.3712402272e-01	 5.7130239442e+00
 2.3181217137e+00	 2.5722126199e-01	 5.4378047389e+00
 2.3157983894e+00	 2.7736042873e-01	 5.1931135742e+00
 2.3132923059e+00	 2.9753932915e-01	 4.9445521145e+00
 2.3106021349e+00	 3.1775573262e-01	 4.6589831584e+00
 2.3077265793e+00	 3.3800737207e-01	 4.3045255175e+00
 2.3046643743e+00	 3.5829194440e-01	 3.8505455596e+00
 2.3014142887e+00	 3.7860711100e-01	 3.2654481188e+00
 2.2979751257e+00	 3.9895049815e-01	 2.5049618949e+00
 2.3328018366e+00	 1.9780951384e-01	 7.3399295896e+00
 2.3310117736e+00	 2.1789216298e-01	 6.5578213122e+00
 2.3290424389e+00	 2.3802119003e-01	 5.9460726917e+00
 2.3268924109e+00	 2.5819446793e-01	 5.4623960551e+00
 2.3245602962e+00	 2.7840983194e-01	 5.0659114168e+00
 2.3220447310e+00	 2.9866507996e-01	 4.7171576940e+00
 2.3193443816e+00	 3.1895797292e-01	 4.3781010497e+00
 2.3164579462e+00	 3.3928623517e-01	 4.0121401348e+00
 2.3133841553e+00	 3.5964755492e-01	 3.5841079955e+00
 2.3101217729e+00	 3.8003958468e-01	 3.0575492188e+00
 2.3066695976e+00	 4.0045994178e-01	 2.3860514254e+00
 2.3415948031e+00	 1.9855511186e-01	 7.9336455052e+00
 2.3397979929e+00	 2.1871345799e-01	 6.8580752328e+00
 2.3378212353e+00	 2.3891835683e-01	 6.0100514646e+00
 2.3356631032e+00	 2.5916767332e-01	 5.3437739254e+00
 2.3333221982e+00	 2.7945923455e-01	 4.8149229823e+00
 2.3307971510e+00	 2.9979083012e-01	 4.3806773352e+00
 2.3280866233e+00	 3.2016021254e-01	 3.9997288820e+00
 2.3251893082e+00	 3.4056509756e-01	 3.6322945160e+00
 2.3221039313e+00	 3.6100316467e-01	 3.2401246052e+00
 2.3188292521e+00	 3.8147205756e-01	 2.7833155546e+00
 2.3153640646e+00	 4.0196938455e-01	 2.2147950117e+00
 2.3503877622e+00	 1.9930070925e-01	 8.2653183100e+00
 2.3485842047e+00	 2.1953475230e-01	 6.9486175399e+00
 2.3466000241e+00	 2.3981552287e-01	 5.9054027482e+00
 2.3444337881e+00	 2.6014087788e-01	 5.0881895713e+00
 2.3420840926e+00	 2.8050863627e-01	 4.4509752407e+00
 2.3395495637e+00	 3.0091657933e-01	 3.9492589487e+00
 2.3368288576e+00	 3.2136245113e-01	 3.5400594417e+00
 2.3339206627e+00	 3.4184395885e-01	 3.1819295887e+00
 2.3308236998e+00	 3.6235877327e-01	 2.8349676685e+00
 2.3275367238e+00	 3.8290452922e-01	 2.4572463739e+00
 2.3240585242e+00	 4.0347882604e-01	 2.0024168100e+00
 2.3591807113e+00	 2.0004630580e-01	 8.3203838452e+00
 2.3573704066e+00	 2.2035604567e-01	 6.8229691969e+00
 2.3553788031e+00	 2.4071268789e-01	 5.6325625995e+00
 2.3532044630e+00	 2.6111408134e-01	 4.7018015852e+00
 2.3508459772e+00	 2.8155803680e-01	 3.9847347358e+00
 2.3483019664e+00	 3.0204232727e-01	 3.4368409493e+00
 2.3455710820e+00	 3.2256468836e-01	 3.0150459916e+00
 2.3426520073e+00	 3.4312281870e-01	 2.6777360787e+00
 2.3395434585e+00	 3.6371438034e-01	 2.3847682308e+00
 2.3362441858e+00	 3.8433699925e-01	 2.0936262696e+00
 2.3327529740e+00	 4.0498826582e-01	 1.7599750391e+00
 2.3679736479e+00	 2.0079190129e-01	 8.0844937209e+00
 2.3661565960e+00	 2.2117733789e-01	 6.4747472036e+00
 2.3641575696e+00	 2.4160985164e-01	 5.1919607817e+00
 2.3619751254e+00	 2.6208728342e-01	 4.1906776710e+00
 2.3596078493e+00	 2.8260743584e-01	 3.4267105899e+00
 2.3570543567e+00	 3.0316807361e-01	 2.8571561767e+00
 2.3543132940e+00	 3.2376692389e-01	 2.4404067550e+00
 2.3513833396e+00	 3.4440167673e-01	 2.1361591971e+00
 2.3482632049e+00	 3.6506998548e-01	 1.9054206283e+00
 2.3449516353e+00	 3.8576946725e-01	 1.7065291461e+00
 2.3414474114e+00	 4.0649770346e-01	 1.4983650371e+00
 2.3767665696e+00	 2.0153749551e-01	 7.5435113279e+00
 2.3749427705e+00	 2.2199862871e-01	 5.8976628286e+00
 2.3729363211e+00	 2.4250701387e-01	 4.5840208953e+00
 2.3707457730e+00	 2.6306048385e-01	 3.5607963462e+00
 2.3683697065e+00	 2.8365683310e-01	 2.7872574425e+00
 2.3658067321e+00	 3.0429381804e-01	 2.2237357303e+00
 2.3630554911e+00	 3.2496915738e-01	 1.8316293004e+00
 2.3601146570e+00	 3.4568053260e-01	 1.5734032234e+00
 2.3569829364e+00	 3.6642558832e-01	 1.4125869132e+00
 2.3536590701e+00	 3.8720193283e-01	 1.3098220973e+00
 2.3501418341e+00	 4.0800713853e-01	 1.2283222497e+00
 2.3855594738e+00	 2.0228308825e-01	 6.6835079367e+00
 2.3837289275e+00	 2.2281991790e-01	 5.0855198811e+00
 2.3817150553e+00	 2.4340417432e-01	 3.8091605072e+00
 2.3795164032e+00	 2.6403368235e-01	 2.8180486066e+00
 2.3771315464e+00	 2.8470622828e-01	 2.0765783235e+00
 2.3745590902e+00	 3.0541956023e-01	 1.5499127192e+00
 2.3717976709e+00	 3.2617138848e-01	 1.2039748297e+00
 2.3688459571e+00	 3.4695938592e-01	 1.0054359885e+00
 2.3657026506e+00	 3.6778118847e-01	 9.2170118140e-01
 2.3623664876e+00	 3.8863439555e-01	 9.1716919872e-01
 2.3588362395e+00	 4.0951657061e-01	 9.6042515216e-01
 2.3943523582e+00	 2.0302867931e-01	 5.4907588831e+00
 2.3925150647e+00	 2.2364120523e-01	 4.0322130207e+00
 2.3904937695e+00	 2.4430133273e-01	 2.8677912763e+00
 2.3882870135e+00	 2.6500687864e-01	 1.9682395548e+00
 2.3858933664e+00	 2.8575562108e-01	 1.3047274650e+00
 2.3833114284e+00	 3.0654529987e-01	 8.4882593073e-01
 2.3805398309e+00	 3.2737361686e-01	 5.7248237279e-01
 2.3775772374e+00	 3.4823823635e-01	 4.4799325891e-01
 2.3744223451e+00	 3.6913678555e-01	 4.4797380614e-01
 2.3710738854e+00	 3.9006685504e-01	 5.4203521626e-01
 2.3675306252e+00	 4.1102599927e-01	 7.0509810718e-01
 2.4031452201e+00	 2.0377426846e-01	 3.9517398375e+00
 2.4013011794e+00	 2.2446249046e-01	 2.7317261036e+00
 2.3992724614e+00	 2.4519848886e-01	 1.7603190773e+00
 2.3970576014e+00	 2.6598007245e-01	 1.0170899926e+00
 2.3946551640e+00	 2.8680501121e-01	 4.8161305040e-01
 2.3920637443e+00	 3.0767103664e-01	 1.3342341820e-01
 2.3892819685e+00	 3.2857584217e-01	-4.8027109771e-02
 2.3863084955e+00	 3.4951708351e-01	-8.3416974396e-02
 2.3831420173e+00	 3.7049237917e-01	 6.3955006419e-03
 2.3797812609e+00	 3.9149931087e-01	 1.9768923337e-01
 2.3762249887e+00	 4.1253542408e-01	 4.7261415918e-01
 2.2892806513e+00	 3.9744105410e-01	 2.5601332011e+00
 2.2856656119e+00	 4.1772973553e-01	 1.6318681685e+00
 2.2818599959e+00	 4.3804169659e-01	 7.3911493765e-01
 2.2778627189e+00	 4.5837447783e-01	-9.9920986158e-02
 2.2736727345e+00	 4.7872558728e-01	-8.6749515124e-01
 2.2692890356e+00	 4.9909250109e-01	-1.5463510277e+00
 2.2647106553e+00	 5.1947266420e-01	-2.1197487245e+00
 2.2599366679e+00	 5.3986349106e-01	-2.5714956766e+00
 2.2549661899e+00	 5.6026236637e-01	-2.8859794188e+00
 2.2497983806e+00	 5.8066664583e-01	-3.0482025518e+00
 2.2444324436e+00	 6.0107365699e-01	-3.0438200038e+00
 2.2979751257e+00	 3.9895049815e-01	 2.5049618949e+00
 2.2943463567e+00	 4.1931623410e-01	 1.6577890256e+00
 2.2905262874e+00	 4.3970533810e-01	 8.4127639342e-01
 2.2865138291e+00	 4.6011534134e-01	 7.4782222595e-02
 2.2823079315e+00	 4.8054374241e-01	-6.2297453438e-01
 2.2779075837e+00	 5.0098800786e-01	-1.2339455210e+00
 2.2733118151e+00	 5.2144557292e-01	-1.7407860534e+00
 2.2685196966e+00	 5.4191384224e-01	-2.1268900647e+00
 2.2635303412e+00	 5.6239019058e-01	-2.3764270263e+00
 2.2583429051e+00	 5.8287196359e-01	-2.4743809488e+00
 2.2529565887e+00	 6.0335647868e-01	-2.4065915552e+00
 2.3066695976e+00	 4.0045994178e-01	 2.3860514254e+00
 2.3030270990e+00	 4.2090273223e-01	 1.6389457624e+00
 2.2991925764e+00	 4.4136897913e-01	 9.1589124897e-01
 2.2951649368e+00	 4.6185620436e-01	 2.3673391746e-01
 2.2909431260e+00	 4.8236189702e-01	-3.7945432900e-01
 2.2865261293e+00	 5.0288351409e-01	-9.1440985401e-01
 2.2819129725e+00	 5.2341848109e-01	-1.3507131056e+00
 2.2771027228e+00	 5.4396419285e-01	-1.6718262264e+00
 2.2720944900e+00	 5.6451801418e-01	-1.8621325633e+00
 2.2668874270e+00	 5.8507728073e-01	-1.9069781759e+00
 2.2614807314e+00	 6.0563929971e-01	-1.7927154343e+00
 2.3153640646e+00	 4.0196938455e-01	 2.2147950117e+00
 2.3117078365e+00	 4.2248922945e-01	 1.5830071048e+00
 2.3078588604e+00	 4.4303261922e-01	 9.6749838905e-01
 2.3038160396e+00	 4.6359706640e-01	 3.8794569668e-01
 2.2995783156e+00	 4.8418005061e-01	-1.3684007605e-01
 2.2951446701e+00	 5.0477901924e-01	-5.8894928657e-01
 2.2905141251e+00	 5.2539138814e-01	-9.5141049606e-01
 2.2856857442e+00	 5.4601454229e-01	-1.2082291648e+00
 2.2806586340e+00	 5.6664583658e-01	-1.3444282000e+00
 2.2754319442e+00	 5.8728259661e-01	-1.3460904551e+00
 2.2700048692e+00	 6.0792211946e-01	-1.2004032736e+00
 2.3240585242e+00	 4.0347882604e-01	 2.0024168100e+00
 2.3203885665e+00	 4.2407572533e-01	 1.4975283036e+00
 2.3165251371e+00	 4.4469625790e-01	 1.0005698691e+00
 2.3124671350e+00	 4.6533792695e-01	 5.3039991120e-01
 2.3082134979e+00	 4.8599820264e-01	 1.0496183837e-01
 2.3037632036e+00	 5.0667452279e-01	-2.5875081226e-01
 2.2991152703e+00	 5.2736429351e-01	-5.4473085900e-01
 2.2942687583e+00	 5.4806488999e-01	-7.3799568493e-01
 2.2892227707e+00	 5.6877365718e-01	-8.2462728320e-01
 2.2839764541e+00	 5.8948791062e-01	-7.9181424164e-01
 2.2785289998e+00	 6.1020493726e-01	-6.2789576091e-01
 2.3327529740e+00	 4.0498826582e-01	 1.7599750391e+00
 2.3290692867e+00	 4.2566221941e-01	 1.3899532194e+00
 2.3251914040e+00	 4.4635989470e-01	 1.0195121242e+00
 2.3211182206e+00	 4.6707878553e-01	 6.6605016603e-01
 2.3168486704e+00	 4.8781635262e-01	 3.4604414745e-01
 2.3123817272e+00	 5.0857002419e-01	 7.5016441387e-02
 2.3077164057e+00	 5.2933719665e-01	-1.3249943806e-01
 2.3028517627e+00	 5.5011523536e-01	-2.6299499762e-01
 2.2977868977e+00	 5.7090147536e-01	-3.0402477697e-01
 2.2925209543e+00	 5.9169322214e-01	-2.4424632068e-01
 2.2870531207e+00	 6.1248775248e-01	-7.3462211245e-02
 2.3414474114e+00	 4.0649770346e-01	 1.4983650371e+00
 2.3377499946e+00	 4.2724871124e-01	 1.2676163599e+00
 2.3338576586e+00	 4.4802352914e-01	 1.0286671502e+00
 2.3297692940e+00	 4.6881964165e-01	 7.9682180995e-01
 2.3254838307e+00	 4.8963450003e-01	 5.8649866819e-01
 2.3210002387e+00	 5.1046552290e-01	 4.1120082092e-01
 2.3163175290e+00	 5.3131009699e-01	 2.8348533561e-01
 2.3114347549e+00	 5.5216557783e-01	 2.1493068830e-01
 2.3063510126e+00	 5.7302929053e-01	 2.1610230632e-01
 2.3010654424e+00	 5.9389853053e-01	 2.9651609680e-01
 2.2955772296e+00	 6.1477056446e-01	 4.6459985041e-01
 2.3501418341e+00	 4.0800713853e-01	 1.2283222497e+00
 2.3464306878e+00	 4.2883520038e-01	 1.1377448721e+00
 2.3425238984e+00	 4.4968716075e-01	 1.0323136590e+00
 2.3384203527e+00	 4.7056049481e-01	 9.2461241386e-01
 2.3341189763e+00	 4.9145264434e-01	 8.2641626617e-01
 2.3296187355e+00	 5.1236101839e-01	 7.4866776301e-01
 2.3249186377e+00	 5.3328299398e-01	 7.0145127734e-01
 2.3200177325e+00	 5.5421591682e-01	 6.9396558672e-01
 2.3149151129e+00	 5.7515710208e-01	 7.3449448290e-01
 2.3096099159e+00	 5.9610383517e-01	 8.3037527981e-01
 2.3041013239e+00	 6.1705337257e-01	 9.8796509647e-01
 2.3588362395e+00	 4.0951657061e-01	 9.6042515216e-01
 2.3551113637e+00	 4.3042168637e-01	 1.0074604906e+00
 2.3511901211e+00	 4.5135078906e-01	 1.0346682069e+00
 2.3470713942e+00	 4.7230134451e-01	 1.0512922381e+00
 2.3427541048e+00	 4.9327078505e-01	 1.0658868206e+00
 2.3382372152e+00	 5.1425651012e-01	 1.0862994183e+00
 2.3335197293e+00	 5.3525588706e-01	 1.1196518949e+00
 2.3286006931e+00	 5.5626625174e-01	 1.1723197668e+00
 2.3234791962e+00	 5.7728490941e-01	 1.2499093834e+00
 2.3181543725e+00	 5.9830913543e-01	 1.3572328840e+00
 2.3126254014e+00	 6.1933617614e-01	 1.4982807939e+00
 2.3675306252e+00	 4.1102599927e-01	 7.0509810718e-01
 2.3637920200e+00	 4.3200816876e-01	 8.8378144209e-01
 2.3598563242e+00	 4.5301441360e-01	 1.0398862988e+00
 2.3557224161e+00	 4.7404219027e-01	 1.1787046888e+00
 2.3513892137e+00	 4.9508892163e-01	 1.3049991892e+00
 2.3468556754e+00	 5.1615199756e-01	 1.4229942830e+00
 2.3421208014e+00	 5.3722877566e-01	 1.5363658455e+00
 2.3371836342e+00	 5.5831658201e-01	 1.6482285971e+00
 2.3320432601e+00	 5.7941271192e-01	 1.7611213467e+00
 2.3266988098e+00	 6.0051443070e-01	 1.8769898597e+00
 2.3211494595e+00	 6.2161897455e-01	 1.9971671919e+00
 2.3762249887e+00	 4.1253542408e-01	 4.7261415918e-01
 2.3724726541e+00	 4.3359464711e-01	 7.7362430774e-01
 2.3685225051e+00	 4.5467803390e-01	 1.0520634671e+00
 2.3643734159e+00	 4.7578303159e-01	 1.3086667642e+00
 2.3600243005e+00	 4.9690705358e-01	 1.5438411740e+00
 2.3554741136e+00	 5.1804748016e-01	 1.7576668376e+00
 2.3507218515e+00	 5.3920165923e-01	 1.9498964048e+00
 2.3457665534e+00	 5.6036690706e-01	 2.1199522015e+00
 2.3406073021e+00	 5.8154050900e-01	 2.2669210220e+00
 2.3352432252e+00	 6.0271972034e-01	 2.3895463608e+00
 2.3296734959e+00	 6.2390176713e-01	 2.4862178998e+00
 2.2444324436e+00	 6.0107365699e-01	-3.0438200038e+00
 2.2388676277e+00	 6.2148070031e-01	-2.9200698623e+00
 2.2331032293e+00	 6.4188505094e-01	-2.7435960359e+00
 2.2271385922e+00	 6.6228395880e-01	-2.5296607204e+00
 2.2209731076e+00	 6.8267464922e-01	-2.2934212650e+00
 2.2146062150e+00	 7.0305432391e-01	-2.0467265991e+00
 2.2080374030e+00	 7.2342016191e-01	-1.8015731055e+00
 2.2012662103e+00	 7.4376932065e-01	-1.5708659419e+00
 2.1942922261e+00	 7.6409893695e-01	-1.3581246557e+00
 2.1871150913e+00	 7.8440612811e-01	-1.1729857461e+00
 2.1797344988e+00	 8.0468799300e-01	-1.0307702148e+00
 2.2529565887e+00	 6.0335647868e-01	-2.4065915552e+00
 2.2473706381e+00	 6.2384102604e-01	-2.2148870921e+00
 2.2415843471e+00	 6.4432287049e-01	-1.9645786256e+00
 2.2355970569e+00	 6.6479925150e-01	-1.6772878941e+00
 2.2294081563e+00	 6.8526738386e-01	-1.3744801236e+00
 2.2230170828e+00	 7.0572445865e-01	-1.0774538175e+00
 2.2164233231e+00	 7.2616764421e-01	-8.0500637031e-01
 2.2096264140e+00	 7.4659408716e-01	-5.7246187048e-01
 2.2026259434e+00	 7.6700091344e-01	-3.8852142642e-01
 2.1954215505e+00	 7.8738522942e-01	-2.7038485756e-01
 2.1880129271e+00	 8.0774412295e-01	-2.3862556745e-01
 2.2614807314e+00	 6.0563929971e-01	-1.7927154343e+00
 2.2558736461e+00	 6.2620135111e-01	-1.5538196722e+00
 2.2500654625e+00	 6.4676068935e-01	-1.2511359273e+00
 2.2440555191e+00	 6.6731454349e-01	-9.1116797875e-01
 2.2378432026e+00	 6.8786011777e-01	-5.6015613869e-01
 2.2314279483e+00	 7.0839459264e-01	-2.2405889258e-01
 2.2248092408e+00	 7.2891512573e-01	 7.1462412103e-02
 2.2179866154e+00	 7.4941885286e-01	 3.0368875972e-01
 2.2109596582e+00	 7.6990288911e-01	 4.6329351520e-01
 2.2037280072e+00	 7.9036432989e-01	 5.2777535996e-01
 2.1962913531e+00	 8.1080025202e-01	 4.7253274191e-01
 2.2700048692e+00	 6.0792211946e-01	-1.2004032736e+00
 2.2643766493e+00	 6.2856167483e-01	-9.3310177686e-01
 2.2585465730e+00	 6.4919850683e-01	-5.9800264219e-01
 2.2525139766e+00	 6.6982983405e-01	-2.2503142012e-01
 2.2462782442e+00	 6.9045285021e-01	 1.5622801390e-01
 2.2398388090e+00	 7.1106472512e-01	 5.1655759002e-01
 2.2331951538e+00	 7.3166260569e-01	 8.2712604323e-01
 2.2263468121e+00	 7.5224361697e-01	 1.0615641583e+00
 2.2192933683e+00	 7.7280486314e-01	 1.2009059558e+00
 2.2120344593e+00	 7.9334342867e-01	 1.2227516702e+00
 2.2045697743e+00	 8.1385637937e-01	 1.1010236075e+00
 2.2785289998e+00	 6.1020493726e-01	-6.2789576091e-01
 2.2728796453e+00	 6.3092199655e-01	-3.4902690625e-01
 2.2670276764e+00	 6.5163632224e-01	 4.0279169395e-06
 2.2609724268e+00	 6.7234512248e-01	 3.8729301609e-01
 2.2547132785e+00	 6.9304558044e-01	 7.8132737416e-01
 2.2482496625e+00	 7.1373485532e-01	 1.1510132961e+00
 2.2415810597e+00	 7.3441008332e-01	 1.4657001729e+00
 2.2347070016e+00	 7.5506837867e-01	 1.6981096144e+00
 2.2276270714e+00	 7.7570683470e-01	 1.8253491015e+00
 2.2203409043e+00	 7.9632252491e-01	 1.8157702185e+00
 2.2128481886e+00	 8.1691250411e-01	 1.6451783171e+00
 2.2870531207e+00	 6.1248775248e-01	-7.3462211245e-02
 2.2813826316e+00	 6.3328231559e-01	 2.0205309225e-01
 2.2755087702e+00	 6.5407413489e-01	 5.4798577685e-01
 2.2694308675e+00	 6.7486040805e-01	 9.3187992141e-01
 2.2631483033e+00	 6.9563830774e-01	 1.3216922719e+00
 2.2566605065e+00	 7.1640498251e-01	 1.6858208347e+00
 2.2499669560e+00	 7.3715755784e-01	 1.9931301625e+00
 2.2430671817e+00	 7.5789313717e-01	 2.2167391837e+00
 2.2359607650e+00	 7.7860880297e-01	 2.3314256671e+00
 2.2286473399e+00	 7.9930161779e-01	 2.3042652787e+00
 2.2211265934e+00	 8.1996862540e-01	 2.1033401215e+00
 2.2955772296e+00	 6.1477056446e-01	 4.6459985041e-01
 2.2898856059e+00	 6.3564263130e-01	 7.2372898033e-01
 2.2839898519e+00	 6.5651194408e-01	 1.0509645590e+00
 2.2778892962e+00	 6.7737569007e-01	 1.4147088831e+00
 2.2715833162e+00	 6.9823103136e-01	 1.7837700995e+00
 2.2650713386e+00	 7.1907510590e-01	 2.1273895215e+00
 2.2583528405e+00	 7.3990502846e-01	 2.4152655424e+00
 2.2514273499e+00	 7.6071789168e-01	 2.6221441141e+00
 2.2442944468e+00	 7.8151076713e-01	 2.7214805392e+00
 2.2369537637e+00	 8.0228070644e-01	 2.6808526645e+00
 2.2294049866e+00	 8.2302474235e-01	 2.4688763475e+00
 2.3041013239e+00	 6.1705337257e-01	 9.8796509647e-01
 2.2983885658e+00	 6.3800294299e-01	 1.2195350625e+00
 2.2924709192e+00	 6.5894974913e-01	 1.5138839226e+00
 2.2863477105e+00	 6.7989096780e-01	 1.8416660848e+00
 2.2800183147e+00	 7.0082375058e-01	 2.1739070443e+00
 2.2734821564e+00	 7.2174522476e-01	 2.4820271015e+00
 2.2667387107e+00	 7.4265249441e-01	 2.7379058637e+00
 2.2597875039e+00	 7.6354264138e-01	 2.9189384206e+00
 2.2526281144e+00	 7.8441272636e-01	 2.9985039550e+00
 2.2452601734e+00	 8.0525979002e-01	 2.9460370769e+00
 2.2376833656e+00	 8.2608085411e-01	 2.7319429356e+00
 2.3126254014e+00	 6.1933617614e-01	 1.4982807939e+00
 2.3068915087e+00	 6.4036324999e-01	 1.6929500983e+00
 2.3009519697e+00	 6.6138754934e-01	 1.9416103124e+00
 2.2948061081e+00	 6.8240624055e-01	 2.2185458715e+00
 2.2884532965e+00	 7.0341646466e-01	 2.4983497812e+00
 2.2818929575e+00	 7.2441533833e-01	 2.7559414322e+00
 2.2751245643e+00	 7.4539995492e-01	 2.9668104705e+00
 2.2681476413e+00	 7.6636738547e-01	 3.1116603977e+00
 2.2609617655e+00	 7.8731467983e-01	 3.1654345098e+00
 2.2535665666e+00	 8.0823886770e-01	 3.1006091342e+00
 2.2459617283e+00	 8.2913695981e-01	 2.8905126539e+00
 2.3211494595e+00	 6.2161897455e-01	 1.9971671919e+00
 2.3153944324e+00	 6.4272355165e-01	 2.1473981935e+00
 2.3094330010e+00	 6.6382534403e-01	 2.3389343426e+00
 2.3032644864e+00	 6.8492150760e-01	 2.5510522777e+00
 2.2968882592e+00	 7.0600917285e-01	 2.7632471270e+00
 2.2903037396e+00	 7.2708544584e-01	 2.9552421287e+00
 2.2835103988e+00	 7.4814740919e-01	 3.1075020833e+00
 2.2765077598e+00	 7.6919212317e-01	 3.2047741033e+00
 2.2692953977e+00	 7.9021662672e-01	 3.2251602225e+00
 2.2618729410e+00	 8.1121793862e-01	 3.1453406798e+00
 2.2542400721e+00	 8.3219305857e-01	 2.9426868871e+00
 2.3296734959e+00	 6.2390176713e-01	 2.4862178998e+00
 2.3238973344e+00	 6.4508384729e-01	 2.5862496704e+00
 2.3179140106e+00	 6.6626313250e-01	 2.7105720409e+00
 2.3117228432e+00	 6.8743676824e-01	 2.8448005219e+00
 2.3053232003e+00	 7.0860187444e-01	 2.9746516568e+00
 2.2987145002e+00	 7.2975554654e-01	 3.0859421711e+00
 2.2918962120e+00	 7.5089485646e-01	 3.1654068067e+00
 2.2848678569e+00	 7.7201685366e-01	 3.2026708140e+00
 2.2776290086e+00	 7.9311856621e-01	 3.1805195813e+00
 2.2701792942e+00	 8.1419700195e-01	 3.0809852716e+00
 2.2625183949e+00	 8.3524914955e-01	 2.8865881832e+00
 2.1797344988e+00	 8.0468799300e-01	-1.0307702148e+00
 2.1721488872e+00	 8.2494505378e-01	-8.7115461643e-01
 2.1643592920e+00	 8.4517092319e-01	-6.3522369516e-01
 2.1563655651e+00	 8.6536264914e-01	-3.3999125729e-01
 2.1481676131e+00	 8.8551726570e-01	-2.5575140348e-03
 2.1397653980e+00	 9.0563179433e-01	 3.5990231386e-01
 2.1311589378e+00	 9.2570324514e-01	 7.3014820261e-01
 2.1223483067e+00	 9.4572861812e-01	 1.0908843337e+00
 2.1133336360e+00	 9.6570490446e-01	 1.4247669002e+00
 2.1041151143e+00	 9.8562908784e-01	 1.7144107113e+00
 2.0946929879e+00	 1.0054981458e+00	 1.9423946033e+00
 2.1880129271e+00	 8.0774412295e-01	-2.3862556745e-01
 2.1803985061e+00	 8.2807811815e-01	-2.3936955256e-01
 2.1725793267e+00	 8.4838080353e-01	-2.0597179079e-01
 2.1645552404e+00	 8.6864921577e-01	-1.3944101144e-01
 2.1563261533e+00	 8.8888037768e-01	-4.1027392417e-02
 2.1478920274e+00	 9.0907129942e-01	 8.7764625228e-02
 2.1392528806e+00	 9.2921897972e-01	 2.4516219319e-01
 2.1304087876e+00	 9.4932040720e-01	 4.2910861016e-01
 2.1213598801e+00	 9.6937256161e-01	 6.3724660846e-01
 2.1121063473e+00	 9.8937241519e-01	 8.6690041279e-01
 2.1026484365e+00	 1.0093169340e+00	 1.1150566171e+00
 2.1962913531e+00	 8.1080025202e-01	 4.7253274191e-01
 2.1886481226e+00	 8.3121118164e-01	 3.4310324094e-01
 2.1807993591e+00	 8.5159068295e-01	 2.0950156527e-01
 2.1727449133e+00	 8.7193578146e-01	 8.4244740328e-02
 2.1644846912e+00	 8.9224348871e-01	-2.0509912721e-02
 2.1560186545e+00	 9.1251080353e-01	-9.2998054042e-02
 2.1473468212e+00	 9.3273471331e-01	-1.2188307109e-01
 2.1384692662e+00	 9.5291219527e-01	-9.6292234254e-02
 2.1293861218e+00	 9.7304021773e-01	-5.8541963965e-03
 2.1200975780e+00	 9.9311574147e-01	 1.5926223631e-01
 2.1106038828e+00	 1.0131357210e+00	 4.0830814139e-01
 2.2045697743e+00	 8.1385637937e-01	 1.1010236075e+00
 2.1968977345e+00	 8.3434424334e-01	 8.7161858500e-01
 2.1890193868e+00	 8.5480056056e-01	 6.0417391204e-01
 2.1809345817e+00	 8.7522234530e-01	 3.2228149969e-01
 2.1726432245e+00	 8.9560659783e-01	 4.9091835007e-02
 2.1641452770e+00	 9.1595030569e-01	-1.9273603556e-01
 2.1554407572e+00	 9.3625044490e-01	-3.8108612954e-01
 2.1465297403e+00	 9.5650398129e-01	-4.9443867428e-01
 2.1374123590e+00	 9.7670787176e-01	-5.1192468341e-01
 2.1280888041e+00	 9.9685906563e-01	-4.1338186503e-01
 2.1185593247e+00	 1.0169545060e+00	-1.7941175519e-01
 2.2128481886e+00	 8.1691250411e-01	 1.6451783171e+00
 2.2051473393e+00	 8.3747730239e-01	 1.3415870993e+00
 2.1972394076e+00	 8.5801043544e-01	 9.7111321144e-01
 2.1891242430e+00	 8.7850890634e-01	 5.6600060538e-01
 2.1808017509e+00	 8.9896970409e-01	 1.5800637700e-01
 2.1722718926e+00	 9.1938980493e-01	-2.2166229110e-01
 2.1635346863e+00	 9.3976617351e-01	-5.4241292998e-01
 2.1545902075e+00	 9.6009576427e-01	-7.7433422449e-01
 2.1454385894e+00	 9.8037552268e-01	-8.8826398163e-01
 2.1360800235e+00	 1.0006023866e+00	-8.5585850753e-01
 2.1265147597e+00	 1.0207732877e+00	-6.4966326601e-01
 2.2211265934e+00	 8.1996862540e-01	 2.1033401215e+00
 2.2133969348e+00	 8.4061035788e-01	 1.7484739612e+00
 2.2054594190e+00	 8.6122030668e-01	 1.3034759600e+00
 2.1973138951e+00	 8.8179546365e-01	 8.0684686957e-01
 2.1889602680e+00	 9.0233280655e-01	 2.9659119652e-01
 2.1803984990e+00	 9.2282930027e-01	-1.8985522008e-01
 2.1716286062e+00	 9.4328189813e-01	-6.1569950915e-01
 2.1626506656e+00	 9.6368754317e-01	-9.4486783003e-01
 2.1534648107e+00	 9.8404316944e-01	-1.1420830710e+00
 2.1440712338e+00	 1.0043457033e+00	-1.1729440504e+00
 2.1344701858e+00	 1.0245920650e+00	-1.0040060777e+00
 2.2294049866e+00	 8.2302474235e-01	 2.4688763475e+00
 2.2216465186e+00	 8.4374340893e-01	 2.0877976942e+00
 2.2136794188e+00	 8.6443017337e-01	 1.5945053446e+00
 2.2055035356e+00	 8.8508201631e-01	 1.0363762691e+00
 2.1971187736e+00	 9.0569590423e-01	 4.5533013609e-01
 2.1885250938e+00	 9.2626879073e-01	-1.0726135288e-01
 2.1797225147e+00	 9.4679761777e-01	-6.1065461098e-01
 2.1707111122e+00	 9.6727931699e-01	-1.0148162016e+00
 2.1614910207e+00	 9.8771081101e-01	-1.2805066286e+00
 2.1520624328e+00	 1.0080890148e+00	-1.3693657400e+00
 2.1424256006e+00	 1.0284108369e+00	-1.2439995928e+00
 2.2376833656e+00	 8.2608085411e-01	 2.7319429356e+00
 2.2298960884e+00	 8.4687645466e-01	 2.3491381177e+00
 2.2218994046e+00	 8.6764003461e-01	 1.8375294417e+00
 2.2136931621e+00	 8.8836856338e-01	 1.2462536900e+00
 2.2052772652e+00	 9.0905899620e-01	 6.2483085973e-01
 2.1966516749e+00	 9.2970827535e-01	 1.6302008069e-02
 2.1878164094e+00	 9.5031333143e-01	-5.3686224425e-01
 2.1787715452e+00	 9.7087108470e-01	-9.9284609561e-01
 2.1695172169e+00	 9.9137844633e-01	-1.3105748305e+00
 2.1600536182e+00	 1.0118323198e+00	-1.4498028262e+00
 2.1503810018e+00	 1.0322296024e+00	-1.3712031450e+00
 2.2459617283e+00	 8.2913695981e-01	 2.8905126539e+00
 2.2381456418e+00	 8.5000949417e-01	 2.5202410911e+00
 2.2301193741e+00	 8.7084988948e-01	 2.0193348691e+00
 2.2218827725e+00	 8.9165510393e-01	 1.4282507244e+00
 2.2134357407e+00	 9.1242208150e-01	 7.9582237363e-01
 2.2047782398e+00	 9.3314775314e-01	 1.7114420817e-01
 2.1959102881e+00	 9.5382903812e-01	-4.0378418111e-01
 2.1868319622e+00	 9.7446284528e-01	-8.8751654211e-01
 2.1775433973e+00	 9.9504607439e-01	-1.2392451119e+00
 2.1680447877e+00	 1.0155756175e+00	-1.4188876502e+00
 2.1583363873e+00	 1.0360483603e+00	-1.3871762057e+00
 2.2542400721e+00	 8.3219305857e-01	 2.9426868871e+00
 2.2463951765e+00	 8.5314252659e-01	 2.5964864622e+00
 2.2383393250e+00	 8.7405973707e-01	 2.1256636197e+00
 2.2300723642e+00	 8.9494163704e-01	 1.5674607953e+00
 2.2215941978e+00	 9.1578515917e-01	 9.5915260360e-01
 2.2129047863e+00	 9.3658722314e-01	 3.4769871966e-01
 2.2040041484e+00	 9.5734473684e-01	-2.2076239813e-01
 2.1948923609e+00	 9.7805459772e-01	-7.0728101992e-01
 2.1855695595e+00	 9.9871369413e-01	-1.0733938848e+00
 2.1760359392e+00	 1.0193189067e+00	-1.2812067070e+00
 2.1662917548e+00	 1.0398671095e+00	-1.2934785835e+00
 2.2625183949e+00	 8.3524914955e-01	 2.8865881832e+00
 2.2546446902e+00	 8.5627555101e-01	 2.5733445681e+00
 2.2465592549e+00	 8.7726957648e-01	 2.1498560118e+00
 2.2382619351e+00	 8.9822816176e-01	 1.6478938757e+00
 2.2297526340e+00	 9.1914822827e-01	 1.0993675374e+00
 2.2210313121e+00	 9.4002668437e-01	 5.3652067834e-01
 2.2120979880e+00	 9.6086042659e-01	 2.9785387612e-03
 2.2029527390e+00	 9.8164634100e-01	-4.6048958220e-01
 2.1935957011e+00	 1.0023813045e+00	-8.1981821593e-01
 2.1840270702e+00	 1.0230621863e+00	-1.0413016796e+00
 2.1742471019e+00	 1.0436858490e+00	-1.0916706161e+00
 2.0946929879e+00	 1.0054981458e+00	 1.9423946033e+00
 2.0850692143e+00	 1.0253056884e+00	 2.0082148739e+00
 2.0752425708e+00	 1.0450520678e+00	 1.8565393981e+00
 2.0652134774e+00	 1.0647342514e+00	 1.5375379476e+00
 2.0549824128e+00	 1.0843492062e+00	 1.1012415869e+00
 2.0445499154e+00	 1.1038938996e+00	 5.9744173891e-01
 2.0339165827e+00	 1.1233653013e+00	 7.4719193476e-02
 2.0230830718e+00	 1.1427603843e+00	-4.2350319756e-01
 2.0120500994e+00	 1.1620761269e+00	-8.5451828896e-01
 2.0008184419e+00	 1.1813095133e+00	-1.1763669310e+00
 1.9893889355e+00	 1.2004575360e+00	-1.3479854178e+00
 2.1026484365e+00	 1.0093169340e+00	 1.1150566171e+00
 2.0929881127e+00	 1.0291997038e+00	 1.2890841707e+00
 2.0831241486e+00	 1.0490210780e+00	 1.3173815432e+00
 2.0730569655e+00	 1.0687780128e+00	 1.2282059995e+00
 2.0627870444e+00	 1.0884674633e+00	 1.0499241752e+00
 2.0523149253e+00	 1.1080863857e+00	 8.1094308838e-01
 2.0416412082e+00	 1.1276317379e+00	 5.3794006117e-01
 2.0307665526e+00	 1.1471004817e+00	 2.5314063136e-01
 2.0196916780e+00	 1.1664895836e+00	-2.1039958350e-02
 2.0084173637e+00	 1.1857960167e+00	-2.6270022781e-01
 1.9969444491e+00	 1.2050167618e+00	-4.5041916290e-01
 2.1106038828e+00	 1.0131357210e+00	 4.0830814139e-01
 2.1009070089e+00	 1.0330937181e+00	 6.5900374224e-01
 2.0910057241e+00	 1.0529900872e+00	 8.2939699542e-01
 2.0809004515e+00	 1.0728217730e+00	 9.2888122541e-01
 2.0705916737e+00	 1.0925857193e+00	 9.6716482267e-01
 2.0600799330e+00	 1.1122788705e+00	 9.5422366803e-01
 2.0493658315e+00	 1.1318981733e+00	 8.9741975646e-01
 2.0384500312e+00	 1.1514405778e+00	 8.0108827490e-01
 2.0273332544e+00	 1.1709030391e+00	 6.7002847568e-01
 2.0160162834e+00	 1.1902825187e+00	 5.0880421928e-01
 2.0044999606e+00	 1.2095759862e+00	 3.2184401957e-01
 2.1185593247e+00	 1.0169545060e+00	-1.7941175519e-01
 2.1088259006e+00	 1.0369877301e+00	 1.1984246900e-01
 2.0988872951e+00	 1.0569590941e+00	 3.9726488420e-01
 2.0887439330e+00	 1.0768655310e+00	 6.4639917406e-01
 2.0783962986e+00	 1.0967039729e+00	 8.6126771243e-01
 2.0678449363e+00	 1.1164713531e+00	 1.0362149941e+00
 2.0570904504e+00	 1.1361646064e+00	 1.1621740274e+00
 2.0461335055e+00	 1.1557806715e+00	 1.2285809265e+00
 2.0349748265e+00	 1.1753164921e+00	 1.2253357649e+00
 2.0236151987e+00	 1.1947690183e+00	 1.1423525573e+00
 2.0120554678e+00	 1.2141352081e+00	 9.6968569580e-01
 2.1265147597e+00	 1.0207732877e+00	-6.4966326601e-01
 2.1167447855e+00	 1.0408817389e+00	-3.2658243244e-01
 2.1067688594e+00	 1.0609280976e+00	 2.5569525251e-02
 2.0965874078e+00	 1.0809092855e+00	 3.8746720197e-01
 2.0862009169e+00	 1.1008222231e+00	 7.4038574065e-01
 2.0756099330e+00	 1.1206638320e+00	 1.0657295922e+00
 2.0648150627e+00	 1.1404310357e+00	 1.3410629802e+00
 2.0538169733e+00	 1.1601207615e+00	 1.5437168032e+00
 2.0426163921e+00	 1.1797299413e+00	 1.6514126692e+00
 2.0312141076e+00	 1.1992555140e+00	 1.6420707217e+00
 2.0196109686e+00	 1.2186944261e+00	 1.4939582672e+00
 2.1344701858e+00	 1.0245920650e+00	-1.0040060777e+00
 2.1246636615e+00	 1.0447757432e+00	-6.7850466692e-01
 2.1146504148e+00	 1.0648970967e+00	-2.8119803553e-01
 2.1044308737e+00	 1.0849530354e+00	 1.5866663569e-01
 2.0940055263e+00	 1.1049404686e+00	 6.1252310603e-01
 2.0833749208e+00	 1.1248563062e+00	 1.0514631397e+00
 2.0725396663e+00	 1.1446974603e+00	 1.4427946218e+00
 2.0615004323e+00	 1.1644608465e+00	 1.7544545131e+00
 2.0502579491e+00	 1.1841433856e+00	 1.9546749194e+00
 2.0388130079e+00	 1.2037420046e+00	 2.0120067583e+00
 2.0271664608e+00	 1.2232536390e+00	 1.8954864038e+00
 2.1424256006e+00	 1.0284108369e+00	-1.2439995928e+00
 2.1325825262e+00	 1.0486697420e+00	-9.3420813127e-01
 2.1225319590e+00	 1.0688660901e+00	-5.1863850924e-01
 2.1122743285e+00	 1.0889967796e+00	-3.3545110116e-02
 2.1018101246e+00	 1.1090587082e+00	 4.8553784533e-01
 2.0911398977e+00	 1.1290487744e+00	 1.0019617794e+00
 2.0802642590e+00	 1.1489638788e+00	 1.4759283440e+00
 2.0691838805e+00	 1.1688009254e+00	 1.8686163680e+00
 2.0578994952e+00	 1.1885568235e+00	 2.1414261361e+00
 2.0464118975e+00	 1.2082284889e+00	 2.2561331144e+00
 2.0347219423e+00	 1.2278128453e+00	 2.1750684682e+00
 2.1503810018e+00	 1.0322296024e+00	-1.3712031450e+00
 2.1405013775e+00	 1.0525637342e+00	-1.0920261978e+00
 2.1304134899e+00	 1.0728350767e+00	-6.8244288133e-01
 2.1201177700e+00	 1.0930405169e+00	-1.8283245811e-01
 2.1096147097e+00	 1.1131769409e+00	 3.6712677716e-01
 2.0989048614e+00	 1.1332412356e+00	 9.2562550249e-01
 2.0879888385e+00	 1.1532302900e+00	 1.4488783491e+00
 2.0768673155e+00	 1.1731409969e+00	 1.8938916431e+00
 2.0655410284e+00	 1.1929702540e+00	 2.2178607040e+00
 2.0540107741e+00	 1.2127149656e+00	 2.3783489014e+00
 2.0422774110e+00	 1.2323720440e+00	 2.3334779303e+00
 2.1583363873e+00	 1.0360483603e+00	-1.3871762057e+00
 2.1484202131e+00	 1.0564577187e+00	-1.1503410102e+00
 2.1382950050e+00	 1.0768040555e+00	-7.6839095822e-01
 2.1279611960e+00	 1.0970842462e+00	-2.8297963604e-01
 2.1174192793e+00	 1.1172951653e+00	 2.6474982664e-01
 2.1066698097e+00	 1.1374336884e+00	 8.3071147537e-01
 2.0957134027e+00	 1.1574966928e+00	 1.3699170203e+00
 2.0845507354e+00	 1.1774810599e+00	 1.8378397849e+00
 2.0731825464e+00	 1.1973836758e+00	 2.1900666042e+00
 2.0616096356e+00	 1.2172014333e+00	 2.3824821296e+00
 2.0498328647e+00	 1.2369312335e+00	 2.3714647735e+00
 2.1662917548e+00	 1.0398671095e+00	-1.2934785835e+00
 2.1563390307e+00	 1.0603516944e+00	-1.1075827924e+00
 2.1461765024e+00	 1.0807730253e+00	-7.7234994258e-01
 2.1358046041e+00	 1.1011279663e+00	-3.2788868567e-01
 2.1252238313e+00	 1.1214133805e+00	 1.8580532575e-01
 2.1144347404e+00	 1.1416261317e+00	 7.2533731174e-01
 2.1034379494e+00	 1.1617630859e+00	 1.2471782366e+00
 2.0922341378e+00	 1.1818211130e+00	 1.7078935686e+00
 2.0808240470e+00	 1.2017970875e+00	 2.0640282050e+00
 2.0692084799e+00	 1.2216878909e+00	 2.2722919142e+00
 2.0573883012e+00	 1.2414904128e+00	 2.2897568918e+00
 2.1742471019e+00	 1.0436858490e+00	-1.0916706161e+00
 2.1642578281e+00	 1.0642456601e+00	-9.6222916790e-01
 2.1540579796e+00	 1.0847419850e+00	-6.9027303648e-01
 2.1436479923e+00	 1.1051716761e+00	-3.1157751189e-01
 2.1330283633e+00	 1.1255315851e+00	 1.3758027756e-01
 2.1221996512e+00	 1.1458185643e+00	 6.1748429189e-01
 2.1111624763e+00	 1.1660294682e+00	 1.0886606348e+00
 2.0999175207e+00	 1.1861611550e+00	 1.5113622069e+00
 2.0884655282e+00	 1.2062104879e+00	 1.8456290119e+00
 2.0768073048e+00	 1.2261743371e+00	 2.0514706555e+00
 2.0649437185e+00	 1.2460495804e+00	 2.0890614786e+00
 1.9893889355e+00	 1.2004575360e+00	-1.3479854178e+00
 1.9777624767e+00	 1.2195171970e+00	-1.2681993403e+00
 1.9659400232e+00	 1.2384855106e+00	-9.0365592585e-01
 1.9539225930e+00	 1.2573595038e+00	-3.1530782116e-01
 1.9417112635e+00	 1.2761362175e+00	 4.3655456103e-01
 1.9293071710e+00	 1.2948127076e+00	 1.2925318369e+00
 1.9167115110e+00	 1.3133860468e+00	 2.1943493943e+00
 1.9039255374e+00	 1.3318533261e+00	 3.0850949464e+00
 1.8909505627e+00	 1.3502116560e+00	 3.9094587050e+00
 1.8777879572e+00	 1.3684581680e+00	 4.6139749401e+00
 1.8644391488e+00	 1.3865900162e+00	 5.1472636532e+00
 1.9969444491e+00	 1.2050167618e+00	-4.5041916290e-01
 1.9852738341e+00	 1.2241488096e+00	-4.8980638983e-01
 1.9734064800e+00	 1.2431891631e+00	-3.2710303883e-01
 1.9613434088e+00	 1.2621348379e+00	-1.9782492522e-03
 1.9490857018e+00	 1.2809828638e+00	 4.4628431596e-01
 1.9366344997e+00	 1.2997302855e+00	 9.7898820849e-01
 1.9239910025e+00	 1.3183741645e+00	 1.5582312318e+00
 1.9111564690e+00	 1.3369115809e+00	 2.1471166651e+00
 1.8981322166e+00	 1.3553396340e+00	 2.7099675093e+00
 1.8849196207e+00	 1.3736554445e+00	 3.2125425442e+00
 1.8715201148e+00	 1.3918561558e+00	 3.6222529460e+00
 2.0044999606e+00	 1.2095759862e+00	 3.2184401957e-01
 1.9927851894e+00	 1.2287804208e+00	 1.9419343499e-01
 1.9808729348e+00	 1.2478928142e+00	 1.9386438882e-01
 1.9687642225e+00	 1.2669101707e+00	 2.9970529007e-01
 1.9564601380e+00	 1.2858295088e+00	 4.9071274724e-01
 1.9439618263e+00	 1.3046478620e+00	 7.4621030705e-01
 1.9312704920e+00	 1.3233622808e+00	 1.0460328165e+00
 1.9183873986e+00	 1.3419698341e+00	 1.3707153152e+00
 1.9053138684e+00	 1.3604676104e+00	 1.7016853104e+00
 1.8920512822e+00	 1.3788527195e+00	 2.0214572403e+00
 1.8786010788e+00	 1.3971222939e+00	 2.3138278903e+00
 2.0120554678e+00	 1.2141352081e+00	 9.6968569580e-01
 2.0002965404e+00	 1.2334120295e+00	 7.8115324727e-01
 1.9883393853e+00	 1.2525964626e+00	 6.5358661966e-01
 1.9761850319e+00	 1.2716855008e+00	 5.8161619484e-01
 1.9638345700e+00	 1.2906761510e+00	 5.5982243929e-01
 1.9512891488e+00	 1.3095654357e+00	 5.8289567674e-01
 1.9385499774e+00	 1.3283503943e+00	 6.4580178263e-01
 1.9256183241e+00	 1.3470280845e+00	 7.4395271886e-01
 1.9124955162e+00	 1.3655955840e+00	 8.7338077203e-01
 1.8991829397e+00	 1.3840499916e+00	 1.0309153093e+00
 1.8856820388e+00	 1.4023884289e+00	 1.2143608242e+00
 2.0196109686e+00	 1.2186944261e+00	 1.4939582672e+00
 2.0078078850e+00	 1.2380436342e+00	 1.2684511527e+00
 1.9958058294e+00	 1.2573001071e+00	 1.0464753965e+00
 1.9836058351e+00	 1.2764608268e+00	 8.3573769119e-01
 1.9712089957e+00	 1.2955227890e+00	 6.4373554701e-01
 1.9586164650e+00	 1.3144830052e+00	 4.7790210851e-01
 1.9458294565e+00	 1.3333385035e+00	 3.4575716573e-01
 1.9328492434e+00	 1.3520863306e+00	 2.5506328310e-01
 1.9196771578e+00	 1.3707235532e+00	 2.1398591222e-01
 1.9063145911e+00	 1.3892472592e+00	 2.3125630430e-01
 1.8927629927e+00	 1.4076545595e+00	 3.1633599578e-01
 2.0271664608e+00	 1.2232536390e+00	 1.8954864038e+00
 2.0153192212e+00	 1.2426752336e+00	 1.6534907376e+00
 2.0032722651e+00	 1.2620037462e+00	 1.3670136283e+00
 1.9910266298e+00	 1.2812361474e+00	 1.0541618689e+00
 1.9785834131e+00	 1.3003694216e+00	 7.3271234123e-01
 1.9659437729e+00	 1.3194005692e+00	 4.2024586389e-01
 1.9531089275e+00	 1.3383266071e+00	 1.3428748197e-01
 1.9400801545e+00	 1.3571445710e+00	-1.0754788061e-01
 1.9268587914e+00	 1.3758515166e+00	-2.8740554447e-01
 1.9134462344e+00	 1.3944445210e+00	-3.8703816319e-01
 1.8998439386e+00	 1.4129206842e+00	-3.8765100999e-01
 2.0347219423e+00	 1.2278128453e+00	 2.1750684682e+00
 2.0228305467e+00	 1.2473068265e+00	 1.9337015689e+00
 2.0107386902e+00	 1.2667073787e+00	 1.6097551066e+00
 1.9984474140e+00	 1.2860114612e+00	 1.2290887628e+00
 1.9859578200e+00	 1.3052160474e+00	 8.1714981173e-01
 1.9732710705e+00	 1.3243181262e+00	 3.9909996435e-01
 1.9603883881e+00	 1.3433147036e+00	-5.1123510080e-05
 1.9473110554e+00	 1.3622028042e+00	-3.5530676828e-01
 1.9340404147e+00	 1.3809794728e+00	-6.4153975038e-01
 1.9205778676e+00	 1.3996417754e+00	-8.3334558246e-01
 1.9069248745e+00	 1.4181868013e+00	-9.0489380109e-01
 2.0422774110e+00	 1.2323720440e+00	 2.3334779303e+00
 2.0303418594e+00	 1.2519384115e+00	 2.1065397065e+00
 2.0182051026e+00	 1.2714110031e+00	 1.7693242525e+00
 2.0058681856e+00	 1.2907867669e+00	 1.3528254794e+00
 1.9933322144e+00	 1.3100626649e+00	 8.8758032657e-01
 1.9805983556e+00	 1.3292356748e+00	 4.0379254459e-01
 1.9676678363e+00	 1.3483027916e+00	-6.8536660375e-02
 1.9545419440e+00	 1.3672610288e+00	-4.9947222750e-01
 1.9412220258e+00	 1.3861074202e+00	-8.5900425492e-01
 1.9277094887e+00	 1.4048390209e+00	-1.1169036476e+00
 1.9140057984e+00	 1.4234529095e+00	-1.2425756678e+00
 2.0498328647e+00	 1.2369312335e+00	 2.3714647735e+00
 2.0378531572e+00	 1.2565699873e+00	 2.1694882276e+00
 2.0256715002e+00	 1.2761146183e+00	 1.8404158930e+00
 2.0132889425e+00	 1.2955620631e+00	 1.4177853671e+00
 2.0007065942e+00	 1.3149092727e+00	 9.3467034607e-01
 1.9879256261e+00	 1.3341532137e+00	 4.2380526789e-01
 1.9749472701e+00	 1.3532908697e+00	-8.2283011062e-02
 1.9617728182e+00	 1.3723192434e+00	-5.5113763594e-01
 1.9484036227e+00	 1.3912353574e+00	-9.5022946325e-01
 1.9348410956e+00	 1.4100362562e+00	-1.2468113091e+00
 1.9210867082e+00	 1.4287190073e+00	-1.4077700315e+00
 2.0573883012e+00	 1.2414904128e+00	 2.2897568918e+00
 2.0453644380e+00	 1.2612015526e+00	 2.1200577618e+00
 2.0331378809e+00	 1.2808182228e+00	 1.8177950652e+00
 2.0207096826e+00	 1.3003373485e+00	 1.4164872286e+00
 2.0080809572e+00	 1.3197558696e+00	 9.4921919017e-01
 1.9952528801e+00	 1.3390707414e+00	 4.4877180220e-01
 1.9822266874e+00	 1.3582789366e+00	-5.2241584479e-02
 1.9690036761e+00	 1.3773774465e+00	-5.2123251573e-01
 1.9555852033e+00	 1.3963632831e+00	-9.2549003514e-01
 1.9419726864e+00	 1.4152334797e+00	-1.2320297732e+00
 1.9281676020e+00	 1.4339850932e+00	-1.4074408551e+00
 2.0649437185e+00	 1.2460495804e+00	 2.0890614786e+00
 2.0528756997e+00	 1.2658331062e+00	 1.9557870381e+00
 2.0406042425e+00	 1.2855218152e+00	 1.6962968492e+00
 2.0281304037e+00	 1.3051126218e+00	 1.3415545755e+00
 2.0154553015e+00	 1.3246024542e+00	 9.2215785767e-01
 2.0025801153e+00	 1.3439882566e+00	 4.6847635508e-01
 1.9895060861e+00	 1.3632669907e+00	 1.0797092820e-02
 1.9762345155e+00	 1.3824356367e+00	-4.2052408559e-01
 1.9627667656e+00	 1.4014911956e+00	-7.9490622545e-01
 1.9491042590e+00	 1.4204306899e+00	-1.0813834515e+00
 1.9352484777e+00	 1.4392511656e+00	-1.2484430147e+00
 1.8644391488e+00	 1.3865900162e+00	 5.1472636532e+00
 1.8509033073e+00	 1.4046074294e+00	 5.4214976883e+00
 1.8371842352e+00	 1.4225045086e+00	 5.4216810721e+00
 1.8232835386e+00	 1.4402784720e+00	 5.2051307915e+00
 1.8092028793e+00	 1.4579265664e+00	 4.8207866235e+00
 1.7949439741e+00	 1.4754460677e+00	 4.3164077435e+00
 1.7805085939e+00	 1.4928342830e+00	 3.7367822918e+00
 1.7658985635e+00	 1.5100885515e+00	 3.1201647875e+00
 1.7511157601e+00	 1.5272062460e+00	 2.5057235148e+00
 1.7361621134e+00	 1.5441847742e+00	 1.9302983076e+00
 1.7210396040e+00	 1.5610215801e+00	 1.4281580883e+00
 1.8715201148e+00	 1.3918561558e+00	 3.6222529460e+00
 1.8579328654e+00	 1.4099419974e+00	 3.8577923577e+00
 1.8441616895e+00	 1.4279070480e+00	 3.8802110928e+00
 1.8302081994e+00	 1.4457485153e+00	 3.7403942676e+00
 1.8160740631e+00	 1.4634636355e+00	 3.4778173565e+00
 1.8017610039e+00	 1.4810496743e+00	 3.1287323676e+00
 1.7872707995e+00	 1.4985039284e+00	 2.7245999268e+00
 1.7726052815e+00	 1.5158237270e+00	 2.2932391299e+00
 1.7577663345e+00	 1.5330064329e+00	 1.8630198962e+00
 1.7427558952e+00	 1.5500494440e+00	 1.4598111189e+00
 1.7275759519e+00	 1.5669501944e+00	 1.1071379470e+00
 1.8786010788e+00	 1.3971222939e+00	 2.3138278903e+00
 1.8649624216e+00	 1.4152765639e+00	 2.5057324386e+00
 1.8511391419e+00	 1.4333095859e+00	 2.5444906075e+00
 1.8371328582e+00	 1.4512185571e+00	 2.4636984381e+00
 1.8229452449e+00	 1.4690007031e+00	 2.3011567985e+00
 1.8085780317e+00	 1.4866532792e+00	 2.0827508139e+00
 1.7940330032e+00	 1.5041735722e+00	 1.8280268491e+00
 1.7793119977e+00	 1.5215589008e+00	 1.5564220750e+00
 1.7644169069e+00	 1.5388066181e+00	 1.2864659728e+00
 1.7493496751e+00	 1.5559141120e+00	 1.0343599623e+00
 1.7341122980e+00	 1.5728788071e+00	 8.1415680023e-01
 1.8856820388e+00	 1.4023884289e+00	 1.2143608242e+00
 1.8719919737e+00	 1.4206111274e+00	 1.3600815180e+00
 1.8581165904e+00	 1.4387121208e+00	 1.4093940914e+00
 1.8440575132e+00	 1.4566885957e+00	 1.3746770384e+00
 1.8298164229e+00	 1.4745377675e+00	 1.2920957013e+00
 1.8153950557e+00	 1.4922568810e+00	 1.1807067640e+00
 1.8007952030e+00	 1.5098432127e+00	 1.0508090054e+00
 1.7860187100e+00	 1.5272940714e+00	 9.1427690610e-01
 1.7710674756e+00	 1.5446068001e+00	 7.8111600356e-01
 1.7559434513e+00	 1.5617787768e+00	 6.5914866220e-01
 1.7406486403e+00	 1.5788074164e+00	 5.5421182862e-01
 1.8927629927e+00	 1.4076545595e+00	 3.1633599578e-01
 1.8790215199e+00	 1.4259456863e+00	 4.1573496488e-01
 1.8650940329e+00	 1.4441146510e+00	 4.6801563309e-01
 1.8509821622e+00	 1.4621586297e+00	 4.7290690250e-01
 1.8366875950e+00	 1.4800748272e+00	 4.5184015878e-01
 1.8222120739e+00	 1.4978604780e+00	 4.2513849785e-01
 1.8075573971e+00	 1.5155128484e+00	 3.9659994403e-01
 1.7927254166e+00	 1.5330292371e+00	 3.7126390937e-01
 1.7777180386e+00	 1.5504069771e+00	 3.5191547668e-01
 1.7625372218e+00	 1.5676434366e+00	 3.3927153481e-01
 1.7471849771e+00	 1.5847360207e+00	 3.3219521406e-01
 1.8998439386e+00	 1.4129206842e+00	-3.8765100999e-01
 1.8860510581e+00	 1.4312802392e+00	-3.3233530510e-01
 1.8720714675e+00	 1.4495171752e+00	-2.8256642463e-01
 1.8579068034e+00	 1.4676286575e+00	-2.4510070161e-01
 1.8435587593e+00	 1.4856118806e+00	-2.1867074351e-01
 1.8290290844e+00	 1.5034640687e+00	-1.8148805413e-01
 1.8143195835e+00	 1.5211824777e+00	-1.3103605934e-01
 1.7994321157e+00	 1.5387643964e+00	-6.8256239523e-02
 1.7843685941e+00	 1.5562071475e+00	 3.7046626560e-03
 1.7691309849e+00	 1.5735080897e+00	 7.9717011808e-02
 1.7537213064e+00	 1.5906646183e+00	 1.5289773271e-01
 1.9069248745e+00	 1.4181868013e+00	-9.0489380109e-01
 1.8930805864e+00	 1.4366147846e+00	-8.8908065741e-01
 1.8790488922e+00	 1.4549196916e+00	-8.4518830196e-01
 1.8648314348e+00	 1.4730986776e+00	-7.8499723534e-01
 1.8504299139e+00	 1.4911489262e+00	-7.1885049859e-01
 1.8358460853e+00	 1.5090676514e+00	-6.3677861854e-01
 1.8210817603e+00	 1.5268520990e+00	-5.2862090138e-01
 1.8061388052e+00	 1.5444995475e+00	-4.0001912028e-01
 1.7910191401e+00	 1.5620073097e+00	-2.5877786595e-01
 1.7757247387e+00	 1.5793727345e+00	-1.1462877044e-01
 1.7602576265e+00	 1.5965932074e+00	 2.1012314898e-02
 1.9140057984e+00	 1.4234529095e+00	-1.2425756678e+00
 1.9001101027e+00	 1.4419493208e+00	-1.2593755409e+00
 1.8860263050e+00	 1.4603221989e+00	-1.2226394547e+00
 1.8717560544e+00	 1.4785686883e+00	-1.1477926552e+00
 1.8573010568e+00	 1.4966859623e+00	-1.0503594395e+00
 1.8426630745e+00	 1.5146712247e+00	-9.3840783798e-01
 1.8278439256e+00	 1.5325217106e+00	-7.9275957546e-01
 1.8128454833e+00	 1.5502346888e+00	-6.1985324230e-01
 1.7976696749e+00	 1.5678074621e+00	-4.3089174760e-01
 1.7823184812e+00	 1.5852373694e+00	-2.3897841540e-01
 1.7667939355e+00	 1.6025217865e+00	-5.8862427469e-02
 1.9210867082e+00	 1.4287190073e+00	-1.4077700315e+00
 1.9071396050e+00	 1.4472838465e+00	-1.4480172641e+00
 1.8930037041e+00	 1.4657246955e+00	-1.4176617402e+00
 1.8786806603e+00	 1.4840386882e+00	-1.3344733533e+00
 1.8641721861e+00	 1.5022229875e+00	-1.2179864423e+00
 1.8494800502e+00	 1.5202747867e+00	-1.0841165478e+00
 1.8346060775e+00	 1.5381913110e+00	-9.2013712025e-01
 1.8195521481e+00	 1.5559698188e+00	-7.2367674798e-01
 1.8043201965e+00	 1.5736076030e+00	-5.0809137672e-01
 1.7889122106e+00	 1.5911019926e+00	-2.8863974364e-01
 1.7733302316e+00	 1.6084503539e+00	-8.2218705047e-02
 1.9281676020e+00	 1.4339850932e+00	-1.4074408551e+00
 1.9141690914e+00	 1.4526183601e+00	-1.4597257471e+00
 1.8999810872e+00	 1.4711271799e+00	-1.4329485713e+00
 1.8856052505e+00	 1.4895086757e+00	-1.3463614093e+00
 1.8710432998e+00	 1.5077600002e+00	-1.2211740541e+00
 1.8562970105e+00	 1.5258783361e+00	-1.0734979210e+00
 1.8413682141e+00	 1.5438608986e+00	-9.0751559191e-01
 1.8262587978e+00	 1.5617049357e+00	-7.0749414444e-01
 1.8109707030e+00	 1.5794077307e+00	-4.8592247979e-01
 1.7955059252e+00	 1.5969666025e+00	-2.5901230215e-01
 1.7798665128e+00	 1.6143789077e+00	-4.4636086064e-02
 1.9352484777e+00	 1.4392511656e+00	-1.2484430147e+00
 1.9211985599e+00	 1.4579528601e+00	-1.2991432488e+00
 1.9069584527e+00	 1.4765296504e+00	-1.2711440586e+00
 1.8925298230e+00	 1.4949786493e+00	-1.1843486280e+00
 1.8779143959e+00	 1.5132969987e+00	-1.0591460109e+00
 1.8631139533e+00	 1.5314818712e+00	-9.1063911848e-01
 1.8481303335e+00	 1.5495304716e+00	-7.5173105921e-01
 1.8329654303e+00	 1.5674400381e+00	-5.6739306267e-01
 1.8176211925e+00	 1.5852078436e+00	-3.6001872178e-01
 1.8020996229e+00	 1.6028311975e+00	-1.4558390480e-01
 1.7864027773e+00	 1.6203074465e+00	 5.8221938631e-02
 1.7210396040e+00	 1.5610215801e+00	 1.4281580883e+00
 1.7057528715e+00	 1.5777113245e+00	 1.0431193146e+00
 1.6903014164e+00	 1.5942544255e+00	 7.8657470696e-01
 1.6746873394e+00	 1.6106484717e+00	 6.4173510687e-01
 1.6589127890e+00	 1.6268910925e+00	 5.9090480057e-01
 1.6429799599e+00	 1.6429799599e+00	 6.1570095605e-01
 1.6268910925e+00	 1.6589127890e+00	 6.9727094253e-01
 1.6106484717e+00	 1.6746873394e+00	 8.1650611135e-01
 1.5942544255e+00	 1.6903014164e+00	 9.5425066386e-01
 1.5777113245e+00	 1.7057528715e+00	 1.0915042871e+00
 1.5610215801e+00	 1.7210396040e+00	 1.2096173009e+00
 1.7275759519e+00	 1.5669501944e+00	 1.1071379470e+00
 1.7122311618e+00	 1.5837033249e+00	 8.4457434140e-01
 1.6967210235e+00	 1.6003092551e+00	 6.8790584741e-01
 1.6810476457e+00	 1.6167655644e+00	 6.2265009922e-01
 1.6652131850e+00	 1.6330698732e+00	 6.3339738544e-01
 1.6492198446e+00	 1.6492198446e+00	 7.0403249206e-01
 1.6330698732e+00	 1.6652131850e+00	 8.1795429986e-01
 1.6167655644e+00	 1.6810476457e+00	 9.5829168568e-01
 1.6003092551e+00	 1.6967210235e+00	 1.1081143250e+00
 1.5837033249e+00	 1.7122311618e+00	 1.2506370500e+00
 1.5669501944e+00	 1.7275759519e+00	 1.3694164818e+00
 1.7341122980e+00	 1.5728788071e+00	 8.1415680023e-01
 1.7187094503e+00	 1.5896953237e+00	 6.6075002091e-01
 1.7031406288e+00	 1.6063640830e+00	 5.9292728929e-01
 1.6874079503e+00	 1.6228826553e+00	 5.9833661330e-01
 1.6715135793e+00	 1.6392486520e+00	 6.6367685050e-01
 1.6554597274e+00	 1.6554597274e+00	 7.7492230400e-01
 1.6392486520e+00	 1.6715135793e+00	 9.1754494112e-01
 1.6228826553e+00	 1.6874079503e+00	 1.0767327534e+00
 1.6063640830e+00	 1.7031406288e+00	 1.2376028259e+00
 1.5896953237e+00	 1.7187094503e+00	 1.3854077433e+00
 1.5728788071e+00	 1.7341122980e+00	 1.5057340242e+00
 1.7406486403e+00	 1.5788074164e+00	 5.5421182862e-01
 1.7251877351e+00	 1.5956873191e+00	 4.9624734061e-01
 1.7095602304e+00	 1.6124189075e+00	 5.0583148903e-01
 1.6937682512e+00	 1.6289997428e+00	 5.7256768269e-01
 1.6778139700e+00	 1.6454274274e+00	 6.8508738647e-01
 1.6616996068e+00	 1.6616996068e+00	 8.3127781848e-01
 1.6454274274e+00	 1.6778139700e+00	 9.9850713401e-01
 1.6289997428e+00	 1.6937682512e+00	 1.1738455832e+00
 1.6124189075e+00	 1.7095602304e+00	 1.3442811801e+00
 1.5956873191e+00	 1.7251877351e+00	 1.4969284818e+00
 1.5788074164e+00	 1.7406486403e+00	 1.6192291431e+00
 1.7471849771e+00	 1.5847360207e+00	 3.3219521406e-01
 1.7316660144e+00	 1.6016793093e+00	 3.5556953932e-01
 1.7159798267e+00	 1.6184737268e+00	 4.3072048154e-01
 1.7001285467e+00	 1.6351168250e+00	 5.4903328969e-01
 1.6841143553e+00	 1.6516061975e+00	 7.0089751285e-01
 1.6679394808e+00	 1.6679394808e+00	 8.7593814771e-01
 1.6516061975e+00	 1.6841143553e+00	 1.0632441328e+00
 1.6351168250e+00	 1.7001285467e+00	 1.2515926437e+00
 1.6184737268e+00	 1.7159798267e+00	 1.4296676947e+00
 1.6016793093e+00	 1.7316660144e+00	 1.5862716174e+00
 1.5847360207e+00	 1.7471849771e+00	 1.7105280536e+00
 1.7537213064e+00	 1.5906646183e+00	 1.5289773271e-01
 1.7381442863e+00	 1.6076712928e+00	 2.4312561531e-01
 1.7223994156e+00	 1.6245285393e+00	 3.7160929821e-01
 1.7064888350e+00	 1.6412339004e+00	 5.3134368867e-01
 1.6904147335e+00	 1.6577849607e+00	 7.1430330237e-01
 1.6741793478e+00	 1.6741793478e+00	 9.1167721146e-01
 1.6577849607e+00	 1.6904147335e+00	 1.1141011949e+00
 1.6412339004e+00	 1.7064888350e+00	 1.3118855111e+00
 1.6245285393e+00	 1.7223994156e+00	 1.4952367675e+00
 1.6076712928e+00	 1.7381442863e+00	 1.6544724238e+00
 1.5906646183e+00	 1.7537213064e+00	 1.7802265409e+00
 1.7602576265e+00	 1.5965932074e+00	 2.1012314898e-02
 1.7446225491e+00	 1.6136632678e+00	 1.6323380358e-01
 1.7288189954e+00	 1.6305833431e+00	 3.3242935658e-01
 1.7128491142e+00	 1.6473509670e+00	 5.2303270362e-01
 1.6967151028e+00	 1.6639637150e+00	 7.2843158249e-01
 1.6804192059e+00	 1.6804192059e+00	 9.4120683870e-01
 1.6639637150e+00	 1.6967151028e+00	 1.1533685788e+00
 1.6473509670e+00	 1.7128491142e+00	 1.3565877623e+00
 1.6305833431e+00	 1.7288189954e+00	 1.5424216720e+00
 1.6136632678e+00	 1.7446225491e+00	 1.7025317708e+00
 1.5965932074e+00	 1.7602576265e+00	 1.8288925247e+00
 1.7667939355e+00	 1.6025217865e+00	-5.8862427469e-02
 1.7511008008e+00	 1.6196552326e+00	 1.2012502304e-01
 1.7352385643e+00	 1.6366381367e+00	 3.1703182239e-01
 1.7192093827e+00	 1.6534680233e+00	 5.2756100066e-01
 1.7030154613e+00	 1.6701424589e+00	 7.4634311416e-01
 1.6866590534e+00	 1.6866590534e+00	 9.6717984923e-01
 1.6701424589e+00	 1.7030154613e+00	 1.1832845263e+00
 1.6534680233e+00	 1.7192093827e+00	 1.3875178525e+00
 1.6366381367e+00	 1.7352385643e+00	 1.5726173298e+00
 1.6196552326e+00	 1.7511008008e+00	 1.7314187908e+00
 1.6025217865e+00	 1.7667939355e+00	 1.8570686154e+00
 1.7733302316e+00	 1.6084503539e+00	-8.2218705047e-02
 1.7575790397e+00	 1.6256471855e+00	 1.1794629441e-01
 1.7416581205e+00	 1.6426929183e+00	 3.2919094481e-01
 1.7255696386e+00	 1.6595850674e+00	 5.4831933605e-01
 1.7093158074e+00	 1.6763211905e+00	 7.7103574879e-01
 1.6928988885e+00	 1.6928988885e+00	 9.9219311586e-01
 1.6763211905e+00	 1.7093158074e+00	 1.2060382258e+00
 1.6595850674e+00	 1.7255696386e+00	 1.4064519797e+00
 1.6426929183e+00	 1.7416581205e+00	 1.5871830719e+00
 1.6256471855e+00	 1.7575790397e+00	 1.7420735342e+00
 1.6084503539e+00	 1.7733302316e+00	 1.8652746649e+00
 1.7798665128e+00	 1.6143789077e+00	-4.4636086064e-02
 1.7640572640e+00	 1.6316391248e+00	 1.6076412955e-01
 1.7480776622e+00	 1.6487476861e+00	 3.7260736526e-01
 1.7319298800e+00	 1.6657020977e+00	 5.8863178034e-01
 1.7156161392e+00	 1.6824999081e+00	 8.0544756369e-01
 1.6991387095e+00	 1.6991387095e+00	 1.0187906077e+00
 1.6824999081e+00	 1.7156161392e+00	 1.2237727612e+00
 1.6657020977e+00	 1.7319298800e+00	 1.4151269342e+00
 1.6487476861e+00	 1.7480776622e+00	 1.5874453882e+00
 1.6316391248e+00	 1.7640572640e+00	 1.7354096177e+00
 1.6143789077e+00	 1.7798665128e+00	 1.8540103104e+00
 1.7864027773e+00	 1.6203074465e+00	 5.8221938631e-02
 1.7705354717e+00	 1.6376310489e+00	 2.5256789292e-01
 1.7544971874e+00	 1.6548024385e+00	 4.5091140080e-01
 1.7382901052e+00	 1.6718191124e+00	 6.5175891924e-01
 1.7219164549e+00	 1.6886786099e+00	 8.5245997662e-01
 1.7053785146e+00	 1.7053785146e+00	 1.0494664149e+00
 1.6886786099e+00	 1.7219164549e+00	 1.2385880432e+00
 1.6718191124e+00	 1.7382901052e+00	 1.4152429350e+00
 1.6548024385e+00	 1.7544971874e+00	 1.5747006661e+00
 1.6376310489e+00	 1.7705354717e+00	 1.7123168627e+00
 1.6203074465e+00	 1.7864027773e+00	 1.8237575125e+00
 1.5610215801e+00	 1.7210396040e+00	 1.2096173009e+00
 1.5441847742e+00	 1.7361621134e+00	 1.3038508394e+00
 1.5272062460e+00	 1.7511157601e+00	 1.3803204900e+00
 1.5100885515e+00	 1.7658985635e+00	 1.4374984056e+00
 1.4928342830e+00	 1.7805085939e+00	 1.4745120733e+00
 1.4754460677e+00	 1.7949439741e+00	 1.4893768984e+00
 1.4579265664e+00	 1.8092028793e+00	 1.4633544390e+00
 1.4402784720e+00	 1.8232835386e+00	 1.4012559497e+00
 1.4225045086e+00	 1.8371842352e+00	 1.3152815248e+00
 1.4046074294e+00	 1.8509033073e+00	 1.2172665229e+00
 1.3865900162e+00	 1.8644391488e+00	 1.1184087547e+00
 1.5669501944e+00	 1.7275759519e+00	 1.3694164818e+00
 1.5500494440e+00	 1.7427558952e+00	 1.4601132934e+00
 1.5330064329e+00	 1.7577663345e+00	 1.5283072111e+00
 1.5158237270e+00	 1.7726052815e+00	 1.5732706883e+00
 1.4985039284e+00	 1.7872707995e+00	 1.5949377883e+00
 1.4810496743e+00	 1.8017610039e+00	 1.5940189805e+00
 1.4634636355e+00	 1.8160740631e+00	 1.5584552458e+00
 1.4457485153e+00	 1.8302081994e+00	 1.4855194770e+00
 1.4279070480e+00	 1.8441616895e+00	 1.3882045706e+00
 1.4099419974e+00	 1.8579328654e+00	 1.2790525094e+00
 1.3918561558e+00	 1.8715201148e+00	 1.1696338353e+00
 1.5728788071e+00	 1.7341122980e+00	 1.5057340242e+00
 1.5559141120e+00	 1.7493496751e+00	 1.5945153631e+00
 1.5388066181e+00	 1.7644169069e+00	 1.6566889050e+00
 1.5215589008e+00	 1.7793119977e+00	 1.6921864992e+00
 1.5041735722e+00	 1.7940330032e+00	 1.7016137132e+00
 1.4866532792e+00	 1.8085780317e+00	 1.6863759481e+00
 1.4690007031e+00	 1.8229452449e+00	 1.6426997784e+00
 1.4512185571e+00	 1.8371328582e+00	 1.5615794306e+00
 1.4333095859e+00	 1.8511391419e+00	 1.4554816312e+00
 1.4152765639e+00	 1.8649624216e+00	 1.3374742013e+00
 1.3971222939e+00	 1.8786010788e+00	 1.2193049546e+00
 1.5788074164e+00	 1.7406486403e+00	 1.6192291431e+00
 1.5617787768e+00	 1.7559434513e+00	 1.7072834131e+00
 1.5446068001e+00	 1.7710674756e+00	 1.7652991577e+00
 1.5272940714e+00	 1.7860187100e+00	 1.7937281105e+00
 1.5098432127e+00	 1.8007952030e+00	 1.7937136666e+00
 1.4922568810e+00	 1.8153950557e+00	 1.7672192700e+00
 1.4745377675e+00	 1.8298164229e+00	 1.7154014363e+00
 1.4566885957e+00	 1.8440575132e+00	 1.6286013920e+00
 1.4387121208e+00	 1.8581165904e+00	 1.5161842341e+00
 1.4206111274e+00	 1.8719919737e+00	 1.3914987169e+00
 1.4023884289e+00	 1.8856820388e+00	 1.2664235381e+00
 1.5847360207e+00	 1.7471849771e+00	 1.7105280536e+00
 1.5676434366e+00	 1.7625372218e+00	 1.7986170852e+00
 1.5504069771e+00	 1.7777180386e+00	 1.8539503208e+00
 1.5330292371e+00	 1.7927254166e+00	 1.8773612366e+00
 1.5155128484e+00	 1.8075573971e+00	 1.8703987513e+00
 1.4978604780e+00	 1.8222120739e+00	 1.8354581036e+00
 1.4800748272e+00	 1.8366875950e+00	 1.7758312729e+00
 1.4621586297e+00	 1.8509821622e+00	 1.6857109455e+00
 1.4441146510e+00	 1.8650940329e+00	 1.5693178641e+00
 1.4259456863e+00	 1.8790215199e+00	 1.4400909579e+00
 1.4076545595e+00	 1.8927629927e+00	 1.3099888255e+00
 1.5906646183e+00	 1.7537213064e+00	 1.7802265409e+00
 1.5735080897e+00	 1.7691309849e+00	 1.8686917592e+00
 1.5562071475e+00	 1.7843685941e+00	 1.9224358727e+00
 1.5387643964e+00	 1.7994321157e+00	 1.9425373056e+00
 1.5211824777e+00	 1.8143195835e+00	 1.9308195471e+00
 1.5034640687e+00	 1.8290290844e+00	 1.8899847374e+00
 1.4856118806e+00	 1.8435587593e+00	 1.8237325035e+00
 1.4676286575e+00	 1.8579068034e+00	 1.7319979788e+00
 1.4495171752e+00	 1.8720714675e+00	 1.6138630575e+00
 1.4312802392e+00	 1.8860510581e+00	 1.4822145851e+00
 1.4129206842e+00	 1.8998439386e+00	 1.3489986057e+00
 1.5965932074e+00	 1.7602576265e+00	 1.8288925247e+00
 1.5793727345e+00	 1.7757247387e+00	 1.9176610095e+00
 1.5620073097e+00	 1.7910191401e+00	 1.9705327771e+00
 1.5444995475e+00	 1.8061388052e+00	 1.9886957298e+00
 1.5268520990e+00	 1.8210817603e+00	 1.9741183045e+00
 1.5090676514e+00	 1.8358460853e+00	 1.9296859834e+00
 1.4911489262e+00	 1.8504299139e+00	 1.8593226024e+00
 1.4730986776e+00	 1.8648314348e+00	 1.7665235746e+00
 1.4549196916e+00	 1.8790488922e+00	 1.6487991731e+00
 1.4366147846e+00	 1.8930805864e+00	 1.5168327613e+00
 1.4181868013e+00	 1.9069248745e+00	 1.3824499572e+00
 1.6025217865e+00	 1.7667939355e+00	 1.8570686154e+00
 1.5852373694e+00	 1.7823184812e+00	 1.9456590570e+00
 1.5678074621e+00	 1.7976696749e+00	 1.9980038401e+00
 1.5502346888e+00	 1.8128454833e+00	 2.0152661781e+00
 1.5325217106e+00	 1.8278439256e+00	 1.9994311405e+00
 1.5146712247e+00	 1.8426630745e+00	 1.9534453076e+00
 1.4966859623e+00	 1.8573010568e+00	 1.8813621797e+00
 1.4785686883e+00	 1.8717560544e+00	 1.7883307530e+00
 1.4603221989e+00	 1.8860263050e+00	 1.6731052211e+00
 1.4419493208e+00	 1.9001101027e+00	 1.5429089007e+00
 1.4234529095e+00	 1.9140057984e+00	 1.4093399961e+00
 1.6084503539e+00	 1.7733302316e+00	 1.8652746649e+00
 1.5911019926e+00	 1.7889122106e+00	 1.9528032176e+00
 1.5736076030e+00	 1.8043201965e+00	 2.0046000658e+00
 1.5559698188e+00	 1.8195521481e+00	 2.0216708465e+00
 1.5381913110e+00	 1.8346060775e+00	 2.0058902359e+00
 1.5202747867e+00	 1.8494800502e+00	 1.9601449635e+00
 1.5022229875e+00	 1.8641721861e+00	 1.8886170501e+00
 1.4840386882e+00	 1.8786806603e+00	 1.7965821461e+00
 1.4657246955e+00	 1.8930037041e+00	 1.6857606331e+00
 1.4472838465e+00	 1.9071396050e+00	 1.5594074234e+00
 1.4287190073e+00	 1.9210867082e+00	 1.4286666284e+00
 1.6143789077e+00	 1.7798665128e+00	 1.8540103104e+00
 1.5969666025e+00	 1.7955059252e+00	 1.9391963467e+00
 1.5794077307e+00	 1.8109707030e+00	 1.9900630087e+00
 1.5617049357e+00	 1.8262587978e+00	 2.0073267301e+00
 1.5438608986e+00	 1.8413682141e+00	 1.9926260350e+00
 1.5258783361e+00	 1.8562970105e+00	 1.9486964185e+00
 1.5077600002e+00	 1.8710432998e+00	 1.8798779561e+00
 1.4895086757e+00	 1.8856052505e+00	 1.7910206519e+00
 1.4711271799e+00	 1.8999810872e+00	 1.6857460376e+00
 1.4526183601e+00	 1.9141690914e+00	 1.5652945164e+00
 1.4339850932e+00	 1.9281676020e+00	 1.4394293085e+00
 1.6203074465e+00	 1.7864027773e+00	 1.8237575125e+00
 1.6028311975e+00	 1.8020996229e+00	 1.9049292788e+00
 1.5852078436e+00	 1.8176211925e+00	 1.9541271258e+00
 1.5674400381e+00	 1.8329654303e+00	 1.9716478943e+00
 1.5495304716e+00	 1.8481303335e+00	 1.9587694456e+00
 1.5314818712e+00	 1.8631139533e+00	 1.9181472513e+00
 1.5132969987e+00	 1.8779143959e+00	 1.8539786583e+00
 1.4949786493e+00	 1.8925298230e+00	 1.7705243032e+00
 1.4765296504e+00	 1.9069584527e+00	 1.6720440410e+00
 1.4579528601e+00	 1.9211985599e+00	 1.5595388999e+00
 1.4392511656e+00	 1.9352484777e+00	 1.4406298036e+00
 1.3865900162e+00	 1.8644391488e+00	 1.1184087547e+00
 1.3684581680e+00	 1.8777879572e+00	 1.0223690924e+00
 1.3502116560e+00	 1.8909505627e+00	 9.2980650973e-01
 1.3318533261e+00	 1.9039255374e+00	 8.4573148972e-01
 1.3133860468e+00	 1.9167115110e+00	 7.7420040051e-01
 1.2948127076e+00	 1.9293071710e+00	 7.1840028646e-01
 1.2761362175e+00	 1.9417112635e+00	 6.8073033061e-01
 1.2573595038e+00	 1.9539225930e+00	 6.6287973791e-01
 1.2384855106e+00	 1.9659400232e+00	 6.6590182768e-01
 1.2195171970e+00	 1.9777624767e+00	 6.9028416176e-01
 1.2004575360e+00	 1.9893889355e+00	 7.3601457237e-01
 1.3918561558e+00	 1.8715201148e+00	 1.1696338353e+00
 1.3736554445e+00	 1.8849196207e+00	 1.0636887190e+00
 1.3553396340e+00	 1.8981322166e+00	 9.6188370417e-01
 1.3369115809e+00	 1.9111564690e+00	 8.6932498859e-01
 1.3183741645e+00	 1.9239910025e+00	 7.9016032483e-01
 1.2997302855e+00	 1.9366344997e+00	 7.2766510109e-01
 1.2809828638e+00	 1.9490857018e+00	 6.8432495553e-01
 1.2621348379e+00	 1.9613434088e+00	 6.6191467237e-01
 1.2431891631e+00	 1.9734064800e+00	 6.6157314784e-01
 1.2241488096e+00	 1.9852738341e+00	 6.8387425306e-01
 1.2050167618e+00	 1.9969444491e+00	 7.2889345979e-01
 1.3971222939e+00	 1.8786010788e+00	 1.2193049546e+00
 1.3788527195e+00	 1.8920512822e+00	 1.1049509644e+00
 1.3604676104e+00	 1.9053138684e+00	 9.9518814248e-01
 1.3419698341e+00	 1.9183873986e+00	 8.9519049672e-01
 1.3233622808e+00	 1.9312704920e+00	 8.0917119947e-01
 1.3046478620e+00	 1.9439618263e+00	 7.4046999522e-01
 1.2858295088e+00	 1.9564601380e+00	 6.9163699808e-01
 1.2669101707e+00	 1.9687642225e+00	 6.6451262572e-01
 1.2478928142e+00	 1.9808729348e+00	 6.6030345760e-01
 1.2287804208e+00	 1.9927851894e+00	 6.7965384540e-01
 1.2095759862e+00	 2.0044999606e+00	 7.2271314326e-01
 1.4023884289e+00	 1.8856820388e+00	 1.2664235381e+00
 1.3840499916e+00	 1.8991829397e+00	 1.1452252872e+00
 1.3655955840e+00	 1.9124955162e+00	 1.0288711339e+00
 1.3470280845e+00	 1.9256183241e+00	 9.2257527173e-01
 1.3283503943e+00	 1.9385499774e+00	 8.3059061067e-01
 1.3095654357e+00	 1.9512891488e+00	 7.5629754910e-01
 1.2906761510e+00	 1.9638345700e+00	 7.0228898531e-01
 1.2716855008e+00	 1.9761850319e+00	 6.7045131383e-01
 1.2525964626e+00	 1.9883393853e+00	 6.6204119427e-01
 1.2334120295e+00	 2.0002965404e+00	 6.7775792146e-01
 1.2141352081e+00	 2.0120554678e+00	 7.1781126635e-01
 1.4076545595e+00	 1.8927629927e+00	 1.3099888255e+00
 1.3892472592e+00	 1.9063145911e+00	 1.1835781835e+00
 1.3707235532e+00	 1.9196771578e+00	 1.0620799758e+00
 1.3520863306e+00	 1.9328492434e+00	 9.5072123336e-01
 1.3333385035e+00	 1.9458294565e+00	 8.5376920131e-01
 1.3144830052e+00	 1.9586164650e+00	 7.7462151229e-01
 1.2955227890e+00	 1.9712089957e+00	 7.1589244242e-01
 1.2764608268e+00	 1.9836058351e+00	 6.7949499409e-01
 1.2573001071e+00	 1.9958058294e+00	 6.6671859333e-01
 1.2380436342e+00	 2.0078078850e+00	 6.7830223124e-01
 1.2186944261e+00	 2.0196109686e+00	 7.1450292115e-01
 1.4129206842e+00	 1.8998439386e+00	 1.3489986057e+00
 1.3944445210e+00	 1.9134462344e+00	 1.2190739288e+00
 1.3758515166e+00	 1.9268587914e+00	 1.0939587053e+00
 1.3571445710e+00	 1.9400801545e+00	 9.7886572803e-01
 1.3383266071e+00	 1.9531089275e+00	 8.7805145185e-01
 1.3194005692e+00	 1.9659437729e+00	 7.9490760440e-01
 1.3003694216e+00	 1.9785834131e+00	 7.3204871669e-01
 1.2812361474e+00	 1.9910266298e+00	 6.9139531611e-01
 1.2620037462e+00	 2.0032722651e+00	 6.7425256955e-01
 1.2426752336e+00	 2.0153192212e+00	 6.8138420734e-01
 1.2232536390e+00	 2.0271664608e+00	 7.1308160148e-01
 1.4181868013e+00	 1.9069248745e+00	 1.3824499572e+00
 1.3996417754e+00	 1.9205778676e+00	 1.2507753259e+00
 1.3809794728e+00	 1.9340404147e+00	 1.1236488563e+00
 1.3622028042e+00	 1.9473110554e+00	 1.0062422985e+00
 1.3433147036e+00	 1.9603883881e+00	 9.0277646571e-01
 1.3243181262e+00	 1.9732710705e+00	 8.1661431945e-01
 1.3052160474e+00	 1.9859578200e+00	 7.5034980431e-01
 1.2860114612e+00	 1.9984474140e+00	 7.0589217442e-01
 1.2667073787e+00	 2.0107386902e+00	 6.8454559921e-01
 1.2473068265e+00	 2.0228305467e+00	 6.8708388025e-01
 1.2278128453e+00	 2.0347219423e+00	 7.1382015512e-01
 1.4234529095e+00	 1.9140057984e+00	 1.4093399961e+00
 1.4048390209e+00	 1.9277094887e+00	 1.2777444575e+00
 1.3861074202e+00	 1.9412220258e+00	 1.1502902218e+00
 1.3672610288e+00	 1.9545419440e+00	 1.0320814582e+00
 1.3483027916e+00	 1.9676678363e+00	 9.2727875884e-01
 1.3292356748e+00	 1.9805983556e+00	 8.3919373389e-01
 1.3100626649e+00	 1.9933322144e+00	 7.7037918007e-01
 1.2907867669e+00	 2.0058681856e+00	 7.2271456328e-01
 1.2714110031e+00	 2.0182051026e+00	 6.9748660334e-01
 1.2519384115e+00	 2.0303418594e+00	 6.9546479376e-01
 1.2323720440e+00	 2.0422774110e+00	 7.1697173479e-01
 1.4287190073e+00	 1.9210867082e+00	 1.4286666284e+00
 1.4100362562e+00	 1.9348410956e+00	 1.2990434453e+00
 1.3912353574e+00	 1.9484036227e+00	 1.1730216212e+00
 1.3723192434e+00	 1.9617728182e+00	 1.0556114703e+00
 1.3532908697e+00	 1.9749472701e+00	 9.5088905336e-01
 1.3341532137e+00	 1.9879256261e+00	 8.6209231804e-01
 1.3149092727e+00	 2.0007065942e+00	 7.9171262979e-01
 1.2955620631e+00	 2.0132889425e+00	 7.4158143334e-01
 1.2761146183e+00	 2.0256715002e+00	 7.1295183212e-01
 1.2565699873e+00	 2.0378531572e+00	 7.0657492031e-01
 1.2369312335e+00	 2.0498328647e+00	 7.2277074825e-01
 1.4339850932e+00	 1.9281676020e+00	 1.4394293085e+00
 1.4152334797e+00	 1.9419726864e+00	 1.3137352142e+00
 1.3963632831e+00	 1.9555852033e+00	 1.1909816727e+00
 1.3773774465e+00	 1.9690036761e+00	 1.0760591311e+00
 1.3582789366e+00	 1.9822266874e+00	 9.7293507538e-01
 1.3390707414e+00	 1.9952528801e+00	 8.8475175095e-01
 1.3197558696e+00	 2.0080809572e+00	 8.1391908543e-01
 1.3003373485e+00	 2.0207096826e+00	 7.6220255022e-01
 1.2808182228e+00	 2.0331378809e+00	 7.3080575011e-01
 1.2612015526e+00	 2.0453644380e+00	 7.2044757642e-01
 1.2414904128e+00	 2.0573883012e+00	 7.3143380717e-01
 1.4392511656e+00	 1.9352484777e+00	 1.4406298036e+00
 1.4204306899e+00	 1.9491042590e+00	 1.3208842610e+00
 1.4014911956e+00	 1.9627667656e+00	 1.2033095705e+00
 1.3824356367e+00	 1.9762345155e+00	 1.0926505585e+00
 1.3632669907e+00	 1.9895060861e+00	 9.9274235647e-01
 1.3439882566e+00	 2.0025801153e+00	 9.0660973859e-01
 1.3246024542e+00	 2.0154553015e+00	 8.3656146284e-01
 1.3051126218e+00	 2.0281304037e+00	 7.8427935492e-01
 1.2855218152e+00	 2.0406042425e+00	 7.5090192259e-01
 1.2658331062e+00	 2.0528756997e+00	 7.3710233813e-01
 1.2460495804e+00	 2.0649437185e+00	 7.4316067506e-01
 1.2004575360e+00	 1.9893889355e+00	 7.3601457237e-01
 1.1813095133e+00	 2.0008184419e+00	 7.8996884738e-01
 1.1620761269e+00	 2.0120500994e+00	 8.3932770589e-01
 1.1427603843e+00	 2.0230830718e+00	 8.8406443003e-01
 1.1233653013e+00	 2.0339165827e+00	 9.2400892587e-01
 1.1038938996e+00	 2.0445499154e+00	 9.5893320950e-01
 1.0843492062e+00	 2.0549824128e+00	 9.8903776272e-01
 1.0647342514e+00	 2.0652134774e+00	 1.0144638599e+00
 1.0450520678e+00	 2.0752425708e+00	 1.0355681988e+00
 1.0253056884e+00	 2.0850692143e+00	 1.0529975402e+00
 1.0054981458e+00	 2.0946929879e+00	 1.0676404336e+00
 1.2050167618e+00	 1.9969444491e+00	 7.2889345979e-01
 1.1857960167e+00	 2.0084173637e+00	 7.8420379704e-01
 1.1664895836e+00	 2.0196916780e+00	 8.3708625156e-01
 1.1471004817e+00	 2.0307665526e+00	 8.8673069814e-01
 1.1276317379e+00	 2.0416412082e+00	 9.3221528773e-01
 1.1080863857e+00	 2.0523149253e+00	 9.7255882139e-01
 1.0884674633e+00	 2.0627870444e+00	 1.0073521064e+00
 1.0687780128e+00	 2.0730569655e+00	 1.0363613059e+00
 1.0490210780e+00	 2.0831241486e+00	 1.0594345875e+00
 1.0291997038e+00	 2.0929881127e+00	 1.0767256405e+00
 1.0093169340e+00	 2.1026484365e+00	 1.0886461954e+00
 1.2095759862e+00	 2.0044999606e+00	 7.2271314326e-01
 1.1902825187e+00	 2.0160162834e+00	 7.7786334467e-01
 1.1709030391e+00	 2.0273332544e+00	 8.3267199265e-01
 1.1514405778e+00	 2.0384500312e+00	 8.8564247438e-01
 1.1318981733e+00	 2.0493658315e+00	 9.3519438620e-01
 1.1122788705e+00	 2.0600799330e+00	 9.7970677334e-01
 1.0925857193e+00	 2.0705916737e+00	 1.0181163600e+00
 1.0728217730e+00	 2.0809004515e+00	 1.0499976585e+00
 1.0529900872e+00	 2.0910057241e+00	 1.0747659300e+00
 1.0330937181e+00	 2.1009070089e+00	 1.0921506154e+00
 1.0131357210e+00	 2.1106038828e+00	 1.1021505566e+00
 1.2141352081e+00	 2.0120554678e+00	 7.1781126635e-01
 1.1947690183e+00	 2.0236151987e+00	 7.7147790462e-01
 1.1753164921e+00	 2.0349748265e+00	 8.2677142934e-01
 1.1557806715e+00	 2.0461335055e+00	 8.8160479901e-01
 1.1361646064e+00	 2.0570904504e+00	 9.3383143697e-01
 1.1164713531e+00	 2.0678449363e+00	 9.8128915165e-01
 1.0967039729e+00	 2.0783962986e+00	 1.0222665379e+00
 1.0768655310e+00	 2.0887439330e+00	 1.0562480940e+00
 1.0569590941e+00	 2.0988872951e+00	 1.0823355761e+00
 1.0369877301e+00	 2.1088259006e+00	 1.0999020186e+00
 1.0169545060e+00	 2.1185593247e+00	 1.1085963505e+00
 1.2186944261e+00	 2.0196109686e+00	 7.1450292115e-01
 1.1992555140e+00	 2.0312141076e+00	 7.6555212643e-01
 1.1797299413e+00	 2.0426163921e+00	 8.2004259503e-01
 1.1601207615e+00	 2.0538169733e+00	 8.7539207285e-01
 1.1404310357e+00	 2.0648150627e+00	 9.2897939066e-01
 1.1206638320e+00	 2.0756099330e+00	 9.7818896151e-01
 1.1008222231e+00	 2.0862009169e+00	 1.0207183915e+00
 1.0809092855e+00	 2.0965874078e+00	 1.0559694908e+00
 1.0609280976e+00	 2.1067688594e+00	 1.0829012116e+00
 1.0408817389e+00	 2.1167447855e+00	 1.1005970493e+00
 1.0207732877e+00	 2.1265147597e+00	 1.1084180479e+00
 1.2232536390e+00	 2.0271664608e+00	 7.1308160148e-01
 1.2037420046e+00	 2.0388130079e+00	 7.6056588272e-01
 1.1841433856e+00	 2.0502579491e+00	 8.1311606785e-01
 1.1644608465e+00	 2.0615004323e+00	 8.6774908131e-01
 1.1446974603e+00	 2.0725396663e+00	 9.2145995797e-01
 1.1248563062e+00	 2.0833749208e+00	 9.7126681421e-01
 1.1049404686e+00	 2.0940055263e+00	 1.0143666901e+00
 1.0849530354e+00	 2.1044308737e+00	 1.0499997167e+00
 1.0648970967e+00	 2.1146504148e+00	 1.0772041402e+00
 1.0447757432e+00	 2.1246636615e+00	 1.0948398183e+00
 1.0245920650e+00	 2.1344701858e+00	 1.1020409945e+00
 1.2278128453e+00	 2.0347219423e+00	 7.1382015512e-01
 1.2082284889e+00	 2.0464118975e+00	 7.5697525475e-01
 1.1885568235e+00	 2.0578994952e+00	 8.0659597911e-01
 1.1688009254e+00	 2.0691838805e+00	 8.5939201474e-01
 1.1489638788e+00	 2.0802642590e+00	 9.1206463085e-01
 1.1290487744e+00	 2.0911398977e+00	 9.6135202000e-01
 1.1090587082e+00	 2.1018101246e+00	 1.0040844980e+00
 1.0889967796e+00	 2.1122743285e+00	 1.0391569115e+00
 1.0688660901e+00	 2.1225319590e+00	 1.0659685624e+00
 1.0486697420e+00	 2.1325825262e+00	 1.0832206101e+00
 1.0284108369e+00	 2.1424256006e+00	 1.0898806462e+00
 1.2323720440e+00	 2.0422774110e+00	 7.1697173479e-01
 1.2127149656e+00	 2.0540107741e+00	 7.5521351596e-01
 1.1929702540e+00	 2.0655410284e+00	 8.0106101869e-01
 1.1731409969e+00	 2.0768673155e+00	 8.5100948512e-01
 1.1532302900e+00	 2.0879888385e+00	 9.0155569951e-01
 1.1332412356e+00	 2.0989048614e+00	 9.4924359436e-01
 1.1131769409e+00	 2.1096147097e+00	 9.9070448028e-01
 1.0930405169e+00	 2.1201177700e+00	 1.0242387666e+00
 1.0728350767e+00	 2.1304134899e+00	 1.0499008505e+00
 1.0525637342e+00	 2.1405013775e+00	 1.0663151436e+00
 1.0322296024e+00	 2.1503810018e+00	 1.0723418032e+00
 1.2369312335e+00	 2.0498328647e+00	 7.2277074825e-01
 1.2172014333e+00	 2.0616096356e+00	 7.5569211327e-01
 1.1973836758e+00	 2.0731825464e+00	 7.9706543755e-01
 1.1774810599e+00	 2.0845507354e+00	 8.4326353920e-01
 1.1574966928e+00	 2.0957134027e+00	 8.9066726562e-01
 1.1374336884e+00	 2.1066698097e+00	 9.3571126033e-01
 1.1172951653e+00	 2.1174192793e+00	 9.7492421919e-01
 1.0970842462e+00	 2.1279611960e+00	 1.0060218003e+00
 1.0768040555e+00	 2.1382950050e+00	 1.0296888207e+00
 1.0564577187e+00	 2.1484202131e+00	 1.0446838302e+00
 1.0360483603e+00	 2.1583363873e+00	 1.0498178433e+00
 1.2414904128e+00	 2.0573883012e+00	 7.3143380717e-01
 1.2216878909e+00	 2.0692084799e+00	 7.5880164642e-01
 1.2017970875e+00	 2.0808240470e+00	 7.9514004736e-01
 1.1818211130e+00	 2.0922341378e+00	 8.3679066824e-01
 1.1617630859e+00	 2.1034379494e+00	 8.8010625160e-01
 1.1416261317e+00	 2.1144347404e+00	 9.2149644679e-01
 1.1214133805e+00	 2.1252238313e+00	 9.5746799088e-01
 1.1011279663e+00	 2.1358046041e+00	 9.8526063010e-01
 1.0807730253e+00	 2.1461765024e+00	 1.0060010028e+00
 1.0603516944e+00	 2.1563390307e+00	 1.0188710296e+00
 1.0398671095e+00	 2.1662917548e+00	 1.0226899533e+00
 1.2460495804e+00	 2.0649437185e+00	 7.4316067506e-01
 1.2261743371e+00	 2.0768073048e+00	 7.6491284521e-01
 1.2062104879e+00	 2.0884655282e+00	 7.9579321726e-01
 1.1861611550e+00	 2.0999175207e+00	 8.3220281428e-01
 1.1660294682e+00	 2.1111624763e+00	 8.7055340626e-01
 1.1458185643e+00	 2.1221996512e+00	 9.0731328293e-01
 1.1255315851e+00	 2.1330283633e+00	 9.3904725729e-01
 1.1051716761e+00	 2.1436479923e+00	 9.6268724101e-01
 1.0847419850e+00	 2.1540579796e+00	 9.7948590575e-01
 1.0642456601e+00	 2.1642578281e+00	 9.8940430359e-01
 1.0436858490e+00	 2.1742471019e+00	 9.9132636019e-01
 1.0054981458e+00	 2.0946929879e+00	 1.0676404336e+00
 9.8562908784e-01	 2.1041151143e+00	 1.0859373416e+00
 9.6570490446e-01	 2.1133336360e+00	 1.1118272509e+00
 9.4572861812e-01	 2.1223483067e+00	 1.1427511090e+00
 9.2570324514e-01	 2.1311589378e+00	 1.1763207777e+00
 9.0563179433e-01	 2.1397653980e+00	 1.2102979008e+00
 8.8551726570e-01	 2.1481676131e+00	 1.2425763530e+00
 8.6536264914e-01	 2.1563655651e+00	 1.2711679790e+00
 8.4517092319e-01	 2.1643592920e+00	 1.2941913240e+00
 8.2494505378e-01	 2.1721488872e+00	 1.3098630559e+00
 8.0468799300e-01	 2.1797344988e+00	 1.3164917811e+00
 1.0093169340e+00	 2.1026484365e+00	 1.0886461954e+00
 9.8937241519e-01	 2.1121063473e+00	 1.1014930763e+00
 9.6937256161e-01	 2.1213598801e+00	 1.1198592149e+00
 9.4932040720e-01	 2.1304087876e+00	 1.1418932816e+00
 9.2921897972e-01	 2.1392528806e+00	 1.1658850583e+00
 9.0907129942e-01	 2.1478920274e+00	 1.1902444937e+00
 8.8888037768e-01	 2.1563261533e+00	 1.2134844377e+00
 8.6864921577e-01	 2.1645552404e+00	 1.2342067531e+00
 8.4838080353e-01	 2.1725793267e+00	 1.2510914945e+00
 8.2807811815e-01	 2.1803985061e+00	 1.2628888452e+00
 8.0774412295e-01	 2.1880129271e+00	 1.2684135006e+00
 1.0131357210e+00	 2.1106038828e+00	 1.1021505566e+00
 9.9311574147e-01	 2.1200975780e+00	 1.1107608023e+00
 9.7304021773e-01	 2.1293861218e+00	 1.1229787635e+00
 9.5291219527e-01	 2.1384692662e+00	 1.1375864136e+00
 9.3273471331e-01	 2.1473468212e+00	 1.1534794490e+00
 9.1251080353e-01	 2.1560186545e+00	 1.1696466277e+00
 8.9224348871e-01	 2.1644846912e+00	 1.1851528827e+00
 8.7193578146e-01	 2.1727449133e+00	 1.1991258951e+00
 8.5159068295e-01	 2.1807993591e+00	 1.2107458058e+00
 8.3121118164e-01	 2.1886481226e+00	 1.2192377463e+00
 8.1080025202e-01	 2.1962913531e+00	 1.2238668649e+00
 1.0169545060e+00	 2.1185593247e+00	 1.1085963505e+00
 9.9685906563e-01	 2.1280888041e+00	 1.1139863676e+00
 9.7670787176e-01	 2.1374123590e+00	 1.1212581683e+00
 9.5650398129e-01	 2.1465297403e+00	 1.1297530728e+00
 9.3625044490e-01	 2.1554407572e+00	 1.1389011234e+00
 9.1595030569e-01	 2.1641452770e+00	 1.1482008057e+00
 8.9560659783e-01	 2.1726432245e+00	 1.1572026341e+00
 8.7522234530e-01	 2.1809345817e+00	 1.1654962763e+00
 8.5480056056e-01	 2.1890193868e+00	 1.1727008835e+00
 8.3434424334e-01	 2.1968977345e+00	 1.1784582945e+00
 8.1385637937e-01	 2.2045697743e+00	 1.1824287812e+00
 1.0207732877e+00	 2.1265147597e+00	 1.1084180479e+00
 1.0006023866e+00	 2.1360800235e+00	 1.1114114350e+00
 9.8037552268e-01	 2.1454385894e+00	 1.1147693662e+00
 9.6009576427e-01	 2.1545902075e+00	 1.1183189989e+00
 9.3976617351e-01	 2.1635346863e+00	 1.1219535756e+00
 9.1938980493e-01	 2.1722718926e+00	 1.1256126260e+00
 8.9896970409e-01	 2.1808017509e+00	 1.1292661204e+00
 8.7850890634e-01	 2.1891242430e+00	 1.1329022355e+00
 8.5801043544e-01	 2.1972394076e+00	 1.1365183889e+00
 8.3747730239e-01	 2.2051473393e+00	 1.1401151993e+00
 8.1691250411e-01	 2.2128481886e+00	 1.1436930265e+00
 1.0245920650e+00	 2.1344701858e+00	 1.1020409945e+00
 1.0043457033e+00	 2.1440712338e+00	 1.1032726883e+00
 9.8404316944e-01	 2.1534648107e+00	 1.1035831404e+00
 9.6368754317e-01	 2.1626506656e+00	 1.1032122674e+00
 9.4328189813e-01	 2.1716286062e+00	 1.1024457734e+00
 9.2282930027e-01	 2.1803984990e+00	 1.1015959332e+00
 9.0233280655e-01	 2.1889602680e+00	 1.1009864080e+00
 8.8179546365e-01	 2.1973138951e+00	 1.1009407451e+00
 8.6122030668e-01	 2.2054594190e+00	 1.1017742047e+00
 8.4061035788e-01	 2.2133969348e+00	 1.1037885567e+00
 8.1996862540e-01	 2.2211265934e+00	 1.1072694939e+00
 1.0284108369e+00	 2.1424256006e+00	 1.0898806462e+00
 1.0080890148e+00	 2.1520624328e+00	 1.0898010378e+00
 9.8771081101e-01	 2.1614910207e+00	 1.0877683028e+00
 9.6727931699e-01	 2.1707111122e+00	 1.0843624556e+00
 9.4679761777e-01	 2.1797225147e+00	 1.0801913156e+00
 9.2626879073e-01	 2.1885250938e+00	 1.0758719717e+00
 9.0569590423e-01	 2.1971187736e+00	 1.0720163585e+00
 8.8508201631e-01	 2.2055035356e+00	 1.0692205817e+00
 8.6443017337e-01	 2.2136794188e+00	 1.0680576242e+00
 8.4374340893e-01	 2.2216465186e+00	 1.0690730654e+00
 8.2302474235e-01	 2.2294049866e+00	 1.0734141040e+00
 1.0322296024e+00	 2.1503810018e+00	 1.0723418032e+00
 1.0118323198e+00	 2.1600536182e+00	 1.0712208258e+00
 9.9137844633e-01	 2.1695172169e+00	 1.0673908777e+00
 9.7087108470e-01	 2.1787715452e+00	 1.0616998104e+00
 9.5031333143e-01	 2.1878164094e+00	 1.0550075898e+00
 9.2970827535e-01	 2.1966516749e+00	 1.0481685429e+00
 9.0905899620e-01	 2.2052772652e+00	 1.0420177919e+00
 8.8836856338e-01	 2.2136931621e+00	 1.0373614998e+00
 8.6764003461e-01	 2.2218994046e+00	 1.0349705455e+00
 8.4687645466e-01	 2.2298960884e+00	 1.0362835871e+00
 8.2608085411e-01	 2.2376833656e+00	 1.0427106100e+00
 1.0360483603e+00	 2.1583363873e+00	 1.0498178433e+00
 1.0155756175e+00	 2.1680447877e+00	 1.0477490322e+00
 9.9504607439e-01	 2.1775433973e+00	 1.0425132856e+00
 9.7446284528e-01	 2.1868319622e+00	 1.0351544181e+00
 9.5382903812e-01	 2.1959102881e+00	 1.0267149349e+00
 9.3314775314e-01	 2.2047782398e+00	 1.0182191649e+00
 9.1242208150e-01	 2.2134357407e+00	 1.0106606511e+00
 8.9165510393e-01	 2.2218827725e+00	 1.0049934105e+00
 8.7084988948e-01	 2.2301193741e+00	 1.0028520968e+00
 8.5000949417e-01	 2.2381456418e+00	 1.0058577431e+00
 8.2913695981e-01	 2.2459617283e+00	 1.0146951400e+00
 1.0398671095e+00	 2.1662917548e+00	 1.0226899533e+00
 1.0193189067e+00	 2.1760359392e+00	 1.0195944797e+00
 9.9871369413e-01	 2.1855695595e+00	 1.0131935289e+00
 9.7805459772e-01	 2.1948923609e+00	 1.0046553750e+00
 9.5734473684e-01	 2.2040041484e+00	 9.9513580413e-01
 9.3658722314e-01	 2.2129047863e+00	 9.8576223607e-01
 9.1578515917e-01	 2.2215941978e+00	 9.7762217164e-01
 8.9494163704e-01	 2.2300723642e+00	 9.7244341308e-01
 8.7405973707e-01	 2.2383393250e+00	 9.7205086235e-01
 8.5314252659e-01	 2.2463951765e+00	 9.7727705954e-01
 8.3219305857e-01	 2.2542400721e+00	 9.8889097050e-01
 1.0436858490e+00	 2.1742471019e+00	 9.9132636019e-01
 1.0230621863e+00	 2.1840270702e+00	 9.8695703941e-01
 1.0023813045e+00	 2.1935957011e+00	 9.7948437755e-01
 9.8164634100e-01	 2.2029527390e+00	 9.7012996134e-01
 9.6086042659e-01	 2.2120979880e+00	 9.6009393202e-01
 9.4002668437e-01	 2.2210313121e+00	 9.5054020078e-01
 9.1914822827e-01	 2.2297526340e+00	 9.4318769248e-01
 8.9822816176e-01	 2.2382619351e+00	 9.4003748420e-01
 8.7726957648e-01	 2.2465592549e+00	 9.4202838074e-01
 8.5627555101e-01	 2.2546446902e+00	 9.5002124916e-01
 8.3524914955e-01	 2.2625183949e+00	 9.6482252185e-01
 8.0468799300e-01	 2.1797344988e+00	 1.3164917811e+00
 7.8440612811e-01	 2.1871150913e+00	 1.3205664725e+00
 7.6409893695e-01	 2.1942922261e+00	 1.3307996189e+00
 7.4376932065e-01	 2.2012662103e+00	 1.3488807816e+00
 7.2342016191e-01	 2.2080374030e+00	 1.3730702460e+00
 7.0305432391e-01	 2.2146062150e+00	 1.3988907490e+00
 6.8267464922e-01	 2.2209731076e+00	 1.4275484526e+00
 6.6228395880e-01	 2.2271385922e+00	 1.4605804479e+00
 6.4188505094e-01	 2.2331032293e+00	 1.4995957265e+00
 6.2148070031e-01	 2.2388676277e+00	 1.5456992054e+00
 6.0107365699e-01	 2.2444324436e+00	 1.5999944899e+00
 8.0774412295e-01	 2.1880129271e+00	 1.2684135006e+00
 7.8738522942e-01	 2.1954215505e+00	 1.2741030392e+00
 7.6700091344e-01	 2.2026259434e+00	 1.2880877977e+00
 7.4659408716e-01	 2.2096264140e+00	 1.3117365030e+00
 7.2616764421e-01	 2.2164233231e+00	 1.3438231442e+00
 7.0572445865e-01	 2.2230170828e+00	 1.3783912214e+00
 6.8526738386e-01	 2.2294081563e+00	 1.4164943420e+00
 6.6479925150e-01	 2.2355970569e+00	 1.4592329014e+00
 6.4432287049e-01	 2.2415843471e+00	 1.5073528811e+00
 6.2384102604e-01	 2.2473706381e+00	 1.5616053142e+00
 6.0335647868e-01	 2.2529565887e+00	 1.6227419023e+00
 8.1080025202e-01	 2.1962913531e+00	 1.2238668649e+00
 7.9036432989e-01	 2.2037280072e+00	 1.2310002756e+00
 7.6990288911e-01	 2.2109596582e+00	 1.2482208935e+00
 7.4941885286e-01	 2.2179866154e+00	 1.2766049150e+00
 7.2891512573e-01	 2.2248092408e+00	 1.3154835933e+00
 7.0839459264e-01	 2.2314279483e+00	 1.3584292703e+00
 6.8786011777e-01	 2.2378432026e+00	 1.4051438085e+00
 6.6731454349e-01	 2.2440555191e+00	 1.4560842070e+00
 6.4676068935e-01	 2.2500654625e+00	 1.5117054606e+00
 6.2620135111e-01	 2.2558736461e+00	 1.5724561833e+00
 6.0563929971e-01	 2.2614807314e+00	 1.6387749425e+00
 8.1385637937e-01	 2.2045697743e+00	 1.1824287812e+00
 7.9334342867e-01	 2.2120344593e+00	 1.1908840985e+00
 7.7280486314e-01	 2.2192933683e+00	 1.2108880831e+00
 7.5224361697e-01	 2.2263468121e+00	 1.2434539722e+00
 7.3166260569e-01	 2.2331951538e+00	 1.2889882233e+00
 7.1106472512e-01	 2.2398388090e+00	 1.3395547752e+00
 6.9045285021e-01	 2.2462782442e+00	 1.3936157314e+00
 6.6982983405e-01	 2.2525139766e+00	 1.4513850514e+00
 6.4919850683e-01	 2.2585465730e+00	 1.5130634298e+00
 6.2856167483e-01	 2.2643766493e+00	 1.5788345904e+00
 6.0792211946e-01	 2.2700048692e+00	 1.6488622844e+00
 8.1691250411e-01	 2.2128481886e+00	 1.1436930265e+00
 7.9632252491e-01	 2.2203409043e+00	 1.1533976251e+00
 7.7570683470e-01	 2.2276270714e+00	 1.1761516307e+00
 7.5506837867e-01	 2.2347070016e+00	 1.2132857094e+00
 7.3441008332e-01	 2.2415810597e+00	 1.2645623015e+00
 7.1373485532e-01	 2.2482496625e+00	 1.3217430197e+00
 6.9304558044e-01	 2.2547132785e+00	 1.3820146016e+00
 6.7234512248e-01	 2.2609724268e+00	 1.4453833295e+00
 6.5163632224e-01	 2.2670276764e+00	 1.5118318467e+00
 6.3092199655e-01	 2.2728796453e+00	 1.5813160723e+00
 6.1020493726e-01	 2.2785289998e+00	 1.6537628144e+00
 8.1996862540e-01	 2.2211265934e+00	 1.1072694939e+00
 7.9930161779e-01	 2.2286473399e+00	 1.1187079965e+00
 7.7860880297e-01	 2.2359607650e+00	 1.1449238319e+00
 7.5789313717e-01	 2.2430671817e+00	 1.1860831059e+00
 7.3715755784e-01	 2.2499669560e+00	 1.2420684988e+00
 7.1640498251e-01	 2.2566605065e+00	 1.3049698595e+00
 6.9563830774e-01	 2.2631483033e+00	 1.3704438626e+00
 6.7486040805e-01	 2.2694308675e+00	 1.4383240457e+00
 6.5407413489e-01	 2.2755087702e+00	 1.5084108159e+00
 6.3328231559e-01	 2.2813826316e+00	 1.5804689357e+00
 6.1248775248e-01	 2.2870531207e+00	 1.6542257033e+00
 8.2302474235e-01	 2.2294049866e+00	 1.0734141040e+00
 8.0228070644e-01	 2.2369537637e+00	 1.0875721314e+00
 7.8151076713e-01	 2.2442944468e+00	 1.1169802836e+00
 7.6071789168e-01	 2.2514273499e+00	 1.1616203506e+00
 7.3990502846e-01	 2.2583528405e+00	 1.2213712143e+00
 7.1907510590e-01	 2.2650713386e+00	 1.2892115280e+00
 6.9823103136e-01	 2.2715833162e+00	 1.3590057606e+00
 6.7737569007e-01	 2.2778892962e+00	 1.4304492129e+00
 6.5651194408e-01	 2.2839898519e+00	 1.5031954409e+00
 6.3564263130e-01	 2.2898856059e+00	 1.5768542660e+00
 6.1477056446e-01	 2.2955772296e+00	 1.6509904735e+00
 8.2608085411e-01	 2.2376833656e+00	 1.0427106100e+00
 8.0525979002e-01	 2.2452601734e+00	 1.0596213484e+00
 7.8441272636e-01	 2.2526281144e+00	 1.0919937472e+00
 7.6354264138e-01	 2.2597875039e+00	 1.1396692205e+00
 7.4265249441e-01	 2.2667387107e+00	 1.2023930522e+00
 7.2174522476e-01	 2.2734821564e+00	 1.2744444430e+00
 7.0082375058e-01	 2.2800183147e+00	 1.3478011966e+00
 6.7989096780e-01	 2.2863477105e+00	 1.4219977519e+00
 6.5894974913e-01	 2.2924709192e+00	 1.4965757742e+00
 6.3800294299e-01	 2.2983885658e+00	 1.5710259317e+00
 6.1705337257e-01	 2.3041013239e+00	 1.6447870633e+00
 8.2913695981e-01	 2.2459617283e+00	 1.0146951400e+00
 8.0823886770e-01	 2.2535665666e+00	 1.0344448941e+00
 7.8731467983e-01	 2.2609617655e+00	 1.0696359922e+00
 7.6636738547e-01	 2.2681476413e+00	 1.1199991204e+00
 7.4539995492e-01	 2.2751245643e+00	 1.1851672662e+00
 7.2441533833e-01	 2.2818929575e+00	 1.2606450152e+00
 7.0341646466e-01	 2.2884532965e+00	 1.3369295768e+00
 6.8240624055e-01	 2.2948061081e+00	 1.4132053890e+00
 6.6138754934e-01	 2.3009519697e+00	 1.4889367664e+00
 6.4036324999e-01	 2.3068915087e+00	 1.5635305878e+00
 6.1933617614e-01	 2.3126254014e+00	 1.6363358858e+00
 8.3219305857e-01	 2.2542400721e+00	 9.8889097050e-01
 8.1121793862e-01	 2.2618729410e+00	 1.0116322057e+00
 7.9021662672e-01	 2.2692953977e+00	 1.0495778216e+00
 7.6919212317e-01	 2.2765077598e+00	 1.1023771233e+00
 7.4814740919e-01	 2.2835103988e+00	 1.1695812298e+00
 7.2708544584e-01	 2.2903037396e+00	 1.2477894562e+00
 7.0600917285e-01	 2.2968882592e+00	 1.3264886642e+00
 6.8492150760e-01	 2.3032644864e+00	 1.4043045541e+00
 6.6382534403e-01	 2.3094330010e+00	 1.4806582132e+00
 6.4272355165e-01	 2.3153944324e+00	 1.5549076753e+00
 6.2161897455e-01	 2.3211494595e+00	 1.6263478858e+00
 8.3524914955e-01	 2.2625183949e+00	 9.6482252185e-01
 8.1419700195e-01	 2.2701792942e+00	 9.9077292794e-01
 7.9311856621e-01	 2.2776290086e+00	 1.0314890994e+00
 7.7201685366e-01	 2.2848678569e+00	 1.0865680142e+00
 7.5089485646e-01	 2.2918962120e+00	 1.1555090470e+00
 7.2975554654e-01	 2.2987145002e+00	 1.2358535890e+00
 7.0860187444e-01	 2.3053232003e+00	 1.3165744307e+00
 6.8743676824e-01	 2.3117228432e+00	 1.3955242776e+00
 6.6626313250e-01	 2.3179140106e+00	 1.4721147010e+00
 6.4508384729e-01	 2.3238973344e+00	 1.5456894192e+00
 6.2390176713e-01	 2.3296734959e+00	 1.6155245917e+00
 6.0107365699e-01	 2.2444324436e+00	 1.5999944899e+00
 5.8066664583e-01	 2.2497983806e+00	 1.6560912332e+00
 5.6026236637e-01	 2.2549661899e+00	 1.7064742916e+00
 5.3986349106e-01	 2.2599366679e+00	 1.7504858368e+00
 5.1947266420e-01	 2.2647106553e+00	 1.7873619154e+00
 4.9909250109e-01	 2.2692890356e+00	 1.8162345791e+00
 4.7872558728e-01	 2.2736727345e+00	 1.8361344827e+00
 4.5837447783e-01	 2.2778627189e+00	 1.8459939087e+00
 4.3804169659e-01	 2.2818599959e+00	 1.8446501775e+00
 4.1772973553e-01	 2.2856656119e+00	 1.8308494083e+00
 3.9744105410e-01	 2.2892806513e+00	 1.8032505970e+00
 6.0335647868e-01	 2.2529565887e+00	 1.6227419023e+00
 5.8287196359e-01	 2.2583429051e+00	 1.6834796842e+00
 5.6239019058e-01	 2.2635303412e+00	 1.7357804426e+00
 5.4191384224e-01	 2.2685196966e+00	 1.7792057875e+00
 5.2144557292e-01	 2.2733118151e+00	 1.8132441499e+00
 5.0098800786e-01	 2.2779075837e+00	 1.8373120522e+00
 4.8054374241e-01	 2.2823079315e+00	 1.8507558131e+00
 4.6011534134e-01	 2.2865138291e+00	 1.8528536430e+00
 4.3970533810e-01	 2.2905262874e+00	 1.8428180951e+00
 4.1931623410e-01	 2.2943463567e+00	 1.8197988342e+00
 3.9895049815e-01	 2.2979751257e+00	 1.7828856972e+00
 6.0563929971e-01	 2.2614807314e+00	 1.6387749425e+00
 5.8507728073e-01	 2.2668874270e+00	 1.7027853043e+00
 5.6451801418e-01	 2.2720944900e+00	 1.7561880394e+00
 5.4396419285e-01	 2.2771027228e+00	 1.7987447476e+00
 5.2341848109e-01	 2.2819129725e+00	 1.8301726643e+00
 5.0288351409e-01	 2.2865261293e+00	 1.8501451853e+00
 4.8236189702e-01	 2.2909431260e+00	 1.8582927902e+00
 4.6185620436e-01	 2.2951649368e+00	 1.8542043271e+00
 4.4136897913e-01	 2.2991925764e+00	 1.8374286199e+00
 4.2090273223e-01	 2.3030270990e+00	 1.8074763676e+00
 4.0045994178e-01	 2.3066695976e+00	 1.7638223057e+00
 6.0792211946e-01	 2.2700048692e+00	 1.6488622844e+00
 5.8728259661e-01	 2.2754319442e+00	 1.7149429788e+00
 5.6664583658e-01	 2.2806586340e+00	 1.7687462365e+00
 5.4601454229e-01	 2.2856857442e+00	 1.8102145353e+00
 5.2539138814e-01	 2.2905141251e+00	 1.8392707080e+00
 5.0477901924e-01	 2.2951446701e+00	 1.8558178309e+00
 4.8418005061e-01	 2.2995783156e+00	 1.8597394807e+00
 4.6359706640e-01	 2.3038160396e+00	 1.8509003221e+00
 4.4303261922e-01	 2.3078588604e+00	 1.8291469904e+00
 4.2248922945e-01	 2.3117078365e+00	 1.7943092384e+00
 4.0196938455e-01	 2.3153640646e+00	 1.7462013202e+00
 6.1020493726e-01	 2.2785289998e+00	 1.6537628144e+00
 5.8948791062e-01	 2.2839764541e+00	 1.7208755355e+00
 5.6877365718e-01	 2.2892227707e+00	 1.7744906174e+00
 5.4806488999e-01	 2.2942687583e+00	 1.8147126358e+00
 5.2736429351e-01	 2.2991152703e+00	 1.8416471787e+00
 5.0667452279e-01	 2.3037632036e+00	 1.8554002088e+00
 4.8599820264e-01	 2.3082134979e+00	 1.8560777660e+00
 4.6533792695e-01	 2.3124671350e+00	 1.8437859734e+00
 4.4469625790e-01	 2.3165251371e+00	 1.8186313111e+00
 4.2407572533e-01	 2.3203885665e+00	 1.7807211289e+00
 4.0347882604e-01	 2.3240585242e+00	 1.7301643726e+00
 6.1248775248e-01	 2.2870531207e+00	 1.6542257033e+00
 5.9169322214e-01	 2.2925209543e+00	 1.7214938710e+00
 5.7090147536e-01	 2.2977868977e+00	 1.7744433615e+00
 5.5011523536e-01	 2.3028517627e+00	 1.8133223939e+00
 5.2933719665e-01	 2.3077164057e+00	 1.8383968273e+00
 5.0857002419e-01	 2.3123817272e+00	 1.8499491075e+00
 4.8781635262e-01	 2.3168486704e+00	 1.8482775271e+00
 4.6707878553e-01	 2.3211182206e+00	 1.8336957638e+00
 4.4635989470e-01	 2.3251914040e+00	 1.8065326608e+00
 4.2566221941e-01	 2.3290692867e+00	 1.7671322234e+00
 4.0498826582e-01	 2.3327529740e+00	 1.7158538055e+00
 6.1477056446e-01	 2.2955772296e+00	 1.6509904735e+00
 5.9389853053e-01	 2.3010654424e+00	 1.7176970722e+00
 5.7302929053e-01	 2.3063510126e+00	 1.7696134059e+00
 5.5216557783e-01	 2.3114347549e+00	 1.8071132008e+00
 5.3131009699e-01	 2.3163175290e+00	 1.8306004554e+00
 5.1046552290e-01	 2.3210002387e+00	 1.8405080793e+00
 4.8963450003e-01	 2.3254838307e+00	 1.8372968233e+00
 4.6881964165e-01	 2.3297692940e+00	 1.8214544620e+00
 4.4802352914e-01	 2.3338576586e+00	 1.7934951976e+00
 4.2724871124e-01	 2.3377499946e+00	 1.7539592556e+00
 4.0649770346e-01	 2.3414474114e+00	 1.7034126500e+00
 6.1705337257e-01	 2.3041013239e+00	 1.6447870633e+00
 5.9610383517e-01	 2.3096099159e+00	 1.7103725332e+00
 5.7515710208e-01	 2.3149151129e+00	 1.7609966002e+00
 5.5421591682e-01	 2.3200177325e+00	 1.7971406748e+00
 5.3328299398e-01	 2.3249186377e+00	 1.8193251075e+00
 5.1236101839e-01	 2.3296187355e+00	 1.8281076303e+00
 4.9145264434e-01	 2.3341189763e+00	 1.8240820654e+00
 4.7056049481e-01	 2.3384203527e+00	 1.8078772668e+00
 4.4968716075e-01	 2.3425238984e+00	 1.7801562600e+00
 4.2883520038e-01	 2.3464306878e+00	 1.7416155539e+00
 4.0800713853e-01	 2.3501418341e+00	 1.6929846015e+00
 6.1933617614e-01	 2.3126254014e+00	 1.6363358858e+00
 5.9830913543e-01	 2.3181543725e+00	 1.7003960663e+00
 5.7728490941e-01	 2.3234791962e+00	 1.7495758568e+00
 5.5626625174e-01	 2.3286006931e+00	 1.7844468353e+00
 5.3525588706e-01	 2.3335197293e+00	 1.8056242567e+00
 5.1425651012e-01	 2.3382372152e+00	 1.8137654033e+00
 4.9327078505e-01	 2.3427541048e+00	 1.8095681842e+00
 4.7230134451e-01	 2.3470713942e+00	 1.7937699464e+00
 4.5135078906e-01	 2.3511901211e+00	 1.7671464646e+00
 4.3042168637e-01	 2.3551113637e+00	 1.7305110845e+00
 4.0951657061e-01	 2.3588362395e+00	 1.6847139956e+00
 6.2161897455e-01	 2.3211494595e+00	 1.6263478858e+00
 6.0051443070e-01	 2.3266988098e+00	 1.6886320097e+00
 5.7941271192e-01	 2.3320432601e+00	 1.7363212954e+00
 5.5831658201e-01	 2.3371836342e+00	 1.7700602724e+00
 5.3722877566e-01	 2.3421208014e+00	 1.7905379841e+00
 5.1615199756e-01	 2.3468556754e+00	 1.7984863557e+00
 4.9508892163e-01	 2.3513892137e+00	 1.7946787927e+00
 4.7404219027e-01	 2.3557224161e+00	 1.7799289728e+00
 4.5301441360e-01	 2.3598563242e+00	 1.7550897999e+00
 4.3200816876e-01	 2.3637920200e+00	 1.7210524922e+00
 4.1102599927e-01	 2.3675306252e+00	 1.6787457830e+00
 6.2390176713e-01	 2.3296734959e+00	 1.6155245917e+00
 6.0271972034e-01	 2.3352432252e+00	 1.6759333296e+00
 5.8154050900e-01	 2.3406073021e+00	 1.7221903822e+00
 5.6036690706e-01	 2.3457665534e+00	 1.7549963092e+00
 5.3920165923e-01	 2.3507218515e+00	 1.7750931534e+00
 5.1804748016e-01	 2.3554741136e+00	 1.7832629321e+00
 4.9690705358e-01	 2.3600243005e+00	 1.7803263438e+00
 4.7578303159e-01	 2.3643734159e+00	 1.7671416527e+00
 4.5467803390e-01	 2.3685225051e+00	 1.7446037176e+00
 4.3359464711e-01	 2.3724726541e+00	 1.7136431393e+00
 4.1253542408e-01	 2.3762249887e+00	 1.6752255046e+00
 3.9744105410e-01	 2.2892806513e+00	 1.8032505970e+00
 3.7717463691e-01	 2.2927068022e+00	 1.7659869913e+00
 3.5693633350e-01	 2.2959445909e+00	 1.7253630980e+00
 3.3672850860e-01	 2.2989952099e+00	 1.6839111955e+00
 3.1655349199e-01	 2.3018598858e+00	 1.6422740774e+00
 2.9641357803e-01	 2.3045398784e+00	 1.6011261496e+00
 2.7631102523e-01	 2.3070364800e+00	 1.5613120451e+00
 2.5624805578e-01	 2.3093510139e+00	 1.5238320544e+00
 2.3622685516e-01	 2.3114848338e+00	 1.4898282455e+00
 2.1624957181e-01	 2.3134393225e+00	 1.4605712339e+00
 1.9631831674e-01	 2.3152158911e+00	 1.4374475630e+00
 3.9895049815e-01	 2.2979751257e+00	 1.7828856972e+00
 3.7860711100e-01	 2.3014142887e+00	 1.7376988051e+00
 3.5829194440e-01	 2.3046643743e+00	 1.6915235522e+00
 3.3800737207e-01	 2.3077265793e+00	 1.6468291460e+00
 3.1775573262e-01	 2.3106021349e+00	 1.6041478399e+00
 2.9753932915e-01	 2.3132923059e+00	 1.5639379649e+00
 2.7736042873e-01	 2.3157983894e+00	 1.5267964637e+00
 2.5722126199e-01	 2.3181217137e+00	 1.4934453760e+00
 2.3712402272e-01	 2.3202636376e+00	 1.4647190417e+00
 2.1707086751e-01	 2.3222255493e+00	 1.4415519752e+00
 1.9706391539e-01	 2.3240088651e+00	 1.4249673684e+00
 4.0045994178e-01	 2.3066695976e+00	 1.7638223057e+00
 3.8003958468e-01	 2.3101217729e+00	 1.7131453391e+00
 3.5964755492e-01	 2.3133841553e+00	 1.6633310180e+00
 3.3928623517e-01	 2.3164579462e+00	 1.6167602208e+00
 3.1895797292e-01	 2.3193443816e+00	 1.5738881565e+00
 2.9866507996e-01	 2.3220447310e+00	 1.5349820623e+00
 2.7840983194e-01	 2.3245602962e+00	 1.5004196978e+00
 2.5819446793e-01	 2.3268924109e+00	 1.4706767809e+00
 2.3802119003e-01	 2.3290424389e+00	 1.4463151654e+00
 2.1789216298e-01	 2.3310117736e+00	 1.4279717098e+00
 1.9780951384e-01	 2.3328018366e+00	 1.4163477941e+00
 4.0196938455e-01	 2.3153640646e+00	 1.7462013202e+00
 3.8147205756e-01	 2.3188292521e+00	 1.6921821633e+00
 3.6100316467e-01	 2.3221039313e+00	 1.6404080867e+00
 3.4056509756e-01	 2.3251893082e+00	 1.5931459798e+00
 3.2016021254e-01	 2.3280866233e+00	 1.5508051764e+00
 2.9979083012e-01	 2.3307971510e+00	 1.5134863341e+00
 2.7945923455e-01	 2.3333221982e+00	 1.4813760442e+00
 2.5916767332e-01	 2.3356631032e+00	 1.4547351118e+00
 2.3891835683e-01	 2.3378212353e+00	 1.4338876001e+00
 2.1871345799e-01	 2.3397979929e+00	 1.4192105874e+00
 1.9855511186e-01	 2.3415948031e+00	 1.4111245859e+00
 4.0347882604e-01	 2.3240585242e+00	 1.7301643726e+00
 3.8290452922e-01	 2.3275367238e+00	 1.6746698199e+00
 3.6235877327e-01	 2.3308236998e+00	 1.6223851114e+00
 3.4184395885e-01	 2.3339206627e+00	 1.5754382399e+00
 3.2136245113e-01	 2.3368288576e+00	 1.5342210700e+00
 3.0091657933e-01	 2.3395495637e+00	 1.4986917357e+00
 2.8050863627e-01	 2.3420840926e+00	 1.4688731876e+00
 2.6014087788e-01	 2.3444337881e+00	 1.4448422137e+00
 2.3981552287e-01	 2.3466000241e+00	 1.4267192444e+00
 2.1953475230e-01	 2.3485842047e+00	 1.4146588896e+00
 1.9930070925e-01	 2.3503877622e+00	 1.4088411520e+00
 4.0498826582e-01	 2.3327529740e+00	 1.7158538055e+00
 3.8433699925e-01	 2.3362441858e+00	 1.6604737287e+00
 3.6371438034e-01	 2.3395434585e+00	 1.6089000997e+00
 3.4312281870e-01	 2.3426520073e+00	 1.5630989172e+00
 3.2256468836e-01	 2.3455710820e+00	 1.5234698365e+00
 3.0204232727e-01	 2.3483019664e+00	 1.4898520699e+00
 2.8155803680e-01	 2.3508459772e+00	 1.4621319756e+00
 2.6111408134e-01	 2.3532044630e+00	 1.4402327137e+00
 2.4071268789e-01	 2.3553788031e+00	 1.4241047084e+00
 2.2035604567e-01	 2.3573704066e+00	 1.4137168577e+00
 2.0004630580e-01	 2.3591807113e+00	 1.4090484344e+00
 4.0649770346e-01	 2.3414474114e+00	 1.7034126500e+00
 3.8576946725e-01	 2.3449516353e+00	 1.6494640931e+00
 3.6506998548e-01	 2.3482632049e+00	 1.5995986099e+00
 3.4440167673e-01	 2.3513833396e+00	 1.5555998742e+00
 3.2376692389e-01	 2.3543132940e+00	 1.5178971142e+00
 3.0316807361e-01	 2.3570543567e+00	 1.4862337760e+00
 2.8260743584e-01	 2.3596078493e+00	 1.4603861991e+00
 2.6208728342e-01	 2.3619751254e+00	 1.4401538058e+00
 2.4160985164e-01	 2.3641575696e+00	 1.4253501163e+00
 2.2117733789e-01	 2.3661565960e+00	 1.4157945252e+00
 2.0079190129e-01	 2.3679736479e+00	 1.4113047840e+00
 4.0800713853e-01	 2.3501418341e+00	 1.6929846015e+00
 3.8720193283e-01	 2.3536590701e+00	 1.6415158079e+00
 3.6642558832e-01	 2.3569829364e+00	 1.5941336488e+00
 3.4568053260e-01	 2.3601146570e+00	 1.5524227695e+00
 3.2496915738e-01	 2.3630554911e+00	 1.5168599964e+00
 3.0429381804e-01	 2.3658067321e+00	 1.4871157233e+00
 2.8365683310e-01	 2.3683697065e+00	 1.4628823770e+00
 2.6306048385e-01	 2.3707457730e+00	 1.4438650399e+00
 2.4250701387e-01	 2.3729363211e+00	 1.4297729122e+00
 2.2199862871e-01	 2.3749427705e+00	 1.4203115534e+00
 2.0153749551e-01	 2.3767665696e+00	 1.4151758387e+00
 4.0951657061e-01	 2.3588362395e+00	 1.6847139956e+00
 3.8863439555e-01	 2.3623664876e+00	 1.6365083674e+00
 3.6778118847e-01	 2.3657026506e+00	 1.5921655722e+00
 3.4695938592e-01	 2.3688459571e+00	 1.5530589114e+00
 3.2617138848e-01	 2.3717976709e+00	 1.5197268506e+00
 3.0541956023e-01	 2.3745590902e+00	 1.4917890093e+00
 2.8470622828e-01	 2.3771315464e+00	 1.4688795468e+00
 2.6403368235e-01	 2.3795164032e+00	 1.4506381158e+00
 2.4340417432e-01	 2.3817150553e+00	 1.4367016711e+00
 2.2281991790e-01	 2.3837289275e+00	 1.4266970711e+00
 2.0228308825e-01	 2.3855594738e+00	 1.4202344039e+00
 4.1102599927e-01	 2.3675306252e+00	 1.6787457830e+00
 3.9006685504e-01	 2.3710738854e+00	 1.6343257756e+00
 3.6913678555e-01	 2.3744223451e+00	 1.5933619874e+00
 3.4823823635e-01	 2.3775772374e+00	 1.5570091150e+00
 3.2737361686e-01	 2.3805398309e+00	 1.5258771423e+00
 3.0654529987e-01	 2.3833114284e+00	 1.4995567630e+00
 2.8575562108e-01	 2.3858933664e+00	 1.4776490585e+00
 2.6500687864e-01	 2.3882870135e+00	 1.4597566821e+00
 2.4430133273e-01	 2.3904937695e+00	 1.4454759138e+00
 2.2364120523e-01	 2.3925150647e+00	 1.4343895176e+00
 2.0302867931e-01	 2.3943523582e+00	 1.4260603351e+00
 4.1253542408e-01	 2.3762249887e+00	 1.6752255046e+00
 3.9149931087e-01	 2.3797812609e+00	 1.6348564560e+00
 3.7049237917e-01	 2.3831420173e+00	 1.5973976389e+00
 3.4951708351e-01	 2.3863084955e+00	 1.5637835617e+00
 3.2857584217e-01	 2.3892819685e+00	 1.5347012623e+00
 3.0767103664e-01	 2.3920637443e+00	 1.5097339522e+00
 2.8680501121e-01	 2.3946551640e+00	 1.4884743743e+00
 2.6598007245e-01	 2.3970576014e+00	 1.4705161395e+00
 2.4519848886e-01	 2.3992724614e+00	 1.4554459254e+00
 2.2446249046e-01	 2.4013011794e+00	 1.4428364892e+00
 2.0377426846e-01	 2.4031452201e+00	 1.4322404245e+00
 1.9631831674e-01	 2.3152158911e+00	 1.4374475630e+00
 1.7643853104e-01	 2.3168157204e+00	 1.4172397237e+00
 1.5660881852e-01	 2.3182405908e+00	 1.3949619352e+00
 1.3683113004e-01	 2.3194919904e+00	 1.3693860324e+00
 1.1710737926e-01	 2.3205714314e+00	 1.3392118377e+00
 9.7439442445e-02	 2.3214804490e+00	 1.3030640563e+00
 7.7829158300e-02	 2.3222206007e+00	 1.2594895433e+00
 5.8278327803e-02	 2.3227934648e+00	 1.2069548991e+00
 3.8788714106e-02	 2.3232006399e+00	 1.1438443504e+00
 1.9362042431e-02	 2.3234437436e+00	 1.0684578786e+00
 0.0000000000e+00	 2.3235244118e+00	 9.7900955746e-01
 1.9706391539e-01	 2.3240088651e+00	 1.4249673684e+00
 1.7710862812e-01	 2.3256147704e+00	 1.4104100143e+00
 1.5720360420e-01	 2.3270450523e+00	 1.3919509498e+00
 1.3735080190e-01	 2.3283012046e+00	 1.3685864040e+00
 1.1755214216e-01	 2.3293847452e+00	 1.3392654508e+00
 9.7809508360e-02	 2.3302972153e+00	 1.3028861184e+00
 7.8124746184e-02	 2.3310401780e+00	 1.2582918613e+00
 5.8499663457e-02	 2.3316152178e+00	 1.2042683529e+00
 3.8936030025e-02	 2.3320239393e+00	 1.1395405567e+00
 1.9435577662e-02	 2.3322679662e+00	 1.0627700362e+00
 0.0000000000e+00	 2.3323489408e+00	 9.7255246823e-01
 1.9780951384e-01	 2.3328018366e+00	 1.4163477941e+00
 1.7777872501e-01	 2.3344138179e+00	 1.4059378992e+00
 1.5779838972e-01	 2.3358495114e+00	 1.3902086362e+00
 1.3787047363e-01	 2.3371104164e+00	 1.3683504695e+00
 1.1799690494e-01	 2.3381980566e+00	 1.3395291384e+00
 9.8179574170e-02	 2.3391139790e+00	 1.3028810815e+00
 7.8420333985e-02	 2.3398597527e+00	 1.2575092173e+00
 5.8720999048e-02	 2.3404369682e+00	 1.2024790366e+00
 3.9083345902e-02	 2.3408472361e+00	 1.1368149659e+00
 1.9509112873e-02	 2.3410921864e+00	 1.0594969623e+00
 0.0000000000e+00	 2.3411734673e+00	 9.6945730386e-01
 1.9855511186e-01	 2.3415948031e+00	 1.4111245859e+00
 1.7844882153e-01	 2.3432128605e+00	 1.4035188329e+00
 1.5839317490e-01	 2.3446539654e+00	 1.3895527103e+00
 1.3839014506e-01	 2.3459196231e+00	 1.3685812087e+00
 1.1844166747e-01	 2.3470113629e+00	 1.3399546121e+00
 9.8549639771e-02	 2.3479307377e+00	 1.3030133400e+00
 7.8715921619e-02	 2.3486793225e+00	 1.2570831384e+00
 5.8942334515e-02	 2.3492587136e+00	 1.2014705739e+00
 3.9230661696e-02	 2.3496705279e+00	 1.1354587921e+00
 1.9582648042e-02	 2.3499164015e+00	 1.0583034984e+00
 0.0000000000e+00	 2.3499979888e+00	 9.6922912840e-01
 1.9930070925e-01	 2.3503877622e+00	 1.4088411520e+00
 1.7911891748e-01	 2.3520118955e+00	 1.4028534076e+00
 1.5898795958e-01	 2.3534584120e+00	 1.3898040677e+00
 1.3890981604e-01	 2.3547288224e+00	 1.3691833812e+00
 1.1888642962e-01	 2.3558246618e+00	 1.3404945145e+00
 9.8919705058e-02	 2.3567474889e+00	 1.3032479129e+00
 7.9011509003e-02	 2.3574988847e+00	 1.2569560031e+00
 5.9163669793e-02	 2.3580804516e+00	 1.2011281919e+00
 3.9377977365e-02	 2.3584938123e+00	 1.1352661201e+00
 1.9656183149e-02	 2.3587406091e+00	 1.0588591318e+00
 0.0000000000e+00	 2.3588225028e+00	 9.7137992380e-01
 2.0004630580e-01	 2.3591807113e+00	 1.4090484344e+00
 1.7978901266e-01	 2.3608109206e+00	 1.4036472699e+00
 1.5958274358e-01	 2.3622628486e+00	 1.3907867354e+00
 1.3942948644e-01	 2.3635380116e+00	 1.3700635032e+00
 1.1933119126e-01	 2.3646379507e+00	 1.3411024099e+00
 9.9289769926e-02	 2.3655642302e+00	 1.3035504380e+00
 7.9307096051e-02	 2.3663184370e+00	 1.2570710303e+00
 5.9385004822e-02	 2.3669021795e+00	 1.2013386949e+00
 3.9525292868e-02	 2.3673170866e+00	 1.1360338554e+00
 1.9729718173e-02	 2.3675648068e+00	 1.0608379101e+00
 0.0000000000e+00	 2.3676470068e+00	 9.7542846105e-01
 2.0079190129e-01	 2.3679736479e+00	 1.4113047840e+00
 1.8045910690e-01	 2.3696099332e+00	 1.4056110405e+00
 1.6017752674e-01	 2.3710672727e+00	 1.3923278245e+00
 1.3994915611e-01	 2.3723471884e+00	 1.3711298236e+00
 1.1977595228e-01	 2.3734512271e+00	 1.3417327751e+00
 9.9659834270e-02	 2.3743809589e+00	 1.3038871674e+00
 7.9602682682e-02	 2.3751379767e+00	 1.2573722691e+00
 5.9606339536e-02	 2.3757238949e+00	 1.2019904386e+00
 3.9672608162e-02	 2.3761403485e+00	 1.1375616735e+00
 1.9803253093e-02	 2.3763889919e+00	 1.0639183583e+00
 0.0000000000e+00	 2.3764714982e+00	 9.8090017423e-01
 2.0153749551e-01	 2.3767665696e+00	 1.4151758387e+00
 1.8112920000e-01	 2.3784089309e+00	 1.4084602346e+00
 1.6077230889e-01	 2.3798716818e+00	 1.3942574846e+00
 1.4046882489e-01	 2.3811563502e+00	 1.3722923020e+00
 1.2022071254e-01	 2.3822644885e+00	 1.3423409897e+00
 1.0002989798e-01	 2.3831976727e+00	 1.3042249621e+00
 7.9898268809e-02	 2.3839575015e+00	 1.2578045877e+00
 5.9827673875e-02	 2.3845455954e+00	 1.2029733054e+00
 3.9819923205e-02	 2.3849635953e+00	 1.1396519715e+00
 1.9876787888e-02	 2.3852131620e+00	 1.0677833970e+00
 0.0000000000e+00	 2.3852959747e+00	 9.8732703727e-01
 2.0228308825e-01	 2.3855594738e+00	 1.4202344039e+00
 1.8179929177e-01	 2.3872079111e+00	 1.4119151849e+00
 1.6136708986e-01	 2.3886760735e+00	 1.3964088586e+00
 1.4098849264e-01	 2.3899654946e+00	 1.3734625861e+00
 1.2066547192e-01	 2.3910777324e+00	 1.3428833281e+00
 1.0039996097e-01	 2.3920143689e+00	 1.3045312873e+00
 8.0193854351e-02	 2.3927770088e+00	 1.2583136643e+00
 6.0049007775e-02	 2.3933672783e+00	 1.2041786799e+00
 3.9967237957e-02	 2.3937868247e+00	 1.1421098202e+00
 1.9950322536e-02	 2.3940373146e+00	 1.0721202624e+00
 0.0000000000e+00	 2.3941204337e+00	 9.9424744350e-01
 2.0302867931e-01	 2.3943523582e+00	 1.4260603351e+00
 1.8246938203e-01	 2.3960068713e+00	 1.4157009655e+00
 1.6196186948e-01	 2.3974804453e+00	 1.3986180390e+00
 1.4150815921e-01	 2.3987746190e+00	 1.3745539903e+00
 1.2111023029e-01	 2.3998909564e+00	 1.3433169504e+00
 1.0077002311e-01	 2.4008310452e+00	 1.3047742076e+00
 8.0489439222e-02	 2.4015964960e+00	 1.2588459763e+00
 6.0270341172e-02	 2.4021889412e+00	 1.2054994247e+00
 4.0114552374e-02	 2.4026100340e+00	 1.1447429174e+00
 2.0023857018e-02	 2.4028614472e+00	 1.0766204286e+00
 0.0000000000e+00	 2.4029448727e+00	 1.0012060878e+00
 2.0377426846e-01	 2.4031452201e+00	 1.4322404245e+00
 1.8313947057e-01	 2.4048058091e+00	 1.4195473187e+00
 1.6255664758e-01	 2.4062847945e+00	 1.4007240246e+00
 1.4202782445e-01	 2.4075837209e+00	 1.3754814743e+00
 1.2155498752e-01	 2.4087041578e+00	 1.3435998939e+00
 1.0114008431e-01	 2.4096476990e+00	 1.3049223822e+00
 8.0785023340e-02	 2.4104159608e+00	 1.2593487909e+00
 6.0491674005e-02	 2.4110105817e+00	 1.2068298574e+00
 4.0261866415e-02	 2.4114332208e+00	 1.1473615425e+00
 2.0097391313e-02	 2.4116855573e+00	 1.0809795308e+00
 0.0000000000e+00	 2.4117692892e+00	 1.0077538514e+00
 2.4117692892e+00	 0.0000000000e+00	 1.2309576165e+01
 2.4116855573e+00	 2.0097391313e-02	 1.1814066439e+01
 2.4114332208e+00	 4.0261866415e-02	 1.1270119567e+01
 2.4110105817e+00	 6.0491674005e-02	 1.0666535603e+01
 2.4104159608e+00	 8.0785023340e-02	 9.9927294961e+00
 2.4096476990e+00	 1.0114008431e-01	 9.2386997724e+00
 2.4087041578e+00	 1.2155498752e-01	 8.3949957908e+00
 2.4075837209e+00	 1.4202782445e-01	 7.4526834932e+00
 2.4062847945e+00	 1.6255664758e-01	 6.4033095504e+00
 2.4048058091e+00	 1.8313947057e-01	 5.2388637966e+00
 2.4031452201e+00	 2.0377426846e-01	 3.9517398375e+00
 2.4205921840e+00	 0.0000000000e+00	 7.4840420565e+00
 2.4205081459e+00	 2.0170912927e-02	 7.1725132846e+00
 2.4202548862e+00	 4.0409155054e-02	 6.8877707286e+00
 2.4198307010e+00	 6.0712968673e-02	 6.6009633219e+00
 2.4192339048e+00	 8.1080556488e-02	 6.2848058524e+00
 2.4184628325e+00	 1.0151008169e-01	 5.9135917013e+00
 2.4175158396e+00	 1.2199966806e-01	 5.4632040968e+00
 2.4163913038e+00	 1.4254740009e-01	 4.9111257304e+00
 2.4150876256e+00	 1.6315132313e-01	 4.2364465663e+00
 2.4136032297e+00	 1.8380944356e-01	 3.4198696631e+00
 2.4119365657e+00	 2.0451972904e-01	 2.4437148138e+00
 2.4294150713e+00	 0.0000000000e+00	 3.7945778269e+00
 2.4293307269e+00	 2.0244434479e-02	 3.7487529056e+00
 2.4290765441e+00	 4.0556443568e-02	 3.7405840767e+00
 2.4286508127e+00	 6.0934263151e-02	 3.7351928816e+00
 2.4280518413e+00	 8.1376089384e-02	 3.7001450453e+00
 2.4272779585e+00	 1.0188007876e-01	 3.6054911496e+00
 2.4263275139e+00	 1.2244434823e-01	 3.4238054518e+00
 2.4251988792e+00	 1.4306697529e-01	 3.1302226379e+00
 2.4238904492e+00	 1.6374599816e-01	 2.7024722872e+00
 2.4224006428e+00	 1.8447941599e-01	 2.1209108087e+00
 2.4207279040e+00	 2.0526518900e-01	 1.3685505971e+00
 2.4382379687e+00	 0.0000000000e+00	 1.1868483364e+00
 2.4381533179e+00	 2.0317956114e-02	 1.5113233980e+00
 2.4378982120e+00	 4.0703732248e-02	 1.8169890652e+00
 2.4374709345e+00	 6.1155557880e-02	 2.0744283937e+00
 2.4368697878e+00	 8.1671622614e-02	 2.2574746724e+00
 2.4360930945e+00	 1.0225007625e-01	 2.3432640115e+00
 2.4351391981e+00	 1.2288902890e-01	 2.3122853955e+00
 2.4340064646e+00	 1.4358655107e-01	 2.1484279486e+00
 2.4326932828e+00	 1.6434067388e-01	 1.8390251519e+00
 2.4311980659e+00	 1.8514938917e-01	 1.3748957308e+00
 2.4295192521e+00	 2.0601064979e-01	 7.5038091980e-01
 2.4470608935e+00	 0.0000000000e+00	-3.9270775101e-01
 2.4469759364e+00	 2.0391477977e-02	 4.2920422191e-01
 2.4467199074e+00	 4.0851021386e-02	 1.1055680937e+00
 2.4462910838e+00	 6.1376853298e-02	 1.6237843231e+00
 2.4456877618e+00	 8.1967156765e-02	 1.9752377201e+00
 2.4449082579e+00	 1.0262007490e-01	 2.1553460288e+00
 2.4439509099e+00	 1.2333371095e-01	 2.1636049847e+00
 2.4428140775e+00	 1.4410612847e-01	 2.0036295723e+00
 2.4414961438e+00	 1.6493535144e-01	 1.6831911962e+00
 2.4399955163e+00	 1.8581936445e-01	 1.2142504622e+00
 2.4383106277e+00	 2.0675611291e-01	 6.1298525395e-01
 2.4558838633e+00	 0.0000000000e+00	-9.9689206654e-01
 2.4557985999e+00	 2.0465000216e-02	 4.7180803650e-01
 2.4555416478e+00	 4.0998311275e-02	 1.5950535025e+00
 2.4551112780e+00	 6.1598149844e-02	 2.3882868351e+00
 2.4545057808e+00	 8.2262692423e-02	 2.8715974194e+00
 2.4537234664e+00	 1.0299007542e-01	 3.0697502764e+00
 2.4527626665e+00	 1.2377839527e-01	 3.0122099965e+00
 2.4516217353e+00	 1.4462570852e-01	 2.7331595697e+00
 2.4502990498e+00	 1.6553003204e-01	 2.2715138162e+00
 2.4487930117e+00	 1.8648934314e-01	 1.6709271103e+00
 2.4471020481e+00	 2.0750157984e-01	 9.7979507602e-01
 2.4647068957e+00	 0.0000000000e+00	-6.7776032427e-01
 2.4646213259e+00	 2.0538522974e-02	 1.6089727149e+00
 2.4643634507e+00	 4.1145602207e-02	 3.2743246338e+00
 2.4639315348e+00	 6.1819447957e-02	 4.3728751125e+00
 2.4633238622e+00	 8.2558230173e-02	 4.9644419939e+00
 2.4625387372e+00	 1.0336007857e-01	 5.1140744833e+00
 2.4615744856e+00	 1.2422308274e-01	 4.8920399292e+00
 2.4604294554e+00	 1.4514529225e-01	 4.3738039071e+00
 2.4591020180e+00	 1.6612471684e-01	 3.6400033182e+00
 2.4575905694e+00	 1.8715932657e-01	 2.7764122074e+00
 2.4558935309e+00	 2.0824705204e-01	 1.8738999935e+00
 2.4735300080e+00	 0.0000000000e+00	 5.1336419333e-01
 2.4734441320e+00	 2.0612046399e-02	 3.8109535351e+00
 2.4731853336e+00	 4.1292894474e-02	 6.1324049585e+00
 2.4727518715e+00	 6.2040748075e-02	 7.5824026451e+00
 2.4721420236e+00	 8.2853770602e-02	 8.2713893051e+00
 2.4713540880e+00	 1.0373008508e-01	 8.3155081937e+00
 2.4703863846e+00	 1.2466777424e-01	 7.8365368065e+00
 2.4692372555e+00	 1.4566488070e-01	 6.9618119980e+00
 2.4679050661e+00	 1.6671940704e-01	 5.8241462580e+00
 2.4663882068e+00	 1.8782931608e-01	 4.5617348787e+00
 2.4646850933e+00	 2.0899253100e-01	 3.3180537375e+00
 2.4823532178e+00	 0.0000000000e+00	 2.5258774450e+00
 2.4822670355e+00	 2.0685570636e-02	 7.0484155411e+00
 2.4820073140e+00	 4.1440188367e-02	 1.0158459266e+01
 2.4815723057e+00	 6.2262050637e-02	 1.2021638491e+01
 2.4809602824e+00	 8.3149314295e-02	 1.2809791396e+01
 2.4801695363e+00	 1.0410009566e-01	 1.2700839772e+01
 2.4791983810e+00	 1.2511247065e-01	 1.1878653790e+01
 2.4780451528e+00	 1.4618447488e-01	 1.0532906036e+01
 2.4767082115e+00	 1.6731410382e-01	 8.8589145783e+00
 2.4751859415e+00	 1.8849931299e-01	 7.0574748327e+00
 2.4734767528e+00	 2.0973801820e-01	 5.3346800252e+00
 2.4911765427e+00	 0.0000000000e+00	 5.3098817278e+00
 2.4910900540e+00	 2.0759095830e-02	 1.1292426071e+01
 2.4908294093e+00	 4.1587484179e-02	 1.5341790915e+01
 2.4903928548e+00	 6.2483356083e-02	 1.7695268509e+01
 2.4897786561e+00	 8.3444861838e-02	 1.8596738938e+01
 2.4889850994e+00	 1.0447011108e-01	 1.8296463255e+01
 2.4880104922e+00	 1.2555717286e-01	 1.7050863602e+01
 2.4868531650e+00	 1.4670407583e-01	 1.5122290127e+01
 2.4855114716e+00	 1.6790880834e-01	 1.2778774546e+01
 2.4839837908e+00	 1.8916931864e-01	 1.0293770177e+01
 2.4822685270e+00	 2.1048351511e-01	 7.9458782945e+00
 2.5000000000e+00	 0.0000000000e+00	 8.8161730540e+00
 2.4999132050e+00	 2.0832622128e-02	 1.6514447450e+01
 2.4996516371e+00	 4.1734782201e-02	 2.1671839146e+01
 2.4992135364e+00	 6.2704664850e-02	 2.4607896572e+01
 2.4985971623e+00	 8.3740413818e-02	 2.5649065576e+01
 2.4978007949e+00	 1.0484013204e-01	 2.5128385058e+01
 2.4968227358e+00	 1.2600188175e-01	 2.3385166773e+01
 2.4956613094e+00	 1.4722368459e-01	 2.0764659219e+01
 2.4943148639e+00	 1.6850352179e-01	 1.7617695498e+01
 2.4927817722e+00	 1.8983933434e-01	 1.4300325067e+01
 2.4910604332e+00	 2.1122902322e-01	 1.1173429315e+01
 2.4031452201e+00	 2.0377426846e-01	 3.9517398375e+00
 2.4013011794e+00	 2.2446249046e-01	 2.7317261036e+00
 2.3992724614e+00	 2.4519848886e-01	 1.7603190773e+00
 2.3970576014e+00	 2.6598007245e-01	 1.0170899926e+00
 2.3946551640e+00	 2.8680501121e-01	 4.8161305040e-01
 2.3920637443e+00	 3.0767103664e-01	 1.3342341820e-01
 2.3892819685e+00	 3.2857584217e-01	-4.8027109771e-02
 2.3863084955e+00	 3.4951708351e-01	-8.3416974396e-02
 2.3831420173e+00	 3.7049237917e-01	 6.3955006419e-03
 2.3797812609e+00	 3.9149931087e-01	 1.9768923337e-01
 2.3762249887e+00	 4.1253542408e-01	 4.7261415918e-01
 2.4119365657e+00	 2.0451972904e-01	 2.4437148138e+00
 2.4100857791e+00	 2.2528363408e-01	 1.4859297840e+00
 2.4080496395e+00	 2.4609549028e-01	 7.2792934592e-01
 2.4058266769e+00	 2.6695309844e-01	 1.5763213327e-01
 2.4034154508e+00	 2.8785422038e-01	-2.3745570311e-01
 2.4008145510e+00	 3.0879657930e-01	-4.7030142797e-01
 2.3980225988e+00	 3.2977786017e-01	-5.5440889876e-01
 2.3950382479e+00	 3.5079571016e-01	-5.0388414326e-01
 2.3918601860e+00	 3.7184773904e-01	-3.3351735136e-01
 2.3884871350e+00	 3.9293151969e-01	-6.0515816206e-02
 2.3849178530e+00	 4.1404458862e-01	 3.0373970802e-01
 2.4207279040e+00	 2.0526518900e-01	 1.3685505971e+00
 2.4188703713e+00	 2.2610477700e-01	 6.0958833501e-01
 2.4168268101e+00	 2.4699249095e-01	 1.4605317862e-02
 2.4145957450e+00	 2.6792612361e-01	-4.2274888538e-01
 2.4121757302e+00	 2.8890342866e-01	-7.0957380225e-01
 2.4095653503e+00	 3.0992212099e-01	-8.5379295655e-01
 2.4067632215e+00	 3.3097987716e-01	-8.6423090346e-01
 2.4037679930e+00	 3.5207433572e-01	-7.5069253889e-01
 2.4005783472e+00	 3.7320309775e-01	-5.2407675772e-01
 2.3971930017e+00	 3.9436372730e-01	-1.9687951435e-01
 2.3936107099e+00	 4.1555375187e-01	 2.2367902238e-01
 2.4295192521e+00	 2.0601064979e-01	 7.5038091980e-01
 2.4276549735e+00	 2.2692592085e-01	 1.1666241379e-01
 2.4256039907e+00	 2.4788949262e-01	-3.7450670792e-01
 2.4233648231e+00	 2.6889914988e-01	-7.2633192748e-01
 2.4209360195e+00	 2.8995263813e-01	-9.4302614729e-01
 2.4183161594e+00	 3.1104766397e-01	-1.0298936212e+00
 2.4155038542e+00	 3.3218189550e-01	-9.9341589942e-01
 2.4124977479e+00	 3.5335296273e-01	-8.4133991533e-01
 2.4092965183e+00	 3.7455845801e-01	-5.8279623102e-01
 2.4058988783e+00	 3.9579593653e-01	-2.2741449129e-01
 2.4023035767e+00	 4.1706291683e-01	 2.1950349022e-01
 2.4383106277e+00	 2.0675611291e-01	 6.1298525395e-01
 2.4364396031e+00	 2.2774706725e-01	 2.0906616175e-02
 2.4343811987e+00	 2.4878649710e-01	-4.3433806198e-01
 2.4321339285e+00	 2.6987217919e-01	-7.5536523613e-01
 2.4296963361e+00	 2.9100185087e-01	-9.4597935545e-01
 2.4270669959e+00	 3.1217321045e-01	-1.0112609196e+00
 2.4242445142e+00	 3.3338391759e-01	-9.5765641468e-01
 2.4212275301e+00	 3.5463159372e-01	-7.9307025345e-01
 2.4180147166e+00	 3.7591382248e-01	-5.2693629140e-01
 2.4146047820e+00	 3.9722815022e-01	-1.6790190153e-01
 2.4109964706e+00	 4.1857208649e-01	 2.7847157355e-01
 2.4471020481e+00	 2.0750157984e-01	 9.7979507602e-01
 2.4452242775e+00	 2.2856821785e-01	 3.3587310389e-01
 2.4431584514e+00	 2.4968350615e-01	-1.5989636249e-01
 2.4409030786e+00	 2.7084521345e-01	-5.1206701727e-01
 2.4384566973e+00	 2.9205106896e-01	-7.2648390358e-01
 2.4358178770e+00	 3.1329876267e-01	-8.1037071980e-01
 2.4329852187e+00	 3.3458594582e-01	-7.7241885749e-01
 2.4299573567e+00	 3.5591023124e-01	-6.2287830029e-01
 2.4267329594e+00	 3.7726919388e-01	-3.7350904506e-01
 2.4233107301e+00	 3.9866037122e-01	-3.3895615864e-02
 2.4196894088e+00	 4.2008126385e-01	 3.8802541322e-01
 2.4558935309e+00	 2.0824705204e-01	 1.8738999935e+00
 2.4540090141e+00	 2.2938937426e-01	 1.0749151524e+00
 2.4519357663e+00	 2.5058052155e-01	 4.5373579748e-01
 2.4496722908e+00	 2.7181825461e-01	 1.3739894640e-03
 2.4472171207e+00	 2.9310029448e-01	-2.9247622328e-01
 2.4445688201e+00	 3.1442432287e-01	-4.3952051307e-01
 2.4417259852e+00	 3.3578798255e-01	-4.5294755286e-01
 2.4386872453e+00	 3.5718887781e-01	-3.4751400828e-01
 2.4354512639e+00	 3.7862457487e-01	-1.3928266211e-01
 2.4320167399e+00	 4.0009260236e-01	 1.5927367854e-01
 2.4283824086e+00	 4.2159045190e-01	 5.3578750816e-01
 2.4646850933e+00	 2.0899253100e-01	 3.3180537375e+00
 2.4627938304e+00	 2.3021053812e-01	 2.2511906213e+00
 2.4607131608e+00	 2.5147754509e-01	 1.4114021342e+00
 2.4584415825e+00	 2.7279130460e-01	 7.8279795276e-01
 2.4559776234e+00	 2.9414952952e-01	 3.4821925026e-01
 2.4533198425e+00	 3.1554989327e-01	 8.9167405004e-02
 2.4504668309e+00	 3.3699003019e-01	-1.4268690213e-02
 2.4474172129e+00	 3.5846753598e-01	 1.6513123378e-02
 2.4441696475e+00	 3.7997996815e-01	 1.5921424344e-01
 2.4407228286e+00	 4.0152484649e-01	 3.9649446772e-01
 2.4370754872e+00	 4.2309965364e-01	 7.0955746710e-01
 2.4734767528e+00	 2.0973801820e-01	 5.3346800252e+00
 2.4715787437e+00	 2.3103171105e-01	 3.8776653490e+00
 2.4694906523e+00	 2.5237457853e-01	 2.7178739297e+00
 2.4672109712e+00	 2.7376436533e-01	 1.8300734042e+00
 2.4647382230e+00	 2.9519877615e-01	 1.1878880745e+00
 2.4620709616e+00	 3.1667547611e-01	 7.6374282326e-01
 2.4592077732e+00	 3.3819209111e-01	 5.2880581564e-01
 2.4561472771e+00	 3.5974620828e-01	 4.5292980254e-01
 2.4528881274e+00	 3.8133537641e-01	 5.0568832927e-01
 2.4494290136e+00	 4.0295710645e-01	 6.6287048789e-01
 2.4457686619e+00	 4.2460887205e-01	 8.9730883088e-01
 2.4822685270e+00	 2.1048351511e-01	 7.9458782945e+00
 2.4803637715e+00	 2.3185289468e-01	 5.9671164742e+00
 2.4782682582e+00	 2.5327162367e-01	 4.3778512614e+00
 2.4759804741e+00	 2.7473743875e-01	 3.1410967049e+00
 2.4734989368e+00	 2.9624803646e-01	 2.2189238396e+00
 2.4708221948e+00	 3.1780107362e-01	 1.5724245717e+00
 2.4679488294e+00	 3.3939416770e-01	 1.1616745479e+00
 2.4648774550e+00	 3.6102489724e-01	 9.4569479073e-01
 2.4616067209e+00	 3.8269080233e-01	 8.8407733331e-01
 2.4581353120e+00	 4.0438938508e-01	 9.4371688740e-01
 2.4544619498e+00	 4.2611811014e-01	 1.0871859636e+00
 2.4910604332e+00	 2.1122902322e-01	 1.1173429315e+01
 2.4891489313e+00	 2.3267409065e-01	 8.5321356853e+00
 2.4870459959e+00	 2.5416868228e-01	 6.3959642050e+00
 2.4847501087e+00	 2.7571052678e-01	 4.7137915244e+00
 2.4822597821e+00	 2.9729731252e-01	 3.4338262518e+00
 2.4795735594e+00	 3.1892668803e-01	 2.5035975448e+00
 2.4766900169e+00	 3.4059626234e-01	 1.8699428932e+00
 2.4736077640e+00	 3.6230360541e-01	 1.4789948403e+00
 2.4703254454e+00	 3.8404624861e-01	 1.2785459731e+00
 2.4668417411e+00	 4.0582168521e-01	 1.2245564719e+00
 2.4631553684e+00	 4.2762737088e-01	 1.2675010111e+00
 2.3762249887e+00	 4.1253542408e-01	 4.7261415918e-01
 2.3724726541e+00	 4.3359464711e-01	 7.7362430774e-01
 2.3685225051e+00	 4.5467803390e-01	 1.0520634671e+00
 2.3643734159e+00	 4.7578303159e-01	 1.3086667642e+00
 2.3600243005e+00	 4.9690705358e-01	 1.5438411740e+00
 2.3554741136e+00	 5.1804748016e-01	 1.7576668376e+00
 2.3507218515e+00	 5.3920165923e-01	 1.9498964048e+00
 2.3457665534e+00	 5.6036690706e-01	 2.1199522015e+00
 2.3406073021e+00	 5.8154050900e-01	 2.2669210220e+00
 2.3352432252e+00	 6.0271972034e-01	 2.3895463608e+00
 2.3296734959e+00	 6.2390176713e-01	 2.4862178998e+00
 2.3849178530e+00	 4.1404458862e-01	 3.0373970802e-01
 2.3811517914e+00	 4.3518085189e-01	 7.0224243828e-01
 2.3771871917e+00	 4.5634136733e-01	 1.0809368521e+00
 2.3730229240e+00	 4.7752357273e-01	 1.4360957719e+00
 2.3686578984e+00	 4.9872487202e-01	 1.7638673272e+00
 2.3640910657e+00	 5.1994263591e-01	 2.0602862164e+00
 2.3593214186e+00	 5.4117420261e-01	 2.3212828692e+00
 2.3543479926e+00	 5.6241687855e-01	 2.5426902842e+00
 2.3491698675e+00	 5.8366793917e-01	 2.7202483244e+00
 2.3437861673e+00	 6.0492462972e-01	 2.8496052571e+00
 2.3381960624e+00	 6.2618416607e-01	 2.9263163378e+00
 2.3936107099e+00	 4.1555375187e-01	 2.2367902238e-01
 2.3898309212e+00	 4.3676705532e-01	 6.8402492595e-01
 2.3858518709e+00	 4.5800469934e-01	 1.1293761603e+00
 2.3816724248e+00	 4.7926411239e-01	 1.5523250825e+00
 2.3772914890e+00	 5.0054268891e-01	 1.9455065848e+00
 2.3727080104e+00	 5.2183779006e-01	 2.3016176871e+00
 2.3679209783e+00	 5.4314674432e-01	 2.6134349167e+00
 2.3629294246e+00	 5.6446684831e-01	 2.8738292342e+00
 2.3577324255e+00	 5.8579536754e-01	 3.0757782645e+00
 2.3523291022e+00	 6.0712953722e-01	 3.2123756045e+00
 2.3467186217e+00	 6.2846656308e-01	 3.2768369840e+00
 2.4023035767e+00	 4.1706291683e-01	 2.1950349022e-01
 2.3985100610e+00	 4.3835326056e-01	 7.0967098518e-01
 2.3945165599e+00	 4.5966803325e-01	 1.1911912084e+00
 2.3903219353e+00	 4.8100465402e-01	 1.6537490558e+00
 2.3859250893e+00	 5.0236050787e-01	 2.0872032178e+00
 2.3813249650e+00	 5.2373294635e-01	 2.4816124977e+00
 2.3765205478e+00	 5.4511928825e-01	 2.8272598200e+00
 2.3715108663e+00	 5.6651682039e-01	 3.1146736688e+00
 2.3662949932e+00	 5.8792279832e-01	 3.3346467013e+00
 2.3608720467e+00	 6.0933444722e-01	 3.4782512901e+00
 2.3552411907e+00	 6.3074896268e-01	 3.5368517530e+00
 2.4109964706e+00	 4.1857208649e-01	 2.7847157355e-01
 2.4071892278e+00	 4.3993947073e-01	 7.7001462098e-01
 2.4031812759e+00	 4.6133137233e-01	 1.2602817345e+00
 2.3989714728e+00	 4.8274520107e-01	 1.7368146360e+00
 2.3945587165e+00	 5.0417833249e-01	 2.1874243900e+00
 2.3899419463e+00	 5.2562810855e-01	 2.6002228548e+00
 2.3851201440e+00	 5.4709183834e-01	 2.9636517389e+00
 2.3800923347e+00	 5.6856679885e-01	 3.2665089887e+00
 2.3748575877e+00	 5.9005023573e-01	 3.4979722410e+00
 2.3694150178e+00	 6.1153936410e-01	 3.6476190753e+00
 2.3637637862e+00	 6.3303136939e-01	 3.7054438167e+00
 2.4196894088e+00	 4.2008126385e-01	 3.8802541322e-01
 2.4158684388e+00	 4.4152568900e-01	 8.5602217171e-01
 2.4118460362e+00	 4.6299471990e-01	 1.3306357455e+00
 2.4076210544e+00	 4.8448575701e-01	 1.7980203670e+00
 2.4031923878e+00	 5.0599616639e-01	 2.2446597034e+00
 2.3985589717e+00	 5.2752328041e-01	 2.6574018570e+00
 2.3937197842e+00	 5.4906439849e-01	 3.0234919003e+00
 2.3886738469e+00	 5.7061678778e-01	 3.3306016604e+00
 2.3834202258e+00	 5.9217768399e-01	 3.5668564743e+00
 2.3779580325e+00	 6.1374429222e-01	 3.7208586408e+00
 2.3722864252e+00	 6.3531378774e-01	 3.7817073061e+00
 2.4283824086e+00	 4.2159045190e-01	 5.3578750816e-01
 2.4245477113e+00	 4.4311191851e-01	 9.5878990563e-01
 2.4205108578e+00	 4.6465807926e-01	 1.3963278996e+00
 2.4162706973e+00	 4.8622632527e-01	 1.8339154280e+00
 2.4118261202e+00	 5.0781401316e-01	 2.2574207513e+00
 2.4071760580e+00	 5.2941846571e-01	 2.6531034291e+00
 2.4023194852e+00	 5.5103697261e-01	 3.0076487743e+00
 2.3972554198e+00	 5.7266679123e-01	 3.3081994909e+00
 2.3919829245e+00	 5.9430514733e-01	 3.5423842082e+00
 2.3865011078e+00	 6.1594923596e-01	 3.6983426287e+00
 2.3808091246e+00	 6.3759622226e-01	 3.7647470184e+00
 2.4370754872e+00	 4.2309965364e-01	 7.0955746710e-01
 2.4332270626e+00	 4.4469816239e-01	 1.0695416696e+00
 2.4291757579e+00	 4.6632145369e-01	 1.4515179243e+00
 2.4249204187e+00	 4.8796690932e-01	 1.8410986904e+00
 2.4204599309e+00	 5.0963187641e-01	 2.2242406820e+00
 2.4157932225e+00	 5.3131366818e-01	 2.5872822576e+00
 2.4109192643e+00	 5.5300956462e-01	 2.9169782443e+00
 2.4058370706e+00	 5.7471681326e-01	 3.2005318961e+00
 2.4005457009e+00	 5.9643262995e-01	 3.4256236911e+00
 2.3950442605e+00	 6.1815419969e-01	 3.5804366836e+00
 2.3893319012e+00	 6.3987867747e-01	 3.6536781293e+00
 2.4457686619e+00	 4.2460887205e-01	 8.9730883088e-01
 2.4419065097e+00	 4.4628442381e-01	 1.1796265892e+00
 2.4378407539e+00	 4.6798484651e-01	 1.4904490685e+00
 2.4335702356e+00	 4.8970751260e-01	 1.8162177947e+00
 2.4290938370e+00	 5.1144975975e-01	 2.1436737706e+00
 2.4244104823e+00	 5.3320889160e-01	 2.4598937264e+00
 2.4195191383e+00	 5.5498217842e-01	 2.7523237741e+00
 2.4144188162e+00	 5.7676685794e-01	 3.0088101621e+00
 2.4091085720e+00	 5.9856013608e-01	 3.2176268324e+00
 2.4035875076e+00	 6.2035918778e-01	 3.3674994911e+00
 2.3978547720e+00	 6.4216115791e-01	 3.4476259107e+00
 2.4544619498e+00	 4.2611811014e-01	 1.0871859636e+00
 2.4505860700e+00	 4.4787070589e-01	 1.2805168175e+00
 2.4465058627e+00	 4.6964826100e-01	 1.5074465874e+00
 2.4422201652e+00	 4.9144813856e-01	 1.7559682465e+00
 2.4377278557e+00	 5.1326766678e-01	 2.0142950000e+00
 2.4330278543e+00	 5.3510413971e-01	 2.2708938537e+00
 2.4281191245e+00	 5.5695481794e-01	 2.5145165691e+00
 2.4230006737e+00	 5.7881692935e-01	 2.7342277004e+00
 2.4176715546e+00	 6.0068766994e-01	 2.9194294163e+00
 2.4121308660e+00	 6.2256420462e-01	 3.0598828149e+00
 2.4063777539e+00	 6.4444366809e-01	 3.1457254525e+00
 2.4631553684e+00	 4.2762737088e-01	 1.2675010111e+00
 2.4592657606e+00	 4.4945701180e-01	 1.3638053338e+00
 2.4551711017e+00	 4.7131170048e-01	 1.4969162607e+00
 2.4508702248e+00	 4.9318879066e-01	 1.6570925322e+00
 2.4463620040e+00	 5.1508560111e-01	 1.8346996499e+00
 2.4416453558e+00	 5.3699941629e-01	 2.0202392289e+00
 2.4367192398e+00	 5.5892748707e-01	 2.2043757343e+00
 2.4315826600e+00	 5.8086703153e-01	 2.3779602961e+00
 2.4262346658e+00	 6.0281523574e-01	 2.5320513097e+00
 2.4206743528e+00	 6.2476925456e-01	 2.6579315312e+00
 2.4149008638e+00	 6.4672621255e-01	 2.7471213906e+00
 2.3296734959e+00	 6.2390176713e-01	 2.4862178998e+00
 2.3238973344e+00	 6.4508384729e-01	 2.5862496704e+00
 2.3179140106e+00	 6.6626313250e-01	 2.7105720409e+00
 2.3117228432e+00	 6.8743676824e-01	 2.8448005219e+00
 2.3053232003e+00	 7.0860187444e-01	 2.9746516568e+00
 2.2987145002e+00	 7.2975554654e-01	 3.0859421711e+00
 2.2918962120e+00	 7.5089485646e-01	 3.1654068067e+00
 2.2848678569e+00	 7.7201685366e-01	 3.2026708140e+00
 2.2776290086e+00	 7.9311856621e-01	 3.1805195813e+00
 2.2701792942e+00	 8.1419700195e-01	 3.0809852716e+00
 2.2625183949e+00	 8.3524914955e-01	 2.8865881832e+00
 2.3381960624e+00	 6.2618416607e-01	 2.9263163378e+00
 2.3323987702e+00	 6.4744373593e-01	 2.9807391215e+00
 2.3263935578e+00	 6.6870050062e-01	 3.0409909157e+00
 2.3201797415e+00	 6.8995159515e-01	 3.0991843338e+00
 2.3137566870e+00	 7.1119412895e-01	 3.1474117589e+00
 2.3071238104e+00	 7.3242518682e-01	 3.1777337041e+00
 2.3002805792e+00	 7.5364182997e-01	 3.1832840999e+00
 2.2932265125e+00	 7.7484109706e-01	 3.1584302764e+00
 2.2859611825e+00	 7.9602000531e-01	 3.0910598395e+00
 2.2784842151e+00	 8.1717555158e-01	 2.9686872717e+00
 2.2707952902e+00	 8.3830471354e-01	 2.7791052704e+00
 2.3467186217e+00	 6.2846656308e-01	 3.2768369840e+00
 2.3409001988e+00	 6.4980362257e-01	 3.2984161111e+00
 2.3348730978e+00	 6.7113786665e-01	 3.3092809547e+00
 2.3286366326e+00	 6.9246641992e-01	 3.3070312948e+00
 2.3221901665e+00	 7.1378638126e-01	 3.2891449317e+00
 2.3155331136e+00	 7.3509482484e-01	 3.2529568809e+00
 2.3086649392e+00	 7.5638880115e-01	 3.1969855967e+00
 2.3015851609e+00	 7.7766533807e-01	 3.1192496822e+00
 2.2942933494e+00	 7.9892144194e-01	 3.0120715987e+00
 2.2867891289e+00	 8.2015409868e-01	 2.8675793615e+00
 2.2790721784e+00	 8.4136027494e-01	 2.6779972948e+00
 2.3552411907e+00	 6.3074896268e-01	 3.5368517530e+00
 2.3494016370e+00	 6.5216351188e-01	 3.5368873250e+00
 2.3433526474e+00	 6.7357523546e-01	 3.5118891057e+00
 2.3370935332e+00	 6.9498124755e-01	 3.4639454869e+00
 2.3306236555e+00	 7.1637863651e-01	 3.3949405261e+00
 2.3239424262e+00	 7.3776446588e-01	 3.3065255889e+00
 2.3170493087e+00	 7.5913577544e-01	 3.2015506968e+00
 2.3099438189e+00	 7.8048958228e-01	 3.0807109738e+00
 2.3026255257e+00	 8.0182288185e-01	 2.9400543815e+00
 2.2950940522e+00	 8.2313264915e-01	 2.7754641847e+00
 2.2873490761e+00	 8.4441583981e-01	 2.5827658558e+00
 2.3637637862e+00	 6.3303136939e-01	 3.7054438167e+00
 2.3579031017e+00	 6.5452340855e-01	 3.6937910441e+00
 2.3518322235e+00	 6.7601261186e-01	 3.6453097408e+00
 2.3455504602e+00	 6.9749608302e-01	 3.5655895843e+00
 2.3390571709e+00	 7.1897089984e-01	 3.4599528399e+00
 2.3323517651e+00	 7.4043411524e-01	 3.3334200546e+00
 2.3254337044e+00	 7.6188275830e-01	 3.1920839750e+00
 2.3183025029e+00	 7.8331383529e-01	 3.0384534975e+00
 2.3109577280e+00	 8.0472433082e-01	 2.8715520328e+00
 2.3033990013e+00	 8.2611120891e-01	 2.6901701725e+00
 2.2956259995e+00	 8.4747141419e-01	 2.4929142146e+00
 2.3722864252e+00	 6.3531378774e-01	 3.7817073061e+00
 2.3664046098e+00	 6.5688331725e-01	 3.7667964663e+00
 2.3603118427e+00	 6.7845000069e-01	 3.7060836780e+00
 2.3540074304e+00	 7.0001093131e-01	 3.6076836566e+00
 2.3474907292e+00	 7.2156317639e-01	 3.4793997885e+00
 2.3407611469e+00	 7.4310377822e-01	 3.3287075586e+00
 2.3338181429e+00	 7.6462975516e-01	 3.1637541124e+00
 2.3266612295e+00	 7.8613810271e-01	 2.9881730943e+00
 2.3192899727e+00	 8.0762579458e-01	 2.8031520674e+00
 2.3117039928e+00	 8.2908978386e-01	 2.6095512496e+00
 2.3039029651e+00	 8.5052700417e-01	 2.4079474601e+00
 2.3808091246e+00	 6.3759622226e-01	 3.7647470184e+00
 2.3749061781e+00	 6.5924324268e-01	 3.7536030422e+00
 2.3687915221e+00	 6.8088740679e-01	 3.6907972230e+00
 2.3624644605e+00	 7.0252579742e-01	 3.5860039974e+00
 2.3559243474e+00	 7.2415547130e-01	 3.4485616031e+00
 2.3491705882e+00	 7.4577346011e-01	 3.2875011307e+00
 2.3422026407e+00	 7.6737677149e-01	 3.1117928544e+00
 2.3350200153e+00	 7.8896239013e-01	 2.9256212152e+00
 2.3276222765e+00	 8.1052727889e-01	 2.7314850375e+00
 2.3200090431e+00	 8.3206837992e-01	 2.5314865514e+00
 2.3121799894e+00	 8.5358261579e-01	 2.3273726767e+00
 2.3893319012e+00	 6.3987867747e-01	 3.6536781293e+00
 2.3834078235e+00	 6.6160318950e-01	 3.6519398234e+00
 2.3772712784e+00	 6.8332483499e-01	 3.5960812299e+00
 2.3709215672e+00	 7.0504068633e-01	 3.4963819764e+00
 2.3643580419e+00	 7.2674778972e-01	 3.3627795565e+00
 2.3575801058e+00	 7.4844316621e-01	 3.2049267611e+00
 2.3505872146e+00	 7.7012381272e-01	 3.0314939961e+00
 2.3433788770e+00	 7.9178670316e-01	 2.8466040601e+00
 2.3359546559e+00	 8.1342878952e-01	 2.6532239182e+00
 2.3283141687e+00	 8.3504700298e-01	 2.4538801518e+00
 2.3204570887e+00	 8.5663825511e-01	 2.2506991138e+00
 2.3978547720e+00	 6.4216115791e-01	 3.4476259107e+00
 2.3919095628e+00	 6.6396316239e-01	 3.4595648247e+00
 2.3857511283e+00	 6.8576229012e-01	 3.4186101817e+00
 2.3793787674e+00	 7.0755560303e-01	 3.3347029155e+00
 2.3727918297e+00	 7.2934013679e-01	 3.2174547140e+00
 2.3659897163e+00	 7.5111290181e-01	 3.0761734791e+00
 2.3589718811e+00	 7.7287088431e-01	 2.9182123935e+00
 2.3517378310e+00	 7.9461104741e-01	 2.7469817389e+00
 2.3442871273e+00	 8.1633033221e-01	 2.5650835109e+00
 2.3366193862e+00	 8.3802565895e-01	 2.3746608028e+00
 2.3287342795e+00	 8.5969392821e-01	 2.1774383563e+00
 2.4063777539e+00	 6.4444366809e-01	 3.1457254525e+00
 2.4004114129e+00	 6.6632316605e-01	 3.1742643980e+00
 2.3942310888e+00	 6.8819977702e-01	 3.1551012893e+00
 2.3878360779e+00	 7.1007055251e-01	 3.0969049875e+00
 2.3812257274e+00	 7.3193251764e-01	 3.0080467104e+00
 2.3743994365e+00	 7.5378267220e-01	 2.8964927004e+00
 2.3673566569e+00	 7.7561799170e-01	 2.7673629999e+00
 2.3600968939e+00	 7.9743542846e-01	 2.6226674559e+00
 2.3526197073e+00	 8.1923191271e-01	 2.4638198642e+00
 2.3449247118e+00	 8.4100435376e-01	 2.2917816834e+00
 2.3370115782e+00	 8.6274964113e-01	 2.1071044971e+00
 2.4149008638e+00	 6.4672621255e-01	 2.7471213906e+00
 2.4089133907e+00	 6.6868320514e-01	 2.7938526189e+00
 2.4027111766e+00	 6.9063730053e-01	 2.8023136077e+00
 2.3962935153e+00	 7.1258553976e-01	 2.7789781369e+00
 2.3896597517e+00	 7.3452493742e-01	 2.7300725517e+00
 2.3828092829e+00	 7.5645248269e-01	 2.6611972286e+00
 2.3757415586e+00	 7.7836514035e-01	 2.5744199271e+00
 2.3684560824e+00	 8.0025985193e-01	 2.4696267159e+00
 2.3609524125e+00	 8.2213353680e-01	 2.3462297121e+00
 2.3532301622e+00	 8.4398309329e-01	 2.2032201601e+00
 2.3452890012e+00	 8.6580539994e-01	 2.0392143109e+00
 2.2625183949e+00	 8.3524914955e-01	 2.8865881832e+00
 2.2546446902e+00	 8.5627555101e-01	 2.5733445681e+00
 2.2465592549e+00	 8.7726957648e-01	 2.1498560118e+00
 2.2382619351e+00	 8.9822816176e-01	 1.6478938757e+00
 2.2297526340e+00	 9.1914822827e-01	 1.0993675374e+00
 2.2210313121e+00	 9.4002668437e-01	 5.3652067834e-01
 2.2120979880e+00	 9.6086042659e-01	 2.9785387612e-03
 2.2029527390e+00	 9.8164634100e-01	-4.6048958220e-01
 2.1935957011e+00	 1.0023813045e+00	-8.1981821593e-01
 2.1840270702e+00	 1.0230621863e+00	-1.0413016796e+00
 2.1742471019e+00	 1.0436858490e+00	-1.0916706161e+00
 2.2707952902e+00	 8.3830471354e-01	 2.7791052704e+00
 2.2628927814e+00	 8.5940803518e-01	 2.4974396801e+00
 2.2547777674e+00	 8.8047886239e-01	 2.1237838982e+00
 2.2464500938e+00	 9.0151411976e-01	 1.6837067698e+00
 2.2379096633e+00	 9.2251071746e-01	 1.2030640702e+00
 2.2291564366e+00	 9.4346555251e-01	 7.0805315567e-01
 2.2201904320e+00	 9.6437551011e-01	 2.2573689709e-01
 2.2110117272e+00	 9.8523746494e-01	-2.0368457107e-01
 2.2016204588e+00	 1.0060482825e+00	-5.4568334197e-01
 2.1920168233e+00	 1.0268048204e+00	-7.7142677940e-01
 2.1822010773e+00	 1.0475039300e+00	-8.5229040592e-01
 2.2790721784e+00	 8.4136027494e-01	 2.6779972948e+00
 2.2711408655e+00	 8.6254051669e-01	 2.4191989335e+00
 2.2629962729e+00	 8.8368814558e-01	 2.0854883257e+00
 2.2546382455e+00	 9.0480007497e-01	 1.6970109737e+00
 2.2460666858e+00	 9.2587320378e-01	 1.2743216508e+00
 2.2372815541e+00	 9.4690441773e-01	 8.3844906275e-01
 2.2282828691e+00	 9.6789059065e-01	 4.1096815175e-01
 2.2190707086e+00	 9.8882858582e-01	 1.5209076816e-02
 2.2096452097e+00	 1.0097152573e+00	-3.1108524334e-01
 2.2000065696e+00	 1.0305474514e+00	-5.3904775668e-01
 2.1901550459e+00	 1.0513220077e+00	-6.4412302440e-01
 2.2873490761e+00	 8.4441583981e-01	 2.5827658558e+00
 2.2793889591e+00	 8.6567300176e-01	 2.3398625143e+00
 2.2712147877e+00	 8.8689743241e-01	 2.0376182530e+00
 2.2628264065e+00	 9.0808603391e-01	 1.6915257643e+00
 2.2542237175e+00	 9.2923569392e-01	 1.3175829438e+00
 2.2454066809e+00	 9.5034328684e-01	 9.3236623344e-01
 2.2363753154e+00	 9.7140567517e-01	 5.5311181497e-01
 2.2271296991e+00	 9.9241971078e-01	 1.9780456219e-01
 2.2176699697e+00	 1.0133822363e+00	-1.1236546883e-01
 2.2079963250e+00	 1.0342900865e+00	-3.4168244269e-01
 2.1981090235e+00	 1.0551400898e+00	-4.6625771358e-01
 2.2956259995e+00	 8.4747141419e-01	 2.4929142146e+00
 2.2876370783e+00	 8.6880549659e-01	 2.2606476953e+00
 2.2794333281e+00	 8.9010672924e-01	 1.9827800231e+00
 2.2710145930e+00	 9.1137200309e-01	 1.6709130878e+00
 2.2623807746e+00	 9.3259819454e-01	 1.3372236683e+00
 2.2535318330e+00	 9.5378216668e-01	 9.9454413673e-01
 2.2444677870e+00	 9.7492077064e-01	 6.5645124337e-01
 2.2351887148e+00	 9.9601084693e-01	 3.3736288094e-01
 2.2256947547e+00	 1.0170492267e+00	 5.2642662144e-02
 2.2159861053e+00	 1.0380327334e+00	-1.7690690320e-01
 2.2060630259e+00	 1.0589581837e+00	-3.1782030627e-01
 2.3039029651e+00	 8.5052700417e-01	 2.4079474601e+00
 2.2958852396e+00	 8.7193800740e-01	 2.1827494727e+00
 2.2876519105e+00	 8.9331604244e-01	 1.9235383855e+00
 2.2792028213e+00	 9.1465798904e-01	 1.6387788799e+00
 2.2705378734e+00	 9.3596071231e-01	 1.3375541259e+00
 2.2616570266e+00	 9.5722106406e-01	 1.0296525347e+00
 2.2525602997e+00	 9.7843588405e-01	 7.2566284548e-01
 2.2432477715e+00	 9.9960200140e-01	 4.3707743702e-01
 2.2337195806e+00	 1.0207162359e+00	 1.7640369085e-01
 2.2239759263e+00	 1.0417753994e+00	-4.2716842979e-02
 2.2140170689e+00	 1.0627762972e+00	-1.9797275251e-01
 2.3121799894e+00	 8.5358261579e-01	 2.3273726767e+00
 2.3041334593e+00	 8.7507054039e-01	 2.1073411952e+00
 2.2958705511e+00	 8.9652537837e-01	 1.8624175024e+00
 2.2873911076e+00	 9.1794399826e-01	 1.5986743637e+00
 2.2786950299e+00	 9.3932325391e-01	 1.3228207024e+00
 2.2697822777e+00	 9.6065998580e-01	 1.0422930981e+00
 2.2606528699e+00	 9.8195102236e-01	 7.6535589276e-01
 2.2513068854e+00	 1.0031931813e+00	 5.0120979447e-01
 2.2417444634e+00	 1.0243832710e+00	 2.6010879689e-01
 2.2319658039e+00	 1.0455180918e+00	 5.3485158965e-02
 2.2219711682e+00	 1.0665944377e+00	-1.0591265443e-01
 2.3204570887e+00	 8.5663825511e-01	 2.2506991138e+00
 2.3123817538e+00	 8.7820310180e-01	 2.0355751837e+00
 2.3040892662e+00	 8.9973474341e-01	 1.8019019384e+00
 2.2955794682e+00	 9.2123003728e-01	 1.5540973251e+00
 2.2868522604e+00	 9.4268582599e-01	 1.2972073434e+00
 2.2779076024e+00	 9.6409893872e-01	 1.0370009935e+00
 2.2687455134e+00	 9.8546619255e-01	 7.8007412883e-01
 2.2593660723e+00	 1.0067843938e+00	 5.3396210337e-01
 2.2497694189e+00	 1.0280503394e+00	 3.0726102709e-01
 2.2399557540e+00	 1.0492608182e+00	 1.0975736914e-01
 2.2299253397e+00	 1.0704126128e+00	-4.7434427239e-02
 2.3287342795e+00	 8.5969392821e-01	 2.1774383563e+00
 2.3206301395e+00	 8.8133569782e-01	 1.9685833444e+00
 2.3123080721e+00	 9.0294414392e-01	 1.7444376352e+00
 2.3037679192e+00	 9.2451611261e-01	 1.5084933671e+00
 2.2950095810e+00	 9.4604843524e-01	 1.2648370040e+00
 2.2860330170e+00	 9.6753792965e-01	 1.0182464433e+00
 2.2768382463e+00	 9.8898140158e-01	 7.7429735121e-01
 2.2674253482e+00	 1.0103756459e+00	 5.3947861352e-01
 2.2577944631e+00	 1.0317174483e+00	 3.2131671438e-01
 2.2479457923e+00	 1.0530035860e+00	 1.2850878071e-01
 2.2378795990e+00	 1.0742308301e+00	-2.8936050113e-02
 2.3370115782e+00	 8.6274964113e-01	 2.1071044971e+00
 2.3288786326e+00	 8.8446833467e-01	 1.9074777734e+00
 2.3205269851e+00	 9.0615358625e-01	 1.6924328701e+00
 2.3119564770e+00	 9.2780223078e-01	 1.4652571433e+00
 2.3031670080e+00	 9.4941108831e-01	 1.2297730744e+00
 2.2941585375e+00	 9.7097696541e-01	 9.9043625886e-01
 2.2849310847e+00	 9.9249665643e-01	 7.5244296647e-01
 2.2754847292e+00	 1.0139669449e+00	 5.2184716340e-01
 2.2658196119e+00	 1.0353846049e+00	 3.0568681075e-01
 2.2559359348e+00	 1.0567464026e+00	 1.1211917514e-01
 2.2458339620e+00	 1.0780490972e+00	-4.9435192829e-02
 2.3452890012e+00	 8.6580539994e-01	 2.0392143109e+00
 2.3371272496e+00	 8.8760101857e-01	 1.8533513538e+00
 2.3287460216e+00	 9.0936307679e-01	 1.6482592007e+00
 2.3201451577e+00	 9.3108839829e-01	 1.4277335706e+00
 2.3113245574e+00	 9.5277379189e-01	 1.1960207814e+00
 2.3022841800e+00	 9.7441605281e-01	 9.5791534829e-01
 2.2930240446e+00	 9.9601196407e-01	 7.1886751931e-01
 2.2835442313e+00	 1.0175582978e+00	 4.8510064504e-01
 2.2738448812e+00	 1.0390518167e+00	 2.6373820004e-01
 2.2639261973e+00	 1.0604892753e+00	 6.2940193356e-02
 2.2537884445e+00	 1.0818674217e+00	-1.0795137672e-01
 2.1742471019e+00	 1.0436858490e+00	-1.0916706161e+00
 2.1642578281e+00	 1.0642456601e+00	-9.6222916790e-01
 2.1540579796e+00	 1.0847419850e+00	-6.9027303648e-01
 2.1436479923e+00	 1.1051716761e+00	-3.1157751189e-01
 2.1330283633e+00	 1.1255315851e+00	 1.3758027756e-01
 2.1221996512e+00	 1.1458185643e+00	 6.1748429189e-01
 2.1111624763e+00	 1.1660294682e+00	 1.0886606348e+00
 2.0999175207e+00	 1.1861611550e+00	 1.5113622069e+00
 2.0884655282e+00	 1.2062104879e+00	 1.8456290119e+00
 2.0768073048e+00	 1.2261743371e+00	 2.0514706555e+00
 2.0649437185e+00	 1.2460495804e+00	 2.0890614786e+00
 2.1822010773e+00	 1.0475039300e+00	-8.5229040592e-01
 2.1721752601e+00	 1.0681389543e+00	-7.7601990290e-01
 2.1619380978e+00	 1.0887102603e+00	-5.6966042568e-01
 2.1514900279e+00	 1.1092146886e+00	-2.6348715344e-01
 2.1408315495e+00	 1.1296490796e+00	 1.1092186845e-01
 2.1299632231e+00	 1.1500102740e+00	 5.1899363558e-01
 2.1188856713e+00	 1.1702951147e+00	 9.2635834445e-01
 2.1075995786e+00	 1.1905004486e+00	 1.2980721743e+00
 2.0961056917e+00	 1.2106231274e+00	 1.5987696581e+00
 2.0844048195e+00	 1.2306600096e+00	 1.7928415820e+00
 2.0724978330e+00	 1.2506079619e+00	 1.8446260552e+00
 2.1901550459e+00	 1.0513220077e+00	-6.4412302440e-01
 2.1800926853e+00	 1.0720322453e+00	-6.1209967634e-01
 2.1698182093e+00	 1.0926785322e+00	-4.6203518012e-01
 2.1593320570e+00	 1.1132576977e+00	-2.1914962792e-01
 2.1486347291e+00	 1.1337665706e+00	 8.9150107565e-02
 2.1377267885e+00	 1.1542019801e+00	 4.3333402087e-01
 2.1266088598e+00	 1.1745607577e+00	 7.8368689485e-01
 2.1152816300e+00	 1.1948397385e+00	 1.1097284490e+00
 2.1037458487e+00	 1.2150357631e+00	 1.3803729471e+00
 2.0920023276e+00	 1.2351456783e+00	 1.5641032478e+00
 2.0800519410e+00	 1.2551663394e+00	 1.6291585393e+00
 2.1981090235e+00	 1.0551400898e+00	-4.6625771358e-01
 2.1880101195e+00	 1.0759255406e+00	-4.7119967014e-01
 2.1776983297e+00	 1.0966468086e+00	-3.6950913985e-01
 2.1671740948e+00	 1.1173007114e+00	-1.8187574219e-01
 2.1564379176e+00	 1.1378840663e+00	 6.8215249494e-02
 2.1454903626e+00	 1.1583936909e+00	 3.5592096782e-01
 2.1343320569e+00	 1.1788264054e+00	 6.5580915025e-01
 2.1229636902e+00	 1.1991790334e+00	 9.4152698445e-01
 2.1113860144e+00	 1.2194484037e+00	 1.1859571186e+00
 2.0995998444e+00	 1.2396313521e+00	 1.3613886119e+00
 2.0876060576e+00	 1.2597247222e+00	 1.4397020579e+00
 2.2060630259e+00	 1.0589581837e+00	-3.1782030627e-01
 2.1959275783e+00	 1.0798188481e+00	-3.5406502431e-01
 2.1855784746e+00	 1.1006150974e+00	-2.9418926345e-01
 2.1750161572e+00	 1.1213437377e+00	-1.5488419149e-01
 2.1642411303e+00	 1.1420015748e+00	 4.4110348569e-02
 2.1532539609e+00	 1.1625854149e+00	 2.8222196214e-01
 2.1420552782e+00	 1.1830920665e+00	 5.3794512647e-01
 2.1306457742e+00	 1.2035183418e+00	 7.8872203188e-01
 2.1190262039e+00	 1.2238610582e+00	 1.0110957598e+00
 2.1071973849e+00	 1.2441170398e+00	 1.1808788776e+00
 2.0951601978e+00	 1.2642831191e+00	 1.2733366750e+00
 2.2140170689e+00	 1.0627762972e+00	-1.9797275251e-01
 2.2038450776e+00	 1.0837121755e+00	-2.6145477286e-01
 2.1934586598e+00	 1.1045834064e+00	-2.3817790555e-01
 2.1828582595e+00	 1.1253867846e+00	-1.4135227775e-01
 2.1720443829e+00	 1.1461191043e+00	 1.2871161635e-02
 2.1610175988e+00	 1.1667771602e+00	 2.0775625582e-01
 2.1497785389e+00	 1.1873577493e+00	 4.2537176200e-01
 2.1383278975e+00	 1.2078576723e+00	 6.4662595578e-01
 2.1266664324e+00	 1.2282737351e+00	 8.5141773894e-01
 2.1147949641e+00	 1.2486027505e+00	 1.0188036208e+00
 2.1027143765e+00	 1.2688415393e+00	 1.1271797893e+00
 2.2219711682e+00	 1.0665944377e+00	-1.0591265443e-01
 2.2117626329e+00	 1.0876055305e+00	-1.9414177897e-01
 2.2013389008e+00	 1.1085517435e+00	-2.0357308612e-01
 2.1907004174e+00	 1.1294298602e+00	-1.4442741947e-01
 2.1798476908e+00	 1.1502366630e+00	-2.9423929719e-02
 2.1687812918e+00	 1.1709689352e+00	 1.2809469016e-01
 2.1575018542e+00	 1.1916234624e+00	 3.1342271295e-01
 2.1460100752e+00	 1.2121970336e+00	 5.1060907255e-01
 2.1343067149e+00	 1.2326864433e+00	 7.0260716086e-01
 2.1223925971e+00	 1.2530884929e+00	 8.7144093572e-01
 2.1102686087e+00	 1.2733999918e+00	 9.9838654493e-01
 2.2299253397e+00	 1.0704126128e+00	-4.7434427239e-02
 2.2196802600e+00	 1.0914989207e+00	-1.5291266942e-01
 2.2092192132e+00	 1.1125201166e+00	-1.9247321538e-01
 2.1985426464e+00	 1.1334729724e+00	-1.6722704573e-01
 2.1876510694e+00	 1.1543542590e+00	-8.6653977936e-02
 2.1765450551e+00	 1.1751607482e+00	 3.8859540880e-02
 2.1652252396e+00	 1.1958892141e+00	 1.9748817140e-01
 2.1536923225e+00	 1.2165364342e+00	 3.7609951262e-01
 2.1419470668e+00	 1.2370991916e+00	 5.6040334425e-01
 2.1299902990e+00	 1.2575742760e+00	 7.3511759891e-01
 2.1178229093e+00	 1.2779584857e+00	 8.8415025602e-01
 2.2378795990e+00	 1.0742308301e+00	-2.8936050113e-02
 2.2275979746e+00	 1.0953923540e+00	-1.4163801155e-01
 2.2170996128e+00	 1.1164885336e+00	-2.0701548416e-01
 2.2063849620e+00	 1.1375161293e+00	-2.1283847613e-01
 2.1954545342e+00	 1.1584719005e+00	-1.6265550969e-01
 2.1843089042e+00	 1.1793526076e+00	-6.4275615408e-02
 2.1729487103e+00	 1.2001550129e+00	 7.3014706685e-02
 2.1613746547e+00	 1.2208758827e+00	 2.3858310525e-01
 2.1495875031e+00	 1.2415119885e+00	 4.2060081964e-01
 2.1375880849e+00	 1.2620601087e+00	 6.0620925152e-01
 2.1253772935e+00	 1.2825170299e+00	 7.8170284342e-01
 2.2458339620e+00	 1.0780490972e+00	-4.9435192829e-02
 2.2355157924e+00	 1.0992858380e+00	-1.7038942092e-01
 2.2249801150e+00	 1.1204570023e+00	-2.5005297404e-01
 2.2142273799e+00	 1.1415593388e+00	-2.8431878676e-01
 2.2032581007e+00	 1.1625895957e+00	-2.6122254796e-01
 2.1920728544e+00	 1.1835445216e+00	-1.8558601369e-01
 2.1806722817e+00	 1.2044208674e+00	-6.4494871140e-02
 2.1690570871e+00	 1.2252153879e+00	 9.3603285513e-02
 2.1572280389e+00	 1.2459248430e+00	 2.7904934809e-01
 2.1451859698e+00	 1.2665459998e+00	 4.8114059845e-01
 2.1329317761e+00	 1.2870756335e+00	 6.8831528456e-01
 2.2537884445e+00	 1.0818674217e+00	-1.0795137672e-01
 2.2434337292e+00	 1.1031793805e+00	-2.4028639130e-01
 2.2328607355e+00	 1.1244255306e+00	-3.3244582559e-01
 2.2220699155e+00	 1.1456026092e+00	-3.8469466268e-01
 2.2110617844e+00	 1.1667073527e+00	-3.8610661632e-01
 2.1998369213e+00	 1.1877364985e+00	-3.2929579256e-01
 2.1883959691e+00	 1.2086867859e+00	-2.1948162586e-01
 2.1767396348e+00	 1.2295549582e+00	-6.3238976986e-02
 2.1648686895e+00	 1.2503377638e+00	 1.3165395991e-01
 2.1527839688e+00	 1.2710319583e+00	 3.5638562463e-01
 2.1404863722e+00	 1.2916343056e+00	 6.0129807544e-01
 2.0649437185e+00	 1.2460495804e+00	 2.0890614786e+00
 2.0528756997e+00	 1.2658331062e+00	 1.9557870381e+00
 2.0406042425e+00	 1.2855218152e+00	 1.6962968492e+00
 2.0281304037e+00	 1.3051126218e+00	 1.3415545755e+00
 2.0154553015e+00	 1.3246024542e+00	 9.2215785767e-01
 2.0025801153e+00	 1.3439882566e+00	 4.6847635508e-01
 1.9895060861e+00	 1.3632669907e+00	 1.0797092820e-02
 1.9762345155e+00	 1.3824356367e+00	-4.2052408559e-01
 1.9627667656e+00	 1.4014911956e+00	-7.9490622545e-01
 1.9491042590e+00	 1.4204306899e+00	-1.0813834515e+00
 1.9352484777e+00	 1.4392511656e+00	-1.2484430147e+00
 2.0724978330e+00	 1.2506079619e+00	 1.8446260552e+00
 2.0603856661e+00	 1.2704638610e+00	 1.7474637340e+00
 2.0480693167e+00	 1.2902245966e+00	 1.5367164433e+00
 2.0355498453e+00	 1.3098870716e+00	 1.2395357300e+00
 2.0228283741e+00	 1.3294482030e+00	 8.8278687787e-01
 2.0099060871e+00	 1.3489049238e+00	 4.9319756014e-01
 1.9967842296e+00	 1.3682541846e+00	 9.7513919161e-02
 1.9834641080e+00	 1.3874929547e+00	-2.7733716759e-01
 1.9699470896e+00	 1.4066182239e+00	-6.0408094511e-01
 1.9562346018e+00	 1.4256270039e+00	-8.5492412989e-01
 1.9423281324e+00	 1.4445163299e+00	-1.0013821691e+00
 2.0800519410e+00	 1.2551663394e+00	 1.6291585393e+00
 2.0678956261e+00	 1.2750946119e+00	 1.5661104245e+00
 2.0555343845e+00	 1.2949273741e+00	 1.4024776199e+00
 2.0429692805e+00	 1.3146615173e+00	 1.1616010214e+00
 2.0302014405e+00	 1.3342939476e+00	 8.6660282756e-01
 2.0172320527e+00	 1.3538215869e+00	 5.4054588598e-01
 2.0040623669e+00	 1.3732413744e+00	 2.0660061189e-01
 1.9906936944e+00	 1.3925502684e+00	-1.1178180753e-01
 1.9771274074e+00	 1.4117452479e+00	-3.9069127533e-01
 1.9633649386e+00	 1.4308233135e+00	-6.0557712719e-01
 1.9494077810e+00	 1.4497814898e+00	-7.3106441938e-01
 2.0876060576e+00	 1.2597247222e+00	 1.4397020579e+00
 2.0754055947e+00	 1.2797253681e+00	 1.4097709229e+00
 2.0629994608e+00	 1.2996301568e+00	 1.2925083694e+00
 2.0503887242e+00	 1.3194359685e+00	 1.1074458684e+00
 2.0375745152e+00	 1.3391396978e+00	 8.7395163987e-01
 2.0245580265e+00	 1.3587382555e+00	 6.1140078112e-01
 2.0113405125e+00	 1.3782285698e+00	 3.3935313029e-01
 1.9979232890e+00	 1.3976075879e+00	 7.7737538057e-02
 1.9843077334e+00	 1.4168722776e+00	-1.5295885096e-01
 1.9704952835e+00	 1.4360196290e+00	-3.3149776644e-01
 1.9564874378e+00	 1.4550466556e+00	-4.3569494291e-01
 2.0951601978e+00	 1.2642831191e+00	 1.2733366750e+00
 2.0829155867e+00	 1.2843561387e+00	 1.2765134124e+00
 2.0704645604e+00	 1.3043329542e+00	 1.2057501985e+00
 2.0578081910e+00	 1.3242104345e+00	 1.0767700577e+00
 2.0449476129e+00	 1.3439854631e+00	 9.0517616419e-01
 2.0318840232e+00	 1.3636549395e+00	 7.0663284209e-01
 2.0186186807e+00	 1.3832157807e+00	 4.9705448482e-01
 2.0051529062e+00	 1.4026649231e+00	 2.9280102464e-01
 1.9914880817e+00	 1.4219993234e+00	 1.1087850859e-01
 1.9776256506e+00	 1.4412159607e+00	-3.0856725397e-02
 1.9635671165e+00	 1.4603118379e+00	-1.1349183286e-01
 2.1027143765e+00	 1.2688415393e+00	 1.1271797893e+00
 2.0904256169e+00	 1.2889869330e+00	 1.1644311360e+00
 2.0779296980e+00	 1.3090357756e+00	 1.1411590836e+00
 2.0652276956e+00	 1.3289849249e+00	 1.0692789299e+00
 2.0523207483e+00	 1.3488312531e+00	 9.6061755225e-01
 2.0392100573e+00	 1.3685716485e+00	 8.2710536991e-01
 2.0258968861e+00	 1.3882030171e+00	 6.8097643333e-01
 2.0123825602e+00	 1.4077222841e+00	 5.3497522491e-01
 1.9986684667e+00	 1.4271263953e+00	 4.0256868300e-01
 1.9847560540e+00	 1.4464123189e+00	 2.9816189512e-01
 1.9706468314e+00	 1.4655770470e+00	 2.3731585111e-01
 2.1102686087e+00	 1.2733999918e+00	 9.9838654493e-01
 2.0979357004e+00	 1.2936177600e+00	 1.0716430956e+00
 2.0853948885e+00	 1.3137386303e+00	 1.0977064264e+00
 2.0726472528e+00	 1.3337594491e+00	 1.0846845628e+00
 2.0596939358e+00	 1.3536770774e+00	 1.0406166391e+00
 2.0465361432e+00	 1.3734883924e+00	 9.7367591849e-01
 2.0331751430e+00	 1.3931902888e+00	 8.9238116686e-01
 2.0196122654e+00	 1.4127796809e+00	 8.0581492205e-01
 2.0058489026e+00	 1.4322535035e+00	 7.2384712183e-01
 1.9918865080e+00	 1.4516087140e+00	 6.5736248968e-01
 1.9777265965e+00	 1.4708422934e+00	 6.1849001935e-01
 2.1178229093e+00	 1.2779584857e+00	 8.8415025602e-01
 2.1054458520e+00	 1.2982486290e+00	 9.9629475798e-01
 2.0928601467e+00	 1.3184415276e+00	 1.0743800128e+00
 2.0800668772e+00	 1.3385340166e+00	 1.1227069531e+00
 2.0670671902e+00	 1.3585229457e+00	 1.1455153194e+00
 2.0538622956e+00	 1.3784051808e+00	 1.1471978354e+00
 2.0404534659e+00	 1.3981776057e+00	 1.1325229855e+00
 2.0268420362e+00	 1.4178371236e+00	 1.1068648914e+00
 2.0130294035e+00	 1.4373806582e+00	 1.0764387028e+00
 1.9990170267e+00	 1.4568051561e+00	 1.0485398539e+00
 1.9848064257e+00	 1.4761075875e+00	 1.0317854761e+00
 2.1253772935e+00	 1.2825170299e+00	 7.8170284342e-01
 2.1129560865e+00	 1.3028795492e+00	 9.3655876855e-01
 2.1003254874e+00	 1.3231444770e+00	 1.0701849751e+00
 2.0874865836e+00	 1.3433086369e+00	 1.1830751981e+00
 2.0744405261e+00	 1.3633688675e+00	 1.2756579187e+00
 2.0611885290e+00	 1.3833220236e+00	 1.3485217949e+00
 2.0477318693e+00	 1.4031649778e+00	 1.4026499648e+00
 2.0340718869e+00	 1.4228946221e+00	 1.4396616712e+00
 2.0202099838e+00	 1.4425078696e+00	 1.4620595781e+00
 2.0061476241e+00	 1.4620016556e+00	 1.4734810780e+00
 1.9918863332e+00	 1.4813729399e+00	 1.4789518318e+00
 2.1329317761e+00	 1.2870756335e+00	 6.8831528456e-01
 2.1204664190e+00	 1.3075105298e+00	 8.9063567243e-01
 2.1077909254e+00	 1.3278474876e+00	 1.0841447561e+00
 2.0949063868e+00	 1.3480833194e+00	 1.2655286752e+00
 2.0818139581e+00	 1.3682148525e+00	 1.4313925607e+00
 2.0685148578e+00	 1.3882389304e+00	 1.5784973245e+00
 2.0550103675e+00	 1.4081524148e+00	 1.7040056124e+00
 2.0413018318e+00	 1.4279521866e+00	 1.8057353222e+00
 2.0273906577e+00	 1.4476351478e+00	 1.8824190090e+00
 2.0132783144e+00	 1.4671982229e+00	 1.9339674279e+00
 1.9989663329e+00	 1.4866383608e+00	 1.9616058842e+00
 2.1404863722e+00	 1.2916343056e+00	 6.0129807544e-01
 2.1279768642e+00	 1.3121415799e+00	 8.5675464300e-01
 2.1152564755e+00	 1.3325505688e+00	 1.1153020767e+00
 2.1023263013e+00	 1.3528580736e+00	 1.3698182207e+00
 2.0891875008e+00	 1.3730609102e+00	 1.6130725297e+00
 2.0758412966e+00	 1.3931559111e+00	 1.8379743235e+00
 2.0622889750e+00	 1.4131399268e+00	 2.0378305167e+00
 2.0485318853e+00	 1.4330098270e+00	 2.2066111772e+00
 2.0345714394e+00	 1.4527625030e+00	 2.3392211890e+00
 2.0204091119e+00	 1.4723948682e+00	 2.4317762154e+00
 2.0060464390e+00	 1.4919038608e+00	 2.4814437998e+00
 1.9352484777e+00	 1.4392511656e+00	-1.2484430147e+00
 1.9211985599e+00	 1.4579528601e+00	-1.2991432488e+00
 1.9069584527e+00	 1.4765296504e+00	-1.2711440586e+00
 1.8925298230e+00	 1.4949786493e+00	-1.1843486280e+00
 1.8779143959e+00	 1.5132969987e+00	-1.0591460109e+00
 1.8631139533e+00	 1.5314818712e+00	-9.1063911848e-01
 1.8481303335e+00	 1.5495304716e+00	-7.5173105921e-01
 1.8329654303e+00	 1.5674400381e+00	-5.6739306267e-01
 1.8176211925e+00	 1.5852078436e+00	-3.6001872178e-01
 1.8020996229e+00	 1.6028311975e+00	-1.4558390480e-01
 1.7864027773e+00	 1.6203074465e+00	 5.8221938631e-02
 1.9423281324e+00	 1.4445163299e+00	-1.0013821691e+00
 1.9282268163e+00	 1.4632864402e+00	-1.0431276361e+00
 1.9139346149e+00	 1.4819311894e+00	-1.0117100340e+00
 1.8994532015e+00	 1.5004476796e+00	-9.2729714452e-01
 1.8847843073e+00	 1.5188330424e+00	-8.0764509089e-01
 1.8699297207e+00	 1.5370844401e+00	-6.6665610699e-01
 1.8548912868e+00	 1.5551990671e+00	-5.1758029914e-01
 1.8396709063e+00	 1.5731741515e+00	-3.5967152370e-01
 1.8242705352e+00	 1.5910069564e+00	-1.7848332012e-01
 1.8086921836e+00	 1.6086947811e+00	 1.1777657210e-02
 1.7929379148e+00	 1.6262349630e+00	 1.9429550837e-01
 1.9494077810e+00	 1.4497814898e+00	-7.3106441938e-01
 1.9352550667e+00	 1.4686200158e+00	-7.6427130626e-01
 1.9209107712e+00	 1.4873327238e+00	-7.3152465728e-01
 1.9063765741e+00	 1.5059167053e+00	-6.5244836868e-01
 1.8916542128e+00	 1.5243690814e+00	-5.4191589916e-01
 1.8767454823e+00	 1.5426870042e+00	-4.1260473631e-01
 1.8616522344e+00	 1.5608676577e+00	-2.7656529581e-01
 1.8463763767e+00	 1.5789082600e+00	-1.4261414442e-01
 1.8309198723e+00	 1.5968060642e+00	 8.1262987160e-03
 1.8152847387e+00	 1.6145583599e+00	 1.7046549895e-01
 1.7994730467e+00	 1.6321624744e+00	 3.2869047067e-01
 1.9564874378e+00	 1.4550466556e+00	-4.3569494291e-01
 1.9422833250e+00	 1.4739535975e+00	-4.6089333128e-01
 1.9278869355e+00	 1.4927342643e+00	-4.2916665268e-01
 1.9132999545e+00	 1.5113857372e+00	-3.5825006915e-01
 1.8985241261e+00	 1.5299051268e+00	-2.6052220743e-01
 1.8835612516e+00	 1.5482895746e+00	-1.4718579420e-01
 1.8684131896e+00	 1.5665362547e+00	-2.8843171795e-02
 1.8530818547e+00	 1.5846423750e+00	 8.4398544080e-02
 1.8375692170e+00	 1.6026051786e+00	 2.0032144561e-01
 1.8218773012e+00	 1.6204219452e+00	 3.3072515422e-01
 1.8060081860e+00	 1.6380899926e+00	 4.6135204288e-01
 1.9635671165e+00	 1.4603118379e+00	-1.1349183286e-01
 1.9493116053e+00	 1.4792871957e+00	-1.3132241537e-01
 1.9348631214e+00	 1.4981358216e+00	-1.0297036979e-01
 1.9202233566e+00	 1.5168547861e+00	-4.3132952017e-02
 1.9053940608e+00	 1.5354411893e+00	 3.7990820457e-02
 1.8903770422e+00	 1.5538921625e+00	 1.3092042023e-01
 1.8751741659e+00	 1.5722048695e+00	 2.2674739011e-01
 1.8597873535e+00	 1.5903765079e+00	 3.1702414698e-01
 1.8442185823e+00	 1.6084043111e+00	 3.9859075215e-01
 1.8284698844e+00	 1.6262855489e+00	 4.9278542276e-01
 1.8125433457e+00	 1.6440175292e+00	 5.9221502416e-01
 1.9706468314e+00	 1.4655770470e+00	 2.3731585111e-01
 1.9563399214e+00	 1.4846208212e+00	 2.2603606594e-01
 1.9418393430e+00	 1.5035374065e+00	 2.4874486225e-01
 1.9271467939e+00	 1.5223238629e+00	 2.9448849012e-01
 1.9122640306e+00	 1.5409772801e+00	 3.5509571625e-01
 1.8971928675e+00	 1.5594947790e+00	 4.2305311662e-01
 1.8819351767e+00	 1.5778735131e+00	 4.9138940216e-01
 1.8664928866e+00	 1.5961106701e+00	 5.5355772039e-01
 1.8508679816e+00	 1.6142034732e+00	 6.0340247147e-01
 1.8350625011e+00	 1.6321491824e+00	 6.5686062701e-01
 1.8190785387e+00	 1.6499450961e+00	 7.2120599766e-01
 1.9777265965e+00	 1.4708422934e+00	 6.1849001935e-01
 1.9633682873e+00	 1.4899544845e+00	 6.1259539081e-01
 1.9488156140e+00	 1.5089390297e+00	 6.2767393466e-01
 1.9340702803e+00	 1.5277929785e+00	 6.5621511918e-01
 1.9191340490e+00	 1.5465134101e+00	 6.9228178581e-01
 1.9040087412e+00	 1.5650974351e+00	 7.3057002531e-01
 1.8886962354e+00	 1.5835421969e+00	 7.6628651215e-01
 1.8731984671e+00	 1.6018448729e+00	 7.9502384021e-01
 1.8575174280e+00	 1.6200026763e+00	 8.1263497820e-01
 1.8416551646e+00	 1.6380128575e+00	 8.2315286425e-01
 1.8256137780e+00	 1.6558727049e+00	 8.4824553001e-01
 1.9848064257e+00	 1.4761075875e+00	 1.0317854761e+00
 1.9703967169e+00	 1.4952881961e+00	 1.0301047530e+00
 1.9557919482e+00	 1.5143407018e+00	 1.0355251484e+00
 1.9409938295e+00	 1.5332621437e+00	 1.0436622828e+00
 1.9260041297e+00	 1.5520495904e+00	 1.0510541786e+00
 1.9108246766e+00	 1.5707001421e+00	 1.0548464012e+00
 1.8954573554e+00	 1.5892109321e+00	 1.0526619369e+00
 1.8799041085e+00	 1.6075791276e+00	 1.0424690997e+00
 1.8641669346e+00	 1.6258019321e+00	 1.0224486207e+00
 1.8482478878e+00	 1.6438765857e+00	 9.9185425436e-01
 1.8321490766e+00	 1.6618003675e+00	 9.7325036823e-01
 1.9918863332e+00	 1.4813729399e+00	 1.4789518318e+00
 1.9774252242e+00	 1.5006219666e+00	 1.4803624269e+00
 1.9627683595e+00	 1.5197424337e+00	 1.4740193931e+00
 1.9479174551e+00	 1.5387313693e+00	 1.4584589358e+00
 1.9328742864e+00	 1.5575858317e+00	 1.4329329486e+00
 1.9176406873e+00	 1.5763029110e+00	 1.3972740197e+00
 1.9022185501e+00	 1.5948797299e+00	 1.3517573889e+00
 1.8866098240e+00	 1.6133134458e+00	 1.2969609617e+00
 1.8708165148e+00	 1.6316012519e+00	 1.2336245725e+00
 1.8548406839e+00	 1.6497403788e+00	 1.1625096884e+00
 1.8386844474e+00	 1.6677280956e+00	 1.0961356345e+00
 1.9989663329e+00	 1.4866383608e+00	 1.9616058842e+00
 1.9844538231e+00	 1.5059558067e+00	 1.9651777185e+00
 1.9697448618e+00	 1.5251442359e+00	 1.9448893164e+00
 1.9548411710e+00	 1.5442006662e+00	 1.9022467526e+00
 1.9397445325e+00	 1.5631221453e+00	 1.8394521063e+00
 1.9244567869e+00	 1.5819057529e+00	 1.7592601650e+00
 1.9089798329e+00	 1.6005486016e+00	 1.6648319960e+00
 1.8933156268e+00	 1.6190478386e+00	 1.5595866050e+00
 1.8774661816e+00	 1.6374006473e+00	 1.4470519113e+00
 1.8614335659e+00	 1.6556042483e+00	 1.3307162731e+00
 1.8452199034e+00	 1.6736559010e+00	 1.2168170187e+00
 2.0060464390e+00	 1.4919038608e+00	 2.4814437998e+00
 1.9914825276e+00	 1.5112897269e+00	 2.4863701784e+00
 1.9767214688e+00	 1.5305461193e+00	 2.4498784829e+00
 1.9617649909e+00	 1.5496700452e+00	 2.3766792298e+00
 1.9466148819e+00	 1.5686585420e+00	 2.2721586620e+00
 1.9312729888e+00	 1.5875086789e+00	 2.1422266105e+00
 1.9157412173e+00	 1.6062175584e+00	 1.9931612151e+00
 1.9000215304e+00	 1.6247823176e+00	 1.8314517650e+00
 1.8841159483e+00	 1.6432001298e+00	 1.6636409265e+00
 1.8680265469e+00	 1.6614682058e+00	 1.4961676319e+00
 1.8517554575e+00	 1.6795837954e+00	 1.3352129691e+00
 1.7864027773e+00	 1.6203074465e+00	 5.8221938631e-02
 1.7705354717e+00	 1.6376310489e+00	 2.5256789292e-01
 1.7544971874e+00	 1.6548024385e+00	 4.5091140080e-01
 1.7382901052e+00	 1.6718191124e+00	 6.5175891924e-01
 1.7219164549e+00	 1.6886786099e+00	 8.5245997662e-01
 1.7053785146e+00	 1.7053785146e+00	 1.0494664149e+00
 1.6886786099e+00	 1.7219164549e+00	 1.2385880432e+00
 1.6718191124e+00	 1.7382901052e+00	 1.4152429350e+00
 1.6548024385e+00	 1.7544971874e+00	 1.5747006661e+00
 1.6376310489e+00	 1.7705354717e+00	 1.7123168627e+00
 1.6203074465e+00	 1.7864027773e+00	 1.8237575125e+00
 1.7929379148e+00	 1.6262349630e+00	 1.9429550837e-01
 1.7770125623e+00	 1.6436219397e+00	 3.6843341826e-01
 1.7609156057e+00	 1.6608561469e+00	 5.4569601337e-01
 1.7446492337e+00	 1.6779350722e+00	 7.2518056000e-01
 1.7282156842e+00	 1.6948562463e+00	 9.0480035032e-01
 1.7116172437e+00	 1.7116172437e+00	 1.0815498876e+00
 1.6948562463e+00	 1.7282156842e+00	 1.2517663055e+00
 1.6779350722e+00	 1.7446492337e+00	 1.4113852142e+00
 1.6608561469e+00	 1.7609156057e+00	 1.5561892301e+00
 1.6436219397e+00	 1.7770125623e+00	 1.6820475221e+00
 1.6262349630e+00	 1.7929379148e+00	 1.7851447941e+00
 1.7994730467e+00	 1.6321624744e+00	 3.2869047067e-01
 1.7834896474e+00	 1.6496128254e+00	 4.8062035832e-01
 1.7673340186e+00	 1.6669098501e+00	 6.3578874782e-01
 1.7510083568e+00	 1.6840510269e+00	 7.9369490591e-01
 1.7345149081e+00	 1.7010338775e+00	 9.5263166848e-01
 1.7178559675e+00	 1.7178559675e+00	 1.1099569636e+00
 1.7010338775e+00	 1.7345149081e+00	 1.2623613790e+00
 1.6840510269e+00	 1.7510083568e+00	 1.4061299250e+00
 1.6669098501e+00	 1.7673340186e+00	 1.5373962086e+00
 1.6496128254e+00	 1.7834896474e+00	 1.6523873160e+00
 1.6321624744e+00	 1.7994730467e+00	 1.7476577848e+00
 1.8060081860e+00	 1.6380899926e+00	 4.6135204288e-01
 1.7899667399e+00	 1.6556037180e+00	 5.8877350302e-01
 1.7737524387e+00	 1.6729635601e+00	 7.2057124071e-01
 1.7573674870e+00	 1.6901669885e+00	 8.5645913048e-01
 1.7408141392e+00	 1.7072115157e+00	 9.9492674168e-01
 1.7240946984e+00	 1.7240946984e+00	 1.1335175953e+00
 1.7072115157e+00	 1.7408141392e+00	 1.2691032632e+00
 1.6901669885e+00	 1.7573674870e+00	 1.3981514161e+00
 1.6729635601e+00	 1.7737524387e+00	 1.5169859974e+00
 1.6556037180e+00	 1.7899667399e+00	 1.6220377780e+00
 1.6380899926e+00	 1.8060081860e+00	 1.7100836397e+00
 1.8125433457e+00	 1.6440175292e+00	 5.9221502416e-01
 1.7964438525e+00	 1.6615946292e+00	 6.9253339679e-01
 1.7801708789e+00	 1.6790172891e+00	 7.9942636102e-01
 1.7637266372e+00	 1.6962829692e+00	 9.1263639102e-01
 1.7471133899e+00	 1.7133891731e+00	 1.0306683583e+00
 1.7303334488e+00	 1.7303334488e+00	 1.1510749196e+00
 1.7133891731e+00	 1.7471133899e+00	 1.2707375321e+00
 1.6962829692e+00	 1.7637266372e+00	 1.3861411570e+00
 1.6790172891e+00	 1.7801708789e+00	 1.4936407875e+00
 1.6615946292e+00	 1.7964438525e+00	 1.5897180145e+00
 1.6440175292e+00	 1.8125433457e+00	 1.6712259420e+00
 1.8190785387e+00	 1.6499450961e+00	 7.2120599766e-01
 1.8029209982e+00	 1.6675855709e+00	 7.9153848481e-01
 1.7865893517e+00	 1.6850710489e+00	 8.7174030881e-01
 1.7700858197e+00	 1.7023989811e+00	 9.6139788844e-01
 1.7534126728e+00	 1.7195668620e+00	 1.0588513145e+00
 1.7365722309e+00	 1.7365722309e+00	 1.1614872675e+00
 1.7195668620e+00	 1.7534126728e+00	 1.2660273337e+00
 1.7023989811e+00	 1.7700858197e+00	 1.3688097371e+00
 1.6850710489e+00	 1.7865893517e+00	 1.4660625752e+00
 1.6675855709e+00	 1.8029209982e+00	 1.5541667367e+00
 1.6499450961e+00	 1.8190785387e+00	 1.6299067690e+00
 1.8256137780e+00	 1.6558727049e+00	 8.4824553001e-01
 1.8093981898e+00	 1.6735765551e+00	 8.8542725841e-01
 1.7930078701e+00	 1.6911248516e+00	 9.3690471458e-01
 1.7764450473e+00	 1.7085150363e+00	 1.0019249291e+00
 1.7597120003e+00	 1.7257445947e+00	 1.0784844476e+00
 1.7428110573e+00	 1.7428110573e+00	 1.1636301781e+00
 1.7257445947e+00	 1.7597120003e+00	 1.2537553951e+00
 1.7085150363e+00	 1.7764450473e+00	 1.3448888709e+00
 1.6911248516e+00	 1.7930078701e+00	 1.4329751784e+00
 1.6735765551e+00	 1.8093981898e+00	 1.5141442982e+00
 1.6558727049e+00	 1.8256137780e+00	 1.5849687622e+00
 1.8321490766e+00	 1.6618003675e+00	 9.7325036823e-01
 1.8158754401e+00	 1.6795675937e+00	 9.7384039978e-01
 1.7994264466e+00	 1.6971787092e+00	 9.9431873965e-01
 1.7828043326e+00	 1.7146311469e+00	 1.0334109892e+00
 1.7660113849e+00	 1.7319223834e+00	 1.0885926730e+00
 1.7490499402e+00	 1.7490499402e+00	 1.1563984173e+00
 1.7319223834e+00	 1.7660113849e+00	 1.2327260309e+00
 1.7146311469e+00	 1.7828043326e+00	 1.3131334083e+00
 1.6971787092e+00	 1.7994264466e+00	 1.3931262573e+00
 1.6795675937e+00	 1.8158754401e+00	 1.4684347375e+00
 1.6618003675e+00	 1.8321490766e+00	 1.5352772019e+00
 1.8386844474e+00	 1.6677280956e+00	 1.0961356345e+00
 1.8223527620e+00	 1.6855586984e+00	 1.0564229261e+00
 1.8058450941e+00	 1.7032326337e+00	 1.0433911775e+00
 1.7891636881e+00	 1.7207473252e+00	 1.0550637809e+00
 1.7723108391e+00	 1.7381002404e+00	 1.0882190237e+00
 1.7552888920e+00	 1.7552888920e+00	 1.1387080003e+00
 1.7381002404e+00	 1.7723108391e+00	 1.2017671579e+00
 1.7207473252e+00	 1.7891636881e+00	 1.2723233491e+00
 1.7032326337e+00	 1.8058450941e+00	 1.3452893405e+00
 1.6855586984e+00	 1.8223527620e+00	 1.4158478255e+00
 1.6677280956e+00	 1.8386844474e+00	 1.4797220871e+00
 1.8452199034e+00	 1.6736559010e+00	 1.2168170187e+00
 1.8288301683e+00	 1.6915498812e+00	 1.1328263335e+00
 1.8122638252e+00	 1.7092866371e+00	 1.0835425561e+00
 1.7955231265e+00	 1.7268635831e+00	 1.0661073220e+00
 1.7786103754e+00	 1.7442781779e+00	 1.0764266951e+00
 1.7615279252e+00	 1.7615279252e+00	 1.1094982181e+00
 1.7442781779e+00	 1.7786103754e+00	 1.1597323145e+00
 1.7268635831e+00	 1.7955231265e+00	 1.2212658646e+00
 1.7092866371e+00	 1.8122638252e+00	 1.2882658571e+00
 1.6915498812e+00	 1.8288301683e+00	 1.3552211179e+00
 1.6736559010e+00	 1.8452199034e+00	 1.4172202189e+00
 1.8517554575e+00	 1.6795837954e+00	 1.3352129691e+00
 1.8353076719e+00	 1.6975411540e+00	 1.2027107406e+00
 1.8186826527e+00	 1.7153407314e+00	 1.1142072422e+00
 1.8018826604e+00	 1.7329799329e+00	 1.0657840070e+00
 1.7849100063e+00	 1.7504562081e+00	 1.0523010914e+00
 1.7677670521e+00	 1.7677670521e+00	 1.0677336695e+00
 1.7504562081e+00	 1.7849100063e+00	 1.1055026841e+00
 1.7329799329e+00	 1.8018826604e+00	 1.1587973226e+00
 1.7153407314e+00	 1.8186826527e+00	 1.2208871733e+00
 1.6975411540e+00	 1.8353076719e+00	 1.2854220134e+00
 1.6795837954e+00	 1.8517554575e+00	 1.3467172898e+00
 1.6203074465e+00	 1.7864027773e+00	 1.8237575125e+00
 1.6028311975e+00	 1.8020996229e+00	 1.9049292788e+00
 1.5852078436e+00	 1.8176211925e+00	 1.9541271258e+00
 1.5674400381e+00	 1.8329654303e+00	 1.9716478943e+00
 1.5495304716e+00	 1.8481303335e+00	 1.9587694456e+00
 1.5314818712e+00	 1.8631139533e+00	 1.9181472513e+00
 1.5132969987e+00	 1.8779143959e+00	 1.8539786583e+00
 1.4949786493e+00	 1.8925298230e+00	 1.7705243032e+00
 1.4765296504e+00	 1.9069584527e+00	 1.6720440410e+00
 1.4579528601e+00	 1.9211985599e+00	 1.5595388999e+00
 1.4392511656e+00	 1.9352484777e+00	 1.4406298036e+00
 1.6262349630e+00	 1.7929379148e+00	 1.7851447941e+00
 1.6086947811e+00	 1.8086921836e+00	 1.8614023156e+00
 1.5910069564e+00	 1.8242705352e+00	 1.9084409229e+00
 1.5731741515e+00	 1.8396709063e+00	 1.9260904128e+00
 1.5551990671e+00	 1.8548912868e+00	 1.9152446231e+00
 1.5370844401e+00	 1.8699297207e+00	 1.8787305527e+00
 1.5188330424e+00	 1.8847843073e+00	 1.8201338405e+00
 1.5004476796e+00	 1.8994532015e+00	 1.7431638945e+00
 1.4819311894e+00	 1.9139346149e+00	 1.6518455363e+00
 1.4632864402e+00	 1.9282268163e+00	 1.5481543964e+00
 1.4445163299e+00	 1.9423281324e+00	 1.4371743197e+00
 1.6321624744e+00	 1.7994730467e+00	 1.7476577848e+00
 1.6145583599e+00	 1.8152847387e+00	 1.8191997225e+00
 1.5968060642e+00	 1.8309198723e+00	 1.8641341063e+00
 1.5789082600e+00	 1.8463763767e+00	 1.8818579478e+00
 1.5608676577e+00	 1.8616522344e+00	 1.8731558271e+00
 1.5426870042e+00	 1.8767454823e+00	 1.8408888110e+00
 1.5243690814e+00	 1.8916542128e+00	 1.7879414215e+00
 1.5059167053e+00	 1.9063765741e+00	 1.7175262934e+00
 1.4873327238e+00	 1.9209107712e+00	 1.6331863250e+00
 1.4686200158e+00	 1.9352550667e+00	 1.5377861081e+00
 1.4497814898e+00	 1.9494077810e+00	 1.4346217690e+00
 1.6380899926e+00	 1.8060081860e+00	 1.7100836397e+00
 1.6204219452e+00	 1.8218773012e+00	 1.7772132815e+00
 1.6026051786e+00	 1.8375692170e+00	 1.8201913751e+00
 1.5846423750e+00	 1.8530818547e+00	 1.8380205935e+00
 1.5665362547e+00	 1.8684131896e+00	 1.8318531002e+00
 1.5482895746e+00	 1.8835612516e+00	 1.8040314439e+00
 1.5299051268e+00	 1.8985241261e+00	 1.7568849323e+00
 1.5113857372e+00	 1.9132999545e+00	 1.6931598084e+00
 1.4927342643e+00	 1.9278869355e+00	 1.6159461987e+00
 1.4739535975e+00	 1.9422833250e+00	 1.5283516045e+00
 1.4550466556e+00	 1.9564874378e+00	 1.4329501699e+00
 1.6440175292e+00	 1.8125433457e+00	 1.6712259420e+00
 1.6262855489e+00	 1.8284698844e+00	 1.7343495581e+00
 1.6084043111e+00	 1.8442185823e+00	 1.7756105048e+00
 1.5903765079e+00	 1.8597873535e+00	 1.7938886361e+00
 1.5722048695e+00	 1.8751741659e+00	 1.7906973189e+00
 1.5538921625e+00	 1.8903770422e+00	 1.7676012117e+00
 1.5354411893e+00	 1.9053940608e+00	 1.7264801282e+00
 1.5168547861e+00	 1.9202233566e+00	 1.6696440319e+00
 1.4981358216e+00	 1.9348631214e+00	 1.5997591554e+00
 1.4792871957e+00	 1.9493116053e+00	 1.5197605992e+00
 1.4603118379e+00	 1.9635671165e+00	 1.4321290379e+00
 1.6499450961e+00	 1.8190785387e+00	 1.6299067690e+00
 1.6321491824e+00	 1.8350625011e+00	 1.6895320037e+00
 1.6142034732e+00	 1.8508679816e+00	 1.7294044842e+00
 1.5961106701e+00	 1.8664928866e+00	 1.7488419527e+00
 1.5778735131e+00	 1.8819351767e+00	 1.7490830074e+00
 1.5594947790e+00	 1.8971928675e+00	 1.7310732548e+00
 1.5409772801e+00	 1.9122640306e+00	 1.6962740498e+00
 1.5223238629e+00	 1.9271467939e+00	 1.6465889231e+00
 1.5035374065e+00	 1.9418393430e+00	 1.5842888206e+00
 1.4846208212e+00	 1.9563399214e+00	 1.5119407346e+00
 1.4655770470e+00	 1.9706468314e+00	 1.4321204206e+00
 1.6558727049e+00	 1.8256137780e+00	 1.5849687622e+00
 1.6380128575e+00	 1.8416551646e+00	 1.6417030630e+00
 1.6200026763e+00	 1.8575174280e+00	 1.6807604639e+00
 1.6018448729e+00	 1.8731984671e+00	 1.7022200698e+00
 1.5835421969e+00	 1.8886962354e+00	 1.7064373532e+00
 1.5650974351e+00	 1.9040087412e+00	 1.6939541337e+00
 1.5465134101e+00	 1.9191340490e+00	 1.6658440860e+00
 1.5277929785e+00	 1.9340702803e+00	 1.6236338925e+00
 1.5089390297e+00	 1.9488156140e+00	 1.5692275520e+00
 1.4899544845e+00	 1.9633682873e+00	 1.5048341957e+00
 1.4708422934e+00	 1.9777265965e+00	 1.4328799317e+00
 1.6618003675e+00	 1.8321490766e+00	 1.5352772019e+00
 1.6438765857e+00	 1.8482478878e+00	 1.5898262846e+00
 1.6258019321e+00	 1.8641669346e+00	 1.6291360055e+00
 1.6075791276e+00	 1.8799041085e+00	 1.6533955807e+00
 1.5892109321e+00	 1.8954573554e+00	 1.6622192249e+00
 1.5707001421e+00	 1.9108246766e+00	 1.6557808711e+00
 1.5520495904e+00	 1.9260041297e+00	 1.6347970385e+00
 1.5332621437e+00	 1.9409938295e+00	 1.6004468874e+00
 1.5143407018e+00	 1.9557919482e+00	 1.5542955449e+00
 1.4952881961e+00	 1.9703967169e+00	 1.4982210602e+00
 1.4761075875e+00	 1.9848064257e+00	 1.4343577848e+00
 1.6677280956e+00	 1.8386844474e+00	 1.4797220871e+00
 1.6497403788e+00	 1.8548406839e+00	 1.5329396610e+00
 1.6316012519e+00	 1.8708165148e+00	 1.5738473684e+00
 1.6133134458e+00	 1.8866098240e+00	 1.6017731415e+00
 1.5948797299e+00	 1.9022185501e+00	 1.6159181935e+00
 1.5763029110e+00	 1.9176406873e+00	 1.6161199957e+00
 1.5575858317e+00	 1.9328742864e+00	 1.6027681880e+00
 1.5387313693e+00	 1.9479174551e+00	 1.5767234789e+00
 1.5197424337e+00	 1.9627683595e+00	 1.5392399378e+00
 1.5006219666e+00	 1.9774252242e+00	 1.4918910442e+00
 1.4813729399e+00	 1.9918863332e+00	 1.4364998254e+00
 1.6736559010e+00	 1.8452199034e+00	 1.4172202189e+00
 1.6556042483e+00	 1.8614335659e+00	 1.4705193829e+00
 1.6374006473e+00	 1.8774661816e+00	 1.5142391387e+00
 1.6190478386e+00	 1.8933156268e+00	 1.5467884697e+00
 1.6005486016e+00	 1.9089798329e+00	 1.5670535546e+00
 1.5819057529e+00	 1.9244567869e+00	 1.5745665884e+00
 1.5631221453e+00	 1.9397445325e+00	 1.5694203618e+00
 1.5442006662e+00	 1.9548411710e+00	 1.5521859499e+00
 1.5251442359e+00	 1.9697448618e+00	 1.5238339201e+00
 1.5059558067e+00	 1.9844538231e+00	 1.4856594295e+00
 1.4866383608e+00	 1.9989663329e+00	 1.4392115338e+00
 1.6795837954e+00	 1.8517554575e+00	 1.3467172898e+00
 1.6614682058e+00	 1.8680265469e+00	 1.4019104333e+00
 1.6432001298e+00	 1.8841159483e+00	 1.4496874375e+00
 1.6247823176e+00	 1.9000215304e+00	 1.4879073463e+00
 1.6062175584e+00	 1.9157412173e+00	 1.5151733542e+00
 1.5875086789e+00	 1.9312729888e+00	 1.5307433301e+00
 1.5686585420e+00	 1.9466148819e+00	 1.5344430032e+00
 1.5496700452e+00	 1.9617649909e+00	 1.5265823842e+00
 1.5305461193e+00	 1.9767214688e+00	 1.5078758391e+00
 1.5112897269e+00	 1.9914825276e+00	 1.4793661880e+00
 1.4919038608e+00	 2.0060464390e+00	 1.4423531587e+00
 1.4392511656e+00	 1.9352484777e+00	 1.4406298036e+00
 1.4204306899e+00	 1.9491042590e+00	 1.3208842610e+00
 1.4014911956e+00	 1.9627667656e+00	 1.2033095705e+00
 1.3824356367e+00	 1.9762345155e+00	 1.0926505585e+00
 1.3632669907e+00	 1.9895060861e+00	 9.9274235647e-01
 1.3439882566e+00	 2.0025801153e+00	 9.0660973859e-01
 1.3246024542e+00	 2.0154553015e+00	 8.3656146284e-01
 1.3051126218e+00	 2.0281304037e+00	 7.8427935492e-01
 1.2855218152e+00	 2.0406042425e+00	 7.5090192259e-01
 1.2658331062e+00	 2.0528756997e+00	 7.3710233813e-01
 1.2460495804e+00	 2.0649437185e+00	 7.4316067506e-01
 1.4445163299e+00	 1.9423281324e+00	 1.4371743197e+00
 1.4256270039e+00	 1.9562346018e+00	 1.3243948276e+00
 1.4066182239e+00	 1.9699470896e+00	 1.2130189364e+00
 1.3874929547e+00	 1.9834641080e+00	 1.1076321835e+00
 1.3682541846e+00	 1.9967842296e+00	 1.0119244168e+00
 1.3489049238e+00	 2.0099060871e+00	 9.2879077328e-01
 1.3294482030e+00	 2.0228283741e+00	 8.6042746083e-01
 1.3098870716e+00	 2.0355498453e+00	 8.0842207978e-01
 1.2902245966e+00	 2.0480693167e+00	 7.7383827311e-01
 1.2704638610e+00	 2.0603856661e+00	 7.5729454442e-01
 1.2506079619e+00	 2.0724978330e+00	 7.5903713273e-01
 1.4497814898e+00	 1.9494077810e+00	 1.4346217690e+00
 1.4308233135e+00	 1.9633649386e+00	 1.3288178770e+00
 1.4117452479e+00	 1.9771274074e+00	 1.2237483872e+00
 1.3925502684e+00	 1.9906936944e+00	 1.1238377405e+00
 1.3732413744e+00	 2.0040623669e+00	 1.0326282120e+00
 1.3538215869e+00	 2.0172320527e+00	 9.5288254891e-01
 1.3342939476e+00	 2.0302014405e+00	 8.8668120644e-01
 1.3146615173e+00	 2.0429692805e+00	 8.3551391833e-01
 1.2949273741e+00	 2.0555343845e+00	 8.0036539027e-01
 1.2750946119e+00	 2.0678956261e+00	 7.8179495793e-01
 1.2551663394e+00	 2.0800519410e+00	 7.8001010135e-01
 1.4550466556e+00	 1.9564874378e+00	 1.4329501699e+00
 1.4360196290e+00	 1.9704952835e+00	 1.3341806415e+00
 1.4168722776e+00	 1.9843077334e+00	 1.2355630159e+00
 1.3976075879e+00	 1.9979232890e+00	 1.1413588296e+00
 1.3782285698e+00	 2.0113405125e+00	 1.0549605200e+00
 1.3587382555e+00	 2.0245580265e+00	 9.7899574030e-01
 1.3391396978e+00	 2.0375745152e+00	 9.1542606306e-01
 1.3194359685e+00	 2.0503887242e+00	 8.6563980995e-01
 1.2996301568e+00	 2.0629994608e+00	 8.3053879577e-01
 1.2797253681e+00	 2.0754055947e+00	 8.1061883034e-01
 1.2597247222e+00	 2.0876060576e+00	 8.0604387323e-01
 1.4603118379e+00	 1.9635671165e+00	 1.4321290379e+00
 1.4412159607e+00	 1.9776256506e+00	 1.3405012819e+00
 1.4219993234e+00	 1.9914880817e+00	 1.2485183557e+00
 1.4026649231e+00	 2.0051529062e+00	 1.1602770847e+00
 1.3832157807e+00	 2.0186186807e+00	 1.0790178297e+00
 1.3636549395e+00	 2.0318840232e+00	 1.0072304952e+00
 1.3439854631e+00	 2.0449476129e+00	 9.4675471533e-01
 1.3242104345e+00	 2.0578081910e+00	 8.9887395200e-01
 1.3043329542e+00	 2.0704645604e+00	 8.6440329643e-01
 1.2843561387e+00	 2.0829155867e+00	 8.4377081809e-01
 1.2642831191e+00	 2.0951601978e+00	 8.3709235999e-01
 1.4655770470e+00	 1.9706468314e+00	 1.4321204206e+00
 1.4464123189e+00	 1.9847560540e+00	 1.3477899236e+00
 1.4271263953e+00	 1.9986684667e+00	 1.2626614148e+00
 1.4077222841e+00	 2.0123825602e+00	 1.1806652032e+00
 1.3882030171e+00	 2.0258968861e+00	 1.1048873610e+00
 1.3685716485e+00	 2.0392100573e+00	 1.0376774415e+00
 1.3488312531e+00	 2.0523207483e+00	 9.8075016003e-01
 1.3289849249e+00	 2.0652276956e+00	 9.3528077102e-01
 1.3090357756e+00	 2.0779296980e+00	 9.0199393227e-01
 1.2889869330e+00	 2.0904256169e+00	 8.8124590409e-01
 1.2688415393e+00	 2.1027143765e+00	 8.7309998445e-01
 1.4708422934e+00	 1.9777265965e+00	 1.4328799317e+00
 1.4516087140e+00	 1.9918865080e+00	 1.3560496929e+00
 1.4322535035e+00	 2.0058489026e+00	 1.2780317093e+00
 1.4127796809e+00	 2.0196122654e+00	 1.2025879727e+00
 1.3931902888e+00	 2.0331751430e+00	 1.1326480828e+00
 1.3734883924e+00	 2.0465361432e+00	 1.0704186924e+00
 1.3536770774e+00	 2.0596939358e+00	 1.0174866957e+00
 1.3337594491e+00	 2.0726472528e+00	 9.7491589291e-01
 1.3137386303e+00	 2.0853948885e+00	 9.4333692391e-01
 1.2936177600e+00	 2.0979357004e+00	 9.2303031889e-01
 1.2733999918e+00	 2.1102686087e+00	 9.1400257235e-01
 1.4761075875e+00	 1.9848064257e+00	 1.4343577848e+00
 1.4568051561e+00	 1.9990170267e+00	 1.3652777505e+00
 1.4373806582e+00	 2.0130294035e+00	 1.2946622956e+00
 1.4178371236e+00	 2.0268420362e+00	 1.2261032978e+00
 1.3981776057e+00	 2.0404534659e+00	 1.1623717306e+00
 1.3784051808e+00	 2.0538622956e+00	 1.1055288518e+00
 1.3585229457e+00	 2.0670671902e+00	 1.0570309111e+00
 1.3385340166e+00	 2.0800668772e+00	 1.0178271122e+00
 1.3184415276e+00	 2.0928601467e+00	 9.8845061916e-01
 1.2982486290e+00	 2.1054458520e+00	 9.6910246137e-01
 1.2779584857e+00	 2.1178229093e+00	 9.5972824391e-01
 1.4813729399e+00	 1.9918863332e+00	 1.4364998254e+00
 1.4620016556e+00	 2.0061476241e+00	 1.3754663260e+00
 1.4425078696e+00	 2.0202099838e+00	 1.3125808015e+00
 1.4228946221e+00	 2.0340718869e+00	 1.2512632253e+00
 1.4031649778e+00	 2.0477318693e+00	 1.1941238223e+00
 1.3833220236e+00	 2.0611885290e+00	 1.1430760171e+00
 1.3633688675e+00	 2.0744405261e+00	 1.0994426732e+00
 1.3433086369e+00	 2.0874865836e+00	 1.0640553604e+00
 1.3231444770e+00	 2.1003254874e+00	 1.0373464389e+00
 1.3028795492e+00	 2.1129560865e+00	 1.0194338190e+00
 1.2825170299e+00	 2.1253772935e+00	 1.0101983052e+00
 1.4866383608e+00	 1.9989663329e+00	 1.4392115338e+00
 1.4671982229e+00	 2.0132783144e+00	 1.3866037497e+00
 1.4476351478e+00	 2.0273906577e+00	 1.3318104563e+00
 1.4279521866e+00	 2.0413018318e+00	 1.2781149684e+00
 1.4081524148e+00	 2.0550103675e+00	 1.2279646732e+00
 1.3882389304e+00	 2.0685148578e+00	 1.1831227819e+00
 1.3682148525e+00	 2.0818139581e+00	 1.1447761135e+00
 1.3480833194e+00	 2.0949063868e+00	 1.1136356737e+00
 1.3278474876e+00	 2.1077909254e+00	 1.0900298227e+00
 1.3075105298e+00	 2.1204664190e+00	 1.0739898879e+00
 1.2870756335e+00	 2.1329317761e+00	 1.0653281397e+00
 1.4919038608e+00	 2.0060464390e+00	 1.4423531587e+00
 1.4723948682e+00	 2.0204091119e+00	 1.3986754857e+00
 1.4527625030e+00	 2.0345714394e+00	 1.3523711201e+00
 1.4330098270e+00	 2.0485318853e+00	 1.3067019303e+00
 1.4131399268e+00	 2.0622889750e+00	 1.2639504103e+00
 1.3931559111e+00	 2.0758412966e+00	 1.2257272379e+00
 1.3730609102e+00	 2.0891875008e+00	 1.1930806138e+00
 1.3528580736e+00	 2.1023263013e+00	 1.1665981600e+00
 1.3325505688e+00	 2.1152564755e+00	 1.1465011733e+00
 1.3121415799e+00	 2.1279768642e+00	 1.1327310923e+00
 1.2916343056e+00	 2.1404863722e+00	 1.1250280993e+00
 1.2460495804e+00	 2.0649437185e+00	 7.4316067506e-01
 1.2261743371e+00	 2.0768073048e+00	 7.6491284521e-01
 1.2062104879e+00	 2.0884655282e+00	 7.9579321726e-01
 1.1861611550e+00	 2.0999175207e+00	 8.3220281428e-01
 1.1660294682e+00	 2.1111624763e+00	 8.7055340626e-01
 1.1458185643e+00	 2.1221996512e+00	 9.0731328293e-01
 1.1255315851e+00	 2.1330283633e+00	 9.3904725729e-01
 1.1051716761e+00	 2.1436479923e+00	 9.6268724101e-01
 1.0847419850e+00	 2.1540579796e+00	 9.7948590575e-01
 1.0642456601e+00	 2.1642578281e+00	 9.8940430359e-01
 1.0436858490e+00	 2.1742471019e+00	 9.9132636019e-01
 1.2506079619e+00	 2.0724978330e+00	 7.5903713273e-01
 1.2306600096e+00	 2.0844048195e+00	 7.7559152085e-01
 1.2106231274e+00	 2.0961056917e+00	 8.0116466184e-01
 1.1905004486e+00	 2.1075995786e+00	 8.3226336265e-01
 1.1702951147e+00	 2.1188856713e+00	 8.6540408246e-01
 1.1500102740e+00	 2.1299632231e+00	 8.9715857954e-01
 1.1296490796e+00	 2.1408315495e+00	 9.2419366061e-01
 1.1092146886e+00	 2.1514900279e+00	 9.4333160333e-01
 1.0887102603e+00	 2.1619380978e+00	 9.5547294157e-01
 1.0681389543e+00	 2.1721752601e+00	 9.6175405099e-01
 1.0475039300e+00	 2.1822010773e+00	 9.6115435467e-01
 1.2551663394e+00	 2.0800519410e+00	 7.8001010135e-01
 1.2351456783e+00	 2.0920023276e+00	 7.9211723990e-01
 1.2150357631e+00	 2.1037458487e+00	 8.1299176668e-01
 1.1948397385e+00	 2.1152816300e+00	 8.3924917794e-01
 1.1745607577e+00	 2.1266088598e+00	 8.6751537868e-01
 1.1542019801e+00	 2.1377267885e+00	 8.9447215635e-01
 1.1337665706e+00	 2.1486347291e+00	 9.1689662422e-01
 1.1132576977e+00	 2.1593320570e+00	 9.3169482667e-01
 1.0926785322e+00	 2.1698182093e+00	 9.3888515141e-01
 1.0720322453e+00	 2.1800926853e+00	 9.4110456527e-01
 1.0513220077e+00	 2.1901550459e+00	 9.3747086026e-01
 1.2597247222e+00	 2.0876060576e+00	 8.0604387323e-01
 1.2396313521e+00	 2.0995998444e+00	 8.1440490635e-01
 1.2194484037e+00	 2.1113860144e+00	 8.3115383231e-01
 1.1991790334e+00	 2.1229636902e+00	 8.5301785257e-01
 1.1788264054e+00	 2.1343320569e+00	 8.7673718648e-01
 1.1583936909e+00	 2.1454903626e+00	 8.9911032379e-01
 1.1378840663e+00	 2.1564379176e+00	 9.1703310933e-01
 1.1173007114e+00	 2.1671740948e+00	 9.2753186180e-01
 1.0966468086e+00	 2.1776983297e+00	 9.2974947019e-01
 1.0759255406e+00	 2.1880101195e+00	 9.2754684533e-01
 1.0551400898e+00	 2.1981090235e+00	 9.2044549858e-01
 1.2642831191e+00	 2.0951601978e+00	 8.3709235999e-01
 1.2441170398e+00	 2.1071973849e+00	 8.4235918108e-01
 1.2238610582e+00	 2.1190262039e+00	 8.5551980598e-01
 1.2035183418e+00	 2.1306457742e+00	 8.7341627198e-01
 1.1830920665e+00	 2.1420552782e+00	 8.9290809759e-01
 1.1625854149e+00	 2.1532539609e+00	 9.1091726510e-01
 1.1420015748e+00	 2.1642411303e+00	 9.2446689317e-01
 1.1213437377e+00	 2.1750161572e+00	 9.3071381105e-01
 1.1006150974e+00	 2.1855784746e+00	 9.2807786025e-01
 1.0798188481e+00	 2.1959275783e+00	 9.2115757030e-01
 1.0589581837e+00	 2.2060630259e+00	 9.1023406166e-01
 1.2688415393e+00	 2.1027143765e+00	 8.7309998445e-01
 1.2486027505e+00	 2.1147949641e+00	 8.7587534381e-01
 1.2282737351e+00	 2.1266664324e+00	 8.8594911675e-01
 1.2078576723e+00	 2.1383278975e+00	 9.0028142579e-01
 1.1873577493e+00	 2.1497785389e+00	 9.1585619415e-01
 1.1667771602e+00	 2.1610175988e+00	 9.2972580887e-01
 1.1461191043e+00	 2.1720443829e+00	 9.3904932682e-01
 1.1253867846e+00	 2.1828582595e+00	 9.4112444578e-01
 1.1045834064e+00	 2.1934586598e+00	 9.3386642169e-01
 1.0837121755e+00	 2.2038450776e+00	 9.2199824673e-01
 1.0627762972e+00	 2.2140170689e+00	 9.0697770007e-01
 1.2733999918e+00	 2.1102686087e+00	 9.1400257235e-01
 1.2530884929e+00	 2.1223925971e+00	 9.1484015523e-01
 1.2326864433e+00	 2.1343067149e+00	 9.2229251086e-01
 1.2121970336e+00	 2.1460100752e+00	 9.3344121938e-01
 1.1916234624e+00	 2.1575018542e+00	 9.4539983954e-01
 1.1709689352e+00	 2.1687812918e+00	 9.5535820196e-01
 1.1502366630e+00	 2.1798476908e+00	 9.6062009344e-01
 1.1294298602e+00	 2.1907004174e+00	 9.5863456513e-01
 1.1085517435e+00	 2.2013389008e+00	 9.4709450250e-01
 1.0876055305e+00	 2.2117626329e+00	 9.3011435550e-01
 1.0665944377e+00	 2.2219711682e+00	 9.1080211015e-01
 1.2779584857e+00	 2.1178229093e+00	 9.5972824391e-01
 1.2575742760e+00	 2.1299902990e+00	 9.5913271915e-01
 1.2370991916e+00	 2.1419470668e+00	 9.6439288740e-01
 1.2165364342e+00	 2.1536923225e+00	 9.7271528597e-01
 1.1958892141e+00	 2.1652252396e+00	 9.8134846967e-01
 1.1751607482e+00	 2.1765450551e+00	 9.8762688305e-01
 1.1543542590e+00	 2.1876510694e+00	 9.8900796682e-01
 1.1334729724e+00	 2.1985426464e+00	 9.8310274263e-01
 1.1125201166e+00	 2.2092192132e+00	 9.6770015609e-01
 1.0914989207e+00	 2.2196802600e+00	 9.4553449797e-01
 1.0704126128e+00	 2.2299253397e+00	 9.2219454544e-01
 1.2825170299e+00	 2.1253772935e+00	 1.0101983052e+00
 1.2620601087e+00	 2.1375880849e+00	 1.0086253449e+00
 1.2415119885e+00	 2.1495875031e+00	 1.0120861344e+00
 1.2208758827e+00	 2.1613746547e+00	 1.0179157992e+00
 1.2001550129e+00	 2.1729487103e+00	 1.0235033849e+00
 1.1793526076e+00	 2.1843089042e+00	 1.0263352567e+00
 1.1584719005e+00	 2.1954545342e+00	 1.0240315704e+00
 1.1375161293e+00	 2.2063849620e+00	 1.0143760731e+00
 1.1164885336e+00	 2.2170996128e+00	 9.9533952244e-01
 1.0953923540e+00	 2.2275979746e+00	 9.6843994859e-01
 1.0742308301e+00	 2.2378795990e+00	 9.4158452259e-01
 1.2870756335e+00	 2.1329317761e+00	 1.0653281397e+00
 1.2665459998e+00	 2.1451859698e+00	 1.0631844099e+00
 1.2459248430e+00	 2.1572280389e+00	 1.0652019654e+00
 1.2252153879e+00	 2.1690570871e+00	 1.0688482862e+00
 1.2044208674e+00	 2.1806722817e+00	 1.0716585426e+00
 1.1835445216e+00	 2.1920728544e+00	 1.0712784677e+00
 1.1625895957e+00	 2.2032581007e+00	 1.0655001369e+00
 1.1415593388e+00	 2.2142273799e+00	 1.0522909200e+00
 1.1204570023e+00	 2.2249801150e+00	 1.0298580769e+00
 1.0992858380e+00	 2.2355157924e+00	 9.9929877103e-01
 1.0780490972e+00	 2.2458339620e+00	 9.6892872812e-01
 1.2916343056e+00	 2.1404863722e+00	 1.1250280993e+00
 1.2710319583e+00	 2.1527839688e+00	 1.1226712227e+00
 1.2503377638e+00	 2.1648686895e+00	 1.1235647563e+00
 1.2295549582e+00	 2.1767396348e+00	 1.1253124416e+00
 1.2086867859e+00	 2.1883959691e+00	 1.1256013500e+00
 1.1877364985e+00	 2.1998369213e+00	 1.1222441768e+00
 1.1667073527e+00	 2.2110617844e+00	 1.1132142681e+00
 1.1456026092e+00	 2.2220699155e+00	 1.0966736627e+00
 1.1244255306e+00	 2.2328607355e+00	 1.0715897714e+00
 1.1031793805e+00	 2.2434337292e+00	 1.0380322370e+00
 1.0818674217e+00	 2.2537884445e+00	 1.0041801149e+00
 1.0436858490e+00	 2.1742471019e+00	 9.9132636019e-01
 1.0230621863e+00	 2.1840270702e+00	 9.8695703941e-01
 1.0023813045e+00	 2.1935957011e+00	 9.7948437755e-01
 9.8164634100e-01	 2.2029527390e+00	 9.7012996134e-01
 9.6086042659e-01	 2.2120979880e+00	 9.6009393202e-01
 9.4002668437e-01	 2.2210313121e+00	 9.5054020078e-01
 9.1914822827e-01	 2.2297526340e+00	 9.4318769248e-01
 8.9822816176e-01	 2.2382619351e+00	 9.4003748420e-01
 8.7726957648e-01	 2.2465592549e+00	 9.4202838074e-01
 8.5627555101e-01	 2.2546446902e+00	 9.5002124916e-01
 8.3524914955e-01	 2.2625183949e+00	 9.6482252185e-01
 1.0475039300e+00	 2.1822010773e+00	 9.6115435467e-01
 1.0268048204e+00	 2.1920168233e+00	 9.5504548394e-01
 1.0060482825e+00	 2.2016204588e+00	 9.4624749199e-01
 9.8523746494e-01	 2.2110117272e+00	 9.3599619377e-01
 9.6437551011e-01	 2.2201904320e+00	 9.2549723709e-01
 9.4346555251e-01	 2.2291564366e+00	 9.1639331698e-01
 9.2251071746e-01	 2.2379096633e+00	 9.1083112516e-01
 9.0151411976e-01	 2.2464500938e+00	 9.0983862533e-01
 8.8047886239e-01	 2.2547777674e+00	 9.1433654816e-01
 8.5940803518e-01	 2.2628927814e+00	 9.2518776357e-01
 8.3830471354e-01	 2.2707952902e+00	 9.4320670308e-01
 1.0513220077e+00	 2.1901550459e+00	 9.3747086026e-01
 1.0305474514e+00	 2.2000065696e+00	 9.2910015431e-01
 1.0097152573e+00	 2.2096452097e+00	 9.1851440084e-01
 9.8882858582e-01	 2.2190707086e+00	 9.0695625231e-01
 9.6789059065e-01	 2.2282828691e+00	 8.9597139298e-01
 9.4690441773e-01	 2.2372815541e+00	 8.8782146682e-01
 9.2587320378e-01	 2.2460666858e+00	 8.8364044981e-01
 9.0480007497e-01	 2.2546382455e+00	 8.8439939410e-01
 8.8368814558e-01	 2.2629962729e+00	 8.9100604221e-01
 8.6254051669e-01	 2.2711408655e+00	 9.0431514673e-01
 8.4136027494e-01	 2.2790721784e+00	 9.2513776584e-01
 1.0551400898e+00	 2.1981090235e+00	 9.2044549858e-01
 1.0342900865e+00	 2.2079963250e+00	 9.0936932311e-01
 1.0133822363e+00	 2.2176699697e+00	 8.9659760144e-01
 9.9241971078e-01	 2.2271296991e+00	 8.8358181894e-01
 9.7140567517e-01	 2.2363753154e+00	 8.7264524121e-01
 9.5034328684e-01	 2.2454066809e+00	 8.6505910024e-01
 9.2923569392e-01	 2.2542237175e+00	 8.6184000089e-01
 9.0808603391e-01	 2.2628264065e+00	 8.6393361189e-01
 8.8689743241e-01	 2.2712147877e+00	 8.7222599137e-01
 8.6567300176e-01	 2.2793889591e+00	 8.8755381268e-01
 8.4441583981e-01	 2.2873490761e+00	 9.1071355467e-01
 1.0589581837e+00	 2.2060630259e+00	 9.1023406166e-01
 1.0380327334e+00	 2.2159861053e+00	 8.9608796122e-01
 1.0170492267e+00	 2.2256947547e+00	 8.8089441935e-01
 9.9601084693e-01	 2.2351887148e+00	 8.6696456299e-01
 9.7492077064e-01	 2.2444677870e+00	 8.5575168513e-01
 9.5378216668e-01	 2.2535318330e+00	 8.4831814675e-01
 9.3259819454e-01	 2.2623807746e+00	 8.4564541509e-01
 9.1137200309e-01	 2.2710145930e+00	 8.4864650532e-01
 8.9010672924e-01	 2.2794333281e+00	 8.5817724425e-01
 8.6880549659e-01	 2.2876370783e+00	 8.7504642201e-01
 8.4747141419e-01	 2.2956259995e+00	 9.0002489811e-01
 1.0627762972e+00	 2.2140170689e+00	 9.0697770007e-01
 1.0417753994e+00	 2.2239759263e+00	 8.8950020748e-01
 1.0207162359e+00	 2.2337195806e+00	 8.7239250232e-01
 9.9960200140e-01	 2.2432477715e+00	 8.5734683240e-01
 9.7843588405e-01	 2.2525602997e+00	 8.4547668229e-01
 9.5722106406e-01	 2.2616570266e+00	 8.3780220219e-01
 9.3596071231e-01	 2.2705378734e+00	 8.3526387745e-01
 9.1465798904e-01	 2.2792028213e+00	 8.3873493973e-01
 8.9331604244e-01	 2.2876519105e+00	 8.4903258678e-01
 8.7193800740e-01	 2.2958852396e+00	 8.6692807899e-01
 8.5052700417e-01	 2.3039029651e+00	 8.9315578219e-01
 1.0665944377e+00	 2.2219711682e+00	 9.1080211015e-01
 1.0455180918e+00	 2.2319658039e+00	 8.9039866633e-01
 1.0243832710e+00	 2.2417444634e+00	 8.7136460080e-01
 1.0031931813e+00	 2.2513068854e+00	 8.5487555380e-01
 9.8195102236e-01	 2.2606528699e+00	 8.4199844154e-01
 9.6065998580e-01	 2.2697822777e+00	 8.3370678228e-01
 9.3932325391e-01	 2.2786950299e+00	 8.3089436610e-01
 9.1794399826e-01	 2.2873911076e+00	 8.3438765149e-01
 8.9652537837e-01	 2.2958705511e+00	 8.4495695829e-01
 8.7507054039e-01	 2.3041334593e+00	 8.6332652804e-01
 8.5358261579e-01	 2.3121799894e+00	 8.9018352364e-01
 1.0704126128e+00	 2.2299253397e+00	 9.2219454544e-01
 1.0492608182e+00	 2.2399557540e+00	 8.9911637631e-01
 1.0280503394e+00	 2.2497694189e+00	 8.7790604691e-01
 1.0067843938e+00	 2.2593660723e+00	 8.5969070011e-01
 9.8546619255e-01	 2.2687455134e+00	 8.4548768052e-01
 9.6409893872e-01	 2.2779076024e+00	 8.3621957484e-01
 9.4268582599e-01	 2.2868522604e+00	 8.3272789569e-01
 9.2123003728e-01	 2.2955794682e+00	 8.3578547893e-01
 8.9973474341e-01	 2.3040892662e+00	 8.4610766660e-01
 8.7820310180e-01	 2.3123817538e+00	 8.6436234930e-01
 8.5663825511e-01	 2.3204570887e+00	 8.9117894256e-01
 1.0742308301e+00	 2.2378795990e+00	 9.4158452259e-01
 1.0530035860e+00	 2.2479457923e+00	 9.1568499401e-01
 1.0317174483e+00	 2.2577944631e+00	 8.9210621293e-01
 1.0103756459e+00	 2.2674253482e+00	 8.7192554823e-01
 9.8898140158e-01	 2.2768382463e+00	 8.5610788169e-01
 9.6753792965e-01	 2.2860330170e+00	 8.4552069067e-01
 9.4604843524e-01	 2.2950095810e+00	 8.4094775948e-01
 9.2451611261e-01	 2.3037679192e+00	 8.4310159221e-01
 9.0294414392e-01	 2.3123080721e+00	 8.5263460205e-01
 8.8133569782e-01	 2.3206301395e+00	 8.7014915352e-01
 8.5969392821e-01	 2.3287342795e+00	 8.9620653477e-01
 1.0780490972e+00	 2.2458339620e+00	 9.6892872812e-01
 1.0567464026e+00	 2.2559359348e+00	 9.4013139841e-01
 1.0353846049e+00	 2.2658196119e+00	 9.1404876623e-01
 1.0139669449e+00	 2.2754847292e+00	 8.9170693578e-01
 9.9249665643e-01	 2.2849310847e+00	 8.7401554723e-01
 9.7097696541e-01	 2.2941585375e+00	 8.6178291312e-01
 9.4941108831e-01	 2.3031670080e+00	 8.5572977014e-01
 9.2780223078e-01	 2.3119564770e+00	 8.5650172195e-01
 9.0615358625e-01	 2.3205269851e+00	 8.6468045063e-01
 8.8446833467e-01	 2.3288786326e+00	 8.8079377619e-01
 8.6274964113e-01	 2.3370115782e+00	 9.0532464367e-01
 1.0818674217e+00	 2.2537884445e+00	 1.0041801149e+00
 1.0604892753e+00	 2.2639261973e+00	 9.7247793989e-01
 1.0390518167e+00	 2.2738448812e+00	 9.4381192323e-01
 1.0175582978e+00	 2.2835442313e+00	 9.1915551662e-01
 9.9601196407e-01	 2.2930240446e+00	 8.9936045275e-01
 9.7441605281e-01	 2.3022841800e+00	 8.8517194646e-01
 9.5277379189e-01	 2.3113245574e+00	 8.7724249943e-01
 9.3108839829e-01	 2.3201451577e+00	 8.7614438674e-01
 9.0936307679e-01	 2.3287460216e+00	 8.8238090604e-01
 8.8760101857e-01	 2.3371272496e+00	 8.9639647103e-01
 8.6580539994e-01	 2.3452890012e+00	 9.1858563181e-01
 8.3524914955e-01	 2.2625183949e+00	 9.6482252185e-01
 8.1419700195e-01	 2.2701792942e+00	 9.9077292794e-01
 7.9311856621e-01	 2.2776290086e+00	 1.0314890994e+00
 7.7201685366e-01	 2.2848678569e+00	 1.0865680142e+00
 7.5089485646e-01	 2.2918962120e+00	 1.1555090470e+00
 7.2975554654e-01	 2.2987145002e+00	 1.2358535890e+00
 7.0860187444e-01	 2.3053232003e+00	 1.3165744307e+00
 6.8743676824e-01	 2.3117228432e+00	 1.3955242776e+00
 6.6626313250e-01	 2.3179140106e+00	 1.4721147010e+00
 6.4508384729e-01	 2.3238973344e+00	 1.5456894192e+00
 6.2390176713e-01	 2.3296734959e+00	 1.6155245917e+00
 8.3830471354e-01	 2.2707952902e+00	 9.4320670308e-01
 8.1717555158e-01	 2.2784842151e+00	 9.7228753560e-01
 7.9602000531e-01	 2.2859611825e+00	 1.0155707193e+00
 7.7484109706e-01	 2.2932265125e+00	 1.0726207131e+00
 7.5364182997e-01	 2.3002805792e+00	 1.1429059897e+00
 7.3242518682e-01	 2.3071238104e+00	 1.2247311582e+00
 7.1119412895e-01	 2.3137566870e+00	 1.3070589180e+00
 6.8995159515e-01	 2.3201797415e+00	 1.3867447339e+00
 6.6870050062e-01	 2.3263935578e+00	 1.4632149650e+00
 6.4744373593e-01	 2.3323987702e+00	 1.5358241581e+00
 6.2618416607e-01	 2.3381960624e+00	 1.6038556342e+00
 8.4136027494e-01	 2.2790721784e+00	 9.2513776584e-01
 8.2015409868e-01	 2.2867891289e+00	 9.5689600582e-01
 7.9892144194e-01	 2.2942933494e+00	 1.0022432914e+00
 7.7766533807e-01	 2.3015851609e+00	 1.0607222181e+00
 7.5638880115e-01	 2.3086649392e+00	 1.1317820096e+00
 7.3509482484e-01	 2.3155331136e+00	 1.2142904631e+00
 7.1378638126e-01	 2.3221901665e+00	 1.2977031764e+00
 6.9246641992e-01	 2.3286366326e+00	 1.3776479949e+00
 6.7113786665e-01	 2.3348730978e+00	 1.4535810687e+00
 6.4980362257e-01	 2.3409001988e+00	 1.5248836357e+00
 6.2846656308e-01	 2.3467186217e+00	 1.5908628748e+00
 8.4441583981e-01	 2.2873490761e+00	 9.1071355467e-01
 8.2313264915e-01	 2.2950940522e+00	 9.4464283137e-01
 8.0182288185e-01	 2.3026255257e+00	 9.9151003052e-01
 7.8048958228e-01	 2.3099438189e+00	 1.0508464107e+00
 7.5913577544e-01	 2.3170493087e+00	 1.1220934627e+00
 7.3776446588e-01	 2.3239424262e+00	 1.2044742030e+00
 7.1637863651e-01	 2.3306236555e+00	 1.2884401853e+00
 6.9498124755e-01	 2.3370935332e+00	 1.3681680558e+00
 6.7357523546e-01	 2.3433526474e+00	 1.4431585056e+00
 6.5216351188e-01	 2.3494016370e+00	 1.5128350713e+00
 6.3074896268e-01	 2.3552411907e+00	 1.5765452289e+00
 8.4747141419e-01	 2.2956259995e+00	 9.0002489811e-01
 8.2611120891e-01	 2.3033990013e+00	 9.3556625069e-01
 8.0472433082e-01	 2.3109577280e+00	 9.8336849928e-01
 7.8331383529e-01	 2.3183025029e+00	 1.0429619667e+00
 7.6188275830e-01	 2.3254337044e+00	 1.1137917928e+00
 7.4043411524e-01	 2.3323517651e+00	 1.1952243819e+00
 7.1897089984e-01	 2.3390571709e+00	 1.2792028057e+00
 6.9749608302e-01	 2.3455504602e+00	 1.3582391995e+00
 6.7601261186e-01	 2.3518322235e+00	 1.4318932949e+00
 6.5452340855e-01	 2.3579031017e+00	 1.4996462810e+00
 6.3303136939e-01	 2.3637637862e+00	 1.5609021137e+00
 8.5052700417e-01	 2.3039029651e+00	 8.9315578219e-01
 8.2908978386e-01	 2.3117039928e+00	 9.2969839768e-01
 8.0762579458e-01	 2.3192899727e+00	 9.7781073733e-01
 7.8613810271e-01	 2.3266612295e+00	 1.0370324675e+00
 7.6462975516e-01	 2.3338181429e+00	 1.1068236280e+00
 7.4310377822e-01	 2.3407611469e+00	 1.1865720572e+00
 7.2156317639e-01	 2.3474907292e+00	 1.2699235939e+00
 7.0001093131e-01	 2.3540074304e+00	 1.3477958196e+00
 6.7845000069e-01	 2.3603118427e+00	 1.4197318156e+00
 6.5688331725e-01	 2.3664046098e+00	 1.4852855246e+00
 6.3531378774e-01	 2.3722864252e+00	 1.5439333114e+00
 8.5358261579e-01	 2.3121799894e+00	 8.9018352364e-01
 8.3206837992e-01	 2.3200090431e+00	 9.2706545136e-01
 8.1052727889e-01	 2.3276222765e+00	 9.7482339055e-01
 7.8896239013e-01	 2.3350200153e+00	 1.0330165115e+00
 7.6737677149e-01	 2.3422026407e+00	 1.1011308778e+00
 7.4577346011e-01	 2.3491705882e+00	 1.1785866342e+00
 7.2415547130e-01	 2.3559243474e+00	 1.2605346178e+00
 7.0252579742e-01	 2.3624644605e+00	 1.3367722443e+00
 6.8088740679e-01	 2.3687915221e+00	 1.4066206408e+00
 6.5924324268e-01	 2.3749061781e+00	 1.4697213538e+00
 6.3759622226e-01	 2.3808091246e+00	 1.5256388332e+00
 8.5663825511e-01	 2.3204570887e+00	 8.9117894256e-01
 8.3504700298e-01	 2.3283141687e+00	 9.2768778543e-01
 8.1342878952e-01	 2.3359546559e+00	 9.7438784047e-01
 7.9178670316e-01	 2.3433788770e+00	 1.0308678268e+00
 7.7012381272e-01	 2.3505872146e+00	 1.0966508316e+00
 7.4844316621e-01	 2.3575801058e+00	 1.1712012203e+00
 7.2674778972e-01	 2.3643580419e+00	 1.2509672729e+00
 7.0504068633e-01	 2.3709215672e+00	 1.3251025609e+00
 6.8332483499e-01	 2.3772712784e+00	 1.3925063734e+00
 6.6160318950e-01	 2.3834078235e+00	 1.4529224613e+00
 6.3987867747e-01	 2.3893319012e+00	 1.5060187836e+00
 8.5969392821e-01	 2.3287342795e+00	 8.9620653477e-01
 8.3802565895e-01	 2.3366193862e+00	 9.3158011785e-01
 8.1633033221e-01	 2.3442871273e+00	 9.7648033395e-01
 7.9461104741e-01	 2.3517378310e+00	 1.0305353836e+00
 7.7287088431e-01	 2.3589718811e+00	 1.0933162567e+00
 7.5111290181e-01	 2.3659897163e+00	 1.1643433243e+00
 7.2934013679e-01	 2.3727918297e+00	 1.2411520998e+00
 7.0755560303e-01	 2.3793787674e+00	 1.3127204416e+00
 6.8576229012e-01	 2.3857511283e+00	 1.3773354826e+00
 6.6396316239e-01	 2.3919095628e+00	 1.4348575296e+00
 6.4216115791e-01	 2.3978547720e+00	 1.4850732254e+00
 8.6274964113e-01	 2.3370115782e+00	 9.0532464367e-01
 8.4100435376e-01	 2.3449247118e+00	 9.3875166027e-01
 8.1923191271e-01	 2.3526197073e+00	 9.8107211303e-01
 7.9743542846e-01	 2.3600968939e+00	 1.0319635075e+00
 7.7561799170e-01	 2.3673566569e+00	 1.0910554976e+00
 7.5378267220e-01	 2.3743994365e+00	 1.1579361196e+00
 7.3193251764e-01	 2.3812257274e+00	 1.2310186021e+00
 7.1007055251e-01	 2.3878360779e+00	 1.2995589698e+00
 6.8819977702e-01	 2.3942310888e+00	 1.3610541407e+00
 6.6632316605e-01	 2.4004114129e+00	 1.4154950819e+00
 6.4444366809e-01	 2.4063777539e+00	 1.4628020448e+00
 8.6580539994e-01	 2.3452890012e+00	 9.1858563181e-01
 8.4398309329e-01	 2.3532301622e+00	 9.4920626748e-01
 8.2213353680e-01	 2.3609524125e+00	 9.8812954506e-01
 8.0025985193e-01	 2.3684560824e+00	 1.0350919928e+00
 7.7836514035e-01	 2.3757415586e+00	 1.0897925760e+00
 7.5645248269e-01	 2.3828092829e+00	 1.1518985322e+00
 7.3452493742e-01	 2.3896597517e+00	 1.2204950655e+00
 7.1258553976e-01	 2.3962935153e+00	 1.2855504677e+00
 6.9063730053e-01	 2.4027111766e+00	 1.3436080616e+00
 6.6868320514e-01	 2.4089133907e+00	 1.3948033322e+00
 6.4672621255e-01	 2.4149008638e+00	 1.4392048177e+00
 6.2390176713e-01	 2.3296734959e+00	 1.6155245917e+00
 6.0271972034e-01	 2.3352432252e+00	 1.6759333296e+00
 5.8154050900e-01	 2.3406073021e+00	 1.7221903822e+00
 5.6036690706e-01	 2.3457665534e+00	 1.7549963092e+00
 5.3920165923e-01	 2.3507218515e+00	 1.7750931534e+00
 5.1804748016e-01	 2.3554741136e+00	 1.7832629321e+00
 4.9690705358e-01	 2.3600243005e+00	 1.7803263438e+00
 4.7578303159e-01	 2.3643734159e+00	 1.7671416527e+00
 4.5467803390e-01	 2.3685225051e+00	 1.7446037176e+00
 4.3359464711e-01	 2.3724726541e+00	 1.7136431393e+00
 4.1253542408e-01	 2.3762249887e+00	 1.6752255046e+00
 6.2618416607e-01	 2.3381960624e+00	 1.6038556342e+00
 6.0492462972e-01	 2.3437861673e+00	 1.6622993813e+00
 5.8366793917e-01	 2.3491698675e+00	 1.7071339802e+00
 5.6241687855e-01	 2.3543479926e+00	 1.7391010758e+00
 5.4117420261e-01	 2.3593214186e+00	 1.7589787216e+00
 5.1994263591e-01	 2.3640910657e+00	 1.7675800624e+00
 4.9872487202e-01	 2.3686578984e+00	 1.7657522175e+00
 4.7752357273e-01	 2.3730229240e+00	 1.7543753253e+00
 4.5634136733e-01	 2.3771871917e+00	 1.7343617167e+00
 4.3518085189e-01	 2.3811517914e+00	 1.7066551912e+00
 4.1404458862e-01	 2.3849178530e+00	 1.6722303717e+00
 6.2846656308e-01	 2.3467186217e+00	 1.5908628748e+00
 6.0712953722e-01	 2.3523291022e+00	 1.6471838680e+00
 5.8579536754e-01	 2.3577324255e+00	 1.6905071269e+00
 5.6446684831e-01	 2.3629294246e+00	 1.7216023148e+00
 5.4314674432e-01	 2.3679209783e+00	 1.7412701913e+00
 5.2183779006e-01	 2.3727080104e+00	 1.7503415153e+00
 5.0054268891e-01	 2.3772914890e+00	 1.7496761319e+00
 4.7926411239e-01	 2.3816724248e+00	 1.7401622042e+00
 4.5800469934e-01	 2.3858518709e+00	 1.7227155570e+00
 4.3676705532e-01	 2.3898309212e+00	 1.6982791046e+00
 4.1555375187e-01	 2.3936107099e+00	 1.6678223420e+00
 6.3074896268e-01	 2.3552411907e+00	 1.5765452289e+00
 6.0933444722e-01	 2.3608720467e+00	 1.6306197135e+00
 5.8792279832e-01	 2.3662949932e+00	 1.6723716576e+00
 5.6651682039e-01	 2.3715108663e+00	 1.7025857928e+00
 5.4511928825e-01	 2.3765205478e+00	 1.7220724030e+00
 5.2373294635e-01	 2.3813249650e+00	 1.7316664760e+00
 5.0236050787e-01	 2.3859250893e+00	 1.7322270218e+00
 4.8100465402e-01	 2.3903219353e+00	 1.7246365179e+00
 4.5966803325e-01	 2.3945165599e+00	 1.7098004489e+00
 4.3835326056e-01	 2.3985100610e+00	 1.6886469107e+00
 4.1706291683e-01	 2.4023035767e+00	 1.6621262606e+00
 6.3303136939e-01	 2.3637637862e+00	 1.5609021137e+00
 6.1153936410e-01	 2.3694150178e+00	 1.6126401918e+00
 5.9005023573e-01	 2.3748575877e+00	 1.6527896537e+00
 5.6856679885e-01	 2.3800923347e+00	 1.6821374639e+00
 5.4709183834e-01	 2.3851201440e+00	 1.7014903683e+00
 5.2562810855e-01	 2.3899419463e+00	 1.7116743235e+00
 5.0417833249e-01	 2.3945587165e+00	 1.7135340742e+00
 4.8274520107e-01	 2.3989714728e+00	 1.7079328386e+00
 4.6133137233e-01	 2.4031812759e+00	 1.6957520686e+00
 4.3993947073e-01	 2.4071892278e+00	 1.6778912560e+00
 4.1857208649e-01	 2.4109964706e+00	 1.6552677631e+00
 6.3531378774e-01	 2.3722864252e+00	 1.5439333114e+00
 6.1374429222e-01	 2.3779580325e+00	 1.5932788063e+00
 5.9217768399e-01	 2.3834202258e+00	 1.6318233381e+00
 5.7061678778e-01	 2.3886738469e+00	 1.6603433787e+00
 5.4906439849e-01	 2.3937197842e+00	 1.6796291906e+00
 5.2752328041e-01	 2.3985589717e+00	 1.6904845617e+00
 5.0599616639e-01	 2.4031923878e+00	 1.6937266691e+00
 4.8448575701e-01	 2.4076210544e+00	 1.6901860316e+00
 4.6299471990e-01	 2.4118460362e+00	 1.6807065154e+00
 4.4152568900e-01	 2.4158684388e+00	 1.6661453659e+00
 4.2008126385e-01	 2.4196894088e+00	 1.6473732438e+00
 6.3759622226e-01	 2.3808091246e+00	 1.5256388332e+00
 6.1594923596e-01	 2.3865011078e+00	 1.5725691706e+00
 5.9430514733e-01	 2.3919829245e+00	 1.6095349693e+00
 5.7266679123e-01	 2.3972554198e+00	 1.6372895919e+00
 5.5103697261e-01	 2.4023194852e+00	 1.6565939855e+00
 5.2941846571e-01	 2.4071760580e+00	 1.6682167511e+00
 5.0781401316e-01	 2.4118261202e+00	 1.6729343212e+00
 4.8622632527e-01	 2.4162706973e+00	 1.6715312054e+00
 4.6465807926e-01	 2.4205108578e+00	 1.6648002677e+00
 4.4311191851e-01	 2.4245477113e+00	 1.6535430075e+00
 4.2159045190e-01	 2.4283824086e+00	 1.6385698232e+00
 6.3987867747e-01	 2.3893319012e+00	 1.5060187836e+00
 6.1815419969e-01	 2.3950442605e+00	 1.5505448882e+00
 5.9643262995e-01	 2.4005457009e+00	 1.5859867371e+00
 5.7471681326e-01	 2.4058370706e+00	 1.6130620714e+00
 5.5300956462e-01	 2.4109192643e+00	 1.6324898017e+00
 5.3131366818e-01	 2.4157932225e+00	 1.6449904401e+00
 5.0963187641e-01	 2.4204599309e+00	 1.6512866201e+00
 4.8796690932e-01	 2.4249204187e+00	 1.6521036606e+00
 4.6632145369e-01	 2.4291757579e+00	 1.6481701402e+00
 4.4469816239e-01	 2.4332270626e+00	 1.6402184516e+00
 4.2309965364e-01	 2.4370754872e+00	 1.6289853154e+00
 6.4216115791e-01	 2.3978547720e+00	 1.4850732254e+00
 6.2035918778e-01	 2.4035875076e+00	 1.5272394337e+00
 5.9856013608e-01	 2.4091085720e+00	 1.5612406577e+00
 5.7676685794e-01	 2.4144188162e+00	 1.5877466067e+00
 5.5498217842e-01	 2.4195191383e+00	 1.6074215411e+00
 5.3320889160e-01	 2.4244104823e+00	 1.6209250964e+00
 5.1144975975e-01	 2.4290938370e+00	 1.6289131716e+00
 4.8970751260e-01	 2.4335702356e+00	 1.6320388388e+00
 4.6798484651e-01	 2.4378407539e+00	 1.6309532394e+00
 4.4628442381e-01	 2.4419065097e+00	 1.6263064351e+00
 4.2460887205e-01	 2.4457686619e+00	 1.6187481954e+00
 6.4444366809e-01	 2.4063777539e+00	 1.4628020448e+00
 6.2256420462e-01	 2.4121308660e+00	 1.5026860338e+00
 6.0068766994e-01	 2.4176715546e+00	 1.5353584694e+00
 5.7881692935e-01	 2.4230006737e+00	 1.5614287174e+00
 5.5695481794e-01	 2.4281191245e+00	 1.5814938797e+00
 5.3510413971e-01	 2.4330278543e+00	 1.5961400378e+00
 5.1326766678e-01	 2.4377278557e+00	 1.6059435379e+00
 4.9144813856e-01	 2.4422201652e+00	 1.6114722719e+00
 4.6964826100e-01	 2.4465058627e+00	 1.6132869200e+00
 4.4787070589e-01	 2.4505860700e+00	 1.6119421232e+00
 4.2611811014e-01	 2.4544619498e+00	 1.6079875660e+00
 6.4672621255e-01	 2.4149008638e+00	 1.4392048177e+00
 6.2476925456e-01	 2.4206743528e+00	 1.4769175490e+00
 6.0281523574e-01	 2.4262346658e+00	 1.5084015280e+00
 5.8086703153e-01	 2.4315826600e+00	 1.5341935619e+00
 5.5892748707e-01	 2.4367192398e+00	 1.5548111876e+00
 5.3699941629e-01	 2.4416453558e+00	 1.5707543634e+00
 5.1508560111e-01	 2.4463620040e+00	 1.5825071781e+00
 4.9318879066e-01	 2.4508702248e+00	 1.5905395301e+00
 4.7131170048e-01	 2.4551711017e+00	 1.5953087403e+00
 4.4945701180e-01	 2.4592657606e+00	 1.5972610707e+00
 4.2762737088e-01	 2.4631553684e+00	 1.5968331243e+00
 4.1253542408e-01	 2.3762249887e+00	 1.6752255046e+00
 3.9149931087e-01	 2.3797812609e+00	 1.6348564560e+00
 3.7049237917e-01	 2.3831420173e+00	 1.5973976389e+00
 3.4951708351e-01	 2.3863084955e+00	 1.5637835617e+00
 3.2857584217e-01	 2.3892819685e+00	 1.5347012623e+00
 3.0767103664e-01	 2.3920637443e+00	 1.5097339522e+00
 2.8680501121e-01	 2.3946551640e+00	 1.4884743743e+00
 2.6598007245e-01	 2.3970576014e+00	 1.4705161395e+00
 2.4519848886e-01	 2.3992724614e+00	 1.4554459254e+00
 2.2446249046e-01	 2.4013011794e+00	 1.4428364892e+00
 2.0377426846e-01	 2.4031452201e+00	 1.4322404245e+00
 4.1404458862e-01	 2.3849178530e+00	 1.6722303717e+00
 3.9293151969e-01	 2.3884871350e+00	 1.6359382061e+00
 3.7184773904e-01	 2.3918601860e+00	 1.6019566010e+00
 3.5079571016e-01	 2.3950382479e+00	 1.5710128617e+00
 3.2977786017e-01	 2.3980225988e+00	 1.5438516386e+00
 3.0879657930e-01	 2.4008145510e+00	 1.5200658840e+00
 2.8785422038e-01	 2.4034154508e+00	 1.4992544427e+00
 2.6695309844e-01	 2.4058266769e+00	 1.4810180875e+00
 2.4609549028e-01	 2.4080496395e+00	 1.4649518107e+00
 2.2528363408e-01	 2.4100857791e+00	 1.4506379380e+00
 2.0451972904e-01	 2.4119365657e+00	 1.4376399939e+00
 4.1555375187e-01	 2.3936107099e+00	 1.6678223420e+00
 3.9436372730e-01	 2.3971930017e+00	 1.6355600055e+00
 3.7320309775e-01	 2.4005783472e+00	 1.6050164168e+00
 3.5207433572e-01	 2.4037679930e+00	 1.5767325006e+00
 3.3097987716e-01	 2.4067632215e+00	 1.5514735349e+00
 3.0992212099e-01	 2.4095653503e+00	 1.5288530387e+00
 2.8890342866e-01	 2.4121757302e+00	 1.5084803393e+00
 2.6792612361e-01	 2.4145957450e+00	 1.4899680806e+00
 2.4699249095e-01	 2.4168268101e+00	 1.4729245990e+00
 2.2610477700e-01	 2.4188703713e+00	 1.4569471328e+00
 2.0526518900e-01	 2.4207279040e+00	 1.4416157903e+00
 4.1706291683e-01	 2.4023035767e+00	 1.6621262606e+00
 3.9579593653e-01	 2.4058988783e+00	 1.6338400777e+00
 3.7455845801e-01	 2.4092965183e+00	 1.6066936886e+00
 3.5335296273e-01	 2.4124977479e+00	 1.5810631139e+00
 3.3218189550e-01	 2.4155038542e+00	 1.5576995977e+00
 3.1104766397e-01	 2.4183161594e+00	 1.5362458523e+00
 2.8995263813e-01	 2.4209360195e+00	 1.5163259848e+00
 2.6889914988e-01	 2.4233648231e+00	 1.4975691299e+00
 2.4788949262e-01	 2.4256039907e+00	 1.4796019050e+00
 2.2692592085e-01	 2.4276549735e+00	 1.4620417083e+00
 2.0601064979e-01	 2.4295192521e+00	 1.4444907845e+00
 4.1857208649e-01	 2.4109964706e+00	 1.6552677631e+00
 3.9722815022e-01	 2.4146047820e+00	 1.6308975707e+00
 3.7591382248e-01	 2.4180147166e+00	 1.6071059709e+00
 3.5463159372e-01	 2.4212275301e+00	 1.5841257465e+00
 3.3338391759e-01	 2.4242445142e+00	 1.5626624830e+00
 3.1217321045e-01	 2.4270669959e+00	 1.5423943016e+00
 2.9100185087e-01	 2.4296963361e+00	 1.5229643028e+00
 2.6987217919e-01	 2.4321339285e+00	 1.5040226435e+00
 2.4878649710e-01	 2.4343811987e+00	 1.4852190662e+00
 2.2774706725e-01	 2.4364396031e+00	 1.4661962807e+00
 2.0675611291e-01	 2.4383106277e+00	 1.4465841202e+00
 4.2008126385e-01	 2.4196894088e+00	 1.6473732438e+00
 3.9866037122e-01	 2.4233107301e+00	 1.6268525296e+00
 3.7726919388e-01	 2.4267329594e+00	 1.6063717503e+00
 3.5591023124e-01	 2.4299573567e+00	 1.5860418810e+00
 3.3458594582e-01	 2.4329852187e+00	 1.5664948871e+00
 3.1329876267e-01	 2.4358178770e+00	 1.5474479399e+00
 2.9205106896e-01	 2.4384566973e+00	 1.5285672624e+00
 2.7084521345e-01	 2.4409030786e+00	 1.5095284773e+00
 2.4968350615e-01	 2.4431584514e+00	 1.4900092041e+00
 2.2856821785e-01	 2.4452242775e+00	 1.4696825191e+00
 2.0750157984e-01	 2.4471020481e+00	 1.4482111967e+00
 4.2159045190e-01	 2.4283824086e+00	 1.6385698232e+00
 4.0009260236e-01	 2.4320167399e+00	 1.6218258696e+00
 3.7862457487e-01	 2.4354512639e+00	 1.6046104237e+00
 3.5718887781e-01	 2.4386872453e+00	 1.5869334636e+00
 3.3578798255e-01	 2.4417259852e+00	 1.5693295779e+00
 3.1442432287e-01	 2.4445688201e+00	 1.5515559329e+00
 2.9310029448e-01	 2.4472171207e+00	 1.5333059206e+00
 2.7181825461e-01	 2.4496722908e+00	 1.5142849849e+00
 2.5058052155e-01	 2.4519357663e+00	 1.4942032824e+00
 2.2938937426e-01	 2.4540090141e+00	 1.4727692149e+00
 2.0824705204e-01	 2.4558935309e+00	 1.4496837515e+00
 4.2309965364e-01	 2.4370754872e+00	 1.6289853154e+00
 4.0152484649e-01	 2.4407228286e+00	 1.6159393482e+00
 3.7997996815e-01	 2.4441696475e+00	 1.6019422773e+00
 3.5846753598e-01	 2.4474172129e+00	 1.5869229318e+00
 3.3699003019e-01	 2.4504668309e+00	 1.5712994241e+00
 3.1554989327e-01	 2.4533198425e+00	 1.5548670933e+00
 2.9414952952e-01	 2.4559776234e+00	 1.5373504630e+00
 2.7279130460e-01	 2.4584415825e+00	 1.5184890665e+00
 2.5147754509e-01	 2.4607131608e+00	 1.4980301653e+00
 2.3021053812e-01	 2.4627938304e+00	 1.4757223505e+00
 2.0899253100e-01	 2.4646850933e+00	 1.4513099401e+00
 4.2460887205e-01	 2.4457686619e+00	 1.6187481954e+00
 4.0295710645e-01	 2.4494290136e+00	 1.6093155373e+00
 3.8133537641e-01	 2.4528881274e+00	 1.5984884643e+00
 3.5974620828e-01	 2.4561472771e+00	 1.5861332401e+00
 3.3819209111e-01	 2.4592077732e+00	 1.5725374255e+00
 3.1667547611e-01	 2.4620709616e+00	 1.5575299153e+00
 2.9519877615e-01	 2.4647382230e+00	 1.5408702448e+00
 2.7376436533e-01	 2.4672109712e+00	 1.5223362167e+00
 2.5237457853e-01	 2.4694906523e+00	 1.5017166743e+00
 2.3103171105e-01	 2.4715787437e+00	 1.4788051660e+00
 2.0973801820e-01	 2.4734767528e+00	 1.4533944140e+00
 4.2611811014e-01	 2.4544619498e+00	 1.6079875660e+00
 4.0438938508e-01	 2.4581353120e+00	 1.6020777954e+00
 3.8269080233e-01	 2.4616067209e+00	 1.5943709834e+00
 3.6102489724e-01	 2.4648774550e+00	 1.5846878861e+00
 3.3939416770e-01	 2.4679488294e+00	 1.5731767416e+00
 3.1780107362e-01	 2.4708221948e+00	 1.5596926083e+00
 2.9624803646e-01	 2.4734989368e+00	 1.5440338297e+00
 2.7473743875e-01	 2.4759804741e+00	 1.5260205714e+00
 2.5327162367e-01	 2.4782682582e+00	 1.5054876434e+00
 2.3185289468e-01	 2.4803637715e+00	 1.4822782247e+00
 2.1048351511e-01	 2.4822685270e+00	 1.4562383980e+00
 4.2762737088e-01	 2.4631553684e+00	 1.5968331243e+00
 4.0582168521e-01	 2.4668417411e+00	 1.5943502388e+00
 3.8404624861e-01	 2.4703254454e+00	 1.5897126559e+00
 3.6230360541e-01	 2.4736077640e+00	 1.5827109361e+00
 3.4059626234e-01	 2.4766900169e+00	 1.5733507208e+00
 3.1892668803e-01	 2.4795735594e+00	 1.5615031299e+00
 2.9729731252e-01	 2.4822597821e+00	 1.5470090296e+00
 2.7571052678e-01	 2.4847501087e+00	 1.5297349541e+00
 2.5416868228e-01	 2.4870459959e+00	 1.5095659743e+00
 2.3267409065e-01	 2.4891489313e+00	 1.4863994773e+00
 2.1122902322e-01	 2.4910604332e+00	 1.4601397648e+00
 2.0377426846e-01	 2.4031452201e+00	 1.4322404245e+00
 1.8313947057e-01	 2.4048058091e+00	 1.4195473187e+00
 1.6255664758e-01	 2.4062847945e+00	 1.4007240246e+00
 1.4202782445e-01	 2.4075837209e+00	 1.3754814743e+00
 1.2155498752e-01	 2.4087041578e+00	 1.3435998939e+00
 1.0114008431e-01	 2.4096476990e+00	 1.3049223822e+00
 8.0785023340e-02	 2.4104159608e+00	 1.2593487909e+00
 6.0491674005e-02	 2.4110105817e+00	 1.2068298574e+00
 4.0261866415e-02	 2.4114332208e+00	 1.1473615425e+00
 2.0097391313e-02	 2.4116855573e+00	 1.0809795308e+00
 0.0000000000e+00	 2.4117692892e+00	 1.0077538514e+00
 2.0451972904e-01	 2.4119365657e+00	 1.4376399939e+00
 1.8380944356e-01	 2.4136032297e+00	 1.4225458511e+00
 1.6315132313e-01	 2.4150876256e+00	 1.4019884129e+00
 1.4254740009e-01	 2.4163913038e+00	 1.3756442222e+00
 1.2199966806e-01	 2.4175158396e+00	 1.3432599963e+00
 1.0151008169e-01	 2.4184628325e+00	 1.3046464018e+00
 8.1080556488e-02	 2.4192339048e+00	 1.2596721273e+00
 6.0712968673e-02	 2.4198307010e+00	 1.2082582011e+00
 4.0409155054e-02	 2.4202548862e+00	 1.1503725078e+00
 2.0170912927e-02	 2.4205081459e+00	 1.0860244575e+00
 0.0000000000e+00	 2.4205921840e+00	 1.0152597657e+00
 2.0526518900e-01	 2.4207279040e+00	 1.4416157903e+00
 1.8447941599e-01	 2.4224006428e+00	 1.4242051712e+00
 1.6374599816e-01	 2.4238904492e+00	 1.4020141169e+00
 1.4306697529e-01	 2.4251988792e+00	 1.3747054044e+00
 1.2244434823e-01	 2.4263275139e+00	 1.3420097356e+00
 1.0188007876e-01	 2.4272779585e+00	 1.3037197674e+00
 8.1376089384e-02	 2.4280518413e+00	 1.2596844379e+00
 6.0934263151e-02	 2.4286508127e+00	 1.2098035337e+00
 4.0556443568e-02	 2.4290765441e+00	 1.1540224507e+00
 2.0244434479e-02	 2.4293307269e+00	 1.0923270993e+00
 0.0000000000e+00	 2.4294150713e+00	 1.0247389137e+00
 2.0601064979e-01	 2.4295192521e+00	 1.4444907845e+00
 1.8514938917e-01	 2.4311980659e+00	 1.4248786830e+00
 1.6434067388e-01	 2.4326932828e+00	 1.4011498218e+00
 1.4358655107e-01	 2.4340064646e+00	 1.3729736819e+00
 1.2288902890e-01	 2.4351391981e+00	 1.3400823111e+00
 1.0225007625e-01	 2.4360930945e+00	 1.3022646694e+00
 8.1671622614e-02	 2.4368697878e+00	 1.2593612693e+00
 6.1155557880e-02	 2.4374709345e+00	 1.2112590574e+00
 4.0703732248e-02	 2.4378982120e+00	 1.1578864833e+00
 2.0317956114e-02	 2.4381533179e+00	 1.0992087098e+00
 0.0000000000e+00	 2.4382379687e+00	 1.0352229191e+00
 2.0675611291e-01	 2.4383106277e+00	 1.4465841202e+00
 1.8581936445e-01	 2.4399955163e+00	 1.4249153770e+00
 1.6493535144e-01	 2.4414961438e+00	 1.3997397273e+00
 1.4410612847e-01	 2.4428140775e+00	 1.3707536722e+00
 1.2333371095e-01	 2.4439509099e+00	 1.3377078360e+00
 1.0262007490e-01	 2.4449082579e+00	 1.3004016846e+00
 8.1967156765e-02	 2.4456877618e+00	 1.2586785430e+00
 6.1376853298e-02	 2.4462910838e+00	 1.2124208522e+00
 4.0851021386e-02	 2.4467199074e+00	 1.1615456133e+00
 2.0391477977e-02	 2.4469759364e+00	 1.1059999695e+00
 0.0000000000e+00	 2.4470608935e+00	 1.0457568772e+00
 2.0750157984e-01	 2.4471020481e+00	 1.4482111967e+00
 1.8648934314e-01	 2.4487930117e+00	 1.4246599222e+00
 1.6553003204e-01	 2.4502990498e+00	 1.3981236386e+00
 1.4462570852e-01	 2.4516217353e+00	 1.3683460313e+00
 1.2377839527e-01	 2.4527626665e+00	 1.3351134002e+00
 1.0299007542e-01	 2.4537234664e+00	 1.2982498119e+00
 8.2262692423e-02	 2.4545057808e+00	 1.2576125530e+00
 6.1598149844e-02	 2.4551112780e+00	 1.2130878274e+00
 4.0998311275e-02	 2.4555416478e+00	 1.1645866402e+00
 2.0465000216e-02	 2.4557985999e+00	 1.1120408174e+00
 0.0000000000e+00	 2.4558838633e+00	 1.0553991116e+00
 2.0824705204e-01	 2.4558935309e+00	 1.4496837515e+00
 1.8715932657e-01	 2.4575905694e+00	 1.4244527566e+00
 1.6612471684e-01	 2.4591020180e+00	 1.3966370566e+00
 1.4514529225e-01	 2.4604294554e+00	 1.3660475332e+00
 1.2422308274e-01	 2.4615744856e+00	 1.3325231322e+00
 1.0336007857e-01	 2.4625387372e+00	 1.2959265056e+00
 8.2558230173e-02	 2.4633238622e+00	 1.2561399635e+00
 6.1819447957e-02	 2.4639315348e+00	 1.2130616743e+00
 4.1145602207e-02	 2.4643634507e+00	 1.1666020529e+00
 2.0538522974e-02	 2.4646213259e+00	 1.1166802852e+00
 0.0000000000e+00	 2.4647068957e+00	 1.0632209367e+00
 2.0899253100e-01	 2.4646850933e+00	 1.4513099401e+00
 1.8782931608e-01	 2.4663882068e+00	 1.4246301748e+00
 1.6671940704e-01	 2.4679050661e+00	 1.3956112644e+00
 1.4566488070e-01	 2.4692372555e+00	 1.3641511489e+00
 1.2466777424e-01	 2.4703863846e+00	 1.3301582591e+00
 1.0373008508e-01	 2.4713540880e+00	 1.2935477091e+00
 8.2853770602e-02	 2.4721420236e+00	 1.2542378068e+00
 6.2040748075e-02	 2.4727518715e+00	 1.2121468192e+00
 4.1292894474e-02	 2.4731853336e+00	 1.1671899302e+00
 2.0612046399e-02	 2.4734441320e+00	 1.1192763362e+00
 0.0000000000e+00	 2.4735300080e+00	 1.0683064253e+00
 2.0973801820e-01	 2.4734767528e+00	 1.4533944140e+00
 1.8849931299e-01	 2.4751859415e+00	 1.4255244145e+00
 1.6731410382e-01	 2.4767082115e+00	 1.3953734141e+00
 1.4618447488e-01	 2.4780451528e+00	 1.3629461220e+00
 1.2511247065e-01	 2.4791983810e+00	 1.3282371652e+00
 1.0410009566e-01	 2.4801695363e+00	 1.2912278878e+00
 8.3149314295e-02	 2.4809602824e+00	 1.2518834814e+00
 6.2262050637e-02	 2.4815723057e+00	 1.2101503783e+00
 4.1440188367e-02	 2.4820073140e+00	 1.1659538433e+00
 2.0685570636e-02	 2.4822670355e+00	 1.1191957066e+00
 0.0000000000e+00	 2.4823532178e+00	 1.0697521813e+00
 2.1048351511e-01	 2.4822685270e+00	 1.4562383980e+00
 1.8916931864e-01	 2.4839837908e+00	 1.4274637410e+00
 1.6790880834e-01	 2.4855114716e+00	 1.3962466096e+00
 1.4670407583e-01	 2.4868531650e+00	 1.3627180445e+00
 1.2555717286e-01	 2.4880104922e+00	 1.3269754502e+00
 1.0447011108e-01	 2.4889850994e+00	 1.2890800608e+00
 8.3444861838e-02	 2.4897786561e+00	 1.2490547496e+00
 6.2483356083e-02	 2.4903928548e+00	 1.2068821130e+00
 4.1587484179e-02	 2.4908294093e+00	 1.1625027606e+00
 2.0759095830e-02	 2.4910900540e+00	 1.1158137514e+00
 0.0000000000e+00	 2.4911765427e+00	 1.0666671173e+00
 2.1122902322e-01	 2.4910604332e+00	 1.4601397648e+00
 1.8983933434e-01	 2.4927817722e+00	 1.4307725297e+00
 1.6850352179e-01	 2.4943148639e+00	 1.3985499894e+00
 1.4722368459e-01	 2.4956613094e+00	 1.3637489295e+00
 1.2600188175e-01	 2.4968227358e+00	 1.3265859855e+00
 1.0484013204e-01	 2.4978007949e+00	 1.2872158326e+00
 8.3740413818e-02	 2.4985971623e+00	 1.2457297359e+00
 6.2704664850e-02	 2.4992135364e+00	 1.2021543863e+00
 4.1734782201e-02	 2.4996516371e+00	 1.1564509539e+00
 2.0832622128e-02	 2.4999132050e+00	 1.1085142925e+00
 0.0000000000e+00	 2.5000000000e+00	 1.0581722369e+00
